	roi	task	n_boot	func	loc	loc_deg	kappa1	scale1	kappa2	scale2	maxr	minr	amp	fwhm	nearest_dist_bin	roi_labels
0	1.0	ltm	0	diff_vonmises	-0.0790325380678449	-4.528230875494531	8.30774337004657	0.5263580322126691	0.1803397711775368	4.381758982137363	-0.2330266718617004	-0.7498993322658104	0.51687266040411	43.892731719776776	near	V1
1	2.0	ltm	0	diff_vonmises	0.0241481667445635	1.3835880374416627	2.340652138382457	1.9852926621823768	0.6396985433675488	3.471653195005916	0.1773294819401101	-0.3965508654856261	0.5738803474257362	70.36305586381178	near	V2
2	3.0	ltm	0	diff_vonmises	0.0107961394658524	0.6185732264279682	4.127778591511691	0.7595270745957188	0.2363747958772372	1.427417850806044	0.3102258207149167	-0.2149973437434145	0.5252231644583313	63.288238496430296	near	V3
3	4.0	ltm	0	diff_vonmises	-0.0541565791739155	-3.102943419531454	1.4826383225498303	5.595893278887568	0.737662773779619	7.157440705270646	0.318722728079118	-0.4566367671861606	0.7753594952652787	81.92521809843427	near	V4
4	5.0	ltm	0	diff_vonmises	-0.0604632049309891	-3.464286458380265	2.3871634396096426	1.1053971154828506	1.3133436098718814e-19	1.9574032879513952	0.3223972367475456	-0.3061768331912797	0.6285740699388254	89.01833378745553	near	V3ab
5	6.0	ltm	0	diff_vonmises	0.2756364468242869	15.792805083013786	0.8068764626800542	90.98642131346888	0.7910876069419055	91.46519490228398	0.1297756981188094	-0.1587416847256708	0.2885173828444802	97.46554140866353	near	IPS0
6	7.0	ltm	0	diff_vonmises	0.0191189655257242	1.0954360332801192	0.4461125982636939	82.07628657392351	0.428130376332565	82.91258447038618	0.0776606423667161	-0.2585245889543168	0.3361852313210329	126.89646545286352	near	LO1
0	1.0	ltm	1	diff_vonmises	-0.0482726786920652	-2.765820754846437	15.549764051313696	0.2932359635869983	0.0716352495456472	3.239667758429721	-0.0957636605074566	-0.5375715173272538	0.4418078568197972	33.685186758214655	near	V1
1	2.0	ltm	1	diff_vonmises	0.1634631313226337	9.36574753077964	7.953849795657735	0.5802039793449274	0.4009060799436802	1.5667232485167704	0.283974197878695	-0.2810834674001216	0.5650576652788166	45.21123288448271	near	V2
2	3.0	ltm	1	diff_vonmises	0.1044452648906543	5.984272868360411	2.024745993438936	51.86661815186804	1.980129813763361	52.16953164301126	0.2052597283347097	-0.1561921106425075	0.3614518389772172	62.25923974025966	near	V3
3	4.0	ltm	1	diff_vonmises	0.0254962214226213	1.4608258810472388	1.322407598576665	248.77733054196463	1.3073795683965337	249.9955885686342	0.1919185006703969	-0.354594645482944	0.546513146153341	73.43599941595738	near	V4
4	5.0	ltm	1	diff_vonmises	-0.1306900826234104	-7.487990158537433	2.353692752989065	0.7304127378820218	4.1220306674113755e-17	1.632525586721456	0.1555640568129556	-0.2560736025123485	0.4116376593253041	89.63574274871846	near	V3ab
5	6.0	ltm	1	diff_vonmises	0.5560850940909307	31.8613289415456	0.945493844768827	108.02283653559562	0.930534659131059	108.8643059637806	0.0306640135051523	-0.198939450353345	0.2296034638584974	84.09590633929338	near	IPS0
6	7.0	ltm	1	diff_vonmises	0.1390298847895354	7.96582562463046	3.767640695052276	0.3784507143352181	1.1085476336895645e-16	1.2966223686581184	0.0752219317230226	-0.2062135173412571	0.2814354490642797	70.59552710512696	near	LO1
0	1.0	ltm	2	diff_vonmises	0.2513588271045717	14.401799936450525	0.7574932906544457	100.04778373555324	0.7355413928720573	102.19491501817792	-0.2063175855580716	-0.4065954216661076	0.2002778361080359	82.91145227994605	near	V1
1	2.0	ltm	2	diff_vonmises	0.0193759565588766	1.1101605348524566	12.6283289107895	0.3703325138390931	0.2626206771468008	1.4671890072309306	0.2211398812500443	-0.2660365749439999	0.4871764561940443	36.849378866682855	near	V2
2	3.0	ltm	2	diff_vonmises	-0.0562705449762596	-3.2240647380407528	1.5133571662935392	31.62333492064494	1.452991446909386	32.00052816003861	0.1748331693326452	-0.1496907048850411	0.3245238742176863	72.09090450370243	near	V3
3	4.0	ltm	2	diff_vonmises	-0.2347613270310637	-13.450833231770442	1.1184081146231546	97.80018111796048	1.09256252501002	99.0747133436718	0.015164776093627	-0.3005665802575539	0.315731356351181	76.15226912602549	near	V4
4	5.0	ltm	2	diff_vonmises	-0.0302743596102732	-1.7345930331299817	2.823331916995351	0.872275987641784	0.010930571302548	1.507364868166761	0.3092272919977038	-0.235342062179811	0.5445693541775148	81.37995562064685	near	V3ab
5	6.0	ltm	2	diff_vonmises	0.250589311954557	14.357709966083304	0.5763803709278206	132.42841674162025	0.5661151501227989	132.92769219004583	0.1271213509723736	-0.1854882829819697	0.3126096339543434	115.4193899697311	near	IPS0
6	7.0	ltm	2	diff_vonmises	-0.0614547372737973	-3.521097076873893	1.247156032436926	181.73567947162277	1.2333616397350926	182.7500786228672	0.0693604773822613	-0.2637929358163404	0.3331534131986018	73.65460898227192	near	LO1
0	1.0	ltm	3	diff_vonmises	-0.4828818363072299	-27.667091223931354	0.0003074950304796	1676.5932413829698	5.304720944139503e-29	1679.9473391745537	-0.4517649313672791	-0.6158649405757046	0.1641000092084255	173.43040005339972	near	V1
1	2.0	ltm	3	diff_vonmises	0.0278074251962732	1.5932481028722028	15.966769808353348	0.2964902693817053	0.0199663234560232	2.0924002698975728	0.1289430806385489	-0.3363088203071435	0.4652519009456924	33.7567852726518	near	V2
2	3.0	ltm	3	diff_vonmises	0.0881110030472833	5.04838860327367	6.0724977107958855	0.3583044129316282	0.0052589735199045	1.10311993798082	0.1678492888732152	-0.1751626077384273	0.3430118966116425	55.15807830742645	near	V3
3	4.0	ltm	3	diff_vonmises	-0.1637089192464664	-9.37983014147054	0.8152897372117883	44.91303190733962	0.7545628658529725	47.13704593151486	-0.1352015117210374	-0.4469171555274887	0.3117156438064512	85.53833198014549	near	V4
4	5.0	ltm	3	diff_vonmises	-0.0922975674825111	-5.2882610760717945	2.544136921207628	0.8190708642674648	1.3526010576139015e-17	2.026599584711991	0.1651516895971456	-0.3195347235991219	0.4846864131962676	86.23246352802752	near	V3ab
5	6.0	ltm	3	diff_vonmises	0.2808131836515042	16.089410254863278	0.8009111894978302	137.48390729075018	0.7878736841212766	138.37321272946423	0.0743341225062579	-0.2260545196809253	0.3003886421871833	93.65522018969048	near	IPS0
6	7.0	ltm	3	diff_vonmises	0.115403462181932	6.6121313242223145	1.1644385809323183	194.00240805220923	1.1489987482048618	195.5761716085616	-0.0250796202584098	-0.3643013951390372	0.3392217748806274	73.0685369355947	near	LO1
0	1.0	ltm	4	diff_vonmises	-0.00656875532418	-0.3763619567296046	5.198451383664871	0.2443429069557562	4.630726089720884e-17	0.9087451680620512	0.0716578813272554	-0.1446246813921277	0.2162825627193831	59.86083187435207	near	V1
1	2.0	ltm	4	diff_vonmises	0.1363126115692418	7.810137337323712	5.980055588726455	0.8771591088629547	2.1718627205520518	1.072843423678126	0.2545612232172678	-0.1689906110558197	0.4235518342730875	44.23548682902822	near	V2
2	3.0	ltm	4	diff_vonmises	-2.522941021782465	-144.55387250855875	2.299480591448124	5.432122499918456	2.183084175600315	5.262502527706938	0.185248182197339	-0.0168594652858806	0.2021076474832197	45.7050318116136	near	V3
3	4.0	ltm	4	diff_vonmises	0.0363597501672675	2.0832602287345217	2.060946774216711	101.81681840683213	2.0406611863629096	102.25082670858748	0.0914658669452279	-0.1635604717645975	0.2550263387098255	58.514809995414936	near	V4
4	5.0	ltm	4	diff_vonmises	0.0143106739284847	0.8199412180900799	2.659952387795568	0.7051747275675845	0.1481035349162815	0.6966585569070333	0.3030674150569064	-0.0948057123821056	0.397873127439012	81.09243260720697	near	V3ab
5	6.0	ltm	4	diff_vonmises	0.3696705420076646	21.180561867352782	0.7200616955111495	63.86468571518178	0.7071917538365371	63.910634969951225	0.1436094221254258	-0.0788547883184644	0.2224642104438903	109.44483369890544	near	IPS0
6	7.0	ltm	4	diff_vonmises	-0.0398479960497752	-2.2831219957060958	1.318751579741594	106.9364742015698	1.3041292632187416	107.2502561778282	0.1587040032963784	-0.1258378704226732	0.2845418737190517	77.23831616834411	near	LO1
0	1.0	ltm	5	diff_vonmises	0.0221172511014317	1.2672251425431098	6.616251276028324	0.2757554211902245	0.101551034204077	1.6885874230587792	-0.0195343098266228	-0.2740281577633029	0.2544938479366801	50.57313802139774	near	V1
1	2.0	ltm	5	diff_vonmises	0.10911767958655	6.251982510570137	5.027043342335182	0.6749526247759801	0.8355590098157852	1.2475819031181548	0.1996438490786961	-0.2078446395671982	0.4074884886458944	52.19730009126423	near	V2
2	3.0	ltm	5	diff_vonmises	0.0403607953091468	2.3125032290055265	2.278310400965216	70.23925637097796	2.2500595457536776	70.34849107296111	0.2298525280461376	-0.1119027845015541	0.3417553125476917	60.380429281951535	near	V3
3	4.0	ltm	5	diff_vonmises	-0.1361618219907071	-7.8014977308791185	1.5646982460697876	166.92794803287774	1.5493654115331947	167.67685030363162	0.1115322157215672	-0.2304821385003173	0.3420143542218845	66.95406123019052	near	V4
4	5.0	ltm	5	diff_vonmises	-0.038069448907769	-2.181218750804085	3.005894064766317	0.7331371829857357	3.7618541672389044e-14	1.0960761435971205	0.3062581091835021	-0.1732683182857537	0.4795264274692558	79.25611917000438	near	V3ab
5	6.0	ltm	5	diff_vonmises	0.0834690986451478	4.782427072128109	0.7942141225567633	64.82945825212825	0.7757686001151295	65.10946177990068	0.1446371527786354	-0.1232772670845356	0.2679144198631711	100.70316318905115	near	IPS0
6	7.0	ltm	5	diff_vonmises	-0.1346809353136865	-7.716649174348684	1.1857023927819907	123.88813710151554	1.1692712545120716	124.57715114258372	0.1199355805081765	-0.1988433300517051	0.3187789105598817	78.17138995081561	near	LO1
0	1.0	ltm	6	diff_vonmises	0.0267759563936764	1.5341492937839938	5.380062811342746	0.3487982798855434	0.1941921765062347	2.494215907869159	-0.163124588764607	-0.4128655753690947	0.2497409866044877	52.6432037281437	near	V1
1	2.0	ltm	6	diff_vonmises	-0.0178544863157205	-1.0229867112648694	11.534873174834283	0.44298708811421	0.4014938441671976	1.445258854894332	0.2632176493770859	-0.2764648378105941	0.5396824871876801	38.010592441322245	near	V2
2	3.0	ltm	6	diff_vonmises	-1.1710236214008238	-67.0947112163928	0.00010947555424	11985.484445810393	2.3106634740513826e-33	11985.593476945796	0.1914825801466122	-0.2261768376208692	0.4176594177674815	144.4320938273914	near	V3
3	4.0	ltm	6	diff_vonmises	-0.2435381789321445	-13.95370980311374	1.2579065322472796	86.54060622298148	1.2272901465896766	87.52853552774111	0.1066980133809423	-0.2684426921516927	0.375140705532635	74.61725928988312	near	V4
4	5.0	ltm	6	diff_vonmises	-0.0136822250303651	-0.7839337485881749	2.63548785341602	1.1913468090533974	0.2616741938491395	1.6369411088499222	0.39140708626764	-0.2132412270171221	0.6046483132847621	77.91311587172191	near	V3ab
5	6.0	ltm	6	diff_vonmises	0.2979242375785224	17.069801427902174	0.3725458124475901	95.41104732921195	0.3609661597599217	95.73535923204189	0.1294557769196416	-0.1739448570889177	0.3034006340085593	137.02463232812048	near	IPS0
6	7.0	ltm	6	diff_vonmises	-0.0913730748794383	-5.235291551724662	1.3647603139987174	122.9842895253678	1.34812772344336	123.6127320478522	0.112831236179737	-0.188807977852111	0.301639214031848	72.6037018593488	near	LO1
0	1.0	ltm	7	diff_vonmises	0.0615882510939622	3.528746855276011	10.95203107284905	0.4019092998036181	0.1114592391823065	2.9395447617154904	0.0027193187800743	-0.4922683665170531	0.4949876852971274	39.74339458758124	near	V1
1	2.0	ltm	7	diff_vonmises	0.1489094508200882	8.531883061601953	4.381611761870948	0.8240395483570183	0.5815982558523736	1.6717674953128725	0.2274807941916295	-0.2616314179004623	0.4891122120920918	57.03485194445372	near	V2
2	3.0	ltm	7	diff_vonmises	0.0518805128347824	2.972534424407335	1.8984726678316572	113.2784995862308	1.8713666092472483	113.78550203637263	0.2409370877143359	-0.2222129192783981	0.4631500069927341	63.406815338999365	near	V3
3	4.0	ltm	7	diff_vonmises	-0.1122461216508934	-6.4312290373082055	1.288824236049354	269.2753893989192	1.2757240488497343	270.5154018628656	0.1557348897996462	-0.3465073541466736	0.5022422439463199	73.78273748256458	near	V4
4	5.0	ltm	7	diff_vonmises	-0.1159711490414875	-6.644657385359879	2.162040438957047	0.9263135949116912	9.581887961537376e-20	1.790699674325475	0.2158034868001184	-0.2783646680298147	0.4941681548299331	93.44281451879144	near	V3ab
5	6.0	ltm	7	diff_vonmises	0.1219569589467576	6.98761902989946	0.7027559595685111	72.33138858702544	0.6815073754532645	73.07674785202558	0.0833656207244004	-0.2036909646756388	0.2870565854000393	101.63020051673963	near	IPS0
6	7.0	ltm	7	diff_vonmises	-0.1537787404695636	-8.810872807743626	2.097050356437536	0.6870469277558322	6.186749118500985e-11	2.040966884781298	0.0398786344406235	-0.3193284681573957	0.3592071025980192	94.81762735006298	near	LO1
0	1.0	ltm	8	diff_vonmises	-0.2375984201194517	-13.613386691820809	9.959441592811	0.1370277715726538	5.093123668259467e-24	2.56244952733291	-0.2376189446509083	-0.4078265083178832	0.1702075636669748	43.01362455511688	near	V1
1	2.0	ltm	8	diff_vonmises	0.0160251770705399	0.9181750120917584	9.724717792620638	0.3690722160110926	0.1405933929941673	1.5462492822271707	0.1711007314394864	-0.2592202981019067	0.4303210295413931	42.32122238053529	near	V2
2	3.0	ltm	8	diff_vonmises	0.0234782384751868	1.3452039750298732	3.079598587277592	0.9744891980283584	0.951723062419154	1.2683404192961172	0.2259990195555868	-0.1422689438467456	0.3682679634023325	63.72585355898824	near	V3
3	4.0	ltm	8	diff_vonmises	-0.0673083870065166	-3.856486501306591	1.3249786137259183	195.81557871703328	1.3084432284926857	197.00450636087743	0.1124635772277713	-0.3242980885883888	0.4367616658161601	72.04501472573185	near	V4
4	5.0	ltm	8	diff_vonmises	-0.0827743520165025	-4.7426210224757925	3.078505630165896	0.7436003955892831	2.2057288021609333e-22	1.672121340966017	0.2280941131274241	-0.2650792683028356	0.4931733814302597	78.29631851969836	near	V3ab
5	6.0	ltm	8	diff_vonmises	0.1628164782316497	9.328697037857172	0.7117377983723477	121.84992904350268	0.7003976206958247	122.59721038757247	0.0507340453417981	-0.1884836052019096	0.2392176505437078	99.06282748304976	near	IPS0
6	7.0	ltm	8	diff_vonmises	0.0105859776231512	0.6065318398264954	1.2012380041762898	156.8270393408083	1.1872542400165742	157.69801079129385	0.0772588206454614	-0.2291985630295769	0.3064573836750384	75.71024463480208	near	LO1
0	1.0	ltm	9	diff_vonmises	0.0275553092680084	1.5788029242346049	8.359118227621037	0.3126102917762446	2.5214588607440642e-18	1.0360349798958142	0.1898839705356107	-0.1648900687900631	0.3547740393256739	47.00365973717001	near	V1
1	2.0	ltm	9	diff_vonmises	0.1825844077871265	10.461315971097912	2.757532573830209	28.057628419078	2.651796802932692	28.229273037743667	0.2878281960405608	-0.1634108918094039	0.4512390878499648	54.51983958768744	near	V2
2	3.0	ltm	9	diff_vonmises	0.0345771454202083	1.9811245001880395	2.496092652342528	88.45062294659756	2.474424087798785	88.48325509591533	0.247231290191749	-0.0965575199432464	0.3437888101349955	58.544702833208135	near	V3
3	4.0	ltm	9	diff_vonmises	-0.0083491394608937	-0.4783704536753455	1.9547813696229983	156.08494191640182	1.9385918725908355	156.40610637369082	0.2364294738656411	-0.1694962325759874	0.4059257064416286	63.43600944337183	near	V4
4	5.0	ltm	9	diff_vonmises	0.0011158998172969	0.0639363498905374	1.9848429224381925	0.8897435262330485	4.934570894433903e-13	0.8434063351395578	0.3226663692032754	-0.1256063102474581	0.4482726794507335	97.37114153916258	near	V3ab
5	6.0	ltm	9	diff_vonmises	0.2752917656306025	15.773056305338136	0.8178017925508853	41.98792796210192	0.796990404793501	41.97938519032235	0.1694510647895359	-0.0726865224779298	0.2421375872674658	104.46721233968223	near	IPS0
6	7.0	ltm	9	diff_vonmises	-0.1159542178601248	-6.643687300125627	0.6830060265988278	13.84374318265262	0.5768705810425273	14.15057278680561	0.1986212420025754	-0.172305453282466	0.3709266952850415	113.23678157029649	near	LO1
0	1.0	ltm	10	diff_vonmises	-0.0518152847074387	-2.9687971280049963	6.577186497560907	0.3464495565188485	0.2286685901345453	2.591419856438798	-0.164514236485843	-0.443773752670948	0.279259516185105	47.78013583485384	near	V1
1	2.0	ltm	10	diff_vonmises	-0.0255006002143903	-1.46107676733497	6.273048732813556	0.5590073453862315	0.3548871211988191	1.5942237869351816	0.1956649273426267	-0.2711852127806584	0.4668501401232851	50.32831352581806	near	V2
2	3.0	ltm	10	diff_vonmises	-0.9764358114145728	-55.945650959487	0.0001320731778625	10078.25756737029	5.513791625618499e-29	10078.383954567573	0.1917377248626053	-0.231954029683493	0.4236917545460983	154.57522442397274	near	V3
3	4.0	ltm	10	diff_vonmises	-0.1828701982820814	-10.477690560283785	1.3468496070371188	151.16020832174365	1.325915317522433	152.0676419157524	0.2065353219124759	-0.2846467668552463	0.4911820887677223	73.91806522055757	near	V4
4	5.0	ltm	10	diff_vonmises	-0.0316015801193691	-1.810637166784378	3.1990070905792414	0.9628971921635356	0.0587483152476875	1.4113705302300183	0.4160235454480594	-0.2127450125276174	0.6287685579756768	75.16239435531799	near	V3ab
5	6.0	ltm	10	diff_vonmises	0.0388526993505883	2.2260956954793847	0.6712777161392136	37.6507362234631	0.6403161920647438	37.86894035803174	0.1620275997331255	-0.1302921579124478	0.2923197576455734	111.40035593078332	near	IPS0
6	7.0	ltm	10	diff_vonmises	-0.1456594140526756	-8.34566967156687	1.2049225129156778	112.63941247050498	1.1891410785711702	113.1544885174457	0.1342423539864512	-0.1633460553547063	0.2975884093411576	78.8183541526864	near	LO1
0	1.0	ltm	11	diff_vonmises	0.0811131435722422	4.647440789728181	0.0002935576514433	1380.238858674148	3.4776192593438e-28	1381.7938049487077	-0.1829875263154861	-0.3119577808478766	0.1289702545323905	179.70624450717582	near	V1
1	2.0	ltm	11	diff_vonmises	-0.007197835038653	-0.4124055693462022	19.35796507501992	0.2159065606897071	0.1826963771607654	1.2009822831287733	0.1487235077881661	-0.2145731017311473	0.3632966095193134	30.17594225674023	near	V2
2	3.0	ltm	11	diff_vonmises	0.1117232039922944	6.401268062437621	3.5831783993900483	0.5422867192011473	1.1134331561899982	0.5924290443740697	0.1773478709198267	-0.0667403872882099	0.2440882582080367	60.779988710515	near	V3
3	4.0	ltm	11	diff_vonmises	0.1289380305817907	7.387604971065349	1.715137671117234	106.92067853296884	1.686563102305623	107.80267734338328	0.1010730765183325	-0.2751573316853104	0.3762304082036429	63.280080921583846	near	V4
4	5.0	ltm	11	diff_vonmises	-0.0347129577733233	-1.9889059748272724	2.7897312908198457	0.6399321812615423	1.0516153291814562e-15	1.1964669344763093	0.2115957608125187	-0.1889061669377028	0.4005019277502215	82.31915147213968	near	V3ab
5	6.0	ltm	11	diff_vonmises	0.4581362999915571	26.249276431255595	0.7804655899502089	90.06851898872597	0.7679527230012129	90.52823857742818	0.078435852621876	-0.1339691181501656	0.2124049707720416	97.3081840863122	near	IPS0
6	7.0	ltm	11	diff_vonmises	0.1418826999934891	8.12927989554776	1.4272817938394862	88.96279492345342	1.4073816940006123	89.40136318217573	0.1321199574681131	-0.1498458758431908	0.281965833311304	72.50058492609114	near	LO1
0	1.0	ltm	12	diff_vonmises	0.048740494748095	2.7926246404454016	8.786884559598985	0.434510412204702	0.1132817255441978	4.129627246647998	-0.2276471760704571	-0.6875865952701768	0.4599394191997197	43.57297788119499	near	V1
1	2.0	ltm	12	diff_vonmises	0.1110716281925564	6.363935519079775	10.4121136064208	0.5386869155467393	0.3469048726197592	1.7794968371304658	0.2957205811207615	-0.32787189166319	0.6235924727839516	40.06656941451459	near	V2
2	3.0	ltm	12	diff_vonmises	0.0750727673989583	4.301352728327631	1.6602699148290978	100.55479986254043	1.6352668662339154	101.1289508209914	0.1638140036273583	-0.2043945546666652	0.3682085582940235	66.70868870324426	near	V3
3	4.0	ltm	12	diff_vonmises	-0.1460126131921157	-8.36590649158444	0.9655654090599864	206.16175842067355	0.9497057097542704	207.98534136372896	0.0148251616424772	-0.4155455578238722	0.4303707194663495	81.89028794446881	near	V4
4	5.0	ltm	12	diff_vonmises	-0.0772784612456784	-4.427729676642672	2.7816396704409647	0.7863639276556376	0.002674854573923	1.7325371321120304	0.2166653734956883	-0.2731127083510455	0.4897780818467338	82.30477949919097	near	V3ab
5	6.0	ltm	12	diff_vonmises	0.5641127628581598	32.32128048123682	0.4749759066059798	136.4825179431507	0.4643102360113617	137.43943920674258	0.0409664161111749	-0.2593098393492585	0.3002762554604334	120.30485179095588	near	IPS0
6	7.0	ltm	12	diff_vonmises	0.1267579633814649	7.262696321431777	1.1229889506322663	48.11951894291768	1.0670252679001606	49.65662756565227	-0.0402169988212754	-0.3456163115423445	0.305399312721069	74.58856048050089	near	LO1
0	1.0	ltm	13	diff_vonmises	-0.0276393868630176	-1.5836202155802417	1.5430505546174818	0.6144203017628859	0.0041730211886361	2.879491016974157	-0.1894662978938894	-0.4440068169832556	0.2545405190893662	108.42134116392506	near	V1
1	2.0	ltm	13	diff_vonmises	0.0463195615057099	2.6539153831738105	3.54469740223562	0.6965809213651672	0.2279638912473831	2.0787887628372776	0.0908667147056056	-0.3135148706723811	0.4043815853779868	65.72224193581738	near	V2
2	3.0	ltm	13	diff_vonmises	0.0386050105248766	2.2119041711335523	4.668232271370606	0.5661433276365643	0.1626071415478224	1.4767286577388532	0.1985015811485465	-0.2303206258628359	0.4288222070113824	60.06417386422052	near	V3
3	4.0	ltm	13	diff_vonmises	-0.0373742837128907	-2.141388719073172	2.512690256193689	1.1626194213724013	0.4012597380956826	2.742736123881778	0.0606821003816501	-0.36505502363961	0.4257371240212602	71.33898709598205	near	V4
4	5.0	ltm	13	diff_vonmises	-0.0471180984782551	-2.699668181485809	1.429418983915352	1.3636560264849835	3.3326034911176675e-14	2.288186101997135	0.2095246529567868	-0.3312815034873941	0.540806156444181	112.6989220491706	near	V3ab
5	6.0	ltm	13	diff_vonmises	0.2088475072407994	11.966080726725709	0.7553934610662189	115.913954311237	0.7395445900814169	116.60912122251442	0.1476289374263828	-0.2171396086027073	0.3647685460290901	99.93119661654303	near	IPS0
6	7.0	ltm	13	diff_vonmises	0.018077412229619	1.035759425275351	0.6117538237187928	95.01462819612269	0.5878377150479822	96.39049756471675	0.0678777630928664	-0.3485915229654655	0.4164692860583319	107.17909423197376	near	LO1
0	1.0	ltm	14	diff_vonmises	-0.2611400693471889	-14.962223835347563	0.0002656612941855	1828.973621710596	3.741916753424829e-24	1830.3350840974088	-0.1393469526604462	-0.2940097127589638	0.1546627600985175	178.0426576704785	near	V1
1	2.0	ltm	14	diff_vonmises	0.0260243218467717	1.4910838065101266	18.612611032544255	0.2187449697773227	0.1538292843967027	1.0344105472750615	0.1827649924225503	-0.1808653902445443	0.3636303826670947	30.90830542415512	near	V2
2	3.0	ltm	14	diff_vonmises	0.092920147090375	5.323932260013305	2.1117796153324098	49.92704636354722	2.073400579508204	50.14755712871729	0.1758751223088737	-0.1246781860735062	0.3005533083823799	61.17202587137112	near	V3
3	4.0	ltm	14	diff_vonmises	0.0122226908582049	0.7003086004682805	1.582469372360824	144.1661669298095	1.564789901979775	145.1361234440204	0.0078592803264001	-0.2637130985074805	0.2715723788338806	63.28145608651727	near	V4
4	5.0	ltm	14	diff_vonmises	-0.0617899168806208	-3.5403014537237376	2.586670674228983	0.6973094531299657	3.5324489565135624e-22	1.3434429453087384	0.2054057074659047	-0.2114400471533434	0.4168457546192481	85.5239750799673	near	V3ab
5	6.0	ltm	14	diff_vonmises	0.0932749265988445	5.344259628506336	0.8664793441690741	101.43416840153492	0.851986408488101	101.99420432022288	0.1048209729635658	-0.1637249001527205	0.2685458731162864	92.50021662279876	near	IPS0
6	7.0	ltm	14	diff_vonmises	-0.0390299752032193	-2.2362528536447246	1.3362513639895623	177.63714459493184	1.3221010688785864	178.5240100326658	0.0985088928946424	-0.2468917445298082	0.3454006374244507	72.07033234622054	near	LO1
0	1.0	ltm	15	diff_vonmises	-0.0606576182881384	-3.4754255232258897	5.964520491644189	0.2695178302461734	0.0018763099509645	2.7131581731898047	-0.1760925533806941	-0.4314618404847955	0.2553692871041013	55.65062972739412	near	V1
1	2.0	ltm	15	diff_vonmises	0.0925671853283209	5.303709040718108	5.392481888061934	0.6082057526371053	0.3416703362036571	1.7650005437497258	0.1649355251792423	-0.291329122903736	0.4562646480829783	53.706422040698726	near	V2
2	3.0	ltm	15	diff_vonmises	0.0509819127843586	2.921048434047807	3.384848684074884	0.798035089277624	0.6205644638831045	1.3030599758059689	0.2084139595356715	-0.1764594947952573	0.3848734543309288	63.779406020722575	near	V3
3	4.0	ltm	15	diff_vonmises	-0.078962276876724	-4.524205205779738	1.176123433387053	139.34515656448073	1.1532951125516424	140.68958378321713	0.0924611846963117	-0.3436287266001301	0.4360899112964418	76.14862639774421	near	V4
4	5.0	ltm	15	diff_vonmises	-0.0545635987184238	-3.1262639216111143	2.296657414069404	0.9220207970481206	9.642041798078034e-15	1.6444971070927044	0.2550839320875865	-0.2565000126563262	0.5115839447439128	90.73219168337832	near	V3ab
5	6.0	ltm	15	diff_vonmises	0.2724403915085981	15.609684602334466	0.7647061972436113	117.40684667201852	0.7522657155307233	117.93684911599358	0.1227568509951098	-0.1693249611725136	0.2920818121676234	99.51241866358274	near	IPS0
6	7.0	ltm	15	diff_vonmises	-0.0186116546016316	-1.06636925842873	0.8397749166423563	126.86382576197296	0.8238554683805506	127.8876177216495	0.0700023653704704	-0.2531571134613273	0.3231594788317977	90.8836213267154	near	LO1
0	1.0	ltm	16	diff_vonmises	-0.0553574107692438	-3.1717460018497268	5.621729321324542	0.3640863887621203	0.0062573507012534	2.968383540098877	-0.1394355347090369	-0.4714618287267184	0.3320262940176814	57.10606018432901	near	V1
1	2.0	ltm	16	diff_vonmises	0.1395582193376744	7.996096964409779	5.101292202953526	0.7155706900457093	0.3973911721139773	1.922282205242623	0.1893948690868556	-0.315622785618641	0.5050176547054965	54.54415776867518	near	V2
2	3.0	ltm	16	diff_vonmises	0.1524039617328627	8.732103788366336	7.54563292668615	0.3739407809129908	0.0270898977584867	0.9820718716786364	0.241937986386073	-0.1562568816223827	0.3981948680084558	49.19016578877836	near	V3
3	4.0	ltm	16	diff_vonmises	-0.0334878881040689	-1.918714653169505	2.471346753248196	1.246403116849685	0.3764452842784225	2.7342996231498087	0.1174048413837719	-0.3585809600396376	0.4759858014234095	73.27963418936386	near	V4
4	5.0	ltm	16	diff_vonmises	-0.0318977825350564	-1.8276083150848408	1.972046461102937	1.0102270630507946	1.1876841846530326e-15	1.5173338122260316	0.2752478352494752	-0.2314823949650463	0.5067302302145216	97.66861972507544	near	V3ab
5	6.0	ltm	16	diff_vonmises	0.3771226567139817	21.60753658847213	0.9758046058670778	103.59268819674068	0.962692499557362	103.85580513745708	0.1695334721929668	-0.120998654666927	0.2905321268598939	91.16150856548845	near	IPS0
6	7.0	ltm	16	diff_vonmises	0.0654230737878683	3.748466010817819	1.1376647567175242	1.079527664176208	3.466429603874174e-21	2.027536169214446	0.0741062232231495	-0.2819152759729608	0.3560214991961104	123.0193291583338	near	LO1
0	1.0	ltm	17	diff_vonmises	0.0575637717067261	3.2981611716499866	2.156685541901797	0.5611403207287992	4.0826367135545025e-21	1.9864661418094776	-0.013228075031006	-0.3120999680183215	0.2988718929873154	93.56267186174838	near	V1
1	2.0	ltm	17	diff_vonmises	0.109409911381735	6.268726159073768	4.286603899767845	0.6815275783860952	0.475743086659572	1.5380582137072047	0.1715223031886008	-0.2400787310816694	0.4116010342702702	58.2350477661175	near	V2
2	3.0	ltm	17	diff_vonmises	0.0232356593456635	1.331305214710231	1.7769992649719262	2.7180906102879523	1.0398944698063428	3.301948273939652	0.1519417316213711	-0.1886255821577732	0.3405673137791444	72.70555883129575	near	V3
3	4.0	ltm	17	diff_vonmises	-0.0028903983850016	-0.1656076285720263	3.2157530821989	0.8047126095543983	0.4686649310167699	1.778994221953781	0.1196523403336095	-0.2527273891528686	0.3723797294864781	64.90921454030368	near	V4
4	5.0	ltm	17	diff_vonmises	0.0405821556737528	2.325186243648928	1.1413572986336518	2.088427706259657	0.2176662820069064	2.339895788393226	0.3115400121386497	-0.2175920530241543	0.529132065162804	112.74109920246973	near	V3ab
5	6.0	ltm	17	diff_vonmises	0.3076344239398694	17.626154124692853	0.7740321329701154	90.34274853860084	0.7586897852392092	90.50720394339076	0.2160165145898958	-0.1324830846299134	0.3484995992198092	104.47252554109994	near	IPS0
6	7.0	ltm	17	diff_vonmises	0.0245924790347506	1.4090452564551734	0.4739531868074147	40.06581329827102	0.4274477848987945	40.83350990532399	0.1662375092652457	-0.2953802220945278	0.4616177313597736	127.51874054965673	near	LO1
0	1.0	ltm	18	diff_vonmises	0.3572469196581927	20.468740740463645	0.0003423924149446	1864.7739225398864	9.74920657235092e-28	1866.4482341242572	-0.1648517136282521	-0.3680808219492633	0.2032291083210111	176.007348948639	near	V1
1	2.0	ltm	18	diff_vonmises	0.1913018192304051	10.960786855076828	6.636329378127058	0.4828608362956663	0.4359784011869866	1.3293152576707052	0.1739736620879127	-0.2334534881539573	0.4074271502418701	48.5068249604594	near	V2
2	3.0	ltm	18	diff_vonmises	0.2063616524295117	11.823651737556634	7.346613221413428	0.3512712050136142	0.4246316351839818	0.6026715146898309	0.2326358535695757	-0.10449238198166	0.3371282355512357	47.66016388188001	near	V3
3	4.0	ltm	18	diff_vonmises	0.1772301400336108	10.154539026438467	3.6302472263499785	1.1410141021827545	0.8900738907808681	2.128008400697696	0.1490071048586183	-0.3061358042362192	0.4551429090948375	57.23431017378337	near	V4
4	5.0	ltm	18	diff_vonmises	-0.0757532796450474	-4.340343207935507	1.950137501477139	0.7858948490792081	1.8977077360586484e-19	1.2148851532901308	0.2059163768601107	-0.1852746283197494	0.3911910051798601	98.18148428414034	near	V3ab
5	6.0	ltm	18	diff_vonmises	0.3723756246883125	21.33555168818785	1.1228843276446734	94.726518992437	1.109526219680602	94.99016668661822	0.1409037305706277	-0.1079157675488868	0.2488194981195146	84.21779923385014	near	IPS0
6	7.0	ltm	18	diff_vonmises	0.1216776176223474	6.971613950967161	2.313053778636707	0.529143642443886	2.0502379019335544e-15	1.214597179731037	0.1045469304173877	-0.1903922975132674	0.2949392279306552	90.4008683428364	near	LO1
0	1.0	ltm	19	diff_vonmises	0.0535796730088331	3.06988913109715	7.47622169948352	0.454530150596737	0.1893171077201532	3.891382242895181	-0.2548142822049414	-0.6643321966811468	0.4095179144762054	45.63435526699297	near	V1
1	2.0	ltm	19	diff_vonmises	0.0704750958500432	4.037925552987421	9.228019239271852	0.5269894560831148	0.3459668132886523	1.739300948926773	0.249742017047171	-0.3153954471364867	0.5651374641836577	42.290728702584346	near	V2
2	3.0	ltm	19	diff_vonmises	0.0180048264269467	1.0316005651296585	1.6817412876937583	69.43812645788272	1.6466282599393165	69.89650772854432	0.20139266931902	-0.1853806481279125	0.3867733174469325	67.60744911411894	near	V3
3	4.0	ltm	19	diff_vonmises	-0.2287235730668725	-13.104895411883902	1.047588864746302	155.04739217793292	1.0266051629597024	156.67304004551644	0.0496742852382894	-0.386671170987654	0.4363454562259434	79.53890227799396	near	V4
4	5.0	ltm	19	diff_vonmises	-0.0689523726964048	-3.95067994291709	3.179934390073957	0.8273997374690878	0.0328515731610822	1.725236076052135	0.276443754859134	-0.2657630660215517	0.5422068208806858	75.66957752378346	near	V3ab
5	6.0	ltm	19	diff_vonmises	0.330188122654633	18.91838587345844	0.5185248218574474	107.63567013351428	0.5059418846466798	108.40915332710716	0.06189940364521	-0.2208053980729403	0.2827048017181504	117.63019312026202	near	IPS0
6	7.0	ltm	19	diff_vonmises	0.0450943808088407	2.583717700102308	1.1895459416549643	183.38216054320264	1.1754171890729996	184.69402407921277	-0.0115992512829734	-0.3083676723557893	0.2967684210728158	72.59818638320112	near	LO1
0	1.0	ltm	20	diff_vonmises	-0.0277469475146275	-1.5897829869591702	8.296624602850875	0.4461518123790178	0.2260623867709101	3.022883830548259	-0.0911332751082804	-0.5261014279354523	0.4349681528271719	43.7977953018011	near	V1
1	2.0	ltm	20	diff_vonmises	0.1041049430836878	5.964773865144964	3.3167035658713764	1.176457290375309	0.7550824959651313	2.09100104273134	0.1985264271459325	-0.2837345046824874	0.4822609318284199	61.386097479648754	near	V2
2	3.0	ltm	20	diff_vonmises	0.0498106960938115	2.853942660784178	2.5503592071287264	2.085432678688972	1.3939568276457737	2.356436340842989	0.2670204611007253	-0.1597254906061389	0.4267459517068642	64.05531949943682	near	V3
3	4.0	ltm	20	diff_vonmises	-0.1091056928515895	-6.251295721246758	1.3189432789176374	220.88897799477493	1.303033568546287	221.94405544484476	0.2176294743585174	-0.3223945576552864	0.5400240320138039	74.36000208165825	near	V4
4	5.0	ltm	20	diff_vonmises	-0.0631138635931612	-3.61615801265252	2.9541833522953764	0.8182236104459837	1.1448056698103898e-14	1.4021424028213854	0.308021798145046	-0.2217146894521606	0.5297364875972067	79.96287921489093	near	V3ab
5	6.0	ltm	20	diff_vonmises	0.1541736153680733	8.83349747286389	0.8163890525682587	51.03910268906045	0.7925968953636233	51.38601914715009	0.1270409073004668	-0.128809392614186	0.2558502999146528	98.24764795597277	near	IPS0
6	7.0	ltm	20	diff_vonmises	-0.1002666248118559	-5.744854427741048	0.8213335612539954	119.77568576701572	0.8073025005774549	120.55669492690396	0.0826580073703411	-0.204855463540003	0.2875134709103442	93.14970421690757	near	LO1
0	1.0	ltm	21	diff_vonmises	-0.0876184212051373	-5.0201657426539255	5.683378025410352	0.4149294806628412	0.0970274296853474	2.0227665844764866	0.0311920095396406	-0.3236413068012462	0.3548333163408869	54.73696766089333	near	V1
1	2.0	ltm	21	diff_vonmises	0.0794438645743374	4.551798148318409	2.811815540785252	1.5865486868535674	0.9773650870752824	2.324749475454933	0.2167569516702702	-0.255900434187596	0.4726573858578662	63.35918850435425	near	V2
2	3.0	ltm	21	diff_vonmises	0.0053780869138006	0.3081416820153138	1.7523223789193114	6.260849694056672	1.43665461049949	6.5018798209212685	0.2369857678478468	-0.1372836863423304	0.3742694541901773	71.40477144758788	near	V3
3	4.0	ltm	21	diff_vonmises	6.96129245082726e-05	0.0039885267738868	2.070808790003392	2.636268443737785	0.9740868213554325	3.289258701010208	0.2810373374072967	-0.2456432045896788	0.5266805419969756	71.57539668902572	near	V4
4	5.0	ltm	21	diff_vonmises	0.0288067356197216	1.6505043725592263	1.8403463456849924	1.1993869184818478	0.0668616980165716	1.272468112090648	0.37200911976051	-0.1743810809547371	0.5463902007152471	98.601583215828	near	V3ab
5	6.0	ltm	21	diff_vonmises	0.3800067919309683	21.77278536395051	0.9562747791385928	62.63913541985646	0.939767410314254	62.62630361418896	0.2006243047449381	-0.0764832352134599	0.277107539958398	96.78648475669227	near	IPS0
6	7.0	ltm	21	diff_vonmises	0.0504722410179275	2.8918463928943288	0.5307559321414761	4.131498859245816	0.2227296236769382	4.446742265207532	0.1697834568518157	-0.1985733114559713	0.3683567683077871	137.63212023597453	near	LO1
0	1.0	ltm	22	diff_vonmises	-0.110759611250766	-6.346058265178603	9.23007914797864	0.308443158983161	0.1038753857549466	3.9201283015798727	-0.321894011954506	-0.6532347316955104	0.3313407197410043	42.28925130942406	near	V1
1	2.0	ltm	22	diff_vonmises	0.0540974084522589	3.0995531869097843	2.9898602889304158	1.1249641681340536	0.4605649606673233	2.6057491724311403	0.1115859152148589	-0.3642910134890617	0.4758769287039207	66.23188728636134	near	V2
2	3.0	ltm	22	diff_vonmises	0.0882713418900015	5.057575342253439	5.579743579408468	0.5085998001171762	0.137116749131776	1.0803347943666135	0.2711767203212489	-0.1706235495427445	0.4418002698639935	55.97124177785858	near	V3
3	4.0	ltm	22	diff_vonmises	-0.1297543581852251	-7.434377097442166	1.0190194745365635	172.43953779960896	0.9966432615431392	174.21077773292023	0.1252619960788052	-0.4418542888433876	0.5671162849221929	82.23593415132342	near	V4
4	5.0	ltm	22	diff_vonmises	-0.0821867802825462	-4.708955641958909	2.839835036808213	0.8682197844531766	8.690429416793363e-15	1.7935053252347184	0.2655922830224967	-0.2835634806130865	0.5491557636355833	81.58024780231185	near	V3ab
5	6.0	ltm	22	diff_vonmises	0.1828083521166679	10.474147036026524	0.934089008488735	70.2533086134352	0.9127790968179532	70.74264992405948	0.1256467834004269	-0.154634970980271	0.2802817543806979	90.24078327658646	near	IPS0
6	7.0	ltm	22	diff_vonmises	0.0010052348296901	0.0575957131607967	0.8218555462123054	130.40698469509135	0.8071519345139746	131.51859502869044	0.0270786793139663	-0.2567177648100927	0.283796444124059	90.00649239138849	near	LO1
0	1.0	ltm	23	diff_vonmises	-0.2428780888385767	-13.915889426653914	0.3795775142726595	143.07903650254497	0.364283854679396	146.5780603763013	-0.3767873817977687	-0.6489968507025186	0.2722094689047498	116.9300526215318	near	V1
1	2.0	ltm	23	diff_vonmises	0.066236722880411	3.795084669825169	7.569048617704225	0.4493619354203369	2.7964392927596e-15	2.4117061401440685	0.100644472715001	-0.3838348243892859	0.4844792971042869	49.42773910893334	near	V2
2	3.0	ltm	23	diff_vonmises	0.0404352463533137	2.316768959616632	5.251450736907391	0.5001870585009087	0.0526451186110524	1.6968028494954703	0.160709894927404	-0.2675632874093452	0.4282731823367492	58.26133384928798	near	V3
3	4.0	ltm	23	diff_vonmises	0.0346781994436124	1.98691446923191	2.563916976429424	1.1236329871892898	0.1987533660288302	3.457862545856596	0.0073380627615539	-0.4941928555077833	0.5015309182693373	75.23222114812552	near	V4
4	5.0	ltm	23	diff_vonmises	-0.0898890902655268	-5.150265496485182	1.3542933427262622	1.3817905823322558	9.67118506153474e-17	2.944731598271693	0.0941143027109087	-0.4311695040115008	0.5252838067224095	115.16961910959746	near	V3ab
5	6.0	ltm	23	diff_vonmises	0.448786494741078	25.713572051133884	0.6067090648844279	209.92431075635017	0.5962142713176614	211.4277867398576	0.0188571617068049	-0.3526226630265086	0.3714798247333135	105.02358472548352	near	IPS0
6	7.0	ltm	23	diff_vonmises	0.1341675224111655	7.687232781886674	2.6593950737074343	0.6689566297973307	4.2657670441579723e-14	2.5924231947411065	-0.0038496009756659	-0.4105944861045573	0.4067448851288914	84.32816155773966	near	LO1
0	1.0	ltm	24	diff_vonmises	0.0096265762439907	0.5515621899415696	9.7195430822523	0.5257819178978173	0.1842118429435332	4.294751696346548	-0.1699463876188693	-0.7438068991865823	0.5738605115677129	41.00622016707629	near	V1
1	2.0	ltm	24	diff_vonmises	0.0956553243654733	5.480646374096534	3.2207524495131667	1.1850501005780285	0.5545159391202968	2.390194291395048	0.1937424884591664	-0.3330982163104323	0.5268407047695987	64.07300319820891	near	V2
2	3.0	ltm	24	diff_vonmises	0.0468529778504285	2.6844778884494813	3.4997730561050724	1.0454754639313473	0.6946109556866358	1.6704554478210845	0.273129090131353	-0.2272359487845787	0.5003650389159318	62.202085396609306	near	V3
3	4.0	ltm	24	diff_vonmises	-0.1040279814034527	-5.960364285683258	1.102219754384551	246.08077659481503	1.0846857928577494	247.739895364987	0.2150488753658521	-0.4499234685893896	0.6649723439552417	80.3588381607824	near	V4
4	5.0	ltm	24	diff_vonmises	-0.1098903927715046	-6.296255714842146	2.4853761379296824	0.9588435013380466	1.7941994859361446e-14	2.005988395801931	0.2438783334959965	-0.3153556762001965	0.5592340096961932	87.24352557725959	near	V3ab
5	6.0	ltm	24	diff_vonmises	0.1619012765062857	9.276259841590722	0.7632085684562482	42.17279651545768	0.7253847252380934	42.9223768528072	0.0875367540881075	-0.2029823494775628	0.2905191035656704	97.97971017526235	near	IPS0
6	7.0	ltm	24	diff_vonmises	-0.0958525435956498	-5.491946203624464	0.5772910344058197	91.45820705081262	0.5566356612726834	92.80251353720548	0.0102956259490234	-0.3164222978546522	0.3267179238036757	108.1008147124135	near	LO1
0	1.0	ltm	25	diff_vonmises	0.3411793026263756	19.548134097708004	0.757072380415915	52.70553480604366	0.741152788750476	53.36387605657481	-0.0323382531691862	-0.1343598768530638	0.1020216236838775	88.83941387960922	near	V1
1	2.0	ltm	25	diff_vonmises	0.0344810771807252	1.975620195520408	14.71794679056595	0.3474215177993873	1.6350334493674703	0.5395951150933106	0.2807760797010262	-0.1512512154001458	0.4320272951011721	32.21829719342534	near	V2
2	3.0	ltm	25	diff_vonmises	-1.210465589318437	-69.35456951376243	2.900400431457657	107.28187431199083	2.926682020283692	106.75754616033244	0.2220476310565899	-0.0184407926554825	0.2404884237120725	52.01142929923183	near	V3
3	4.0	ltm	25	diff_vonmises	-0.0049022788323455	-0.280879887089724	2.0873438284726022	107.25042726986376	2.0681960685743914	107.65696915088608	0.1002025189825488	-0.1587571939560064	0.2589597129385552	58.47201726601281	near	V4
4	5.0	ltm	25	diff_vonmises	-0.0083203097373804	-0.4767186321935018	3.309177622828937	0.6289836498131396	0.2597266258235541	0.7804727239427729	0.277030290082671	-0.107805120690499	0.38483541077317	70.96617919496026	near	V3ab
5	6.0	ltm	25	diff_vonmises	0.2815979783413507	16.134375678375765	0.6589414150926814	12.429803048636831	0.60072406446054	12.650185877664828	0.0787613778717521	-0.0900247966840024	0.1687861745557546	111.23023523698704	near	IPS0
6	7.0	ltm	25	diff_vonmises	0.0341627413066324	1.957380893467284	1.7308552053053952	87.56942885770917	1.7116344655212763	87.84640779845826	0.1503980253443231	-0.1224659368183491	0.2728639621626723	66.98347842164841	near	LO1
0	1.0	ltm	26	diff_vonmises	-0.2177044159168026	-12.473544213393494	7.738159638095678	0.1734110388725412	1.7099169244064552e-26	1.7286802667413264	-0.0860489224768764	-0.2751279735360634	0.189079051059187	48.88210694903103	near	V1
1	2.0	ltm	26	diff_vonmises	0.0752143062561438	4.309462307481468	5.185741048373203	0.5047868054012412	0.4061474625029285	1.279771702551236	0.1527654324018152	-0.210247853741457	0.3630132861432723	54.32777756643591	near	V2
2	3.0	ltm	26	diff_vonmises	0.0598243924156981	3.4276851973539557	2.187385989558389	37.74287778655816	2.133665206079939	37.86348462507382	0.2393970434962895	-0.1166361381328622	0.3560331816291517	61.84743085358994	near	V3
3	4.0	ltm	26	diff_vonmises	0.0027608887872841	0.1581872752163747	1.6445407923330966	172.79149617124088	1.6265364129746598	173.54563035233963	0.1853456999486269	-0.2587317814430889	0.4440774813917159	66.5463345478355	near	V4
4	5.0	ltm	26	diff_vonmises	-0.0617947874805725	-3.540580518544663	2.5814718853853247	0.7449854777935793	1.3629661748189375e-20	1.2829459550067428	0.2431706775435294	-0.2016257210633215	0.4447963986068509	85.61062087893617	near	V3ab
5	6.0	ltm	26	diff_vonmises	0.198228015243779	11.357628654723484	0.8102498268241195	70.38973589784347	0.7935741055621498	70.81111489195047	0.0967158184549781	-0.1322020520038993	0.2289178704588774	96.65194572762908	near	IPS0
6	7.0	ltm	26	diff_vonmises	-0.0231744950759927	-1.3278007602010904	1.038385929516025	99.29882437267796	1.0210515168558685	99.85928272875108	0.130979242556819	-0.1710342815714938	0.3020135241283128	84.92098325107955	near	LO1
0	1.0	ltm	27	diff_vonmises	-0.3258172029825963	-18.667950623660023	13.08504841440041	0.1495335703457264	4.075323473592107e-28	3.5927585051305178	-0.3581964047990928	-0.5718052754260495	0.2136088706269566	37.47469072541739	near	V1
1	2.0	ltm	27	diff_vonmises	0.0386935874926974	2.21697925755175	7.310346337872234	0.4739975605720055	0.1523895721975178	2.188879938460821	0.0985118520385354	-0.3620325103028787	0.4605443623414142	48.06803441479633	near	V2
2	3.0	ltm	27	diff_vonmises	0.0706342495164214	4.0470443863649255	5.5125059270440975	0.4075637111504254	2.73694235899272e-20	1.0535328665670425	0.2045305740893964	-0.1676689004928181	0.3721994745822146	58.085219726441125	near	V3
3	4.0	ltm	27	diff_vonmises	-0.2016921837747775	-11.556110891071734	0.9272193449144968	12.927099659426384	0.7071776575194765	14.941101092763772	-0.0332439902302938	-0.4352440374479629	0.402000047217669	87.65718155100566	near	V4
4	5.0	ltm	27	diff_vonmises	-0.0657768776093736	-3.768737476565673	2.7812100336263605	0.8433134133969813	1.5464400045620275e-22	1.808647938190724	0.2409860654707157	-0.2858246954919933	0.5268107609627091	82.44710284250161	near	V3ab
5	6.0	ltm	27	diff_vonmises	0.2700021955353032	15.469986263438877	0.8446968079576187	112.19441583214775	0.8311066277983029	112.77504206833834	0.1112607448250599	-0.1714806132300559	0.2827413580551159	93.80914048952567	near	IPS0
6	7.0	ltm	27	diff_vonmises	0.0892921313167009	5.116062268174892	1.045070994250883	160.7032131063931	1.0306875681156575	161.91319144252682	0.0152498001002285	-0.2813429467919803	0.2965927468922089	78.72679229731114	near	LO1
0	1.0	ltm	28	diff_vonmises	-0.4976674967151911	-28.514247162621214	0.0001561088440824	3338.7299425526794	3.859385178322496e-31	3340.884595451827	-0.2599710085056586	-0.42586983671697	0.1658988282113114	173.03980195230758	near	V1
1	2.0	ltm	28	diff_vonmises	-0.014606175467814	-0.8368722091332632	18.5393568676964	0.2826790286437602	0.1306934664636681	1.5802470286879204	0.196778255319225	-0.2725720251883599	0.4693502805075848	30.96261889746046	near	V2
2	3.0	ltm	28	diff_vonmises	-0.0542356796755963	-3.1074755444351263	3.061531369601328	0.6774826196398691	0.609754717486246	1.131150422551805	0.1464036333924913	-0.1469926905739776	0.2933963239664689	66.02499559329755	near	V3
3	4.0	ltm	28	diff_vonmises	-0.1073063886289364	-6.148203183228667	1.158279503412977	115.78074329277062	1.1364692169493182	117.1705964240313	-0.0406194006441538	-0.3161761096011091	0.2755567089569553	72.64934748129846	near	V4
4	5.0	ltm	28	diff_vonmises	-0.0588263488542431	-3.3705015135123766	2.6989372102275557	0.7910588958748821	4.589016243044697e-15	1.8050374235849675	0.2002281384076889	-0.2850738213521774	0.4853019597598664	83.71219034521039	near	V3ab
5	6.0	ltm	28	diff_vonmises	0.6847522227461819	39.23341237555827	0.0017280005410305	537.8301936814117	1.2419770002865202e-14	538.8271118892063	-0.0106878608811911	-0.3065132669662631	0.295825406085072	166.3357751790653	near	IPS0
6	7.0	ltm	28	diff_vonmises	0.044216115235387	2.533396789451778	1.413418670091723	229.41217951907169	1.4000282173617782	230.59874690299185	0.0545233830915066	-0.3161168940583607	0.3706402771498673	68.29875346854035	near	LO1
0	1.0	ltm	29	diff_vonmises	-0.040195714068791	-2.30304477065635	14.936015917917072	0.3340182350329639	0.0776889149696358	4.484055029524922	-0.2597144083612794	-0.7469695024433857	0.4872550940821062	34.166964410222505	near	V1
1	2.0	ltm	29	diff_vonmises	0.157529595475926	9.025780969173708	7.509620647794978	0.6057387938883665	0.2911354646585945	1.93027170809158	0.247979560511836	-0.3328220547541897	0.5808016152660258	46.82789100538224	near	V2
2	3.0	ltm	29	diff_vonmises	0.1166397689206288	6.68296648253322	3.610803271686577	0.808418825044549	0.7674461797891007	1.3107479099123809	0.1976721391042414	-0.1809299184652242	0.3786020575694656	60.45834726936204	near	V3
3	4.0	ltm	29	diff_vonmises	-0.0107555427390577	-0.6162472053205867	1.0702021831203932	243.83136930152685	1.0529380152240515	245.7368683966892	0.1213826503033885	-0.4746400131045334	0.596022663407922	79.78982298912464	near	V4
4	5.0	ltm	29	diff_vonmises	-0.1504824318409661	-8.622008235352437	2.3450630133379486	0.7749687046952047	1.699950304799778e-17	1.9271532375978444	0.1330678242098844	-0.3026759050336516	0.435743729243536	89.79205877699171	near	V3ab
5	6.0	ltm	29	diff_vonmises	0.4688698393551144	26.864262936024964	0.8959952540501387	131.0980464532364	0.8822751471661284	132.09767507988937	0.0235154903093999	-0.231038772511166	0.2545542628205659	85.90710890658562	near	IPS0
6	7.0	ltm	29	diff_vonmises	0.1732801376359921	9.928220559988365	4.502170135650366	0.3564418185207655	4.777675170163542e-22	1.720894398192383	0.0183073941440481	-0.2738529460470371	0.2921603401910852	64.42877629506879	near	LO1
0	1.0	ltm	30	diff_vonmises	0.0393882228658409	2.2567789327333703	8.145421652962447	0.4382760079778379	0.0965467875199219	2.8922833251432367	-0.0149611410215582	-0.4740793146075022	0.459118173585944	45.9286826238604	near	V1
1	2.0	ltm	30	diff_vonmises	0.0864362947481168	4.952434885815898	3.319904824117268	1.1409464869369146	0.6117765776004557	2.132833844178275	0.2201801826589764	-0.2953664200435225	0.515546602702499	63.14608971014405	near	V2
2	3.0	ltm	30	diff_vonmises	-0.0268795455437057	-1.5400845148840188	1.6163874422622468	121.77448840042588	1.5900295462898084	122.42295958805845	0.2581186489261426	-0.2504202490604292	0.5085388979865719	68.69582718246303	near	V3
3	4.0	ltm	30	diff_vonmises	-0.096923265563495	-5.553294053413937	1.221979457062076	186.16877311375725	1.202659551799665	187.34355043692656	0.2171437101038265	-0.3448595237183802	0.5620032338222067	77.16530683812408	near	V4
4	5.0	ltm	30	diff_vonmises	-0.0416520603467094	-2.386487265890663	1.942988641905353	1.187986878772354	7.689936263387506e-22	1.866335369137198	0.305169273441122	-0.2846734724402779	0.5898427458814	98.35827042771136	near	V3ab
5	6.0	ltm	30	diff_vonmises	0.1393917103357488	7.986556701348501	0.5428694207709696	38.94591370126549	0.5066908559362278	39.47555317782779	0.132962883795944	-0.2031434780013445	0.3361063617972886	120.05857679239624	near	IPS0
6	7.0	ltm	30	diff_vonmises	-0.1177352010170958	-6.745730118403951	0.5407136447687666	32.199862397196576	0.4790462758977388	33.26976609474952	0.1118487225258046	-0.321680693151797	0.4335294156776017	118.87784532476056	near	LO1
0	1.0	ltm	31	diff_vonmises	0.0766784412055607	4.393351060720653	0.3008370144596842	36.21033742808675	0.2741551064938691	37.714558857404896	-0.1368450508665954	-0.3077042258520643	0.1708591749854688	136.93045481677416	near	V1
1	2.0	ltm	31	diff_vonmises	0.032913066661601	1.8857798105424743	6.455746718297355	0.3884224909694065	0.2326443885113196	1.3127681737192622	0.1253288268454923	-0.2182263402518925	0.3435551670973849	50.51400800082189	near	V2
2	3.0	ltm	31	diff_vonmises	0.0266351874748394	1.526083828848012	3.946928174236864	0.5061470407502044	0.4704508370119342	0.7306303971249399	0.2100269343956338	-0.1046834394437363	0.3147103738393702	62.672422348472935	near	V3
3	4.0	ltm	31	diff_vonmises	0.036725466203463	2.104214214108773	1.5773106990578092	102.8260932727072	1.5477877923648684	103.6508370995035	0.1599456212652654	-0.2648882555462677	0.4248338768115332	67.52672261290212	near	V4
4	5.0	ltm	31	diff_vonmises	-0.0130648032983249	-0.7485580891626155	2.098956394325228	0.903097701184555	7.618760821306892e-23	1.3308830550619295	0.2678372055796377	-0.2046086114485857	0.4724458170282235	94.8038688776996	near	V3ab
5	6.0	ltm	31	diff_vonmises	0.312211267759535	17.888387959050227	0.7939437699208589	97.42651914395628	0.7814867992595373	97.74874586596276	0.135068526074896	-0.1279331462070221	0.2630016722819182	99.80056229341844	near	IPS0
6	7.0	ltm	31	diff_vonmises	0.0312760122119235	1.79198349974284	0.9398016451583072	87.32384457351192	0.9208298720104808	87.820844660779	0.1526429357716132	-0.1663660231841319	0.3190089589557452	90.5455703193564	near	LO1
0	1.0	ltm	32	diff_vonmises	-0.081127521626271	-4.648264591541646	3.4719014091842118	0.4437398662577658	5.45412201436403e-20	4.076865503363464	-0.3333149119097565	-0.6485488907832293	0.3152339788734727	73.62436309779827	near	V1
1	2.0	ltm	32	diff_vonmises	0.1268119374358763	7.265788806952763	8.015313852318847	0.5217016521622542	0.1267302091389836	2.139621766969785	0.1944221380949306	-0.3521614484234359	0.5465835865183666	46.50800489115397	near	V2
2	3.0	ltm	32	diff_vonmises	0.076051567752557	4.357433857574748	3.921266707021949	0.7053487944323286	0.3326933426525963	1.7208968710575476	0.1647695379647933	-0.2615248363929886	0.426294374357782	62.079545942223575	near	V3
3	4.0	ltm	32	diff_vonmises	-0.0445176966808637	-2.550676133457045	1.121052647587494	7.631739296360303	0.6845537563572254	9.895201835459371	-0.0051196610553048	-0.5020229092207645	0.4969032481654597	84.43324900621005	near	V4
4	5.0	ltm	32	diff_vonmises	-0.1017503027909046	-5.829862914097036	1.6720650371822663	1.1475268015210325	5.082862159829448e-13	2.41548582424595	0.1465229553712775	-0.3656981940654369	0.5122211494367144	105.3469726605662	near	V3ab
5	6.0	ltm	32	diff_vonmises	0.4312063865892532	24.70630605065079	0.6785077149373321	197.26143310190852	0.6680920381228442	198.4457897497757	0.0612563780528105	-0.2929285451364265	0.3541849231892371	100.89802190168584	near	IPS0
6	7.0	ltm	32	diff_vonmises	0.0554737527795778	3.178411908021927	2.4004600870179043	0.6502683116332606	4.272471031356407e-15	2.59044762612171	-0.0381119454293689	-0.4092059757425004	0.3710940303131314	88.76967600559132	near	LO1
0	1.0	ltm	33	diff_vonmises	0.0604655421839849	3.4644203731125818	3.461022959251875	0.4244880541597265	2.577759486511251e-19	2.68858852938408	-0.1265951743379578	-0.4276050551092825	0.3010098807713247	73.74617894414806	near	V1
1	2.0	ltm	33	diff_vonmises	0.1144665449126162	6.558449918937594	3.341137376710109	0.9078346099982626	0.4614822310560501	2.1021049166375425	0.1282592388344871	-0.3047488487587356	0.4330080875932227	63.81602547207433	near	V2
2	3.0	ltm	33	diff_vonmises	0.1382628418724853	7.921877302778087	7.136447857167762	0.4317554594036024	0.087760253313317	1.2803295378060024	0.2294503603536933	-0.2057905429756052	0.4352409033292986	49.88490411437797	near	V3
3	4.0	ltm	33	diff_vonmises	-0.2416759410212804	-13.847011430371971	0.8713125416278924	96.45071182335388	0.8444441750482915	98.10730987218446	-0.0226958104688961	-0.3611551861308157	0.3384593756619196	85.4598496440756	near	V4
4	5.0	ltm	33	diff_vonmises	-0.0515689857786593	-2.954685238887345	1.6839255040933696	1.1815592355799056	6.072669915301612e-19	1.8210691688364629	0.2592356686631424	-0.2709092750798915	0.5301449437430339	105.03448158530954	near	V3ab
5	6.0	ltm	33	diff_vonmises	0.1950991266890887	11.178356545972944	0.9488450291967088	71.1384388435277	0.924843795968584	71.48775790226138	0.2101357561769745	-0.1563525968095467	0.3664883529865212	92.5378566820927	near	IPS0
6	7.0	ltm	33	diff_vonmises	-0.0296230161089165	-1.697273799488967	0.5576815654678103	85.14568970828053	0.5321726036605086	86.62032329402506	0.0357964272186386	-0.3644462651470341	0.4002426923656728	111.48728663502256	near	LO1
0	1.0	ltm	34	diff_vonmises	0.0201989509741581	1.1573146414109257	6.139292226397967	0.490554202414972	0.0946631419466519	3.8903112353743934	-0.2049720369813931	-0.6298850724250745	0.4249130354436813	51.91665969835515	near	V1
1	2.0	ltm	34	diff_vonmises	0.0668548725603151	3.8305020375910366	4.235259067941347	0.9094903556629758	0.3882409293088183	2.384867685140689	0.1822218293552022	-0.3736174272293482	0.5558392565845505	58.94341226858165	near	V2
2	3.0	ltm	34	diff_vonmises	-0.0363417691320776	-2.082229991306864	2.386370263790058	1.3867064448378867	0.5388505200803628	2.326530648679234	0.2041718388203653	-0.2718619145005096	0.476033753320875	73.01665653801442	near	V3
3	4.0	ltm	34	diff_vonmises	-0.1651497168358487	-9.462381762474768	1.646153586338504	2.4176900440947198	0.422675082718047	4.286194813455713	0.1120089585524461	-0.4460831398634359	0.5580920984158821	83.89472310221714	near	V4
4	5.0	ltm	34	diff_vonmises	-0.0253875796680678	-1.4546011670324268	2.0749486160004307	1.2539552508893463	0.0292031740397832	2.0587452744628885	0.3240784154278061	-0.3077329808943609	0.631811396322167	93.90337421449796	near	V3ab
5	6.0	ltm	34	diff_vonmises	0.2913812908578974	16.6949181952314	0.6419589334791767	115.29988389927692	0.62791089794509	115.84667237908972	0.1594052537872308	-0.2036250260855183	0.3630302798727491	109.9888510670866	near	IPS0
6	7.0	ltm	34	diff_vonmises	-0.0752526126381606	-4.311657101499445	0.5910685891744587	125.49309163884332	0.5740709137924687	126.86827218002284	0.0445569112865769	-0.3391779687422946	0.3837348800288715	108.00146209217708	near	LO1
0	1.0	ltm	35	diff_vonmises	0.4694100225018379	26.89521315049632	0.0002010090887648	3834.6746067231616	6.251103623121125e-33	3836.2840359430784	-0.1334653185890602	-0.3788195836760906	0.2453542650870304	173.3283897281364	near	V1
1	2.0	ltm	35	diff_vonmises	0.0966709500618276	5.538837440062668	4.287583657716374	0.621437604670823	0.4205419644440493	1.5890565351183528	0.1274681555386347	-0.250072588873042	0.3775407444116768	58.312593154931164	near	V2
2	3.0	ltm	35	diff_vonmises	0.1720800456902251	9.859460356468269	9.163373891744277	0.299266808131423	6.259169567850005e-31	0.6302919668951834	0.2558841202946786	-0.1003140782094782	0.3561981985041568	44.86204194256965	near	V3
3	4.0	ltm	35	diff_vonmises	0.1267932434087663	7.264717718097257	4.066942613148456	0.8831383580104261	0.57569415230457	1.7749694880623827	0.2219558265150542	-0.2700407010671515	0.4919965275822058	58.76171579891786	near	V4
4	5.0	ltm	35	diff_vonmises	0.0120318926388355	0.6893766677597997	1.7927237843468915	1.0269701857418458	2.03429000146093e-14	1.2538183984069295	0.2962063374202722	-0.1858061571353326	0.4820124945556049	102.10729446357315	near	V3ab
5	6.0	ltm	35	diff_vonmises	0.4201585121453156	24.073309472422725	1.0610879932534174	86.57770179146456	1.0475766521640748	86.67640239811743	0.1855273330625237	-0.089402230589525	0.2749295636520488	89.80433371548773	near	IPS0
6	7.0	ltm	35	diff_vonmises	0.1632039552721401	9.350897836935491	1.1096233967523523	1.0484927136627786	1.3391228371214198e-10	1.4755259263491038	0.1450617465536966	-0.1935439459835857	0.3386056925372823	123.9449607685964	near	LO1
0	1.0	ltm	36	diff_vonmises	0.0088628143421969	0.5078018564158986	4.931635281775312	0.4191326337828859	8.97990514308381e-33	3.912697171609788	-0.2620047370707586	-0.6227063126932829	0.3607015756225243	61.4992117274289	near	V1
1	2.0	ltm	36	diff_vonmises	0.0992308692704324	5.685510006610195	11.35976262195036	0.4871188894674567	0.1441786986691692	2.064586556813041	0.2697720016001061	-0.3500073103885058	0.6197793119886119	39.28533903691596	near	V2
2	3.0	ltm	36	diff_vonmises	0.0104673855249081	0.5997370131135662	1.2961847797826012	114.24991767104798	1.270634918708364	115.32361528610907	0.1110688593501834	-0.2931307330559516	0.404199592406135	73.24671902903657	near	V3
3	4.0	ltm	36	diff_vonmises	-0.0584100004074586	-3.346646504704797	0.8327625476686089	138.75567916193873	0.8090854268011877	140.8582181505603	-0.0148217801217143	-0.4618237847009983	0.4470020045792839	87.88743550770232	near	V4
4	5.0	ltm	36	diff_vonmises	-0.0373146719509437	-2.137973216704269	1.5237160772510645	1.5587959714207462	0.1174197882206906	2.7391099961459524	0.1930731423562298	-0.3539477344847482	0.5470208768409781	102.0472320457054	near	V3ab
5	6.0	ltm	36	diff_vonmises	0.6642160194394046	38.05677459885733	0.2742832738849231	164.08627107587574	0.2631318191247193	165.47482046426026	0.0417819063838464	-0.414710794066778	0.4564927004506245	140.48392634943687	near	IPS0
6	7.0	ltm	36	diff_vonmises	-0.0281659691763611	-1.61379115970106	1.2489140209031933	2.539139298483257	0.4091129380696087	4.509981617330699	-0.0512550025446452	-0.4148897271637396	0.3636347246190944	88.97939298497803	near	LO1
0	1.0	ltm	37	diff_vonmises	-0.0450730508148349	-2.5824955814687414	6.141304465863622	0.5660574748502346	0.2044376180921056	3.968633184555755	-0.2197264633338789	-0.6670708020101873	0.4473443386763084	49.82785895402219	near	V1
1	2.0	ltm	37	diff_vonmises	-0.0013601053509105	-0.0779282963003316	1.959169251483646	2.918996356322497	0.7807402862976498	4.441397938862836	0.1549213771926569	-0.4049920457704984	0.5599134229631555	72.05250123839369	near	V2
2	3.0	ltm	37	diff_vonmises	-0.1083216241799106	-6.206371895511129	2.7970007879267307	0.9876140038214052	0.1517454312107191	1.747522571648057	0.2995156287466063	-0.2479888806741664	0.5475045094207728	77.23108636145591	near	V3
3	4.0	ltm	37	diff_vonmises	-0.1602578704579941	-9.18209961099734	2.0179416068682583	2.1209602920223705	0.37420023100238	3.649993882954174	0.2843401914094818	-0.4229747431268229	0.7073149345363048	81.30547339946233	near	V4
4	5.0	ltm	37	diff_vonmises	-0.0189026882090878	-1.0830442558324356	2.457529593294652	1.2358704543657444	3.8466161649871726e-17	1.7983271758349506	0.4348547190366847	-0.2809233982159403	0.715778117252625	87.7396002107973	near	V3ab
5	6.0	ltm	37	diff_vonmises	0.1208024582646725	6.9214710133710105	1.6876535480496324	0.7688845679833937	7.551544826661197e-12	0.9308901797498308	0.2096241433553654	-0.1359169383177186	0.345541081673084	104.89119662257085	near	IPS0
6	7.0	ltm	37	diff_vonmises	-0.0382307080923908	-2.1904582214906374	0.5635687496267705	133.0252830985693	0.5506629577450647	133.82781329941534	0.1177749377145858	-0.2523268909762084	0.3701018286907942	114.89985429952726	near	LO1
0	1.0	ltm	38	diff_vonmises	-0.0256283170953179	-1.468394405584697	7.729524703872957	0.337210433062013	0.0341833914089503	2.944286754176669	-0.1172834402668936	-0.4717041075813127	0.3544206673144191	47.923128963840526	near	V1
1	2.0	ltm	38	diff_vonmises	0.1302780683610061	7.464383480202472	4.781325410654778	0.7389851788192594	0.4231416689891203	1.818197021468568	0.2029118239207348	-0.2930716782817652	0.4959835022025001	56.05702522967957	near	V2
2	3.0	ltm	38	diff_vonmises	0.0749362523795891	4.29353099387763	3.527134764704514	0.8763429989450205	0.6964533044633151	1.4110541038636593	0.2280942893058293	-0.1930374898631202	0.4211317791689495	61.94169630961645	near	V3
3	4.0	ltm	38	diff_vonmises	-0.0459831044759483	-2.634637815380964	1.2055671609309693	159.79202171850974	1.1834253359597	161.1284242012213	0.1514778829732321	-0.3615872816765417	0.5130651646497739	76.3226484359923	near	V4
4	5.0	ltm	38	diff_vonmises	-0.0767358632313622	-4.396641100450174	2.051755368385615	0.9675117201245792	1.0604822268706904e-18	1.7058027733428145	0.2353719934789925	-0.2631155501010583	0.4984875435800509	95.8411761196064	near	V3ab
5	6.0	ltm	38	diff_vonmises	0.3100203892719608	17.762859868286217	0.847905705269345	134.50101726332082	0.8365991283536072	135.04767738408367	0.1204260836274357	-0.1675759949439363	0.2880020785713721	94.06959225185123	near	IPS0
6	7.0	ltm	38	diff_vonmises	-0.0154598234368892	-0.8857826349511878	1.639623836673481	0.7958302235274441	2.9222112307634345e-10	1.871547641440932	0.0659995456394514	-0.2841640361550969	0.3501635817945484	106.29002735851566	near	LO1
0	1.0	ltm	39	diff_vonmises	-0.0984096806744558	-5.638459365876459	9.157231813208048	0.3274978829616395	0.0545032117543207	4.2033898223458666	-0.3163343534012718	-0.6829594306481324	0.3666250772468605	43.413863327564826	near	V1
1	2.0	ltm	39	diff_vonmises	0.1181878209167296	6.771663328376602	4.537888058871309	0.7883371204561683	0.3210590255381444	2.300836539458757	0.1569190521735937	-0.3659477953951672	0.522866847568761	57.887997450077535	near	V2
2	3.0	ltm	39	diff_vonmises	0.1342145839284608	7.689929208205172	6.195955648930076	0.4678263868858202	0.1433633770957665	1.134336210980271	0.2470336213523652	-0.1818078088393808	0.428841430191746	53.03026403863456	near	V3
3	4.0	ltm	39	diff_vonmises	-0.0583753409249882	-3.3446606626391358	1.0103716735102382	59.37998590803935	0.9422107931822864	61.39330276503871	0.1011636795185921	-0.4870034507786354	0.5881671302972276	82.90384208548551	near	V4
4	5.0	ltm	39	diff_vonmises	-0.1031850086661113	-5.912065505589005	2.2579326288655204	0.9033404201759392	4.401140191862719e-16	1.8807350681171824	0.2019132817860102	-0.2938476080563795	0.4957608898423897	91.48612692168638	near	V3ab
5	6.0	ltm	39	diff_vonmises	0.3402555287113291	19.495205751151563	0.9700167148202752	110.91268209273612	0.9552660661970314	111.52087301732156	0.1077233365399763	-0.1736727366250221	0.2813960731649985	86.98076633482032	near	IPS0
6	7.0	ltm	39	diff_vonmises	0.0977682627539298	5.601708826126265	1.98228000830187	0.6009742913030128	3.64850513653706e-14	1.8844830452423007	0.0084303922120065	-0.2940727648832385	0.302503157095245	97.4153097039704	near	LO1
0	1.0	ltm	40	diff_vonmises	-0.0653523074400766	-3.7444113977578	6.640600547280464	0.3686634324921905	0.0468047309415094	2.044592071263966	0.0304594900330872	-0.3265162729415135	0.3569757629746007	51.672441131151714	near	V1
1	2.0	ltm	40	diff_vonmises	0.1529133497886388	8.761289574096686	6.272433420131006	0.6505500242962354	0.6117846299476387	1.337357810658208	0.2777598564480244	-0.2361940648317974	0.5139539212798219	49.24263348822379	near	V2
2	3.0	ltm	40	diff_vonmises	0.0618481884877798	3.543640170879389	1.8833106165194644	69.89336914695299	1.854136966753928	70.11599028809401	0.2183589335362796	-0.1329391178386547	0.3512980513749344	65.53820370844531	near	V3
3	4.0	ltm	40	diff_vonmises	0.0222763406353311	1.27634030140025	1.4751523270561022	114.44355522997998	1.4483958703103768	115.17056066961754	0.2315685216917629	-0.2545811740589023	0.4861496957506652	71.48868451432199	near	V4
4	5.0	ltm	40	diff_vonmises	-0.0067899211920802	-0.3890338275326349	2.0078234473698973	0.9484185857495496	2.4966562394132486e-10	1.197634423490728	0.2997989495331412	-0.1817659257790219	0.4815648753121632	96.84242599172292	near	V3ab
5	6.0	ltm	40	diff_vonmises	0.4885027553511477	27.98914616213256	0.9839863742400724	117.06036456476922	0.9739888372256522	117.24688610358588	0.1589605485944787	-0.1002980305122562	0.259258579106735	91.49644847499778	near	IPS0
6	7.0	ltm	40	diff_vonmises	0.0226700139113075	1.298896118620787	1.159432463205759	1.0002406202744054	2.0859997122402602e-16	1.4524104484725435	0.140546520265233	-0.194586896280753	0.3351334165459861	122.21713399563178	near	LO1
0	1.0	ltm	41	diff_vonmises	-0.0549315682755227	-3.14734702422218	8.790287852745287	0.294087558775625	0.1479643116737	1.0678177753122011	0.1466314062806278	-0.1779515844494515	0.3245829907300793	44.48012062738363	near	V1
1	2.0	ltm	41	diff_vonmises	0.2226669338508102	12.757875546770112	2.739920353499307	59.58110533103399	2.6913495188800804	59.77030161704997	0.265629407782022	-0.1623967652500724	0.4280261730320944	54.109858024197	near	V2
2	3.0	ltm	41	diff_vonmises	0.130852550926748	7.497298906623331	2.9905626461117385	88.7653523402101	2.9694680433945897	88.7166345829267	0.2656105520244196	-0.0788517492299174	0.3444623012543371	54.524842015254336	near	V3
3	4.0	ltm	41	diff_vonmises	0.0417800007367722	2.393817710270519	2.1312330052389643	136.9751449572356	2.110708262426616	137.28738759096743	0.2592827701904809	-0.1810079536171933	0.4402907238076743	60.81592690007295	near	V4
4	5.0	ltm	41	diff_vonmises	-0.0338613668783097	-1.9401134106712248	2.559112050547676	0.6795974227229098	2.7147183007339893e-18	0.6896941642754615	0.2962864748034323	-0.1073373232132986	0.4036237980167309	85.97931923377953	near	V3ab
5	6.0	ltm	41	diff_vonmises	0.2490050873766613	14.266940583968983	1.1706037192865562	30.917464090885257	1.1432452741746926	30.907115668204863	0.1610192060906339	-0.0551336420519081	0.2161528481425421	87.86699467148176	near	IPS0
6	7.0	ltm	41	diff_vonmises	-0.0952859226274206	-5.459481213561316	0.7592781770058028	59.30155164168332	0.7375230731395968	59.608800791221	0.1566297067489657	-0.137207956607491	0.2938376633564568	103.12113410138636	near	LO1
0	1.0	ltm	42	diff_vonmises	-0.0434446644331117	-2.489195914379421	8.07226707525002	0.2086585160727442	7.492081881463304e-18	1.78896481762949	-0.0521780161839977	-0.2847225710821924	0.2325445548981946	47.84909124380391	near	V1
1	2.0	ltm	42	diff_vonmises	0.1569336216665685	8.991634185197187	6.474201169625114	0.5321212182505537	0.6391722869154414	1.1638333545743935	0.2111480966287249	-0.2101311114538389	0.4212792080825639	48.16626887142385	near	V2
2	3.0	ltm	42	diff_vonmises	0.1144828356535582	6.559383309638712	2.3792351293897998	88.54435413419837	2.355161605535327	88.70959647921983	0.2103569262573543	-0.1256846884685423	0.3360416147258966	58.13714155605646	near	V3
3	4.0	ltm	42	diff_vonmises	-0.0042121020176546	-0.2413356684901522	1.626002878731976	178.40934287349594	1.6098827898324115	179.2594234470193	0.1060959349573806	-0.2606902988479334	0.366786233805314	65.1760639331095	near	V4
4	5.0	ltm	42	diff_vonmises	-0.0886182318537209	-5.077450673130004	2.63965853816188	0.6530952198217094	2.616681804549421e-16	1.241071215492773	0.1998214629782836	-0.1954977793394735	0.3953192423177571	84.64955531988426	near	V3ab
5	6.0	ltm	42	diff_vonmises	0.2208899518382428	12.656061977179334	0.856408098254139	87.58766439130842	0.8419275048797117	88.11242054089314	0.0784742284690942	-0.1459277695463132	0.2244019980154075	92.2669627959046	near	IPS0
6	7.0	ltm	42	diff_vonmises	-0.0179903399011406	-1.030770548341161	1.0913717327552823	89.25188977335954	1.0689959725673424	90.0764798765379	0.0822681816963353	-0.2153429714016432	0.2976111530979786	80.13000783514835	near	LO1
0	1.0	ltm	43	diff_vonmises	-0.0077234979518189	-0.4425238357171621	6.763074836354313	0.5277929864219467	0.3756110419325541	2.0136745314081823	0.0860018956826634	-0.3553394778282001	0.4413413735108636	47.63531203926874	near	V1
1	2.0	ltm	43	diff_vonmises	0.0997741007917964	5.716634880082819	1.8802375413858143	120.46372271026028	1.8549953216425203	120.97622484012032	0.2367880845454166	-0.221552789723983	0.4583408742693997	63.65034919306319	near	V2
2	3.0	ltm	43	diff_vonmises	-0.0154453876203998	-0.8849555235925232	2.0299554537778723	74.5595359410935	2.0008911922668995	74.60803874722552	0.3115815719220549	-0.1172620563480588	0.4288436282701138	65.37072797514034	near	V3
3	4.0	ltm	43	diff_vonmises	-0.1386068750192338	-7.941588950099378	1.5832433894364657	181.02827365700747	1.5668167391278012	181.5346592428388	0.2867309898296781	-0.2208928448143119	0.5076238346439901	70.38303199720025	near	V4
4	5.0	ltm	43	diff_vonmises	-0.0099156516847237	-0.5681249926564537	2.808653806762781	0.9162375779957214	4.0326709223185205e-20	0.9176224616685168	0.4317586914031834	-0.1439438412627832	0.5757025326659666	82.04415181223843	near	V3ab
5	6.0	ltm	43	diff_vonmises	0.0329803963684502	1.889637518580784	1.5619232068200015	0.696794542120812	1.2626759908850437e-17	0.5800268218370396	0.2170025647652161	-0.0787079428527317	0.2957105076179479	108.56043894101596	near	IPS0
6	7.0	ltm	43	diff_vonmises	-0.2039473837531856	-11.685324331792511	0.8291880615999403	85.22494950034739	0.8108493484772415	85.59640692349423	0.1848423584473337	-0.1577117409560715	0.3425540994034053	98.37653881041558	near	LO1
0	1.0	ltm	44	diff_vonmises	-0.0887484343131348	-5.084910724536643	5.114216812083004	0.4938850266411417	0.0744144751433754	3.107242842467593	-0.0985546356570021	-0.4940060230639732	0.395451387406971	57.47800975875856	near	V1
1	2.0	ltm	44	diff_vonmises	0.0642541757393958	3.6814930859592687	3.73487692143022	1.0473284812794503	0.5038321218241055	2.3140601100935987	0.2028599976441033	-0.345727995260615	0.5485879929047184	60.98740768483347	near	V2
2	3.0	ltm	44	diff_vonmises	0.0046638640802289	0.2672197280197829	2.535451724839923	0.986176180144053	0.4170156724905078	1.644497865832206	0.2055868588441725	-0.2046403720159947	0.4102272308601672	74.37120758907722	near	V3
3	4.0	ltm	44	diff_vonmises	-0.008399192241047	-0.4812382667310224	2.965049350992345	1.056803365604913	0.1759321134502112	2.3082128686316468	0.2528208724965034	-0.3323847827648996	0.5852056552614031	73.76623996374352	near	V4
4	5.0	ltm	44	diff_vonmises	0.0315285641963367	1.806453662557371	1.3859787119863505	2.0637600884377534	0.2664279871026669	2.439324648028937	0.3543939498854369	-0.239012358173258	0.5934063080586949	102.28332202406764	near	V3ab
5	6.0	ltm	44	diff_vonmises	0.4635040639895223	26.55682665376127	0.8942692000632779	99.06406558555626	0.8807045101158741	99.25066484724276	0.1965267584354038	-0.1191430232354244	0.3156697816708282	96.67368879173776	near	IPS0
6	7.0	ltm	44	diff_vonmises	0.1021111816160026	5.850539747690791	0.5364192102919912	2.42157035277767	1.330120492016544e-16	3.01009848717476	0.1349490303238628	-0.2690537900337711	0.4040028203576339	150.08885308827047	near	LO1
0	1.0	ltm	45	diff_vonmises	-0.0679109394887715	-3.891010215474929	24.14554067397954	0.3094226129311578	0.1294184332901692	4.652166010666567	-0.2358543635337957	-0.8129500624508904	0.5770956989170947	26.86143776989286	near	V1
1	2.0	ltm	45	diff_vonmises	0.1492689123114537	8.552478687954672	7.33299582444719	0.5921803326884321	0.2843352685735902	1.852355365494028	0.2439564642623293	-0.3173546089802238	0.5613110732425532	47.42820607828622	near	V2
2	3.0	ltm	45	diff_vonmises	0.1062837898178297	6.089612587217156	3.0535236546358107	1.1264629172018912	1.2154876868476392	1.4546739436941651	0.1895697489658256	-0.1498029813301085	0.3393727302959342	60.72963072702981	near	V3
3	4.0	ltm	45	diff_vonmises	0.012435203728337	0.7124846910190609	1.1868959766733245	296.46495122490086	1.1719959351996574	298.1406812644279	0.1917586893014942	-0.452629308858512	0.6443879981600062	76.86083705532047	near	V4
4	5.0	ltm	45	diff_vonmises	-0.1948512715401477	-11.16415549200804	2.6222957276174608	0.6801048645425064	1.6342859983041323e-21	2.042925460882543	0.0870435507189326	-0.3229669589435002	0.4100105096624328	84.91800105221442	near	V3ab
5	6.0	ltm	45	diff_vonmises	0.5147468388424542	29.49282138337337	0.930018960129653	118.4269411574354	0.9140375527167576	119.70643612565694	-0.0563130649247511	-0.2697936644851815	0.2134805995604303	80.19820585197556	near	IPS0
6	7.0	ltm	45	diff_vonmises	0.1921105579309443	11.007124169346618	5.650843043169767	0.3139129735532255	0.03943435170931	1.4986767612550913	0.0424402388624352	-0.2375794839043321	0.2800197227667673	56.176266369675545	near	LO1
0	1.0	ltm	46	diff_vonmises	0.1386500503240403	7.944062712843983	0.3768926473784941	29.35514907859911	0.3370407062295635	30.824577367318035	-0.1060073515623649	-0.310729884499024	0.2047225329366591	128.08741870999046	near	V1
1	2.0	ltm	46	diff_vonmises	0.1307071609964267	7.488968677232219	7.460212543566312	0.3912195875251931	0.3665636478822524	1.2473979646261228	0.1414946135955583	-0.2206825170314634	0.3621771306270217	46.33953677777029	near	V2
2	3.0	ltm	46	diff_vonmises	0.1665944180374609	9.545157043984627	4.724028234167901	0.4679102585182025	0.6582275932139547	0.7779472993468319	0.1783770675817794	-0.1220713590070033	0.3004484265887828	55.75423011528551	near	V3
3	4.0	ltm	46	diff_vonmises	0.1613914911417725	9.247051291746576	3.404539915396488	0.918268522634864	0.8545630185075933	1.964968453299579	0.0287822717070611	-0.2864343325130328	0.315216604220094	56.99472064740826	near	V4
4	5.0	ltm	46	diff_vonmises	-0.0375259581647498	-2.150079025024658	2.0719383385732058	0.8185076818905694	6.840411897759033e-16	1.2481415512789429	0.2327065271469102	-0.19180598284676	0.4245125099936703	95.39430918392068	near	V3ab
5	6.0	ltm	46	diff_vonmises	0.2838696994353376	16.26453570929205	0.925819942831862	104.74668146321974	0.9131661958513176	105.0458853442126	0.1548689763245931	-0.1247930700974091	0.2796620464220023	92.93676179160111	near	IPS0
6	7.0	ltm	46	diff_vonmises	0.0124852959933174	0.7153547663886874	0.9963612111076856	100.81569762160365	0.9764684400154384	101.64207546431868	0.101111462227621	-0.220082676426383	0.321194138654004	84.6604348438565	near	LO1
0	1.0	ltm	47	diff_vonmises	-0.0664904000641974	-3.8096193018148905	6.903533547444447	0.2182743200672051	0.0002164863165216	1.7278164400664136	-0.0507222573673604	-0.2749537649172083	0.2242315075498478	51.7796579765382	near	V1
1	2.0	ltm	47	diff_vonmises	0.121920144153334	6.985509697612638	4.145771778666843	0.72771370110652	0.694028057273394	1.4105675161164362	0.1707406826724073	-0.2163308111882069	0.3870714938606143	57.09845419330151	near	V2
2	3.0	ltm	47	diff_vonmises	0.0803699286851889	4.604857713428737	2.1912871775343485	55.08219637224772	2.1521596930082136	55.2450594179261	0.2345608719473304	-0.12823321510057	0.3627940870479005	61.15190294655099	near	V3
3	4.0	ltm	47	diff_vonmises	-0.0384077870497435	-2.200604098387523	1.590881804642942	177.03202680786103	1.5744888037488616	177.81960643568578	0.1474567249367311	-0.2528659281431018	0.4003226530798329	66.96716982704407	near	V4
4	5.0	ltm	47	diff_vonmises	-0.0525384355088745	-3.01023061687877	2.5771112329046395	0.7667249536202656	5.0502478323659406e-21	1.1949211151278505	0.2698179890602565	-0.1875211417801621	0.4573391308404186	85.67748573804849	near	V3ab
5	6.0	ltm	47	diff_vonmises	0.1523008543488479	8.726196170425656	0.866735286091606	77.15274658803934	0.8509991192598574	77.45226684570845	0.1377395618799894	-0.1204705933472842	0.2582101552272737	95.82007928172948	near	IPS0
6	7.0	ltm	47	diff_vonmises	-0.0810835824314597	-4.645747061123755	0.9868108562215928	115.98370927874528	0.971009921599959	116.65608153046682	0.1212150314362645	-0.192671238016544	0.3138862694528086	86.27967037512684	near	LO1
0	1.0	ltm	48	diff_vonmises	-0.0226262604987905	-1.296389232744266	5.477599215984698	0.6877336518854207	0.1877140183147138	4.072090141309949	-0.1491548658756523	-0.6691177322979132	0.5199628664222609	53.18069687513986	near	V1
1	2.0	ltm	48	diff_vonmises	0.0006757092706646	0.0387152893869488	2.7502525508944267	1.796469948236784	0.6225407159741593	3.39350714164087	0.2036671391223355	-0.4324891811612383	0.6361563202835739	66.64728591079535	near	V2
2	3.0	ltm	48	diff_vonmises	-0.1845369132052452	-10.57318629103254	1.023960849131246	152.15326296755202	1.0028051806125289	153.14613648823294	0.2683661130340908	-0.3159727656262845	0.5843388786603754	86.15811388661753	near	V3
3	4.0	ltm	48	diff_vonmises	-0.1334077055046928	-7.643698479943097	2.931472504271924	1.1393461551070765	3.1065108871321477e-12	2.707590167269762	0.3054715979700187	-0.4288326460170449	0.7343042439870637	80.27315914925543	near	V4
4	5.0	ltm	48	diff_vonmises	0.0456469854383426	2.61537961311216	1.0078210657624922	10.135471780905668	0.7024077839359932	10.510469336609455	0.4826927026202967	-0.2806502591809844	0.7633429618012811	99.04857176625498	near	V3ab
5	6.0	ltm	48	diff_vonmises	0.2615812828350288	14.98750350606504	0.5797054619840762	38.7997226636085	0.5455578482221449	38.86692176523364	0.2326003149293427	-0.147017918600889	0.3796182335302318	121.31977202652374	near	IPS0
6	7.0	ltm	48	diff_vonmises	0.0215233018309728	1.2331943561009424	0.3192261730376355	136.49223760262328	0.3064878183665627	137.20156371227097	0.1623594531444503	-0.3092169125688002	0.4715763657132505	143.1684352382709	near	LO1
0	1.0	ltm	49	diff_vonmises	-0.0018265731954141	-0.1046549350689579	5.340693836532099	0.3739535960533617	4.7133796814329344e-18	1.0893887120988168	0.1624487894398512	-0.1733738848277106	0.3358226742675618	59.035945077595386	near	V1
1	2.0	ltm	49	diff_vonmises	0.1950185555475959	11.173740159614852	4.190675594498525	1.3056693729266056	1.8112971410899008	1.5340512999675875	0.2844092474502242	-0.1746889300140166	0.4590981774642408	51.765489820295386	near	V2
2	3.0	ltm	49	diff_vonmises	0.1007340228389918	5.771634362048677	2.307427804082933	51.46023116150528	2.277915880353052	51.4798111354726	0.2097994676053112	-0.0775212529828168	0.2873207205881281	61.27551350664109	near	V3
3	4.0	ltm	49	diff_vonmises	0.0501474181751876	2.8732354149158885	2.0128631213341093	88.54470687347543	1.98460776441445	88.87284783775563	0.2216956767153561	-0.168854609377238	0.3905502860925942	62.3145893897526	near	V4
4	5.0	ltm	49	diff_vonmises	0.0485473277612348	2.781556987357052	1.7263572493159602	1.1308916995779303	0.1869421534017482	0.8976179921502764	0.3628087563550747	-0.1005809677884722	0.4633897241435469	99.09139741871712	near	V3ab
5	6.0	ltm	49	diff_vonmises	0.384517349053843	22.0312212503439	1.07650534763363	56.83430844738334	1.062481451306393	56.63859852597731	0.2189325783824003	-0.0423696853670887	0.261302263749489	95.9120647834329	near	IPS0
6	7.0	ltm	49	diff_vonmises	-0.0094177882496549	-0.5395995190531261	0.969231092491132	1.3115593881186869	2.6219498932553282e-14	1.5002343202160873	0.2017462036170784	-0.1753644389752847	0.3771106425923632	129.88267563893942	near	LO1
0	1.0	ltm	50	diff_vonmises	0.0492199744709745	2.820096804928497	6.705074241219836	0.3548124797585209	0.1444715577964088	2.55665475742723	-0.1085610054292546	-0.4229964186216551	0.3144354131924005	49.11204831438752	near	V1
1	2.0	ltm	50	diff_vonmises	0.0430263749304911	2.465229691264634	4.971322147809911	0.6530265613789211	0.4131895695358839	1.6236243900685037	0.189978163433644	-0.2640174068483705	0.4539955702820145	55.266346214735336	near	V2
2	3.0	ltm	50	diff_vonmises	-0.0688312896906371	-3.9437423977158432	1.7080814434530862	76.140645357244	1.6723083347107277	76.5553275353116	0.2651139846093784	-0.1946467959282021	0.4597607805375805	68.09228759479677	near	V3
3	4.0	ltm	50	diff_vonmises	-0.1902595918361322	-10.90107162409207	1.3267142419526536	225.0533390261089	1.3124301742545037	226.13475656590572	0.150079700176505	-0.3090656453694933	0.4591453455459984	72.93327727129918	near	V4
4	5.0	ltm	50	diff_vonmises	-0.0553419305571182	-3.170859051028962	2.7679656526758136	0.9454728194186192	7.761023516685169e-16	1.6879106480307575	0.3226398115171995	-0.2663081269368769	0.5889479384540764	82.647181350947	near	V3ab
5	6.0	ltm	50	diff_vonmises	-0.0064211713212796	-0.3679060162397669	0.594841979154317	45.46869845795671	0.5623769999657776	46.06156804649207	0.1255325177763655	-0.2048260104824382	0.3303585282588037	114.08727369410782	near	IPS0
6	7.0	ltm	50	diff_vonmises	-0.1844160294196502	-10.566260160306385	1.0770715568929514	155.12711659166834	1.061396534122668	156.11732931833873	0.107011021532017	-0.260863972413329	0.367874993945346	80.78709859789393	near	LO1
0	1.0	ltm	51	diff_vonmises	-0.0407856855291177	-2.3368476453662423	3.0638505759152364	0.4588192791137573	6.239469746581062e-16	4.052864602547739	-0.340919340798078	-0.6443699125433362	0.3034505717452582	78.48948349561056	near	V1
1	2.0	ltm	51	diff_vonmises	0.1514131144368627	8.675332420163588	6.865308057457548	0.5553256988321476	0.1766140370640564	2.2144087927021774	0.1517821855110193	-0.3660517519651191	0.5178339374761385	49.43406621597569	near	V2
2	3.0	ltm	51	diff_vonmises	0.1674861451633745	9.596249244776804	8.077510710303223	0.3792733926977791	5.475863429886948e-18	1.3766761317768568	0.2037674763089218	-0.219104770638348	0.4228722469472698	47.829859251235405	near	V3
3	4.0	ltm	51	diff_vonmises	-0.2140031987612498	-12.2614800913189	0.9457551095362584	5.204410111599926	0.457085746800342	7.71055823785768	-0.1159910335115408	-0.5120614001748158	0.396070366663275	93.69466255500674	near	V4
4	5.0	ltm	51	diff_vonmises	-0.0925654356456385	-5.303608791284919	1.7336344893048723	1.0689936419155173	3.098235785137712e-17	2.0716526745143984	0.1759108648484371	-0.3139364310977388	0.489847295946176	103.65900971711991	near	V3ab
5	6.0	ltm	51	diff_vonmises	0.3624239926468156	20.765365172942914	0.8960558657427123	145.23882977522976	0.8833339103452591	145.9217150971659	0.1338607577655324	-0.2010148226664565	0.3348755804319889	91.00142729834528	near	IPS0
6	7.0	ltm	51	diff_vonmises	0.0930340283836968	5.330457177486136	2.0903487302229697	0.6656942557337429	1.147723499254807e-16	2.5709547708416296	-0.0564945521506765	-0.4037879837498176	0.347293431599141	94.97822152236044	near	LO1
0	1.0	ltm	52	diff_vonmises	-0.0734569422206733	-4.208772765180925	6.089707968876015	0.4160927563482769	0.15141741377809	2.814606897217564	-0.1177600019247905	-0.4629350495451832	0.3451750476203926	51.21077997243782	near	V1
1	2.0	ltm	52	diff_vonmises	0.0248128374415987	1.4216708631477966	2.1281954089929616	2.3860437675745456	0.8720230052713812	3.538030934507272	0.1548997334330755	-0.3261620013509343	0.4810617347840098	69.24622244531369	near	V2
2	3.0	ltm	52	diff_vonmises	-0.0608967471235912	-3.489126596257216	3.0141238426025363	0.7990681483812576	0.2811590782350622	1.2419857531393703	0.2679584818622942	-0.1694536649428388	0.4374121468051331	72.60040694149012	near	V3
3	4.0	ltm	52	diff_vonmises	-0.1255146429418383	-7.191459307658824	1.5236361051982583	4.864311720290207	0.8764287168844748	5.947410833553587	0.2343943486586908	-0.3245926025045568	0.5589869511632477	78.56306829579057	near	V4
4	5.0	ltm	52	diff_vonmises	-0.0069899911110134	-0.4004969894950294	2.4211775390177364	1.0882504012538776	3.189109543579349e-15	1.4184430876421728	0.4035948631726339	-0.2207870658253438	0.6243819289979777	88.39805049544682	near	V3ab
5	6.0	ltm	52	diff_vonmises	0.1828135908031654	10.47444719065302	0.8182881758875938	25.13640151414832	0.7720175695311841	25.20958385720811	0.2002589362417746	-0.1038446621350357	0.3041035983768103	103.76051529336156	near	IPS0
6	7.0	ltm	52	diff_vonmises	-0.0391618157580506	-2.2438067610052244	0.6585615548812579	103.06488194798382	0.6431386486547525	103.6530397550337	0.1411279943987473	-0.2011210997882315	0.3422490941869789	107.83810812880913	near	LO1
0	1.0	ltm	53	diff_vonmises	-0.0674417590153556	-3.864128154518246	2.432180005637794	0.4227787933873807	3.9220074077400607e-19	2.899680258188161	-0.2163328706210769	-0.4596065354027538	0.2432736647816769	88.19156445570093	near	V1
1	2.0	ltm	53	diff_vonmises	0.1035276193596897	5.931695652347098	10.687148929360095	0.4089346887580673	0.1940509505193288	1.6762338027545305	0.2059151934113894	-0.2898772841974791	0.4957924776088686	40.15838141231066	near	V2
2	3.0	ltm	53	diff_vonmises	0.093699587109295	5.368590883481021	2.976032350532131	0.79325973422241	0.6061353692228271	1.3932333199770082	0.1455526816942297	-0.1810045497934908	0.3265572314877206	66.20525396158911	near	V3
3	4.0	ltm	53	diff_vonmises	-0.0182695620911625	-1.0467688013758172	1.693248530662042	2.3166805973203424	0.6598806512546955	3.854218242343397	0.0128751024942919	-0.3541196755410942	0.3669947780353861	75.1774610754639	near	V4
4	5.0	ltm	53	diff_vonmises	-0.0460288221885142	-2.637257247359982	2.002444674063972	0.9391714635088378	3.68640736373108e-12	1.7187449390028513	0.211296514012835	-0.2647091419494364	0.4760056559622714	96.96318390300132	near	V3ab
5	6.0	ltm	53	diff_vonmises	0.4539113645689894	26.007205462827148	0.6908912903176198	170.20375241192323	0.6817950417750331	170.8780204046069	0.1053743412446266	-0.1987122475633782	0.3040865888080049	103.27362130255052	near	IPS0
6	7.0	ltm	53	diff_vonmises	0.0631154460266572	3.6162486794132	1.418565015913528	1.9760233272878351	0.5012921688486558	3.14279128238038	0.0513107896683748	-0.2744988787116225	0.3258096683799973	85.45066576327906	near	LO1
0	1.0	ltm	54	diff_vonmises	0.1525734915237697	8.741817129887044	0.1451274699204818	34.99575479953771	0.1180770612684812	36.42753204508016	-0.0956683878951976	-0.3419395612544074	0.2462711733592097	162.67696986748848	near	V1
1	2.0	ltm	54	diff_vonmises	0.0654450284810695	3.7497239220787546	15.259347229158733	0.2651044446175081	0.1222343862629627	1.229138807871212	0.1893548248988854	-0.2090683269718995	0.3984231518707849	34.138648751311194	near	V2
2	3.0	ltm	54	diff_vonmises	0.0427782423342566	2.451012740740776	1.472763840193393	32.32282412386999	1.419928264349647	32.758304931259275	0.1195358573643208	-0.1461255927669928	0.2656614501313137	71.43699550942802	near	V3
3	4.0	ltm	54	diff_vonmises	0.0603602137991841	3.4583855012005644	2.605953331851305	1.1198681770555594	0.7321667612931594	2.132773791481637	0.0562211919519906	-0.2623810070716139	0.3186021990236045	64.97196498761491	near	V4
4	5.0	ltm	54	diff_vonmises	0.0197175508172254	1.129732444161747	1.5702300762298624	1.083029613427698	3.5622203530840096e-16	1.6019718725569403	0.2273613544725708	-0.2340948851772409	0.4614562396498118	108.31480283617704	near	V3ab
5	6.0	ltm	54	diff_vonmises	0.4631563292812224	26.536902922585472	0.5907957325740565	130.50654465913337	0.5801092559194567	131.04531587664982	0.1225173608406962	-0.1897810010083347	0.3122983618490309	113.4771380083015	near	IPS0
6	7.0	ltm	54	diff_vonmises	0.0317207972077848	1.8174678027964395	0.9534386969080062	94.746059569036	0.9315252606829588	95.50121056971471	0.1462414224136417	-0.2203876309573633	0.366629053371005	88.26094328536271	near	LO1
0	1.0	ltm	55	diff_vonmises	0.0246531037891425	1.4125187990158463	1.866605956920638	0.4536351244827261	9.266478075067681e-14	1.9784467905158571	-0.0904544012595875	-0.3095117374820818	0.2190573362224942	100.22231454138958	near	V1
1	2.0	ltm	55	diff_vonmises	0.1821158704250787	10.43447075770838	5.18855520786491	0.5279623000104202	0.4456770828575656	1.3061213511534329	0.1577904373731545	-0.2157931984457318	0.3735836358188863	53.96804594303211	near	V2
2	3.0	ltm	55	diff_vonmises	0.1423980407482175	8.158806745804785	3.8722822689502094	0.8074655066075832	1.0063319630867689	1.1737649054239965	0.2074012035230603	-0.160390255746146	0.3677914592692063	57.36199737468252	near	V3
3	4.0	ltm	55	diff_vonmises	0.06719147502856	3.849787938395153	1.61907742390991	98.42945553635856	1.5878160873256228	99.4591215118394	0.0647724567914664	-0.2971179576357272	0.3618904144271937	64.18767363634032	near	V4
4	5.0	ltm	55	diff_vonmises	-0.1399750123995744	-8.01997744778698	1.521873965352278	0.9580926509461668	2.4473472082422085e-23	1.5778690328514762	0.1675327492710583	-0.2311740912540059	0.3987068405250643	109.72025940887376	near	V3ab
5	6.0	ltm	55	diff_vonmises	0.1928122019489122	11.047325410296777	1.000309209240315	99.27984786024444	0.98461266998242	99.74809733263524	0.1363459008961669	-0.1527392852458629	0.2890851861420298	87.36493105426757	near	IPS0
6	7.0	ltm	55	diff_vonmises	-0.0379079260729885	-2.171964174076175	0.852033895957381	43.80886764256064	0.804807935136474	44.86566503765852	0.073094815835903	-0.2616961283572818	0.3347909441931849	91.11451913490234	near	LO1
0	1.0	ltm	56	diff_vonmises	-0.074275309993934	-4.255661784678287	7.482414330125328	0.2543080237911389	0.0697182919902741	1.810529249412054	-0.0360456690881015	-0.2928994962145412	0.2568538271264396	48.1297840433715	near	V1
1	2.0	ltm	56	diff_vonmises	0.1557650799446087	8.924681676343944	3.7594193251121584	0.9377577999150838	0.9276119827380565	1.580063292370242	0.1786718287877408	-0.223987822751849	0.4026596515395898	57.278216132036704	near	V2
2	3.0	ltm	56	diff_vonmises	0.1384896157666151	7.934870489815469	2.460805678082483	20.615586295727763	2.358835671124184	20.718942054376942	0.2384090629244397	-0.1156399106535936	0.3540489735780334	58.49965547171149	near	V3
3	4.0	ltm	56	diff_vonmises	-0.0170906834604034	-0.9792240312751588	1.6106102559409237	138.5964841481808	1.5898341224521135	139.3822146438654	0.1404339824466518	-0.2515954528456809	0.3920294352923328	66.44628842100238	near	V4
4	5.0	ltm	56	diff_vonmises	-0.0424747727163207	-2.433625212422601	2.857621245822089	0.7013199261120958	5.904469874330594e-13	1.012084660627797	0.2856127632939572	-0.1596060317019841	0.4452187949959413	81.32596667569939	near	V3ab
5	6.0	ltm	56	diff_vonmises	0.1840112963150618	10.54307066158424	1.0412898190710826	60.64402476950882	1.0230131168823684	60.79752849795107	0.1559157032596978	-0.0906555994590716	0.2465713027187694	89.52716869075488	near	IPS0
6	7.0	ltm	56	diff_vonmises	-0.064659929477139	-3.704741062653612	0.9578035221163896	105.07342525951287	0.9421103526502176	105.69781293062564	0.1066286007235248	-0.1769504294734716	0.2835790301969965	87.45610793440298	near	LO1
0	1.0	ltm	57	diff_vonmises	0.1064039940874959	6.096499784548485	0.3574559135088134	43.75244940548544	0.33390799555749	45.17140656744234	-0.120138543443911	-0.2891550342855371	0.169016490841626	127.9431626710032	near	V1
1	2.0	ltm	57	diff_vonmises	0.0467415388232706	2.678092902520291	18.032590172087357	0.254877698836953	0.2659389551902422	1.083404394436135	0.2075616830455247	-0.2024353440075792	0.409997027053104	31.115826893448457	near	V2
2	3.0	ltm	57	diff_vonmises	0.106691946687716	6.112998253240912	1.9821396257911903	43.31749210783912	1.9450491507123493	43.50803744223426	0.1560509113828594	-0.1059788427210781	0.2620297541039376	63.38660476830199	near	V3
3	4.0	ltm	57	diff_vonmises	0.051591613688303	2.955981722609134	1.5473421810307777	93.69737687404208	1.5206612541943465	94.6512161351389	0.0176091661730524	-0.2581640999687646	0.2757732661418171	64.45184784396949	near	V4
4	5.0	ltm	57	diff_vonmises	-0.0240309101597118	-1.376869730009538	2.489536340573172	0.7412649939451207	2.124980592538677e-15	1.2106315544573396	0.2430959425887738	-0.1896793567678082	0.4327752993565821	87.17812772360239	near	V3ab
5	6.0	ltm	57	diff_vonmises	0.3250409813532404	18.623476400331167	0.7138845444840664	99.62427303376631	0.7016336151426565	100.02855433953955	0.1175277281501046	-0.1433439204435416	0.2608716485936462	104.01636681038238	near	IPS0
6	7.0	ltm	57	diff_vonmises	0.0190652518960628	1.0923584689981891	1.2653212820675752	144.31940712002455	1.2503867941536646	145.0404045379721	0.1145207837122228	-0.207588470160843	0.3221092538730659	75.20564345639008	near	LO1
0	1.0	ltm	58	diff_vonmises	-0.0010837611189622	-0.0620949381169138	6.5575861988404105	0.5805936499896573	0.2571290250648529	3.003262039838292	-0.0271378744510621	-0.5128069224734519	0.4856690480223897	48.680294030141056	near	V1
1	2.0	ltm	58	diff_vonmises	0.0685205050540068	3.9259357496994216	2.22156172412385	2.987636441481986	1.1182276396572566	3.932361441897794	0.210615019322816	-0.3084213600786	0.5190363794014161	66.2146613949819	near	V2
2	3.0	ltm	58	diff_vonmises	-0.052582917142412	-3.0127792267463187	1.512585672971977	65.14582924278164	1.4732103346059562	65.54733935673764	0.2773665141594712	-0.1886507592197981	0.4660172733792693	72.99342175360627	near	V3
3	4.0	ltm	58	diff_vonmises	-0.1574869244962398	-9.02333610213	1.2138371684724838	158.13311835995708	1.1921317152009334	159.15092142886778	0.2493401274171915	-0.3178413408221026	0.5671814682392942	78.40162264665113	near	V4
4	5.0	ltm	58	diff_vonmises	-0.0133328046915947	-0.763913437900602	2.5191628605030143	1.0607572850369504	7.878729898445078e-19	1.352681901349824	0.4126791521506825	-0.2112137363106232	0.6238928884613058	86.66284719363563	near	V3ab
5	6.0	ltm	58	diff_vonmises	0.1374357128946969	7.874486303237839	1.5862970297831445	0.7401961664286749	1.5363202355890228e-17	0.8083353808320267	0.2030390357909613	-0.1147544028674993	0.3177934386584607	107.7725477631003	near	IPS0
6	7.0	ltm	58	diff_vonmises	-0.1290464989245672	-7.393819749317218	0.6433429565928974	118.87059282437056	0.6292004441365019	119.53193345800098	0.1399006577103989	-0.2187500708678076	0.3586507285782065	108.61284823355312	near	LO1
0	1.0	ltm	59	diff_vonmises	0.0972801847014988	5.5737440136490015	5.890782447784483	0.3201588351827841	0.0660051066007923	3.3706041311114525	-0.2696709602471563	-0.5418215640227219	0.2721506037755655	53.096040712436064	near	V1
1	2.0	ltm	59	diff_vonmises	0.0457389306844074	2.6206476876579674	6.740710741482674	0.4945746124422896	0.1697493197762418	1.868249132500768	0.1521170838358269	-0.3071986878362363	0.4593157716720633	50.03249777520742	near	V2
2	3.0	ltm	59	diff_vonmises	-0.0151544993907466	-0.8682888557233592	2.707056265296309	1.4054574069164745	0.7598445622907547	2.242235491160326	0.2040525143455818	-0.2618816186580439	0.4659341330036257	66.49135070587224	near	V3
3	4.0	ltm	59	diff_vonmises	-0.245617535772233	-14.072848174152472	1.036835445736642	224.05469306357372	1.02174568047346	225.9172883343373	-0.0062547833520625	-0.4236505511350401	0.4173957677829776	78.28370015912593	near	V4
4	5.0	ltm	59	diff_vonmises	-0.1027352237955834	-5.886294730818918	2.590300755833012	0.9536857932896368	1.138867946023345e-15	2.294970556554449	0.2086132362016237	-0.3620280783125357	0.5706413145141594	85.45534369914043	near	V3ab
5	6.0	ltm	59	diff_vonmises	0.0106998232010306	0.6130547109552122	0.7182878108870805	84.78278385773642	0.6932631171395507	85.9655032170824	0.0694410870827084	-0.2935570316921208	0.3629981187748292	98.71563912574364	near	IPS0
6	7.0	ltm	59	diff_vonmises	-0.1083226893074054	-6.206432922821225	1.0783365397739282	240.85893841071976	1.0646081080904013	242.7538381463135	-0.0494828568061649	-0.4234390047060614	0.3739561478998965	75.42132470646465	near	LO1
0	1.0	ltm	60	diff_vonmises	0.1351287377347236	7.742306363129854	0.8043278864043343	1.0994300989404022	2.0982386518780145e-30	2.570959196972834	-0.0744390233072992	-0.3421790228269091	0.2677399995196099	136.93936829770803	near	V1
1	2.0	ltm	60	diff_vonmises	0.067014771744771	3.839663586007941	4.532600825819543	0.5613258169143546	0.3064910084049295	1.520517608028296	0.1406144145391406	-0.2399317782685043	0.3805461928076449	58.475072749082415	near	V2
2	3.0	ltm	60	diff_vonmises	0.0082642745208251	0.4735080507807794	3.1399373558171644	0.6837676539267372	0.4409838721700086	1.2203289858451596	0.1718325277239241	-0.166225179172427	0.3380577068963512	67.73673755088888	near	V3
3	4.0	ltm	60	diff_vonmises	0.0460454675161936	2.6382109543846246	3.334013471659296	0.8871454778234652	0.5002152763365867	1.818530062273437	0.1679495772070722	-0.2580105089284588	0.425960086135531	64.15302641929247	near	V4
4	5.0	ltm	60	diff_vonmises	0.0454622829550572	2.60479694035432	1.1837102646541044	1.7669151715110294	0.1218462026935893	2.123480602871575	0.2842195257235221	-0.2357987446624404	0.5200182703859626	115.1894586236263	near	V3ab
5	6.0	ltm	60	diff_vonmises	0.3605933672519221	20.660478063946048	0.7469939027890358	93.6951111287867	0.7320770287930666	93.98751779244658	0.1817456001292221	-0.1464137813150445	0.3281593814442667	104.38688535989158	near	IPS0
6	7.0	ltm	60	diff_vonmises	0.0859097406246986	4.922265556858822	0.9838689879380832	1.664520073665204	0.0601563077876225	2.3005369954356016	0.1752085996845207	-0.2656637453868053	0.4408723450713261	125.38489303548072	near	LO1
0	1.0	ltm	61	diff_vonmises	-0.0450008544900531	-2.578359036762387	6.204359834265509	0.271969663308409	0.0373499844579754	3.656956395088599	-0.3396692240691805	-0.5849412407610266	0.2452720166918461	52.52376499834517	near	V1
1	2.0	ltm	61	diff_vonmises	0.0528369183986643	3.027332426720597	7.785086331876202	0.502878549255771	0.1852675840243297	2.0201130750728704	0.1665298180773116	-0.3389003370096173	0.5054301550869289	46.58667092757455	near	V2
2	3.0	ltm	61	diff_vonmises	0.0065899697144093	0.3775774517546885	3.4607315526413758	0.7413981311447934	0.4112140430014894	1.4328681108729462	0.1963044310059824	-0.2048416669914754	0.4011460979974579	65.22672612697593	near	V3
3	4.0	ltm	61	diff_vonmises	-0.1637753203878359	-9.383634646625865	0.9676707108365826	145.30790390511854	0.9445456486375085	147.17577850681326	0.0192006777918507	-0.4267946349092426	0.4459953127010934	82.06802186459421	near	V4
4	5.0	ltm	61	diff_vonmises	-0.0749622090455949	-4.295018201289994	2.695913673913447	0.9000811924261687	7.056732799528708e-17	1.981793913579056	0.2389348190759794	-0.3128878173295513	0.5518226364055308	83.75718042765237	near	V3ab
5	6.0	ltm	61	diff_vonmises	0.2674230919286923	15.3222145118531	0.6555982999617177	131.14266413366545	0.6430876033422425	131.99916076283512	0.0773644055301474	-0.2294324543620867	0.3067968598922341	104.38901146019626	near	IPS0
6	7.0	ltm	61	diff_vonmises	0.0192418275153807	1.1024755067500145	1.015094010671055	194.01498183667695	1.001902539123105	195.43415646570787	-0.0016599656018314	-0.3222957495904737	0.3206357839886422	79.23251394906745	near	LO1
0	1.0	ltm	62	diff_vonmises	-0.8293569073881617	-47.51865050336395	0.0002407130226215	1210.960433399248	2.0307658198722437e-29	1213.538396888062	-0.3639017758891327	-0.4566839059454537	0.0927821300563209	161.30814153813836	near	V1
1	2.0	ltm	62	diff_vonmises	0.0310474842731527	1.7788898133504516	16.05104599742606	0.2735726583371721	0.101064164213912	1.5452041615234502	0.1623110149620166	-0.2603815115501615	0.4226925265121781	33.31367913454352	near	V2
2	3.0	ltm	62	diff_vonmises	0.1395585487746906	7.996115839760417	4.129472621700446	0.5768497988716041	0.8687065171911447	0.8056096394517295	0.1960960519677559	-0.1142695867756687	0.3103656387434247	57.77673721309779	near	V3
3	4.0	ltm	62	diff_vonmises	0.0512451532168467	2.936130999826575	1.3744444589581486	151.9835817278984	1.3525823799366286	153.33465788711612	0.0472763372762159	-0.3512304275331459	0.3985067648093618	69.074982807499	near	V4
4	5.0	ltm	62	diff_vonmises	-0.0959993294808387	-5.5003564153378806	3.363520143652005	0.5938002262265243	1.095168355558198e-11	1.5533254553669948	0.1675904733779957	-0.2467223245009261	0.4143127978789218	74.83282505127374	near	V3ab
5	6.0	ltm	62	diff_vonmises	0.2662299409263929	15.25385199509954	0.8964827083555347	106.63176261732713	0.8832202330598125	107.34867611751304	0.0403951046844568	-0.1738898748021533	0.2142849794866101	87.27168433249784	near	IPS0
6	7.0	ltm	62	diff_vonmises	0.1328044484027696	7.609134394041604	1.3903943705650397	112.1261956037096	1.369779571477484	112.98652959069128	0.0612964489189593	-0.2331826082120844	0.2944790571310438	69.69577586289415	near	LO1
0	1.0	ltm	63	diff_vonmises	0.065686441947151	3.763555894802847	12.200785960933112	0.4024188252108782	0.1296198789654624	3.0702427730859787	0.0007965497987055	-0.5219413752116735	0.5227379250103791	37.58278712449055	near	V1
1	2.0	ltm	63	diff_vonmises	0.1454548437335973	8.333948655670037	8.301755537129727	0.5792866919197164	0.5220564613746163	1.3831655137128107	0.3081484722872941	-0.2587978456916744	0.5669463179789686	43.920951121583926	near	V2
2	3.0	ltm	63	diff_vonmises	0.0480796022086713	2.754758287224739	2.0583221578664426	123.06325383430908	2.0370687672222725	123.43554064885554	0.2089131627956248	-0.1802281813496691	0.389141344145294	61.03654244174695	near	V3
3	4.0	ltm	63	diff_vonmises	-0.0881909657205471	-5.052970126970268	1.3001978930899825	222.18062947824416	1.2859343531137426	223.3367657230327	0.1201766955522884	-0.31654404180777	0.4367207373600585	72.9636941015458	near	V4
4	5.0	ltm	63	diff_vonmises	-0.1028120082489787	-5.890694155930685	2.614555407458903	0.7501352479050409	1.0949177610321444e-11	1.623664500963819	0.1954333919603489	-0.255982361973	0.4514157539333489	85.05668758850729	near	V3ab
5	6.0	ltm	63	diff_vonmises	0.4341252588453799	24.87354511186468	0.5369419401681199	113.80652406965515	0.525037219201337	114.80448252338977	0.0034577170535285	-0.2368226138646356	0.2402803309181642	111.70333375918172	near	IPS0
6	7.0	ltm	63	diff_vonmises	-0.0090626603815124	-0.5192521910210867	3.0239382751736312	0.5464387714833273	0.1454963282830524	1.779868647935724	0.0335692700110932	-0.2648008704060326	0.2983701404171258	72.15028189314685	near	LO1
0	1.0	ltm	64	diff_vonmises	-0.0117640609547325	-0.6740310426408186	6.269208969937487	0.6176127923539358	0.1966176536119435	3.129096147584089	0.0031004271597392	-0.5198114301362086	0.5229118572959478	50.59755248016904	near	V1
1	2.0	ltm	64	diff_vonmises	0.0592734673309321	3.396119515168979	1.552808819395307	57.75451128391729	1.4862147912437833	58.7935440165581	0.2224666436013969	-0.3359037226510306	0.5583703662524275	68.83299970327002	near	V2
2	3.0	ltm	64	diff_vonmises	-0.0362643800881554	-2.0777959257095686	1.359565129843572	39.62129028454165	1.2909041404759298	40.21972286033268	0.25543719330377	-0.2249664665561743	0.4804036598599444	76.27921391546249	near	V3
3	4.0	ltm	64	diff_vonmises	-0.1063527345999021	-6.093562832249355	2.127654115597814	1.8659822406991944	0.4638168132102485	2.9811003711433424	0.2837529462335708	-0.3333705211485274	0.6171234673820982	78.2728392031992	near	V4
4	5.0	ltm	64	diff_vonmises	0.0136004358494288	0.7792475737106944	1.8558270577857945	1.441932146252832	0.1129058903412463	1.6567897325791143	0.416615970987431	-0.2174127671531293	0.6340287381405604	96.37000070410494	near	V3ab
5	6.0	ltm	64	diff_vonmises	0.261320209143503	14.97254508539871	0.8427438515226529	36.85454147587315	0.8114291346990075	36.84605570334717	0.2229226266625854	-0.094480561412281	0.3174031880748664	103.2233561882772	near	IPS0
6	7.0	ltm	64	diff_vonmises	-0.0095385505609818	-0.5465186898164044	0.2800063066627539	91.1733905896054	0.2624792408799136	91.82086974541228	0.1517942494123438	-0.2938853956498004	0.4456796450621443	148.0756364387043	near	LO1
0	1.0	ltm	65	diff_vonmises	-0.1851055789286635	-10.605768436938163	8.707270136612312	0.1759062355887936	1.7878969755689291e-23	2.667667081571376	-0.2206819355455621	-0.4245723969768609	0.2038904614312988	46.04366956673184	near	V1
1	2.0	ltm	65	diff_vonmises	0.073393961421769	4.205164231213349	4.662093088821786	0.5949740042388606	0.298317880133249	1.7883262139368925	0.1218007704627038	-0.2854504842925627	0.4072512547552666	57.48904180395337	near	V2
2	3.0	ltm	65	diff_vonmises	0.0804038375756491	4.606800549740079	4.305870383009721	0.6173336619590608	0.5440155917905176	1.0203211621629706	0.2338139307699569	-0.1536024987547235	0.3874164295246805	59.0292237633613	near	V3
3	4.0	ltm	65	diff_vonmises	-0.0385836669221392	-2.210681272777096	1.285736145385515	167.31532993070724	1.2653473682171446	168.61900477714104	0.1127345733926432	-0.3488315690126562	0.4615661424052995	73.06077488196053	near	V4
4	5.0	ltm	65	diff_vonmises	-0.0900916677501077	-5.161872331376043	2.5789358131859794	0.8034628952073508	3.6855733540323845e-14	1.675693348340494	0.2155361400345553	-0.2639200973130504	0.4794562373476057	85.64495627051156	near	V3ab
5	6.0	ltm	65	diff_vonmises	0.1936521713628397	11.0954521126349	0.8644948636854978	105.28070015555146	0.8502310661659132	105.89289990717197	0.094727425577048	-0.1712711618922249	0.2659985874692729	91.9204539141446	near	IPS0
6	7.0	ltm	65	diff_vonmises	0.0025439651778491	0.1457584679190036	0.973205596353205	121.67274321515906	0.9563641784702236	122.64439283797778	0.0647470567470946	-0.2400498365033279	0.3047968932504226	84.0028244094411	near	LO1
0	1.0	ltm	66	diff_vonmises	-0.060265649411007	-3.4529673608657787	5.28642938337318	0.3286401501935742	0.0036571824769814	3.83344816513897	-0.3188492280097122	-0.609157202752594	0.2903079747428818	58.96134732872776	near	V1
1	2.0	ltm	66	diff_vonmises	0.0773613172052077	4.432476973431203	6.291600901372767	0.6055179432256923	0.200943109276152	2.24720766327112	0.1598738457573087	-0.3701772067561195	0.5300510525134283	51.258208080983934	near	V2
2	3.0	ltm	66	diff_vonmises	0.0286638945468432	1.6423201819421749	3.953028036195135	0.6233419733248317	0.1955345349834248	1.5243477935977647	0.1839410490458932	-0.2315585231394056	0.4154995721852988	64.29427351520792	near	V3
3	4.0	ltm	66	diff_vonmises	-0.1116317840099824	-6.396030083287984	1.6862368523230988	2.100114099458371	0.3904598737524626	4.14251306473377	0.0385785153419653	-0.4582934014872259	0.4968719168291912	82.75902995295155	near	V4
4	5.0	ltm	66	diff_vonmises	-0.0512113962203848	-2.934196866400267	2.115781419041798	1.0750098568812363	2.0570324403958986e-17	2.082482676211022	0.2422811772214114	-0.3231014494945908	0.5653826267160023	94.4351669907198	near	V3ab
5	6.0	ltm	66	diff_vonmises	0.3782587597156018	21.672630495557108	0.6767216293213741	167.84773486915813	0.6664779111094223	168.62401625170858	0.1112940711246182	-0.2255920036212213	0.3368860747458395	104.13200260327773	near	IPS0
6	7.0	ltm	66	diff_vonmises	0.0298056830832192	1.7077398461729367	0.7235909873260749	105.5242705503707	0.7025566250263561	106.9812580240086	0.0079745087387443	-0.3280500641632038	0.3360245729019482	95.48691466164688	near	LO1
0	1.0	ltm	67	diff_vonmises	-0.4092784861824065	-23.449929903755272	0.4103828628640743	148.51254719610216	0.3958381726548262	152.16762868660518	-0.4348037370529738	-0.6480925211333428	0.213288784080369	107.02147095516848	near	V1
1	2.0	ltm	67	diff_vonmises	0.0665912485147406	3.815397492401453	6.161973537816814	0.4569453341975997	0.0158028330674863	2.3867389627821143	0.0566231497262181	-0.3789053413301111	0.4355284910563293	54.36547987346168	near	V2
2	3.0	ltm	67	diff_vonmises	0.1126328142740936	6.453384892586423	6.568140807128818	0.4135501207241623	5.527223022029616e-14	1.320191483675494	0.2039214117977145	-0.2101141834914955	0.4140355952892101	53.12850789696219	near	V3
3	4.0	ltm	67	diff_vonmises	0.0610164413729346	3.495984571576578	2.677611295225555	1.21286923406627	0.2836936582248381	3.511616497558089	0.0164891805500341	-0.4971650259711632	0.5136542065211973	71.49256563750768	near	V4
4	5.0	ltm	67	diff_vonmises	-0.1624952332058438	-9.310291053688925	1.563289641247776	1.1108818388848545	1.8322448257248708e-17	2.6172782951123703	0.0768351349161928	-0.3949080423485653	0.4717431772647582	108.44954467608972	near	V3ab
5	6.0	ltm	67	diff_vonmises	0.360030893899009	20.628250714735557	0.8442627923315167	185.1406144140738	0.8326221086033039	186.346027061444	0.0378184281670783	-0.2814313274353459	0.3192497556024243	88.98100732561366	near	IPS0
6	7.0	ltm	67	diff_vonmises	0.2057298725633367	11.787453417643464	3.770771076288956	0.4802601869829108	4.0288376654709277e-16	2.134241381619164	0.0178162318142833	-0.3394853785048574	0.3573016103191408	70.56464135517984	near	LO1
0	1.0	ltm	68	diff_vonmises	0.0150761654739565	0.8638006528985614	7.615720856038021	0.6521232074252316	0.3560401567212179	3.1462850731617222	0.0125845958974208	-0.5677708360566552	0.5803554319540761	44.828734613247946	near	V1
1	2.0	ltm	68	diff_vonmises	0.0941665266849297	5.395344550452516	1.801630862647092	14.74427122338308	1.5688601199175258	15.533529364142868	0.2250981426276821	-0.2833076139769495	0.5084057566046316	65.93352513744503	near	V2
2	3.0	ltm	68	diff_vonmises	-0.0056940869755582	-0.3262471518799019	1.8397694760831709	76.64684073549306	1.8042741356290268	76.92715042061225	0.3067743893541319	-0.176158899883255	0.482933289237387	66.67614329975055	near	V3
3	4.0	ltm	68	diff_vonmises	-0.1625362496540298	-9.312641123060596	1.3312269503070109	242.5393884377249	1.3164581486333526	243.4622192397036	0.278825242231008	-0.31018962140773	0.589014863638738	75.19908638190199	near	V4
4	5.0	ltm	68	diff_vonmises	-0.0436773674130919	-2.502528813012403	2.9190576394423013	0.9268387788897317	1.0401589407701183e-20	1.316611430369223	0.3880165161510526	-0.2078033418312171	0.5958198579822697	80.45381761688876	near	V3ab
5	6.0	ltm	68	diff_vonmises	0.0392312069816167	2.24778258525081	1.5790804973293424	0.699017333028375	2.4107542446868206e-19	0.8554311729634875	0.1762204124166566	-0.1228689331648175	0.2990893455814741	108.04772636419564	near	IPS0
6	7.0	ltm	68	diff_vonmises	-0.2031751198085014	-11.641076867091984	0.7446866448786527	104.30406565344376	0.7282711178635844	105.01757418880412	0.1198703455847116	-0.2097424362970077	0.3296127818817194	99.816935507669	near	LO1
0	1.0	ltm	69	diff_vonmises	-0.0846027850790864	-4.847382520084025	4.744169384303166	0.3214388607103025	3.285051481791477e-17	2.8931691978758343	-0.1894491815748679	-0.4604416545912326	0.2709924730163647	62.72450828305563	near	V1
1	2.0	ltm	69	diff_vonmises	0.1059934834585089	6.072979258062264	10.96060857192309	0.4434034387674583	0.2392431170547523	1.6125735275366258	0.2572508882265221	-0.2849059946480136	0.5421568828745358	39.56463485289839	near	V2
2	3.0	ltm	69	diff_vonmises	0.0631580309044696	3.618688613182933	1.6151567954535757	78.40735432351751	1.5859046789398556	78.9250840367539	0.1606681562827319	-0.185944856197981	0.3466130124807129	68.01372344421014	near	V3
3	4.0	ltm	69	diff_vonmises	-0.0122604970071189	-0.7024747332406949	1.1447970484237415	160.53399973451266	1.1255935838296092	161.91279489278156	0.0709208214212608	-0.3431338803360191	0.41405470175728	76.61780245977963	near	V4
4	5.0	ltm	69	diff_vonmises	-0.0579396377234638	-3.3196967080714512	2.112526864167407	0.8997997476155981	7.155819958880492e-20	1.7469932688557868	0.2017093555505685	-0.2710259966543516	0.4727353522049201	94.50666804629604	near	V3ab
5	6.0	ltm	69	diff_vonmises	0.5361680740899969	30.720167755014447	0.5954553947973623	157.8697932947301	0.585794986999469	158.7281597468635	0.0627415496775825	-0.2291995804399444	0.291941130117527	109.09488152914486	near	IPS0
6	7.0	ltm	69	diff_vonmises	0.0687764458785539	3.940600078751068	2.153610741952662	0.861223051450575	0.268104619231039	1.957308570872146	0.0644613620930489	-0.2549842803806689	0.3194456424737178	80.06452156054038	near	LO1
0	1.0	ltm	70	diff_vonmises	-0.0651767875937326	-3.734354851341504	9.854512043896886	0.3541966886287178	0.1000616695695819	4.086856730061975	-0.279473583206818	-0.6806080530560316	0.4011344698492136	41.28889947890818	near	V1
1	2.0	ltm	70	diff_vonmises	0.0503220003146207	2.883238234683772	2.7239942062118114	1.3003737351100415	0.4771495826425374	2.745473158769632	0.1400236189421109	-0.3642332468992703	0.5042568658413812	68.8152646131669	near	V2
2	3.0	ltm	70	diff_vonmises	0.0623277920108581	3.57111942859138	4.704960950048565	0.6676561926759277	0.3017968626269588	1.3386932963358191	0.2786900329759327	-0.2083082538248689	0.4869982868008016	58.73725000326843	near	V3
3	4.0	ltm	70	diff_vonmises	-0.0697203836642542	-3.994683729994618	1.084275167721363	175.49050233000384	1.0595982476028043	177.23449771784206	0.1978661279864937	-0.4625866016362288	0.6604527296227225	80.81255050166408	near	V4
4	5.0	ltm	70	diff_vonmises	-0.1104599060714996	-6.328886423308427	2.3725046157169483	0.9840070182025932	3.537528544547395e-19	2.0994301320335	0.2281459588138929	-0.329245281074672	0.557391239888565	89.28278283673907	near	V3ab
5	6.0	ltm	70	diff_vonmises	0.1990160362114456	11.402778930338592	0.840236573345496	89.7753123638672	0.8215019629882655	90.50518504474132	0.096441718653164	-0.1985461137946718	0.2949878324478359	92.89679412775844	near	IPS0
6	7.0	ltm	70	diff_vonmises	-0.0068129964689215	-0.3903559435067356	0.6283018745201413	83.59059071493557	0.6057997180714771	84.83177135234436	0.0255937379847175	-0.2943819858555487	0.3199757238402663	104.08152976061672	near	LO1
0	1.0	ltm	71	diff_vonmises	0.504822157405873	28.92417902404544	0.7391745793366578	179.7107186239251	0.7242708890204687	183.12197759199557	-0.4737354419753128	-0.6150401387292526	0.1413046967539397	40.59969836971521	near	V1
1	2.0	ltm	71	diff_vonmises	0.0461955607188816	2.6468106614322497	14.638200195778412	0.3605984100081237	0.1705903063836014	1.6712222592994923	0.232221645690535	-0.2917774706368868	0.5239991163274218	34.63534864652772	near	V2
2	3.0	ltm	71	diff_vonmises	0.0815658791613165	4.673380628217509	1.832642865236329	53.46140561454117	1.7876371082547289	53.90542184727157	0.1785768744394538	-0.1810010947810987	0.3595779692205525	64.35482397215031	near	V3
3	4.0	ltm	71	diff_vonmises	-0.1788453678257762	-10.247084761881782	1.0864733535468016	202.6720525504272	1.0707833607950388	204.42581987476217	-0.0258520137382021	-0.3979632593710853	0.3721112456328832	75.81083892537316	near	V4
4	5.0	ltm	71	diff_vonmises	-0.1150324647616693	-6.590874737831018	3.6537634987965193	0.6632286080519267	1.885829941680774e-22	1.939024857933343	0.1765427711102692	-0.3082800515291142	0.4848228226393834	71.72220439791687	near	V3ab
5	6.0	ltm	71	diff_vonmises	0.1052822718356329	6.032229833730825	0.745657765579666	112.978428341144	0.7299314647218068	114.18079534176395	-0.0099175576709242	-0.2635266467456016	0.2536090890746774	92.89638614561004	near	IPS0
6	7.0	ltm	71	diff_vonmises	0.107807582391105	6.17691947051921	1.4217194729052816	231.26898583247572	1.4069320975852413	232.83424539149476	-0.0435880769421004	-0.3894942546368227	0.3459061776947223	65.40471558382285	near	LO1
0	1.0	ltm	72	diff_vonmises	0.4992564009159239	28.605284667373805	0.0003585644140116	2156.8583274997304	8.043751815565845e-30	2156.81255738619	0.1303787291090543	-0.1157875844285172	0.2461663135375715	172.49784326583534	near	V1
1	2.0	ltm	72	diff_vonmises	1.1538583992337397	66.11121643181446	3.205545603157582	39.14915647922646	3.255514760493912	38.96643666181431	0.1169496285134554	-0.1075706556976889	0.2245202842111444	51.45642145115332	near	V2
2	3.0	ltm	72	diff_vonmises	-1.2907506666485002	-73.95456560265649	2.1109375220047872	93.60245665470455	2.129377355799976	93.14766628465269	0.1532269794258276	-0.0177714379139999	0.1709984173398275	48.07477894245946	near	V3
3	4.0	ltm	72	diff_vonmises	0.1864436629312885	10.682435002922547	3.1749494182698177	73.27944578946723	3.143158896354981	73.40329581615774	0.1977773060633794	-0.1230656186601883	0.3208429247235678	50.03993040002274	near	V4
4	5.0	ltm	72	diff_vonmises	0.1133785732500544	6.4961137344429725	1.195045385602391	24.43246750465614	1.156587345104587	23.991516165754987	0.3377835684469019	-0.0349542849153714	0.3727378533622734	95.73881899843286	near	V3ab
5	6.0	ltm	72	diff_vonmises	0.5393509073027057	30.90253066499673	0.9839349034406688	40.59565407233337	0.9685156554313084	40.36615381861862	0.1956989516869107	-0.0320012078938782	0.227700159580789	102.00663989771392	near	IPS0
6	7.0	ltm	72	diff_vonmises	0.0483968337566345	2.7729343160514297	1.101547738362648	33.46324100783513	1.0721986239566523	33.33001369054501	0.2314933489081845	-0.0580022512956848	0.2894956002038693	93.1330462455231	near	LO1
0	1.0	ltm	73	diff_vonmises	-0.4539759493686715	-26.010905899269627	0.674912949846065	48.20896738410846	0.6405292590030622	49.934742113996606	-0.1563463274880483	-0.3252772271590434	0.168930899670995	89.41083105529202	near	V1
1	2.0	ltm	73	diff_vonmises	0.1394498845672231	7.989889839288396	6.944030995405328	0.4049850101924827	0.2663692220744878	1.2473629653185496	0.162923154763958	-0.2107561078134477	0.3736792625774058	48.77849621922576	near	V2
2	3.0	ltm	73	diff_vonmises	0.1216352504982396	6.969186493565673	3.007863113429728	1.5221417264497548	1.6625595519608902	1.6912441857666791	0.2185952060696367	-0.1235202426313646	0.3421154487010014	58.96889840370281	near	V3
3	4.0	ltm	73	diff_vonmises	0.0921322744020114	5.278790480176445	1.7181083573383906	167.91066713783758	1.6967043532986297	168.76582714279073	0.2013819153550855	-0.2967730179231473	0.4981549332782329	64.90298984723213	near	V4
4	5.0	ltm	73	diff_vonmises	-0.1691807104803523	-9.69334068554888	1.7915793462212628	0.7630069011159927	1.4616040155198425e-25	1.5400574741800863	0.1230819886909899	-0.234876056478103	0.357958045169093	102.08124201555626	near	V3ab
5	6.0	ltm	73	diff_vonmises	0.408674270094614	23.41531087201086	1.0358078098555243	98.1754829650805	1.0207122396157915	98.84611048210122	0.0478340754510995	-0.167849163460735	0.2156832389118346	81.3912753460163	near	IPS0
6	7.0	ltm	73	diff_vonmises	0.1290711136515235	7.395230069285684	3.2886330802706505	0.4362641900613534	0.0296421538512158	1.1077746467982403	0.1193808107306023	-0.1716008568782201	0.2909816676088225	74.31732402681965	near	LO1
0	1.0	ltm	74	diff_vonmises	0.0535458916211407	3.0679536001562813	2.917225303221755	0.3634880924243741	6.543038685004218e-27	1.0439290870196969	0.0681466209799561	-0.1654611573357509	0.2336077783157071	80.47195317779128	near	V1
1	2.0	ltm	74	diff_vonmises	0.1724184514077958	9.878849575848168	5.529586027043954	0.7472328156298301	1.5941049825734843	0.99041147428248	0.2383761532390031	-0.1608998832464552	0.3992760364854584	47.54478419436791	near	V2
2	3.0	ltm	74	diff_vonmises	0.1049762029139154	6.014693376276291	2.6236657795860707	69.84509026304006	2.601799442498685	69.87929328896367	0.1855958549387253	-0.0769522095716581	0.2625480645103835	56.8043251735464	near	V3
3	4.0	ltm	74	diff_vonmises	0.0558276079478469	3.198686315722641	2.0531211339093924	114.0345936109664	2.0327169777455194	114.51564666489764	0.10841915352038	-0.1829292828291535	0.2913484363495335	58.79682458767837	near	V4
4	5.0	ltm	74	diff_vonmises	-0.0006253219320578	-0.0358283075438798	2.206417847071724	0.7410123533479961	5.469261997380198e-13	0.793018359843093	0.2793292375488704	-0.1212973105734854	0.4006265481223559	92.53417178606333	near	V3ab
5	6.0	ltm	74	diff_vonmises	0.3138852915966219	17.9843024597196	0.8090534244710933	69.2537287244152	0.7949045677866411	69.35059758009588	0.1578015757338526	-0.0894433856138983	0.2472449613477509	102.56716983629838	near	IPS0
6	7.0	ltm	74	diff_vonmises	-0.0804058528196477	-4.606916014715885	1.0389796470193728	71.49647515721662	1.0154444328660075	71.92872594750075	0.1685441738576223	-0.1559695286096101	0.3245137024672324	86.84904294941165	near	LO1
0	1.0	ltm	75	diff_vonmises	0.026785082000183	1.534672152522319	6.991530022767186	0.4419938189227948	0.038697031764013	4.021304922995923	-0.2078386091568834	-0.6438173280680695	0.435978718911186	50.12620392053174	near	V1
1	2.0	ltm	75	diff_vonmises	0.0967929588465341	5.545828028489873	7.930602931143996	0.6227540774269242	0.2458084528224667	2.1231364749334354	0.2621263822209164	-0.3634102454066494	0.6255366276275658	45.94847817393793	near	V2
2	3.0	ltm	75	diff_vonmises	-0.0198281885545559	-1.1360715195656594	1.299406576499864	108.68494530106784	1.2725196687794154	109.638570841071	0.1581910805643787	-0.2781965370067674	0.4363876175711461	74.45697942570789	near	V3
3	4.0	ltm	75	diff_vonmises	-0.0770341639458859	-4.413732472418118	1.24262805073432	4.479050521125769	0.564980877943803	6.3870377204147	0.079438709502785	-0.4495438829282664	0.5289825924310516	87.24393507865105	near	V4
4	5.0	ltm	75	diff_vonmises	-0.0189900787810928	-1.088051366777557	1.565566926680828	1.776416668482991	0.2010681079109307	2.7044155923232496	0.2686936457651357	-0.3156314931787941	0.5843251389439299	97.55936602889729	near	V3ab
5	6.0	ltm	75	diff_vonmises	0.5185085205911492	29.708349871444987	0.497646409176962	194.5377716495393	0.4886133563037722	195.44299585501705	0.1066509834075972	-0.2827150389499806	0.3893660223575779	120.20669790886132	near	IPS0
6	7.0	ltm	75	diff_vonmises	-0.0720017040622292	-4.12539376051569	0.6200020937281436	47.44994397847211	0.5750029589305268	48.94588268425221	0.0138282216175085	-0.3489305406770677	0.3627587622945762	105.20060336624684	near	LO1
0	1.0	ltm	76	diff_vonmises	0.1691050273130701	9.68900435948343	0.8010706904173035	0.8039177818155305	9.30678949790562e-12	1.503329197868407	0.0050044330471227	-0.190050006706626	0.1950544397537488	136.96927079250992	near	V1
1	2.0	ltm	76	diff_vonmises	0.1261342396839314	7.226959585980815	9.008028372690449	0.3904433229590536	0.9399464686314372	0.6921879446968777	0.2319770673338089	-0.1450479282924976	0.3770249956263065	41.22875459880174	near	V2
2	3.0	ltm	76	diff_vonmises	0.0696623526320548	3.9913587967688064	2.669357874435317	58.277196672683225	2.645634829343897	58.26585242028485	0.1917607026546406	-0.0639121291878552	0.2556728318424959	57.27449315837544	near	V3
3	4.0	ltm	76	diff_vonmises	0.0709274586371676	4.063844031498421	2.0559899914723383	161.19505014978108	2.0405068748286705	161.6509378833252	0.1465746421544054	-0.1867400360804367	0.3333146782348422	59.58778431622173	near	V4
4	5.0	ltm	76	diff_vonmises	-0.0054179322637554	-0.3104246524009472	2.1649471187948075	0.7218000149352282	2.4578182070800435e-12	0.8621760460210738	0.2533326815491986	-0.1320760933134026	0.3854087748626012	93.39458551781264	near	V3ab
5	6.0	ltm	76	diff_vonmises	0.3919114428995172	22.45487162102469	0.7688399072905607	74.50514301207805	0.7558421831458888	74.71779492962222	0.1221155084860257	-0.1003556246672365	0.2224711331532622	102.55685204148804	near	IPS0
6	7.0	ltm	76	diff_vonmises	-0.0135271489355367	-0.7750485428511397	1.105876251897735	66.10522838380308	1.0819556733568143	66.44275761339496	0.1757109762802677	-0.1367361905063058	0.3124471667865736	85.01688903311117	near	LO1
0	1.0	ltm	77	diff_vonmises	-0.0222655516373179	-1.275722137348919	5.704635135404339	0.4651606773696823	0.2390276842175395	1.9018745660355147	0.0535458835913835	-0.3142490391060676	0.3677949226974512	52.65794964991454	near	V1
1	2.0	ltm	77	diff_vonmises	0.0653558514353339	3.744614453728656	1.7522656178100078	135.3029797605393	1.7294971657534808	135.9327806825275	0.2133896029076254	-0.2400804191261087	0.4534700220337342	65.23978899228962	near	V2
2	3.0	ltm	77	diff_vonmises	-0.0889935247632964	-5.098953372929863	1.562426475718529	63.709712789405	1.5323597042955024	63.8402878584803	0.274458766340139	-0.1218264351816467	0.3962852015217857	73.9646970108179	near	V3
3	4.0	ltm	77	diff_vonmises	-0.1285578241012795	-7.365820744388532	1.4681634048987815	135.49286882279898	1.4473492512923969	136.0514485320163	0.2608326276209354	-0.2213337994523225	0.4821664270732579	72.7828776879372	near	V4
4	5.0	ltm	77	diff_vonmises	0.0261733332987518	1.4996215338077032	2.3566696368853437	1.0801574722995038	0.0164524261104136	0.9685709699963132	0.4580483264714882	-0.1461090520312407	0.6041573785027289	89.19077496530292	near	V3ab
5	6.0	ltm	77	diff_vonmises	0.1283420779005825	7.353459397642615	1.566381080041584	0.7336358621518766	2.8065093966046098e-18	0.535382564083398	0.2410178839921001	-0.0709853617702127	0.3120032457623128	108.37368684297464	near	IPS0
6	7.0	ltm	77	diff_vonmises	-0.1149043451958865	-6.583534027438614	0.6930782521022044	108.08726228246096	0.6790740647096507	108.38551015208527	0.2046252060779565	-0.1649574662333979	0.3695826723113544	108.694248276974	near	LO1
0	1.0	ltm	78	diff_vonmises	0.0175578427217851	1.0059902853127791	7.2225692851422	0.3294659950948566	0.0480153335596137	2.833937667569137	-0.1262659223836675	-0.4552467446575426	0.3289808222738751	49.17082277517642	near	V1
1	2.0	ltm	78	diff_vonmises	0.1061645613093981	6.082781296886387	11.27192661126436	0.4841556671619001	0.4365992974242969	1.4684543426685384	0.2959524679286237	-0.2837593022046649	0.5797117701332886	38.36264295483576	near	V2
2	3.0	ltm	78	diff_vonmises	0.0845632398368152	4.845116744602065	1.794007971102879	93.03229760375318	1.7717385261605647	93.40892321563146	0.1596914601275116	-0.1549781983201299	0.3146696584476416	65.03370150265326	near	V3
3	4.0	ltm	78	diff_vonmises	-0.1074115524658812	-6.154228627243003	1.1166204557142585	141.84397464621827	1.0977736780313367	143.15745617241663	0.0270585885736807	-0.3131166262743825	0.3401752148480632	76.45827452206404	near	V4
4	5.0	ltm	78	diff_vonmises	-0.0397263735637105	-2.276153540560701	2.5053038553935654	0.8377648050051085	0.0520137387886528	1.4632002931197148	0.2492040249260001	-0.2178574961842284	0.4670615211102286	84.5924581731986	near	V3ab
5	6.0	ltm	78	diff_vonmises	0.5285525630498651	30.283831113579613	0.5460405587333057	121.92872547577252	0.5355642421643	122.52315663415392	0.0895070095795205	-0.1905346939473613	0.2800417035268818	116.1749514215652	near	IPS0
6	7.0	ltm	78	diff_vonmises	0.0645802584767665	3.70017625058268	1.1223072257760474	98.70060214750713	1.0993423134711469	99.76482606127676	0.0402418094958818	-0.2592053990889287	0.2994472085848105	77.00824036944948	near	LO1
0	1.0	ltm	79	diff_vonmises	-0.0644072724357342	-3.6902648805168514	4.838328342674612	0.2397358601607208	2.231116319229284e-22	1.702344434435919	-0.0666832668117143	-0.270923716786067	0.2042404499743527	62.09878921742609	near	V1
1	2.0	ltm	79	diff_vonmises	0.0819815485422349	4.697196729416946	4.951675850966437	0.5465972580395698	0.452873210926722	1.2711789966238571	0.1689999974150536	-0.2065796811940884	0.3755796786091421	55.178432029454655	near	V2
2	3.0	ltm	79	diff_vonmises	0.0219200017443181	1.2559235868688317	2.0508782387223707	78.90211216228272	2.021881609108444	79.12749493004829	0.2365426167388591	-0.1442410362063064	0.3807836529451656	62.69685928136141	near	V3
3	4.0	ltm	79	diff_vonmises	-0.0531123117058165	-3.043111300926565	1.586887295031603	198.8076556526536	1.5721599803463522	199.5932820780543	0.1534370108347786	-0.2538320020618272	0.4072690128966059	67.15304360829563	near	V4
4	5.0	ltm	79	diff_vonmises	-0.0598183345565398	-3.4273381075913	2.295099635488482	0.8374760640038073	1.6685498541531774e-17	1.3991580783775457	0.2465247853126284	-0.2179194659853054	0.4644442512979339	90.7646889854346	near	V3ab
5	6.0	ltm	79	diff_vonmises	0.0942139126136436	5.398059564176131	0.682425408769753	78.18675154433315	0.6663704644621484	78.67332430239321	0.103599458293953	-0.1575341878937175	0.2611336461876705	105.41311710379006	near	IPS0
6	7.0	ltm	79	diff_vonmises	-0.0974395377477643	-5.58287427065257	1.0176418935342342	133.97979342791615	1.002498008519839	134.69971804188833	0.1371195764009485	-0.2088357849576976	0.3459553613586461	85.06284836833635	near	LO1
0	1.0	ltm	80	diff_vonmises	-0.2206937269582104	-12.644819119718017	7.883872075075257	0.1461654515787615	3.4782338359716233e-22	3.49213130581501	-0.3948505407223289	-0.5557899363930716	0.1609393956707426	48.41965988719156	near	V1
1	2.0	ltm	80	diff_vonmises	-0.0081082815302458	-0.4645703107869616	9.69711849296399	0.3835147674852596	0.0249962515128432	1.9989613207119967	0.1436947524030177	-0.3200297705811378	0.4637245229841555	43.26569486657857	near	V2
2	3.0	ltm	80	diff_vonmises	-0.0196151520825297	-1.1238654288362004	4.001256018865487	0.6647325864409682	0.3440056061916234	1.3221817527301836	0.2229262484738034	-0.1981875154516323	0.4211137639254357	62.3907786205767	near	V3
3	4.0	ltm	80	diff_vonmises	-0.1061013793716221	-6.079161238510362	1.0846477662467608	204.59763940819752	1.0670360844664857	206.3731208470926	0.0473750628269726	-0.4234574092694387	0.4708324720964114	77.86831608528388	near	V4
4	5.0	ltm	80	diff_vonmises	-0.1156442757268349	-6.625928923994831	2.875468303094603	0.8471634491600475	8.994170537847626e-17	2.2909119952172348	0.1769173598016799	-0.3628878079253502	0.5398051677270301	81.06433411771334	near	V3ab
5	6.0	ltm	80	diff_vonmises	0.11598516101526	6.645460212319689	0.6675535513384332	147.99826402433882	0.6554443078731024	149.22258121966692	0.0028686139927742	-0.2763876870667552	0.2792563010595295	99.17476171820896	near	IPS0
6	7.0	ltm	80	diff_vonmises	0.0146024605482985	0.8366593599237977	1.14660487567969	199.0856084304559	1.1323804380083835	200.50199503692323	0.0083371951325688	-0.3345006091407896	0.3428378042733584	74.68794501985289	near	LO1
0	1.0	ltm	81	diff_vonmises	0.0651971808993496	3.7355233016836817	12.376395705968353	0.5523882304849962	0.1223352906212107	4.579773363811876	-0.0536399764678257	-0.7764773788940191	0.7228374024261934	37.31482614523395	near	V1
1	2.0	ltm	81	diff_vonmises	0.1583901176571602	9.075085258335822	8.469291398074631	0.6316557389195722	0.3621222798571472	1.7536767825491035	0.3338047495363764	-0.3138627572225551	0.6476675067589315	44.16228368724381	near	V2
2	3.0	ltm	81	diff_vonmises	0.0478235637602408	2.740088364736595	1.7357281950915904	119.89169434492472	1.7097755110469364	120.5810809952408	0.1948045079224769	-0.2498939577147183	0.4446984656371953	65.09552512537553	near	V3
3	4.0	ltm	81	diff_vonmises	-0.0448089232299456	-2.5673621856016	0.987871837545496	264.9284842559734	0.973158078685028	266.7515491537355	0.1248754118178538	-0.452172621644852	0.577048033462706	83.35930784593475	near	V4
4	5.0	ltm	81	diff_vonmises	-0.1205537307397792	-6.907219975945885	2.1701861228842985	0.9123232084631828	9.302550772362966e-11	2.0515119660826624	0.1678624747174706	-0.3200657539944669	0.4879282287119376	93.26928794812822	near	V3ab
5	6.0	ltm	81	diff_vonmises	0.5733003208667984	32.84768877916343	0.4700506953871389	132.8056449978218	0.4563413654622044	134.23567516303265	-0.0030049484736807	-0.3489373198622072	0.3459323713885265	118.88276617995189	near	IPS0
6	7.0	ltm	81	diff_vonmises	-0.1895036986616864	-10.857762135433582	1.187751557292836	0.9399377202088804	2.857068538926852e-33	2.697770925182533	-0.0751282377543164	-0.396430890729004	0.3213026529746876	120.95229306443848	near	LO1
0	1.0	ltm	82	diff_vonmises	-0.1261798839097827	-7.229574807481234	7.15991709715052	0.2418476834082013	0.0077877387569447	2.718540729466368	-0.1827264295274694	-0.432602154422538	0.2498757248950686	50.43207037931791	near	V1
1	2.0	ltm	82	diff_vonmises	0.0091288165185562	0.5230426584625846	2.56177430019225	1.145176605983292	0.4313693817450719	2.3866670412098583	0.1261553391240507	-0.3106807131170953	0.4368360522411461	71.48306820279475	near	V2
2	3.0	ltm	82	diff_vonmises	0.0171573399400201	0.983043166234396	4.189877215830044	0.7224279047236075	0.3741919888684129	1.295015796287401	0.2802214285619352	-0.1946180114584478	0.474839440020383	61.25876769946382	near	V3
3	4.0	ltm	82	diff_vonmises	-0.0368312011353043	-2.1102723794503837	1.2981786780627336	165.04756032185844	1.274936787799639	166.25358598055485	0.2250392543607944	-0.3594746821275798	0.5845139364883742	74.79477520440136	near	V4
4	5.0	ltm	82	diff_vonmises	-0.0819310104748544	-4.6943011114513	2.004946804941726	1.0752743907843063	1.6256308955655943e-16	1.9724815291363405	0.2416011700626595	-0.3038548690562977	0.5454560391189573	96.8988390684505	near	V3ab
5	6.0	ltm	82	diff_vonmises	0.1127592191212371	6.46062735683774	0.7061347243287656	48.58691831125929	0.6756644490532293	49.20687097890971	0.1085014765936325	-0.1877977934990369	0.2962992700926694	103.35173039644825	near	IPS0
6	7.0	ltm	82	diff_vonmises	-0.0231417747101934	-1.325926021336668	0.6840230455751747	123.06311622030609	0.668382548360559	123.99591663240597	0.1066010712376623	-0.2576185087471856	0.364219579984848	102.9551262661202	near	LO1
0	1.0	ltm	83	diff_vonmises	0.0317523849638736	1.8192776479046135	6.082051087386705	0.4700349962623666	0.0407530098964235	3.853687661975224	-0.1865019999758678	-0.6146708608204907	0.4281688608446228	53.60705699955986	near	V1
1	2.0	ltm	83	diff_vonmises	0.0608868709889284	3.488560735423131	3.350233919821293	1.108686346511211	0.4017791376401297	2.651850971980582	0.1667449895592948	-0.3864745556083778	0.5532195451676727	64.69438160218937	near	V2
2	3.0	ltm	83	diff_vonmises	-0.0131972218233943	-0.7561451117784409	3.0151184511460536	1.0725164753285226	0.3510060546087405	2.256763810302207	0.2096030641319975	-0.3143765479822837	0.5239796121142813	69.3181353381706	near	V3
3	4.0	ltm	83	diff_vonmises	-0.122570409871554	-7.0227671788286905	1.929920007870965	1.850613800466694	0.2968076744063893	3.8670861831874057	0.1241102973000294	-0.4753827751260528	0.5994930724260823	82.83678785319805	near	V4
4	5.0	ltm	83	diff_vonmises	-0.023344419042584	-1.3375366863248943	1.7059649666075003	1.466236474057725	0.0181041674515933	2.382283491109937	0.300705562213292	-0.3496706035144986	0.6503761657277907	103.42382671939366	near	V3ab
5	6.0	ltm	83	diff_vonmises	0.2655393614463671	15.214284705475722	0.665713141326613	108.89344715710196	0.6489269535628445	109.53349640711424	0.1716751339241504	-0.2270067649088822	0.3986818988330327	107.72436936387652	near	IPS0
6	7.0	ltm	83	diff_vonmises	-0.0306647187204767	-1.7569589626391215	0.3762945323625698	89.82370373004792	0.3522139227491717	91.44394958828744	0.0379419962739149	-0.4487008001902168	0.4866427964641318	133.86794083614785	near	LO1
0	1.0	ltm	84	diff_vonmises	0.0357967539044058	2.0510029189909056	7.660063412401114	0.5700138134863689	0.1465956931492332	4.145245575437039	-0.1413974570769886	-0.6926863313755148	0.5512888742985262	46.28826461359998	near	V1
1	2.0	ltm	84	diff_vonmises	0.1008958957231766	5.7809089951300745	3.1916430179921087	1.2565933234541216	0.5774032708776126	2.52491326934165	0.1926954094092189	-0.3500280329025423	0.5427234423117613	63.87210238958602	near	V2
2	3.0	ltm	84	diff_vonmises	0.0495688319491299	2.840084866078383	3.650097227410408	0.9296741787316668	0.4609034229506775	1.780537379747188	0.2533715413090867	-0.2582232675596677	0.5115948088687544	63.17859894963314	near	V3
3	4.0	ltm	84	diff_vonmises	-0.1622106165834766	-9.29398372244801	0.9673019920492952	187.77597136675945	0.945816171117148	189.6534763411697	0.1435333221535017	-0.4697938990886854	0.6133272212421872	84.71382697146271	near	V4
4	5.0	ltm	84	diff_vonmises	-0.0696162757177698	-3.988718784047285	2.183918564630813	1.0930342230366192	8.541975353591651e-17	1.9292076513918248	0.2874959230381575	-0.299504993253034	0.5870009162911916	92.99363003826052	near	V3ab
5	6.0	ltm	84	diff_vonmises	0.213077523730314	12.208442818845636	0.8181773176706899	58.26320684236152	0.7899609623885961	58.77548161930357	0.1593658791975727	-0.1782247364911811	0.3375906156887538	97.66900903344391	near	IPS0
6	7.0	ltm	84	diff_vonmises	-0.1005585840073332	-5.761582457431933	0.4517069818407667	71.93090279888024	0.4244032592626396	73.45396842365612	0.0087091035992941	-0.3851806051431063	0.3938897087424005	123.44714917241592	near	LO1
0	1.0	ltm	85	diff_vonmises	-0.0488364140083934	-2.7981204092345164	5.887657231526539	0.3435807704226717	0.0910142583769711	3.681722249479765	-0.3156154959590845	-0.5969362432689793	0.2813207473098948	52.18701724763682	near	V1
1	2.0	ltm	85	diff_vonmises	0.0427492203101459	2.4493499012463	4.331365041504749	0.7812616056258856	0.3474236574355228	2.326194287602648	0.1185818545852572	-0.368577695534371	0.4871595501196282	58.42254533726455	near	V2
2	3.0	ltm	85	diff_vonmises	-0.0193032213337308	-1.1059931134296688	4.015537696006839	0.5447934483334773	0.0395307232949601	1.219006608209048	0.2179976930295517	-0.1894139667539239	0.4074116597834757	67.1733441564098	near	V3
3	4.0	ltm	85	diff_vonmises	-0.2610127902448511	-14.954931279963397	0.8746774992725318	46.84269343011894	0.8067289180689614	48.68161471634617	0.0467005556122703	-0.4253302518569475	0.4720308074692179	88.58213345374368	near	V4
4	5.0	ltm	85	diff_vonmises	-0.0447717086031687	-2.5652299445511284	2.75631569752018	0.9523640928148174	4.0960825880768364e-18	1.728162280991758	0.3190531772014122	-0.27264771862891	0.5917008958303223	82.82696228463129	near	V3ab
5	6.0	ltm	85	diff_vonmises	0.2106412519118213	12.068854725899342	0.8158261643781979	90.26239804524845	0.7998406809880119	90.66493624245676	0.1533157989582179	-0.151769496655576	0.3050852956137939	98.18172968869744	near	IPS0
6	7.0	ltm	85	diff_vonmises	-0.018644004399589	-1.0682227653197922	0.9004355624841416	159.43465619813207	0.8871883453329872	160.5793736075052	0.0357442992481651	-0.2676716689712641	0.3034159682194293	86.02611852319328	near	LO1
0	1.0	ltm	86	diff_vonmises	-0.2416197650324723	-13.843792783303291	12.337028137986218	0.2118534855188696	0.0882486302669956	2.8356735692810937	-0.1982697783906633	-0.4731454867530758	0.2748757083624125	37.2389026360413	near	V1
1	2.0	ltm	86	diff_vonmises	0.0122601490989756	0.7024547995724253	3.514062018573862	0.7948899580116464	0.3591495584072892	2.0365940982086816	0.1194769709333665	-0.3030900901472242	0.4225670610805908	63.94622405575532	near	V2
2	3.0	ltm	86	diff_vonmises	0.0369568780397595	2.1174731356579377	4.630514946586935	0.5358731628678807	0.3018180369144708	0.8100460150564209	0.2755331701096191	-0.1231624558849761	0.3986956259945952	59.99039335552777	near	V3
3	4.0	ltm	86	diff_vonmises	-0.0184332245351826	-1.0561459686829642	1.367255131767911	158.0487712247722	1.3432532779879918	159.13099449390708	0.2441620998923355	-0.3401141552564084	0.5842762551487439	73.33458421245251	near	V4
4	5.0	ltm	86	diff_vonmises	-0.0694881223120928	-3.981376134771765	2.883393241725756	0.8165176081838417	2.038223873211238e-13	1.5692152135991604	0.2730465507390872	-0.2481121145213026	0.5211586652603899	80.9514357050349	near	V3ab
5	6.0	ltm	86	diff_vonmises	0.2317929743727572	13.28075915234304	0.8641984173883909	87.12929451619044	0.8496855882226749	87.58393538901827	0.0988713813290047	-0.1384049629016068	0.2372763442306116	93.18176207959844	near	IPS0
6	7.0	ltm	86	diff_vonmises	0.0220132773241425	1.2612678839244065	0.9180075746746996	123.26650503321832	0.9056668071621808	123.85297289290897	0.0996475259792788	-0.1664251648190227	0.2660726907983015	89.33246569812587	near	LO1
0	1.0	ltm	87	diff_vonmises	-0.0255528249702783	-1.464069025433453	5.647269655269446	0.6185251221949991	0.2470080136829547	2.9596814255946766	-0.0219156689392004	-0.4930502445621874	0.4711345756229869	52.19886021462631	near	V1
1	2.0	ltm	87	diff_vonmises	0.0114217166129224	0.6544161567149154	1.841675227147164	5.643780197695269	1.1998918710519462	6.730151548259655	0.2179894016762835	-0.3423823091281907	0.5603717108044742	68.89430606368288	near	V2
2	3.0	ltm	87	diff_vonmises	-0.193021015724523	-11.059289558343467	1.199316755066012	122.64458377674713	1.1775413084464612	123.14703313869376	0.3057540022268981	-0.21784383032095	0.5235978325478481	81.91201556870895	near	V3
3	4.0	ltm	87	diff_vonmises	-0.1325897355042856	-7.596832251151451	2.5036294249533078	1.4384458343407176	0.3628363199634213	2.359582360758904	0.3259766364414683	-0.2966142650351657	0.622590901476634	76.10396696624147	near	V4
4	5.0	ltm	87	diff_vonmises	0.0427761587044795	2.450893357548475	1.5681776720120155	2.387711858405912	0.3973070709963003	2.4527393366454677	0.5039421111071206	-0.2104069307852798	0.7143490418924004	95.21097567836956	near	V3ab
5	6.0	ltm	87	diff_vonmises	0.1460969030114573	8.370735942488633	1.0436938989520244	1.1599569000621668	2.2479940810212923e-13	1.0344823558451426	0.2412863591809569	-0.1143012178384123	0.3555875770193692	126.5979698073917	near	IPS0
6	7.0	ltm	87	diff_vonmises	-0.035030746038493	-2.007113901200279	0.4511190761588529	108.83027513253953	0.4365978807314343	109.22477777266198	0.1998379427813681	-0.2257056662549512	0.4255436090363194	130.18341880836329	near	LO1
0	1.0	ltm	88	diff_vonmises	-0.0223723526675906	-1.2818413856311957	2.7783902390597914	0.3568036153714478	5.92190853025385e-13	1.7499679874177632	-0.0548981902543514	-0.2776525668753791	0.2227543766210276	82.49159687249048	near	V1
1	2.0	ltm	88	diff_vonmises	0.0114223991176253	0.6544552613538892	2.2083607402945216	1.2848262998703186	0.6034601333645704	2.135845186807128	0.1349241052145803	-0.2341773007799826	0.369101405994563	73.1987032771381	near	V2
2	3.0	ltm	88	diff_vonmises	-0.0294510284402074	-1.68741963194364	3.0704522661040383	1.0696564093587844	0.7405146541687562	1.5273845607424257	0.2634324002313042	-0.1860172354390425	0.4494496356703468	65.53551332806461	near	V3
3	4.0	ltm	88	diff_vonmises	-0.0474688573900143	-2.719765186756213	1.5493596395689009	140.3997418609756	1.5265823787763733	141.1813410479531	0.2127736598397192	-0.2674611700119413	0.4802348298516605	69.09145719153369	near	V4
4	5.0	ltm	88	diff_vonmises	-0.0186905623192901	-1.070890337621575	1.568356903256195	1.260558302797696	2.972195005333408e-16	1.7259251409204937	0.2862898676657777	-0.2503287792223542	0.536618646888132	108.37382536839225	near	V3ab
5	6.0	ltm	88	diff_vonmises	-0.0183476349130452	-1.0512420445643698	1.3101959375624457	0.9449467694805193	7.586421384822488e-14	1.2543810238410864	0.1776920336954054	-0.17218075399127	0.3498727876866755	116.72114906907586	near	IPS0
6	7.0	ltm	88	diff_vonmises	-0.096256525596464	-5.515092667270371	0.7457450698385604	112.94085905634287	0.7272990663832581	113.65031889366811	0.1919826640165567	-0.2412673483446052	0.433250012361162	101.63783838329132	near	LO1
0	1.0	ltm	89	diff_vonmises	-0.089562715505548	-5.1315656001987975	5.730773402842573	0.2908536119685918	1.1512081298555268e-15	1.9264723011133904	-0.0354865297629553	-0.3066047352160433	0.271118205453088	56.9482584202641	near	V1
1	2.0	ltm	89	diff_vonmises	0.1298843927739031	7.441827530564135	10.20140347085215	0.4709217017793094	0.5678737273060842	1.1611993017358944	0.2908558641004063	-0.2306008006199061	0.5214566647203125	39.88212261145338	near	V2
2	3.0	ltm	89	diff_vonmises	0.0866100053449116	4.962387769868937	2.074295234091535	99.92714363910154	2.056959611526504	100.09021527063553	0.1802819312366281	-0.1079609106139898	0.288242841850618	62.31819200264428	near	V3
3	4.0	ltm	89	diff_vonmises	0.0356940533582377	2.0451186111417843	1.4849256422911692	149.66738001421902	1.46680056936218	150.4701081542797	0.1338988316928038	-0.2454922335828584	0.3793910652756622	69.201270694263	near	V4
4	5.0	ltm	89	diff_vonmises	-0.0217832370368129	-1.248087546342441	2.280076686069694	0.7803839396731884	0.0040475339318559	1.1693700537275915	0.2486685731053632	-0.1808024293736526	0.4294710024790158	90.89011397086512	near	V3ab
5	6.0	ltm	89	diff_vonmises	0.5730506575137918	32.833384122737066	0.7734370178494261	99.2025358924164	0.7613793714293987	99.6027833655926	0.1098225340136984	-0.1349059926968348	0.2447285267105332	99.55796631695272	near	IPS0
6	7.0	ltm	89	diff_vonmises	0.0674458059263537	3.8643600254385033	2.0775730064938376	0.7412626698094084	0.2836583107598031	1.2889702819982731	0.1242554574376287	-0.1584276437460717	0.2826831011837004	83.28497288947997	near	LO1
0	1.0	ltm	90	diff_vonmises	0.0169376675768478	0.970456866948955	6.939506760050166	0.4245825758801915	0.1849210092542967	1.8698718469067004	0.0825511271872459	-0.3111085772112275	0.3936597043984735	48.89401350240277	near	V1
1	2.0	ltm	90	diff_vonmises	0.0621519451909606	3.5610441479704567	1.5862089761764886	100.13953143927768	1.557469821141773	100.74615939435122	0.2269355827362957	-0.2281323053145119	0.4550678880508076	69.24238505683019	near	V2
2	3.0	ltm	90	diff_vonmises	-0.0569655618325668	-3.263886270597607	1.8037603444477632	114.08283864385204	1.7787210651146717	114.38676274365632	0.3221212564809832	-0.1865869141225005	0.5087081706034837	67.21998851350722	near	V3
3	4.0	ltm	90	diff_vonmises	-0.1053727571341916	-6.037414259446216	1.5743862465337028	204.20863079997287	1.5585135909912995	204.7825688511437	0.3046286537266809	-0.2435536647856793	0.5481823185123602	70.40405891717975	near	V4
4	5.0	ltm	90	diff_vonmises	-0.0100241448899097	-0.5743411954194585	2.021823844923992	1.1763901845726532	2.5489047797674414e-17	1.3421954597460355	0.3972237207407764	-0.2029057318660028	0.6001294526067793	96.5239263683488	near	V3ab
5	6.0	ltm	90	diff_vonmises	-0.1567319102115157	-8.980076970143223	0.5075399422733563	2.2838592018098023	7.078271642947483e-15	2.312288751423925	0.1987238571448569	-0.1626420599772882	0.3613659171221451	151.42000016016664	near	IPS0
6	7.0	ltm	90	diff_vonmises	-0.1786872124087917	-10.238023123981437	0.6650787453482326	122.70077597864372	0.649343609110365	123.23128895767536	0.221283328917103	-0.22809584757122	0.449379176488323	109.40499319030135	near	LO1
0	1.0	ltm	91	diff_vonmises	0.1771524358780749	10.150086906275636	0.3182952183375149	45.00359731940882	0.2948825571564586	46.476358828153046	-0.1191882177887997	-0.3096359695241117	0.190447751735312	134.9442375728205	near	V1
1	2.0	ltm	91	diff_vonmises	0.0615951328760456	3.529141152344919	17.527296965364677	0.2956301228775245	0.3795414598010245	1.1348886879347972	0.2351141779411169	-0.2256653848845577	0.4607795628256746	31.305458142604465	near	V2
2	3.0	ltm	91	diff_vonmises	0.1301786486066436	7.458687147877273	1.8079239416877224	36.088066134990605	1.7722517554790664	36.24636268200018	0.1351274923824768	-0.0866781187630163	0.2218056111454931	66.74845959317949	near	V3
3	4.0	ltm	91	diff_vonmises	0.0973735601305392	5.579094031643238	1.540480511709036	35.825183301752794	1.4725320982182517	36.75326953053776	0.02769415864433	-0.2514504764908869	0.2791446351352169	65.42154796081098	near	V4
4	5.0	ltm	91	diff_vonmises	0.0118411956928858	0.6784505375908463	2.307478340718185	0.8276671667163149	0.0480624876399487	1.1354356874254592	0.2757128137901272	-0.1675238089655433	0.4432366227556705	88.71753911140306	near	V3ab
5	6.0	ltm	91	diff_vonmises	0.4940507827833983	28.30702471862332	0.6721367965448678	94.88524758278888	0.6605107367388544	95.144587476515	0.1380376110884071	-0.125748384209217	0.2637859952976242	109.438014576746	near	IPS0
6	7.0	ltm	91	diff_vonmises	0.0806140928580519	4.6188472900420905	1.2212126845259097	99.41225624313866	1.2028541270309592	99.95887703859704	0.128969602304096	-0.1693185239990526	0.2982881263031487	77.9705300519243	near	LO1
0	1.0	ltm	92	diff_vonmises	-0.0420042755488844	-2.406667710455637	6.867653695981746	0.2575903775121849	0.0335149169217284	2.6768483044961435	-0.1764501274780603	-0.428061334741815	0.2516112072637547	50.565717607131546	near	V1
1	2.0	ltm	92	diff_vonmises	0.1125123194090945	6.446481045368976	4.155555195343593	0.732189086096712	0.461647217321061	1.8029327830529631	0.1427327720401781	-0.281533704166426	0.424266476206604	58.59448941919973	near	V2
2	3.0	ltm	92	diff_vonmises	0.1006476960140661	5.76668819932167	4.055195462100652	0.7106386516424397	0.6748162566667749	1.1488030010613546	0.2290722893007116	-0.1682103296470216	0.3972826189477332	59.105453370606455	near	V3
3	4.0	ltm	92	diff_vonmises	-0.1054673311679241	-6.042832952430616	1.206967076558286	170.65075363965323	1.1885675413336447	172.00294089971382	0.0703917080977447	-0.3416743326504345	0.4120660407481793	74.5075661542866	near	V4
4	5.0	ltm	92	diff_vonmises	-0.0801429749113041	-4.591854220040572	2.5681989878010167	0.8172296912642184	2.6782907211101754e-14	1.564656131115488	0.2402488941470735	-0.2461460390923369	0.4863949332394104	85.83022115460884	near	V3ab
5	6.0	ltm	92	diff_vonmises	0.1532256288265712	8.779181845000615	0.9167795310663168	93.23899788726057	0.900458213175819	93.72298513927342	0.1334710628434834	-0.1568209205868456	0.290291983430329	91.26070959962234	near	IPS0
6	7.0	ltm	92	diff_vonmises	-0.0530205239937742	-3.0378522524153797	0.9203654505966996	143.49543089937885	0.9054287385172768	144.61871928646352	0.0442797574038209	-0.2661343948068797	0.3104141522107007	85.43083031681451	near	LO1
0	1.0	ltm	93	diff_vonmises	-0.125255839713074	-7.176630974926273	1.8492960203973192	0.527977460355956	2.7845612664739016e-16	3.944591218068192	-0.3680609080130999	-0.6213703341999596	0.2533094261868597	100.6277799857128	near	V1
1	2.0	ltm	93	diff_vonmises	0.0825916729803731	4.73215428470006	10.401772988075823	0.4217269676078224	0.0715785835550585	2.142878232832788	0.1698426967716001	-0.350120985841083	0.5199636826126832	41.367474934131565	near	V2
2	3.0	ltm	93	diff_vonmises	0.049029686561087	2.80919411079958	3.937470399756724	0.608007155464584	0.2407953897452294	1.6195705153970823	0.1402147007888727	-0.2470986216066877	0.3873133223955604	63.21170672464893	near	V3
3	4.0	ltm	93	diff_vonmises	-0.0932288924988176	-5.341622068861111	1.4249212655836068	2.6010971315375806	0.4564348620963414	4.85055988507045	-0.0652360998209051	-0.4727925501251284	0.4075564503042232	83.178693540956	near	V4
4	5.0	ltm	93	diff_vonmises	-0.0768936960526758	-4.405684254980086	1.8733274099648012	1.0794882238566377	3.717213981558974e-20	2.341505948585108	0.1625567306581333	-0.3600317391981323	0.5225884698562657	100.04776316685492	near	V3ab
5	6.0	ltm	93	diff_vonmises	0.4336141289917245	24.844259528467084	0.5856625452491098	188.8594482730188	0.5754905619778391	190.02114062586065	0.0597658319863896	-0.2985176823747224	0.358283514361112	109.15408370094424	near	IPS0
6	7.0	ltm	93	diff_vonmises	0.0627764791868895	3.596827310099623	1.4060863355955424	2.3292278566876083	0.4712880113694834	4.211505047919824	-0.0463362005568742	-0.3987688403020405	0.3524326397451662	83.35603360670007	near	LO1
0	1.0	ltm	94	diff_vonmises	0.0116132238053562	0.6653887105877677	7.93172738456604	0.5416711594415516	0.3356049993373091	2.09137086118061	0.145557422862051	-0.3724288506902356	0.5179862735522867	44.91139963432335	near	V1
1	2.0	ltm	94	diff_vonmises	0.0989115632148093	5.667215117250022	1.810584457303273	110.38897687063168	1.7826618147164983	110.88698335529855	0.2649056242627594	-0.2223142968251377	0.4872199210878971	65.3941554143093	near	V2
2	3.0	ltm	94	diff_vonmises	-0.0230945396699753	-1.3232196528870432	2.024534042229921	110.0690030085071	1.9997251533605325	110.2427570613649	0.3348456558862693	-0.1606885852525295	0.4955342411387988	64.21642851126663	near	V3
3	4.0	ltm	94	diff_vonmises	-0.1003618558224383	-5.750310762726183	1.6077310204386128	245.43408393792427	1.5944092284578637	245.9319740079839	0.3358734210355294	-0.2353446127889249	0.5712180338244544	70.25443221203798	near	V4
4	5.0	ltm	94	diff_vonmises	-0.0247287873620475	-1.4168551483217742	2.366074775445949	1.025261246144042	5.044638219153973e-16	1.1483798202779127	0.4021290285222849	-0.17761816785811	0.579747196380395	89.4131042973568	near	V3ab
5	6.0	ltm	94	diff_vonmises	-0.2528343300899568	-14.486340030172045	0.0005784678629963	1705.2564238241876	6.706810410686585e-23	1705.25511005414	0.1572223055992481	-0.1567587175304652	0.3139810231297133	178.1482289651821	near	IPS0
6	7.0	ltm	94	diff_vonmises	-0.1908802885813795	-10.936634927952248	0.6227381538778506	84.28966492757179	0.6028038735035698	84.74695080657341	0.1967241002393862	-0.207355592862231	0.4040796931016173	113.41702479524729	near	LO1
0	1.0	ltm	95	diff_vonmises	-0.0137170066869024	-0.7859265907122358	12.288919173396208	0.2872180004316997	0.0778678398298699	2.0257016562309174	0.0494182309020629	-0.3345094286257468	0.3839276595278098	37.932856232573016	near	V1
1	2.0	ltm	95	diff_vonmises	0.2241440018255353	12.842505307775792	5.444870940112647	0.7699366644177096	0.9637916048134664	1.309132415904627	0.2601872233970163	-0.2248803049398033	0.4850675283368196	50.17918953865566	near	V2
2	3.0	ltm	95	diff_vonmises	0.1579925748864218	9.052307735396573	2.520683951044441	72.67344294500883	2.490497687679316	72.81880253260972	0.2179729410421984	-0.1248234303136808	0.3427963713558792	56.64228018229696	near	V3
3	4.0	ltm	95	diff_vonmises	0.0377343855765473	2.162021036055488	1.6889729824062976	157.10228141046508	1.6686933812871134	157.92367554739047	0.1563409719126554	-0.271952336152836	0.4282933080654914	64.92103552097532	near	V4
4	5.0	ltm	95	diff_vonmises	-0.1074910854891528	-6.1587855338083815	2.4481273359236018	0.6417448881367752	1.3089696809919813e-21	1.1144829850639937	0.1962026128814185	-0.1745831046992246	0.3707857175806431	87.90121930240625	near	V3ab
5	6.0	ltm	95	diff_vonmises	0.3012586565445803	17.26084956178567	1.104385050732266	76.04510484834681	1.088034166194555	76.39610262173368	0.1071349578267515	-0.1158165245736819	0.2229514824004335	83.10931402990735	near	IPS0
6	7.0	ltm	95	diff_vonmises	0.0021978225736479	0.1259259575886092	2.616409204871171	0.4608153938984805	0.0155795331913035	1.2742201276843763	0.0729476944498691	-0.1981622937316215	0.2711099881814907	83.95238777708923	near	LO1
0	1.0	ltm	96	diff_vonmises	-0.0450008544900531	-2.578359036762387	6.204359834265509	0.271969663308409	0.0373499844579754	3.656956395088599	-0.3396692240691805	-0.5849412407610266	0.2452720166918461	52.52376499834517	near	V1
1	2.0	ltm	96	diff_vonmises	0.0528369166677477	3.027332327546381	7.785086754168959	0.5028785324722105	0.1852675711679881	2.0201130576980284	0.1665298229760099	-0.3389003342618446	0.5054301572378546	46.58666985503348	near	V2
2	3.0	ltm	96	diff_vonmises	0.0065899697144093	0.3775774517546885	3.4607315526413758	0.7413981311447934	0.4112140430014894	1.4328681108729462	0.1963044310059824	-0.2048416669914754	0.4011460979974579	65.22672612697593	near	V3
3	4.0	ltm	96	diff_vonmises	-0.1637754202545547	-9.383640368567365	0.9676573551655294	145.47717630749875	0.944559028385753	147.34505088576586	0.0192007022768265	-0.4267946533212345	0.4459953555980611	82.06801922520145	near	V4
4	5.0	ltm	96	diff_vonmises	-0.0749622100765174	-4.295018260357504	2.695913715943889	0.9000811843388749	7.105005674630556e-17	1.9817939056954343	0.2389348203573443	-0.3128878162868476	0.5518226366441918	83.757179768724	near	V3ab
5	6.0	ltm	96	diff_vonmises	0.2674231168104332	15.322215937471842	0.6556044922446427	131.0097127201416	0.6430811417219295	131.86620934234355	0.0773644024887971	-0.2294324673199916	0.3067968698087888	104.38902460249848	near	IPS0
6	7.0	ltm	96	diff_vonmises	0.0192417150913492	1.1024690653274944	1.0148496426607498	201.4840591370319	1.002145472609293	202.90323373641377	-0.0016598976605735	-0.3222958501674213	0.3206359525068478	79.23251924500067	near	LO1
0	1.0	ltm	97	diff_vonmises	-0.0351870908827777	-2.0160718009264214	6.7733908539396	0.5368252356994357	0.1877861859242285	4.081225972619783	-0.2305828593501471	-0.6887863544789788	0.4582034951288317	47.92496619091921	near	V1
1	2.0	ltm	97	diff_vonmises	0.0379633989949117	2.175142538379633	2.7646407689675265	1.508363104010595	0.5924900717516807	2.942907458635641	0.1653204819414561	-0.3806603004822124	0.5459807824236684	66.7867392676643	near	V2
2	3.0	ltm	97	diff_vonmises	-0.0280284962750099	-1.6059145426562191	3.405958957386039	0.8448173372017311	0.2750127931216423	1.529734945967251	0.2797862998034322	-0.2192120619260416	0.4989983617294738	68.32258855268907	near	V3
3	4.0	ltm	97	diff_vonmises	-0.1445670730843836	-8.283083144294505	1.2193756499480486	9.66631565379283	0.8253522490701383	11.277208565936691	0.2205298691768797	-0.4363719467509641	0.6569018159278439	83.69863140725636	near	V4
4	5.0	ltm	97	diff_vonmises	-0.0422065125037218	-2.4182550344294	2.562958093488968	1.0830435129249725	5.2498393952575205e-20	1.7976032174127985	0.3615391733498607	-0.2822494508112314	0.6437886241610921	85.92081094727689	near	V3ab
5	6.0	ltm	97	diff_vonmises	0.196904753632769	11.281811349220929	0.7550129275438803	46.417103296447976	0.72541819392947	46.76455388097354	0.1616226466115939	-0.1488111089804271	0.3104337555920211	103.38005227193858	near	IPS0
6	7.0	ltm	97	diff_vonmises	-0.0507260278179959	-2.906387305434376	0.626380890194372	123.18130187509556	0.6121375611505943	124.13675980388912	0.0767413688271219	-0.2548151610173423	0.3315565298444642	106.6682113660198	near	LO1
0	1.0	ltm	98	diff_vonmises	-0.0277469469881398	-1.5897829567936446	8.296624567216567	0.4461518133465187	0.2260623863000687	3.022883831403535	-0.0911332750696781	-0.5261014277373461	0.434968152667668	43.79779539379194	near	V1
1	2.0	ltm	98	diff_vonmises	0.1041049430836878	5.964773865144964	3.3167035658713764	1.176457290375309	0.7550824959651313	2.09100104273134	0.1985264271459325	-0.2837345046824874	0.4822609318284199	61.386097479648754	near	V2
2	3.0	ltm	98	diff_vonmises	0.049810699994514	2.853942884277969	2.5503645716491	2.0854169998536376	1.3939535850124254	2.356420689342268	0.2670204951099278	-0.1597254598716486	0.4267459549815765	64.05530648425432	near	V3
3	4.0	ltm	98	diff_vonmises	-0.1091056758864164	-6.25129474921394	1.3188583767981654	223.26491515441745	1.3031175788335638	224.31999261851408	0.2176294536650687	-0.322394578868014	0.5400240325330827	74.3600102570602	near	V4
4	5.0	ltm	98	diff_vonmises	-0.0631138631505531	-3.616157987292944	2.9541833445728725	0.8182236115401318	1.1335649504217248e-14	1.4021424033258845	0.3080217979769181	-0.2217146895103777	0.5297364874872958	79.96287932193746	near	V3ab
5	6.0	ltm	98	diff_vonmises	0.1541736171427681	8.83349757454641	0.8164346209267219	50.84419507896745	0.7925515567294318	51.19111154210773	0.1270409914772621	-0.1288094309956999	0.2558504224729621	98.2476534753572	near	IPS0
6	7.0	ltm	98	diff_vonmises	-0.1002666982778017	-5.744858637029678	0.8217166006068334	113.58154092621808	0.8069229680121766	114.36255005097006	0.0826579003483445	-0.2048553484170092	0.2875132487653538	93.14966308117992	near	LO1
0	1.0	ltm	99	diff_vonmises	-0.0305527666485833	-1.7505445814118843	5.7978356592921765	0.561200231511168	0.3604167197888731	1.9858977333983672	0.0874786364519519	-0.3382470709373514	0.4257257073893034	51.15229146103613	near	V1
1	2.0	ltm	99	diff_vonmises	0.0300723495742848	1.7230187106485602	1.7274731023839192	144.56366721933233	1.7055842238974877	145.16331708422285	0.2468650342908205	-0.2404443115006564	0.487309345791477	66.30078949653392	near	V2
2	3.0	ltm	99	diff_vonmises	-0.1904707750425839	-10.91317153052579	1.4780752232066514	96.47980479386156	1.4565600729083668	96.54425176327028	0.3381540306740547	-0.1272149057524849	0.4653689364265396	77.0212462505001	near	V3
3	4.0	ltm	99	diff_vonmises	-0.125655877528612	-7.199551453402228	1.5348785700166618	120.44738042463968	1.5099164232103006	120.8534108821864	0.3469126304548169	-0.2129399909552898	0.5598526214101067	72.79507472000819	near	V4
4	5.0	ltm	99	diff_vonmises	0.0410929478726002	2.3544524808510867	2.0912747050745506	1.4169091926717112	0.196912269917996	1.1626343481399126	0.5277351197520883	-0.1393765684568359	0.6671116882089243	90.43511178241413	near	V3ab
5	6.0	ltm	99	diff_vonmises	0.0241746424608227	1.3851049842428975	0.8248487783572549	1.3359926806968934	2.034982048069048e-17	1.0244512074550498	0.2489517822884172	-0.0838953626062259	0.3328471448946432	136.22151005457346	near	IPS0
6	7.0	ltm	99	diff_vonmises	-0.1233871735068343	-7.06956428799001	0.6439456584675514	91.04222057886108	0.6280585234355509	91.18075433317382	0.2370969732885548	-0.1545539807489859	0.3916509540375408	114.75228526763948	near	LO1
0	1.0	ltm	100	diff_vonmises	0.038478873773549	2.204677067640989	7.891478026449004	0.3611026395226664	0.1218533626430881	2.763670683987065	-0.097171103713844	-0.4580743330378566	0.3609032293240126	45.97392169696579	near	V1
1	2.0	ltm	100	diff_vonmises	0.0850465211018656	4.872806721407198	7.815848483240095	0.5461234001932793	0.4245742577064862	1.4803497609537142	0.2541838505016979	-0.2669987808937079	0.5211826313954058	45.38201816902156	near	V2
2	3.0	ltm	100	diff_vonmises	-0.0117183321045813	-0.6714109725251661	1.842862830523068	105.54058545834069	1.8196460065256144	105.90256482063602	0.2214419494827311	-0.1719970360814464	0.3934389855641775	65.09348917973739	near	V3
3	4.0	ltm	100	diff_vonmises	-0.1460791828832802	-8.369720653931653	1.2616271529764709	205.4887305999151	1.2469806044056782	206.6173003520699	0.11361584457714	-0.3050578745544037	0.4186737191315437	74.07373763339635	near	V4
4	5.0	ltm	100	diff_vonmises	-0.0546257747103536	-3.1298263435357336	2.754942756723376	0.8544235346208989	0.0044868547060681	1.5726620363720765	0.2814657290332236	-0.2470187601458366	0.5284844891790603	82.64689801326972	near	V3ab
5	6.0	ltm	100	diff_vonmises	0.2990794681197998	17.135991262281983	0.4841630156694835	117.09910345212596	0.4732257329448202	117.78652018804247	0.0723725642103048	-0.2116364260461054	0.2840089902564102	122.09435889397363	near	IPS0
6	7.0	ltm	100	diff_vonmises	-0.0714357924778535	-4.092969415153401	1.029881183491857	139.50513580247983	1.0141935040172685	140.5071783597479	0.0680868193881067	-0.2495039629799684	0.3175907823680752	81.53724381152679	near	LO1
0	1.0	ltm	101	diff_vonmises	0.0722993147327064	4.14244559587209	1.0985750894135122	0.5461663731038233	8.581503363757969e-11	1.2321296672982394	0.0006664727350494	-0.1742348631018768	0.1749013358369263	124.53397693045366	near	V1
1	2.0	ltm	101	diff_vonmises	0.122081276297964	6.99474188944383	7.656490608389658	0.3668526245015983	0.7787762012939548	0.6781750646050301	0.1947318204090111	-0.1305628326982065	0.3252946531072176	44.73228405406837	near	V2
2	3.0	ltm	101	diff_vonmises	0.0591327974130634	3.3880597225706506	2.677063551444091	70.83763022842427	2.652904872266948	70.86823729985305	0.2097283162095777	-0.0847580473919524	0.2944863636015302	56.348571982120575	near	V3
3	4.0	ltm	101	diff_vonmises	0.0428689600065253	2.456210480489021	2.0762208965285915	154.06156706212028	2.059637738881091	154.55406639373143	0.133186840522697	-0.1952949282768976	0.3284817687995947	58.85471364445746	near	V4
4	5.0	ltm	101	diff_vonmises	-0.055223311655723	-3.1640626886085377	2.1417805917222745	0.6845879810931248	8.350405606406521e-17	0.9894554433299668	0.210566358500219	-0.1524000504693935	0.3629664089696125	93.8786763752362	near	V3ab
5	6.0	ltm	101	diff_vonmises	0.1611676785204663	9.234227773143974	0.7605613116989397	67.64807998365991	0.745132292683314	68.01134054229395	0.092762836911902	-0.1201392592556072	0.2129020961675092	100.27029130504955	near	IPS0
6	7.0	ltm	101	diff_vonmises	-0.0662658889894804	-3.7967557647796593	1.1940391330413764	109.536093315306	1.1768258489189856	110.019050699649	0.1679909218514623	-0.1668440577722094	0.3348349796236718	80.2054920090776	near	LO1
0	1.0	ltm	102	diff_vonmises	0.0308951174038179	1.770159834799943	6.405227658512993	0.522006862813484	0.1854256055738438	3.897382018815091	-0.2244062672457913	-0.6538119489795138	0.4294056817337224	49.14285030143523	near	V1
1	2.0	ltm	102	diff_vonmises	0.0805989057417525	4.617977132375161	4.367339366718633	0.8747903593958066	0.482517253599155	2.1737171453345483	0.1761457793438434	-0.3455151694153543	0.5216609487591978	57.15999417538404	near	V2
2	3.0	ltm	102	diff_vonmises	-0.0024503504583019	-0.1403947395886505	2.735719850245612	1.102323949483532	0.6076116740150492	1.728376501667374	0.2232461791918131	-0.2087219154690997	0.4319680946609129	69.28004435030468	near	V3
3	4.0	ltm	102	diff_vonmises	-0.2614049126578668	-14.97739823928168	0.9443566501903334	138.13337485244	0.919551052276365	139.87347979979688	0.0834137696453112	-0.4178546858877041	0.5012684555330154	84.85235853387321	near	V4
4	5.0	ltm	102	diff_vonmises	-0.0484195348540681	-2.774234993124696	2.842306349809256	0.9310985085642824	1.1308847064971206e-19	1.6512924489217524	0.3284381336806455	-0.2608022906009016	0.5892404242815471	81.54419931327499	near	V3ab
5	6.0	ltm	102	diff_vonmises	0.1998578901737391	11.45101360934438	0.7591644618025594	76.5959142235716	0.7405091356190758	77.01116433403786	0.1513933496156703	-0.1578847115369788	0.3092780611526491	101.83132636908218	near	IPS0
6	7.0	ltm	102	diff_vonmises	-0.0916313608886812	-5.250090249961555	0.8603162823068402	155.10202841282498	0.8464414892516708	156.34990178650935	0.020620600783765	-0.2848229636931769	0.305443564476942	87.43347686678098	near	LO1
0	1.0	ltm	103	diff_vonmises	0.0397054396819922	2.2749541174894152	7.631108513076237	0.5402752736814521	0.1672931210170137	4.03449496353474	-0.1688043255715118	-0.6805833918757751	0.5117790663042633	45.980750475838846	near	V1
1	2.0	ltm	103	diff_vonmises	0.0873434046110813	5.004408452518456	4.046961909286519	0.9528495379075598	0.4740181311383911	2.218760195824648	0.200583774432646	-0.3418013447284216	0.5423851191610677	59.33573386041812	near	V2
2	3.0	ltm	103	diff_vonmises	-0.0060594435964473	-0.3471805442740058	2.3676046963448303	1.887986581959008	0.8729620884120748	2.6325896643781297	0.2414886610206287	-0.2540951592456307	0.4955838202662594	68.96527986988534	near	V3
3	4.0	ltm	103	diff_vonmises	-0.1670122796631764	-9.5690987515586	1.0263666005630026	220.22700914156465	1.008726217969875	221.93913088214	0.1458463969323276	-0.4356612071644967	0.5815076040968243	82.27547665676838	near	V4
4	5.0	ltm	103	diff_vonmises	-0.0639241916594961	-3.662586390874504	2.4790381169638414	1.0364064442236869	6.026498799010213e-19	1.9284558368525269	0.3008523590521629	-0.3026524175841621	0.6035047766363251	87.35976640351873	near	V3ab
5	6.0	ltm	103	diff_vonmises	0.1993924563984787	11.42434621837912	0.6531451418736229	85.73097436865861	0.6346782028742618	86.3800404843815	0.1241281018170639	-0.20694662679802	0.3310747286150839	107.5503754380297	near	IPS0
6	7.0	ltm	103	diff_vonmises	-0.1279831612854267	-7.332894990397066	0.6698930067391129	124.20700450568356	0.6527143242371614	125.5984801547944	0.0224041803547194	-0.3227142036496762	0.3451183840043956	100.04302043844989	near	LO1
0	1.0	ltm	104	diff_vonmises	-0.5867451155308631	-33.61801876983434	0.4403225488373936	0.9349943326057024	3.725102458424224e-15	4.380009045364491	-0.4767802760755313	-0.6057723421223419	0.1289920660468105	149.42331816320177	near	V1
1	2.0	ltm	104	diff_vonmises	-0.0435268946706741	-2.493907359940106	11.23800365961707	0.3534773317010337	1.6698291604915638e-14	2.3004766957554725	0.1009205334781193	-0.3661322375161805	0.4670527709942999	40.47312235627513	near	V2
2	3.0	ltm	104	diff_vonmises	-0.0400057444038845	-2.292160310621694	4.275371469144891	0.4828259446696197	7.905981749857737e-22	1.1827214818564833	0.1966501683657167	-0.1881615243601115	0.3848116927258282	66.16330421667703	near	V3
3	4.0	ltm	104	diff_vonmises	-0.0390587073048204	-2.2378990818030107	1.770974213746814	2.2653469550047585	0.5191246816572502	4.174151312739943	0.040628286599579	-0.4370425945942403	0.4776708811938194	77.77984839586037	near	V4
4	5.0	ltm	104	diff_vonmises	-0.081136123305662	-4.6487574314674704	2.6157224094003246	0.8990898482174955	5.727753483939469e-17	2.1989387132965974	0.1941137794093347	-0.3470631084391106	0.5411768878484453	85.04097740159159	near	V3ab
5	6.0	ltm	104	diff_vonmises	0.3268141816127313	18.725073291431496	0.6745460205292502	145.30626642369785	0.663131643858263	146.28833633747522	0.0430531759285628	-0.2396773791184312	0.282730555046994	100.89249928522976	near	IPS0
6	7.0	ltm	104	diff_vonmises	0.1081082945189159	6.194149006291173	1.1143494254703632	151.64427743482014	1.0983693466701605	152.7712736306976	0.047366841617837	-0.2756292115158665	0.3229960531337035	77.32540756282594	near	LO1
0	1.0	ltm	105	diff_vonmises	0.0088628228246338	0.5078023424237338	4.931635594014042	0.4191326239260044	1.2002770156605743e-32	3.912697161752378	-0.2620047316699379	-0.6227063111359703	0.3607015794660324	61.49920971084222	near	V1
1	2.0	ltm	105	diff_vonmises	0.0992308671713139	5.685509886339562	11.359761707415528	0.4871189087820122	0.1441787141132565	2.064586575622591	0.2697719916501337	-0.350007314498973	0.6197793061491068	39.28534047317331	near	V2
2	3.0	ltm	105	diff_vonmises	0.0104676429930339	0.5997517649505367	1.2961765376005194	114.32429656555004	1.2706432229482956	115.397994161962	0.111068829259409	-0.2931307303731163	0.4041995596325254	73.24671612906099	near	V3
3	4.0	ltm	105	diff_vonmises	-0.0584098952874476	-3.346640481771828	0.8320928989570852	147.04628635549955	0.809741377752606	149.14882535430283	-0.0148221816847566	-0.4618240276568457	0.447001845972089	87.88759063215429	near	V4
4	5.0	ltm	105	diff_vonmises	-0.0373146615192722	-2.137972619013518	1.5237190607115731	1.5587908076201695	0.1174185501105386	2.739104830801476	0.1930731845992977	-0.3539477742130621	0.5470209588123599	102.0472208377476	near	V3ab
5	6.0	ltm	105	diff_vonmises	0.6642158797226461	38.056766593676734	0.2742618037001345	164.7318681531069	0.263153869589817	166.1204175466209	0.0417818608800502	-0.414710661529309	0.4564925224093592	140.48388891672053	near	IPS0
6	7.0	ltm	105	diff_vonmises	-0.0281658123757572	-1.613782175688235	1.2489165027389215	2.539125551422932	0.4091117050105772	4.509967872204008	-0.0512550018748965	-0.4148896972131586	0.3636346953382621	88.97938124975337	near	LO1
0	1.0	ltm	106	diff_vonmises	0.0563292954650588	3.22743089309328	0.2183335367538769	44.73351247201565	0.2002944933405135	46.24037950518301	-0.1497838564285327	-0.3081083396968269	0.1583244832682941	149.42387990152906	near	V1
1	2.0	ltm	106	diff_vonmises	0.1236341731996652	7.083716327930249	6.117719830083537	0.3694252431329745	0.3060053833923167	1.2655391630872468	0.0891837806887653	-0.2135587705682202	0.3027425512569856	50.813775641126114	near	V2
2	3.0	ltm	106	diff_vonmises	0.1875228519962673	10.744267981642505	5.879178304114716	0.4224232883236472	0.6962638954095555	0.652999177598898	0.2137384872687364	-0.11067034756404	0.3244088348327765	51.08203728294686	near	V3
3	4.0	ltm	106	diff_vonmises	0.1869782676679686	10.713065598042018	3.0281185170911606	1.476491548959341	1.1435656493339663	2.492457760295949	0.0532735578483781	-0.3060585293054652	0.3593320871538433	56.996629651425	near	V4
4	5.0	ltm	106	diff_vonmises	-0.0811614352699664	-4.6502077001933015	2.2917218933203705	0.7028164594351706	4.879326416869018e-23	1.276171515237832	0.1903171331367745	-0.1990879874084853	0.3894051205452599	90.82681430802556	near	V3ab
5	6.0	ltm	106	diff_vonmises	0.2037156226232127	11.672045397189882	1.0541585457310063	124.99738773357792	1.0429541762858567	125.3780913479454	0.1305342900755022	-0.1307446981866338	0.261278988262136	85.47633729528417	near	IPS0
6	7.0	ltm	106	diff_vonmises	0.0283065418426911	1.6218453801966728	1.1262390337455348	113.68567882246492	1.1081661295150786	114.4878599945689	0.093407690428144	-0.2148792294175141	0.3082869198456581	79.14412310526518	near	LO1
0	1.0	ltm	107	diff_vonmises	-0.0256008823389978	-1.4668225098355858	6.793873484537429	0.4004386500614568	0.0282652536510836	4.120532547342772	-0.2664255206104139	-0.6578334352888493	0.3914079146784354	51.01472302276804	near	V1
1	2.0	ltm	107	diff_vonmises	0.1120109294989094	6.417753519624922	5.449976399622173	0.7192729115708435	0.2596131513833076	2.2610503894901828	0.194062407721665	-0.3686358717193034	0.5626982794409685	54.24839067596173	near	V2
2	3.0	ltm	107	diff_vonmises	0.0636290992748193	3.6456788426660753	4.101407374871623	0.6942512021174477	0.2822989149662681	1.607384998106227	0.2084665220206032	-0.2451454773428514	0.4536119993634547	62.01913683446361	near	V3
3	4.0	ltm	107	diff_vonmises	-0.0639691072583977	-3.6651598651258697	1.4464856473474683	3.664474354831872	0.5395625676662524	5.721420125970315	0.0986341314222996	-0.4876409366524477	0.5862750680747473	83.89679881722435	near	V4
4	5.0	ltm	107	diff_vonmises	-0.0697081028147452	-3.993980089148918	1.9344675713748185	1.115441915910687	3.938805122608681e-12	2.132043685857324	0.2246275472918226	-0.3275496218565225	0.5521771691483451	98.55375920496036	near	V3ab
5	6.0	ltm	107	diff_vonmises	0.3962257605564974	22.70206381424843	0.7718587333015542	169.27952510849755	0.761174865819575	170.06845010500206	0.1116306740817023	-0.2206376189305423	0.3322682930122447	97.13683287245186	near	IPS0
6	7.0	ltm	107	diff_vonmises	0.0169562895304045	0.9715238262940468	1.3539812751906664	0.9873573013894806	1.0854009719611693e-16	2.493584063803602	0.0052161492521085	-0.3700583792452083	0.3752745284973168	115.2092620389686	near	LO1
0	1.0	ltm	108	diff_vonmises	-0.0648726257907299	-3.7169276637403614	4.20280319900495	0.2973137719465091	1.3578692291670073e-19	2.5627223930937544	-0.1730535964764768	-0.4078174239279568	0.2347638274514799	66.7461822644859	near	V1
1	2.0	ltm	108	diff_vonmises	0.0054748555200209	0.3136861147411012	4.104585620934719	0.6888641979753558	0.272317879395164	1.974494456003024	0.1320423889840961	-0.3056914990090049	0.437733887993101	61.22334053363318	near	V2
2	3.0	ltm	108	diff_vonmises	-0.0776537919503748	-4.4492345419434445	3.188591977554035	0.8147218579687812	0.3418437300702885	1.4700322570133062	0.2324336275138503	-0.2045606578597426	0.4369942853735931	69.02459738199144	near	V3
3	4.0	ltm	108	diff_vonmises	-0.0938557986464181	-5.377541145269426	1.6179395391333995	3.669565567288472	0.8216892964149668	4.925943289195832	0.1480802015752254	-0.3368163002883536	0.484896501863579	76.35227766783655	near	V4
4	5.0	ltm	108	diff_vonmises	-0.0156364335814425	-0.895901650853287	1.9858402601458969	1.1853140422309207	1.9475995798611487e-15	1.8952387501913268	0.3072263259071364	-0.2901645014209998	0.5973908273281362	97.34821189622956	near	V3ab
5	6.0	ltm	108	diff_vonmises	0.169052544183826	9.685997297682102	0.6066119093491867	104.10266711074571	0.5922800373652344	104.60117463423693	0.1507132441476066	-0.1939664436383186	0.3446796877859253	113.39330680921924	near	IPS0
6	7.0	ltm	108	diff_vonmises	-0.0521506398276047	-2.988011561028613	0.7801207118211715	147.24633555962794	0.7657964008323407	148.163352020919	0.1303165863645432	-0.2562479719368387	0.3865645583013819	96.72780187028404	near	LO1
0	1.0	ltm	109	diff_vonmises	-0.1485281310486255	-8.510035048052245	2.351187104109826	0.270107458876208	2.8785179072133167e-32	2.771670354509635	-0.2876109477799241	-0.4397318559008742	0.1521209081209501	89.6793421384541	near	V1
1	2.0	ltm	109	diff_vonmises	0.1175398179115238	6.734535491066514	6.553024363019921	0.4450972271625601	0.2320762904043075	1.6589889292351496	0.1165771752978537	-0.2772371788784405	0.3938143541762943	49.95870741517399	near	V2
2	3.0	ltm	109	diff_vonmises	0.1497143129301903	8.577998263600795	4.935357536206075	0.5191035407989063	0.5645892491162943	0.9380891127103168	0.2041245683561457	-0.1502095207556944	0.3543340891118401	55.253814156248126	near	V3
3	4.0	ltm	109	diff_vonmises	0.0288035099051088	1.6503195527259986	1.2817128677677505	117.7861928859044	1.254210341108417	119.2909744606696	0.006485331758455	-0.3680242160763072	0.3745095478347622	70.60009679221679	near	V4
4	5.0	ltm	109	diff_vonmises	-0.1194300039487335	-6.842835173493191	2.42395593193708	0.7293093691583613	4.514048926656731e-18	1.6732068268523654	0.1557752194690515	-0.2629880127613861	0.4187632322304376	88.33420018463349	near	V3ab
5	6.0	ltm	109	diff_vonmises	0.2155104203450648	12.347837526862524	0.9615184138800026	116.6299206635127	0.9474322130671692	117.31407127898169	0.0849203450302411	-0.1824804278012362	0.2674007728314773	86.184137300569	near	IPS0
6	7.0	ltm	109	diff_vonmises	0.0582666736256985	3.3384344850187544	1.0770445109400986	109.88244120464684	1.05549233653547	111.07768689157533	0.0241433153780477	-0.2822245001236787	0.3063678155017264	77.96288260276205	near	LO1
0	1.0	ltm	110	diff_vonmises	-0.0786373137421271	-4.505586189669994	1.999911992607208	0.5860005047451712	5.720478286318267e-15	4.0829828861095	-0.3475483460103446	-0.6442886846300923	0.2967403386197476	97.0173420334703	near	V1
1	2.0	ltm	110	diff_vonmises	0.1275161601576301	7.306137796746471	7.122812988417584	0.5161527083124077	0.1118528092776917	2.24187125471858	0.1413634439092865	-0.3646596860155564	0.5060231299248429	49.25177016585553	near	V2
2	3.0	ltm	110	diff_vonmises	0.1166031460735747	6.680868147963272	5.987006648239441	0.45318155837447	0.0510617466834034	1.5703972277823168	0.1693886816009517	-0.2490834013498225	0.4184720829507742	54.67442845747729	near	V3
3	4.0	ltm	110	diff_vonmises	-0.0860980046985562	-4.933052293724807	1.94279379543844	1.3545463761054573	0.2411596127411634	3.817299485010283	-0.0754876554946081	-0.5040287288346547	0.4285410733400465	81.40511943155241	near	V4
4	5.0	ltm	110	diff_vonmises	-0.0918972277615233	-5.265323299687747	1.569305803471339	1.2097120472486638	2.470346889305456e-21	2.402964005415	0.156097427654413	-0.3591008662617195	0.5151982939161326	108.32319035009652	near	V3ab
5	6.0	ltm	110	diff_vonmises	0.373888907062906	21.422256381463598	0.7723772080084638	188.13455501816645	0.7613694543420662	189.1020740082987	0.1087816344073431	-0.2586933073412893	0.3674749417486325	96.32945267166434	near	IPS0
6	7.0	ltm	110	diff_vonmises	0.0726280542939259	4.161280985288953	2.151035250206954	0.7055445067928764	4.2582353205434885e-22	2.743292377375975	-0.0563161291889763	-0.4314591071630643	0.3751429779740879	93.67707455166362	near	LO1
0	1.0	ltm	111	diff_vonmises	-0.158533274946595	-9.083287566826964	0.3751827759935643	64.87236288597101	0.3533780521561643	67.40554994860895	-0.2991629445931778	-0.4540004715554095	0.1548375269622317	113.83189455615882	near	V1
1	2.0	ltm	111	diff_vonmises	-0.0073136492348209	-0.4190412339943236	1.754422002309296	1.738382684750165	0.5252728573139929	3.1791005583528493	0.0287690240061234	-0.3295129637379791	0.3582819877441026	77.8386240481666	near	V2
2	3.0	ltm	111	diff_vonmises	0.174626533167825	10.00536334151766	8.885372869579879	0.3649120220588138	5.603585037729857e-24	0.909969033238054	0.2826706270134621	-0.1448260615120473	0.4274966885255093	45.56545875740295	near	V3
3	4.0	ltm	111	diff_vonmises	0.1009513342461601	5.784085388519468	3.339483488258269	1.1008300126445216	0.4876717384523483	2.602863967105016	0.1297705077664351	-0.3787803220061748	0.50855082977261	63.11896794019256	near	V4
4	5.0	ltm	111	diff_vonmises	-0.1146351119467421	-6.568108098558048	1.8911626476356531	0.947196531812716	1.19353320860378e-20	1.8238176124537264	0.1820643018430018	-0.2795135393534224	0.4615778411964242	99.5950315905153	near	V3ab
5	6.0	ltm	111	diff_vonmises	0.2406899915364782	13.790520686079708	1.080752745679029	114.3411018472042	1.0664583043980893	114.818625168371	0.1377796162122209	-0.1547993009760091	0.29257891718823	83.82133249146943	near	IPS0
6	7.0	ltm	111	diff_vonmises	0.0934273277489568	5.352991571200707	0.7665221172744767	63.21640106263786	0.7371868223702005	64.20650741345078	0.0652515930402408	-0.2462988350650956	0.3115504281053365	95.7612408427578	near	LO1
0	1.0	ltm	112	diff_vonmises	-0.054768888640168	-3.1380261677036296	6.933028355869334	0.5006509064801672	0.139465685336683	3.186585733677962	-0.0645467088097347	-0.5260222471921074	0.4614755383823726	48.78153383296896	near	V1
1	2.0	ltm	112	diff_vonmises	0.0914977911083468	5.242437265277905	3.775551030893796	1.079517377698069	0.5886019450027746	2.1665577635934814	0.233446206684307	-0.3207666318877554	0.5542128385720625	60.17704151816736	near	V2
2	3.0	ltm	112	diff_vonmises	0.0138865411007527	0.7956401971080823	2.637598750968541	1.2902556877759426	0.781968478293066	1.7884059858488743	0.2477468038182806	-0.1928437899950089	0.4405905938132896	68.58173444497433	near	V3
3	4.0	ltm	112	diff_vonmises	-0.0324426344802726	-1.858826032005224	1.6201815416214491	4.095404905775964	0.8062763819508599	5.239154612431757	0.2618187691577349	-0.3457705376653446	0.6075893068230795	78.55075188882043	near	V4
4	5.0	ltm	112	diff_vonmises	-0.0181708872293923	-1.0411151482523489	2.054992374542932	1.1207982829401009	0.018059402425105	1.5974710975395314	0.328891960834369	-0.2400309375722022	0.5689228984065713	94.99904180946196	near	V3ab
5	6.0	ltm	112	diff_vonmises	0.4033985378574605	23.11303368098085	0.8739920249588009	116.07507559110772	0.8626898726219671	116.36161273229794	0.1597554269621923	-0.1262549347341952	0.2860103616963876	95.92870775631847	near	IPS0
6	7.0	ltm	112	diff_vonmises	0.0116817082250718	0.6693125787998759	0.8604171620959856	1.4094771332460991	3.067388644724357e-13	2.0743782372716577	0.1140816361013468	-0.2506652028741609	0.3647468389755078	134.61970881476378	near	LO1
0	1.0	ltm	113	diff_vonmises	-0.0524396246148248	-3.0045691696798107	7.041382783726061	0.2236266907972491	0.0487159819059006	2.577366472621171	-0.1982044293000114	-0.4146668121863845	0.2164623828863731	49.3562867090001	near	V1
1	2.0	ltm	113	diff_vonmises	0.067782844649025	3.8836709217800514	6.611848615642408	0.4967444715067972	0.3245612743366417	1.5536303635576674	0.1659101059738827	-0.2656242373359702	0.4315343433098529	49.2347621499693	near	V2
2	3.0	ltm	113	diff_vonmises	0.0508213233234676	2.91184733570447	2.2040840687915058	3.1631846934341388	1.5015216631845405	3.492485661967112	0.2163445905554422	-0.1596729156957055	0.3760175062511477	65.04614636628713	near	V3
3	4.0	ltm	113	diff_vonmises	-0.1287549539162276	-7.377115450801257	1.2672217021318195	178.59703405111725	1.2501699726737994	179.83297741981409	0.0773930199949006	-0.3209110016591836	0.3983040216540843	72.91345922824763	near	V4
4	5.0	ltm	113	diff_vonmises	-0.0723965676239714	-4.14801777608702	3.0261469822157667	0.763635983974628	2.2595947818334974e-15	1.5630667759628438	0.2538528159260179	-0.2475873806135746	0.5014401965395926	78.98445158659686	near	V3ab
5	6.0	ltm	113	diff_vonmises	0.1208808553135649	6.925962833398822	0.7850567418470508	105.08916109629926	0.7712079791495332	105.69489380119464	0.0973275070355939	-0.1737663946677639	0.2710939017033578	96.83153145926744	near	IPS0
6	7.0	ltm	113	diff_vonmises	-0.0424558517321906	-2.432541119887708	1.1455131054969234	168.0049905239171	1.1318255517341869	169.01770284736435	0.0572818865212525	-0.2537481038553899	0.3110299903766425	76.66859947550617	near	LO1
0	1.0	ltm	114	diff_vonmises	0.0201322063988703	1.1534904589415411	8.03326221411982	0.3577377461225092	0.1838190532565632	3.852310350073334	-0.332857932785288	-0.6628587501925821	0.3300008174072941	43.73127965359754	near	V1
1	2.0	ltm	114	diff_vonmises	0.0562857812151119	3.2249377102226453	9.32595495953636	0.474618461143079	0.2782269587188436	1.717443764823462	0.2158899926228157	-0.3039125662671043	0.51980255888992	42.37274754328297	near	V2
2	3.0	ltm	114	diff_vonmises	0.0512520090029778	2.936523807437131	1.8396448947752253	37.315115703359176	1.7766797727897528	37.6704754716363	0.2129222453614865	-0.1665378902814858	0.3794601356429723	65.48655603792358	near	V3
3	4.0	ltm	114	diff_vonmises	-0.1915884757762226	-10.977211065321969	1.1200504490644765	177.47592237679555	1.1009584853998613	179.06235696070786	0.0613240390462834	-0.3867604699549609	0.4480845090012444	77.04995599635703	near	V4
4	5.0	ltm	114	diff_vonmises	-0.0910939952458525	-5.219301466572139	3.750407596513393	0.707836735183319	4.27375121806009e-19	1.7429213344626662	0.2479291103196698	-0.2771042183018743	0.5250333286215442	70.76386255494609	near	V3ab
5	6.0	ltm	114	diff_vonmises	0.1422488455579796	8.1502584910805	0.7247433433804373	103.9932588162142	0.7104597514062914	104.83381014445467	0.0424535670411359	-0.2050508008865161	0.247504367927652	97.49856822051989	near	IPS0
6	7.0	ltm	114	diff_vonmises	0.0628126773701212	3.5989013132248435	1.2998107512437482	183.14495373688808	1.2854899670043642	184.36768937349703	-0.0054373074634384	-0.2986624401309647	0.2932251326675263	69.53721445266706	near	LO1
0	1.0	ltm	115	diff_vonmises	0.1709705960555258	9.795893574817672	1.9888618237274291	0.6250884228474816	0.104630356024941	2.0867559139899647	-0.0463597606835353	-0.2980599319505522	0.2517001712670169	87.5092083682637	near	V1
1	2.0	ltm	115	diff_vonmises	0.2480688982492261	14.213300898140917	4.811044004990513	0.6517534359044574	0.6857091068846372	1.3724232782386705	0.1668378460192041	-0.2260349274958576	0.3928727735150617	53.69257100693608	near	V2
2	3.0	ltm	115	diff_vonmises	0.2474264363424007	14.176490542381892	8.946829560802337	0.3821780424555214	0.4823709672271067	0.7849136823298102	0.2582147790901806	-0.1457851963531235	0.4039999754433041	43.01784249756207	near	V3
3	4.0	ltm	115	diff_vonmises	0.4551762448066386	26.07967776203395	11.034630091801242	0.4046741633378007	1.0092308859477002	1.5801908022291962	-0.0127907252867982	-0.3885012357371519	0.3757105104503537	35.08942306955635	near	V4
4	5.0	ltm	115	diff_vonmises	-0.1041165070819566	-5.965436433440064	1.7300934018918894	0.8650162066698783	2.7837903143804414e-25	1.1968872674159574	0.2181553652680464	-0.1776492727864553	0.3958046380545017	103.7469316227696	near	V3ab
5	6.0	ltm	115	diff_vonmises	0.1493988916515143	8.559925955564038	1.3114138883213908	53.00948370926179	1.2855474595390324	53.11730174989996	0.2067116207992185	-0.0943934751495447	0.3011050959487633	80.85402760444128	near	IPS0
6	7.0	ltm	115	diff_vonmises	-0.0655606336251115	-3.75634760892236	0.7581268203859671	86.27090732405682	0.7347081047112676	87.47660475361315	0.0345798198641453	-0.2817514280495352	0.3163312479136806	94.47677959832228	near	LO1
0	1.0	ltm	116	diff_vonmises	-0.0260382960855556	-1.491884471414352	3.394674367789749	0.3172761982905347	1.246300511232762e-16	2.6630050881476577	-0.2010452415630511	-0.4235795708537642	0.2225343292907131	74.48229184341358	near	V1
1	2.0	ltm	116	diff_vonmises	0.0848737593417366	4.862908201690552	4.463308697997503	0.6450154615808416	0.3418080349628959	1.8983991554985744	0.1131847034088086	-0.3021225632697923	0.4153072666786009	57.890521696800704	near	V2
2	3.0	ltm	116	diff_vonmises	0.0956967082797859	5.483017497726373	5.432706979443241	0.4426743716514117	0.1560164889789462	1.033564079983534	0.209980241862497	-0.1634964004226854	0.3734766422851825	56.33022082570105	near	V3
3	4.0	ltm	116	diff_vonmises	-0.1114113078895902	-6.38339773210609	1.1282465828918713	18.24705375887732	0.9753540047048204	19.731002139278075	0.0248177336332959	-0.3475734159111425	0.3723911495444385	78.41276759540847	near	V4
4	5.0	ltm	116	diff_vonmises	-0.0437664586517779	-2.5076333649807063	2.183975313359588	0.9566972360152914	5.356320650996743e-16	1.6136765750238968	0.2635220413260236	-0.2502270039975829	0.5137490453236064	92.99843269756876	near	V3ab
5	6.0	ltm	116	diff_vonmises	0.2383743428656999	13.657843790409032	0.8783827394027863	100.16749241119106	0.8634163371318251	100.55997555064032	0.1619370327838538	-0.1496797617929424	0.3116167945767962	94.76308197571332	near	IPS0
6	7.0	ltm	116	diff_vonmises	-0.0049120331828899	-0.2814387702078064	0.8297323583020904	135.29363758840626	0.8142921992450254	136.38186711350238	0.0654269509165601	-0.2658590383913584	0.3312859893079185	91.14163301809684	near	LO1
0	1.0	ltm	117	diff_vonmises	-0.059097878625508	-3.386059023418011	6.755219010428799	0.483773364857574	0.2140095325496618	2.976991338534236	-0.0886739689120109	-0.5045475441629141	0.4158735752509032	48.19490362540847	near	V1
1	2.0	ltm	117	diff_vonmises	0.0387509654050727	2.220266769768129	2.69315293690668	1.619267578287484	0.7754015712968719	2.676687145907464	0.1965238810920623	-0.3151521644049471	0.5116760454970094	65.76939346748452	near	V2
2	3.0	ltm	117	diff_vonmises	-0.0685100902657572	-3.925339026288193	2.216355719046229	1.767270467305034	0.8916969644069617	2.1245606506971813	0.28751146457868	-0.1743585015107065	0.4618699660893866	72.67484196820757	near	V3
3	4.0	ltm	117	diff_vonmises	-0.0985859724621395	-5.648560141273554	1.2657772194697925	125.4858375384106	1.2372587078954298	126.46067677444466	0.2794737152715072	-0.3194176499925163	0.5988913652640235	77.3004648296592	near	V4
4	5.0	ltm	117	diff_vonmises	-0.0173382678414373	-0.9934095713817602	2.518245025196403	1.0604480753802992	1.8180999523850377e-11	1.4515730417006176	0.396636268418659	-0.2269474163521313	0.6235836847707904	86.67787829180463	near	V3ab
5	6.0	ltm	117	diff_vonmises	0.178149257394882	10.207200572116507	0.6621202505380875	37.54781033585737	0.6320209218664972	37.71518398134471	0.1692880639187954	-0.1240511253388985	0.293339189257694	112.874751788412	near	IPS0
6	7.0	ltm	117	diff_vonmises	-0.0665201131065168	-3.811321733736288	0.667843793245338	108.56587044677636	0.653836033766276	109.10755139369982	0.1398682949578251	-0.1889602901423543	0.3288285851001795	107.2799218440383	near	LO1
0	1.0	ltm	118	diff_vonmises	-0.0650640360452098	-3.727894663477583	9.581604203362753	0.3304070734262764	0.1191931803856218	3.98060064070669	-0.308825119160625	-0.6693792235469325	0.3605541043863074	41.42500379273315	near	V1
1	2.0	ltm	118	diff_vonmises	0.0402335820432439	2.305214445771216	4.0139487588678255	0.8182785279114237	0.3067474850621223	2.259868553045408	0.1528108850200599	-0.3483793844008058	0.5011902694208659	61.31864407743092	near	V2
2	3.0	ltm	118	diff_vonmises	0.0074142957720147	0.4248078557981357	3.772405022681861	0.8229592625861245	0.4821992304783106	1.4010062167484667	0.2716617877763052	-0.2019128038926466	0.4735745916689517	62.80133986392377	near	V3
3	4.0	ltm	118	diff_vonmises	-0.0846531821854942	-4.850270061580865	1.1324430252995772	221.31554447252643	1.113720563594056	222.9124607690296	0.1937209332046592	-0.4305907232084891	0.6243116564131483	79.04072902505106	near	V4
4	5.0	ltm	118	diff_vonmises	-0.1018451330245695	-5.835296286256277	2.7906653119501312	0.9158741098405068	4.818263631524594e-19	2.0969450363836715	0.2417375176578748	-0.3315709813272756	0.5733084989851505	82.30263382089521	near	V3ab
5	6.0	ltm	118	diff_vonmises	0.1491703531378245	8.546831663273425	0.672035165729015	108.15106702816044	0.6577148314786099	109.03146396419562	0.0511992099066702	-0.2209681924069251	0.2721674023135954	101.8590954271986	near	IPS0
6	7.0	ltm	118	diff_vonmises	-0.0269620743324185	-1.5448130661655897	0.8458507192066128	133.27853486153927	0.8305745340465187	134.4088084612728	0.0387915902167605	-0.2651018580933648	0.3038934483101254	89.13128044014994	near	LO1
0	1.0	ltm	119	diff_vonmises	0.0201989477168516	1.1573144547810104	6.139291334460732	0.4905542428254635	0.0946631567997785	3.890311276290237	-0.2049720508190372	-0.6298850765556929	0.4249130257366557	51.91666281334773	near	V1
1	2.0	ltm	119	diff_vonmises	0.0668548760211449	3.830502235881976	4.235259149888246	0.9094903442691454	0.38824092564224	2.384867674176141	0.1822218319925267	-0.3736174274046072	0.555839259397134	58.943411839069256	near	V2
2	3.0	ltm	119	diff_vonmises	-0.036341767502218	-2.0822298979227867	2.386370078031333	1.3867066145584408	0.5388505694471603	2.326530818665096	0.2041718347538513	-0.2718619159569337	0.4760337507107851	73.01665777385261	near	V3
3	4.0	ltm	119	diff_vonmises	-0.165149714683744	-9.462381639168257	1.6461540370074628	2.4176885604548644	0.422674886936856	4.2861933313110265	0.1120089623444756	-0.4460831320487548	0.5580920943932305	83.89472068097695	near	V4
4	5.0	ltm	119	diff_vonmises	-0.0253875796680678	-1.4546011670324268	2.0749486160004307	1.2539552508893463	0.0292031740397832	2.0587452744628885	0.3240784154278061	-0.3077329808943609	0.631811396322167	93.90337421449796	near	V3ab
5	6.0	ltm	119	diff_vonmises	0.291381584800011	16.69493503687393	0.641480198294189	123.72097483110234	0.6283862560586494	124.2677633625917	0.1594051215660457	-0.2036249545580553	0.363030076124101	109.98887640423764	near	IPS0
6	7.0	ltm	119	diff_vonmises	-0.0752524538233138	-4.311648002079	0.59088666641192	128.24394150192768	0.574251647830603	129.61912203189135	0.0445572294072746	-0.3391780467426688	0.3837352761499435	108.00143440489	near	LO1
0	1.0	ltm	120	diff_vonmises	-0.163318727815293	-9.357473819262136	8.317159638207105	0.1999500573676825	4.140302825059256e-18	1.0082055762167286	0.0658823153441678	-0.1604608875958487	0.2263432029400165	47.12240670663056	near	V1
1	2.0	ltm	120	diff_vonmises	0.2447183836847002	14.021330554396464	4.285750866679933	1.1348012512552377	1.803548961842237	1.3968624368871196	0.229037998543513	-0.169103208071465	0.3981412066149781	50.81942827781927	near	V2
2	3.0	ltm	120	diff_vonmises	0.1702276534804139	9.753326100843177	3.128858637301884	51.0307128180066	3.094283819396268	51.00288389858856	0.2333718592298481	-0.0753406388572885	0.3087124980871367	52.98143791444457	near	V3
3	4.0	ltm	120	diff_vonmises	0.1354436376413268	7.760348798747279	2.2988076834258786	132.2279207274298	2.274696897842553	132.65011174701243	0.2287021398843478	-0.2142661657216891	0.4429683056060369	57.376605395851726	near	V4
4	5.0	ltm	120	diff_vonmises	-0.0792019786714939	-4.537939106961764	2.350022741732915	0.5946059122824134	2.4266993292281248e-25	0.8036218030454356	0.2099445932297124	-0.1248272587740843	0.3347718520037968	89.71239566339528	near	V3ab
5	6.0	ltm	120	diff_vonmises	0.3606621690686348	20.664420117666523	1.248708562680693	68.87989926510662	1.2336918900988758	69.06007853584218	0.1204190571001184	-0.0817360662300581	0.2021551233301766	80.35602067636219	near	IPS0
6	7.0	ltm	120	diff_vonmises	0.0218904553295788	1.2542307020045278	1.7008787123636877	0.8819394470565495	0.3628987870530801	1.2578127083071189	0.1338156151853036	-0.1295544748585963	0.2633700900438999	89.03073285091614	near	LO1
0	1.0	ltm	121	diff_vonmises	-0.1932362001774671	-11.071618719314	10.047025860879756	0.1837223761688871	0.0031712671548815	3.561873510146524	-0.3394006734775663	-0.5672269044901846	0.2278262310126182	42.65345127477062	near	V1
1	2.0	ltm	121	diff_vonmises	0.0141792381411236	0.8124105021973086	2.83189390220556	1.0310996056766537	0.3464236595928689	2.6802474456474896	0.0678954669642811	-0.3775892144344173	0.4454846813986985	69.22637341453097	near	V2
2	3.0	ltm	121	diff_vonmises	0.0650312672311782	3.726017148733927	5.674765104037356	0.4989724483177053	5.955540838289247e-27	1.2474145154825855	0.2641611167180551	-0.1985267372936567	0.4626878540117118	57.23547297663103	near	V3
3	4.0	ltm	121	diff_vonmises	-0.1529264573496937	-8.76204058202484	0.9591633540813418	72.72683259032527	0.9097606932955667	74.62643978577877	0.066388888109337	-0.4479891909465046	0.5143780790558417	84.20584460850569	near	V4
4	5.0	ltm	121	diff_vonmises	-0.0814055971397799	-4.664197144851639	2.5211640101973787	0.974323616123265	1.5373800909816622e-14	2.0087069642850315	0.2573572043828114	-0.3159683115730994	0.5733255159559107	86.62589506859464	near	V3ab
5	6.0	ltm	121	diff_vonmises	0.144446157999496	8.276155220250978	0.911569874695928	85.18594859219833	0.8916186632749201	85.74440644972162	0.1443265356144465	-0.1774523234983069	0.3217788591127535	91.3886882434501	near	IPS0
6	7.0	ltm	121	diff_vonmises	-0.0065643249992896	-0.376108117811513	0.8364727531167859	150.37751588480032	0.8218441503839699	151.6483211448709	0.0287686501504396	-0.2926607562816983	0.3214294064321379	89.08277521369672	near	LO1
0	1.0	ltm	122	diff_vonmises	-0.059960864442353	-3.435504468502881	6.328319031790891	0.3026351210929607	0.0054984596848237	1.9185678228954328	-0.0098766158041224	-0.3048981083747953	0.2950214925706729	53.91041004373116	near	V1
1	2.0	ltm	122	diff_vonmises	0.1698174700703518	9.729824322620331	4.316390994914688	0.806840031621559	0.7292114760951172	1.5270393350067375	0.2034775114067087	-0.237523582885624	0.4410010942923328	56.05955297033148	near	V2
2	3.0	ltm	122	diff_vonmises	0.1644029267020303	9.419593839624966	6.003737547640908	0.4502369699053294	0.5291077288690919	0.7003901945288682	0.2534107408582278	-0.1168655112823653	0.3702762521405931	51.71774528223449	near	V3
3	4.0	ltm	122	diff_vonmises	0.0271371298776818	1.5548430100895352	1.5693651366815071	68.28277656084117	1.5237664716633097	69.12437473416139	0.1712626808523012	-0.2714529077505165	0.4427155886028178	68.0414669430603	near	V4
4	5.0	ltm	122	diff_vonmises	-0.0322237692676811	-1.846285979041496	2.140372733127321	0.8622235521237147	2.959027111544578e-15	1.099873855859299	0.2883094003791112	-0.1686409093358685	0.4569503097149798	93.91059896482	near	V3ab
5	6.0	ltm	122	diff_vonmises	0.300596794137339	17.22292763923237	1.095003338088328	70.12117601434153	1.0790112975097323	70.21145547039762	0.1780734070808698	-0.0840030944126786	0.2620765014935484	88.51984609418994	near	IPS0
6	7.0	ltm	122	diff_vonmises	0.0052389979721776	0.300172472683374	0.6065617296040272	29.93831485333148	0.5577280450767733	30.55318048802298	0.1178160704344497	-0.2049878435538819	0.3228039139883316	113.35697387805708	near	LO1
0	1.0	ltm	123	diff_vonmises	0.0366277307257599	2.098614383727693	2.7688748989045293	0.3912037003612648	1.2998055355484754e-18	1.8275613554240395	-0.0461662863562422	-0.2899024334228332	0.2437361470665909	82.63318817964392	near	V1
1	2.0	ltm	123	diff_vonmises	0.1286127442733875	7.368967438460453	8.225164027330726	0.4294683972003482	0.4357060312190844	1.14697892296743	0.2140711561752927	-0.2094120327846275	0.4234831889599202	44.35551469179581	near	V2
2	3.0	ltm	123	diff_vonmises	0.0720437437368978	4.127802456446305	1.9280211523492277	99.70642304100842	1.9060686938767772	100.06441457124956	0.168762195202305	-0.1577707193470807	0.3265329145493858	62.80577657092013	near	V3
3	4.0	ltm	123	diff_vonmises	-0.0421965391069674	-2.4176836008879627	1.4452524677130454	146.65976207735417	1.4279399061311269	147.62843848181083	0.0426274344715196	-0.2600235899371697	0.3026510244086893	67.49219724026739	near	V4
4	5.0	ltm	123	diff_vonmises	-0.0437535435458556	-2.506893383919392	1.9580492671720244	0.8852949352718728	2.098521804523299e-14	1.399577401358532	0.2281085702920289	-0.2137678694230314	0.4418764397150603	98.00307343905412	near	V3ab
5	6.0	ltm	123	diff_vonmises	0.2762235783681711	15.826445242497348	0.6945342552835707	117.69934189166304	0.6828546589232596	118.19783761660273	0.1216550695872058	-0.167547855924008	0.2892029255112138	104.80284068807154	near	IPS0
6	7.0	ltm	123	diff_vonmises	-0.0763331613282887	-4.373567981002172	0.9799119835025256	95.85677227441523	0.9566287469061888	96.82834390340732	0.099259829200065	-0.2518105711400142	0.3510704003400793	84.95327788876153	near	LO1
0	1.0	ltm	124	diff_vonmises	-0.044591137187848	-2.5548839645525447	3.4416872737132995	0.3155372099637346	2.4878344261399813e-17	2.768867404882731	-0.2174026592724698	-0.4404500999089855	0.2230474406365157	73.95835521975928	near	V1
1	2.0	ltm	124	diff_vonmises	0.127294826104274	7.293456289626639	7.590572921296674	0.4659181972610964	0.2739993170246208	1.6440812385947998	0.1652721516745063	-0.2832412039722073	0.4485133556467136	46.53856043872955	near	V2
2	3.0	ltm	124	diff_vonmises	0.1313006426419826	7.52297267074105	4.025805367043147	0.6207802662223095	0.5843561426131227	1.1457103943509854	0.1780479698315406	-0.1712528932336908	0.3493008630652314	59.45329901174938	near	V3
3	4.0	ltm	124	diff_vonmises	-0.0382086799043425	-2.189196099285147	1.1390835131876762	99.39297556517332	1.1095660063152406	100.94669201200142	-0.0153243093574033	-0.3588686684884905	0.3435443591310871	74.45667729286052	near	V4
4	5.0	ltm	124	diff_vonmises	-0.0807964610734605	-4.629296219102336	2.2160694283385203	0.829683793631648	1.7585146644782523e-18	1.6303196284249306	0.1957625202682032	-0.2540606101345503	0.4498231304027535	92.33467386083184	near	V3ab
5	6.0	ltm	124	diff_vonmises	0.2968335581703611	17.00731010101271	0.8477433811777276	118.87848288929044	0.8345386175565596	119.48840968344842	0.1103807092946027	-0.1774106606587793	0.287791369953382	93.40545178865338	near	IPS0
6	7.0	ltm	124	diff_vonmises	0.0354904025077622	2.033450276915289	0.9485797914800148	94.84876315132988	0.9243315967501852	96.11976890230927	0.0210816387929035	-0.2921732244656692	0.3132548632585727	83.27202434089935	near	LO1
0	1.0	ltm	125	diff_vonmises	0.0449767051552185	2.576975381798313	4.441808852180087	0.3963704553381797	0.0346434933244771	3.4236973372387687	-0.2414012057687922	-0.5409626122935547	0.2995614065247624	62.32406365243921	near	V1
1	2.0	ltm	125	diff_vonmises	0.0250331527574025	1.4342940009054463	3.831967207553666	0.8023117623061602	0.2536065060289799	2.389264271847341	0.1202306174339169	-0.3656780836819699	0.4859087011158869	63.135650683233706	near	V2
2	3.0	ltm	125	diff_vonmises	-0.0698820968469012	-4.003949212851917	3.111573902953559	0.9917844601938742	0.2986086599373947	2.1618788814839838	0.2095618966326016	-0.3071350272010755	0.5166969238336772	69.39097588755351	near	V3
3	4.0	ltm	125	diff_vonmises	-0.2071547527116305	-11.869093036452677	1.4362064698881527	3.246978931160732	0.5385034246487588	5.21565010605535	0.0454194423205753	-0.4504328010834548	0.4958522434040302	83.1665614045823	near	V4
4	5.0	ltm	125	diff_vonmises	-0.0389742844696968	-2.233062009655898	1.905088317227021	1.3422135105782924	1.7209013772280842e-14	2.446851077275541	0.2828985048381378	-0.3745397870665176	0.6574382919046553	99.27023717325966	near	V3ab
5	6.0	ltm	125	diff_vonmises	0.1186216126688563	6.796517764961048	0.9938921363625484	2.553696360025644	0.3042819854423282	3.361967126214348	0.1607992940144972	-0.2665745586924293	0.4273738527069265	109.81888758312935	near	IPS0
6	7.0	ltm	125	diff_vonmises	-0.1195192776428379	-6.847950179386912	0.7419893808551987	155.30052323421657	0.7240391585817086	157.04322213509235	0.0280703193776901	-0.3990010668382595	0.4270713862159496	94.71675261659308	near	LO1
0	1.0	ltm	126	diff_vonmises	0.0025679251690454	0.1471312742917248	8.246889364922684	0.3803413225898034	0.1590092027539452	3.955815313579528	-0.3047346055311017	-0.6726432931157937	0.367908687584692	43.807749699081285	near	V1
1	2.0	ltm	126	diff_vonmises	0.1040642794583045	5.962444011030799	5.696875246471425	0.6436523799818433	0.3830184647142967	1.8894022776464687	0.1728106672573494	-0.3186291873475998	0.4914398546049492	51.972331180564936	near	V2
2	3.0	ltm	126	diff_vonmises	0.0889850063565183	5.098465304173305	3.2794443653838976	0.9662107880577894	0.8771647214153028	1.4104219348312403	0.2164967091533758	-0.1760267863604854	0.3925234955138613	62.04953553380463	near	V3
3	4.0	ltm	126	diff_vonmises	-0.1835053234643546	-10.514080552690514	1.0465497782806106	202.75815151160896	1.0293811467858376	204.50159041353533	0.0507290649746465	-0.4140023754897122	0.4647314404643587	79.45093261091623	near	V4
4	5.0	ltm	126	diff_vonmises	-0.0911944506610708	-5.225057137893381	3.3268316069786086	0.7271003026344613	1.8474263244932344e-16	1.6992791584099003	0.2344217885720326	-0.2697977196465673	0.5042195082185998	75.2502620886587	near	V3ab
5	6.0	ltm	126	diff_vonmises	0.1635536636566026	9.37093465142553	0.8446671275804271	100.7300156756741	0.8293636827130962	101.42251694534458	0.0800711139522114	-0.18373601941488	0.2638071333670915	92.09811363850368	near	IPS0
6	7.0	ltm	126	diff_vonmises	0.0275657626739284	1.5794018602753608	1.078831495726275	159.4854068970098	1.0638310669262012	160.81642453612767	-0.0214787945033521	-0.3009763125598823	0.2794975180565302	76.00359729617335	near	LO1
0	1.0	ltm	127	diff_vonmises	0.0563745885123713	3.230025993545574	10.862157215303627	0.5977333092821643	0.2037428837488411	4.412257585309628	-0.0756616249985592	-0.776252970611692	0.7005913456131327	39.02080526107292	near	V1
1	2.0	ltm	127	diff_vonmises	0.1616715219081572	9.263095872794237	4.761840299903286	0.8112431818549823	0.5297686529673901	1.8021647064594404	0.2306094446038081	-0.2916255930622984	0.5222350376661065	55.35435346869764	near	V2
2	3.0	ltm	127	diff_vonmises	0.0813921426297548	4.66342625821178	2.570965407788495	2.143642953915262	1.253783867456825	2.715143713130796	0.2279711930943928	-0.2268091845291987	0.4547803776235916	63.11334834764895	near	V3
3	4.0	ltm	127	diff_vonmises	-0.1446836813173218	-8.289764303898341	1.082109763957655	308.19359773731907	1.0689242937170655	309.9681033046635	0.1335356238364227	-0.4493984875068477	0.5829341113432704	79.60783974225117	near	V4
4	5.0	ltm	127	diff_vonmises	-0.1318628687615056	-7.555185854521738	2.477422982496729	0.8493545907896474	1.0634507526232301e-18	1.8774135712921247	0.1990772184062995	-0.2952895093128204	0.4943667277191199	87.38285187836559	near	V3ab
5	6.0	ltm	127	diff_vonmises	0.1922749104857692	11.016540877090277	0.8151438757931081	75.73266618823429	0.7926021373562746	76.57323437986452	0.0719563664535414	-0.2140545012814794	0.2860108677350208	93.14220903072588	near	IPS0
6	7.0	ltm	127	diff_vonmises	-0.1402298703639485	-8.03457973352091	1.9651349339703024	0.6192598130030403	1.817726989944912e-15	2.3327346296212044	-0.0551797010819474	-0.3650588175828271	0.3098791165008796	97.80250521921468	near	LO1
0	1.0	ltm	128	diff_vonmises	0.0719091923747178	4.120093231265653	9.466688268158626	0.2609162732467659	0.009208203493577	2.6430985818599595	-0.1087364798592933	-0.4213984642437239	0.3126619843844306	43.86265036919127	near	V1
1	2.0	ltm	128	diff_vonmises	0.1498661106795873	8.58669563398083	6.118427689682495	0.5593631274134445	0.426720179148503	1.494009859524224	0.1913210451900931	-0.2567841039631735	0.4481051491532666	50.36645654748145	near	V2
2	3.0	ltm	128	diff_vonmises	0.1023971959079856	5.8669271595018415	1.907390494362959	77.48247602069038	1.872364882274294	77.97734530826988	0.1891819576477544	-0.2029842259054035	0.392166183553158	62.723972690995566	near	V3
3	4.0	ltm	128	diff_vonmises	-0.1371874410166532	-7.860261372454151	1.2090425911491485	197.500900338214	1.194015650834149	198.94298225898544	0.0029439088035019	-0.3449344768517584	0.3478783856552603	72.49361918643882	near	V4
4	5.0	ltm	128	diff_vonmises	-0.119177174003046	-6.828349084670774	2.3371257608191427	0.7948033343260579	1.5341860729367017e-17	1.7186737998856514	0.1766160311932444	-0.2693343007038197	0.4459503318970641	89.9451131226541	near	V3ab
5	6.0	ltm	128	diff_vonmises	0.1282875205810766	7.3503334934933795	0.8326491504205521	113.38828727527684	0.8172209273989371	114.19966806755964	0.0849399678691327	-0.2121439245477105	0.2970838924168433	92.48635949437303	near	IPS0
6	7.0	ltm	128	diff_vonmises	-0.0628677368377021	-3.602055988339465	0.9759285243204234	106.24119367471177	0.9514345384054592	107.79954611980288	-0.0244732859899627	-0.3441681707538535	0.3196948847638907	80.31281491943494	near	LO1
0	1.0	ltm	129	diff_vonmises	-0.1455026286468355	-8.336686529522982	8.466045803760093	0.2834338590711945	0.0922500929094265	3.852098806877605	-0.347089644736337	-0.6364450921812845	0.2893554474449475	44.04360353272324	near	V1
1	2.0	ltm	129	diff_vonmises	0.0149229844416159	0.8550240262439872	6.151816579774656	0.6052978151744203	0.2095834729333043	2.1965728874742494	0.1592639373021483	-0.3615355928695752	0.5207995301717236	51.70673294702107	near	V2
2	3.0	ltm	129	diff_vonmises	-0.0564458979804219	-3.234111725104195	3.825931504010848	0.6139085285380576	0.1608427180114988	1.1604145369082668	0.2451176290487741	-0.1737605284146278	0.4188781574634019	66.64861554382696	near	V3
3	4.0	ltm	129	diff_vonmises	-0.1008727537516557	-5.779583057832315	1.062406840893858	132.09082360900968	1.0337682679530455	133.70812251805833	0.1493856214627413	-0.4167545212109225	0.5661401426736639	81.20945815986471	near	V4
4	5.0	ltm	129	diff_vonmises	-0.0623757162587671	-3.5738652857329085	2.900727266920719	0.9263445175704252	6.061594351865164e-16	1.8970761718496665	0.2931799890816471	-0.3001296550422642	0.5933096441239114	80.70868343479262	near	V3ab
5	6.0	ltm	129	diff_vonmises	0.2843187524609857	16.29026455243927	0.6539749186426451	120.18742333505814	0.6422360355881106	120.85869568863396	0.0844746655107115	-0.1916006541318875	0.2760753196425991	105.6134800953331	near	IPS0
6	7.0	ltm	129	diff_vonmises	0.0354062032711844	2.028626016021159	0.963150357282558	140.89944000556645	0.949627608546242	141.8106435259565	0.0590102289900471	-0.224396106935794	0.2834063359258412	84.32480979528341	near	LO1
0	1.0	ltm	130	diff_vonmises	0.0206397833016889	1.1825724732513696	7.66238183880424	0.4482228815135335	0.1484512138250108	2.9871795438333724	-0.0621422969535049	-0.4987194114430808	0.4365771144895758	46.43579054966628	near	V1
1	2.0	ltm	130	diff_vonmises	0.1486152120577751	8.515024422352255	5.167373255722821	0.7784674852117635	0.6277196252072593	1.6808075762082204	0.2316786851625448	-0.2822440104520667	0.5139226956146116	52.76129825612563	near	V2
2	3.0	ltm	130	diff_vonmises	0.0922780725792802	5.28714410039465	1.8486954756081355	41.82520087144616	1.790032241829626	42.21391843339135	0.2119612023877586	-0.1760704742809213	0.38803167666868	65.01613161924348	near	V3
3	4.0	ltm	130	diff_vonmises	-0.1415993433924855	-8.113044758213082	1.1684097302324072	173.32500114596274	1.1504984216222285	174.60210742345689	0.1043186743038546	-0.3309560901773238	0.4352747644811785	76.70184450071173	near	V4
4	5.0	ltm	130	diff_vonmises	-0.0529934918682842	-3.036303425713535	2.6187254446983044	0.8165116223207156	4.174434048200497e-12	1.3465930373599329	0.2801512534791204	-0.2116894377997521	0.4918406912788725	84.99192922819003	near	V3ab
5	6.0	ltm	130	diff_vonmises	0.2693316946979013	15.431569395295757	0.8500178000919785	84.35892928252231	0.8347224970836601	84.70125067924789	0.1400293723696712	-0.1313526275669296	0.2713819999366009	96.3626907303062	near	IPS0
6	7.0	ltm	130	diff_vonmises	-0.0882835004003574	-5.058271973581998	0.7604872112797952	85.23722579473176	0.7390399868842359	86.2787741360552	0.0448462858166784	-0.2493691397283051	0.2942154255449836	94.93790319274515	near	LO1
0	1.0	ltm	131	diff_vonmises	-0.0785162854704259	-4.498651780499753	4.258016607492593	0.2978681178044325	2.822986405551581e-21	2.7769717247019754	-0.2050699351654913	-0.4419213267520773	0.2368513915865859	66.30697465866925	near	V1
1	2.0	ltm	131	diff_vonmises	0.0962001309239174	5.5118614905464245	10.062102328406516	0.4136266414463209	0.1863595717508281	1.5504508480261312	0.221679902309332	-0.2654857542606923	0.4871656565700243	41.4632487014415	near	V2
2	3.0	ltm	131	diff_vonmises	0.051322004328687	2.9405342441859084	1.7308584061756225	83.94865196826456	1.7003975777189366	84.47795623447743	0.1791171731937026	-0.2003458618631661	0.3794630350568688	65.7523443812683	near	V3
3	4.0	ltm	131	diff_vonmises	-0.0457502497207816	-2.62129622067036	1.2152107690487144	209.2204740811238	1.2001000569902986	210.59606872494567	0.0617322493334597	-0.3456531433570653	0.4073853926905251	73.95162626703944	near	V4
4	5.0	ltm	131	diff_vonmises	-0.0994703459953714	-5.699231012240812	2.128797985246577	0.8717036750543323	2.342292598980681e-18	1.9136313137555732	0.162357513176991	-0.2979536186728645	0.4603111318498555	94.15010465470549	near	V3ab
5	6.0	ltm	131	diff_vonmises	0.3675719985369478	21.06032418335598	0.5785293113367179	142.12376356111582	0.5676323377889638	143.1875636499699	0.0163097140118537	-0.2539882849194459	0.2702979989312997	107.96111057316938	near	IPS0
6	7.0	ltm	131	diff_vonmises	0.0158197285951531	0.9064036815446956	1.369519873721141	2.98409443037211	0.6645820360687495	4.27013523894226	0.0372498735195889	-0.2999680125229731	0.3372178860425621	81.32120156511496	near	LO1
0	1.0	ltm	132	diff_vonmises	-0.0955033084748133	-5.471936505142789	7.403790310409397	0.2222863243016262	0.0592202541838947	0.9381957036704852	0.0785874880549745	-0.1505367282058078	0.2291242162607824	49.055839483372864	near	V1
1	2.0	ltm	132	diff_vonmises	0.1767890394024242	10.12926582193092	2.610225773657876	69.7527321588312	2.573630030722145	69.9761140106817	0.2123772937681636	-0.1527438489282229	0.3651211426963865	54.777254071368304	near	V2
2	3.0	ltm	132	diff_vonmises	0.1177641124209938	6.747386619827103	3.125903543202344	31.5565882309238	3.0778525727630672	31.45638658779653	0.2515547372002125	-0.0553684021454721	0.3069231393456846	54.67661318537779	near	V3
3	4.0	ltm	132	diff_vonmises	0.0347531590369539	1.9912093375643984	2.1425885856278204	124.33443554959662	2.1219004251699785	124.67903591426916	0.2042355617876694	-0.1738179355564675	0.3780534973441369	59.83388555973048	near	V4
4	5.0	ltm	132	diff_vonmises	-0.0095144621631953	-0.545138526288005	2.91731719142512	0.6507220268778617	5.762797933673725e-13	0.6303900847198558	0.3190753079970834	-0.0991029258072235	0.4181782338043069	80.47751281996031	near	V3ab
5	6.0	ltm	132	diff_vonmises	0.1898496254564669	10.877582280794988	1.0303594290707023	42.98962113835552	1.0113750650147733	42.961356013889805	0.1638182495696369	-0.0561620425905955	0.2199802921602325	93.85553463727302	near	IPS0
6	7.0	ltm	132	diff_vonmises	-0.0891077618550091	-5.105498676148851	1.0350616686321177	78.72791791246308	1.0179193731367862	78.9859899271799	0.1656275004357823	-0.1168664393134735	0.2824939397492558	88.51480085110504	near	LO1
0	1.0	ltm	133	diff_vonmises	-0.6744372362854619	-38.64240718562443	0.0002341492980988	1687.7454882577197	1.9221989097976278e-26	1690.1805344231648	-0.3246516235753915	-0.4504402812984267	0.1257886577230351	167.42053031260755	near	V1
1	2.0	ltm	133	diff_vonmises	0.03983404535035	2.28232267950778	15.261393606755403	0.286743470878276	0.1084437149619834	1.4861215131188594	0.1801927810878921	-0.2509571610837042	0.4311499421715963	34.14567247384309	near	V2
2	3.0	ltm	133	diff_vonmises	0.1110779051132808	6.364295160145619	3.006389769295585	1.073779222778367	1.1560499104766817	1.395371869768729	0.186429869122211	-0.1446980139870264	0.3311278831092374	61.6365097842739	near	V3
3	4.0	ltm	133	diff_vonmises	-0.0177843652274894	-1.0189690688543624	1.2952089421618558	170.35999981833672	1.2772614203679291	171.73899827801367	0.0146960473230137	-0.3414185627498654	0.3561146100728791	70.33064550316092	near	V4
4	5.0	ltm	133	diff_vonmises	-0.1005733031789853	-5.762425803845526	3.0572045006291604	0.6546742486466998	6.094406076041601e-15	1.6583066736974017	0.1694792880025566	-0.2629694855593018	0.4324487735618584	78.57307958064334	near	V3ab
5	6.0	ltm	133	diff_vonmises	0.189492312975447	10.857109783665203	0.829398915578281	115.53850822230868	0.8160312898014156	116.36466184506814	0.041493392942641	-0.1987236314589715	0.2402170244016126	90.70177347651816	near	IPS0
6	7.0	ltm	133	diff_vonmises	0.0735518946464722	4.214213138433736	1.3153867480785164	159.21633877045636	1.2990037572787534	160.302548223824	0.0420124390773821	-0.2786696179025156	0.3206820569798978	70.7389835512389	near	LO1
0	1.0	ltm	134	diff_vonmises	0.2052631330537604	11.76071121361274	0.4774189811099172	59.24613236591178	0.456816011788283	60.711579130413824	-0.1228923298745154	-0.2840313261771552	0.1611389963026397	108.9478610373435	near	V1
1	2.0	ltm	134	diff_vonmises	0.0688099577466372	3.9425201673558368	18.400826189560807	0.2662568290343211	0.3463242176702417	1.051421431842195	0.2228144398877288	-0.2061011094404695	0.4289155493281983	30.65495501884837	near	V2
2	3.0	ltm	134	diff_vonmises	0.184970049844994	10.598003192442624	2.260928675895688	25.54724179915125	2.1976018251436806	25.67780078494977	0.1674002760269104	-0.0970392201906311	0.2644394962175416	60.08215288464402	near	V3
3	4.0	ltm	134	diff_vonmises	0.1498575891605409	8.58620738690443	1.6941522751887996	57.06138510257931	1.648193716627549	58.021473497952	0.0015217396770204	-0.2686851577148612	0.2702068973918816	61.15425659171814	near	V4
4	5.0	ltm	134	diff_vonmises	-0.0196282495099311	-1.124615856148781	2.767245256880861	0.6789745821200801	5.909018939559224e-14	1.0268414539910748	0.2611283462613222	-0.1617506338771241	0.4228789801384463	82.6588241446984	near	V3ab
5	6.0	ltm	134	diff_vonmises	0.307522045189495	17.619715296589447	0.8765843875049462	83.80651896156883	0.8632260153249293	84.04078917826425	0.1395176181117499	-0.1068014926638394	0.2463191107755893	96.05646293540724	near	IPS0
6	7.0	ltm	134	diff_vonmises	0.0436038293405279	2.498315391820959	1.2510003059256212	124.05266645371842	1.2352141114107575	124.72083615970756	0.1016541749712445	-0.1904622177027626	0.2921163926740071	75.55613031326834	near	LO1
0	1.0	ltm	135	diff_vonmises	-0.1192797159637836	-6.834224306244032	4.229982710369081	0.2581096989196985	1.8115466634449888e-31	1.7189721864191545	-0.0690087920887577	-0.2735395943870222	0.2045308022982644	66.52406642193824	near	V1
1	2.0	ltm	135	diff_vonmises	0.0388266905119323	2.224605498794358	10.740903102646202	0.383367676736352	0.4273439444967408	1.1858681030546587	0.2185072812890039	-0.2268352925822523	0.4453425738712563	39.21072616828522	near	V2
2	3.0	ltm	135	diff_vonmises	-0.0604719705448686	-3.4647886910604018	1.594047731277349	28.15266454328784	1.5499558543789682	28.24229136061188	0.1742148395123983	-0.0790836268820145	0.2532984663944129	73.24253073143984	near	V3
3	4.0	ltm	135	diff_vonmises	-0.0130163890492788	-0.7457841570239823	1.458877058035312	60.61781945758552	1.418357578613577	61.37033919767239	0.1199505698200589	-0.2262292237612104	0.3461797935812694	70.02909740355545	near	V4
4	5.0	ltm	135	diff_vonmises	0.0331769768408683	1.900900749985032	1.965275207977225	1.2011279791348286	0.2379505157480989	1.3963402617841918	0.3351243705793251	-0.1638102325715683	0.4989346031508934	89.96370416302	near	V3ab
5	6.0	ltm	135	diff_vonmises	0.4460863059967071	25.558862632192703	0.624288405860772	96.0266600581418	0.6133698362523653	96.18977078286912	0.1550505749024147	-0.1188543628487863	0.273904937751201	114.76794261674588	near	IPS0
6	7.0	ltm	135	diff_vonmises	0.0299623811046053	1.7167179814564102	1.0702684097687891	92.50176995772784	1.0539705961778003	92.8535071907801	0.1596924666606227	-0.1345664388674876	0.2942589055281104	85.87261439232722	near	LO1
0	1.0	ltm	136	diff_vonmises	-0.0890954923095603	-5.10479568297809	3.789723507950056	0.3643008153191811	2.625503948990978e-16	3.773497513945306	-0.3286420512785012	-0.6004318672673759	0.2717898159888746	70.38438362916989	near	V1
1	2.0	ltm	136	diff_vonmises	0.0507923632015237	2.9101880429428983	6.92986203773754	0.5470832015347847	0.1226008454778279	2.2542114370818758	0.1593453219226958	-0.3668749750141717	0.5262202969368677	49.81947485205404	near	V2
2	3.0	ltm	136	diff_vonmises	-0.0290866589579189	-1.6665427984251444	3.541063071233234	0.7521620134619076	0.2653098522699491	1.7650874641285854	0.1808412988775508	-0.2611601233630222	0.442001422240573	66.163528897595	near	V3
3	4.0	ltm	136	diff_vonmises	-0.077431599854866	-4.436503872629622	1.7186482216335734	2.132413304810011	0.4119852493530091	4.129588098452535	0.0517712179915399	-0.4534710649845665	0.5052422829761065	81.7747219697464	near	V4
4	5.0	ltm	136	diff_vonmises	-0.0473282081255913	-2.711706577513153	1.927671467448301	1.190515537815036	1.8391228276153213e-18	2.386550774760404	0.2207804890897647	-0.3671179758062662	0.587898464896031	98.72231769981666	near	V3ab
5	6.0	ltm	136	diff_vonmises	0.3909466338527679	22.399592134609914	0.5309985470201736	190.4373373605464	0.521412741450826	191.5142086528185	0.0724786189731929	-0.2963348999417583	0.3688135189149513	115.58889598617912	near	IPS0
6	7.0	ltm	136	diff_vonmises	0.0103432239247891	0.5926230774491553	0.7404191112168267	122.81437869916492	0.7205423295234301	124.3824942239411	0.013421031884647	-0.3543454165608413	0.3677664484454883	94.45966657040458	near	LO1
0	1.0	ltm	137	diff_vonmises	-0.7882873056317835	-45.1655356564404	0.0001421728739406	3465.1591988153878	1.7591918414295682e-34	3468.4343007907632	-0.4428382650201001	-0.5996534983538595	0.1568152333337593	163.03305382594115	near	V1
1	2.0	ltm	137	diff_vonmises	-0.0132347209201918	-0.7582936517604923	18.450214141000647	0.2967339726043294	0.0527611221217462	2.0862639562239624	0.1550854547084633	-0.3426130649014112	0.4976985196098745	31.255235354463565	near	V2
2	3.0	ltm	137	diff_vonmises	-0.0382020323873631	-2.1888152246179917	4.708261943238624	0.3650207340284048	4.4922140450322825e-14	1.006160592666567	0.1463694473750693	-0.1601104907882632	0.3064799381633325	62.96965467627521	near	V3
3	4.0	ltm	137	diff_vonmises	-0.1285236213194055	-7.363861069339546	0.9060105109151612	80.72788630425195	0.8711092009465853	82.76309723694317	-0.1087301780347971	-0.4207848658692921	0.3120546878344949	80.93562094032424	near	V4
4	5.0	ltm	137	diff_vonmises	-0.0881829211966217	-5.052509209701155	2.996405253332215	0.7647622575930981	3.127020511625612e-15	2.04222637027204	0.1755135906657307	-0.323780741712382	0.4992943323781127	79.38181767110748	near	V3ab
5	6.0	ltm	137	diff_vonmises	0.3607887909851771	20.67167501907825	0.5975968089333968	125.2057804845552	0.5848136366924834	126.26392460090176	0.0247032570486922	-0.2549940511629529	0.2796973082116452	106.64920496713036	near	IPS0
6	7.0	ltm	137	diff_vonmises	0.1320128954217686	7.563781748969251	1.3806790394200328	232.6758107336519	1.3665334472430772	234.1290377286834	-0.0047253992476612	-0.3649161189889085	0.3601907197412473	67.44576137530899	near	LO1
0	1.0	ltm	138	diff_vonmises	-0.937555889561992	-53.717995529535656	0.000142047238957	3299.2507455439563	2.5981800152355213e-30	3302.7005600286125	-0.4744654049541168	-0.6236393537676577	0.1491739488135408	156.43890138724532	near	V1
1	2.0	ltm	138	diff_vonmises	0.0469223133624601	2.68845052065927	13.265040347925757	0.3267634806440486	0.0622074900352548	1.8892628188238447	0.1503839459840489	-0.3096741929759646	0.4600581389600136	36.75767724936185	near	V2
2	3.0	ltm	138	diff_vonmises	0.1132408454126236	6.488222510636722	4.586303640679346	0.5342356601620326	0.4241226325170641	1.1022355599358786	0.1858271203074807	-0.1727185480341236	0.3585456683416044	57.81731913799598	near	V3
3	4.0	ltm	138	diff_vonmises	-0.1023962332731247	-5.866872004587098	0.9805036663070592	152.42956326628942	0.9596583278419184	154.47095608193908	-0.079417320286069	-0.4379053110451352	0.3584879907590661	78.50770127608715	near	V4
4	5.0	ltm	138	diff_vonmises	-0.1209468471187309	-6.929743885317284	3.00336875716394	0.7069169596849546	5.658196676229536e-15	1.9871744940694007	0.1470272610446095	-0.3151279539602711	0.4621552150048806	79.28666547603657	near	V3ab
5	6.0	ltm	138	diff_vonmises	0.1659495464526678	9.50820862384807	0.8828797966253658	132.3310834712817	0.8687642188032371	133.31693101565745	0.043823533540106	-0.2349004585550851	0.2787239920951911	87.53369919484538	near	IPS0
6	7.0	ltm	138	diff_vonmises	0.095859496994622	5.492344604038843	1.2381718191944684	181.48010460559604	1.2212799823281228	183.0534182501624	-0.03900623577276	-0.3688701806330989	0.3298639448603389	70.37132008344844	near	LO1
0	1.0	ltm	139	diff_vonmises	0.0115713922455663	0.6629919387613591	7.588671197527827	0.571373290298891	0.2037316822573432	3.1666997008437434	0.0052844077974788	-0.5384495943666993	0.5437340021641781	46.28365878093828	near	V1
1	2.0	ltm	139	diff_vonmises	0.1309084777233744	7.5005032760317105	3.095368973342566	1.488169152613907	0.8795438608350667	2.384607749569762	0.2318218507293272	-0.2971473450661301	0.5289691957954574	61.96902633334784	near	V2
2	3.0	ltm	139	diff_vonmises	0.0732659693688031	4.197830826767186	3.317263855670842	1.031071780111422	0.7904405778602119	1.5036607804033408	0.2609545814226797	-0.1914749012013327	0.4524294826240124	62.95113884445993	near	V3
3	4.0	ltm	139	diff_vonmises	-0.1266135656416882	-7.254422940371345	1.1734910894845247	185.9976850206199	1.1545963004172743	187.1985133347316	0.2073561022786094	-0.3453412135013245	0.552697315779934	78.62189513156906	near	V4
4	5.0	ltm	139	diff_vonmises	-0.0428848662432244	-2.457121840719816	2.3293031097528227	0.9639532137949928	5.4939386212027504e-14	1.3731824674830662	0.326283609113179	-0.2133831827140376	0.5396667918272167	90.10906000399643	near	V3ab
5	6.0	ltm	139	diff_vonmises	0.2400767447852105	13.755384235431958	0.9374583429843436	67.99303917508375	0.9192448741506478	68.16247003694069	0.1801964487944829	-0.1068664769020824	0.2870629256965653	94.54262899946023	near	IPS0
6	7.0	ltm	139	diff_vonmises	-0.1014898400987519	-5.814939501116071	0.4578968972835341	62.361056875885645	0.4318046214120816	63.2859930604127	0.0847441441409824	-0.2836576663931209	0.3684018105341033	125.9225362724825	near	LO1
0	1.0	ltm	140	diff_vonmises	-0.0055465766035203	-0.3177954301277219	4.969942250938511	0.360035606514062	0.0541864847099084	2.5864822745459644	-0.1230795401695808	-0.4101524200049489	0.287072879835368	58.64359735006451	near	V1
1	2.0	ltm	140	diff_vonmises	0.0239463374370225	1.3720240699375144	6.105639879514679	0.6127876956337075	0.3570029321146316	1.7851964552506503	0.1971328272886097	-0.3027725163377976	0.4999053436264074	50.81357441779841	near	V2
2	3.0	ltm	140	diff_vonmises	-0.1633014349089696	-9.35648300871429	1.257737256934252	48.06158812011688	1.2118197358325158	48.59417045152377	0.2023817293281382	-0.1903159254903652	0.3926976548185035	78.79862609297572	near	V3
3	4.0	ltm	140	diff_vonmises	-0.158345440594631	-9.072525451211854	2.18019706805879	1.344719029639767	0.4604726292949423	2.5220911714224874	0.1269672503837574	-0.2983933276378546	0.425360578021612	75.60648459163343	near	V4
4	5.0	ltm	140	diff_vonmises	0.0227442284045405	1.3031482958617415	1.7170232268630603	1.739665083278914	0.2611355588417511	2.192147100033448	0.3726625277166767	-0.2415525344764881	0.6142150621931648	93.65156123084142	near	V3ab
5	6.0	ltm	140	diff_vonmises	0.3060149710848879	17.533366310982	0.4831794439057231	105.85689335610267	0.4704943473641491	106.17939489391485	0.1722207724319773	-0.1848749559878388	0.3570957284198162	126.44266493133162	near	IPS0
6	7.0	ltm	140	diff_vonmises	-0.081183107351867	-4.651449419019468	0.8695548926225051	133.0313038893259	0.854463217926584	133.79596919827495	0.1428095926729327	-0.2233198110471921	0.3661294037201248	92.33754461387318	near	LO1
0	1.0	ltm	141	diff_vonmises	-0.2049378730475155	-11.742075188010505	0.2750969929541343	87.27398884731367	0.2610887750613697	89.66037449847917	-0.2681314167509718	-0.4532085817254039	0.185077164974432	135.67416463977216	near	V1
1	2.0	ltm	141	diff_vonmises	-0.070988079265344	-4.067317337644364	3.4893963487496475	0.5083146369339079	0.0125824216365194	2.070280537498798	0.0288380559538783	-0.3256540039663762	0.3544920599202545	72.52020458573486	near	V2
2	3.0	ltm	141	diff_vonmises	0.0446374831782646	2.5575393942007745	5.721810334392721	0.4644903796879685	0.0200305682051042	1.1915058298144998	0.2391017857858396	-0.1884488220437692	0.4275506078296088	56.6043446179512	near	V3
3	4.0	ltm	141	diff_vonmises	0.0501065723942081	2.8708951240548477	2.607903602589025	1.520518955163925	0.5780525715298813	2.991887563528029	0.1364800628001047	-0.3786193470448359	0.5150994098449406	68.12982859270801	near	V4
4	5.0	ltm	141	diff_vonmises	-0.1213314271856108	-6.95177870003436	1.4576836999772085	1.1946600861856675	3.5904412682223286e-15	2.438955827657303	0.1204160326831548	-0.3606144591615924	0.4810304918447472	111.74189752285533	near	V3ab
5	6.0	ltm	141	diff_vonmises	0.1854890540978731	10.627739945681938	0.8072901255309559	107.9464288772668	0.7902896602096269	108.89010216961516	0.0656515024479205	-0.2344955074215011	0.3001470098694216	92.88957008076204	near	IPS0
6	7.0	ltm	141	diff_vonmises	0.0547581896560409	3.1374131610680656	0.8062087082998362	106.08073532076692	0.7850521591700298	107.22149086331748	0.0854666156226784	-0.2859844511442517	0.3714510667669302	93.27695359646896	near	LO1
0	1.0	ltm	142	diff_vonmises	-0.148005105354788	-8.480067883218457	4.389357213430892	0.2873548314284639	1.0950655882774033e-37	2.952399312678752	-0.2375636594144591	-0.4698531610729292	0.23228950165847	65.27956864359913	near	V1
1	2.0	ltm	142	diff_vonmises	0.1773606805331028	10.162018446114892	6.272177312905333	0.5294831298659745	0.2866630117017401	1.794820953292796	0.1447656458737882	-0.3020873590924467	0.446853004966235	50.53340794650259	near	V2
2	3.0	ltm	142	diff_vonmises	0.2108571661703585	12.081225701650222	9.39237332481717	0.3216967713442439	0.0877707281200873	0.8261793572667229	0.2445259404231501	-0.1345476505395773	0.3790735909627274	43.72544671529269	near	V3
3	4.0	ltm	142	diff_vonmises	0.1746253233584183	10.00529402454464	4.441268734490204	0.7584640112269515	0.4078060230970316	2.415065115014635	0.0626068815040166	-0.3913717977613342	0.4539786792653508	56.4551466007936	near	V4
4	5.0	ltm	142	diff_vonmises	-0.1068737387653389	-6.123414172037621	1.946299211675536	0.8359458975477926	5.850652456819546e-20	1.547744347617063	0.1778746175190366	-0.2376805584245078	0.4155551759435444	98.2605193127376	near	V3ab
5	6.0	ltm	142	diff_vonmises	0.3330144868393063	19.08032461260715	1.0926741338033357	123.4357197224498	1.0808305298704033	123.837488556764	0.1307268504008192	-0.1353535605025495	0.2660804109033687	83.70988748885284	near	IPS0
6	7.0	ltm	142	diff_vonmises	0.1546714883556733	8.862023493786939	2.635376731296017	0.4914574855286404	7.051803432777211e-16	1.6169513925936003	0.0413734812321854	-0.255810444973239	0.2971839262054245	84.70937546295028	near	LO1
0	1.0	ltm	143	diff_vonmises	-0.0478130215188389	-2.739484338797657	1.789812100519648	0.4084658183470342	1.7172892014321547e-10	2.581337423029663	-0.213843926867946	-0.4053391462403755	0.1914952193724294	102.17958544367744	near	V1
1	2.0	ltm	143	diff_vonmises	0.0325229038652092	1.8634251289862007	4.582852289271756	0.5170305886862767	0.1715146504349865	1.7890346921574845	0.0923702286485193	-0.281569540978932	0.3739397696274513	59.60667514149799	near	V2
2	3.0	ltm	143	diff_vonmises	0.0136233697688409	0.7805615905007014	3.866951781400653	0.704697039687224	0.4121467915141177	1.3990517531332471	0.2094611843084207	-0.2077386136194435	0.4171997979278642	62.27921488617241	near	V3
3	4.0	ltm	143	diff_vonmises	-0.1109087639699535	-6.354604086490945	1.1768909209048886	158.03240821579246	1.1574833092941197	159.48405559984536	0.0302720489380874	-0.3513070928908739	0.3815791418289613	74.39317540021688	near	V4
4	5.0	ltm	143	diff_vonmises	-0.0831684888454109	-4.765203399322915	1.9569475950127055	1.03413500560578	6.334982486219287e-17	2.046297727640371	0.2008303851769324	-0.3151675732906814	0.5159979584676139	98.0166507156935	near	V3ab
5	6.0	ltm	143	diff_vonmises	0.0695899200765456	3.987208717038781	0.7769311733103315	92.65874251312012	0.7571955360148257	93.43396361998884	0.1201295419319272	-0.2212092879628535	0.3413388298947808	97.425977970607	near	IPS0
6	7.0	ltm	143	diff_vonmises	-0.0930756985666676	-5.3328447031019	0.981797162609972	175.61344598916963	0.9664808906374558	176.9548619309624	0.0600310075059837	-0.3220336649972495	0.3820646725032333	82.77870863504526	near	LO1
0	1.0	ltm	144	diff_vonmises	0.0124578158481134	0.7137802700480904	2.637035233789854	0.450186875019823	1.071874397813116e-31	2.014669134773905	-0.0469171177540233	-0.3192422312486585	0.2723251134946352	84.69608610978761	near	V1
1	2.0	ltm	144	diff_vonmises	0.1436281171819485	8.229284933936073	4.5375662744389365	0.6877156017780659	0.5488616257190435	1.552494645640783	0.1688367827782266	-0.248719760696996	0.4175565434752226	56.044553000810566	near	V2
2	3.0	ltm	144	diff_vonmises	0.191622791561806	10.97917721500657	11.516991637790127	0.2796297134507504	7.068747617809536e-21	0.6514992776502326	0.2706131532045036	-0.1036893304217065	0.3743024836262102	39.95928917139503	near	V3
3	4.0	ltm	144	diff_vonmises	0.1171558762825607	6.71253725614755	4.418044425530269	0.7243424531644553	0.5181949103817439	1.6563385408162707	0.1734287299674405	-0.2626038020901127	0.4360325320575532	56.92633153097481	near	V4
4	5.0	ltm	144	diff_vonmises	0.0130277115454888	0.7464328882703671	1.8446897870536216	1.0204990746814298	1.44444483753852e-15	1.1580908673026282	0.3169571156613663	-0.171789874334842	0.4887469899962083	100.77140933568428	near	V3ab
5	6.0	ltm	144	diff_vonmises	0.3621638751589557	20.750461538711	1.0691740481102066	71.32167845725259	1.053741933592923	71.33354102578507	0.2027937120015224	-0.0774883801095533	0.2802820921110758	91.14227248941336	near	IPS0
6	7.0	ltm	144	diff_vonmises	0.1061768756498394	6.083486856621162	0.9606290468130584	1.3135585046508989	0.0116309935620342	1.8545110857461928	0.1404596855580498	-0.2274436509091788	0.3679033364672287	129.3712607220819	near	LO1
0	1.0	ltm	145	diff_vonmises	0.0410791245138584	2.3536604607364864	6.698717082568619	0.4113650234152887	0.0956235604531938	2.7414327807634797	-0.0628566502855368	-0.4448855922872293	0.3820289420016924	50.25337104653326	near	V1
1	2.0	ltm	145	diff_vonmises	0.0886500741367618	5.079275101558311	2.236243636368337	1.9948829687918888	0.8441496434758365	2.9916206176131297	0.1669503501920427	-0.291342895250686	0.4582932454427287	69.01917037447197	near	V2
2	3.0	ltm	145	diff_vonmises	0.0466360731614856	2.672050165216456	3.565020337599846	0.9702508633384918	0.6191499432151885	1.623205662256459	0.263225686997325	-0.2263283423187065	0.4895540293160316	62.42637362953363	near	V3
3	4.0	ltm	145	diff_vonmises	-0.1583622260364099	-9.073487186183046	1.178256215006557	184.6263331950045	1.1598824263542369	185.9262898004048	0.1462312495105067	-0.3496662357273585	0.4958974852378652	77.17252469890244	near	V4
4	5.0	ltm	145	diff_vonmises	-0.0667693567101073	-3.8256023402926567	2.043420623759493	1.094769701907908	1.2186357376608167e-14	1.7397149312110898	0.2952588391859717	-0.2672765125547254	0.5625353517406971	96.0259269263224	near	V3ab
5	6.0	ltm	145	diff_vonmises	0.061484812588346	3.5228202654650644	2.236858042388484	0.6736064193441829	1.9638071864509053e-18	1.030859836820318	0.2075879105468729	-0.159827116796333	0.3674150273432059	91.91720613467584	near	IPS0
6	7.0	ltm	145	diff_vonmises	-0.140291698680164	-8.038122235094464	0.6338178362167807	109.63612197015684	0.6139872501631761	110.87244062936183	0.0808058681617041	-0.319700120114545	0.4005059882762491	105.65606582732724	near	LO1
0	1.0	ltm	146	diff_vonmises	0.0043686085518324	0.2503028323647579	4.3383677200302655	0.4138543112828776	5.92829169959529e-19	2.912797239017024	-0.1310547126797813	-0.4635293752636273	0.332474662583846	65.66741676902157	near	V1
1	2.0	ltm	146	diff_vonmises	0.1358575963482086	7.784066885544303	9.748787422027949	0.5100831451842984	0.355410194944042	1.6848995360035952	0.2559673147036676	-0.3090055845133992	0.5649728992170668	41.21362162502933	near	V2
2	3.0	ltm	146	diff_vonmises	0.1511895885901649	8.662525332535719	1.328558199537298	62.59113948421408	1.296787662589126	63.220155203873766	0.1110073618495732	-0.1865669135440413	0.2975742753936146	73.83438839178646	near	V3
3	4.0	ltm	146	diff_vonmises	-0.1160606745786864	-6.649786820800018	2.344947967966468	0.8110503309067999	0.2362308226922597	2.4124471057795565	-0.019298163795292	-0.3350000609049769	0.3157018971096849	76.34068997673165	near	V4
4	5.0	ltm	146	diff_vonmises	-0.005703930204406	-0.3268111273496615	1.895589556634781	1.056696370188022	0.0662021261139216	1.5554198731816335	0.263491889911353	-0.2195312015578638	0.4830230914692169	96.4147664873638	near	V3ab
5	6.0	ltm	146	diff_vonmises	0.5016541784511914	28.74266720035592	0.7591952904164164	115.38127438934852	0.7472086845029752	115.74385677708376	0.1575914588604945	-0.149079424985004	0.3066708838454985	102.232686970239	near	IPS0
6	7.0	ltm	146	diff_vonmises	0.0253812822725909	1.4542403528496777	1.4011897300358869	1.4232975899185627	0.3138005549221789	2.5673324417706938	0.0459287928438776	-0.2686456056330429	0.3145743984769205	92.50735778708923	near	LO1
0	1.0	ltm	147	diff_vonmises	-0.0355342125745771	-2.035960408843968	3.683544082492557	0.4052308598526659	1.8667054259375477e-13	3.020561534029151	-0.1829535886317873	-0.4805491873447258	0.2975955987129385	71.41952589365232	near	V1
1	2.0	ltm	147	diff_vonmises	0.1810595963462617	10.373950710983095	7.176959095596461	0.5479736778032328	0.3209141698467501	1.7765393606059212	0.1947351626316353	-0.3077483005857324	0.5024834632173677	47.46910966154786	near	V2
2	3.0	ltm	147	diff_vonmises	0.200924519224304	11.512126952247796	9.619157355106358	0.3119136338924325	0.0317247119843309	0.9331032026950596	0.2272713505336324	-0.1494376086567222	0.3767089591903546	43.52044614778774	near	V3
3	4.0	ltm	147	diff_vonmises	0.0887077818260587	5.082581508600475	3.792477633512095	0.7180974935542813	0.3028679572829554	2.435542912665265	0.0233154722893047	-0.3775330060867269	0.4008484783760316	61.54309359091587	near	V4
4	5.0	ltm	147	diff_vonmises	-0.061578365859184	-3.528180473043723	1.8793051132017704	0.9177970533820736	4.3795712806330485e-17	1.5010486834503427	0.2170253801249348	-0.2282675671034068	0.4452929472283417	99.90453284486478	near	V3ab
5	6.0	ltm	147	diff_vonmises	0.3879292466837668	22.226708584669225	1.0137900068686874	105.3118783035383	1.0004174762914593	105.64250276547536	0.1532360438161362	-0.1284831148783354	0.2817191586944716	88.33586386360213	near	IPS0
6	7.0	ltm	147	diff_vonmises	0.0958447391281228	5.49149904057382	1.811675038960588	0.6904481752064198	2.786965843213716e-16	1.889670098717383	0.0346807508696922	-0.2917954468537967	0.3264761977234889	101.59580079754406	near	LO1
0	1.0	ltm	148	diff_vonmises	-0.0254184341531387	-1.4563689988060409	6.345344192044099	0.2728575082599424	0.1128634598965603	0.9232415398146192	0.1043170369645256	-0.1483905107715676	0.2527075477360933	52.334811244550565	near	V1
1	2.0	ltm	148	diff_vonmises	0.1087968121155325	6.233598158697795	3.3913404768007345	11.681390088691195	3.129288631222612	11.836910527175672	0.2582088755199923	-0.1602657318614362	0.4184746073814285	49.25460370989441	near	V2
2	3.0	ltm	148	diff_vonmises	-0.0877982426445012	-5.030468752195446	2.94919178530048	5.291955424251153	2.7991306087345054	5.1029998470309	0.2203311527090017	-0.0178989580027684	0.2382301107117701	61.17393197476068	near	V3
3	4.0	ltm	148	diff_vonmises	-0.0613089468159829	-3.512743898947851	1.985922545826554	117.37047955975642	1.9683613917979843	117.67380406720142	0.1681100448347052	-0.143650160620286	0.3117602054549913	62.18916332866576	near	V4
4	5.0	ltm	148	diff_vonmises	0.0292887173693451	1.6781198926149856	2.2667090964373218	1.0233139634582138	0.4197674758471747	0.8857776355651473	0.3637458546087555	-0.0904717403670642	0.4542175949758197	83.18761605910387	near	V3ab
5	6.0	ltm	148	diff_vonmises	0.3018442617893146	17.29440227076967	0.6149834836997015	60.18669803023661	0.602372342503534	60.12136665454236	0.1611537405921037	-0.072298371927463	0.2334521125195667	119.44096490245668	near	IPS0
6	7.0	ltm	148	diff_vonmises	-0.1078143305831138	-6.177306113440662	1.197427509290946	70.38590539671833	1.1785159801521108	70.53019057964393	0.1921848614767469	-0.0987095764005001	0.2908944378772471	83.93457430221991	near	LO1
0	1.0	ltm	149	diff_vonmises	-0.0375912503466205	-2.1538199914810487	3.876135344810735	0.3608277940808545	4.639458474620314e-11	2.690705177044318	-0.155550519667377	-0.4281218339035162	0.2725713142361392	69.57498669483033	near	V1
1	2.0	ltm	149	diff_vonmises	0.0241504856529084	1.383720901102902	2.398012893801946	1.3650206721245	0.5175131353044572	2.6675677034618768	0.1180124929104324	-0.3279167320002744	0.4459292249107068	71.40856065419209	near	V2
2	3.0	ltm	149	diff_vonmises	0.02146477344957	1.2298409268648272	4.428542721314644	0.6096019156189472	0.1307164957558956	1.399613320968758	0.2425084834788907	-0.2159308057231605	0.4584392892020512	62.3422389485194	near	V3
3	4.0	ltm	149	diff_vonmises	-0.0677837788938917	-3.883724450067943	2.306070760150895	1.514207542934503	0.4592887617670143	2.8938989031114075	0.1587277976465649	-0.3524675966252111	0.5111953942717762	74.13943786957589	near	V4
4	5.0	ltm	149	diff_vonmises	-0.0225115983120669	-1.2898195733752662	1.7147685898078622	1.297183620412692	3.9059836123877823e-20	1.958548520923584	0.2977712876418576	-0.2919633529278651	0.5897346405697228	104.1896974322452	near	V3ab
5	6.0	ltm	149	diff_vonmises	0.1895038638418268	10.857771599558482	0.7918921603935722	44.17575379218953	0.7561245306020093	44.55453745486917	0.1898812955414364	-0.1652057853704289	0.3550870809118653	101.3239596427898	near	IPS0
6	7.0	ltm	149	diff_vonmises	0.0239863975986695	1.3743193481264997	0.5025273264613874	148.91161697605136	0.4893280767023279	149.94885902218755	0.1132572828643887	-0.3178693101747072	0.4311265930390959	120.560223584025	near	LO1
0	1.0	ltm	150	diff_vonmises	-0.2280936279880666	-13.068802217543286	7.055192325057974	0.2134035119021398	2.0238864931467377e-23	2.6220856701668604	-0.1954897735132342	-0.4173177304369606	0.2218279569237263	51.22493939578243	near	V1
1	2.0	ltm	150	diff_vonmises	-0.0093235209168587	-0.5341983987379505	4.029468287645069	0.677997429188774	0.2567788496997758	2.037342757068753	0.1109531115740242	-0.3149456319628882	0.4258987435369124	61.76353357428803	near	V2
2	3.0	ltm	150	diff_vonmises	-0.0428007802397771	-2.452304067606159	4.134472697585299	0.5354306065640263	0.0497189145321717	1.056698657357326	0.2424561910189176	-0.1636451789477939	0.4061013699667116	66.11991442469113	near	V3
3	4.0	ltm	150	diff_vonmises	-0.0425371910692073	-2.437201520607159	1.936009462984578	2.4425283845887047	0.7129385562443797	3.6661524040309375	0.1831818436739456	-0.3381607180391015	0.5213425617130472	74.50657842651162	near	V4
4	5.0	ltm	150	diff_vonmises	-0.0260061140289153	-1.490040575392809	2.196554405710253	1.0604361803528577	1.0377209414371763e-16	1.7417088833076873	0.3015552347549564	-0.2700456992928994	0.5716009340478558	92.74094678169313	near	V3ab
5	6.0	ltm	150	diff_vonmises	0.2422950970422742	13.882486457235029	0.7275424744339842	107.83513075894476	0.7146981795065009	108.26353734711292	0.1411040808715924	-0.158476599140652	0.2995806800122444	103.495001572391	near	IPS0
6	7.0	ltm	150	diff_vonmises	0.0228072944845082	1.3067617160743237	0.7854312539732113	116.31769352236736	0.7702204813597379	117.03442179959735	0.124310074715936	-0.2095020970824475	0.3338121717983835	97.13374436713448	near	LO1
0	1.0	ltm	151	diff_vonmises	-0.3895139526038322	-22.317505545658367	0.318699596853716	87.88788249467976	0.3005270435056333	91.31673947413373	-0.4341405775280798	-0.6050968188523171	0.1709562413242373	120.01958701666992	near	V1
1	2.0	ltm	151	diff_vonmises	-0.0408558034086031	-2.3408651039291617	6.202190336041314	0.4485575699890912	2.0722747162455064e-17	2.475245432310166	0.0418923832888041	-0.3939457583263347	0.4358381416151389	54.6997714388084	near	V2
2	3.0	ltm	151	diff_vonmises	0.0037834707581453	0.2167769063528903	4.77526007017864	0.5113134962029804	6.192371979189227e-13	1.4251281551156774	0.2057878426689684	-0.2267854023850834	0.4325732450540518	62.51489331140914	near	V3
3	4.0	ltm	151	diff_vonmises	-0.0027237568430304	-0.156059771525519	2.378950704442716	1.3815665789434242	0.3196964974635163	3.427916817653137	0.0584866921541615	-0.4586545500943557	0.5171412422485173	74.65647120894354	near	V4
4	5.0	ltm	151	diff_vonmises	-0.0895462715533666	-5.130623431140292	2.005856799501735	1.07169800975432	1.6393924328346647e-16	2.511162946477134	0.1541844219401191	-0.3896379342527012	0.5438223561928204	96.87520742906672	near	V3ab
5	6.0	ltm	151	diff_vonmises	0.3012841954667129	17.262312834237182	0.7113359740196613	168.63997622217158	0.7000546589848817	169.74881816164964	0.0471584516993388	-0.2673903077972568	0.3145487594965956	98.00346821396964	near	IPS0
6	7.0	ltm	151	diff_vonmises	0.1002600551823825	5.744478015699258	0.8969692523421567	121.17271592897904	0.8768908757557644	122.51152053696744	0.0374738567375132	-0.3114378770771964	0.3489117338147096	86.231006054055	near	LO1
0	1.0	ltm	152	diff_vonmises	0.1691050037521234	9.689003009540622	0.8010704730794093	0.8039179750511001	9.317996552872664e-12	1.5033293910806431	0.0050044276199488	-0.1900500109542376	0.1950544385741865	136.9692808147443	near	V1
1	2.0	ltm	152	diff_vonmises	0.1261342376332544	7.226959468485679	9.008032446515076	0.3904431894976775	0.9399461878028176	0.6921878156552359	0.2319770969080367	-0.1450479156586043	0.377025012566641	41.22874759212471	near	V2
2	3.0	ltm	152	diff_vonmises	0.0696622881808981	3.991355103989543	2.669661099436382	56.800575872039005	2.6453213008420984	56.78923192782327	0.1917605400604998	-0.0639121155899209	0.2556726556504207	57.2745482755023	near	V3
3	4.0	ltm	152	diff_vonmises	0.0709278085758798	4.063864081509721	2.0570829518178737	141.29725430116795	2.039422958831659	141.75314194155655	0.1465746307796251	-0.1867398537276514	0.3333144845072766	59.58773786888631	near	V4
4	5.0	ltm	152	diff_vonmises	-0.0054179302244365	-0.3104245355565839	2.164947162463837	0.7218000067287819	2.464321889380837e-12	0.8621760378540677	0.2533326831405648	-0.1320760924592042	0.3854087755997691	93.39458459727857	near	V3ab
5	6.0	ltm	152	diff_vonmises	0.3919114423384114	22.4548715888757	0.7690894187014463	71.75989781964185	0.7555951831792236	71.97254967704913	0.1221155163124905	-0.1003555724587812	0.2224710887712717	102.55679881633448	near	IPS0
6	7.0	ltm	152	diff_vonmises	-0.0135272768110812	-0.775055869580141	1.1058513706535875	66.24825080922827	1.0819822901323313	66.58577996571995	0.1757110806228716	-0.1367362064329444	0.3124472870558161	85.0168539301186	near	LO1
0	1.0	ltm	153	diff_vonmises	-0.0191113270116094	-1.0949983786595896	7.081877161948571	0.3093634607091177	2.7874627353088814e-19	2.845181569847311	-0.1306167458855389	-0.4528244833755005	0.3222077374899616	51.12699511499633	near	V1
1	2.0	ltm	153	diff_vonmises	0.1017198937152603	5.828120602403723	4.88225268942462	0.6804676067147016	0.3239365471364449	1.8114350338765663	0.1942537284683603	-0.2904966533995815	0.4847503818679419	56.53185635481361	near	V2
2	3.0	ltm	153	diff_vonmises	0.0254427799292534	1.4577639090263794	2.8736233112660505	1.2899306601487626	0.8526344305079032	1.9119185139014336	0.2244872870009782	-0.2208993797062488	0.445386666707227	64.79952051946367	near	V3
3	4.0	ltm	153	diff_vonmises	-0.0398791994653991	-2.284909819727737	1.2138784765984212	175.38619155492898	1.1936116031137798	176.7031256796688	0.1584689477231506	-0.3597622826456614	0.5182312303688121	76.17396122406743	near	V4
4	5.0	ltm	153	diff_vonmises	-0.0780764079379205	-4.473448654384565	1.8531863628741705	1.07292022637502	7.355585489242847e-22	1.97351432363087	0.2143777834831579	-0.3011102163799979	0.5154879998631559	100.55137835186208	near	V3ab
5	6.0	ltm	153	diff_vonmises	0.2849855312859063	16.328468164975916	0.6832702771184469	125.43009667532664	0.6706183309889764	126.22143794665428	0.0813652350731715	-0.2142180942107305	0.2955833292839021	102.53979284580764	near	IPS0
6	7.0	ltm	153	diff_vonmises	-0.0290241808503358	-1.662963066548668	1.7473953507389888	0.8289183206860984	1.6191182757902356e-09	1.9856893642580444	0.077928218240888	-0.3040728434756375	0.3820010617165256	103.30544171148011	near	LO1
0	1.0	ltm	154	diff_vonmises	0.2485270633824913	14.239551826597058	0.7967689982203316	1.0462273106117548	1.7668781330496798e-13	1.6984166641538068	0.0467220021080356	-0.2058876099196278	0.2526096120276634	136.7883594419596	near	V1
1	2.0	ltm	154	diff_vonmises	0.1316207437740518	7.541313114625975	9.44003702009488	0.3920002017182144	0.9366997589566732	0.7321239542115627	0.2322696482685338	-0.1565079405137034	0.3887775887822373	40.30962868982084	near	V2
2	3.0	ltm	154	diff_vonmises	0.1085697062484083	6.220585951008919	2.170577125332292	56.25464972604056	2.149726608610574	56.33010464862237	0.1352911620979711	-0.0681330193792346	0.2034241814772057	61.69290086632319	near	V3
3	4.0	ltm	154	diff_vonmises	0.1292314848920946	7.404418664525683	2.131562408253674	54.66523663226282	2.08880128602617	55.17435595423	0.0852432693389992	-0.1889221446064315	0.2741654139454308	57.12673155828108	near	V4
4	5.0	ltm	154	diff_vonmises	0.0598593766541453	3.429689646566461	1.5330764576153133	1.241523321172206	0.2491139221448891	1.179425695579361	0.3077868506106317	-0.1186816724791911	0.4264685230898229	101.27785785062432	near	V3ab
5	6.0	ltm	154	diff_vonmises	0.4205253043247376	24.094325116262013	0.7625440298917335	75.97558947825668	0.7491811802787857	75.9760808016255	0.1936876250633261	-0.0895036517780143	0.2831912768413405	107.5723091224276	near	IPS0
6	7.0	ltm	154	diff_vonmises	-0.027413743090586	-1.5706917797465023	0.9651164022926396	57.37303525106088	0.9368161157319111	57.70051455915248	0.2003226381712153	-0.1472586344425339	0.3475812726137492	91.89142383364133	near	LO1
0	1.0	ltm	155	diff_vonmises	-0.0862347010999595	-4.940884420599841	6.25351939455351	0.2272903502852349	0.0106654558686039	2.6052345681433557	-0.1972432394841563	-0.4142739767067337	0.2170307372225773	53.77641060936608	near	V1
1	2.0	ltm	155	diff_vonmises	0.0446879558474725	2.560431265127145	9.181336401365604	0.4359497732897799	0.2392903098011462	1.5755668237571312	0.2052437134693496	-0.2737032207755117	0.4789469342448613	42.94641811529175	near	V2
2	3.0	ltm	155	diff_vonmises	-0.008510578929854	-0.4876202538935999	1.8704180914913684	4.514522027322608	1.3989904233789985	4.897677309272122	0.2022753273975968	-0.1634304966697882	0.365705824067385	68.90835777034229	near	V3
3	4.0	ltm	155	diff_vonmises	-0.0990322392260103	-5.674129343380312	1.2248406430148715	172.05834129836344	1.2072719308221689	173.27366483986756	0.0946097710530722	-0.3175052287128252	0.4121149997658975	74.69353404440338	near	V4
4	5.0	ltm	155	diff_vonmises	-0.0500404708518388	-2.867107784657784	2.6599751095010267	0.8610972607639821	1.6225882590031853e-14	1.6343783557317153	0.2661139980881947	-0.2575444987850406	0.5236584968732354	84.32467253172501	near	V3ab
5	6.0	ltm	155	diff_vonmises	0.3023504767204593	17.323406249850766	0.5680894130012099	124.01829244320233	0.5573404374354229	124.68444564857938	0.07975973450921	-0.1983806792190456	0.2781404137282557	113.54160608446016	near	IPS0
6	7.0	ltm	155	diff_vonmises	-0.0110320674628209	-0.6320909049232398	1.081406032914724	154.8908275772391	1.06743839115158	155.80337224394748	0.0828063151135367	-0.2355133671237155	0.3183196822372522	80.10992956568975	near	LO1
0	1.0	ltm	156	diff_vonmises	-0.0302006411994939	-1.7303692793199137	7.64740679286506	0.4242348116477892	0.1154163605687491	3.0201651931901026	-0.0778629363803339	-0.4978038895208794	0.4199409531405455	46.865395890706594	near	V1
1	2.0	ltm	156	diff_vonmises	0.0790880734941111	4.531412821033044	3.2483905075951607	1.1595986478720322	0.5976072016771048	2.2169984659731874	0.2066761586441121	-0.3059235758269774	0.5125997344710895	63.636984199279226	near	V2
2	3.0	ltm	156	diff_vonmises	0.0082859619310224	0.4747506478536569	2.8168211698753045	1.3445472483353902	0.8546596254711772	1.8592764030926991	0.2653686501489808	-0.205526662569416	0.4708953127183969	66.10504527154339	near	V3
3	4.0	ltm	156	diff_vonmises	-0.0554874589507143	-3.1791972137813374	1.243952231766856	168.43134922931446	1.2218202378748622	169.57400200799157	0.247310967530737	-0.3479031649999804	0.5952141325307174	76.98348890074408	near	V4
4	5.0	ltm	156	diff_vonmises	-0.0498341462248548	-2.855286254321985	2.1221092708711806	1.0683308822522974	4.507824145684293e-21	1.7180011379986018	0.2977468746231076	-0.2652336449247289	0.5629805195478366	94.29890685252175	near	V3ab
5	6.0	ltm	156	diff_vonmises	0.2494258285587396	14.29104727796942	0.7267505209128162	69.91550950640821	0.7072356759413255	70.36922466969546	0.1304897939174871	-0.1593952512543692	0.2898850451718564	103.28417309767433	near	IPS0
6	7.0	ltm	156	diff_vonmises	-0.0451640817967105	-2.5877112725351417	0.5255387503650352	54.83409148799799	0.4948315179189409	55.68234281961228	0.1067019492028471	-0.2657008406508465	0.3724027898536937	119.41608087713688	near	LO1
0	1.0	ltm	157	diff_vonmises	0.0692831005685239	3.9696292541568536	7.547387275960134	0.4712569327980436	0.2283956710212829	3.8691323610002266	-0.2564456583934202	-0.6726161423067573	0.416170483913337	44.93127849472194	near	V1
1	2.0	ltm	157	diff_vonmises	0.0905944151679087	5.1906776365771385	7.051693625399386	0.572609218626719	0.4222649265516306	1.680757127920893	0.2045920573459805	-0.2986824964603152	0.5032745538062957	47.21146741717553	near	V2
2	3.0	ltm	157	diff_vonmises	0.0698979204042447	4.004855835904587	1.8612352562410068	56.90520549016997	1.81775989254539	57.29903669851812	0.2091287334930278	-0.1774704257269848	0.3865991592200126	64.5539581871974	near	V3
3	4.0	ltm	157	diff_vonmises	-0.2739971765536365	-15.698881815024246	1.0720760680531771	173.16221338740883	1.0532103426678532	174.80605837994332	0.0359977581293335	-0.3886804848703065	0.4246782429996401	78.17454899909248	near	V4
4	5.0	ltm	157	diff_vonmises	-0.0816057439583239	-4.675664712837181	3.667986018673253	0.7114749145328548	1.0418008942860362e-17	1.6150482098303995	0.2645333699303106	-0.25670297028694	0.5212363402172506	71.5772886402547	near	V3ab
5	6.0	ltm	157	diff_vonmises	0.0961828756337725	5.510872835246849	0.8143862045159831	81.21617264657611	0.7952034729931673	81.9141886215778	0.0861811450693146	-0.1883098776604432	0.2744910227297579	94.2327410677461	near	IPS0
6	7.0	ltm	157	diff_vonmises	0.0211612184474426	1.2124485063928414	1.2361841363132131	187.18241015925813	1.221708389934678	188.57930186803483	-0.0368903299409026	-0.3268765082426874	0.2899861783017847	70.30220349671745	near	LO1
0	1.0	ltm	158	diff_vonmises	-0.076528645967582	-4.384768425793319	11.319144671102569	0.2595370354204737	0.0354110532127828	4.001148109102694	-0.3152984891007281	-0.6470099313764095	0.3317114422756814	39.4880462432038	near	V1
1	2.0	ltm	158	diff_vonmises	0.0997133410339043	5.71315360239137	3.741335083140384	0.8499550045752045	0.3391053293087514	2.304702918875652	0.1295546453286054	-0.3500654677667574	0.4796201130953628	62.49485193600913	near	V2
2	3.0	ltm	158	diff_vonmises	0.1166426100103701	6.683129264984615	5.436007629998336	0.5466327745261057	0.2849759249591216	1.206272549776778	0.2453104204644288	-0.1939124505389864	0.4392228710034153	55.03032001739797	near	V3
3	4.0	ltm	158	diff_vonmises	-0.0652057588180137	-3.736014780220141	1.0303951354729093	167.27261511005747	1.0063310408152564	169.24027303049488	0.0854758660713059	-0.4743792315550692	0.5598550976263752	80.82027622928982	near	V4
4	5.0	ltm	158	diff_vonmises	-0.1396954683755251	-8.00396075502085	2.217820004886263	0.9083209875649896	1.1836224406999354e-19	2.0775445889868163	0.1679900128272744	-0.3247438450394874	0.4927338578667618	92.2826727206584	near	V3ab
5	6.0	ltm	158	diff_vonmises	0.2362143222494645	13.534083725437494	0.9416306273063924	103.56818718625476	0.9239834703214952	104.36104406954392	0.0879580641879584	-0.2077619647786921	0.2957200289666506	86.8831946617928	near	IPS0
6	7.0	ltm	158	diff_vonmises	0.0517872823797403	2.967192712811336	1.8996098789708409	0.7797077185208297	0.1198022254239486	2.2622272458335173	-0.0145296220670411	-0.3153691994990084	0.3008395774319672	89.1420198766146	near	LO1
0	1.0	ltm	159	diff_vonmises	-0.659376078560253	-37.77946641338911	0.0002845308456733	1147.8229466969874	6.37618691931323e-28	1150.2229289602428	-0.3299871512622587	-0.433943535262614	0.1039563840003552	167.9542254629119	near	V1
1	2.0	ltm	159	diff_vonmises	-0.0611287824268206	-3.5024212398303	13.178639749657176	0.2721832817821822	5.797811960411149e-17	1.678858359462709	0.1229241525803215	-0.2671986066582443	0.3901227592385659	37.34764295737733	near	V2
2	3.0	ltm	159	diff_vonmises	-0.0242913458858484	-1.3917915979515922	4.867478573293379	0.3960223137572629	0.0275715475645185	0.7312492160318504	0.2188661073999375	-0.1147986193352669	0.3336647267352045	61.38650559027434	near	V3
3	4.0	ltm	159	diff_vonmises	-0.00852069384196	-0.4881997956674236	1.3318818701949628	133.30196086530378	1.306868617775332	134.57150213635927	0.097804527863559	-0.3402322297136919	0.438036757577251	71.52957970276728	near	V4
4	5.0	ltm	159	diff_vonmises	-0.0808270561132423	-4.631049185755866	2.961978581151381	0.7461011739246469	4.118035961533993e-20	1.7373293906336782	0.20858646086743	-0.275206978723966	0.483793439591396	79.85464932598262	near	V3ab
5	6.0	ltm	159	diff_vonmises	0.1870130787675028	10.715060127125538	0.7884373469041975	107.5463365142354	0.7750302745774378	108.27116605547992	0.0587164406736135	-0.1838532205977454	0.242569661271359	94.36276652004076	near	IPS0
6	7.0	ltm	159	diff_vonmises	0.0481714885732856	2.7600229881119382	1.2397857311987248	131.66504727045705	1.2234587423451078	132.45839219946782	0.0909573295064376	-0.2166218946813245	0.3075792241877622	75.12573438344668	near	LO1
0	1.0	ltm	160	diff_vonmises	-0.0595507105657763	-3.412004382424102	4.423742734791083	0.2715838277724121	5.343517396112648e-30	1.776674116792931	-0.0622565132844017	-0.2827347639974523	0.2204782507130506	65.01659442500406	near	V1
1	2.0	ltm	160	diff_vonmises	0.1241511244888542	7.113335455014627	4.252988644558238	0.7122038167378492	0.6728443702435509	1.4915694450122845	0.1494276560579279	-0.2341669081249541	0.3835945641828821	56.27349791565294	near	V2
2	3.0	ltm	160	diff_vonmises	0.1619761890133344	9.280552012077356	6.536989811672369	0.3675740200290019	0.4191015831820225	0.5677191223767631	0.2355862418550168	-0.0950722942870702	0.3306585361420872	50.49470440171149	near	V3
3	4.0	ltm	160	diff_vonmises	0.0279592048440841	1.6019444361077502	1.5743162182709618	50.71248158127916	1.5191193074642186	51.57442555410172	0.1085950532298127	-0.2588832360933226	0.3674782893231354	66.78746455544257	near	V4
4	5.0	ltm	160	diff_vonmises	-0.0095771548171108	-0.5487305507638404	2.396732370452694	0.8255974951233573	4.473196270175278e-15	1.0389126903499109	0.3092425195200081	-0.1614161361464951	0.4706586556665033	88.84435648585168	near	V3ab
5	6.0	ltm	160	diff_vonmises	0.2660513409168007	15.243618968328914	0.9990100332291622	67.05286798545907	0.9828405015708838	67.12764071198518	0.1799498476609962	-0.0844339547397412	0.2643838024007374	92.99131455152138	near	IPS0
6	7.0	ltm	160	diff_vonmises	-0.0073526136142355	-0.421273728486126	0.8633297439022315	104.40353856286968	0.8480335683491665	104.9669727360773	0.1284137721757119	-0.1739100413393348	0.3023238135150468	93.42948713499128	near	LO1
0	1.0	ltm	161	diff_vonmises	0.027602560049338	1.5815101945834895	8.788649833244815	0.6173824411693276	0.3336067254703923	3.2167103134571566	0.0238220356211282	-0.5870455234416777	0.610867559062806	42.27562833268101	near	V1
1	2.0	ltm	161	diff_vonmises	0.1338294606219665	7.667863268150929	3.4739688448340758	1.3000197410902885	0.9642937108346518	2.0315624348978134	0.2442898682954732	-0.2670106310986196	0.5113004993940929	59.05068685504358	near	V2
2	3.0	ltm	161	diff_vonmises	0.0422362037138323	2.419956215457365	2.05427066558269	102.92642615094444	2.0284918046031253	103.18372645335631	0.2756521800758307	-0.1666708411694184	0.4423230212452491	62.65932148978124	near	V3
3	4.0	ltm	161	diff_vonmises	-0.1467141976511074	-8.406104320056631	1.3504859278169503	260.4529540052641	1.337106242912678	261.43685933584896	0.2308164737781197	-0.3112091280517077	0.5420256018298275	73.79398811783796	near	V4
4	5.0	ltm	161	diff_vonmises	-0.0650665007921844	-3.728035883076799	3.0451700762091094	0.8051650988349064	5.379337135754153e-14	1.341376893139	0.3183500716237998	-0.2122822623029438	0.5306323339267436	78.73315709810254	near	V3ab
5	6.0	ltm	161	diff_vonmises	0.117565464299399	6.736004920851517	0.7317186953281336	29.754250442411912	0.692711528324502	30.105785753048263	0.1217745835962293	-0.1335355518788308	0.2553101354750602	104.35070518329636	near	IPS0
6	7.0	ltm	161	diff_vonmises	-0.1856637461920144	-10.637749065390537	0.7574557874648862	108.65565927341306	0.7418005231413406	109.51505906463892	0.0733140781933698	-0.2208658860397729	0.2941799642331428	96.61912463055988	near	LO1
0	1.0	ltm	162	diff_vonmises	-0.0091483139671601	-0.5241597799788599	4.535905909346326	0.3232273738127628	4.1837745817318594e-18	3.630425103984481	-0.3118054756864906	-0.5777695395878596	0.2659640639013689	64.19141329651674	near	V1
1	2.0	ltm	162	diff_vonmises	0.0689661229211887	3.951467772764565	3.323342807012779	0.8465277440528818	0.2778629126487136	2.3738404713321457	0.0981333803031339	-0.3516489703498319	0.4497823506529658	66.53050946916468	near	V2
2	3.0	ltm	162	diff_vonmises	0.0718818418892184	4.118526163878907	4.881014133925889	0.6559526625827813	0.2451739511473945	1.6534577976280749	0.2302556153191576	-0.2612067329598047	0.4914623482789623	57.788780885828345	near	V3
3	4.0	ltm	162	diff_vonmises	-0.1360411580895976	-7.79458419860596	0.934734121452765	155.65802256368386	0.9115148743635656	157.79384213838517	-0.0064445955225806	-0.4767621781208895	0.4703175825983088	82.87527076622328	near	V4
4	5.0	ltm	162	diff_vonmises	-0.1381110779141183	-7.913181868481459	1.7607234694209195	1.1668981335288882	8.050869264640079e-17	2.5203189291997945	0.1560580144927508	-0.3846528046068376	0.5407108190995884	102.9099596542606	near	V3ab
5	6.0	ltm	162	diff_vonmises	0.1257202245104104	7.203238263883684	0.8350072915494368	71.72343019308367	0.8047678020871981	72.73186215830643	0.1069796373993448	-0.2643943766265497	0.3713740140258945	92.82608642072708	near	IPS0
6	7.0	ltm	162	diff_vonmises	-0.0314140489259642	-1.7998924208752265	0.6979625349384613	62.44932513507521	0.6566738415226596	64.43226740750166	-0.057018852892213	-0.4202074996961764	0.3631886468039633	95.62645592190566	near	LO1
0	1.0	ltm	163	diff_vonmises	0.0052611002645093	0.3014388407515458	10.646984803308651	0.350210349248005	0.150162031499894	2.9625948434097342	-0.0946128525386963	-0.5067604836814859	0.4121476311427895	39.68723679617847	near	V1
1	2.0	ltm	163	diff_vonmises	0.1184817946535348	6.788506782783229	5.536058095163972	0.6659652048509417	0.4843420277948467	1.5633440304071626	0.2283741918871943	-0.2632458175430516	0.491620009430246	52.387979765920136	near	V2
2	3.0	ltm	163	diff_vonmises	0.0445665813498185	2.553477018671051	2.033183392298171	97.80227760457812	2.006559128986713	98.11096077642222	0.2444283611463262	-0.1711390736750608	0.4155674348213871	62.34629660005854	near	V3
3	4.0	ltm	163	diff_vonmises	-0.0858515362829627	-4.918930693728023	1.359245605489264	250.9645913179488	1.3454912009255464	252.06063532279092	0.1769649133543396	-0.323077018363012	0.5000419317173517	72.40961030080987	near	V4
4	5.0	ltm	163	diff_vonmises	-0.10104609854852	-5.789514983093191	2.8569574607977484	0.7634607342283161	3.246382997946112e-14	1.6447081065944689	0.2244723979445574	-0.2601589167765604	0.4846313147211179	81.32979663384131	near	V3ab
5	6.0	ltm	163	diff_vonmises	0.1780714161815119	10.202740599118233	0.6503337100645562	82.56206842375842	0.6344305573912032	83.35652141731961	0.0332547683048538	-0.1948315297992824	0.2280862981041362	102.98289589265366	near	IPS0
6	7.0	ltm	163	diff_vonmises	-0.0624346760627628	-3.5772434336627783	0.920417364272794	94.99307184707484	0.8996950384897335	95.98976309683066	0.0531067325538785	-0.2408502757640107	0.2939570083178893	86.13501243260762	near	LO1
0	1.0	ltm	164	diff_vonmises	-0.4588763330456538	-26.291677201955515	11.77193063856522	0.1599308102462025	1.081292660475643e-33	1.8244028163480943	-0.0739054276724451	-0.2903627263996761	0.2164572987272309	39.52703373138647	near	V1
1	2.0	ltm	164	diff_vonmises	0.0736124040191327	4.217680070108164	13.288807110795812	0.2792739213501287	0.1949001273107833	1.1984114378429394	0.1725599769348812	-0.2106771995674521	0.3832371765023333	36.20891311394422	near	V2
2	3.0	ltm	164	diff_vonmises	0.133544033995759	7.651509527108582	3.637905730221605	0.6659450932488619	1.1717485733334694	0.772170795403081	0.1972636454090439	-0.0892095841494785	0.2864732295585225	59.34520781566874	near	V3
3	4.0	ltm	164	diff_vonmises	0.1155109681665155	6.618290963411348	1.6937613325805556	117.93325381725404	1.6656419846399115	118.79642565872985	0.1592423927872346	-0.2844184658832489	0.4436608586704835	64.826985104535	near	V4
4	5.0	ltm	164	diff_vonmises	-0.0591031512956598	-3.3863611251644703	2.4477910305905874	0.6713677201732028	5.7796765546518964e-12	1.2485813672427395	0.1920547712874791	-0.1957947656815682	0.3878495369690474	87.9165227783999	near	V3ab
5	6.0	ltm	164	diff_vonmises	0.4829676747048627	27.67200940183588	0.9242990870528914	132.12351912590557	0.9148407481822354	132.6041525473493	0.081290783295401	-0.1361681298136812	0.2174589131090822	88.92373940540512	near	IPS0
6	7.0	ltm	164	diff_vonmises	0.1479991696195982	8.479727790643771	2.119899826584195	0.8836434597444272	0.5476893074869876	1.3574683612196363	0.125031366191576	-0.1443146704481121	0.2693460366396881	76.7308632619688	near	LO1
0	1.0	ltm	165	diff_vonmises	-0.010005165794886	-0.5732537733756222	6.16550791401325	0.2115306842906674	0.0173370369312524	1.6390963371673408	-0.0605305316274192	-0.260507748747787	0.1999772171203677	54.10445670480272	near	V1
1	2.0	ltm	165	diff_vonmises	0.0625643449297347	3.584672912474511	15.982340904102962	0.3573454519656698	0.6804005499834036	0.943326008837338	0.3001962846657923	-0.2130949706350519	0.5132912553008442	32.25343106595204	near	V2
2	3.0	ltm	165	diff_vonmises	0.0657711336076084	3.7684083695070103	2.4402565953659843	46.96053766986117	2.411265509965389	46.99732109934098	0.170572967748722	-0.0707619982779226	0.2413349660266446	59.0002360873014	near	V3
3	4.0	ltm	165	diff_vonmises	-0.0849138053067984	-4.865202666475125	1.5138546256206908	115.65824114616822	1.49514695127425	116.45980446281553	0.0316315937822082	-0.219020882658981	0.2506524764411892	65.74265957384227	near	V4
4	5.0	ltm	165	diff_vonmises	-0.0172494990045367	-0.98832349167507	2.884852709439061	0.7508256781704374	0.1393153297089471	1.094903438393204	0.2815334427801158	-0.155564108375642	0.4370975511557579	77.12220775595009	near	V3ab
5	6.0	ltm	165	diff_vonmises	0.4486257918755122	25.704364455181302	0.4805275719295223	50.92152134415408	0.4617364864357577	51.25863898688254	0.0972168586668953	-0.142724813521375	0.2399416721882703	125.0243260587604	near	IPS0
6	7.0	ltm	165	diff_vonmises	0.0353055213657098	2.0228573677641317	1.4800349750484008	165.02494523252514	1.4670281812664328	165.67561345870809	0.0994735845460041	-0.19624267415983	0.2957162587058342	69.02308568967521	near	LO1
0	1.0	ltm	166	diff_vonmises	0.0183479003843915	1.051257254952095	4.112043671336515	0.4832220825246868	1.3927911849543747e-20	3.0493066030513902	-0.1081482659089372	-0.4852110945019884	0.3770628285930511	67.49626478984212	near	V1
1	2.0	ltm	166	diff_vonmises	0.181750803624295	10.413553970783134	8.012752469258587	0.5730996997068056	0.3599807425672971	1.7647560172523384	0.2464805045657535	-0.3144152966571891	0.5608958012229426	45.05800460777081	near	V2
2	3.0	ltm	166	diff_vonmises	0.1878701534071018	10.764166886702258	10.138269275332416	0.2923959406918417	3.0368425466492876e-21	1.0412901056223385	0.2008586390294048	-0.1657264669293371	0.3665851059587419	42.62492075881178	near	V3
3	4.0	ltm	166	diff_vonmises	-0.1207460463193076	-6.9182388469874745	2.5896501622840917	0.7066700758260116	0.1468670160218847	2.4796852287338336	-0.0294644361633832	-0.3623421544828237	0.3328777183194404	76.2482518672814	near	V4
4	5.0	ltm	166	diff_vonmises	-0.0199788093708923	-1.14470145664855	1.785796665900727	1.0147736062804238	1.1155522727224912e-12	1.4729908316428872	0.2542937273470539	-0.2206949831852096	0.4749887105322635	102.2865852750639	near	V3ab
5	6.0	ltm	166	diff_vonmises	0.4452423797283226	25.51050921879405	0.9470218613761128	105.73232279732676	0.9340265284695	105.98479568361512	0.1779633776506699	-0.1230230631375448	0.3009864407882148	92.83805469263008	near	IPS0
6	7.0	ltm	166	diff_vonmises	0.0179580845595193	1.0289224533995085	1.2004025716402371	1.0702220253877448	5.1822085771404736e-18	2.350011571474141	0.0318243954080961	-0.3372285714891916	0.3690529668972878	120.67468353772176	near	LO1
0	1.0	ltm	167	diff_vonmises	0.0174280268543778	0.9985523839965088	7.424435582778163	0.7426975608613867	0.247825661826058	4.404370582922044	-0.0916930616380499	-0.7631257168179851	0.6714326551799352	45.95736306765474	near	V1
1	2.0	ltm	167	diff_vonmises	0.0790408765040989	4.5287086326996215	2.1129612461597977	3.138075452442942	0.9790764710305752	4.339543309898574	0.2076628712783428	-0.3610236632926509	0.5686865345709937	68.48618351184516	near	V2
2	3.0	ltm	167	diff_vonmises	0.0336417309846167	1.9275292009330325	3.528697134018096	0.9814906021723552	0.4534836747606541	1.730072283086288	0.2924064362344322	-0.2450696384552619	0.5374760746896942	64.65558034607432	near	V3
3	4.0	ltm	167	diff_vonmises	-0.1649359145351642	-9.45013179299536	1.0026120782238304	175.15982220076518	0.9781218649712096	176.83608924383066	0.2462500897770709	-0.4607031934980412	0.7069532832751122	85.06677036751353	near	V4
4	5.0	ltm	167	diff_vonmises	-0.0491525800175085	-2.8162353871823056	2.3853531550603395	1.0922880256286966	9.85999290163209e-21	1.7068148624644242	0.3545220391287244	-0.2663414812260199	0.6208635203547443	89.05025942569029	near	V3ab
5	6.0	ltm	167	diff_vonmises	0.1625484926980996	9.313342597814186	2.117725856541399	0.6151762018545679	7.584067417378079e-11	0.8689159302608508	0.1901905407181797	-0.1335377436332339	0.3237282843514136	94.3619290247407	near	IPS0
6	7.0	ltm	167	diff_vonmises	-0.1020312646253855	-5.845960841417045	0.3788725386884904	94.40905234461351	0.360468651319425	95.57557333262132	0.0587706942952515	-0.3436400360205631	0.4024107303158146	133.9364838328283	near	LO1
0	1.0	ltm	168	diff_vonmises	-0.1851055809281769	-10.60576855150184	8.70727260923791	0.1759062193136031	1.7868375606703071e-23	2.6676670652923864	-0.2206819219070054	-0.4245723943860066	0.2038904724790012	46.04366294300675	near	V1
1	2.0	ltm	168	diff_vonmises	0.0733939604459872	4.20516417530517	4.662093323885621	0.5949739750519162	0.2983178590977237	1.7883261837136142	0.1218007726033147	-0.2854504817392626	0.4072512543425773	57.489040824293	near	V2
2	3.0	ltm	168	diff_vonmises	0.0804038377508394	4.60680055977774	4.3058693141211055	0.6173338127839917	0.5440157477769977	1.0203213116539784	0.233813917068598	-0.1536025053885041	0.3874164224571021	59.02922845871379	near	V3
3	4.0	ltm	168	diff_vonmises	-0.0385833713529476	-2.210664337909863	1.285836269322156	165.69848759285725	1.2652493071419104	167.00216236581505	0.1127347417123729	-0.3488315921125888	0.4615663338249618	73.0607555916246	near	V4
4	5.0	ltm	168	diff_vonmises	-0.0900916684217481	-5.1618723698582	2.578935818489474	0.8034628957657749	3.6869653865455214e-14	1.6756933484509178	0.215536140929515	-0.263920097354779	0.479456238284294	85.64495618256208	near	V3ab
5	6.0	ltm	168	diff_vonmises	0.1936525762413778	11.095475310466352	0.8643682221117918	107.20598803692008	0.8503598458621676	107.8181877123472	0.0947275477966229	-0.1712711743030812	0.2659987220997042	91.92038030506632	near	IPS0
6	7.0	ltm	168	diff_vonmises	0.0025439056785019	0.1457550588575248	0.9728661970911802	126.76781900869926	0.9566991149050784	127.73946868633422	0.0647469704394012	-0.2400498974184852	0.3047968678578865	84.00287542410064	near	LO1
0	1.0	ltm	169	diff_vonmises	-0.0674417590153556	-3.864128154518246	2.432180005637794	0.4227787933873807	3.9220074077400607e-19	2.899680258188161	-0.2163328706210769	-0.4596065354027538	0.2432736647816769	88.19156445570093	near	V1
1	2.0	ltm	169	diff_vonmises	0.103527618591346	5.931695608324247	10.6871500802427	0.4089346665428691	0.1940509281526897	1.6762337812485228	0.2059152044908919	-0.2898772799495393	0.4957924844404313	40.15837947250927	near	V2
2	3.0	ltm	169	diff_vonmises	0.0936995892949395	5.368591008709223	2.9760320978411228	0.793259843765829	0.6061354415260782	1.393233429365471	0.1455526797761837	-0.1810045523548497	0.3265572321310334	66.20525512112744	near	V3
3	4.0	ltm	169	diff_vonmises	-0.0182695751783124	-1.0467695512142694	1.693247406667629	2.3166848819597257	0.6598811735108456	3.854222523891515	0.0128750951835661	-0.3541196869566714	0.3669947821402375	75.17746620630362	near	V4
4	5.0	ltm	169	diff_vonmises	-0.0460288206333097	-2.637257158253329	2.00244467396826	0.9391714651477264	3.681440879079512e-12	1.718744941773235	0.211296514394421	-0.2647091423733254	0.4760056567677465	96.96318390618752	near	V3ab
5	6.0	ltm	169	diff_vonmises	0.4539113413236607	26.00720413096792	0.6912789616023454	156.81239665682187	0.6814075850209047	157.48666461922053	0.1053742149479362	-0.1987122521822808	0.304086467130217	103.27367325420508	near	IPS0
6	7.0	ltm	169	diff_vonmises	0.0631154815577414	3.6162507151943655	1.418566817399924	1.9760166205707328	0.5012912624270719	3.1427845780210397	0.0513108026055123	-0.2744988648301013	0.3258096674356137	85.45065640124795	near	LO1
0	1.0	ltm	170	diff_vonmises	-0.0416865885419227	-2.388465585750589	6.433868599162016	0.287362857141594	0.028198017982483	1.7901808914945467	-0.0083819762297275	-0.2848668188287945	0.276484842599067	52.80194390861792	near	V1
1	2.0	ltm	170	diff_vonmises	0.0603337814634397	3.4568710399197373	2.0953570298510766	2.167100269207082	0.9754117665570602	2.8866324303940054	0.1768287993964131	-0.2310112501247555	0.4078400495211687	69.68290438218284	near	V2
2	3.0	ltm	170	diff_vonmises	0.0012127141769206	0.0694834040932327	2.1610501836041287	4.320747789252314	1.5734828009078183	4.6176270862979605	0.2763848434760652	-0.1708180254478832	0.4472028689239484	65.55519145490007	near	V3
3	4.0	ltm	170	diff_vonmises	-0.0470984720111385	-2.698543667753272	1.5821169082759243	179.70346252639683	1.5639926484836717	180.3992891008958	0.2518044220808093	-0.2591342972367521	0.5109387193175614	69.1108566016822	near	V4
4	5.0	ltm	170	diff_vonmises	-0.0413009078899527	-2.366367712152855	1.9501443127151823	1.046619202051642	1.2731313430322154e-16	1.4482417398508367	0.301234912933364	-0.2197338533750459	0.5209687663084099	98.18789491268188	near	V3ab
5	6.0	ltm	170	diff_vonmises	0.0202731399927757	1.1615653590639283	0.9717114300615736	1.5046640024871374	0.2379188023046357	1.7692542889135003	0.1538770629204877	-0.1463766185156918	0.3002536814361796	117.0401384813166	near	IPS0
6	7.0	ltm	170	diff_vonmises	-0.1025237043732465	-5.874175560633969	0.7102941587814663	124.03035638236015	0.6955402183775098	124.65109318131375	0.1727248992837786	-0.217035676939389	0.3897605762231677	104.2114677408367	near	LO1
0	1.0	ltm	171	diff_vonmises	-0.0385220126332096	-2.20714874223255	3.139762444059151	0.35139556248376	1.3457483206025658e-32	1.8636263684327163	-0.060431975103031	-0.296162672844872	0.2357306977418409	77.51228165203469	near	V1
1	2.0	ltm	171	diff_vonmises	0.0991381040339278	5.680194950072948	6.034183855869985	0.5336525198538785	0.4969800790306734	1.368426250724475	0.1742368428428663	-0.2379934811654953	0.4122303240083617	50.12887706590246	near	V2
2	3.0	ltm	171	diff_vonmises	0.0709993716006136	4.067964340796159	3.382584572725218	0.5347605591580722	0.5299644791442725	0.7690232984762652	0.1807324395223915	-0.1026311968375163	0.2833636363599078	65.98622980737454	near	V3
3	4.0	ltm	171	diff_vonmises	0.0310349316767285	1.7781706025534152	2.532119778229668	1.357129321413065	0.8079542674863271	2.1979956786738337	0.1350957510251862	-0.2453752560106765	0.3804710070358628	66.47032134245217	near	V4
4	5.0	ltm	171	diff_vonmises	0.0240788054644036	1.3796139288268714	2.1087963716783134	0.9487701329495288	4.0358921844770546e-10	1.1144058457687902	0.3279545653330776	-0.1699171220548105	0.4978716873878882	94.59007348109918	near	V3ab
5	6.0	ltm	171	diff_vonmises	0.3902297875919479	22.358519869305194	0.8611112418433837	83.44090653446321	0.848096394864214	83.5192601372829	0.1826742258306275	-0.0929571076800543	0.2756313335106819	99.9709735494972	near	IPS0
6	7.0	ltm	171	diff_vonmises	0.0475056501999139	2.7218732594798847	0.7713645276982817	65.02687656722222	0.7487043453021917	65.46920516029518	0.1513575034079437	-0.1628754044101867	0.3142329078181305	100.89330118480098	near	LO1
0	1.0	ltm	172	diff_vonmises	0.0077631182438709	0.4447939112348143	3.251249604225648	0.2730358620321013	2.6872434364442855e-20	1.7220620509270632	-0.0869334104587339	-0.2737939794770709	0.1868605690183369	76.14691359252967	near	V1
1	2.0	ltm	172	diff_vonmises	0.1166890947828808	6.685792646261104	3.445552793873631	0.7946636067508044	0.6770397777828003	1.5613842372452214	0.1252198581550739	-0.2220199320312746	0.3472397901863485	60.8491868037849	near	V2
2	3.0	ltm	172	diff_vonmises	0.1285185670510993	7.363571481097076	4.455093270221473	0.6038230850260757	0.8495537937813392	0.8293237556362496	0.2324904418732016	-0.1223254082602022	0.3548158501334039	56.448610314344165	near	V3
3	4.0	ltm	172	diff_vonmises	6.549503211985624e-05	0.0037525889195415	1.5851767156942629	104.23037398539788	1.558211313369792	105.10995017534648	0.0943342443971531	-0.2616370823117666	0.3559713267089197	65.85142681211289	near	V4
4	5.0	ltm	172	diff_vonmises	-0.0415906930436262	-2.3829711784238947	2.442936926141035	0.7978180279554695	1.4962112406908662e-19	1.1647327524849822	0.2784580728202886	-0.1818694988082143	0.460327571628503	88.00449584048542	near	V3ab
5	6.0	ltm	172	diff_vonmises	0.1407877546110967	8.066544146339337	1.014423367599578	64.53316653034213	0.9945732069944486	64.72129703325083	0.1781412711415413	-0.107108815969287	0.2852500871108283	90.58605280814	near	IPS0
6	7.0	ltm	172	diff_vonmises	-0.0770157912378395	-4.412679793788834	0.9892312220898436	117.096231405535	0.9728945564306634	117.81710090771992	0.1198033149693813	-0.2029713153012817	0.3227746302706631	85.90181752864362	near	LO1
0	1.0	ltm	173	diff_vonmises	-0.0233073224954742	-1.3354112107409983	7.1605408832241935	0.664393458198408	0.2582877280240032	4.242472512403343	-0.1639064212381884	-0.737712195603889	0.5738057743657006	46.26956071037537	near	V1
1	2.0	ltm	173	diff_vonmises	0.0268035489832497	1.5357302327123803	1.3005103413897845	154.6409070017725	1.275741120669872	155.96007898266464	0.17911484233381	-0.3730970518415546	0.5522118941753646	73.81823804000518	near	V2
2	3.0	ltm	173	diff_vonmises	0.0346793287253076	1.986979172306927	4.601122196960102	0.7357913412441469	0.1406116386639732	1.4347539556476003	0.3487387915065179	-0.2211469005138359	0.5698856920203538	61.40490454884721	near	V3
3	4.0	ltm	173	diff_vonmises	-0.1561317954750698	-8.945692928521265	1.0549412264570512	133.2206780640983	1.021534011781981	134.73653547530748	0.3147642863255981	-0.448869678423204	0.7636339647488022	84.1384795938996	near	V4
4	5.0	ltm	173	diff_vonmises	-0.0515381029010409	-2.952915780340589	2.537727690339785	1.1245880781163289	8.205962548771057e-19	1.7359552043363862	0.3923536064775708	-0.272108024477887	0.6644616309554578	86.3419136653826	near	V3ab
5	6.0	ltm	173	diff_vonmises	0.0840625021218805	4.816426586893285	2.201246097426967	0.604907806016797	1.2262176277143253e-19	0.7731815981418907	0.2075309103512269	-0.1190069604484218	0.3265378707996487	92.6311364672778	near	IPS0
6	7.0	ltm	173	diff_vonmises	-0.0690607244685244	-3.956888042162305	0.4728321767547492	125.0720226053347	0.45917930927405	126.0176241264322	0.0912376257940223	-0.2885820943513373	0.3798197201453597	123.60974341530456	near	LO1
0	1.0	ltm	174	diff_vonmises	-0.0304513785796409	-1.744735472968508	2.158055352255518	0.4047371548037186	5.403512845284863e-15	2.67834482667073	-0.2076922628233057	-0.423353282302861	0.2156610194795553	93.5378967844681	near	V1
1	2.0	ltm	174	diff_vonmises	0.050872073832248	2.914755125665731	5.123644618835932	0.5352634447749344	0.2135970391683364	1.8444731783827015	0.1108717332876346	-0.2964195098670849	0.4072912431547195	56.08458454327513	near	V2
2	3.0	ltm	174	diff_vonmises	0.0167121808656523	0.957537430061169	3.971913808494372	0.590196788373224	0.2729240442420602	1.272800869935384	0.1907814966593414	-0.1917614007318392	0.3825428973911807	63.30644565033956	near	V3
3	4.0	ltm	174	diff_vonmises	-0.0884050976840009	-5.065238984735023	1.4372710721306845	4.3588649469922265	0.8277325500003512	5.822705511509694	0.0410468083357982	-0.349716298694581	0.3907631070303792	76.43709623072598	near	V4
4	5.0	ltm	174	diff_vonmises	-0.0427588457906097	-2.449901400652665	1.956558465545365	1.0639495498152347	2.323745171826411e-16	1.8753441630282004	0.2431289632030946	-0.2876488459305056	0.5307778091336003	98.03749537213552	near	V3ab
5	6.0	ltm	174	diff_vonmises	0.225202459532509	12.903150467178484	0.7378894031310415	129.36654850118694	0.7252835699424617	129.9650083925241	0.1379994724190183	-0.1931045075199087	0.331103979938927	101.36729709583088	near	IPS0
6	7.0	ltm	174	diff_vonmises	-0.0254890632743541	-1.4604157493624006	0.8557233873516279	144.8136058158499	0.8398431761726215	145.9779878914029	0.0764002539305153	-0.2864712813362935	0.3628715352668088	89.88305926106568	near	LO1
0	1.0	ltm	175	diff_vonmises	1.053847582565799	60.38101873108484	0.9856093151901184	104.74033436167409	0.9637778171029004	106.97796254923946	-0.2666702504725187	-0.4363590187352741	0.1696887682627554	83.74710980765708	near	V1
1	2.0	ltm	175	diff_vonmises	-0.004457161738067	-0.255376556198437	18.17722549576834	0.3169741325213679	0.2993866447011997	1.361731887615086	0.2493094520374789	-0.2597872962339652	0.5090967482714441	30.898590734191288	near	V2
2	3.0	ltm	175	diff_vonmises	0.0160091299314405	0.9172555787481044	2.1235936628454777	47.54256026876495	2.085805092475613	47.70869320019666	0.1852186048071971	-0.1113721114523347	0.2965907162595318	61.70491655612378	near	V3
3	4.0	ltm	175	diff_vonmises	-0.1597255207402313	-9.151598218944551	1.3362152386799429	149.28530117438387	1.3187151126174903	150.45466002754353	0.0038464226072605	-0.2910963864302864	0.294942809037547	68.90387789812533	near	V4
4	5.0	ltm	175	diff_vonmises	-0.0870715507969971	-4.988832376326895	3.8906867867001993	0.63752175901864	0.027558200627746	1.6258043846471548	0.2168572948264062	-0.2538071447087687	0.4706644395351749	68.438429941697	near	V3ab
5	6.0	ltm	175	diff_vonmises	-0.2214501430597377	-12.68815856989127	1.093422197852204	66.79509009290585	1.0637786890575385	67.77652407948024	0.0244516294641563	-0.2336989440070809	0.2581505734712372	77.6934852934105	near	IPS0
6	7.0	ltm	175	diff_vonmises	0.0889813986859418	5.098258599875397	1.692565744597092	216.2732509103036	1.677969122361035	217.31955198191412	0.045097673670682	-0.3049888798632096	0.3500865535338917	62.050389613786365	near	LO1
0	1.0	ltm	176	diff_vonmises	0.0337940541608516	1.9362566760533169	6.841290156036812	0.336030552334004	1.76340455365907e-21	2.837533997898264	-0.1078742483826153	-0.4516071693515017	0.3437329209688864	52.03044924164857	near	V1
1	2.0	ltm	176	diff_vonmises	0.1310792535627347	7.510288010869862	9.275678699783702	0.5088843598182146	0.35536782280287	1.558878301898138	0.2662681395894951	-0.2831434043030692	0.5494115438925643	42.28290269519434	near	V2
2	3.0	ltm	176	diff_vonmises	0.0764041038674961	4.377632689086697	1.6373167365457055	153.60809352100807	1.6215972159190502	154.17045495190473	0.1553168121248518	-0.1977013657591726	0.3530181778840244	67.01753987152844	near	V3
3	4.0	ltm	176	diff_vonmises	-0.0804943062285989	-4.611984021732333	1.090015494654794	172.00961303945056	1.0731983757497467	173.44736122596183	0.0315939873181321	-0.3413527321694154	0.3729467194875475	77.45984840107616	near	V4
4	5.0	ltm	176	diff_vonmises	-0.05103830588485	-2.9242795206996206	2.129036062634489	0.9079596208990188	3.0473850754336385e-22	1.6321254301071495	0.2266268179454546	-0.2528786357265038	0.4795054536719584	94.14950893386548	near	V3ab
5	6.0	ltm	176	diff_vonmises	0.4598436993983126	26.347103211205827	0.6264472336546185	159.16899023461968	0.6169812437984648	159.8648673221517	0.0986974390636632	-0.2072384270060929	0.3059358660697562	108.38157575321998	near	IPS0
6	7.0	ltm	176	diff_vonmises	-0.0202924224488533	-1.1626701624158249	1.4588374812031448	1.6442250798486548	0.4043831308631169	2.924375852306837	0.0305799173476335	-0.2909309801551953	0.3215108975028289	86.99273516992909	near	LO1
0	1.0	ltm	177	diff_vonmises	0.0477576040102858	2.7363091494464333	8.054335283749221	0.2816002993969984	0.0404843440970867	2.6941890921663854	-0.1327854841349586	-0.4331368317712312	0.3003513476362726	46.75598804379641	near	V1
1	2.0	ltm	177	diff_vonmises	0.1003159229842017	5.747679004954173	10.679120747991218	0.4450087180456347	0.3734794444139195	1.4001612399950192	0.2602580427434471	-0.2614607797630356	0.5217188225064827	39.546960915945135	near	V2
2	3.0	ltm	177	diff_vonmises	0.0730800306529815	4.187177323102529	1.897727955603832	98.60427378554648	1.874125488543156	98.99993898889343	0.1767036813260887	-0.1699476823427179	0.3466513636688066	63.22046912678536	near	V3
3	4.0	ltm	177	diff_vonmises	-0.1379306495349038	-7.90284408384808	1.199322612581274	183.9668832409292	1.1841249522954336	185.28239303978708	0.02219007461089	-0.3190011349640436	0.3411912095749336	73.42906728803803	near	V4
4	5.0	ltm	177	diff_vonmises	-0.0719337216734604	-4.121498656558021	2.767727505431869	0.7491574687512803	1.859628380231507e-16	1.5456801676649568	0.2224844970703342	-0.2441547091506402	0.4666392062209744	82.64986420693668	near	V3ab
5	6.0	ltm	177	diff_vonmises	0.3587858395811371	20.556914357056957	0.564223542450981	116.81546064015856	0.552496597175634	117.59470755179302	0.0581499110179244	-0.2129143654261636	0.271064276444088	112.46244113323075	near	IPS0
6	7.0	ltm	177	diff_vonmises	0.0199658363382058	1.1439581566281276	1.1565786385020924	135.54992206882744	1.1376133064074443	136.80208029373196	0.0181886409444516	-0.2992742586719394	0.317462899616391	74.80546483429296	near	LO1
0	1.0	ltm	178	diff_vonmises	-0.3184893007362201	-18.248092752258238	0.4992122138609875	77.65029981505725	0.474790291890602	80.38763557189633	-0.3088349653941549	-0.4899605482665983	0.1811255828724434	98.78997922848964	near	V1
1	2.0	ltm	178	diff_vonmises	0.1463221320690071	8.383640616909943	6.65597704695381	0.4566643731885959	0.1771982265390141	1.855003100730792	0.11069686759672	-0.3059574364666077	0.4166543040633277	50.0871982716146	near	V2
2	3.0	ltm	178	diff_vonmises	0.1987090623823163	11.385190625508518	9.4404151529757	0.3029461064497446	9.325537195566064e-19	0.7741958871039665	0.2428683025581787	-0.1232171000423334	0.3660854026005121	44.19652053249038	near	V3
3	4.0	ltm	178	diff_vonmises	0.1624830213231427	9.309591364350242	3.8005147551157066	0.9914317528699196	0.4713217806149766	2.593092314886737	0.1152217319939001	-0.3983852434753759	0.513606975469276	59.90244325096717	near	V4
4	5.0	ltm	178	diff_vonmises	-0.1200698821233364	-6.879497492300471	1.895560568058224	0.8407874693059222	2.2588672878536516e-20	1.6721730375835335	0.1537490604220538	-0.2566576319018085	0.4104066923238624	99.4808704610129	near	V3ab
5	6.0	ltm	178	diff_vonmises	0.3877026061881193	22.21372304080187	1.0760266237923048	121.4522001348851	1.0632927917725288	121.96672647443278	0.108599661801378	-0.1531222416056046	0.2617219034069826	82.88797443218425	near	IPS0
6	7.0	ltm	178	diff_vonmises	0.218399201838412	12.513352514366815	3.2700127653440805	0.429313115313863	5.676137753442895e-19	1.386165697577526	0.0745877904076892	-0.220188615785873	0.2947764061935622	75.9164563307061	near	LO1
0	1.0	ltm	179	diff_vonmises	-0.2882235720935541	-16.513994237145265	11.63857025183128	0.1723276061674221	0.0199842947980418	2.5858315446593725	-0.1879948388931021	-0.414950064187321	0.2269552252942188	39.277700654685134	near	V1
1	2.0	ltm	179	diff_vonmises	-0.0113171500874119	-0.6484249361248162	6.555826324850095	0.4983363912195827	0.228637219090249	1.7810367633915898	0.1468083573152607	-0.2968723010952785	0.4436806584105393	50.091918324753465	near	V2
2	3.0	ltm	179	diff_vonmises	-0.1221505979815473	-6.998713729341893	3.541542250219498	0.5006294844742851	1.4436846742961102e-16	0.8111044798533482	0.2308767631977825	-0.1287892090918422	0.3596659722896248	72.87457944953792	near	V3
3	4.0	ltm	179	diff_vonmises	-0.0717066577223543	-4.108488850480076	1.2518775135574471	78.72413700728185	1.2108619700313323	79.84786999906262	0.1652908818231147	-0.3178241298205826	0.4831150116436973	75.8311126567387	near	V4
4	5.0	ltm	179	diff_vonmises	-0.0258591893554535	-1.4816224116971135	2.7407424320571674	0.9164066086702848	1.929561465756272e-17	1.4982239877997097	0.3313375122806944	-0.2360771879999005	0.5674147002805949	83.06583919551707	near	V3ab
5	6.0	ltm	179	diff_vonmises	0.2675960733060079	15.332125614707644	0.7021922031980962	89.39207663043877	0.6887090065360177	89.74401347476146	0.1302882096258102	-0.1391123672351346	0.2694005768609449	105.87287213291938	near	IPS0
6	7.0	ltm	179	diff_vonmises	0.01658925586148	0.9504943461254688	1.007426675090617	106.83180199152692	0.992088955000456	107.39785008955626	0.1174008358565785	-0.167573984127392	0.2849748199839705	85.81660868969351	near	LO1
0	1.0	ltm	180	diff_vonmises	0.0110095133264935	0.6307986481011153	4.916027888610216	0.3997043913917417	1.7638503046035107e-14	1.9307409810172549	0.0361586224755658	-0.3072685233948601	0.3434271458704259	61.595498221578026	near	V1
1	2.0	ltm	180	diff_vonmises	0.1494497043627351	8.56283730946261	5.204385210368817	0.6983596227337266	0.6108165243484767	1.4226207798760866	0.2378366268799291	-0.2369189852461322	0.4747556121260614	53.08831012470978	near	V2
2	3.0	ltm	180	diff_vonmises	0.0518236759685092	2.969277911849129	1.6356913710895506	73.27116924189536	1.6059805474224476	73.68266069970088	0.1852392935350977	-0.1661605413221991	0.3513998348572968	68.64829368616086	near	V3
3	4.0	ltm	180	diff_vonmises	-0.0228805306111176	-1.3109578370369293	1.9835614600004885	2.2932149397479407	0.9066357887824	3.159880123947969	0.1533678836516649	-0.25564864948328	0.409016533134945	71.07135227877086	near	V4
4	5.0	ltm	180	diff_vonmises	0.01337027724835	0.766060457250246	1.698745496348588	1.1566671531561037	0.027845148116156	1.3601696074364136	0.3178214421660021	-0.1924125768552965	0.5102340190212987	103.5079226132608	near	V3ab
5	6.0	ltm	180	diff_vonmises	0.3554217370474686	20.364165480028483	0.856628893918297	88.902380108946	0.8427223205148356	89.02361082482125	0.1981032593495868	-0.1086149847561968	0.3067182441057836	99.70210992764646	near	IPS0
6	7.0	ltm	180	diff_vonmises	-0.019792594608613	-1.134032136686917	1.078588095313353	1.3274594473286458	1.99209086288637e-14	1.996163954143998	0.1555672570995916	-0.2629651675023648	0.4185324246019565	125.37705206136478	near	LO1
0	1.0	ltm	181	diff_vonmises	0.594739813503415	34.076081222143365	0.6828437296756711	155.9193916351585	0.6684818546341668	159.14238602819367	-0.4499965180348244	-0.570216843626806	0.1202203255919815	47.6440303872285	near	V1
1	2.0	ltm	181	diff_vonmises	-0.0670451369940377	-3.8414033866347856	11.267302246788018	0.3749220356988064	0.0365577825648779	2.0127553241989067	0.1640782431795591	-0.3245351947663802	0.4886134379459393	40.043071925032905	near	V2
2	3.0	ltm	181	diff_vonmises	-0.18629719095536	-10.674042776884905	3.427466400872897	0.5819019156770459	2.830530486867061e-27	1.110699231017776	0.2340545848899412	-0.1763401126789567	0.4103946975688979	74.10908848749449	near	V3
3	4.0	ltm	181	diff_vonmises	-0.1603170626751076	-9.185491075217964	1.0935219535226313	173.2813723285313	1.0733435442073402	174.88260616231952	0.0866055322452865	-0.3956077759947938	0.4822133082400803	78.6119694105169	near	V4
4	5.0	ltm	181	diff_vonmises	-0.0782296176899561	-4.482226926556455	3.322960303571982	0.8779105145736279	1.719075204020774e-17	2.039071097167967	0.2846052345427421	-0.3237366038477712	0.6083418383905134	75.2999431967257	near	V3ab
5	6.0	ltm	181	diff_vonmises	0.0751848629525179	4.30777533044878	0.693256194051503	105.06052043589423	0.677990606866105	105.886328734711	0.0739463985087773	-0.2177290127806674	0.2916754112894448	101.41421397911458	near	IPS0
6	7.0	ltm	181	diff_vonmises	-0.0246409482388543	-1.4118223372866734	1.2331421387989534	174.87267920666602	1.2189830770108558	175.92844688575235	0.0515668177188644	-0.2677375195190556	0.31930433723792	73.49984192293613	near	LO1
0	1.0	ltm	182	diff_vonmises	-0.0014924274484041	-0.0855097940230385	2.310134065383918	0.5428971338062163	4.7178333599402325e-19	2.796203217529065	-0.1396616738649423	-0.4420216275616071	0.3023599536966647	90.4725928988126	near	V1
1	2.0	ltm	182	diff_vonmises	0.0598539407217667	3.4293781905834497	7.786994335695827	0.4932650294892822	0.1871146152198796	1.8536258415635765	0.1869931049200033	-0.3106835738083155	0.4976766787283189	46.67779504154669	near	V2
2	3.0	ltm	182	diff_vonmises	-0.0746309634789123	-4.276039228336663	1.135999486388474	68.80100239033602	1.1018257659583883	69.70428824453236	0.1131871305965184	-0.2445479892175122	0.3577351198140306	79.29193154495712	near	V3
3	4.0	ltm	182	diff_vonmises	-0.0748378665162067	-4.287893899142067	3.2072448252654917	0.6396207395453388	0.1050848106235679	2.1124612656650377	0.0626424643927074	-0.3191557973379532	0.3817982617306606	71.73944639239727	near	V4
4	5.0	ltm	182	diff_vonmises	0.0589543038425941	3.3778327943125337	0.6819259364745968	79.8511571805674	0.6508673293536912	80.4666235156486	0.3024672780760689	-0.2857534881051711	0.58822076618124	109.21831423568476	near	V3ab
5	6.0	ltm	182	diff_vonmises	0.4516046261374945	25.87503908626186	0.4854625656129367	159.02301994008778	0.4751517452809292	159.5926762857613	0.1675701474047315	-0.2414336322834813	0.4090037796882129	124.16827083352246	near	IPS0
6	7.0	ltm	182	diff_vonmises	-0.0083659096219761	-0.4793313131271182	0.656596363926037	94.30616723005748	0.633194879886767	95.3971127076884	0.1226977779931104	-0.304696392243283	0.4273941702363935	105.4990736997669	near	LO1
0	1.0	ltm	183	diff_vonmises	-0.036771481917645	-2.106850720322683	1.8267442077511504	0.6566260072504787	1.4606429126709192e-17	3.222868939912616	-0.1923045548527105	-0.5046309294638672	0.3123263746111566	101.2262043607472	near	V1
1	2.0	ltm	183	diff_vonmises	0.1395873251705577	7.9977646057932015	9.727368821481376	0.4530786401365013	0.1643652564787205	1.829382097866576	0.2152677929610781	-0.3097759324524674	0.5250437254135456	42.18063044488693	near	V2
2	3.0	ltm	183	diff_vonmises	0.130820132543719	7.4954414700971315	3.818928958297112	0.514363351654723	0.2029674215025111	1.3205298720815557	0.1306814747072744	-0.199939604326182	0.3306210790334565	64.93864201996595	near	V3
3	4.0	ltm	183	diff_vonmises	0.0476430546959151	2.7297459571868736	3.42457306809646	0.7361792154484457	0.1863846494001265	2.416984965841892	0.0600238676158467	-0.3648686015439714	0.4248924691598181	67.24425755141905	near	V4
4	5.0	ltm	183	diff_vonmises	-0.0151146654485696	-0.8660065389552488	1.5486631580196637	1.1825810287546716	4.4428450120479867e-10	1.8860542731620915	0.2220772362142181	-0.2765846321236797	0.4986618683378978	108.96715633120348	near	V3ab
5	6.0	ltm	183	diff_vonmises	0.5260024965423623	30.13772306522204	0.7936671345628847	161.98481436349803	0.7831697875802639	162.5700979325382	0.1488945571457023	-0.1906286106349064	0.3395231677806087	97.89436888173964	near	IPS0
6	7.0	ltm	183	diff_vonmises	0.0973805991690123	5.5794973388395785	1.5430875610036543	0.91649372559538	8.130769664805743e-16	2.0953116149806403	0.0703629036950364	-0.3150316435710887	0.3853945472661251	109.09778618950544	near	LO1
0	1.0	ltm	184	diff_vonmises	-0.1786429429507575	-10.23548667087475	4.161602151083974	0.2934171560561881	3.6431308241127436e-21	1.9081957115468344	-0.0731924501597452	-0.3036428051908837	0.2304503550311384	67.08352367574267	near	V1
1	2.0	ltm	184	diff_vonmises	0.0920200413881491	5.272360002160103	4.327718885879151	0.6213569516430013	0.4123843467076065	1.4813151538823952	0.1571716288386401	-0.2317101281156881	0.3888817569543283	58.60517777861054	near	V2
2	3.0	ltm	184	diff_vonmises	0.0712369920828914	4.081578991556537	4.00906719875643	0.6284018099768083	0.6562443082527124	0.9059179992082034	0.2335075451715262	-0.1290766526657221	0.3625841978372484	60.30998169315925	near	V3
3	4.0	ltm	184	diff_vonmises	0.0459002684504845	2.6298916607302507	1.576309847141888	116.38389954802192	1.5476620133133296	117.19153120983924	0.2190681184112932	-0.2778067903081815	0.4968749087194748	68.50864329497372	near	V4
4	5.0	ltm	184	diff_vonmises	-0.039049960258532	-2.237397912967482	1.8474779214562749	0.9624592633013906	4.743363825108768e-23	1.415913355822108	0.247849179034663	-0.2135909324551385	0.4614401114898016	100.69970150969762	near	V3ab
5	6.0	ltm	184	diff_vonmises	0.3603066432462113	20.64404998853373	0.923097513586046	112.35943426366283	0.9115636948362692	112.70221414462922	0.1352128943332502	-0.1265774936791182	0.2617903880123684	92.11464020669312	near	IPS0
6	7.0	ltm	184	diff_vonmises	0.0548508389390835	3.1427215739613223	1.4088981027264285	1.0100394113706774	0.1178737608795991	1.5580578512958645	0.1432245740768911	-0.194471835829625	0.3376964099065162	106.33464611403532	near	LO1
0	1.0	ltm	185	diff_vonmises	0.2845066800843766	16.30103201211349	0.8649649686135196	121.67508513542762	0.8457046154437087	123.93212458385668	-0.2579273948441027	-0.4301008134099611	0.1721734185658583	74.53432479086405	near	V1
1	2.0	ltm	185	diff_vonmises	0.0042686265137434	0.2445742835551419	7.6850022673830845	0.4614197325773201	0.3216952893497848	1.5209169594625669	0.1759711438020994	-0.2663700601121402	0.4423412039142397	46.029003442852655	near	V2
2	3.0	ltm	185	diff_vonmises	-0.12009708507804	-6.88105610679527	2.8981569373270037	0.6844317400697234	0.452786469156786	0.8645246263098476	0.2337948913865472	-0.1069425687766757	0.3407374601632229	72.17951831338308	near	V3
3	4.0	ltm	185	diff_vonmises	-0.1920368372064234	-11.002900282968923	1.2626366085314995	147.17516049776418	1.2428065757648423	148.25675746583954	0.1161155822910444	-0.2943686727066037	0.4104842549976482	74.28112508581592	near	V4
4	5.0	ltm	185	diff_vonmises	-0.0416960480952145	-2.389007578230286	3.4333076665623707	0.8002417902394495	5.660985884296506e-18	1.3485033878449948	0.3508802805360397	-0.2140316355507111	0.5649119160867508	74.04938191294164	near	V3ab
5	6.0	ltm	185	diff_vonmises	0.0823986639271367	4.721095680541795	0.8190362050048513	58.58976551985257	0.7976020557541731	58.8963784001138	0.1468417156248165	-0.1284343696234842	0.2752760852483007	98.96531749833692	near	IPS0
6	7.0	ltm	185	diff_vonmises	-0.085978494076918	-4.92620483949795	1.255324608701617	136.3166179591664	1.2407058040712766	137.01730680670155	0.0944777259964411	-0.196239430669042	0.2907171566654831	75.04141891304985	near	LO1
0	1.0	ltm	186	diff_vonmises	1.2342221086826946	70.7157178092552	10.399518361365317	0.2160373758292427	0.3026794006882433	1.6666177542734273	-0.0765232634610651	-0.3087044862092286	0.2321812227481634	38.73692230122455	near	V1
1	2.0	ltm	186	diff_vonmises	-0.0046491843983792	-0.2663786442052014	20.878781568981037	0.2316986196109201	0.3544885048783557	1.0267293449102692	0.1939021502449695	-0.2046547328425668	0.3985568830875364	28.79760682390884	near	V2
2	3.0	ltm	186	diff_vonmises	-1.198898368838344	-68.69181659955579	0.0001245631022223	6662.085288546461	1.3901731654327392e-34	6662.040628862838	0.1391847425863943	-0.1249608984321639	0.2641456410185583	142.8752460292098	near	V3
3	4.0	ltm	186	diff_vonmises	0.0926081343551654	5.306055247131466	1.732808155471395	121.19541939850316	1.711280063155438	122.06339310522674	0.0272291246440374	-0.2536693253626296	0.2808984500066671	61.05822720598303	near	V4
4	5.0	ltm	186	diff_vonmises	-0.044809932544676	-2.5674200150758493	3.713117930492206	0.5528914459263875	1.7456704290117076e-13	1.077199387579414	0.2366038746389995	-0.1711985954986768	0.4078024701376763	71.1306128125579	near	V3ab
5	6.0	ltm	186	diff_vonmises	0.1772373854194028	10.1549541564653	0.9040046058298852	80.30054354817972	0.8898271606358946	80.70787972432217	0.0861913784525008	-0.1222039716754652	0.208395350127966	90.89670510635771	near	IPS0
6	7.0	ltm	186	diff_vonmises	0.0863270000655693	4.946172761782707	1.6144022925339507	124.4832142428009	1.597217505248876	125.06098910228776	0.1058187999693913	-0.1860466272132193	0.2918654271826106	66.38687026238284	near	LO1
0	1.0	ltm	187	diff_vonmises	0.0942534184745322	5.400323083271082	2.4742867557021198	0.4161489495434611	3.24329672736745e-17	1.1179634282815063	0.065831587394587	-0.17620007332426	0.2420316607188471	87.44013687248801	near	V1
1	2.0	ltm	187	diff_vonmises	0.2359283601298565	13.517699302883342	3.981738763305185	1.0099328220875312	1.5104089585284337	1.28978824615526	0.213455638471806	-0.1581022528537383	0.3715578913255444	53.66882171855838	near	V2
2	3.0	ltm	187	diff_vonmises	0.1425835513689992	8.169435721430428	2.550975726138647	90.71430650286912	2.5266138915554834	90.86811696327683	0.2121792794710586	-0.1265485844349143	0.338727863905973	56.09732149602027	near	V3
3	4.0	ltm	187	diff_vonmises	0.1160705927456397	6.650355089906945	2.252991918472515	92.43466610960677	2.222727039845652	92.984197079397	0.1098214037489881	-0.2172003329261453	0.3270217366751335	55.70943175211502	near	V4
4	5.0	ltm	187	diff_vonmises	-0.0872563150779495	-4.9994185898302375	1.5807217989412328	0.8809364842530036	2.8193743409260447e-21	1.054739518559392	0.2260473124957382	-0.1511790092356733	0.3772263217314116	107.98336464953444	near	V3ab
5	6.0	ltm	187	diff_vonmises	0.1537250214884092	8.807794936843738	1.0469586928276458	55.17501602365157	1.0247665924017595	55.317817083114186	0.181395014201172	-0.0977420725962465	0.2791370867974185	89.87044284328698	near	IPS0
6	7.0	ltm	187	diff_vonmises	-0.1290126560368376	-7.39188069468378	0.8688208352743424	60.53916320644401	0.8374897515840601	61.23757666297269	0.1448113380265567	-0.2099798670153836	0.3547912050419404	93.22255529795628	near	LO1
0	1.0	ltm	188	diff_vonmises	-0.0524396263609706	-3.004569269726591	7.041382959158548	0.2236266880201223	0.0487159796249621	2.57736646964159	-0.1982044277136029	-0.41466681168081	0.216462383967207	49.35628619548797	near	V1
1	2.0	ltm	188	diff_vonmises	0.0677828519368496	3.88367133934164	6.611848674287595	0.4967444729514721	0.3245612806669514	1.5536303639764273	0.1659101079260541	-0.2656242382649015	0.4315343461909556	49.23476190562758	near	V2
2	3.0	ltm	188	diff_vonmises	0.0508212543269732	2.9118433824965413	2.2040932546533734	3.1631086496201486	1.5015145723248122	3.492409666715932	0.2163445809879818	-0.1596728601990502	0.376017441187032	65.04613422754039	near	V3
3	4.0	ltm	188	diff_vonmises	-0.1287551195842818	-7.377124942881557	1.2665774555499043	193.17037404038905	1.2508080857971249	194.40631738159504	0.0773929687448884	-0.3209112000841934	0.3983041688290818	72.91350358248238	near	V4
4	5.0	ltm	188	diff_vonmises	-0.0723965671108264	-4.14801774668598	3.0261469539128325	0.7636359866415574	2.2898130666072854e-15	1.5630667787180212	0.2538528145690903	-0.2475873809873129	0.5014401955564034	78.98445196321381	near	V3ab
5	6.0	ltm	188	diff_vonmises	0.1208810471031425	6.925973822132175	0.7852714444328348	101.92543410272457	0.770994092437312	102.5311668118324	0.0973274404656336	-0.1737663654847505	0.2710938059503842	96.83154082472532	near	IPS0
6	7.0	ltm	188	diff_vonmises	-0.0424556993785927	-2.4325323906695573	1.145310965785549	173.12775130456168	1.1320272386642725	174.1404635784023	0.0572819781747426	-0.253748198298144	0.3110301764728866	76.6685945191098	near	LO1
0	1.0	ltm	189	diff_vonmises	0.2801997407548815	16.05426256591452	0.6251307295484042	109.77833383125493	0.6081558187651883	111.86170832692088	-0.2032249991881336	-0.3864021160225235	0.1831771168343898	91.06815754734018	near	V1
1	2.0	ltm	189	diff_vonmises	0.0193822651317897	1.1105219894551304	17.985935297502813	0.297496948420972	0.186941213289725	1.4690117282929058	0.2203187775634142	-0.2619532439275636	0.4822720214909779	31.293611145286206	near	V2
2	3.0	ltm	189	diff_vonmises	0.0220600214401672	1.2639461244896886	1.582761437986734	49.99197378281459	1.5421236908619316	50.49248814316636	0.1302268985836896	-0.1705193754084728	0.3007462739921624	68.37381525697074	near	V3
3	4.0	ltm	189	diff_vonmises	-0.2072657887668437	-11.875454933790175	1.0784936009529151	101.55550926879695	1.055605450804179	103.00246150567972	-0.0727878968795536	-0.3140535444218972	0.2412656475423436	73.98701294260019	near	V4
4	5.0	ltm	189	diff_vonmises	-0.0496056882632175	-2.842196577324007	2.668166177421769	0.815541984477827	9.557676359233317e-13	1.6944839223563684	0.2295985785800705	-0.2672821434312517	0.4968807220113222	84.1943197285533	near	V3ab
5	6.0	ltm	189	diff_vonmises	0.3783719466016306	21.67911562642279	0.4291526219766553	31.326070677519112	0.3853296163216075	32.157254229629096	0.0647753192754123	-0.254130600345408	0.3189059196208204	129.1779496188542	near	IPS0
6	7.0	ltm	189	diff_vonmises	-0.006858139316721	-0.3929424381608519	1.357456398350927	235.2465815918178	1.343949719650807	236.6027957774696	0.0225077969063534	-0.344711764011528	0.3672195609178814	68.7909326084445	near	LO1
0	1.0	ltm	190	diff_vonmises	0.0177737566714655	1.0183612433674671	3.1640232164037685	0.4067299979720883	2.4964575785417902e-20	1.897891828112577	-0.0274972860611405	-0.3015686309598512	0.2740713448987107	77.20795504674848	near	V1
1	2.0	ltm	190	diff_vonmises	0.1314332304288827	7.530569391345407	9.614928915610925	0.4442346871302193	0.4934667179726228	1.1728124933672832	0.2539059629170636	-0.2247947479206175	0.478700710837681	41.145598521190806	near	V2
2	3.0	ltm	190	diff_vonmises	0.0886277044783336	5.077993414541221	1.7985878103677335	93.99288069472864	1.7786876286763365	94.32418564945064	0.14756620251908	-0.138712710364727	0.286278912883807	65.05824203076168	near	V3
3	4.0	ltm	190	diff_vonmises	-0.0041667994675814	-0.2387400235697745	1.3816505108479675	88.3233475930387	1.354064263761692	89.27241300829334	0.0510120162375145	-0.2517908971140414	0.3028029133515559	69.53558430965055	near	V4
4	5.0	ltm	190	diff_vonmises	-0.0033535392852728	-0.1921436474774514	1.975792075399056	0.9087374229331772	6.382611012984463e-11	1.2567244054929736	0.265345390650426	-0.191067531369255	0.4564129220196811	97.58239294936703	near	V3ab
5	6.0	ltm	190	diff_vonmises	0.4390940318387216	25.15823483374174	0.6917588331070432	113.87985896524908	0.6806159860371831	114.21469121938895	0.1476622196090318	-0.1447621607091918	0.2924243803182236	107.23309478301994	near	IPS0
6	7.0	ltm	190	diff_vonmises	-0.0292562543660331	-1.676259899534887	0.8935391730478327	65.10825465816552	0.8640562980039712	65.89590091977945	0.1171276640414937	-0.2179448283751348	0.3350724924166286	90.60764597191098	near	LO1
0	1.0	ltm	191	diff_vonmises	0.0248997986003779	1.4266533705274131	8.15039225296051	0.6722759554538312	0.2205929065844954	4.428737004718937	-0.1151931356982124	-0.7670532701545318	0.6518601344563194	44.26995542571319	near	V1
1	2.0	ltm	191	diff_vonmises	0.1014244891501807	5.811195167575767	5.200867094078879	0.8819578589921744	0.475456974565821	2.1039209450482925	0.2714713784290834	-0.348572464357833	0.6200438427869164	53.73846610847826	near	V2
2	3.0	ltm	191	diff_vonmises	-0.0220933528419101	-1.2658558731348173	1.5380936352328398	113.14328803960392	1.511214199779665	113.79645890413012	0.2450517128244271	-0.2432972007761566	0.4883489136005838	70.39062999993124	near	V3
3	4.0	ltm	191	diff_vonmises	-0.1084245722681971	-6.212270386478881	1.0194657737996464	193.36602837207585	0.9991633672459	194.9424855795233	0.2035929987261227	-0.4239738356874767	0.6275668344135994	83.81029720171634	near	V4
4	5.0	ltm	191	diff_vonmises	-0.0459518749286098	-2.632848494122367	2.2160535908489583	1.219249258461379	0.1066198526392481	1.9962590820790589	0.3165250239818528	-0.2786255543346925	0.5951505783165454	87.60486542667394	near	V3ab
5	6.0	ltm	191	diff_vonmises	0.369652850783301	21.17954823486233	0.6118146246593115	126.08913996063352	0.6003926821362421	126.70802996118115	0.1083457621095149	-0.1970681181396045	0.3054138802491195	110.6377040036248	near	IPS0
6	7.0	ltm	191	diff_vonmises	-0.1284709875131053	-7.360845374378833	0.5508845408192675	68.82740153939507	0.5258413232231882	69.94641919101782	0.0424080060416756	-0.2863137657943149	0.3287217718359905	112.98009118316983	near	LO1
0	1.0	ltm	192	diff_vonmises	-0.0983499809739961	-5.635038825001925	5.952795950643594	0.2898295731624472	0.0596022242732657	1.7832661910549998	-0.02537680671886	-0.2846619179614295	0.2592851112425694	54.01946259292163	near	V1
1	2.0	ltm	192	diff_vonmises	0.0676974368251032	3.878777413931934	2.5923597893089907	1.608721683058099	1.0085270056365607	2.3541955816756355	0.1602303684938191	-0.2412489769013887	0.4014793453952078	64.05547046406787	near	V2
2	3.0	ltm	192	diff_vonmises	0.0149072264745959	0.8541211612400338	3.02695109371855	0.7923758237017031	0.7830287443859721	0.9369468314420352	0.2401567658752225	-0.1049557064161393	0.3451124722913619	67.2080672499643	near	V3
3	4.0	ltm	192	diff_vonmises	-0.0470845280603243	-2.697744738221881	1.5171416070176589	94.95251049973828	1.486915572633799	95.64239421606068	0.2045935800704512	-0.2391016111701898	0.443695191240641	70.23505792210679	near	V4
4	5.0	ltm	192	diff_vonmises	0.0084157006485692	0.48218412880853	2.391047765847346	0.9375892550119308	1.6048031802467785e-18	1.0358276786745289	0.373349454995925	-0.1603470092627255	0.5336964642586505	88.9489191520629	near	V3ab
5	6.0	ltm	192	diff_vonmises	0.2317640209490128	13.279100243360032	0.8960066404697796	51.973893559391165	0.8767210045541408	51.95667231892664	0.1964985589182042	-0.0773714664942915	0.2738700254124957	100.05942685607532	near	IPS0
6	7.0	ltm	192	diff_vonmises	-0.036115636335199	-2.069273536436228	0.7762695830798417	104.76190722623356	0.7624119774272393	105.14233006867312	0.1644346036402204	-0.1546392169728161	0.3190738206130366	101.11720279083885	near	LO1
0	1.0	ltm	193	diff_vonmises	0.0261935388110434	1.5007792243849123	7.4674347376628765	0.3856330963545652	0.0527122629526005	2.8764889531633977	-0.0694868116095339	-0.4627885721517013	0.3933017605421673	48.45930406363172	near	V1
1	2.0	ltm	193	diff_vonmises	0.1091062778143957	6.251329237146724	7.070758801902514	0.6130399597615849	0.399732186940861	1.6409043438203432	0.263542624902519	-0.2880180668508673	0.5515606917533864	47.6048458301114	near	V2
2	3.0	ltm	193	diff_vonmises	-0.00837109373341	-0.4796283408328085	1.6191108798786973	124.84815836100208	1.5984351593406538	125.38612580589243	0.1988793967318329	-0.2033164515790329	0.4021958483108658	68.34685373858076	near	V3
3	4.0	ltm	193	diff_vonmises	-0.0851541815823459	-4.8789752125590695	1.1414227592841262	160.21876343363024	1.1220934621885037	161.45284252830783	0.1274958368703451	-0.3262691951485976	0.4537650320189428	78.27494423872051	near	V4
4	5.0	ltm	193	diff_vonmises	-0.0252672490632696	-1.447706731231234	1.9626796623924343	1.172311372085466	0.0859059861227179	1.8128300605659489	0.2840681237473161	-0.2524820439785426	0.5365501677258588	93.78514424919632	near	V3ab
5	6.0	ltm	193	diff_vonmises	0.4078071840099463	23.36563049888488	0.5707471240766852	143.8047734895207	0.5608903465199192	144.40286272950473	0.1128881548165381	-0.2009686382793241	0.3138567930958622	114.74151086747662	near	IPS0
6	7.0	ltm	193	diff_vonmises	-0.0793972776479604	-4.5491289140565225	0.7186902120265044	77.0609567856638	0.6935314585668791	78.07317353617434	0.0828187833418141	-0.2615665644494855	0.3443853477912997	99.58813874736776	near	LO1
0	1.0	ltm	194	diff_vonmises	-0.1722882408173313	-9.871389058566647	0.6405104370429374	0.8516238129325271	6.246024923520151e-16	4.342385506129629	-0.4584169783630203	-0.6264799957778909	0.1680630174148706	144.6389300927725	near	V1
1	2.0	ltm	194	diff_vonmises	0.0455708759454992	2.611018860391354	15.850613513869153	0.3327150874561393	0.0710786596832881	2.1872071009626497	0.1506936522788824	-0.3621066282508997	0.5128002805297822	33.60819856539101	near	V2
2	3.0	ltm	194	diff_vonmises	0.1125667300892133	6.449598547700219	5.875446236339955	0.3490606358507531	7.131368934072499e-24	1.0914910308295724	0.1559116295653317	-0.1737135937357562	0.3296252233010879	56.235176289742526	near	V3
3	4.0	ltm	194	diff_vonmises	-0.9524508856774287	-54.57141594281394	0.0002363472169532	4620.320412351774	4.902555500612549e-26	4622.5801892011405	-0.185852073643332	-0.5334367021378057	0.3475846284944737	155.72915229996477	near	V4
4	5.0	ltm	194	diff_vonmises	-0.0606341020023813	-3.4740781393021867	2.47360425161452	0.8415936733970115	8.778922765817955e-17	1.85334933074939	0.1979053261188509	-0.2914681195249896	0.4893734456438405	87.4591484182568	near	V3ab
5	6.0	ltm	194	diff_vonmises	0.4310173378079501	24.695474353360037	0.7357994171250374	125.699803488421	0.7234834951999181	126.39957366965191	0.0931259390227552	-0.1953497754626703	0.2884757144854255	99.45299528461804	near	IPS0
6	7.0	ltm	194	diff_vonmises	0.1759709457242209	10.082392506923537	1.1394847466583422	108.76544579093094	1.1149431744209584	110.13248306318548	0.0013800216400383	-0.3199915848317403	0.3213716064717786	74.88468723263458	near	LO1
0	1.0	ltm	195	diff_vonmises	0.0891224911455273	5.106342602330767	1.7847226283976034	0.5343552903053579	4.177514328481297e-36	1.2058727579541266	0.065337978408061	-0.1846732111270994	0.2500111895351604	102.2924433042332	near	V1
1	2.0	ltm	195	diff_vonmises	0.1323953468701846	7.585694602832155	9.480554061074804	0.4580734411958421	1.1607417910766953	0.7208714445486109	0.286677115346754	-0.1585572468859231	0.4452343622326772	39.90820638467287	near	V2
2	3.0	ltm	195	diff_vonmises	0.0181240683256069	1.0384326226640128	2.414922293489423	55.7888434337977	2.3922034995239523	55.822800724426834	0.159985514118695	-0.0659846560318229	0.2259701701505179	59.30262793769424	near	V3
3	4.0	ltm	195	diff_vonmises	0.0414405790868548	2.374370282254884	1.9158138242333127	114.0931588655787	1.896923612787001	114.53402075297596	0.1233984185961105	-0.1680089771411417	0.2914073957372523	61.59740937728753	near	V4
4	5.0	ltm	195	diff_vonmises	0.0499191193367621	2.860154855006368	1.37802825014137	1.6449191097561824	0.4243421280195046	1.6383383039578114	0.2957426561723719	-0.1209900947185358	0.4167327508909078	99.59102878828875	near	V3ab
5	6.0	ltm	195	diff_vonmises	0.4937464184953132	28.289585929481536	0.6697070876779372	83.59215253758212	0.6577981862283897	83.69725326914774	0.1603103974702158	-0.1041566988407014	0.2644670963109172	112.05697816982295	near	IPS0
6	7.0	ltm	195	diff_vonmises	-0.0413447400076095	-2.368879107501712	0.986948285956236	40.13050215301441	0.9479437848393278	40.42557140337908	0.1989479225983998	-0.1391284434715167	0.3380763660699166	91.38653332224504	near	LO1
0	1.0	ltm	196	diff_vonmises	-0.1502887550965349	-8.610911375306694	9.43065749578967	0.2631751689486223	0.036630407015371	3.819693256625136	-0.3125375151654478	-0.6161402144136865	0.3036026992482387	43.10224324478648	near	V1
1	2.0	ltm	196	diff_vonmises	0.0252207189746296	1.4450407535317902	1.1484549201537528	94.03008249426424	1.111640120103014	95.61744490595552	0.0698889918241079	-0.3911434575758932	0.4610324494000011	76.5493815844604	near	V2
2	3.0	ltm	196	diff_vonmises	0.198034679861619	11.34655135329517	10.228272314958696	0.4190775966259087	1.1959259266577907e-20	1.160892993702184	0.3429852356151879	-0.1847618576591263	0.5277470932743142	42.4382148244635	near	V3
3	4.0	ltm	196	diff_vonmises	-0.3626426925985632	-20.77789575715777	0.6012939823172099	128.4720020436457	0.5787138412976588	130.54196500490235	0.0071397923746516	-0.4781327802800863	0.485272572654738	105.52023015563404	near	V4
4	5.0	ltm	196	diff_vonmises	-0.0849420797521456	-4.866822672861593	2.329687734082888	0.945061817339275	9.990147223608741e-18	1.7490376564850243	0.2558754744084183	-0.2733073698394215	0.5291828442478398	90.09145992674266	near	V3ab
5	6.0	ltm	196	diff_vonmises	0.1890779584694542	10.833369019249588	1.147955166111943	49.497000955875656	1.119170662787312	49.773542262545966	0.1649317306545015	-0.1190407516790177	0.2839724823335192	83.88638742373581	near	IPS0
6	7.0	ltm	196	diff_vonmises	0.0742598889997176	4.254778226793787	0.5778618258414404	113.99883908232412	0.5619552574885552	115.29235359967277	0.0079109684706324	-0.3030090519814727	0.3109200204521052	107.68992658835998	near	LO1
0	1.0	ltm	197	diff_vonmises	-0.007287913095935	-0.4175666618551985	8.839541607740154	0.2534599933189362	0.0397232818682912	2.699025592456974	-0.1507245728606187	-0.4348718489845006	0.2841472761238818	44.65171449184814	near	V1
1	2.0	ltm	197	diff_vonmises	0.0857534063298508	4.91330826157089	5.414973914648313	0.5908591997757762	0.3299088081676509	1.6227458006861135	0.1848914204792569	-0.2663752423108696	0.4512666627901265	53.95056992549692	near	V2
2	3.0	ltm	197	diff_vonmises	0.0251832473642172	1.4428937884036055	1.851328629039595	48.19161954299973	1.7943561674469803	48.63095910538863	0.2343720268904761	-0.1975417154314609	0.431913742321937	64.89156286344593	near	V3
3	4.0	ltm	197	diff_vonmises	-0.0917500069318371	-5.256888167490313	1.3140232583804663	226.40511611562349	1.299050671067023	227.6092622019297	0.1370769997329972	-0.3342727607670639	0.4713497605000611	72.79252057645735	near	V4
4	5.0	ltm	197	diff_vonmises	-0.1015587607522526	-5.818888363682944	2.4862327828016437	0.8550227756413771	1.8835934188816232e-14	1.8380942383268852	0.2097364716620814	-0.2890628929966766	0.498799364658758	87.22880316536089	near	V3ab
5	6.0	ltm	197	diff_vonmises	0.1123672942324847	6.438171714826095	0.6296449225018936	100.29841848714683	0.614953039650137	101.17808799678448	0.043365508747005	-0.2206117785439101	0.2639772872909152	105.09631894962824	near	IPS0
6	7.0	ltm	197	diff_vonmises	-0.0736417310224581	-4.219360383624478	0.9444599978385836	144.11029244242198	0.9287322925959332	145.2432701209273	0.0589642583265828	-0.2737395541258571	0.3327038124524399	84.79057659349519	near	LO1
0	1.0	ltm	198	diff_vonmises	0.0367795705813352	2.107314166614036	8.146393262723032	0.3041308339665632	0.1457250756455349	3.704018262887343	-0.3377384159053281	-0.6269859071059273	0.2892474912005991	43.865272422663935	near	V1
1	2.0	ltm	198	diff_vonmises	0.0295979929195327	1.695840076347319	10.89657797121938	0.4278934898898205	0.1893338531594125	1.7279057853005155	0.2272884154519044	-0.2984780408550044	0.5257664563069089	39.8449150366198	near	V2
2	3.0	ltm	198	diff_vonmises	0.0035783584352202	0.2050248359231603	1.765921147106041	40.33829738247161	1.7030505008206858	40.76625695527935	0.2209387726155895	-0.186198542962094	0.4071373155776836	66.56861472697935	near	V3
3	4.0	ltm	198	diff_vonmises	-0.1781338302437371	-10.206316661465998	1.157951987840235	205.7337926035338	1.1412129644453346	207.28177793583825	0.07067518728131	-0.3838614573539054	0.4545366446352155	75.91290044318163	near	V4
4	5.0	ltm	198	diff_vonmises	-0.1034542283681381	-5.927490658276909	3.620565192463274	0.7532705565828558	7.655389478694535e-18	1.9821584949034416	0.2328182732251525	-0.3150774706421701	0.5478957438673226	72.05220838704213	near	V3ab
5	6.0	ltm	198	diff_vonmises	0.1149919903547574	6.588555725136669	0.6058045822236373	105.806962032817	0.5910610739502181	106.938509402011	-0.0033756293080173	-0.2569768313122296	0.2536012020042122	104.27124037755058	near	IPS0
6	7.0	ltm	198	diff_vonmises	0.0371394443707436	2.1279334159045136	1.306448776215567	197.29970468805837	1.2919917353446595	198.61232869449512	-0.0012582392190836	-0.3224243649170653	0.3211661256979816	69.49615679976594	near	LO1
0	1.0	ltm	199	diff_vonmises	0.0336161299336059	1.9260623687590144	6.36681560963672	0.5290785498959083	0.1106426743759777	3.968177324335778	-0.1820474726305906	-0.6466822934664122	0.4646348208358215	50.83952393738485	near	V1
1	2.0	ltm	199	diff_vonmises	0.0883817448179582	5.063900964071241	2.6739190042747314	1.526943282581246	0.6219247268441748	2.8903521533380365	0.1564344221701722	-0.3637567716000331	0.5201911937702054	67.16492236011652	near	V2
2	3.0	ltm	199	diff_vonmises	0.0985650140427808	5.647359312299033	5.525117267936355	0.593950100229975	0.1348950029637418	1.5403922820921665	0.2637284450719107	-0.2442012945364267	0.5079297396083374	55.96426957943052	near	V3
3	4.0	ltm	199	diff_vonmises	-0.2360084065034733	-13.52228562225691	0.8474074388473108	157.33785993433145	0.8240689970068753	159.37398514740974	0.0732597027662222	-0.4788041133946237	0.552063816160846	89.34698560948168	near	V4
4	5.0	ltm	199	diff_vonmises	-0.0608967596385916	-3.489127313313919	2.0919188730954965	1.1231850449024172	2.749279522427184e-20	1.8948786597423537	0.2937297600874508	-0.2925054664510928	0.5862352265385435	94.95564430173091	near	V3ab
5	6.0	ltm	199	diff_vonmises	0.198301886499086	11.36186116587991	0.9219066861685006	43.73927814038028	0.8842795541326094	44.12100548520903	0.191336713832392	-0.1575491638337376	0.3488858776661296	93.69006907847488	near	IPS0
6	7.0	ltm	199	diff_vonmises	-0.0573194962202227	-3.284165217234837	0.4421264814852124	114.4116597376528	0.4244163534261239	116.01629821373092	0.0008884793169485	-0.4016608016616594	0.402549280978608	123.7808834710423	near	LO1
0	1.0	ltm	200	diff_vonmises	-0.0537892342919911	-3.08189610817145	3.5503124145624354	0.444351086211356	0.0076927520923978	3.789777170007433	-0.2878707340713601	-0.5993024836822448	0.3114317496108847	71.68558217588333	near	V1
1	2.0	ltm	200	diff_vonmises	0.0162292557480392	0.9298678590010824	2.980687058925481	1.1040665620590733	0.3141567426447423	2.914540675560294	0.1007636611967812	-0.4178015752289387	0.5185652364257199	68.75187023764582	near	V2
2	3.0	ltm	200	diff_vonmises	0.0160213147754032	0.9179537188811936	4.35517075309985	0.6341970832848485	4.6296866097009455e-18	1.880986568814217	0.2112929024355533	-0.2992841158594837	0.5105770182950371	65.53561770705005	near	V3
3	4.0	ltm	200	diff_vonmises	-0.0844619154575177	-4.839311285306534	2.812067289225394	1.035101658056511	0.073883220742377	3.1539348857206586	0.113545038339668	-0.4739364807638171	0.5874815191034852	77.68727733481461	near	V4
4	5.0	ltm	200	diff_vonmises	-0.0143222895420444	-0.820606743723501	1.628072046080686	1.488618556436956	1.140679682430461e-16	2.4669388853743293	0.2850679003366949	-0.3665090291478095	0.6515769294845044	106.62292105971198	near	V3ab
5	6.0	ltm	200	diff_vonmises	0.2811698012217679	16.109842936539597	0.7273236567766191	120.24668327642216	0.7118038419010468	120.87029080783282	0.1771171593272882	-0.2177379988452106	0.3948551581724988	103.04491384234248	near	IPS0
6	7.0	ltm	200	diff_vonmises	0.0910177183947149	5.214931124927403	0.3611435609250819	117.6615416388859	0.3436069039833138	119.1540566537615	0.049092756918931	-0.4263091968790515	0.4754019537979825	135.62444238840402	near	LO1
0	1.0	ltm	201	diff_vonmises	-0.0914126815509312	-5.237560846841765	9.82922486259536	0.3678884541727057	0.1550170787575095	3.0844684330974026	-0.1158425279035386	-0.5266411122255366	0.4107985843219979	41.09283015746598	near	V1
1	2.0	ltm	201	diff_vonmises	0.0814226890428699	4.665176438762538	2.4754901708492167	1.707359270102217	0.7835193578570981	2.7494411710078617	0.1742090160114999	-0.3033622005962066	0.4775712166077066	67.45390078508595	near	V2
2	3.0	ltm	201	diff_vonmises	0.0890852248885561	5.104207403088068	4.543354340648779	0.6601823441934194	0.5669716739560726	1.0003475007573406	0.2844417097156499	-0.151837565534756	0.436279275250406	57.95626583182733	near	V3
3	4.0	ltm	201	diff_vonmises	-0.0389878681793191	-2.2338402988873907	1.326799238748264	190.44279945296617	1.3063040241776114	191.55360816306947	0.2646502716624468	-0.3507353529903945	0.6153856246528413	74.64927881781213	near	V4
4	5.0	ltm	201	diff_vonmises	-0.0792706796794104	-4.541875384763675	2.5652786085926134	0.858855980251234	2.6090913847188497e-15	1.5090491571835016	0.2736696711648377	-0.2371336488732079	0.5108033200380457	85.88050728469031	near	V3ab
5	6.0	ltm	201	diff_vonmises	0.2401098710341533	13.75728222968748	0.9766575488079002	75.4872866577952	0.9593410808655438	75.84445622660645	0.128619469937405	-0.1259260399634856	0.2545455099008906	89.27456812950442	near	IPS0
6	7.0	ltm	201	diff_vonmises	-0.0242938610057059	-1.3919357037043951	0.6442748430106698	70.42430141006301	0.6229981133853133	71.16910868434783	0.0833970945163535	-0.2090313106308343	0.2924284051471879	106.46298129486124	near	LO1
0	1.0	ltm	202	diff_vonmises	-0.3282204648852743	-18.805647387748056	0.2004934110163052	74.13170073654732	0.184534058551427	77.80591627093214	-0.4928320727742061	-0.650754442747516	0.1579223699733098	143.04972879196265	near	V1
1	2.0	ltm	202	diff_vonmises	-0.0054812505079747	-0.3140525205608903	2.3765328003442483	0.8797954905783274	0.1986730489947335	2.892419468761948	-0.0527774597208291	-0.41001832124707	0.3572408615262409	76.7241470525353	near	V2
2	3.0	ltm	202	diff_vonmises	0.2049420412206386	11.742314006738738	9.89681317091447	0.3472254576764765	2.7103029288927318e-17	1.0786208492552338	0.2582924392738561	-0.1716678387913849	0.4299602780652411	43.14862487023561	near	V3
3	4.0	ltm	202	diff_vonmises	0.2781365690294737	15.936051533637926	6.840076012100279	0.6213601138348134	0.2309349550806947	3.054895495172569	0.0311242189865396	-0.5178882151581576	0.5490124341446972	48.340999352560885	near	V4
4	5.0	ltm	202	diff_vonmises	-0.2384510985194119	-13.662241565420494	1.33098019448565	1.129169405392988	7.55264737174787e-31	2.493196119419516	0.0583320629395525	-0.3650293743598539	0.4233614372994064	115.74957793720878	near	V3ab
5	6.0	ltm	202	diff_vonmises	0.2691413414563127	15.420662957936097	1.1041353960345974	147.08140525157452	1.0905899459140729	147.86603753390307	0.091595471543215	-0.2096530706833554	0.3012485422265705	79.90550373170879	near	IPS0
6	7.0	ltm	202	diff_vonmises	0.2759311683648483	15.809691383419546	4.766359680776812	0.3797285683385312	1.6704726767077532e-16	1.8863903207415371	0.0207282017066094	-0.3002050920747583	0.3209332937813678	62.57390994015773	near	LO1
0	1.0	ltm	203	diff_vonmises	0.0317118615693099	1.8169558284245708	7.526481214893088	0.6372911809787687	0.2295035455447818	4.122916032636452	-0.1296047957121715	-0.7116028957054127	0.5819980999932411	45.69946675983695	near	V1
1	2.0	ltm	203	diff_vonmises	0.0562184518468682	3.221080021584996	3.304221357341516	1.2558001443296356	0.5706288869817921	2.5101125542352736	0.2160120241243206	-0.352534182083317	0.5685462062076376	63.32021804836816	near	V2
2	3.0	ltm	203	diff_vonmises	-0.0720377773019179	-4.127460604903217	1.465292882525956	71.36534573325025	1.4181141138565694	72.09896595881199	0.2888578261711458	-0.2729710010969768	0.5618288272681227	72.68515719494431	near	V3
3	4.0	ltm	203	diff_vonmises	-0.1476926601258036	-8.46216609026865	1.0880432921627132	180.66969225700447	1.0652464742255066	182.1681736972372	0.2426713274059722	-0.4214754040348474	0.6641467314408196	81.7225439795964	near	V4
4	5.0	ltm	203	diff_vonmises	-0.0476366650658808	-2.72937985835326	2.452673313238512	1.176032704244354	0.011881917524327	1.9917143009463223	0.3645702058481545	-0.3081594891920601	0.6727296950402146	87.29867097647687	near	V3ab
5	6.0	ltm	203	diff_vonmises	0.104701289631987	5.998942005489702	1.1200087827650005	1.0994549637580342	4.392419199956992e-10	1.658646986382191	0.1365244169331282	-0.2213453155698451	0.3578697325029734	123.6511143513266	near	IPS0
6	7.0	ltm	203	diff_vonmises	-0.1547221967566734	-8.864928871150104	0.6236844221166293	120.75184436191316	0.6068962903808931	121.8876169926138	0.0811385321145365	-0.2983813155926533	0.3795198477071899	106.6866836796208	near	LO1
0	1.0	ltm	204	diff_vonmises	-0.0599608641913743	-3.435504454122857	6.3283184579602185	0.3026351373946107	0.0054984736022723	1.9185678374610515	-0.0098766205040737	-0.3048981100356241	0.2950214895315504	53.91041200328684	near	V1
1	2.0	ltm	204	diff_vonmises	0.169817469946279	9.729824315511486	4.31639092068098	0.8068400552887727	0.7292114990924498	1.527039356420424	0.2034775114420807	-0.237523584143574	0.4410010955856547	56.05955315551839	near	V2
2	3.0	ltm	204	diff_vonmises	0.1644029260700572	9.419593803415577	6.00373760606949	0.4502369654878717	0.5291077205420535	0.7003901897014546	0.2534107411625054	-0.1168655107072844	0.3702762518697898	51.717745109029806	near	V3
3	4.0	ltm	204	diff_vonmises	0.0271372086666382	1.5548475243642117	1.5692226862365937	68.71114395495553	1.5239065955106006	69.5527419555155	0.1712626731287692	-0.2714530069032008	0.44271568003197	68.04147793434669	near	V4
4	5.0	ltm	204	diff_vonmises	-0.0322237694191907	-1.84628598772236	2.140372736017933	0.862223551364883	2.951839191007541e-15	1.0998738551276694	0.2883094004638144	-0.1686409092569306	0.4569503097207451	93.91059890321364	near	V3ab
5	6.0	ltm	204	diff_vonmises	0.3005968596567298	17.22293139321694	1.094815065852474	71.80608115753432	1.0791980399466614	71.89636064812365	0.1780734190081716	-0.0840031321974672	0.2620765512056389	88.5198695996173	near	IPS0
6	7.0	ltm	204	diff_vonmises	0.0052391201929346	0.3001794754169209	0.6064702884769532	30.05023080947063	0.5578167227407502	30.665096447292907	0.1178158156826407	-0.2049876967717518	0.3228035124543926	113.356992586903	near	LO1
0	1.0	ltm	205	diff_vonmises	-0.0560513071776696	-3.2115033374718087	5.3631879074864734	0.4258728675731384	0.0967653543770224	2.8189470290331364	-0.109778570559952	-0.4518326628746537	0.3420540923147017	55.510604595726	near	V1
1	2.0	ltm	205	diff_vonmises	0.0086393329590318	0.4949973163607967	1.27498519083883	86.55853877300018	1.235693532682424	87.78299604952704	0.1505068650399295	-0.3390988608056045	0.4896057258455339	74.56240870307255	near	V2
2	3.0	ltm	205	diff_vonmises	-0.0056620272903052	-0.3244102672223818	3.9242804627455623	0.6947511837448296	0.1297446447160429	1.3617677872848233	0.2828586095939971	-0.2059869585251016	0.4888455681190987	66.31585729793196	near	V3
3	4.0	ltm	205	diff_vonmises	-0.0872816411400706	-5.000869666301464	2.2140525461625904	1.8300896761614944	0.5048033631451558	3.011109359323661	0.2579843769637916	-0.3407373425913843	0.598721719555176	75.83679697490396	near	V4
4	5.0	ltm	205	diff_vonmises	-0.005618945225724	-0.3219418467491732	1.9567810515970452	1.2758202712720217	8.20250581215987e-19	1.6898675066197728	0.3805642841357985	-0.255979642458083	0.6365439265938815	98.0321946314486	near	V3ab
5	6.0	ltm	205	diff_vonmises	0.148223925869039	8.492605375155922	1.889939301276535	0.7207628021730705	2.2077646411293028e-10	0.8426015410589656	0.2251681567520681	-0.1259024969741498	0.3510706537262179	99.60207890882948	near	IPS0
6	7.0	ltm	205	diff_vonmises	0.0247708965712366	1.4192678282869446	0.4198740318217153	112.45076949462486	0.404537715795013	113.1950168163784	0.1467350989232123	-0.2853501277871526	0.432085226710365	131.5383854576075	near	LO1
0	1.0	ltm	206	diff_vonmises	0.0775995406689169	4.446126172482731	1.1564520773526583	0.7100792661064801	5.0223961408893425e-12	2.0369454162483214	-0.0607118969870134	-0.2981107865360555	0.2373988895490421	122.28919154969728	near	V1
1	2.0	ltm	206	diff_vonmises	0.0863569953147637	4.9478913629669865	11.21366897223127	0.2968449388826635	0.1695864835694304	1.1443737596180863	0.1777000076392977	-0.1960241019321421	0.3737241095714398	39.45676358643212	near	V2
2	3.0	ltm	206	diff_vonmises	0.0475147406019707	2.7223941011518176	1.6695431344819598	71.32094278474898	1.6388857439222948	71.8295628581003	0.1373733037897508	-0.1790622190896531	0.316435522879404	66.4100239429767	near	V3
3	4.0	ltm	206	diff_vonmises	-0.0353562878451236	-2.025766072775276	1.3894573774662344	101.0155049914199	1.3655266391031469	102.0898603381314	-0.006435463858871	-0.2694132703016194	0.2629778064427484	67.2335362680765	near	V4
4	5.0	ltm	206	diff_vonmises	-0.0260772208723304	-1.4941146974149957	1.582054026547695	1.0658999479865334	4.981614773452162e-15	1.6522562012525683	0.2138728214586946	-0.2428151202394312	0.4566879416981259	107.97127212608338	near	V3ab
5	6.0	ltm	206	diff_vonmises	0.2222161430735179	12.73204713778784	0.6826839795581962	119.01426015283172	0.6697166692938102	119.5748084186439	0.1375257186481207	-0.1901334420283511	0.3276591606764718	105.81871371647176	near	IPS0
6	7.0	ltm	206	diff_vonmises	-0.0951371906196446	-5.450959497237243	1.0130785419989743	130.07331228902268	0.9935330509250698	131.16379589128778	0.1094800479453041	-0.2825924133095121	0.3920724612548163	83.33050873871204	near	LO1
0	1.0	ltm	207	diff_vonmises	-0.1272661509151399	-7.291813322312519	0.3608798699453148	36.10889866641184	0.319690239481795	38.38197782744915	-0.2165572117481993	-0.4473072615830067	0.2307500498348074	126.7120063236544	near	V1
1	2.0	ltm	207	diff_vonmises	0.0941762901217854	5.395903954177889	5.122391955911115	0.4753158847931795	0.1193000000821768	1.7374427119931115	0.1070013866751117	-0.2752686298932281	0.3822700165683398	57.55590050796124	near	V2
2	3.0	ltm	207	diff_vonmises	0.0593013702119331	3.397718232486588	3.796901639899584	0.8264500634996386	0.5720710887397525	1.646263070982202	0.1890057657190262	-0.2438031515255272	0.4328089172445534	60.359284474482	near	V3
3	4.0	ltm	207	diff_vonmises	-0.0474375802823773	-2.717973140493236	1.1786159555164175	154.37554628875313	1.1578410798486096	156.00022822471365	-0.0081530110689129	-0.3819465868687217	0.3737935757998087	73.23287105334455	near	V4
4	5.0	ltm	207	diff_vonmises	-0.1716758676539645	-9.836302660818657	1.2685060302435665	1.2649619382728368	3.316789357298463e-19	2.571390634840556	0.0862651039000406	-0.3700527273926127	0.4563178312926534	118.05031490130288	near	V3ab
5	6.0	ltm	207	diff_vonmises	0.1147690998385638	6.575785039265284	0.7575144074498229	153.89391060471692	0.744104568295782	155.08148702884037	0.046024165728788	-0.2822131724876602	0.3282373382164483	94.67232694981992	near	IPS0
6	7.0	ltm	207	diff_vonmises	-0.0453490033211337	-2.598306495425719	1.883190722545848	1.2597481912822273	0.2794105315528124	3.031072091265841	0.0009484398100821	-0.3820212623656274	0.3829697021757096	82.3466742788626	near	LO1
0	1.0	ltm	208	diff_vonmises	0.0450841792590204	2.5831331943531133	7.3949664037967375	0.3820885444874471	1.9116748798374624e-21	2.8693936064497843	-0.0497401702089259	-0.45667802250002	0.4069378522910941	50.02218932625547	near	V1
1	2.0	ltm	208	diff_vonmises	0.1194902465014254	6.846286817509527	5.824587397796267	0.6664508120129208	0.3435595512513809	1.7617056818965866	0.2426565304694811	-0.293390918063086	0.5360474485325671	52.28800619799114	near	V2
2	3.0	ltm	208	diff_vonmises	-0.0054525231643726	-0.3124065650158704	1.5264748071413052	106.70335069227346	1.4985952055135747	107.45635162980965	0.1930411565114909	-0.2524777968557998	0.4455189533672907	69.53236887777325	near	V3
3	4.0	ltm	208	diff_vonmises	-0.0559963923430688	-3.208356949216522	1.1138042929304717	103.12264595190692	1.081621289828402	104.4773443878237	0.1377645704661318	-0.3555106368079439	0.4932752072740758	79.50637434855255	near	V4
4	5.0	ltm	208	diff_vonmises	-0.0263001272123244	-1.5068862899233555	1.5606035602583672	1.4073958406717535	0.0681563905140189	2.149838909387076	0.2585425751864244	-0.2917021981182411	0.5502447733046656	104.83965107272071	near	V3ab
5	6.0	ltm	208	diff_vonmises	0.3641331567073333	20.863293060106024	0.6168980168338136	147.24627420712267	0.6059482568162071	147.94030129643397	0.1204058820999947	-0.2195929049292395	0.3399987870292342	110.09913407124816	near	IPS0
6	7.0	ltm	208	diff_vonmises	-0.0751636944248237	-4.306562463153395	1.272672029667909	1.2125910042729622	4.560113233997235e-13	2.4359846703958223	0.0882173657036	-0.3503638787527005	0.4385812444563005	118.0211036711848	near	LO1
0	1.0	ltm	209	diff_vonmises	0.4488115281147548	25.71500635779254	0.0002262783864973	3224.718282846866	5.1378673631240136e-27	3225.428162967407	0.0031570253803465	-0.2291057472305055	0.2322627726108521	173.86986989854495	near	V1
1	2.0	ltm	209	diff_vonmises	0.0809467701732422	4.637908296142236	16.386904334127067	0.2371120861182882	0.5692261343124276	0.6798480585875726	0.2032127084973373	-0.1469301713579712	0.3501428798553087	32.06892104241584	near	V2
2	3.0	ltm	209	diff_vonmises	0.1374529356185267	7.87547309262501	2.5644024909695093	18.7293989314778	2.5189003889651507	18.65472780503633	0.1611272297591863	-0.0326179112752469	0.1937451410344333	60.92696655944184	near	V3
3	4.0	ltm	209	diff_vonmises	0.173593726469227	9.946187876635156	2.264622729885393	77.1259748975136	2.2274560358115223	77.57509607755141	0.1740733275012473	-0.2036592108777277	0.3777325383789751	57.123936016852014	near	V4
4	5.0	ltm	209	diff_vonmises	0.0480659222198149	2.753974481599484	2.013072459486216	0.7798462510366039	4.840788824225376e-12	0.7983099276385226	0.2768357976923141	-0.1198480872112701	0.3966838849035843	96.71523744357202	near	V3ab
5	6.0	ltm	209	diff_vonmises	0.551436702477032	31.594995720545203	0.9242749151208952	71.39889112121546	0.9106825471017376	71.48041234826316	0.1581832964962117	-0.0802662239306428	0.2384495204268546	96.28128012398162	near	IPS0
6	7.0	ltm	209	diff_vonmises	0.1192369403720741	6.831773445372906	1.0894434166884717	22.43951170589823	1.0344246923753335	22.58317443318918	0.1821137325670436	-0.0974655772045256	0.2795793097715693	88.7489564982813	near	LO1
0	1.0	ltm	210	diff_vonmises	-0.0791519910417178	-4.535075026747735	5.330913856156759	0.4871240793778212	0.115563150646708	2.97475564083096	-0.0927091489673922	-0.4780483235264018	0.3853391745590095	55.38368904474101	near	V1
1	2.0	ltm	210	diff_vonmises	0.0122293333485469	0.7006891871303322	1.3385278803010912	146.81254147521605	1.3134635052268089	148.06911640245303	0.1632994828969529	-0.3564232860598793	0.5197227689568322	72.56813382602104	near	V2
2	3.0	ltm	210	diff_vonmises	0.0104795590480837	0.6004345046133308	3.975655409451371	0.607992246123507	1.531472614322759e-13	1.2552181961028042	0.2660841892947092	-0.1996100734350927	0.4656942627298019	68.67925013397385	near	V3
3	4.0	ltm	210	diff_vonmises	-0.0679232825376865	-3.8917174200840856	2.9011544455161165	1.153167825450471	0.2175761245401656	2.3366531323901283	0.284086247248308	-0.3293727983262754	0.6134590455745834	73.74008538293202	near	V4
4	5.0	ltm	210	diff_vonmises	0.0219061818943531	1.2551317677923317	1.9386859293814696	1.296568077716639	1.8208528232215466e-09	1.5467632623270413	0.4102061048092305	-0.2325840134443506	0.6427901182535811	98.45869169882906	near	V3ab
5	6.0	ltm	210	diff_vonmises	0.2823691639467717	16.178561358787626	0.9118134454362452	54.8252609079135	0.8903105837081786	54.8287106183413	0.2234090892446083	-0.0916004880494503	0.3150095772940586	98.86130028170616	near	IPS0
6	7.0	ltm	210	diff_vonmises	0.0933837954407477	5.350497353667867	0.2758563325197236	98.2964776501312	0.2605550823901224	98.86467307084224	0.1512064670532318	-0.2722340244402019	0.4234404914934337	148.39295565548773	near	LO1
0	1.0	ltm	211	diff_vonmises	-0.1098895794701921	-6.296209116109464	9.110676408801826	0.2972424793039157	0.0690088971644279	4.08950235159815	-0.3438306429437329	-0.6694396413095935	0.3256089983658606	43.10900531730678	near	V1
1	2.0	ltm	211	diff_vonmises	0.0926815924344214	5.31026408504397	5.892735456987438	0.6382865260322734	0.2589457627520294	2.146266761766907	0.168520091856766	-0.3550455092085564	0.5235656010653225	52.265456274403306	near	V2
2	3.0	ltm	211	diff_vonmises	0.076873868442508	4.404548216599636	4.431601198664996	0.5907760987443527	0.3463698367946967	1.1699087362060376	0.2245926225366291	-0.1799014842157963	0.4044941067524254	59.76879733400753	near	V3
3	4.0	ltm	211	diff_vonmises	-0.0660828409080857	-3.786267882267778	1.0334750278343356	153.68007066027727	1.008069005567828	155.52322175942143	0.1045769862201453	-0.4522558430460712	0.5568328292662166	81.20767560118895	near	V4
4	5.0	ltm	211	diff_vonmises	-0.0917427476483324	-5.256472241183206	2.6513124251473528	0.842547319098091	8.105137640908756e-16	1.882504737877767	0.2143009833157821	-0.2970512884255417	0.5113522717413239	84.46234697648202	near	V3ab
5	6.0	ltm	211	diff_vonmises	0.3480996390042186	19.94464016496926	0.810409126074568	123.8988863228265	0.7977100949013509	124.6523083181024	0.0720197526420136	-0.1948483860574512	0.2668681386994649	93.45541753336784	near	IPS0
6	7.0	ltm	211	diff_vonmises	0.0806912724742123	4.6232693563125205	1.2687091666120192	2.2448423154246715	0.5344688763417126	3.413755760909671	0.01507647455926	-0.2632724770439314	0.2783489516031915	86.33983354031429	near	LO1
0	1.0	ltm	212	diff_vonmises	-0.3715906277150492	-21.29057467468932	12.713567283100394	0.1345727806778689	2.4623097482706453e-22	2.7807281521511213	-0.2531246250042587	-0.4425666308079261	0.1894420058036673	38.02264296614016	near	V1
1	2.0	ltm	212	diff_vonmises	0.113610183118705	6.509384002410229	6.883118407344879	0.4187695710671146	0.2089040765495627	1.7065383446127145	0.0985466767230669	-0.2854199546472237	0.3839666313702907	48.955823402760274	near	V2
2	3.0	ltm	212	diff_vonmises	0.1831291660158673	10.492528318459785	6.497473629713076	0.3798125791289601	0.3986026694217428	0.6990347785129971	0.2187541971952926	-0.1177856576557333	0.336539854851026	50.37591466480629	near	V3
3	4.0	ltm	212	diff_vonmises	0.0996281778200717	5.708274109668992	1.397049095923358	83.17225834013672	1.3537788985008488	84.64223455420378	0.0467470247076278	-0.3823267030686637	0.4290737277762915	68.66357795003293	near	V4
4	5.0	ltm	212	diff_vonmises	-0.1116606367623045	-6.397683224223378	2.7282837604779613	0.6469372763693979	3.910956665027474e-21	1.5477713484759408	0.1548586845538018	-0.2446228665450239	0.3994815510988257	83.25195970730525	near	V3ab
5	6.0	ltm	212	diff_vonmises	0.2774218875205011	15.895103299477755	1.040904026845299	112.22596613825483	1.0275551295984169	112.81136142695205	0.0794197141964119	-0.1589795649099787	0.2383992791063907	82.89367589332161	near	IPS0
6	7.0	ltm	212	diff_vonmises	0.1195626335195067	6.850434288137125	1.1633309144723036	31.83198239484943	1.097845847631576	32.78630096382159	0.0450874283048854	-0.2360509678148634	0.2811383961197489	76.64184263549669	near	LO1
0	1.0	ltm	213	diff_vonmises	0.0815851041182016	4.674482137108344	1.4689708338482006	0.6560102795208648	5.3818351590627045e-33	2.174126603910615	-0.0654492243252991	-0.3311589921144384	0.2657097677891393	111.40307060244383	near	V1
1	2.0	ltm	213	diff_vonmises	0.1041083038987797	5.964966425665454	4.319756248649155	0.6486706711170401	0.445008923161361	1.5600111379555106	0.1510629554435775	-0.2450600998650697	0.3961230553086473	58.12739795700057	near	V2
2	3.0	ltm	213	diff_vonmises	0.1098903347882304	6.2962523926452505	6.152535899442836	0.3532548581698673	0.0617071445769224	0.8042253792199728	0.2057896455678161	-0.1273214925761821	0.3331111381439982	54.11636893628318	near	V3
3	4.0	ltm	213	diff_vonmises	0.0679660675286873	3.894168819494933	3.6666955919963167	0.8201640525645055	0.503082128749766	1.754282087833816	0.1673109661816172	-0.2591464354075404	0.4264574015891577	61.64144118515952	near	V4
4	5.0	ltm	213	diff_vonmises	0.0235105544990158	1.347055546805917	1.6095494283275722	1.1708676112578265	1.0395419786988197e-19	1.409925436339872	0.304931436067514	-0.2032269526569968	0.5081583887245109	107.156892183336	near	V3ab
5	6.0	ltm	213	diff_vonmises	0.3665489836110102	21.001709745720863	0.9173932436065916	100.15285434137284	0.904653047915345	100.2813595874797	0.2012985546713679	-0.1076203110408418	0.3089188657122097	96.24918804481324	near	IPS0
6	7.0	ltm	213	diff_vonmises	0.0959427163768619	5.497112723414875	0.9661022067112792	1.4994745568297254	0.0385077971420812	2.088744147241248	0.1573825645091493	-0.2469416467547477	0.404324211263897	127.45661748669647	near	LO1
0	1.0	ltm	214	diff_vonmises	0.0105696206574323	0.6055946547251626	7.247672048363252	0.4471203348287381	0.1078850242555215	3.007386195790711	-0.0603644215078734	-0.4923414748009571	0.4319770532930836	48.25066985887028	near	V1
1	2.0	ltm	214	diff_vonmises	0.1317265302925134	7.547374235663211	6.491463106007169	0.6822068542101107	0.5129353697106137	1.6612609476152156	0.2649172051020249	-0.2938683961463333	0.5587856012483583	48.718496497002974	near	V2
2	3.0	ltm	214	diff_vonmises	0.0484081942460347	2.7735852241472645	1.6511734505629805	96.49934629958445	1.6266230606721994	96.95214172088237	0.1961077026354516	-0.1811947231226529	0.3773024257581046	68.1277895318859	near	V3
3	4.0	ltm	214	diff_vonmises	-0.1024817572155843	-5.871772165537351	1.1246126324282968	151.5445031174268	1.1042746269137769	152.80386210899476	0.1209748427377732	-0.3291503716369206	0.4501252143746939	78.72291329656034	near	V4
4	5.0	ltm	214	diff_vonmises	-0.0277044884762995	-1.587350263260791	2.265392156795994	0.9727504395350088	0.0393831593972813	1.476072131452892	0.2965217232429444	-0.2199384496253197	0.5164601728682643	89.68568504994607	near	V3ab
5	6.0	ltm	214	diff_vonmises	0.4011584325971161	22.984685103898062	0.7357019202958133	109.05957761204198	0.7237960964418857	109.43316622300772	0.139751938506091	-0.1452492732634471	0.2850012117695382	103.34258305818231	near	IPS0
6	7.0	ltm	214	diff_vonmises	-0.065731326418401	-3.766127585571147	0.693830062178702	50.658590226379246	0.6597414984987002	51.59127195175724	0.0705035325058798	-0.2406641653175185	0.3111676978233983	101.60717081962864	near	LO1
0	1.0	ltm	215	diff_vonmises	0.023484799250959	1.345579879791949	11.9409586483996	0.4898835232330762	0.1680858706081678	4.402079906443576	-0.1551858992399241	-0.7657909731684951	0.610605073928571	37.43422510420086	near	V1
1	2.0	ltm	215	diff_vonmises	0.1417259322774662	8.12029776705574	4.9019048521393485	0.778394877684677	0.4296242393067452	1.901801220694486	0.2234891492752138	-0.3085656100708939	0.5320547593461078	55.44801103255335	near	V2
2	3.0	ltm	215	diff_vonmises	0.0720454183915258	4.12789840708863	2.9273723159893184	1.454731986635169	1.0656773631826308	1.994072576028513	0.2334434853052254	-0.2138288366599283	0.4472723219651537	62.43532542948989	near	V3
3	4.0	ltm	215	diff_vonmises	-0.0878179440948605	-5.031597562151319	1.1133697556653177	272.3172702915732	1.0979346400444088	274.0356185505575	0.1675531171808728	-0.4492476436013177	0.6168007607821906	79.0919676048216	near	V4
4	5.0	ltm	215	diff_vonmises	-0.1433428090226517	-8.212937980547721	2.488821970868901	0.848383864010513	6.59053135745437e-19	2.016133205691188	0.1778034220169976	-0.3174413971873742	0.4952448192043719	87.17781132951293	near	V3ab
5	6.0	ltm	215	diff_vonmises	0.2418036639483314	13.85432941503905	0.7789237750413238	113.06829198009538	0.7638375980636393	114.06719259808492	0.0293153489598836	-0.2330880311873233	0.262403380147207	92.87896919938996	near	IPS0
6	7.0	ltm	215	diff_vonmises	-0.0377126419976533	-2.160775220753357	2.492525211750298	0.5186788959102528	5.516843247428159e-16	2.0330018693799987	-0.0184134137268096	-0.3214752104791493	0.3030617967523397	87.1238693843581	near	LO1
0	1.0	ltm	216	diff_vonmises	-0.3212872056256829	-18.408400893903472	9.77734577819893	0.1496705556700885	5.717431406221848e-25	2.678740207405811	-0.2421828007591738	-0.4263347446748585	0.1841519439156847	43.41900517613573	near	V1
1	2.0	ltm	216	diff_vonmises	0.0576675532347558	3.304107415197508	14.9724064550916	0.326780471907764	0.1845852041917559	1.5599742152102063	0.2039129797993223	-0.2750103661285545	0.4789233459278768	34.18970574504513	near	V2
2	3.0	ltm	216	diff_vonmises	0.1215443501243582	6.963978285786108	3.283678382860895	0.7423053947396695	0.8879589316163541	1.0503579436655284	0.1751141436454563	-0.1294773670769639	0.3045915107224203	62.23297104701524	near	V3
3	4.0	ltm	216	diff_vonmises	0.0083846812005117	0.4804068453520052	1.2495960150363623	126.3086201692043	1.2255773394002052	127.69337868950748	0.025594664127972	-0.3407401653491568	0.3663348294771289	72.06850761377714	near	V4
4	5.0	ltm	216	diff_vonmises	-0.0697425350590911	-3.9959529114290975	2.9064836118676647	0.6873217826352623	1.1058898766488648e-15	1.5038163588849942	0.2027519860686545	-0.2380185939213317	0.4407705799899862	80.62346627498309	near	V3ab
5	6.0	ltm	216	diff_vonmises	0.3901868918825488	22.35606212619741	0.7501295145184814	117.07680844042996	0.738721505627107	117.72383445122134	0.0660379117832903	-0.1711080637024942	0.2371459754857845	97.52450596997434	near	IPS0
6	7.0	ltm	216	diff_vonmises	0.127772084812192	7.320801199326212	1.2806134332103432	107.90141866555832	1.2595666101358434	108.8094694035239	0.0606612698774569	-0.2375563095378545	0.2982175794153114	72.68985783267931	near	LO1
0	1.0	ltm	217	diff_vonmises	0.0118575359842479	0.6793867673219078	7.892897726975369	0.4157919916132006	0.1199969181982134	2.0437660221478104	0.0926748455745358	-0.3361758545397532	0.428850700114289	46.69112363646917	near	V1
1	2.0	ltm	217	diff_vonmises	0.1941293696265456	11.122793559136218	4.542847717840707	0.9532620951331858	1.0040192839330808	1.5081153274585668	0.2687474929816814	-0.2327922411104428	0.5015397340921243	53.65637651961043	near	V2
2	3.0	ltm	217	diff_vonmises	0.1191352622919057	6.825947720510262	2.1435651454336995	51.51565467075216	2.0986198920629726	51.7382430513644	0.2323928258322993	-0.1445482509594127	0.376941076791712	61.31285752154241	near	V3
3	4.0	ltm	217	diff_vonmises	-0.0438651953365402	-2.513290560300695	1.4963250207601926	149.08907048992882	1.4766654940039807	149.87268926319112	0.17790211905114	-0.2542148047184085	0.4321169237695486	69.82316313912608	near	V4
4	5.0	ltm	217	diff_vonmises	-0.0355213953813115	-2.03522603776465	2.26580779348592	0.8344057638153652	7.924711285762723e-13	1.038647204193205	0.2986486639117204	-0.1603121634426631	0.4589608273543835	91.3383830818332	near	V3ab
5	6.0	ltm	217	diff_vonmises	0.2873410315561648	16.46342838910365	1.0344126091648609	62.8031688862758	1.0171022688975075	62.8865562735182	0.1763951699354926	-0.0836739381148481	0.2600691080503408	91.23367370404505	near	IPS0
6	7.0	ltm	217	diff_vonmises	-0.0961790030866623	-5.510650954641467	0.783636648432817	3.0465199279480397	0.3286522002012044	3.73627379877486	0.1113638357532482	-0.2257582657615828	0.3371221015148311	116.7771263357615	near	LO1
0	1.0	ltm	218	diff_vonmises	-0.0222400716153483	-1.2742622396281575	5.813851587255052	0.3955123444804406	0.0431129413554276	3.836642466372348	-0.2657572181784963	-0.6122081317370198	0.3464509135585235	54.42500150684461	near	V1
1	2.0	ltm	218	diff_vonmises	0.0396981419163193	2.2745359863164865	2.9282785652758987	1.1614471763488865	0.3873044636081197	2.738845354639388	0.1315695624945729	-0.3829688319098508	0.5145383944044238	68.26755899490223	near	V2
2	3.0	ltm	218	diff_vonmises	0.0204801947633566	1.173428723546268	4.293952766232788	0.7291113384919526	0.1838522896169992	1.7455083856206135	0.2515261281130422	-0.2683647481503042	0.5198908762633465	62.24897682289716	near	V3
3	4.0	ltm	218	diff_vonmises	-0.100433527745724	-5.754417261440041	1.6832886707178314	2.720852283309614	0.4761705061906888	4.66236616586871	0.1344099246682095	-0.4709219110082768	0.6053318356764864	81.92818894736979	near	V4
4	5.0	ltm	218	diff_vonmises	-0.0660068336827564	-3.781912989043906	1.9024073037224776	1.2575210167472917	5.963794496125875e-15	2.331707358803196	0.2582642467963127	-0.3570905642339518	0.6153548110302646	99.33084447275051	near	V3ab
5	6.0	ltm	218	diff_vonmises	0.2037711354321709	11.675226046852108	0.7330573509182502	86.61072622575979	0.7119409854837953	87.34109976338287	0.139384924881444	-0.2234124549612701	0.3627973798427142	101.29906640037264	near	IPS0
6	7.0	ltm	218	diff_vonmises	-0.0019454327089794	-0.1114650835512245	0.4967765133164301	131.41454087563707	0.4806229593839827	132.92198735977573	0.029554729842097	-0.3819361998092994	0.4114909296513964	117.86755105063445	near	LO1
0	1.0	ltm	219	diff_vonmises	0.1399732413098259	8.019875971819252	0.7011689737371027	1.1691614298273565	3.0443982705946526e-10	2.6417646857265726	-0.0874950066760893	-0.3385359678165454	0.2510409611404561	141.75560393096336	near	V1
1	2.0	ltm	219	diff_vonmises	0.1610121987372728	9.225319437767377	5.908840571899535	0.4242016483283219	0.2681228042067843	1.3531663384443675	0.1252421074069554	-0.2239338120516227	0.3491759194585782	52.24223512492642	near	V2
2	3.0	ltm	219	diff_vonmises	0.1611236579333892	9.231705579292766	6.524575036956507	0.3774646630806189	0.2761506337062961	0.8856014729147677	0.1943689369760758	-0.1470068759704206	0.3413758129464965	50.65522468845907	near	V3
3	4.0	ltm	219	diff_vonmises	0.1900612937964865	10.889709983334653	5.297778200824421	0.5869513769250883	0.5890117280483202	1.7281268895804978	0.069540831993585	-0.3020495352718754	0.3715903672654604	50.92409359506044	near	V4
4	5.0	ltm	219	diff_vonmises	-0.0677145209148557	-3.879756260171574	1.3888355403183128	1.111993512417735	7.180946000852873e-15	1.630503673111784	0.2002891355204878	-0.2309112346599112	0.431200370180399	114.02215982487336	near	V3ab
5	6.0	ltm	219	diff_vonmises	0.2727929513267467	15.629884791940276	0.9616935912698088	114.42234459085466	0.9482027482917572	114.7929684864082	0.1700285130464607	-0.1447919249263325	0.3148204379727932	90.75230499593434	near	IPS0
6	7.0	ltm	219	diff_vonmises	0.0298920957007999	1.7126909244569897	1.2630017666390263	1.758786323521237	0.3157590843138159	2.765352999053156	0.0984134408865475	-0.2642003881281561	0.3626138290147037	97.9160273087908	near	LO1
0	1.0	ltm	220	diff_vonmises	0.2440765896855363	13.984558466927554	0.6853750298868059	95.94158962154388	0.6643564278881211	98.19723735488223	-0.2426783234427176	-0.4145443893526561	0.1718660659099384	84.85027784164404	near	V1
1	2.0	ltm	220	diff_vonmises	0.0644191831919309	3.690947316577733	5.543832612087681	0.5111415738912264	0.3160696866873878	1.66016180838197	0.1146070448590469	-0.275659740892122	0.3902667857511689	53.00483499464127	near	V2
2	3.0	ltm	220	diff_vonmises	0.0742895758380811	4.256479157339105	3.926569794502557	0.6322760000823535	0.5776638245496355	1.0388997828843496	0.2097156274961727	-0.1507311612458545	0.3604467887420273	60.85228933288977	near	V3
3	4.0	ltm	220	diff_vonmises	-0.1538823036732753	-8.816806542229159	1.152361051940136	138.28372793039068	1.1323035717569498	139.65229497672573	0.0148375040070121	-0.325306457092271	0.3401439610992831	74.80959995518484	near	V4
4	5.0	ltm	220	diff_vonmises	-0.061076674012815	-3.4994356476306554	2.881392722331258	0.7872769883769903	2.967219937021016e-13	1.5201168280574433	0.26188298438179	-0.2403505927079653	0.5022335770897554	80.98401787762762	near	V3ab
5	6.0	ltm	220	diff_vonmises	0.1071138903763972	6.137173845794524	0.9226063599284045	93.74958567037542	0.9061860629298452	94.2111920220354	0.1434588691891427	-0.1556171561982005	0.2990760253873432	91.40093332239368	near	IPS0
6	7.0	ltm	220	diff_vonmises	-0.0547061608783486	-3.1344321316930714	1.1407129634871087	169.4665271708422	1.1266367765136729	170.54162677466644	0.0517705555060246	-0.2664258623622899	0.3181964178683145	76.55691679400576	near	LO1
0	1.0	ltm	221	diff_vonmises	0.1198370400794713	6.866156625893802	1.4810513208893068	0.5476861240313055	6.948854408858405e-13	1.9302723015239616	-0.0718005269671592	-0.2950391154236456	0.2232385884564863	110.98987556283392	near	V1
1	2.0	ltm	221	diff_vonmises	0.0674228167329475	3.8630428416819176	17.082287992150572	0.3067451886579618	0.378424249571009	1.0944533381466812	0.2565078193876906	-0.2166209211355181	0.4731287405232087	31.73138207457373	near	V2
2	3.0	ltm	221	diff_vonmises	0.064972232758905	3.722634722626887	1.706954986625664	59.40565006995717	1.6821558743809948	59.67785046477403	0.1205127338691625	-0.1111632119996191	0.2316759458687816	66.97406703864385	near	V3
3	4.0	ltm	221	diff_vonmises	0.0001053441674076	0.0060357761887805	1.369257439184755	49.64449158019685	1.3265722728255471	50.60618366541424	-0.0049494495703577	-0.2389721442802317	0.234022694709874	68.02223601811548	near	V4
4	5.0	ltm	221	diff_vonmises	0.0213726064986182	1.2245601495647034	1.9423537731819536	1.0376278707748734	0.122290376815881	1.3612607396517251	0.2819773072162132	-0.1802593359556002	0.4622366431718134	93.42940520364608	near	V3ab
5	6.0	ltm	221	diff_vonmises	0.46615490342527	26.708708565596456	0.539103149097535	102.86597619104012	0.5273868669788286	103.1832148277073	0.1464415458711272	-0.1598015779134485	0.3062431237845757	120.31167182091284	near	IPS0
6	7.0	ltm	221	diff_vonmises	-0.0109816351807815	-0.6292013480111674	1.1662213907376442	122.60914086152734	1.148865702410525	123.3342875869518	0.127396577313803	-0.2090566917220258	0.3364532690358288	78.91210122325	near	LO1
0	1.0	ltm	222	diff_vonmises	-0.0548433808488456	-3.1422942568674594	5.727093283896069	0.4094419165035784	0.0644573421881158	3.90604465649486	-0.2808349657636076	-0.6262235798502007	0.345388614086593	54.04174099857195	near	V1
1	2.0	ltm	222	diff_vonmises	0.0373378589432562	2.139301733503376	4.667463309865179	0.7928285220368343	0.2726295091504111	2.4193577043737595	0.1661744451355939	-0.3849914654387497	0.5511659105743436	57.80978843188376	near	V2
2	3.0	ltm	222	diff_vonmises	-0.0514243147885005	-2.9463962017332674	3.155802173069227	0.8747663989296276	0.2854416720836384	1.76764731609345	0.222881272027501	-0.2505649296259123	0.4734462016534133	69.7392438791396	near	V3
3	4.0	ltm	222	diff_vonmises	-0.0913713769231277	-5.2351942659942665	1.9061299079687772	1.994663140932159	0.3744577111095721	3.7947344147120425	0.151209295537503	-0.4398915498078962	0.5911008453453993	81.36867845861855	near	V4
4	5.0	ltm	222	diff_vonmises	-0.0293504455235556	-1.6816566553283758	2.0993041700478545	1.225408005642719	0.0129138190862212	2.159330517356518	0.3027760234934989	-0.3294697211826593	0.6322457446761582	94.1229310289269	near	V3ab
5	6.0	ltm	222	diff_vonmises	0.3349328923599629	19.190241152335368	0.6032595350149228	143.54089807396167	0.5919458602471009	144.23417172191228	0.1242500584165497	-0.2236713269007211	0.3479213853172709	111.54270581584518	near	IPS0
6	7.0	ltm	222	diff_vonmises	-0.0007423667247565	-0.0425344801795009	0.6269926377951325	124.92998352807858	0.6109944621585801	126.1112492147554	0.0627953277370068	-0.2989327986880425	0.3617281264250493	105.5689092129848	near	LO1
0	1.0	ltm	223	diff_vonmises	0.0675463667067061	3.870121733737241	8.882212739995106	0.5276123305199634	0.2733279977005641	4.057969624646208	-0.2152464049756867	-0.7299712857577101	0.5147248807820234	41.657061556999	near	V1
1	2.0	ltm	223	diff_vonmises	0.0913807329794098	5.235730328532116	7.668847649796362	0.5700249472589898	0.4454604343068615	1.5924861219167703	0.2419898533810504	-0.2887797982352778	0.5307696516163283	45.52710495783165	near	V2
2	3.0	ltm	223	diff_vonmises	0.0444639341742544	2.5475957687322897	1.963510836848372	83.54172850854367	1.9335450394863385	83.88063831137379	0.2238317350749241	-0.1707435555379124	0.3945752906128366	63.131050134180185	near	V3
3	4.0	ltm	223	diff_vonmises	-0.2274266355945444	-13.030586368427135	1.1776918058460597	196.5633641329272	1.160157057735271	198.04602591957237	0.0883519151871468	-0.3752970993318243	0.4636490145189711	75.71096943405831	near	V4
4	5.0	ltm	223	diff_vonmises	-0.0910123625395702	-5.21462425703193	3.7554566118066006	0.7136298388212118	0.01290823700115	1.6818002750608647	0.2588830434682798	-0.2643535906022228	0.5232366340705026	70.1969533815419	near	V3ab
5	6.0	ltm	223	diff_vonmises	0.1333720013656731	7.641652783466123	0.6584720644958741	87.9415651334957	0.6420812387954257	88.81327479710637	0.0355153255470881	-0.2127415481571635	0.2482568737042516	102.2639179979682	near	IPS0
6	7.0	ltm	223	diff_vonmises	0.0455085946154934	2.607450403039556	1.264339008418746	155.464548156455	1.2472697932111168	156.7856646660158	-0.0264518385751273	-0.31387008139939	0.2874182428242626	69.85708067555782	near	LO1
0	1.0	ltm	224	diff_vonmises	0.025268243178551	1.4477636898412063	7.254904572230803	0.5392935616216586	0.0932589255374767	4.257840268728787	-0.1736094912060595	-0.6947528244796342	0.5211433332735746	48.2199019538599	near	V1
1	2.0	ltm	224	diff_vonmises	0.1566740774741742	8.976763398375864	5.362380788400537	0.79047697339262	0.4046953700420681	2.1226887439304214	0.2251727781037376	-0.3529183521980938	0.5780911303018315	53.37226480063947	near	V2
2	3.0	ltm	224	diff_vonmises	0.1325407629091167	7.594026328136474	5.301366724006916	0.5571182962136958	0.2236360520546751	1.403601644735117	0.2223899078837189	-0.2239689067643494	0.4463588146480684	55.99446380805492	near	V3
3	4.0	ltm	224	diff_vonmises	-0.1984475002604282	-11.370204219843842	0.8286688084467837	148.87112757046023	0.8041352288869605	151.03741357342963	0.0378665563392317	-0.4947958531593635	0.5326624094985952	89.55072806375784	near	V4
4	5.0	ltm	224	diff_vonmises	-0.0625598583627626	-3.584415851122505	2.1168050124281304	0.984916026569166	6.199968674190892e-15	1.708603153413984	0.2538283564756212	-0.2643082800725853	0.5181366365482065	94.4159357181982	near	V3ab
5	6.0	ltm	224	diff_vonmises	0.3413558349257296	19.55824865340873	0.9291416182852882	101.14198209390815	0.914067924588808	101.55532949615925	0.1555178396980991	-0.1495703231806739	0.3050881628787731	91.72846775597716	near	IPS0
6	7.0	ltm	224	diff_vonmises	-0.0653075561422883	-3.7418473372667953	1.039353873896167	1.1906568102134627	3.2169033866972088e-12	2.797577809726499	-0.0295445374245065	-0.393246120828823	0.3637015834043164	126.93346892590915	near	LO1
0	1.0	ltm	225	diff_vonmises	-0.015006888476299	-0.8598313733154456	8.533602191366523	0.2534780847762155	1.2447866041363473e-18	1.827688000812569	-7.213768339137117e-05	-0.2908855685015121	0.2908134308181208	46.50892787401904	near	V1
1	2.0	ltm	225	diff_vonmises	0.1274573141128739	7.302766166740898	4.002945011134343	0.7733485017877626	0.6300121082123071	1.4407676224749215	0.2040038158062954	-0.2155289377782323	0.4195327535845278	58.92672401420066	near	V2
2	3.0	ltm	225	diff_vonmises	0.0437121045656849	2.5045191052482814	2.0915851892943818	101.6846860900398	2.0661426017205344	101.9592748566386	0.2512304674230634	-0.1652392465013719	0.4164697139244353	61.70881820256531	near	V3
3	4.0	ltm	225	diff_vonmises	-0.0289385164144574	-1.658054855918465	1.596700446114376	198.8018963088048	1.580627701619623	199.5671450321571	0.2062636473111467	-0.2646451422023048	0.4709087895134516	67.86730316556171	near	V4
4	5.0	ltm	225	diff_vonmises	-0.0891714321832044	-5.109146717234656	1.9680080847343933	0.9043186221365191	6.063961638124595e-17	1.489780081028432	0.224889112907894	-0.2280849560460333	0.4529740689539273	97.75266371413032	near	V3ab
5	6.0	ltm	225	diff_vonmises	0.1309944830892851	7.505431020513872	0.694068477908257	61.57527488518413	0.6739859551950268	62.0876862305417	0.0922283359068956	-0.1569534270763881	0.2491817629832837	103.9968362059735	near	IPS0
6	7.0	ltm	225	diff_vonmises	-0.0953609172780905	-5.463778090530756	0.7644006257479871	92.89437391384683	0.7444267767496991	93.67174575433582	0.1264193142145693	-0.2252710286567509	0.3516903428713203	98.45638266568685	near	LO1
0	1.0	ltm	226	diff_vonmises	-0.0325746780363779	-1.8663915704819536	2.64489141028112	0.2803325495958917	6.229318368328914e-33	1.688540678061281	-0.097988885198015	-0.2678785120085906	0.1698896268105755	84.56807540302944	near	V1
1	2.0	ltm	226	diff_vonmises	0.0198131536690463	1.1352100840804953	10.79803100919112	0.3354626881689413	0.3077018179900888	1.1297804694196518	0.1955307032686788	-0.2054614365296614	0.4009921397983403	39.57692760050927	near	V2
2	3.0	ltm	226	diff_vonmises	-0.0374301646911268	-2.144590463281165	1.810099120466001	35.71431177513236	1.7659677747586888	35.84201418928071	0.1974166039365741	-0.0984564265441525	0.2958730304807266	68.03456721633702	near	V3
3	4.0	ltm	226	diff_vonmises	-0.0472432463617051	-2.706838627022486	1.5157472359855395	116.27316825073297	1.4936089463989115	117.05606526023836	0.1116059278137484	-0.2358958290027235	0.347501756816472	68.07795680646538	near	V4
4	5.0	ltm	226	diff_vonmises	-0.003388594360278	-0.1941521553257641	2.473984455859453	0.8490435406968297	6.093898628657506e-10	1.2074562240815576	0.3051454029375405	-0.1886426570637798	0.4937880600013203	87.44957804887213	near	V3ab
5	6.0	ltm	226	diff_vonmises	0.2810145138113608	16.100945623311755	0.6168881818490803	88.60247726780194	0.6041605208282497	88.90629935089038	0.1327315110246267	-0.1391245300559118	0.2718560410805386	113.62183985734028	near	IPS0
6	7.0	ltm	226	diff_vonmises	-0.0381294271036877	-2.184655248293036	1.155198059523671	123.86501325825525	1.1403378629877436	124.377014643999	0.1540744286137609	-0.1684863366124087	0.3225607652261697	81.07904640259233	near	LO1
0	1.0	ltm	227	diff_vonmises	-0.1207423591351989	-6.918027586899759	7.552112942793308	0.271121074664185	0.0099901586302615	2.949247605072059	-0.1821071548452791	-0.4696237912035527	0.2875166363582735	49.03620668274607	near	V1
1	2.0	ltm	227	diff_vonmises	0.0976399362314641	5.594356257989387	4.950951204792135	0.6613270111453731	0.3010212879784202	1.8623989682403952	0.1787868589794738	-0.2994308587633502	0.478217717742824	56.30679159551738	near	V2
2	3.0	ltm	227	diff_vonmises	0.0603482932289885	3.457702502838966	3.9187879142967423	0.7231485173904307	0.5541852177005423	1.2202847303164994	0.2362376502638443	-0.177791618135721	0.4140292683995653	61.02015074022941	near	V3
3	4.0	ltm	227	diff_vonmises	0.0034033555893357	0.1949979114511976	1.2572399586141367	147.80489731303933	1.2318757312332516	149.09010312560503	0.1929411903002744	-0.3656431930306958	0.5585843833309703	75.46260615829124	near	V4
4	5.0	ltm	227	diff_vonmises	-0.0853855267905723	-4.892230316601017	2.03293873169032	0.9587579135832648	8.740730457789481e-21	1.8221451323182407	0.2095083064551569	-0.2814377483834199	0.4909460548385768	96.25764003252088	near	V3ab
5	6.0	ltm	227	diff_vonmises	0.3783663666370928	21.678795918004937	0.8421626903851818	122.47612383928524	0.829418463551569	123.1643920014227	0.0850767388820514	-0.1847860482282364	0.2698627871102879	92.3854686499885	near	IPS0
6	7.0	ltm	227	diff_vonmises	0.0550237569320731	3.152629045161499	1.8630933792164872	0.6894541215254557	3.639007017408535e-11	1.606177452419978	0.0850841519950825	-0.247425016172208	0.3325091681672906	100.29942020473604	near	LO1
0	1.0	ltm	228	diff_vonmises	-0.2014473492424765	-11.542082905691828	5.050334508038529	0.2046991966711552	5.1862750242912326e-24	2.6245345663413118	-0.2392843559113001	-0.4177003225379516	0.1784159666266515	60.752671711540586	near	V1
1	2.0	ltm	228	diff_vonmises	0.03149954729671	1.8047911166742057	5.648532442096166	0.4764955734185719	0.1488614296118254	1.7243620755721412	0.1240509549757673	-0.2769924034123566	0.4010433583881239	54.58432330423884	near	V2
2	3.0	ltm	228	diff_vonmises	0.0247941515201996	1.4206002387153147	3.7543682372084985	0.7502414359373966	0.5910158865569032	1.2299540470097343	0.2325510744872128	-0.1749820161450453	0.4075330906322581	61.75627188110892	near	V3
3	4.0	ltm	228	diff_vonmises	-0.0420833546582667	-2.4111986096708984	1.2972934097777589	191.7437072580136	1.2793073874422054	193.02950565055636	0.121885708808179	-0.3482493532834745	0.4701350620916535	72.89045367097086	near	V4
4	5.0	ltm	228	diff_vonmises	-0.1008425916655949	-5.777854897599724	2.340611399695248	0.8717084678141036	6.238275529515343e-17	1.9193320997712784	0.1886702238904938	-0.3008914882137758	0.4895617121042696	89.88281445365647	near	V3ab
5	6.0	ltm	228	diff_vonmises	0.150186691814252	8.60506357998863	0.7139736609789928	119.1883046087175	0.7009483438838419	120.04320152509462	0.0525630305498054	-0.2131374133457164	0.2657004438955219	98.7037027994833	near	IPS0
6	7.0	ltm	228	diff_vonmises	-0.0165531946965886	-0.9484281935728652	0.9935113415844036	146.95355963369553	0.978162381116538	147.99678713821757	0.0750360549893116	-0.2600519609026932	0.3350880158920049	83.23078166717028	near	LO1
0	1.0	ltm	229	diff_vonmises	0.0337940577716738	1.936256882938192	6.841289860987621	0.3360305562561551	1.7649111772464988e-21	2.837534001735624	-0.1078742527084212	-0.4516071699620091	0.3437329172535879	52.03045037936724	near	V1
1	2.0	ltm	229	diff_vonmises	0.1310792459815197	7.510287576498238	9.275679052295615	0.5088843487542573	0.3553678126223836	1.5588782908958156	0.2662681432097302	-0.283143402730721	0.5494115459404512	42.28290203305773	near	V2
2	3.0	ltm	229	diff_vonmises	0.0764040372051522	4.377628869615743	1.6376578516940574	147.23424427039538	1.6212591110444845	147.79660570170273	0.1553168389112045	-0.1977013138148891	0.3530181527260936	67.01751923613918	near	V3
3	4.0	ltm	229	diff_vonmises	-0.0804942884042467	-4.61198300047218	1.0901953869079783	168.41270847459427	1.073020607744357	169.85045667767753	0.0315939801800624	-0.3413526734504231	0.3729466536304855	77.45982921930695	near	V4
4	5.0	ltm	229	diff_vonmises	-0.0510383066947045	-2.924279567100865	2.1290360374693016	0.9079596286028768	3.0150733327557863e-22	1.632125438884391	0.2266268172232058	-0.2528786367675468	0.4795054539907527	94.14950947106124	near	V3ab
5	6.0	ltm	229	diff_vonmises	0.4598431030978559	26.34706904570633	0.6264263655072879	159.86559888521325	0.6170015353209363	160.5614759881862	0.0986974270961837	-0.2072384523368562	0.30593587943304	108.38159645606244	near	IPS0
6	7.0	ltm	229	diff_vonmises	-0.0202924289699337	-1.162670536046211	1.458836781108282	1.6442269402477947	0.4043834426504181	2.92437771185479	0.0305799133397491	-0.2909309864614737	0.3215108998012229	86.99273912913398	near	LO1
0	1.0	ltm	230	diff_vonmises	0.0221172458255177	1.267224840255503	6.616250234209553	0.2757554445797006	0.1015510522268436	1.6885874461182449	-0.0195343182155321	-0.2740281603353909	0.2544938421198588	50.57314145448828	near	V1
1	2.0	ltm	230	diff_vonmises	0.1091176870360175	6.251982937393181	5.027042446823036	0.6749527533459819	0.8355591261364138	1.2475820300674307	0.1996438379809607	-0.207844643923146	0.4074884819041068	52.19730294387014	near	V2
2	3.0	ltm	230	diff_vonmises	0.0403592589005363	2.312415199276535	2.276235730537907	82.27306857492447	2.252114337128721	82.38230356846437	0.2298523754337864	-0.1119032022570625	0.3417555776908489	60.38052243955201	near	V3
3	4.0	ltm	230	diff_vonmises	-0.1361611262831131	-7.801457869770211	1.5651266414536489	158.09288979424292	1.5489389486396747	158.84179213900688	0.1115321289788084	-0.2304819838655269	0.3420141128443354	66.9540549842931	near	V4
4	5.0	ltm	230	diff_vonmises	-0.0380694495202401	-2.1812187858960983	3.0058940765216886	0.7331371810002738	3.38222512734769e-14	1.096076141486871	0.3062581092859907	-0.1732683179781422	0.4795264272641329	79.25611901243255	near	V3ab
5	6.0	ltm	230	diff_vonmises	0.0834694407971358	4.782446675992971	0.7940116101685246	66.2864239216729	0.7759706665553028	66.56642744838614	0.1446371870984464	-0.1232772597480451	0.2679144468464915	100.70314504751966	near	IPS0
6	7.0	ltm	230	diff_vonmises	-0.1346808316838526	-7.716643236796575	1.1855493174015854	126.21556328308294	1.169420363967397	126.90457749036872	0.1199354737547508	-0.1988433310391695	0.3187788047939204	78.17144459422101	near	LO1
0	1.0	ltm	231	diff_vonmises	0.036410302939968	2.0861566892529435	8.013805432358087	0.4138621927540626	0.0693103504548193	2.9493259618635013	-0.0428478588972356	-0.4782841025760263	0.4354362436787906	46.605401889414765	near	V1
1	2.0	ltm	231	diff_vonmises	0.1561476218835929	8.946599714934491	4.661541686091018	0.8093012654160905	0.5450849753494157	1.7723214694189764	0.2236710260405105	-0.2850099249678078	0.5086809510083183	55.700236652529725	near	V2
2	3.0	ltm	231	diff_vonmises	0.0874121819097186	5.00834910145668	3.135376977164459	1.1169545892981156	0.8525679164254705	1.6901309769853887	0.2199680243475396	-0.2084829736074502	0.4284509979549898	62.85476488388775	near	V3
3	4.0	ltm	231	diff_vonmises	-0.1117444985776826	-6.402488152306848	1.143342830952399	172.94428229314028	1.1241899015464474	174.3320596187573	0.1108952597844634	-0.3570820300866231	0.4679772898710865	77.56728860425136	near	V4
4	5.0	ltm	231	diff_vonmises	-0.0690382187940722	-3.9555985620011023	2.0723027931756888	0.9686122802520124	2.2423621249086573e-12	1.5906969650100846	0.2573498250005123	-0.2450757389556108	0.5024255639561231	95.38194577903904	near	V3ab
5	6.0	ltm	231	diff_vonmises	0.2581507930530052	14.790950919892332	0.8789857963652805	87.54941637544171	0.8618768046665101	87.9667092222764	0.153996138776975	-0.1518382017116568	0.3058343404886319	94.38756446077508	near	IPS0
6	7.0	ltm	231	diff_vonmises	-0.0948770754479989	-5.436055995714624	1.491132972816697	0.9001113372077372	7.404045686486623e-18	2.1453353096587886	0.0470308582594405	-0.3217521064876519	0.3687829647470925	110.71012508269992	near	LO1
0	1.0	ltm	232	diff_vonmises	0.0270402321684662	1.5492911803070002	5.877607881742563	0.375107926412562	0.0507898498295667	3.703136860705951	-0.2653859266800916	-0.5922809408856765	0.3268950142055848	53.839504372768886	near	V1
1	2.0	ltm	232	diff_vonmises	0.069191394385762	3.9643748769293463	8.188053548166124	0.5440021329925611	0.2362410055052116	2.02694019579253	0.2080206906967579	-0.3478467787515459	0.5558674694483039	45.20599199931118	near	V2
2	3.0	ltm	232	diff_vonmises	-0.0195782087363088	-1.1217487310166545	2.034857877233001	1.782049560925918	0.7554090771862013	2.608322627864353	0.1591821733782945	-0.241304097592795	0.4004862709710896	73.13657951657095	near	V3
3	4.0	ltm	232	diff_vonmises	-0.2051226553157755	-11.752662432110656	1.2249927342158335	4.368840683646004	0.6002339470340301	6.288331188365702	0.0063287631023634	-0.4276693448970408	0.4339981079994042	84.81980484664037	near	V4
4	5.0	ltm	232	diff_vonmises	-0.0414452596699765	-2.3746384599134207	2.3524009375439943	1.04509957903699	0.015562441299343	1.978562924508117	0.274362102557844	-0.3046378735738365	0.5789999761316804	88.86774726901649	near	V3ab
5	6.0	ltm	232	diff_vonmises	0.3888137647461372	22.277387736546142	0.5213976055291456	149.70545675642077	0.5106547210534597	150.4920426389876	0.1056633017816253	-0.2492973147452382	0.3549606165268635	118.62436687497129	near	IPS0
6	7.0	ltm	232	diff_vonmises	-0.0232157700630364	-1.3301656427581523	0.9014187446203888	179.2408862115549	0.8872115863893615	180.77334384753988	-0.0057067596618409	-0.3404602125060592	0.3347534528442182	84.22172312759079	near	LO1
0	1.0	ltm	233	diff_vonmises	-0.0801267286221667	-4.590923376240246	7.568121171386208	0.3491523844280415	0.0833910357617081	3.840792232389057	-0.2869269674597618	-0.627794048041354	0.3408670805815921	46.92045441404167	near	V1
1	2.0	ltm	233	diff_vonmises	-0.0203671327402533	-1.1669507467992364	2.2613115257360263	1.5689948354466807	0.4358846029638681	3.168883938272939	0.1272537037031142	-0.3904283897835335	0.5176820934866478	74.53017498366611	near	V2
2	3.0	ltm	233	diff_vonmises	-0.0172673890832988	-0.9893485176832943	4.245186837472057	0.786063716956692	0.169550122880815	1.6498104159055045	0.3153788111740603	-0.2518695829047715	0.567248394078832	63.15432991532634	near	V3
3	4.0	ltm	233	diff_vonmises	-0.07146403482536	-4.094587582469065	1.577527030069332	4.559007405875559	0.7105302190329602	6.202297442757722	0.2587050888652653	-0.454531586351081	0.7132366752163464	80.06852001661821	near	V4
4	5.0	ltm	233	diff_vonmises	-0.0815390766264451	-4.671844956089124	2.1531380182086224	1.2195406672494666	4.0321790242090196e-16	2.3782674105192565	0.2791939988356732	-0.3696440843921808	0.648838083227854	93.63706876975267	near	V3ab
5	6.0	ltm	233	diff_vonmises	0.0323792131878667	1.8551922596191013	1.506826720616446	0.8534904986706663	3.328743675776609e-12	1.5872170464805375	0.1180952315854744	-0.2344070477726815	0.352502279358156	110.23980071222896	near	IPS0
6	7.0	ltm	233	diff_vonmises	-0.019202707357975	-1.1002340868367806	0.5846422392174745	148.0937145182034	0.5710016826089385	149.2612358940532	0.0778215711283394	-0.3100206759012991	0.3878422470296385	110.10645812256632	near	LO1
0	1.0	ltm	234	diff_vonmises	-0.2036286185141347	-11.667060428939418	9.754012262893246	0.1794021859578738	0.0240459156834484	1.7810145139859757	-0.0698332415353856	-0.2855258193170938	0.2156925777817082	42.91956875555323	near	V1
1	2.0	ltm	234	diff_vonmises	0.1199141617580493	6.870575372585284	4.3103552309930855	0.6739221708228653	0.6426699450604861	1.4057317634016089	0.1549435707817182	-0.2209977099576754	0.3759412807393936	56.42600479149539	near	V2
2	3.0	ltm	234	diff_vonmises	0.1181231446867936	6.767957653366452	2.7066490402486143	3.189316017865289	2.096420485930756	3.255633776871182	0.2409326207213113	-0.1034245404785628	0.3443571611998742	59.17262308370556	near	V3
3	4.0	ltm	234	diff_vonmises	0.0224920515646499	1.2886996272450628	1.6736490531206647	156.32182057732655	1.6536335451039568	157.0752938703763	0.1818438817229832	-0.2595447851723094	0.4413886668952926	65.88728655598672	near	V4
4	5.0	ltm	234	diff_vonmises	-0.0506673479347033	-2.903025195779392	2.871262804460817	0.6875009989035801	1.5862377186627462e-12	1.095674297975089	0.2647411907256707	-0.1729738505703152	0.437715041295986	81.12573308400104	near	V3ab
5	6.0	ltm	234	diff_vonmises	0.233410602307396	13.373442405820304	0.988427295110807	94.45890102947132	0.976651212364668	94.71042722034724	0.125887335034843	-0.1016450468289384	0.2275323818637815	89.72687265024766	near	IPS0
6	7.0	ltm	234	diff_vonmises	-0.0061675469767157	-0.3533744117144812	1.0164975171766035	81.73829072604273	0.9976029618759512	82.254338285857	0.1158632202989302	-0.1558737270185055	0.2717369473174358	85.77411480061565	near	LO1
0	1.0	ltm	235	diff_vonmises	-0.0289270784946734	-1.657399511388436	7.506601448143854	0.239815431278294	0.0217251945884142	3.7671926603039583	-0.3552384767086919	-0.6021266291762494	0.2468881524675574	48.48716790159099	near	V1
1	2.0	ltm	235	diff_vonmises	0.0767228387641627	4.395894853449237	11.719026194088435	0.421692184625253	0.1709078785961756	1.8494125958683088	0.2226844150058219	-0.3185408045160431	0.5412252195218651	38.5351745538309	near	V2
2	3.0	ltm	235	diff_vonmises	0.0759092067367968	4.349277172204497	2.467802554978882	1.521052145109283	0.9849732539154036	2.1324603016363954	0.166995526591	-0.2054625317826207	0.3724580583736208	66.05988694801499	near	V3
3	4.0	ltm	235	diff_vonmises	-0.1282030532714937	-7.345493873147451	0.9926494566888536	197.55110865716875	0.975944017867064	199.46833287214275	-0.0212953281979508	-0.427732292635941	0.4064369644379901	79.69860761977674	near	V4
4	5.0	ltm	235	diff_vonmises	-0.1043742205794606	-5.980202329170598	2.8094867397461094	0.777060398716281	3.41130797549596e-17	1.9836571942887384	0.174448087888046	-0.3139303795982567	0.4883784674863027	82.02073153789684	near	V3ab
5	6.0	ltm	235	diff_vonmises	0.3693620044368039	21.162883966721253	0.5908524397646558	141.4700733393316	0.5793228633693593	142.59748117647084	0.013267658049898	-0.2656880618788815	0.2789557199287795	106.54174008010835	near	IPS0
6	7.0	ltm	235	diff_vonmises	0.1056600503281837	6.0538749469448	1.1643552440877578	154.7290941025294	1.1450933631138571	156.33763588046298	-0.0393793799895121	-0.3686346586899383	0.3292552787004261	72.67705914458384	near	LO1
0	1.0	ltm	236	diff_vonmises	-0.0528094965627893	-3.0257612712584576	5.0289198917768365	0.3191291575848194	3.8544120884100954e-19	1.959136038721619	-0.0342258890976953	-0.3117942908390151	0.2775684017413197	60.88001286643512	near	V1
1	2.0	ltm	236	diff_vonmises	0.180769453397822	10.35732674458202	6.99486341500034	0.5306749872398062	0.5215585904643876	1.239205562589113	0.238331524765698	-0.2228471988215477	0.4611787235872457	47.30072433762908	near	V2
2	3.0	ltm	236	diff_vonmises	0.1194182566168508	6.842162100955769	2.054862073888728	67.11155198810552	2.021583967375633	67.39573154009354	0.1974500148209514	-0.1493394327162409	0.3467894475371924	61.722719420221466	near	V3
3	4.0	ltm	236	diff_vonmises	0.0405236468880833	2.3218339371656262	1.5502747383377475	143.50484086513262	1.5288029155588654	144.42075442631435	0.1331989409125356	-0.2795346520330177	0.4127335929455533	67.3007746384757	near	V4
4	5.0	ltm	236	diff_vonmises	-0.0832054799706212	-4.767322834676899	1.863614530529139	0.8484795298868537	6.269605419999085e-17	1.3602496867887928	0.2028797009472517	-0.2064003524083288	0.4092800533555805	100.28465851228876	near	V3ab
5	6.0	ltm	236	diff_vonmises	0.3773541164166885	21.620798252564583	0.9209484874117848	143.57293920312304	0.9114567399600636	144.01693470597786	0.1150651990478834	-0.1408615111630169	0.2559267102109004	90.64139910330027	near	IPS0
6	7.0	ltm	236	diff_vonmises	0.0146682277200839	0.8404275412976105	2.214581505023832	0.6052354736745815	2.688630716929835e-15	1.4339325141107848	0.1037460659778936	-0.2242588919996226	0.3280049579775163	92.366565941186	near	LO1
0	1.0	ltm	237	diff_vonmises	-0.0859388959523543	-4.923936034083818	4.585196071830765	0.3503261027440781	2.300760777108533e-16	1.115143347063047	0.1125391900224942	-0.1774503916902069	0.2899895817127011	63.82706196535909	near	V1
1	2.0	ltm	237	diff_vonmises	0.1967269385402004	11.27162329488302	7.340279321871084	0.6353877752232595	1.3759648956863073	0.8844506289418197	0.3105168665258072	-0.1741529194393565	0.4846697859651637	43.73975421524577	near	V2
2	3.0	ltm	237	diff_vonmises	0.1154931409403914	6.617269538594012	2.552390784895494	55.93884112350453	2.5263115194370096	55.94518625344805	0.1964639634109914	-0.0707371222541208	0.2672010856651123	58.27517083758667	near	V3
3	4.0	ltm	237	diff_vonmises	0.1000218301424363	5.730828726336002	2.0086289853764177	125.51820576790357	1.987527427402625	125.90406570008724	0.2148214766136362	-0.1839734394131404	0.3987949160267767	61.83857508790908	near	V4
4	5.0	ltm	237	diff_vonmises	0.0073240882228263	0.4196393439494238	1.9147558522746468	0.8011287747902107	1.5498976372473253e-12	0.8231965131854767	0.271496543265288	-0.1222722401028662	0.3937687833681543	99.03822295356716	near	V3ab
5	6.0	ltm	237	diff_vonmises	0.5869013520124872	33.62697046083738	1.1158215981018202	75.9783726968832	1.102455750990061	76.06299993426789	0.1593573467924365	-0.0755236959812624	0.2348810427736989	87.55765254380057	near	IPS0
6	7.0	ltm	237	diff_vonmises	0.0428871710716749	2.457253897662528	1.622238794955174	0.7103935479866084	1.5855077583174264e-16	0.9575083500083312	0.1702947242486318	-0.1398096704997151	0.3101043947483469	106.78490810636598	near	LO1
0	1.0	ltm	238	diff_vonmises	-0.0566671819567593	-3.246790363022202	18.268487246199857	0.1907539036682589	5.060724397464754e-15	2.9551564690096868	-0.1474016443761517	-0.4703277596528807	0.322926115276729	31.675334984217045	near	V1
1	2.0	ltm	238	diff_vonmises	0.1615527808013123	9.256292508517312	6.412683058421942	0.5564105557233764	0.3382729465748606	1.598827121133872	0.2033108501854801	-0.2718580337723011	0.4751688839577813	49.99188762004448	near	V2
2	3.0	ltm	238	diff_vonmises	0.1192347693054595	6.831649052418847	3.276914388205986	1.0784153059633543	1.1489111005124857	1.4444310607624515	0.2085396473288597	-0.164794621283753	0.3733342686126127	59.782635548587706	near	V3
3	4.0	ltm	238	diff_vonmises	0.0135692643316129	0.7774615772988297	1.3391289394937471	218.4655995921892	1.3221669757656362	219.81129887026324	0.1296666911877793	-0.3690912539233295	0.4987579451111088	71.68668562085136	near	V4
4	5.0	ltm	238	diff_vonmises	-0.1749905130704583	-10.02621785376613	2.059745499022528	0.7808800677248688	7.358728448368269e-26	1.8023844607192527	0.123207988608345	-0.2801936725969957	0.4034016612053407	95.6273091783338	near	V3ab
5	6.0	ltm	238	diff_vonmises	0.3293352866995762	18.869521972616678	0.927526994112064	104.48736626281396	0.9116023153118958	105.35863134332314	0.0334828722994728	-0.2062302081811129	0.2397130804805858	85.0626477975517	near	IPS0
6	7.0	ltm	238	diff_vonmises	0.1033354951279974	5.920687744728935	3.850747907470839	0.395141326454387	0.0009270738813164	1.567488540045741	0.0478443069033387	-0.2491077848566796	0.2969520917600184	69.74248104886189	near	LO1
0	1.0	ltm	239	diff_vonmises	-0.0671581568090661	-3.847878945037265	2.842766747758304	0.2454747230339297	1.0401848185794435e-25	2.536126144802751	-0.2477436512358591	-0.4031077870698008	0.1553641358339417	81.5364513548999	near	V1
1	2.0	ltm	239	diff_vonmises	0.047584557408533	2.726394309506918	14.49206291869898	0.298946510255364	0.1170702773546058	1.4275630833667854	0.1953462563045884	-0.2416524482598787	0.4369987045644671	35.010641371844684	near	V2
2	3.0	ltm	239	diff_vonmises	0.0825522370979745	4.729894775077247	1.850265291993085	40.87900034855137	1.7923860240655298	41.30885995545162	0.1775222091216157	-0.1771564122479292	0.354678621369545	64.21390437542829	near	V3
3	4.0	ltm	239	diff_vonmises	-0.0976023051489237	-5.592200155781316	1.2388475700155317	189.10697010873625	1.2236743295637664	190.51235335206167	-0.0114826409206472	-0.335443547725351	0.3239609068047038	71.13313457534699	near	V4
4	5.0	ltm	239	diff_vonmises	-0.1035282341482655	-5.93173087713778	2.760087675342729	0.7256302407752828	1.9227876069108975e-18	1.773602579230554	0.1707743105255306	-0.2804630715294295	0.4512373820549601	82.76370030695625	near	V3ab
5	6.0	ltm	239	diff_vonmises	0.1059749700406462	6.071918517354372	0.7869253943035099	129.01330687008624	0.7736555396870501	129.95271913308602	0.0464152637858745	-0.2264370534587492	0.2728523172446238	93.23440609114348	near	IPS0
6	7.0	ltm	239	diff_vonmises	0.0060829848557913	0.3485293590788395	1.2595372634173403	222.29263316600264	1.2464451167684514	223.62045749685885	0.0183885625891235	-0.3265747579075615	0.3449633204966851	71.42185106873251	near	LO1
0	1.0	ltm	240	diff_vonmises	-0.1074159337887095	-6.154479658549753	2.9691522482597947	0.4891869506468289	1.111451491253054e-14	4.17271549546655	-0.3455988044766848	-0.6632685300743325	0.3176697255976477	79.75069206863645	near	V1
1	2.0	ltm	240	diff_vonmises	0.1021228827354613	5.851210172451354	12.3643497838838	0.4778308303709139	0.1443995653479053	2.3110501693137078	0.2404866329492752	-0.3943029226228587	0.6347895555721339	37.6304206607349	near	V2
2	3.0	ltm	240	diff_vonmises	0.1519155941300858	8.704122385876303	1.7833023558904582	1.1827637464587637	0.3858950742780621	2.191524078997809	0.0746735144372305	-0.2442267989763331	0.3189003134135637	82.89549291460617	near	V3
3	4.0	ltm	240	diff_vonmises	-0.0803297247099461	-4.602554195327678	2.7591549390778223	0.7729178826425637	0.0263846931827009	3.0960246090530856	-0.0233823808259514	-0.4792204846784619	0.4558381038525105	80.41641917120322	near	V4
4	5.0	ltm	240	diff_vonmises	-0.0039243171314148	-0.2248468091009556	1.582310466521686	1.4626664303158217	0.1346875050699204	2.33306883939868	0.2314934680242327	-0.2954253315792116	0.5269187996034443	100.21724063730218	near	V3ab
5	6.0	ltm	240	diff_vonmises	0.6325004692216495	36.23960742644474	0.6433801272944308	163.56938482077015	0.6327071638326316	164.3019090122816	0.1324432134253825	-0.2305201837686485	0.3629633971940311	107.8174080108114	near	IPS0
6	7.0	ltm	240	diff_vonmises	0.1804037753628578	10.336374936517936	2.7661602966002827	0.5695161608068227	0.0484078018587544	1.9996320291090175	0.0221765196663729	-0.3048450333496203	0.3270215530159933	79.16392350954663	near	LO1
0	1.0	ltm	241	diff_vonmises	-0.0932071006829503	-5.3403734897839845	10.981002220370767	0.2311917691015091	0.0220276979296861	2.8879093106293032	-0.1678614359261429	-0.4634562559424539	0.295594820016311	40.44136314614241	near	V1
1	2.0	ltm	241	diff_vonmises	0.1108465523584186	6.351039623713287	3.951225867261098	0.7798356447589379	0.4129902562416816	1.8936991146654665	0.1588536296067323	-0.2897365562802675	0.4485901858869999	60.57573791343697	near	V2
2	3.0	ltm	241	diff_vonmises	0.098217811633711	5.62746607962256	4.33140208126149	0.6829799953563674	0.6312221820470885	1.1103996535947125	0.246828856111111	-0.1674112300514925	0.4142400861626035	58.06819305915985	near	V3
3	4.0	ltm	241	diff_vonmises	-0.0149404062327439	-0.8560222213471788	1.308384771592651	174.82883747921866	1.286938513540916	176.11748162894523	0.1726854429754354	-0.3645748681261196	0.537260311101555	73.48793870360367	near	V4
4	5.0	ltm	241	diff_vonmises	-0.1187450547159368	-6.803590473273216	2.210848731643359	0.8596554859481426	3.495073926592013e-17	1.7452341406346434	0.193269411077123	-0.2721035981189045	0.4653730091960275	92.4306575110245	near	V3ab
5	6.0	ltm	241	diff_vonmises	0.2542905663839718	14.569776223792877	0.9273623510265172	87.63688144607734	0.9095975420373084	88.27005907214445	0.0907164975401322	-0.1733732346000085	0.2640897321401407	88.41314578697387	near	IPS0
6	7.0	ltm	241	diff_vonmises	0.0066185554773396	0.3792152953247534	1.175061306494557	1.9533207100838423	0.3956863794783373	2.9695928796296576	0.0562032001981096	-0.2475063556946859	0.3037095558927956	95.5970657425478	near	LO1
0	1.0	ltm	242	diff_vonmises	0.1370563539662775	7.852750637718802	11.888970695951594	0.203772513065497	4.66776651455214e-18	3.3015617921821936	-0.2482344703237654	-0.5254598791360642	0.2772254088122988	39.327756759582	near	V1
1	2.0	ltm	242	diff_vonmises	0.0458757852365234	2.628488875901364	12.177418016458576	0.3607016569017178	0.0595304241281286	1.706142115147197	0.2087260039499853	-0.2783920142545351	0.4871180182045204	38.42582039785341	near	V2
2	3.0	ltm	242	diff_vonmises	0.001416592862823	0.081164792328118	1.6498097475268916	79.42852718840652	1.608077739629247	80.27721732316446	0.1804348694555813	-0.2823534593512136	0.4627883288067949	66.2830308348909	near	V3
3	4.0	ltm	242	diff_vonmises	-0.2129299505839254	-12.199987500388108	1.1017597888205666	234.1265167521549	1.087321998772733	235.98480954015463	-0.0322925280447066	-0.422112829667391	0.3898203016226844	75.09647403977783	near	V4
4	5.0	ltm	242	diff_vonmises	-0.1509092228651659	-8.646461559773151	2.505784897600282	0.8820973282669672	9.880949840088476e-15	2.59109555540054	0.1081698870014575	-0.4089182060677292	0.5170880930691868	86.88257899360282	near	V3ab
5	6.0	ltm	242	diff_vonmises	-0.0585572298600993	-3.3550821309611303	0.6683722289613687	137.8719170663317	0.6512138722578027	139.75898211634032	-0.0695487581639184	-0.3942259889367747	0.3246772307728562	96.23349510992514	near	IPS0
6	7.0	ltm	242	diff_vonmises	-0.0324990712343458	-1.8620596198230344	1.1768822082071468	248.93168385726975	1.1612454613383512	251.15436825516016	-0.1045047861757808	-0.4995050980528077	0.3950003118770269	70.89000013383992	near	LO1
0	1.0	ltm	243	diff_vonmises	0.4127494622252997	23.64880218180408	0.0003667045491705	2135.4626788053693	4.612195094715781e-32	2136.98068756203	-0.1169578448930792	-0.3662164998830803	0.2492586549900011	174.75929596379436	near	V1
1	2.0	ltm	243	diff_vonmises	0.0787972023406494	4.514747131557583	8.44751962623292	0.4477029818569404	0.3900903926771116	1.337472091054816	0.2080267177395748	-0.2426366592735438	0.4506633770131186	43.89462187094807	near	V2
2	3.0	ltm	243	diff_vonmises	0.0023240824120097	0.1331601134487438	1.251967641762477	38.69918351224702	1.2170969787417325	38.97190600090683	0.1436991420672022	-0.110743648047364	0.2544427901145663	79.86215763285338	near	V3
3	4.0	ltm	243	diff_vonmises	0.045753166789517	2.6214633563974483	3.2750978533112844	0.7769082836807938	0.4487125043494989	1.5822494678945933	0.1594117468002598	-0.223314425586884	0.3827261723871438	65.5513177751092	near	V4
4	5.0	ltm	243	diff_vonmises	0.0714817531139692	4.09560276562657	0.9889535158031644	6.583679162582662	0.68910188966796	6.696208135836233	0.3443919554678494	-0.1702330330945861	0.5146249885624354	101.29510384431958	near	V3ab
5	6.0	ltm	243	diff_vonmises	0.5199983265640346	29.7937094659847	0.7900686214553614	95.8679534154134	0.7781703070475572	95.94885865758228	0.1936030336476051	-0.1033899047698287	0.2969929384174339	104.29507039243497	near	IPS0
6	7.0	ltm	243	diff_vonmises	0.1097727280449595	6.289514022613549	0.681023494896365	32.882532439906534	0.639938065333678	33.186734414962	0.173852712520226	-0.1543178177294928	0.3281705302497189	110.21644774017506	near	LO1
0	1.0	ltm	244	diff_vonmises	0.0660047420321602	3.781793146292532	0.910523350189578	0.594893176565068	3.0240498812478347e-30	2.215040756358194	-0.1593583434589898	-0.3212674748190365	0.1619091313600466	132.34674695035778	near	V1
1	2.0	ltm	244	diff_vonmises	0.1232294738656823	7.060528764121278	9.056069749992956	0.3851489422650545	0.3927601168464781	1.2042754616914415	0.1824221880236454	-0.2215162755962433	0.4039384636198887	42.45452025840618	near	V2
2	3.0	ltm	244	diff_vonmises	0.1562633661720404	8.953231374165275	3.0687640489984744	1.1050562444240104	1.506711454059643	1.245979781647491	0.1919958006799443	-0.103470695501078	0.2954664961810224	59.86249262190773	near	V3
3	4.0	ltm	244	diff_vonmises	0.1004815645452269	5.757169567312874	1.6631277599182437	103.52382078597866	1.6331802498127144	104.42533628971154	0.1139491214303589	-0.2794867683621032	0.3934358897924621	64.56222779938139	near	V4
4	5.0	ltm	244	diff_vonmises	-0.0493978486163136	-2.830288242740925	2.458575346845927	0.6909546365307984	1.0968177589826658e-12	1.1593347245858667	0.2187206725212366	-0.1815621286761721	0.4002828011974088	87.72047220881575	near	V3ab
5	6.0	ltm	244	diff_vonmises	0.3999115650885921	22.913244858047644	0.9287209504544048	117.58329157098676	0.918555430263062	117.943383294781	0.1098877572238024	-0.12040825822368	0.2302960154474824	90.85973291016548	near	IPS0
6	7.0	ltm	244	diff_vonmises	0.0855447653397216	4.901354013403059	1.0910106763070155	38.66074820062873	1.0476450784573927	39.24940540416215	0.1085480155955398	-0.1698738362019476	0.2784218517974874	82.44230693236133	near	LO1
0	1.0	ltm	245	diff_vonmises	0.002944751709222	0.1687218446523608	6.066541375638568	0.4330479117339976	0.0858781135785782	2.819230864144328	-0.0720832836188584	-0.4536274081520863	0.3815441245332279	52.82638230331159	near	V1
1	2.0	ltm	245	diff_vonmises	0.0666165372793589	3.816846431883177	4.433726230141804	0.8538777900369888	0.4936437292015105	1.949820704694445	0.2154262513580797	-0.3084654580069614	0.5238917093650413	57.18311278999164	near	V2
2	3.0	ltm	245	diff_vonmises	-0.0740812508610836	-4.244543015389987	1.4168627130490858	116.50134093389276	1.39447928243423	117.09007201545369	0.2208758872457963	-0.2142527689398914	0.4351286561856877	73.51991015041907	near	V3
3	4.0	ltm	245	diff_vonmises	-0.1076413822692578	-6.167396904982808	1.6708139722152175	2.8951137577725663	0.7078653951601821	4.070380411473249	0.1745965541226843	-0.3220921067773706	0.496688660900055	78.43744617984115	near	V4
4	5.0	ltm	245	diff_vonmises	0.0079911472578419	0.4578590113418833	1.7211787077342735	1.5811217406847502	0.183413343041637	2.057715500340857	0.354424119315833	-0.2470695030600937	0.6014936223759269	96.1110565990558	near	V3ab
5	6.0	ltm	245	diff_vonmises	0.2975461862013371	17.04814067955035	0.5715522938243	108.9395934577689	0.5591093291592861	109.27850149095951	0.1682311544490318	-0.1727225483183296	0.3409537027673615	118.0321192395744	near	IPS0
6	7.0	ltm	245	diff_vonmises	-0.0753602281241986	-4.317823014659672	0.6306641795246798	105.62170563649236	0.6129245732008984	106.44679537265216	0.1342025182074131	-0.2546026977154145	0.3888052159228277	108.8924230238598	near	LO1
0	1.0	ltm	246	diff_vonmises	0.0408513283145022	2.340608699924255	9.304217270383983	0.4547044051133904	0.0780064170123166	3.1063645291782165	0.0117116857061813	-0.5081549363430279	0.5198666220492092	43.35265216237593	near	V1
1	2.0	ltm	246	diff_vonmises	0.1446142314710339	8.285785120818211	6.378888341595589	0.7023320944007516	0.4574165958642412	1.6583414990055982	0.2965447199990821	-0.2872400872648055	0.5837848072638876	49.63569054081452	near	V2
2	3.0	ltm	246	diff_vonmises	0.0172979132030463	0.991097420918179	1.6947780564110386	113.81482475120752	1.6695201161413098	114.39064071062404	0.2170348842001033	-0.2228193430157876	0.4398542272158909	66.77298961145729	near	V3
3	4.0	ltm	246	diff_vonmises	-0.0499231688144537	-2.860386872987331	1.1543851825138578	201.8692877289373	1.1374754489991965	203.1052861741084	0.1811113393603989	-0.3442818085767776	0.5253931479371765	78.7611746213864	near	V4
4	5.0	ltm	246	diff_vonmises	-0.0445251862137409	-2.551105252081436	1.8889910652690416	1.131742268141385	0.0422626485869911	1.7899633821149037	0.2669182289167633	-0.2600723100207768	0.5269905389375402	97.5366791398713	near	V3ab
5	6.0	ltm	246	diff_vonmises	0.4300548664414104	24.640328806155114	0.7254240940589517	127.2118052953894	0.713655772545782	127.81029330849576	0.1136897877199345	-0.1830628683948756	0.2967526561148101	101.49712847160004	near	IPS0
6	7.0	ltm	246	diff_vonmises	-0.102449736076508	-5.869937489413078	1.150317712911652	1.1773098813355574	9.704716753074876e-16	2.246679352372855	0.0779469633831037	-0.3139331628616347	0.3918801262447385	122.51090957477749	near	LO1
0	1.0	ltm	247	diff_vonmises	-0.117241170153741	-6.717424234984515	9.113821503978958	0.2671704744611899	0.0834872332332446	3.976652960918618	-0.3697318323426303	-0.6562994163255895	0.2865675839829592	42.65754681731451	near	V1
1	2.0	ltm	247	diff_vonmises	0.0539104806467445	3.0888430125801665	8.812221838195002	0.5023920530193019	0.1915345636244734	2.003922253764079	0.2032986585488081	-0.3406439437440411	0.5439426022928493	43.969824851528585	near	V2
2	3.0	ltm	247	diff_vonmises	0.0210822786770348	1.2079255907127473	3.4190610089032147	0.7694248463383355	0.5722225926745204	1.2522511218939156	0.2165275269313848	-0.171047304026345	0.3875748309577299	64.26047385114964	near	V3
3	4.0	ltm	247	diff_vonmises	-0.0772613000141394	-4.426746410504236	1.0753254842715425	183.2923450947988	1.0551597570980358	184.96455689182147	0.1059226778675963	-0.4165876084726037	0.5225102863402	79.63317759100502	near	V4
4	5.0	ltm	247	diff_vonmises	-0.0880942463767774	-5.04742851677499	3.0513365159036328	0.8004568245781692	1.484725907358575e-20	1.9046917876162757	0.226211804012835	-0.3019570113888076	0.5281688154016426	78.65001659544663	near	V3ab
5	6.0	ltm	247	diff_vonmises	0.38187908869541	21.88006006654902	0.6266345192767122	144.3774435223603	0.6166009732219402	145.29413505251216	0.0284064228151521	-0.2216894470854136	0.2500958699005657	104.24122687911466	near	IPS0
6	7.0	ltm	247	diff_vonmises	0.0997484451085224	5.715164917710695	1.102477120994246	118.3897413676582	1.084029981805967	119.4504629893583	0.0299534010635511	-0.2544109900586644	0.2843643911222155	77.28074719742065	near	LO1
0	1.0	ltm	248	diff_vonmises	0.0517113783616131	2.9628437329245627	2.689716199203782	0.4610603013691747	1.519241737889182e-18	1.948236106913031	-0.0264800959432432	-0.308763925068113	0.2822838291248697	83.8511001373387	near	V1
1	2.0	ltm	248	diff_vonmises	0.1855061276175433	10.628718186300476	6.145869380662447	0.5333181852701064	0.4857662626573081	1.275157996257418	0.204473395248468	-0.2207603451083522	0.4252337403568202	50.125550591159794	near	V2
2	3.0	ltm	248	diff_vonmises	0.1198171446528604	6.865016701917382	2.4468875285757568	1.9779448997644584	1.319540849048209	2.442920076827051	0.1714431318538651	-0.1813885239796073	0.3528316558334725	63.26268482677099	near	V3
3	4.0	ltm	248	diff_vonmises	0.0109759694831291	0.6288767274476884	1.446162841399282	76.65939688713136	1.4106177670760986	77.72428221974396	0.0391698810243354	-0.2830863810001958	0.3222562620245313	67.47827857627766	near	V4
4	5.0	ltm	248	diff_vonmises	-0.0678540540510487	-3.8877509199776568	1.5703309875113567	1.025814549005586	1.982832275449395e-12	1.4986196091641837	0.2183481698650058	-0.2187514677100331	0.4370996375750389	108.30224434290032	near	V3ab
5	6.0	ltm	248	diff_vonmises	0.2605768639052218	14.929954540524047	0.8955638130599698	104.98753842605392	0.8813257350319333	105.36422088204225	0.1646272482000412	-0.1465404411026956	0.3111676893027368	93.9998604442892	near	IPS0
6	7.0	ltm	248	diff_vonmises	-0.0656931336094162	-3.763939298808573	1.858214691473545	0.8541922483848069	0.0623841726280765	1.9550816983914916	0.09058146865884	-0.2818081548186095	0.3723896234774496	95.7720630665454	near	LO1
0	1.0	ltm	249	diff_vonmises	-0.2004107608280112	-11.482690764450806	0.3275310195897468	47.12327599810064	0.2928188361657509	50.15785138747516	-0.3401310149911403	-0.5677310700840552	0.2276000550929149	127.40370545243064	near	V1
1	2.0	ltm	249	diff_vonmises	-0.0138716686953017	-0.7947880710445381	6.349811599283376	0.4593397753464774	1.9405864933913972e-17	2.28695163260154	0.0879074156066079	-0.3639782775444458	0.4518856931510537	54.046205885122845	near	V2
2	3.0	ltm	249	diff_vonmises	-0.0689975355054399	-3.953267581265754	4.215930989262272	0.676690728811107	0.1401162034931802	1.921818940261441	0.1852263994937198	-0.2967604286317484	0.4819868281254683	63.0805050661327	near	V3
3	4.0	ltm	249	diff_vonmises	-0.112886872458534	-6.467941354305614	1.8270290880525333	1.7902111283896651	0.399517032078209	3.8915191432547247	-0.0135375799769826	-0.4552026553231642	0.4416650753461815	79.01055554670435	near	V4
4	5.0	ltm	249	diff_vonmises	-0.0630677773427929	-3.613517465012833	1.630638687360272	1.3586507323893096	7.422247377928608e-16	2.9091307878798864	0.1560982042335409	-0.4392648369518318	0.5953630411853728	106.54130093029238	near	V3ab
5	6.0	ltm	249	diff_vonmises	0.1735371255749951	9.942944884279	0.5479976854173356	176.0172431938218	0.5359977396530354	177.41046686614845	0.0439904026456687	-0.3506391055120854	0.3946295081577542	112.2220129696558	near	IPS0
6	7.0	ltm	249	diff_vonmises	-0.0462903551160926	-2.6522419803139243	0.8507406688903547	216.3528511516558	0.836341219565272	218.30211717412172	-0.01086517855299	-0.4297523608474058	0.4188871822944158	86.73026323318786	near	LO1
0	1.0	ltm	250	diff_vonmises	0.1742281881086888	9.982539850839265	0.6004912340981925	79.18885008542667	0.57810911725848	81.37181362184315	-0.2355600154989723	-0.3962881435300573	0.160728128031085	90.77165105672508	near	V1
1	2.0	ltm	250	diff_vonmises	0.0134261177576538	0.7692598827592141	8.42457142081745	0.3674869871512211	0.1312238450942466	1.5700652542082685	0.1351036942646977	-0.2598751747506763	0.394978869015374	45.34281656785768	near	V2
2	3.0	ltm	250	diff_vonmises	0.0036149360263915	0.207120577522027	3.339117943759392	0.7751628825979082	0.5997798989274381	1.2600013535582146	0.2048111514091735	-0.169741959188844	0.3745531105980175	64.43227888394182	near	V3
3	4.0	ltm	250	diff_vonmises	-0.1411636103773553	-8.088079095451613	1.20351943922557	159.99009480112406	1.1853817285583976	161.33906724642603	0.028674768712257	-0.328967971067641	0.357642739779898	73.51541464096184	near	V4
4	5.0	ltm	250	diff_vonmises	-0.0692431622183894	-3.967340955253434	2.645243515178999	0.850849686388843	4.5635070800449846e-17	1.7454480427160228	0.2404999988965093	-0.2751848264080535	0.5156848253045629	84.5605607532649	near	V3ab
5	6.0	ltm	250	diff_vonmises	0.0705037584688894	4.0395678000771	0.8009536297438414	109.37468418980389	0.785701962161634	110.04797403174813	0.1159678349019941	-0.1956075548118843	0.3115753897138784	96.11267691877566	near	IPS0
6	7.0	ltm	250	diff_vonmises	-0.0770134170648787	-4.412543763698341	1.1670095161673515	184.43028181801512	1.1528020931428935	185.57582386358072	0.0624848645218492	-0.2877022928308577	0.3501871573527069	75.86217822498264	near	LO1
0	1.0	ltm	251	diff_vonmises	-0.334846514391715	-19.18529205931185	0.5736345998716224	147.46541004182933	0.5533237574925548	151.29271873992155	-0.4179691715702844	-0.6916634656137148	0.2736942940434304	92.54270613370603	near	V1
1	2.0	ltm	251	diff_vonmises	0.125182410594527	7.17242379634016	8.2224944477608	0.5104872569821098	0.1157832303368211	2.221825390712844	0.1788358358773704	-0.3651271765290434	0.5439630124064139	45.992811857523634	near	V2
2	3.0	ltm	251	diff_vonmises	0.1101433931231053	6.31075156720419	5.187329244895675	0.4942714579522103	0.1549142136078226	1.3563215395265558	0.1865113988604534	-0.2144413612906406	0.4009527601510941	57.24767416282015	near	V3
3	4.0	ltm	251	diff_vonmises	0.0050750924550035	0.2907813783103894	1.837515037150556	2.124329349020539	0.4099083508555361	4.358116600640802	0.038508193868872	-0.5008196169989501	0.5393278108678221	79.50928110186558	near	V4
4	5.0	ltm	251	diff_vonmises	-0.1101615377751867	-6.311791179189191	1.8084146098227856	1.0286477929355824	2.6404990896606368e-17	2.242076092232832	0.1423692497039744	-0.3434242209747263	0.4857934706787007	101.67781776090337	near	V3ab
5	6.0	ltm	251	diff_vonmises	0.4734086138509591	27.12431555879849	0.7943767590055129	180.7260851010277	0.7835319395799135	181.74928911855088	0.0668230793832478	-0.2528283581942183	0.3196514375774661	93.33293113057502	near	IPS0
6	7.0	ltm	251	diff_vonmises	0.1693030125236176	9.700348076453812	3.099927567858788	0.517558638600891	3.5917376597187426e-17	2.0907383080517805	0.012586503355882	-0.3320503362775843	0.3446368396334663	78.01544245342853	near	LO1
0	1.0	ltm	252	diff_vonmises	0.0397877509097529	2.279670203446648	3.792833442813578	0.3568009797190353	5.0972401278660375e-17	2.665368527895404	-0.1577662371466188	-0.4240712987561444	0.2663050616095256	70.35730876481591	near	V1
1	2.0	ltm	252	diff_vonmises	0.129414438376142	7.414901127008812	7.284411980400698	0.4840677883135005	0.2930872998266396	1.59163177973237	0.1791231117018444	-0.2738347749477088	0.4529578866495532	47.37965586676853	near	V2
2	3.0	ltm	252	diff_vonmises	0.0962273203848022	5.51341933190236	2.4983762717320563	1.5050511596190013	0.9876341893619728	2.1563655709394696	0.1548209678912681	-0.2127614740049449	0.367582441896213	65.39134206035263	near	V3
3	4.0	ltm	252	diff_vonmises	-0.1355608254189027	-7.767063163812894	1.059240550098875	142.17259353941398	1.040156886005814	143.75885201647728	-0.0432383338336848	-0.3519825359252628	0.308744202091578	76.15163328691617	near	V4
4	5.0	ltm	252	diff_vonmises	-0.0780334222592227	-4.4709857564156765	2.012124076947417	0.9306381348412248	1.212979761103227e-17	1.7688533935836932	0.2003047440632278	-0.2729070451277197	0.4732117891909475	96.73758364278996	near	V3ab
5	6.0	ltm	252	diff_vonmises	0.2442364549744445	13.99371807327263	0.7674226804867065	127.97398378417614	0.7540211847248587	128.68240430645045	0.1185735378900147	-0.2063189532390321	0.3248924911290469	98.13009190261953	near	IPS0
6	7.0	ltm	252	diff_vonmises	-0.049721625328267	-2.8488392818404806	0.9054351101612846	122.74424264406122	0.8844478966325823	124.28986333146462	-0.0034833438354198	-0.3441372943064067	0.3406539504709869	84.27305588939575	near	LO1
0	1.0	ltm	253	diff_vonmises	-0.3556313792488935	-20.376177093377965	0.4835203810554107	114.80324289244126	0.4638941897479182	118.50779700222026	-0.4698201725179132	-0.6427045146169821	0.1728843420990689	94.52556724451578	near	V1
1	2.0	ltm	253	diff_vonmises	0.0343579478134799	1.9685654024431345	2.806023845504513	0.9863538091716196	0.2988161635559409	2.7036647478935327	0.0543115854724189	-0.3840131028222932	0.4383246882947121	70.3551748488305	near	V2
2	3.0	ltm	253	diff_vonmises	0.1418329499735511	8.12642942937462	7.448852204012301	0.4108137508627024	1.7129059939086287e-11	1.1173433525893703	0.2614330519657805	-0.1778305688419156	0.4392636208076961	49.82910987769145	near	V3
3	4.0	ltm	253	diff_vonmises	-0.0074614253949097	-0.4275081842800636	1.868082104115628	2.362530151643037	0.5043707630528801	4.431259153560795	0.0723952773322837	-0.4818813559994158	0.5542766333316996	77.15313085720743	near	V4
4	5.0	ltm	253	diff_vonmises	-0.1449533208617486	-8.305213511783828	2.063625738675811	0.9460967287448534	6.380857176077306e-20	2.188949939522519	0.1489944679110012	-0.3403604682393063	0.4893549361503075	95.55562586264284	near	V3ab
5	6.0	ltm	253	diff_vonmises	0.2529147067549795	14.490945273849178	0.99917340008915	118.70033966905687	0.9833750505269024	119.46781284729876	0.095149252064651	-0.2048668061883187	0.3000160582529698	84.48629770086575	near	IPS0
6	7.0	ltm	253	diff_vonmises	0.1185101886070529	6.790133636483504	1.7573686826864283	0.9311641628492604	0.1907212907851946	2.303728281062392	0.0044160476081687	-0.2987493779762023	0.3031654255843711	88.66412123223267	near	LO1
0	1.0	ltm	254	diff_vonmises	-0.3184893007362201	-18.248092752258238	0.4992122138609875	77.65029981505725	0.474790291890602	80.38763557189633	-0.3088349653941549	-0.4899605482665983	0.1811255828724434	98.78997922848964	near	V1
1	2.0	ltm	254	diff_vonmises	0.1463221310570662	8.383640558930004	6.655976728511243	0.456664386829472	0.1771982376877543	1.8550031143645835	0.1106968637355609	-0.3059574382202132	0.4166543019557741	50.08719924935906	near	V2
2	3.0	ltm	254	diff_vonmises	0.1987090628562026	11.3851906526602	9.440415601787102	0.3029461019740446	9.60939934618171e-19	0.7741958831321538	0.2428683067293671	-0.1232170994102018	0.366085406139569	44.19651947254886	near	V3
3	4.0	ltm	254	diff_vonmises	0.1624830035394028	9.309590345416998	3.800513776889221	0.9914320222820208	0.4713218822057091	2.5930925856406195	0.1152217144423088	-0.3983852506131432	0.5136069650554521	59.90244800940107	near	V4
4	5.0	ltm	254	diff_vonmises	-0.1200698822499208	-6.879497499553221	1.895560538367572	0.8407874790511833	2.2579811205354564e-20	1.6721730473304837	0.1537490597466137	-0.2566576328705716	0.4104066926171854	99.4808711862503	near	V3ab
5	6.0	ltm	254	diff_vonmises	0.3877026437992361	22.213725195760123	1.0758123583972825	125.69383419137158	1.0635073594690108	126.20836049785753	0.1085997286347222	-0.1531222918909307	0.2617220205256529	82.88795552336532	near	IPS0
6	7.0	ltm	254	diff_vonmises	0.2183991995235474	12.513352381734846	3.2700127257941984	0.4293131174567494	5.674003385948798e-19	1.386165699721393	0.0745877895146986	-0.220188616094087	0.2947764056087857	75.91645680428948	near	LO1
0	1.0	ltm	255	diff_vonmises	0.0391102789770479	2.240853920964078	7.431412901487572	0.4750734944806888	0.0531129953604385	4.097970471195072	-0.1799734288236031	-0.6599881074906329	0.4800146786670297	48.39181187705279	near	V1
1	2.0	ltm	255	diff_vonmises	0.1358526758748962	7.78378496319029	5.317884824639268	0.763743043495218	0.3422527782941916	2.155756488225608	0.2150284400175103	-0.3542582832072607	0.5692867232247711	54.11161899280876	near	V2
2	3.0	ltm	255	diff_vonmises	0.0761085088746589	4.360696343551928	3.678034577082668	0.815678692924482	0.3898226015984958	1.7716529856849377	0.1978591547614963	-0.2619898158510907	0.459848970612587	63.34151838124606	near	V3
3	4.0	ltm	255	diff_vonmises	-0.1438013607551683	-8.239211059509334	0.8825670519681478	123.58346164769434	0.8519914821619348	125.7128943038	0.0528986452804431	-0.4925215637578102	0.5454202090382534	87.10566904027007	near	V4
4	5.0	ltm	255	diff_vonmises	-0.0637913049376407	-3.6549725425588617	1.9540187630049644	1.1073033605117928	3.1303130142272346e-15	1.9924216351428856	0.2461354209704876	-0.3057931819338808	0.5519286029043684	98.09212593189125	near	V3ab
5	6.0	ltm	255	diff_vonmises	0.3440386035413247	19.711959972492487	0.7982425465160328	138.56175740095833	0.7855599539941485	139.20059686334227	0.1433749647474087	-0.1996911898441524	0.3430661545915612	97.19638658356206	near	IPS0
6	7.0	ltm	255	diff_vonmises	-0.0735883516101108	-4.216301968584087	1.1582882378178616	1.1815982331534534	1.465426138585464e-18	2.9113784547923443	-0.0245080823160595	-0.4200840782966737	0.3955759959806142	122.2372657533525	near	LO1
0	1.0	ltm	256	diff_vonmises	0.0598633553935144	3.4299176115400902	10.554834062144437	0.3443508951379497	0.0669910510600113	2.918806076372705	-0.0555222348320548	-0.4776996325201486	0.4221773976880937	40.78550072358138	near	V1
1	2.0	ltm	256	diff_vonmises	0.1483702912148254	8.500991491736452	7.778952695453124	0.5683782145540256	0.4792023577496944	1.4529179696926124	0.2685602219273212	-0.2656863168460003	0.5342465387733215	45.26157116744216	near	V2
2	3.0	ltm	256	diff_vonmises	0.0806970181370606	4.623598558544229	1.937169748971569	115.7997738035014	1.9150375216367352	116.2260487434793	0.1925247000196392	-0.1856953229013775	0.3782200229210168	62.53327291998292	near	V3
3	4.0	ltm	256	diff_vonmises	-0.0987018491787062	-5.655199388076659	1.2288151190136716	232.55501388421337	1.21549081000124	233.86103181097985	0.0715537494582463	-0.3330439738893105	0.4045977233475568	73.81173259775099	near	V4
4	5.0	ltm	256	diff_vonmises	-0.0917001645991844	-5.254032412188228	2.477213073010008	0.77712868107188	2.595761348277209e-13	1.5850535266522867	0.2032704031147096	-0.2490564253850668	0.4523268284997764	87.38841021600638	near	V3ab
5	6.0	ltm	256	diff_vonmises	0.3530306111009899	20.227164055011027	0.6627099774710362	121.67998917117396	0.6507688430267334	122.47877269604896	0.0564692566682154	-0.2057915916436865	0.262260848311902	103.03789973569164	near	IPS0
6	7.0	ltm	256	diff_vonmises	-0.0249969014151977	-1.4322169519954262	1.9101741509130048	1.041314795764185	0.3380575602796468	2.3467760697727216	0.0133510567755211	-0.2871131151654482	0.3004641719409694	80.25420219060743	near	LO1
0	1.0	ltm	257	diff_vonmises	1.0524222878839935	60.29935536125494	1.0816506253764326	85.37102287835023	1.052184032955717	87.43831841017537	-0.2436903849125209	-0.4200409153047157	0.1763505303921948	83.97814699108199	near	V1
1	2.0	ltm	257	diff_vonmises	-0.048918320601015	-2.802813311306031	21.33516344546496	0.2704243595124153	0.1829807046258015	1.461633306263576	0.218258091285521	-0.2622359454962092	0.4804940367817302	28.801215685947227	near	V2
2	3.0	ltm	257	diff_vonmises	-0.0142750554724997	-0.8179004308893623	1.8403543634146504	31.77555896229989	1.7825295698757784	32.05201569783874	0.1667013800148531	-0.129993418709315	0.2966947987241681	65.43882473661395	near	V3
3	4.0	ltm	257	diff_vonmises	-0.1662477196310115	-9.525292688531168	1.276164791181884	136.69677595964384	1.2577679934514523	137.9786304921877	-0.0399716389651416	-0.3022428873793004	0.2622712484141587	68.9830163195445	near	V4
4	5.0	ltm	257	diff_vonmises	-0.0884286696939935	-5.066589561422239	3.6752976468573126	0.6556297689132791	5.104855555643899e-15	1.7532949072654491	0.2021470659253735	-0.2787365229718221	0.4808835888971957	71.50112647232308	near	V3ab
5	6.0	ltm	257	diff_vonmises	-0.2561733332279504	-14.67765081776001	1.1467233100222551	64.93691083673393	1.1111071189694317	66.00107576119699	0.0455603530017256	-0.261774430914663	0.3073347839163887	76.54311464394948	near	IPS0
6	7.0	ltm	257	diff_vonmises	0.0334249340238334	1.9151076500688824	1.6552562007856548	226.10551517643344	1.640055632629079	227.2890483281824	0.0410376295217247	-0.3380259086401267	0.3790635381618514	62.56352065353579	near	LO1
0	1.0	ltm	258	diff_vonmises	0.0120365432921252	0.6896431305652793	6.387020023344737	0.3766953637367469	0.049897542280423	1.947067022215522	0.0461628016633878	-0.3105625527262863	0.3567253543896742	52.65540815158778	near	V1
1	2.0	ltm	258	diff_vonmises	0.1965499746599812	11.2614840114202	4.22697587357971	0.9410934032550812	0.9236442737236918	1.572353392121979	0.2310844653166394	-0.2369055121342903	0.4679899774509297	55.304411501505285	near	V2
2	3.0	ltm	258	diff_vonmises	0.1840777384746847	10.546877516912366	6.263038001215411	0.4662015628955526	0.5960150928989492	0.7532352293993094	0.2558160292536589	-0.1291959498083395	0.3850119790619984	50.240370781295496	near	V3
3	4.0	ltm	258	diff_vonmises	-0.028111274524314	-1.6106573869768237	1.4638074211387224	79.18230560380469	1.4285950091684514	80.06205415583878	0.1231164749790636	-0.2600873892768636	0.3832038642559272	69.48685120369228	near	V4
4	5.0	ltm	258	diff_vonmises	-0.0266337964138366	-1.5260041269235085	2.171917357352773	0.860136232129986	2.9034616725705386e-12	1.0133164794892031	0.3050067476418925	-0.1552180054794432	0.4602247531213357	93.25114960866998	near	V3ab
5	6.0	ltm	258	diff_vonmises	0.2522055630258097	14.45031433109958	1.1315721001165842	54.21224489023536	1.1117051686007848	54.22113017839793	0.1978675643710978	-0.0731874931999154	0.2710550575710133	88.76347141269343	near	IPS0
6	7.0	ltm	258	diff_vonmises	-0.0597057116324288	-3.420885289363316	0.556276433386095	45.64168588855455	0.5218522610295331	46.38220186236449	0.1095480009634801	-0.2365587193872222	0.3461067203507024	116.83670851020258	near	LO1
0	1.0	ltm	259	diff_vonmises	-0.1110635708258304	-6.363473865972385	10.317191506355966	0.2113183674952996	0.044384955865038	2.799714236211758	-0.1982867694860485	-0.4538794732663918	0.2555927037803432	41.21214485435334	near	V1
1	2.0	ltm	259	diff_vonmises	0.0809794908401554	4.639783052259217	5.595310639615466	0.5678637343234868	0.3019490788229072	1.6670753788119284	0.1718415291204135	-0.2746401494766556	0.4464816785970691	53.323796307132	near	V2
2	3.0	ltm	259	diff_vonmises	0.0535679400313159	3.069216881004295	2.9666086911668565	1.261406681614759	1.1329867561169136	1.5908961830400028	0.2375272932541391	-0.1610770918673307	0.3986043851214699	62.63285057744619	near	V3
3	4.0	ltm	259	diff_vonmises	-0.0411715453578478	-2.358955785036121	1.3408990662014744	229.57209562820003	1.3255015860163608	230.7486010290487	0.1656983416334441	-0.3380669463971451	0.5037652880305892	72.57936925399042	near	V4
4	5.0	ltm	259	diff_vonmises	-0.1012606549271783	-5.801808158057924	2.7351886955416798	0.7723500092952069	3.126952387585615e-18	1.7149200603088666	0.2067553381758307	-0.2709186007094041	0.4776739388852349	83.14462257829496	near	V3ab
5	6.0	ltm	259	diff_vonmises	0.2166704667384237	12.414303289241364	0.7402326487167832	121.18628472583116	0.7286734937702788	121.95946570719376	0.0430678797949184	-0.1896708260244253	0.2327387058193437	96.53462320854284	near	IPS0
6	7.0	ltm	259	diff_vonmises	-0.0003273444142642	-0.0187554533845262	0.9839704496687864	101.59619882543278	0.9645562554884504	102.5075400145699	0.0686177185270011	-0.2279648011160606	0.2965825196430618	83.85991826312906	near	LO1
0	1.0	ltm	260	diff_vonmises	0.0119680778456773	0.6857203494413325	4.494915254822009	0.3551109993965542	3.5505937526484113e-16	1.891924725739441	-0.0102752309113215	-0.3010729085323873	0.2907976776210658	64.485448629459	near	V1
1	2.0	ltm	260	diff_vonmises	0.1611039138205315	9.230574324955787	7.808704847344421	0.5459650427947297	0.6872330781563829	1.2325473893043783	0.2504924364831367	-0.2380328711314367	0.4885253076145734	44.23087038439368	near	V2
2	3.0	ltm	260	diff_vonmises	0.1630175131740014	9.34021549158858	1.92151461310996	77.98637851187796	1.8984919974210288	78.2447831184064	0.1568747356003115	-0.1246695584726946	0.2815442940730062	63.60304841624614	near	V3
3	4.0	ltm	260	diff_vonmises	0.0365582960718798	2.094636071108409	1.449014304068155	50.69024141030883	1.400312903999297	51.64685655880023	0.0409890897955236	-0.2554933240243437	0.2964824138198674	67.75044162683687	near	V4
4	5.0	ltm	260	diff_vonmises	-0.0059646721240732	-0.341750538888731	2.216157280948731	0.8104082781495683	1.7587798677026702e-10	1.0499857081871529	0.2775629581213385	-0.1618241910092821	0.4393871491306206	92.3382841102102	near	V3ab
5	6.0	ltm	260	diff_vonmises	0.4162057050655936	23.846830309525224	0.8517702803829114	94.0434453399368	0.8397639227618723	94.21022848971892	0.1635683380372015	-0.1037713850469073	0.2673397230841088	98.84476054417864	near	IPS0
6	7.0	ltm	260	diff_vonmises	-0.0097980428513931	-0.561386502873153	0.8720580713351643	40.215493396393576	0.8292897348532198	40.94505458491912	0.102554028847777	-0.2002899936370221	0.3028440224847992	91.97429098285711	near	LO1
0	1.0	ltm	261	diff_vonmises	-0.0144754589410541	-0.8293827038373159	6.261267269740101	0.5840587772479622	0.2205707006200759	3.0289454095976933	-0.0234207811951554	-0.5077391230089087	0.4843183418137532	50.17338672386458	near	V1
1	2.0	ltm	261	diff_vonmises	0.0523650648477864	3.00029720970703	2.9657742408079604	1.6026036192913231	0.8299987292003892	2.622342676264537	0.2315070673639814	-0.3230506415057972	0.5545577088697786	63.23268843842189	near	V2
2	3.0	ltm	261	diff_vonmises	-0.1095358393289946	-6.275941298974487	1.393370841854476	123.06848353511867	1.3725007133908529	123.52854751812312	0.2710138852916799	-0.1983123615823316	0.4693262468740116	75.55599286213734	near	V3
3	4.0	ltm	261	diff_vonmises	-0.1163856119977857	-6.668404363520279	1.8334017648629348	2.567588139336998	0.6659011728178614	3.56685969245987	0.2646912970978061	-0.3097048889960609	0.5743961860938671	78.48570585899196	near	V4
4	5.0	ltm	261	diff_vonmises	0.0174287573295427	0.9985942371405014	1.7891238256699211	1.7275638669523954	0.2724169404583194	1.973682230844095	0.428027824410842	-0.215065328623213	0.643093153034055	92.68598733187366	near	V3ab
5	6.0	ltm	261	diff_vonmises	0.2459644572289276	14.092725309443605	0.6103761433185718	52.42739946877571	0.5885455824084938	52.49321295939379	0.1992762467353497	-0.1232427554117725	0.3225190021471222	118.22689233904714	near	IPS0
6	7.0	ltm	261	diff_vonmises	-0.0706899283688987	-4.050234549620005	0.5291948476890558	91.5823585628632	0.5119516219472914	92.12766038734098	0.1602931572570405	-0.223662641138354	0.3839557983953945	121.02510747859203	near	LO1
0	1.0	ltm	262	diff_vonmises	-0.1581359760680947	-9.06052401788362	9.961173684431024	0.1786648091363506	3.990123085399762e-10	3.70167607910433	-0.3671445518457252	-0.5891400449848865	0.2219954931391612	43.005722988161466	near	V1
1	2.0	ltm	262	diff_vonmises	0.0706740052768996	4.049322223651656	4.269968126655469	0.6839884430024572	0.2515483892822806	2.238793477604058	0.0938367349920609	-0.3513486625807033	0.4451853975727642	60.03054684783973	near	V2
2	3.0	ltm	262	diff_vonmises	0.0992238218092965	5.685106216830824	5.4550365471110425	0.5045272872289434	0.2038977781031405	1.163851893995333	0.2333879221568059	-0.1852628013418616	0.4186507234986676	55.699992412895085	near	V3
3	4.0	ltm	262	diff_vonmises	-0.1092414007846052	-6.259071213055001	0.9877629776286616	155.25532917885585	0.9645609739952818	157.2282588709951	0.0218429243216178	-0.4526873566995526	0.4745302810211704	81.21752116572458	near	V4
4	5.0	ltm	262	diff_vonmises	-0.1121385384036412	-6.425064971294341	2.571606828904374	0.8525152099270769	3.962355734800837e-15	2.0175976673163976	0.1896794673995561	-0.3181277697910484	0.5078072371906046	85.77043124481222	near	V3ab
5	6.0	ltm	262	diff_vonmises	0.1845974676904596	10.576655807465912	0.9035482134242558	113.97356986542272	0.8878557039232148	114.74734394836304	0.0927671975910868	-0.2054705451587377	0.2982377427498246	88.99643617451082	near	IPS0
6	7.0	ltm	262	diff_vonmises	0.0331524166904786	1.8994935570234937	0.9194778477086692	153.152136921953	0.9039489168630938	154.59192858579013	-0.0130404549583502	-0.318133205370092	0.3050927504117418	83.06256526551971	near	LO1
0	1.0	ltm	263	diff_vonmises	0.0412881012672676	2.365633946723181	7.6104287529019325	0.5003627890083819	0.0738657136024946	4.019136672323302	-0.1468262993538927	-0.6523743338643362	0.5055480345104435	47.5180341894874	near	V1
1	2.0	ltm	263	diff_vonmises	0.0716229745562148	4.103694158243992	3.900142376370299	1.001514985371971	0.3841699345690293	2.4424715649911923	0.2091279785036559	-0.3717953411040907	0.5809233196077467	61.33019574099765	near	V2
2	3.0	ltm	263	diff_vonmises	-0.0396830096702296	-2.273668972480991	2.084071695907753	2.490562152766884	0.8128571348283226	3.566399869869357	0.2254667764770104	-0.3234375118418611	0.5489042883188715	71.81240153992422	near	V3
3	4.0	ltm	263	diff_vonmises	-0.0850272467049142	-4.8717023798092205	1.2852480917595737	5.870490690085764	0.6655155876471414	7.715931061874058	0.1725909565447905	-0.4694586553472497	0.6420496118920402	85.18007324814388	near	V4
4	5.0	ltm	263	diff_vonmises	-0.03326423534671	-1.9059002940963772	1.6437802530994885	1.6125624405980783	0.0819106054714956	2.6010102762781817	0.2898793367597932	-0.3531917756709167	0.64307111243071	101.53441872581068	near	V3ab
5	6.0	ltm	263	diff_vonmises	0.2828698075335233	16.207246123348785	0.5587522913313946	154.55176312599917	0.5472690050470405	155.37072925789482	0.1248375540621893	-0.2609538533953515	0.3857914074575408	115.38298270309974	near	IPS0
6	7.0	ltm	263	diff_vonmises	-0.0816553525029248	-4.678507073070599	0.94684395630922	1.7034263847729656	8.344391699551189e-15	3.240766934007293	0.0491204559221769	-0.4307545436520812	0.4798749995742582	130.78038462189153	near	LO1
0	1.0	ltm	264	diff_vonmises	-0.2882235648022415	-16.513993819383824	11.638570604954422	0.1723276040004822	0.0199842944191838	2.5858315429280028	-0.1879948379389782	-0.414950063956279	0.2269552260173007	39.277700092302354	near	V1
1	2.0	ltm	264	diff_vonmises	-0.0113171518127778	-0.6484250349810015	6.555826211562415	0.4983363977417034	0.2286372242043106	1.7810367714987103	0.1468083561733768	-0.2968723022158028	0.4436806583891796	50.09191866479577	near	V2
2	3.0	ltm	264	diff_vonmises	-0.1221505932331402	-6.998713457278208	3.54154212439077	0.5006294923427325	1.4448216671381603e-16	0.8111044871513806	0.2308767605936474	-0.1287892101785503	0.3596659707721977	72.8745807787746	near	V3
3	4.0	ltm	264	diff_vonmises	-0.0717064659401718	-4.108477862170431	1.251994674528744	78.27848846037406	1.2107472511098163	79.4022215295399	0.1652910039118467	-0.3178240743947285	0.4831150783065752	75.83109604653137	near	V4
4	5.0	ltm	264	diff_vonmises	-0.0258591888367747	-1.4816223819790062	2.7407424490266687	0.9164066060879852	1.926133627881689e-17	1.4982239857875708	0.3313375130436325	-0.2360771877583916	0.5674147008020243	83.06583893312944	near	V3ab
5	6.0	ltm	264	diff_vonmises	0.2675963727321533	15.33214277056205	0.7018661088646023	93.93956579867536	0.6890343968678452	94.29150265683884	0.1302882892197452	-0.1391123538147303	0.2694006430344755	105.87284282705508	near	IPS0
6	7.0	ltm	264	diff_vonmises	0.0165893174206684	0.9504978732071536	1.007276399506957	108.97761974883196	0.9922398999011612	109.54366780267026	0.1174009143808731	-0.1675740259601337	0.2849749403410069	85.81658115017984	near	LO1
0	1.0	ltm	265	diff_vonmises	-0.4077188025737211	-23.360566615601865	12.025401014469931	0.1433776574124786	3.053674796269881e-40	2.496101417467765	-0.2011039060148171	-0.3972668790416395	0.1961629730268223	39.105890402057526	near	V1
1	2.0	ltm	265	diff_vonmises	-0.0138103513423791	-0.7912748455111572	11.591640119661678	0.3289308510471666	0.0805515708637753	1.6945264995352187	0.1498786270725666	-0.279098412561827	0.4289770396343936	39.17774611007067	near	V2
2	3.0	ltm	265	diff_vonmises	-0.0641777549697587	-3.677114498391919	4.229095541646951	0.4340088670640697	0.0736883087237896	0.8607404593909415	0.1966663925730332	-0.1326626890962468	0.3293290816692801	64.93957529173869	near	V3
3	4.0	ltm	265	diff_vonmises	-0.0440345360214906	-2.5229930668482066	1.2211750965000312	83.82972412754555	1.1846281995936134	85.13008679781441	0.0763216833194349	-0.3314504069673898	0.4077720902868247	74.55750169058686	near	V4
4	5.0	ltm	265	diff_vonmises	-0.0444142993433906	-2.544751902406949	2.539273660556633	0.8741212240660347	2.9751913020004833e-16	1.7044763906674527	0.2485893817368516	-0.2680371087314206	0.5166264904682722	86.32204182567926	near	V3ab
5	6.0	ltm	265	diff_vonmises	0.3066013086707166	17.566960980019875	0.6493920990491441	120.654450461629	0.6379022328228825	121.3001868696978	0.0872326516507442	-0.1877116736522559	0.2749443253030001	106.25552217720346	near	IPS0
6	7.0	ltm	265	diff_vonmises	0.041123079948254	2.356178921614023	1.1217491049280863	148.16800795083626	1.10743925823573	148.99479301970774	0.0970048729484105	-0.221616940412467	0.3186218133608776	79.26370664905687	near	LO1
0	1.0	ltm	266	diff_vonmises	-0.2481028331369531	-14.21524522398592	0.5850131687875084	87.76648749854212	0.5492847944914575	91.43804147524548	-0.3484400884773251	-0.6832362916427215	0.3347962031653964	95.75150978332378	near	V1
1	2.0	ltm	266	diff_vonmises	0.115946584170597	6.64324992193357	9.858159871196388	0.4967880991399548	0.082058907572644	2.237937628399908	0.2278788782197547	-0.3662656106875624	0.5941444889073173	42.44592827493332	near	V2
2	3.0	ltm	266	diff_vonmises	0.0492258970877214	2.820436145871767	3.0558798866624564	0.879799426566883	0.3733229267784103	2.021099902588114	0.1309327659621315	-0.2854221612621174	0.4163549272242489	67.80304812854175	near	V3
3	4.0	ltm	266	diff_vonmises	0.0123235900055535	0.7060896957678207	1.7169632467501228	2.023484390079003	0.3278270786688277	4.282655113027275	0.0303627673383598	-0.5003412289835568	0.5307039963219167	84.0979788860842	near	V4
4	5.0	ltm	266	diff_vonmises	-0.0532297724461994	-3.049841305608987	1.5372707367805896	1.2935765177966492	1.161786896443091e-15	2.554597063270033	0.1621405793668882	-0.380295829826743	0.5424364091936312	109.30431010696172	near	V3ab
5	6.0	ltm	266	diff_vonmises	0.5789646512943003	33.17223100642682	0.5325471550373215	207.27985091066225	0.5223647328409217	208.61739247253843	0.06045150514813	-0.3503903963163708	0.4108419014645008	114.26047499864882	near	IPS0
6	7.0	ltm	266	diff_vonmises	0.0504249826946951	2.8891386904262446	1.9751275440034832	0.8001860479584043	2.054964215158181e-17	2.6706488656981957	-0.0153565820839909	-0.4171604557127462	0.4018038736287552	97.5912493392319	near	LO1
0	1.0	ltm	267	diff_vonmises	0.0194653508044583	1.115282447837045	3.566633914695409	0.32390877186217	1.8473577395932746e-16	3.4239946839280035	-0.3111328234171345	-0.5447590686860216	0.2336262452688871	72.61197014321712	near	V1
1	2.0	ltm	267	diff_vonmises	0.0527202350395623	3.020646962704642	13.120249424085896	0.3618511664822862	0.071904212253117	1.863789468800071	0.1993930528595838	-0.3068094670869992	0.5062025199465829	36.93850613311884	near	V2
2	3.0	ltm	267	diff_vonmises	0.0138879706393372	0.7957221036356271	2.4321321227454327	1.4903687932662564	0.7694571448929228	2.434260523269401	0.1392859698038649	-0.2682274004115708	0.4075133702154357	67.7981673613119	near	V3
3	4.0	ltm	267	diff_vonmises	-0.2260172855220774	-12.949836557418324	0.917568981173493	175.7861125109303	0.9003393058347585	177.86784355836517	-0.0953671411965899	-0.4367040501191681	0.3413369089225782	80.63707422440127	near	V4
4	5.0	ltm	267	diff_vonmises	-0.098071271609524	-5.619069954706901	2.2584709605478843	0.9655965223392676	1.3884949043616408e-15	2.360685363126761	0.1601220615966869	-0.3698615502647202	0.5299836118614072	91.47952519949416	near	V3ab
5	6.0	ltm	267	diff_vonmises	0.271728607696369	15.568902393968	0.5219269230245166	161.64298832270353	0.5099431425690465	163.03521370146413	0.0168006530479516	-0.340273524194755	0.3570741772427066	114.05891856133502	near	IPS0
6	7.0	ltm	267	diff_vonmises	-0.0079181557864578	-0.4536769080911276	1.0876324265910096	303.60325182107624	1.07588776836226	305.74801841188213	-0.0945883675762644	-0.470783694323245	0.3761953267469806	73.91958608810458	near	LO1
0	1.0	ltm	268	diff_vonmises	0.3298759612610228	18.90050034307765	0.160156148846404	4.559111746527119	2.1433648012249543e-11	5.296749188329739	0.0031995239503802	-0.2287256462252418	0.2319251701756221	167.95463825974412	near	V1
1	2.0	ltm	268	diff_vonmises	0.2069548124631608	11.857637304060564	6.069287824731982	0.5437577232551204	1.008850932340328	0.8804875477276534	0.2200683339685332	-0.1580525464828981	0.3781208804514314	48.182896750741975	near	V2
2	3.0	ltm	268	diff_vonmises	0.1434967769510121	8.221759693023147	2.51445484622266	65.25611443174928	2.487339908379731	65.33171426414962	0.2005835125531518	-0.0949277639085028	0.2955112764616547	57.50770868658111	near	V3
3	4.0	ltm	268	diff_vonmises	0.1312097503609646	7.517764926648402	2.210954771447608	96.40327305677197	2.180313657671625	96.8958834752047	0.1716126725739641	-0.2143963646266335	0.3860090372005977	57.58053682111253	near	V4
4	5.0	ltm	268	diff_vonmises	-0.0320767264646449	-1.8378610470197487	1.7129892847852437	0.840130384687114	6.443421087613093e-15	0.952173714729439	0.2429500635003158	-0.1387150659928792	0.3816651294931951	104.23520526650162	near	V3ab
5	6.0	ltm	268	diff_vonmises	0.3590414132170408	20.571557647749053	1.0301385080532302	86.89933578467954	1.017702831415844	87.02121950292528	0.1619162512700001	-0.0863910850336751	0.2483073363036751	90.49302668297511	near	IPS0
6	7.0	ltm	268	diff_vonmises	0.0065297275316325	0.374125828932922	1.6977537692816789	0.8489912141230083	0.118034239474604	1.2820676496137475	0.167666831454968	-0.1674080781911268	0.3350749096460947	98.5609546016458	near	LO1
0	1.0	ltm	269	diff_vonmises	-0.1336696403075149	-7.658706238652396	5.739729426885613	0.2038175944430277	6.235407681851245e-28	1.6577278804164444	-0.0737056556046329	-0.2638336200630216	0.1901279644583886	56.90492635030398	near	V1
1	2.0	ltm	269	diff_vonmises	0.0630386689374924	3.6118496762407606	7.843021723226855	0.4285743239956575	0.4983770951210642	1.1797436768017386	0.1798836856207389	-0.2185416378715209	0.3984253234922599	44.76662306409469	near	V2
2	3.0	ltm	269	diff_vonmises	0.050050248206111	2.867667985792381	1.992422192992152	28.849938034278903	1.9409584621616147	28.92062377377957	0.1975425177377427	-0.0851114606275711	0.2826539783653139	65.50685601512399	near	V3
3	4.0	ltm	269	diff_vonmises	-0.0272722837942437	-1.5625867590931972	1.5304172769305766	105.20089927566804	1.5060948695244982	105.98821615868572	0.1040014438472027	-0.2358370606356441	0.3398385044828469	67.56672065738942	near	V4
4	5.0	ltm	269	diff_vonmises	-0.004330276422025	-0.2481065631070461	2.735115960885314	0.7803068923213409	5.317905436692334e-19	1.024580349753209	0.3215562405130544	-0.1610265347857148	0.4825827752987693	83.14972905577068	near	V3ab
5	6.0	ltm	269	diff_vonmises	0.2836168698789703	16.250049642776045	0.7917535191826693	76.424048854136	0.778111845419104	76.57171781753271	0.1548726426390843	-0.0998639057989905	0.2547365484380748	102.74756441751497	near	IPS0
6	7.0	ltm	269	diff_vonmises	-0.0172482732298339	-0.988253259957966	1.1300424467752872	122.14030709824142	1.116523665257043	122.61229065667423	0.1366304139271861	-0.1533160013710652	0.2899464152982514	81.86671595944986	near	LO1
0	1.0	ltm	270	diff_vonmises	0.0407464457687565	2.33459937270844	8.844985605842833	0.6273419894101873	0.1881866270879192	4.33636192837735	-0.0926276416165524	-0.7451956710136973	0.6525680293971449	43.01507363450008	near	V1
1	2.0	ltm	270	diff_vonmises	0.11011658424945	6.309215531890246	3.692824766400005	1.1087093106386148	0.5561484722873364	2.285325642315944	0.2278703684883543	-0.3368578524729017	0.564728220961256	60.930611746072486	near	V2
2	3.0	ltm	270	diff_vonmises	0.0210004811623394	1.203238938346039	2.553156757732204	1.846493629305889	0.9073192838120128	2.6067610254388685	0.2568574195618575	-0.2659841051147042	0.5228415246765616	66.79257840371244	near	V3
3	4.0	ltm	270	diff_vonmises	-0.1245546327963846	-7.136454778034589	1.0363893971891749	250.9008094718104	1.0195598114346127	252.6265479882824	0.2006684898951078	-0.4572710959033941	0.657939585798502	82.68819181946472	near	V4
4	5.0	ltm	270	diff_vonmises	-0.0788671752277644	-4.518756282669622	2.2819215683495804	1.0635028187805593	6.192890670557488e-19	1.9659795213367115	0.2808982719885207	-0.3067058874609644	0.5876041594494852	91.02019065115825	near	V3ab
5	6.0	ltm	270	diff_vonmises	0.2254269689819054	12.9160139110897	0.7096627179797592	75.31102463081434	0.6884123914497933	75.97209524404612	0.1183689937241609	-0.2007264976187173	0.3190954913428783	102.80482110534751	near	IPS0
6	7.0	ltm	270	diff_vonmises	-0.1420936263050272	-8.141365082987154	1.1497155467491766	1.1810892974971614	1.5920022261624886e-05	2.623967639452242	0.0191585775803881	-0.3737942218915167	0.3929527994719048	122.4743099679704	near	LO1
0	1.0	ltm	271	diff_vonmises	0.1150388046292474	6.591237985485914	1.4431591537338575	0.6363354783768533	4.2329726818246914e-15	1.273724964897194	0.0665365571355072	-0.1876990869869419	0.2542356441224491	112.20063466334152	near	V1
1	2.0	ltm	271	diff_vonmises	0.1014863610046913	5.814740163709869	3.2317031466262183	0.8310351247897072	0.9087794638586856	1.208858026873178	0.175570050537608	-0.1484683506108069	0.324038401148415	61.96448275896185	near	V2
2	3.0	ltm	271	diff_vonmises	-0.0345385023752576	-1.97891041680483	1.9326893384922104	138.66451123103062	1.917867538353392	138.91407731784116	0.2007391248963586	-0.136502243952723	0.3372413688490816	64.02399215023081	near	V3
3	4.0	ltm	271	diff_vonmises	0.006651074307101	0.3810784870247875	1.9425961503977895	110.80096839988798	1.919569802890277	111.26191528770252	0.1724501709361519	-0.1900534773754554	0.3625036483116073	61.94032838042111	near	V4
4	5.0	ltm	271	diff_vonmises	0.0625169372771552	3.581956654065084	0.6077834399440232	44.127098654449824	0.5708796706875443	44.144377382201526	0.3033721071204471	-0.1707966480957088	0.474168755216156	119.92024985381272	near	V3ab
5	6.0	ltm	271	diff_vonmises	0.1443564916945498	8.27101771941303	0.6088280238083624	51.96166731406664	0.5866168378325834	52.023030748123	0.2022481201252901	-0.1240793067318417	0.3263274268571319	118.54779753655006	near	IPS0
6	7.0	ltm	271	diff_vonmises	-0.0827091500169673	-4.7388852230866085	0.71505732657908	54.22902964825829	0.6795901683848751	54.65030393672026	0.2482972488789592	-0.2110087254220634	0.4593059743010226	107.34563318699388	near	LO1
0	1.0	ltm	272	diff_vonmises	0.3092610523270107	17.71935306611222	0.0001959857433091	4441.002333552983	1.367491297881236e-31	4444.792264975017	-0.4646570070373172	-0.7417020588231935	0.2770450517858762	176.958772747607	near	V1
1	2.0	ltm	272	diff_vonmises	0.1127007780359332	6.45727892929966	8.698140084849886	0.4180518313044051	0.0227554654378604	2.592316298154753	0.0622401687786526	-0.4142535701641407	0.4764937389427934	45.63519042285788	near	V2
2	3.0	ltm	272	diff_vonmises	0.1966361972503248	11.26642420194558	7.062075696314732	0.4054124639187321	1.82112387618383e-46	1.4236929184278615	0.1950134575811818	-0.2265874557227317	0.4216009133039137	51.2012070502023	near	V3
3	4.0	ltm	272	diff_vonmises	0.1546263429572058	8.859436852990315	5.588816578766086	0.664107257672984	0.0855824280453685	3.2666169948612653	0.0455914752947347	-0.5210039090562651	0.5665953843509999	55.38471706771358	near	V4
4	5.0	ltm	272	diff_vonmises	-0.0571294883172601	-3.2732785663209505	1.6330556846899054	1.1243490119329682	2.5288829743081822e-14	2.1398801992677687	0.1722347219787411	-0.3210058768757883	0.4932405988545295	106.47197889577558	near	V3ab
5	6.0	ltm	272	diff_vonmises	0.4989921981067723	28.590146961473923	0.9402778357637124	154.68131226854987	0.9290622612215392	155.28594949886224	0.1312928349172963	-0.1818263411519538	0.3131191760692502	89.06058185824045	near	IPS0
6	7.0	ltm	272	diff_vonmises	0.3021393772312159	17.311311140059754	2.811212058726115	0.5543587272458039	2.699416247715592e-28	1.839542748068868	0.0570173475523562	-0.2915074241226497	0.3485247716750059	81.96932963330008	near	LO1
0	1.0	ltm	273	diff_vonmises	-0.0221697815118114	-1.270234913353956	7.775334616377852	0.406728523701099	0.1074472752928515	4.102268174643241	-0.2802008234635078	-0.6778416271998609	0.3976408037363531	46.00241984347269	near	V1
1	2.0	ltm	273	diff_vonmises	0.1196317536047027	6.854394577298441	5.395366480540101	0.7139646070514881	0.3633303954175109	2.074254842769188	0.1851724758234828	-0.3441558411662763	0.5293283169897591	53.41807480015464	near	V2
2	3.0	ltm	273	diff_vonmises	0.0945662137834515	5.418244934323645	4.157887727900138	0.6677829254218218	0.453000739006865	1.2825115234571132	0.2190926343341365	-0.1941139487017051	0.4132065830358417	60.13922542164178	near	V3
3	4.0	ltm	273	diff_vonmises	-0.1404843253354523	-8.049158929464204	0.9677963348649272	180.4182601388129	0.947470497677958	182.32580206707303	0.0632117380346173	-0.4498501952628473	0.5130619332974646	83.0466695872338	near	V4
4	5.0	ltm	273	diff_vonmises	-0.0829608319674579	-4.753305536629343	2.6322217682414424	0.8445918486848387	7.619072376220046e-14	1.7524830171011552	0.2340794949331389	-0.2762628522271655	0.5103423471603046	84.7712339564545	near	V3ab
5	6.0	ltm	273	diff_vonmises	0.293617059262924	16.823018288808118	0.8420774970785047	111.55156214272915	0.8282652693456682	112.16759807119256	0.1037262646411036	-0.1763057830272654	0.2800320476683691	93.49148632912416	near	IPS0
6	7.0	ltm	273	diff_vonmises	0.0157019091310514	0.8996531235071804	0.7860649753684191	88.43958668712783	0.7630248581729471	89.79849345771433	-0.0139162400130707	-0.2965435766461777	0.2826273366331069	90.4077101436378	near	LO1
0	1.0	ltm	274	diff_vonmises	-0.5455957725582955	-31.26033508776991	0.0005342147409073	950.308073402978	1.2985466994450334e-24	953.5589717187106	-0.4365886178325411	-0.598182874203701	0.1615942563711598	171.64837216498893	near	V1
1	2.0	ltm	274	diff_vonmises	-0.0314261654141847	-1.8005866445127836	10.705029116166182	0.3657034503334211	3.562632217450725e-16	2.2155088513033503	0.1188776875103729	-0.3526091849114979	0.4714868724218709	41.46777353395507	near	V2
2	3.0	ltm	274	diff_vonmises	-0.0813257130741731	-4.6596201250420215	4.430461482435821	0.4976171075111888	1.5853666953804114e-12	1.340518903349807	0.1910309055263449	-0.2132928498179301	0.4043237553442751	64.96496712730638	near	V3
3	4.0	ltm	274	diff_vonmises	-0.0952992791106827	-5.460246483681369	1.5347171345121031	2.82361414517066	0.5654223653727132	4.7587063740809565	0.0074889171261807	-0.4332502829034187	0.4407392000295995	79.7607116320107	near	V4
4	5.0	ltm	274	diff_vonmises	-0.0757128969678359	-4.338029450965847	2.387802937455265	0.9923168071180436	6.6596092151544616e-18	2.344902011811625	0.1959862934104601	-0.3684023913736731	0.5643886847841333	89.0037419696325	near	V3ab
5	6.0	ltm	274	diff_vonmises	0.2712863412295609	15.543562391999735	0.5913251064276681	149.74788158444014	0.5795530017800277	150.86341617085714	0.0412245668084381	-0.2774169304047493	0.3186414972131874	107.95987024782627	near	IPS0
6	7.0	ltm	274	diff_vonmises	0.041282456958768	2.365310551667887	1.065438191622181	210.87748290423036	1.0523402491268303	212.28286530618817	0.0254059107841584	-0.3304642848576868	0.3558701956418453	78.15455063289093	near	LO1
0	1.0	ltm	275	diff_vonmises	-0.0729978596240837	-4.182469269948435	1.4275813436255669	0.5488153862917421	1.036604028707466e-12	2.750080548352112	-0.2069741190391102	-0.4244119016598196	0.2174377826207094	112.74644760680164	near	V1
1	2.0	ltm	275	diff_vonmises	0.0110761605609963	0.6346172533543452	6.321215410904454	0.4344579471310465	0.0833663789987335	1.80069626122289	0.1153968792308076	-0.2883963521868519	0.4037932314176595	52.57414953583026	near	V2
2	3.0	ltm	275	diff_vonmises	-0.0489613678231132	-2.8052797354520207	3.6122377933151633	0.6988671784800193	0.3286911825591693	1.4798778437091944	0.1895086204533908	-0.2173732235580569	0.4068818440114478	64.9868567571398	near	V3
3	4.0	ltm	275	diff_vonmises	-0.0777241376375942	-4.4532650529280655	1.5451518203516257	3.657842281117113	0.8108861366195858	5.097652772635675	0.0546505760554785	-0.3497895200033332	0.4044400960588117	75.44546315225554	near	V4
4	5.0	ltm	275	diff_vonmises	-0.0345395479691696	-1.9789703249230763	1.7189654700121857	1.1930955370837093	1.169806644521464e-13	2.1749598502897007	0.2152696268714324	-0.3281163978093248	0.5433860246807573	104.07011903967172	near	V3ab
5	6.0	ltm	275	diff_vonmises	0.2029418775926846	11.6277130725214	0.5897057962293515	134.99935284958093	0.5771956061867662	135.84663857056296	0.0977557117778218	-0.2465733174063284	0.3443290291841503	111.29505828859116	near	IPS0
6	7.0	ltm	275	diff_vonmises	-0.0459190704510942	-2.6309689360115898	0.8835965962659543	170.33715720518012	0.868771721714359	171.57678888257257	0.0887470706100259	-0.3074524613335043	0.3961995319435303	88.54943101278087	near	LO1
0	1.0	ltm	276	diff_vonmises	0.0952522225463974	5.457550341149435	1.0771163994076356	0.8934867773093905	1.1556889940182548e-13	3.339273900916671	-0.2131723370715478	-0.4945403166948139	0.281367979623266	125.356129490059	near	V1
1	2.0	ltm	276	diff_vonmises	0.162302092765821	9.299224921622317	6.80528223821366	0.4781466828873191	0.1971993584962809	1.8632038724367448	0.1300259379372535	-0.3096172946438761	0.4396432325811297	49.43317306026466	near	V2
2	3.0	ltm	276	diff_vonmises	0.1919502690355221	10.997940292136107	10.706660665311006	0.3103812012269532	1.313054905341728e-20	1.1168959491232209	0.2224598214053138	-0.1777595110215453	0.4002193324268591	41.46333395766334	near	V3
3	4.0	ltm	276	diff_vonmises	0.2196197810919995	12.583286554158612	7.223724786154967	0.4377464104423181	0.2304271636044297	2.295072449924443	0.006690135013302	-0.3920595321892111	0.3987496672025132	47.0718739420177	near	V4
4	5.0	ltm	276	diff_vonmises	-0.0545284101451191	-3.1242477648736666	1.5883499747480314	1.0966072377721374	3.567758228023378e-16	1.7614648862444304	0.2114418499223397	-0.2598267751952158	0.4712686251175556	107.77233514882693	near	V3ab
5	6.0	ltm	276	diff_vonmises	0.3515956039126508	20.144944199548267	0.9652234828876732	120.84463853096544	0.9520064676897966	121.23898168318344	0.1719713338030715	-0.1505414096210628	0.3225127434241344	90.39761172557417	near	IPS0
6	7.0	ltm	276	diff_vonmises	0.1105616791890393	6.334717593411342	1.665654804183733	0.820484378680993	7.154481727665581e-12	2.1940379575416378	0.029550561632947	-0.3356525867473638	0.3652031483803108	105.51328777948962	near	LO1
0	1.0	ltm	277	diff_vonmises	0.0610227202402178	3.4963443241720267	10.56455368819684	0.3957832676218565	0.0671052584647206	2.9562885932320757	0.0040553369095392	-0.4834834588198171	0.4875387957293564	40.86340149262136	near	V1
1	2.0	ltm	277	diff_vonmises	0.1348854916065528	7.728369386602766	5.338702653716847	0.7256608326456147	0.4606600155725965	1.651745236759535	0.2560794466759534	-0.2734820294872368	0.5295614761631902	53.53682072853229	near	V2
2	3.0	ltm	277	diff_vonmises	0.0133452860334715	0.7646285661128023	1.7814028719817392	125.22463156116214	1.7564990880350608	125.81173057959718	0.2338469772554106	-0.2361120870112856	0.4699590642666962	65.13475552728883	near	V3
3	4.0	ltm	277	diff_vonmises	-0.0812287979412919	-4.654067296956976	1.2343268120805269	225.42608081582696	1.2188185160566376	226.658200499404	0.1717329580445721	-0.3452785225099468	0.517011480554519	75.83284900378968	near	V4
4	5.0	ltm	277	diff_vonmises	-0.0818873096179905	-4.691797236791891	1.9900303768655443	1.0324528794915524	5.190542250351046e-15	1.8734810683401435	0.2328315423213032	-0.2882516304811589	0.5210831728024622	97.24302494028576	near	V3ab
5	6.0	ltm	277	diff_vonmises	0.2521657497570926	14.448033198833471	0.5946278102027062	112.87208605309348	0.5813719238100097	113.6809871504174	0.0708766472913353	-0.2225955377750441	0.2934721850663795	109.91259813587736	near	IPS0
6	7.0	ltm	277	diff_vonmises	-0.132143366642745	-7.571257199279117	1.6228843149089134	0.8997327970017288	1.805479869758257e-15	2.1592952853382013	0.06513073997311	-0.3277432249342015	0.3928739649073116	106.72867768689906	near	LO1
0	1.0	ltm	278	diff_vonmises	0.2112072009016909	12.101281214438565	0.615781456867872	61.413308600063786	0.5913661796683561	62.78646516072878	-0.0785155735799563	-0.2766727595541818	0.1981571859742255	98.68645070157235	near	V1
1	2.0	ltm	278	diff_vonmises	0.0741691297937508	4.249578107339932	17.56207376420592	0.2786133293230166	0.3496896376567138	1.0133739486932567	0.2403571493571401	-0.1979306097480224	0.4382877591051626	31.386197847507702	near	V2
2	3.0	ltm	278	diff_vonmises	0.1391566079722449	7.973086328166178	2.029366943160233	48.88394933149932	1.9934406255862005	49.12143810337178	0.1507933427421406	-0.1194861748487134	0.2702795175908541	61.94501927703189	near	V3
3	4.0	ltm	278	diff_vonmises	0.0441570787170701	2.530014246115071	1.495825637434399	75.39304002792876	1.4659491853840187	76.38847102340603	-0.0296559019725961	-0.2532207925660845	0.2235648905934883	63.82860787699434	near	V4
4	5.0	ltm	278	diff_vonmises	-0.0179112494324342	-1.0262389982845743	2.497853458797768	0.7578127213057864	1.4980166306717993e-15	1.1238242832395922	0.2675378905409364	-0.1758414276027278	0.4433793181436642	87.03128428669154	near	V3ab
5	6.0	ltm	278	diff_vonmises	0.2566264380142056	14.703611809689615	0.7976887734992675	84.84480767540036	0.7828426050038348	85.12883117672388	0.1552353991841215	-0.128430692089938	0.2836660912740596	100.55017792022642	near	IPS0
6	7.0	ltm	278	diff_vonmises	-0.0438382680770456	-2.5117477419778043	1.2071942507450744	137.9847676876989	1.1908364286901705	138.8378765405548	0.094966560962689	-0.2305123766953087	0.3254789376579978	76.12594967518817	near	LO1
0	1.0	ltm	279	diff_vonmises	-0.0454054729339058	-2.601541965908294	6.657868883790103	0.2589433898918535	1.7286799730850241e-18	2.8090813895760327	-0.1859739897111577	-0.4470787581679729	0.2611047684568151	52.76158008485865	near	V1
1	2.0	ltm	279	diff_vonmises	0.1248820993874334	7.155217231633217	8.470373808083073	0.4777822384118568	0.3034461635609548	1.5627444590945905	0.216779825462595	-0.2753112661964417	0.4920910916590367	44.24320583209101	near	V2
2	3.0	ltm	279	diff_vonmises	0.1013186694534393	5.805132145563127	1.8066003660079264	32.64141993027429	1.734051879194702	33.08805816739575	0.1787177685854164	-0.1799105727676693	0.3586283413530857	65.12216599709464	near	V3
3	4.0	ltm	279	diff_vonmises	-0.0425312101963133	-2.436858841832528	1.2072159423964068	187.92793049168597	1.190488006329464	189.33095716255556	0.0512897238966587	-0.3484791569558929	0.3997688808525517	73.9481781106206	near	V4
4	5.0	ltm	279	diff_vonmises	-0.0912933895128261	-5.230725916528827	2.347373342555745	0.7960113268825013	1.3195200069164537e-17	1.662945508310699	0.1873375716098713	-0.260533088990636	0.4478706606005073	89.75620381332294	near	V3ab
5	6.0	ltm	279	diff_vonmises	0.3554289087544483	20.364576388570327	0.735592357479758	137.18758280482663	0.7245424185066704	137.96219235351884	0.0651963270027309	-0.19963027320453	0.264826600207261	97.9323380188102	near	IPS0
6	7.0	ltm	279	diff_vonmises	0.03930345374524	2.2519220198899035	1.5218173900185386	1.9203817265170984	0.5649596628325663	3.119786410592739	0.0312990037622206	-0.2766701496678868	0.3079691534301074	80.95497913820165	near	LO1
0	1.0	ltm	280	diff_vonmises	-0.0674417624738386	-3.864128352674725	2.432180015348807	0.4227787923888198	3.920783815004041e-19	2.899680257192327	-0.2163328704592063	-0.4596065352810559	0.2432736648218495	88.19156427743766	near	V1
1	2.0	ltm	280	diff_vonmises	0.1035276171631195	5.931695526492897	10.68714926189171	0.4089346837077233	0.1940509465734994	1.6762337985588731	0.205915197246468	-0.2898772836630685	0.4957924809095365	40.15838083907048	near	V2
2	3.0	ltm	280	diff_vonmises	0.0936995894157354	5.368591015630319	2.976031851335556	0.7932599414836129	0.60613550151975	1.3932335267697702	0.1455526772237365	-0.1810045541207007	0.3265572313444372	66.20525638747202	near	V3
3	4.0	ltm	280	diff_vonmises	-0.0182695739342391	-1.0467694799341227	1.693246879076881	2.3166868816997885	0.6598814162393373	3.8542245229036087	0.0128750911634891	-0.354119692135298	0.3669947832987872	75.17746865279915	near	V4
4	5.0	ltm	280	diff_vonmises	-0.0460288201891662	-2.637257132805781	2.002444690192989	0.9391714588183756	3.6690252998235535e-12	1.718744934186284	0.2112965147058229	-0.2647091414688324	0.4760056561746553	96.9631835328062	near	V3ab
5	6.0	ltm	280	diff_vonmises	0.453911345623284	26.00720437731819	0.6911120746748562	162.31705156493325	0.681574772880877	162.9913195329832	0.1053742157475667	-0.1987122044890537	0.3040864202366204	103.2736329790408	near	IPS0
6	7.0	ltm	280	diff_vonmises	0.0631154375279381	3.616248192472464	1.4185658487901718	1.9760203003936283	0.5012917715211073	3.1427882551601	0.0513107957789378	-0.2744988723434921	0.3258096681224299	85.45066081532698	near	LO1
0	1.0	ltm	281	diff_vonmises	-0.4766622216907391	-27.310733556208557	0.5437862275034447	163.44734815461834	0.5266494158968579	167.2385940269289	-0.4281898949395355	-0.6789487785395636	0.250758883600028	93.9321255249774	near	V1
1	2.0	ltm	281	diff_vonmises	0.0941461011102243	5.394174251227768	8.012221653539479	0.4389217370775867	0.0227939985099595	2.430639039711104	0.0916141114642896	-0.3878139319240859	0.4794280433883755	47.56724192008889	near	V2
2	3.0	ltm	281	diff_vonmises	0.1338141519883456	7.666986148054339	6.357257468882661	0.4124372874918111	2.756908346007009e-19	1.3274487566200568	0.1946977238911738	-0.2112688102456718	0.4059665341368457	54.01754469488603	near	V3
3	4.0	ltm	281	diff_vonmises	0.0726902900218387	4.164846829833282	3.15280829135615	1.0167849079430389	0.1840922923810713	3.3682139411406062	0.0459962089322284	-0.5023388197641738	0.5483350286964023	69.53514773459241	near	V4
4	5.0	ltm	281	diff_vonmises	-0.1099365431463633	-6.298899936544494	1.6631123440380278	1.0852651134094875	6.110468602422001e-18	2.373474344758491	0.1227546332591513	-0.3597669780709349	0.4825216113300862	105.5951740704819	near	V3ab
5	6.0	ltm	281	diff_vonmises	0.4695736260738006	26.904586944683043	0.8493333651550332	180.22205348072907	0.8382173310857443	181.20941050915312	0.0753244429023709	-0.2469106383695134	0.3222350812718844	90.48454520238516	near	IPS0
6	7.0	ltm	281	diff_vonmises	0.2471811294551145	14.1624354930549	3.5381495506902825	0.4931758831308059	2.2048635880471798e-20	1.932470351100397	0.0468527900610645	-0.3072627570504818	0.3541155471115464	72.90605823101487	near	LO1
0	1.0	ltm	282	diff_vonmises	-0.139646520269858	-8.001156235150967	8.631212881705265	0.2725953839442393	0.0710393263043113	2.95203334785324	-0.1891875889387086	-0.4820027273063781	0.2928151383676694	44.48330392323899	near	V1
1	2.0	ltm	282	diff_vonmises	0.0944436351658571	5.411221696876941	6.5395324802954296	0.5696709686716764	0.3291991232036951	1.700245777757721	0.2029526233301672	-0.2898778421939237	0.492830465524091	49.5589160107983	near	V2
2	3.0	ltm	282	diff_vonmises	0.0588754752924675	3.373316251085148	3.161802316053565	0.9407919055164328	0.9093748263478332	1.2561262047011923	0.2271686144591935	-0.1468251086183595	0.373993723077553	63.40379094832269	near	V3
3	4.0	ltm	282	diff_vonmises	-0.0187606892438685	-1.074908314430148	1.2840944713290676	186.40390869442268	1.2653040366394377	187.58372640880145	0.1779461745547621	-0.338006436216947	0.5159526107717092	74.52459343157565	near	V4
4	5.0	ltm	282	diff_vonmises	-0.0687334450093242	-3.938136310428813	2.641647721047345	0.8034656728559788	1.5397585082411245e-12	1.558710397503067	0.2409681316829301	-0.2455942247511683	0.4865623564340985	84.61871643377557	near	V3ab
5	6.0	ltm	282	diff_vonmises	0.3927905593555187	22.50524128365408	0.7915171267931036	106.56601946011888	0.7790212528920512	107.1572797057495	0.0771243056280326	-0.1618470394132689	0.2389713450413015	95.63945308954445	near	IPS0
6	7.0	ltm	282	diff_vonmises	0.0489100355461256	2.802338612627836	0.9100670791240344	44.37911830271286	0.8729112121127738	45.1189158463848	0.07923872833498	-0.1930009768772516	0.2722397052122316	88.8650985896848	near	LO1
0	1.0	ltm	283	diff_vonmises	-0.2392175779961735	-13.706157604522335	7.12603314833884	0.2000437514066375	1.3015259794964004e-24	2.7966591704570214	-0.2360946168778298	-0.4451019960233184	0.2090073791454885	50.96762025051635	near	V1
1	2.0	ltm	283	diff_vonmises	0.1248346460423723	7.152498355237441	7.907806889170438	0.446241716926447	0.2563736993807509	1.696484086697965	0.1489351279168974	-0.2925137142786766	0.441448842195574	45.70104068452804	near	V2
2	3.0	ltm	283	diff_vonmises	0.1679387785608708	9.622183228120011	5.88772603068248	0.4022812190040837	0.3468560078433446	0.8136555171038002	0.202524350276207	-0.1336297597135353	0.3361541099897424	52.78200861759953	near	V3
3	4.0	ltm	283	diff_vonmises	0.0480324416292934	2.7520561850669925	1.2763973295326163	37.448202514482446	1.1901017211217415	38.96692056729846	0.0208495565194777	-0.3712169941507612	0.392066550670239	72.01669419462118	near	V4
4	5.0	ltm	283	diff_vonmises	-0.0803509050322869	-4.603767738406529	2.4462023200395926	0.7405400781135718	2.7645303591185143e-14	1.503829205078788	0.1915267503888294	-0.2361085119875996	0.427635262376429	87.9433479597914	near	V3ab
5	6.0	ltm	283	diff_vonmises	0.3473148149204778	19.899673057310693	0.9374250109254804	118.07660001431915	0.925305257830752	118.593079000494	0.1029247897573242	-0.151937145459776	0.2548619352171002	88.9123245728135	near	IPS0
6	7.0	ltm	283	diff_vonmises	0.1183183334661622	6.779141146632583	1.6424799408421946	1.558851907256237	0.5684142250606506	2.571518172564112	0.045948627821564	-0.2403367090230712	0.2862853368446353	79.4766623260453	near	LO1
0	1.0	ltm	284	diff_vonmises	-0.0802525341868173	-4.598131504133986	5.593975271439979	0.3437601029119971	0.0612335867492124	3.721997395811816	-0.3128517276426587	-0.5964910506272904	0.2836393229846317	54.44597122763204	near	V1
1	2.0	ltm	284	diff_vonmises	0.025562045449179	1.4645973199595523	5.576362730888654	0.6752478334980507	0.2651258834542572	2.3371004422910047	0.1438480579464419	-0.3846957773733859	0.528543835319828	53.34063612765735	near	V2
2	3.0	ltm	284	diff_vonmises	-0.0977930906779095	-5.603131361384372	3.2275518323256533	0.6046274477678298	0.0108779493199093	1.3637328399525843	0.193310503726127	-0.2140453475429555	0.4073558512690826	75.91719849228457	near	V3
3	4.0	ltm	284	diff_vonmises	-0.1904654634150794	-10.91286719668744	2.2278709210312324	1.2093971123316372	0.1922876880357087	3.0377539428600158	0.0851182174320114	-0.4154886794484956	0.5006068968805071	81.25441836356325	near	V4
4	5.0	ltm	284	diff_vonmises	-0.0201844979207545	-1.1564865424498234	2.398377279536953	1.1126410757360865	0.0273322688040809	1.8678040533163076	0.3344472499961445	-0.2839178174987374	0.618365067494882	87.5845391566406	near	V3ab
5	6.0	ltm	284	diff_vonmises	0.3301819482439501	18.91803210578533	0.6666596619973222	112.19599124501592	0.6539129004358305	112.64120595899756	0.1492193528099328	-0.1725372968634069	0.3217566496733397	108.33299535139156	near	IPS0
6	7.0	ltm	284	diff_vonmises	0.0234691991941182	1.344686062374807	0.8258782812269475	147.52870488192482	0.8124388868636068	148.56880775448485	0.0602639667757074	-0.2532886482689953	0.3135526150447028	91.2236660957131	near	LO1
0	1.0	ltm	285	diff_vonmises	0.0174951887300707	1.0024004760178944	6.426590690471031	0.4311600348168378	0.1251632443830889	2.793645743125305	-0.0750768974083127	-0.4565877389422021	0.3815108415338893	50.66629464939851	near	V1
1	2.0	ltm	285	diff_vonmises	0.0831829272037158	4.766030656316881	3.5298688225789303	1.0451452917292978	0.6285152010789772	2.0610872373536906	0.1916234506661425	-0.2963033458910106	0.4879267965571531	61.112211205514825	near	V2
2	3.0	ltm	285	diff_vonmises	-0.0170548908215157	-0.9771732641292588	1.562560857466008	34.54156684444069	1.4865946658615177	35.05947563220456	0.2335415241967577	-0.2050678962958976	0.4386094204926554	70.95408354308987	near	V3
3	4.0	ltm	285	diff_vonmises	-0.151886720938014	-8.702468073829518	1.1772982667868654	165.78737417813957	1.157740598691417	166.9834311896128	0.1576315094354186	-0.3287638576445424	0.486395367079961	77.6738463983994	near	V4
4	5.0	ltm	285	diff_vonmises	-0.0282074213650798	-1.6161661951662254	2.328255942529977	1.039694128573829	6.674313567537242e-21	1.5552292039800584	0.3399751840169105	-0.2419408752316399	0.5819160592485504	90.12820578813074	near	V3ab
5	6.0	ltm	285	diff_vonmises	0.1831280557295682	10.492464703740794	0.6991687848222171	71.1668704384532	0.6800054485358231	71.47817065016339	0.1724003352134246	-0.1514428516965855	0.3238431869100102	107.74876454454986	near	IPS0
6	7.0	ltm	285	diff_vonmises	-0.1215196707398199	-6.9625642612110825	0.7286157854197288	116.207597664904	0.7116092330420117	117.14815103562562	0.1072553142761449	-0.2554332923985871	0.3626886066747321	99.60379510191936	near	LO1
0	1.0	ltm	286	diff_vonmises	0.0072870936365074	0.4175197102885159	5.504859631968665	0.4721477745316911	0.1552523794499549	2.728327349675081	-0.0733039966734683	-0.4437181348409569	0.3704141381674886	53.86316117654641	near	V1
1	2.0	ltm	286	diff_vonmises	0.038162936206693	2.1865751784705125	2.3161765319652283	2.019577677545461	0.8380230227229151	3.10389314500721	0.1727133337028624	-0.3152257035325289	0.4879390372353913	68.14774333323791	near	V2
2	3.0	ltm	286	diff_vonmises	-0.1003849507699747	-5.751634005748099	1.6626161773843566	3.554244276341386	0.9641652363796368	4.126871822563528	0.256701955405733	-0.2163245958119869	0.47302655121772	77.17282487746738	near	V3
3	4.0	ltm	286	diff_vonmises	-0.1743801622396412	-9.991247327138003	1.1658605642196451	78.66165179667514	1.1239431288041766	79.78177979804546	0.2049628624096087	-0.3250011192111	0.5299639816207087	79.50130972186807	near	V4
4	5.0	ltm	286	diff_vonmises	2.54617682731553e-05	0.0014588518609919	2.2273933619537742	1.200127328201075	7.483036494600762e-16	1.5467447029198316	0.4143604695344292	-0.2384948286225175	0.6528552981569468	92.1057723718322	near	V3ab
5	6.0	ltm	286	diff_vonmises	0.1059955489278827	6.073097600740101	1.5334351746942472	0.876161267726037	1.5243298600799084e-14	0.9761969799401308	0.229251517692815	-0.1374561484395143	0.3667076661323293	109.38211371968984	near	IPS0
6	7.0	ltm	286	diff_vonmises	-0.116002045190156	-6.646427604281793	0.6744774790360991	132.9766875085212	0.6598355006678511	133.74375922094595	0.1580519510472555	-0.2468009136738764	0.404852864721132	105.87558328851668	near	LO1
0	1.0	ltm	287	diff_vonmises	0.4681598232117975	26.82358200762675	0.0001907262616434	2760.9186383078963	1.417673436885264e-32	2761.727286312104	-0.0448889679249759	-0.2125036942382507	0.1676147263132748	173.36264253048748	near	V1
1	2.0	ltm	287	diff_vonmises	0.2254828860015161	12.919217720316349	5.4250912204279	0.4742553315930219	0.8593255266286866	0.8853844720119189	0.1505926477101971	-0.152966548178972	0.3035591958891691	50.51278831979948	near	V2
2	3.0	ltm	287	diff_vonmises	0.1950610750770376	11.176176349198744	3.4017130236030884	28.50478192434156	3.3400935186127523	28.45402208196444	0.2391962957517996	-0.069451993826314	0.3086482895781137	51.28852619148785	near	V3
3	4.0	ltm	287	diff_vonmises	0.1978765161672188	11.337489241133838	2.526633377774637	111.45336485009064	2.492910877077588	111.90872122180294	0.2514314736027216	-0.2455429590970901	0.4969744326998118	54.57571861831204	near	V4
4	5.0	ltm	287	diff_vonmises	-0.0937674709635936	-5.37248034182941	2.047124935448646	0.6285245803914666	8.405868916771551e-31	0.8723054653704476	0.1899925956787981	-0.13335032813867	0.3233429238174681	95.94072307930507	near	V3ab
5	6.0	ltm	287	diff_vonmises	0.3698352275007703	21.18999765105477	1.318846470209689	59.09283051530443	1.3002712022028695	59.27588950139117	0.1264234015459457	-0.0845414366097223	0.2109648381556681	78.22509614399945	near	IPS0
6	7.0	ltm	287	diff_vonmises	0.0923120191930727	5.28908909809372	1.984567145180645	0.6987545666164213	0.3108828709301359	1.0236453449534002	0.1417376886295533	-0.1181607580036137	0.2598984466331671	85.5666039231163	near	LO1
0	1.0	ltm	288	diff_vonmises	0.0584470835984079	3.348771215037074	8.081281969454967	0.3171170184203061	0.1685319368591223	2.711071358735041	-0.1534026645916766	-0.4607371186079805	0.3073344540163039	44.52317884807576	near	V1
1	2.0	ltm	288	diff_vonmises	0.0900398237080252	5.158901886571815	11.392168934623667	0.4198160074774254	0.4894534239953611	1.2402354630150807	0.2552297083803949	-0.2454285659654839	0.500658274345879	37.994962312766575	near	V2
2	3.0	ltm	288	diff_vonmises	0.1267722870996673	7.263517010031712	2.284702672728053	69.05980635606424	2.2546882839607574	69.26620958238091	0.1884643457346371	-0.1293241364901565	0.3177884822247936	58.81261765874913	near	V3
3	4.0	ltm	288	diff_vonmises	-0.1886825353053812	-10.810712940826493	1.276812607217053	154.6907862314161	1.259595002556558	155.92163766189344	0.0065894483486488	-0.301387171298888	0.3079766196475368	70.63403809632226	near	V4
4	5.0	ltm	288	diff_vonmises	-0.0730654138965375	-4.186339844648116	3.792467431163146	0.5944953836300757	5.78864514204087e-14	1.3033298865299738	0.2364943157194435	-0.2072058493577119	0.4437001650771555	70.35873600533287	near	V3ab
5	6.0	ltm	288	diff_vonmises	0.1098901893602202	6.296244060234042	0.869491761629418	86.01736272992714	0.8531808539798924	86.62449291227968	0.0771082216885972	-0.1632867773157205	0.2403949990043177	91.02894598038426	near	IPS0
6	7.0	ltm	288	diff_vonmises	0.0739837905614354	4.238958951550069	1.4426963634956145	167.9866675071214	1.4263441185607555	169.13866914824135	0.0029368279630261	-0.2969400925118926	0.2998769204749187	66.17458237733672	near	LO1
0	1.0	ltm	289	diff_vonmises	-0.0057927909630968	-0.3319024737869712	11.262772188456251	0.3137621181302584	0.1181854313635007	3.008420319584538	-0.1218551130978168	-0.5076723412217512	0.3858172281239344	38.86148403793928	near	V1
1	2.0	ltm	289	diff_vonmises	0.1710957943813485	9.803066910489417	6.304747194719245	0.6266058923866219	0.5707639758490697	1.495296434425148	0.2253228023791154	-0.266032448347192	0.4913552507263073	48.88297827452817	near	V2
2	3.0	ltm	289	diff_vonmises	0.1417763177166351	8.123184640069036	2.1939881537239683	61.08528742660831	2.1566824232103503	61.34680042473892	0.1994244756401499	-0.1476699926811484	0.3470944683212984	59.78427016369301	near	V3
3	4.0	ltm	289	diff_vonmises	-0.0528579044283901	-3.0285348376526167	1.319480590747796	199.88858512961775	1.303182055839106	201.17695269067767	0.0782062933789831	-0.3386505017904859	0.416856795169469	71.29972283393909	near	V4
4	5.0	ltm	289	diff_vonmises	-0.1049935458180818	-6.015687051489523	3.010054872490095	0.6239561444855413	1.7631995821542513e-19	1.4049673951669084	0.1858373079478696	-0.2226127991544823	0.4084501071023519	79.19773174094811	near	V3ab
5	6.0	ltm	289	diff_vonmises	0.2543485582550705	14.573098913252895	0.9228187028230342	112.20384414474276	0.9102527642095252	112.82667734830802	0.066075195869331	-0.162146912360976	0.228222108230307	87.55407586180903	near	IPS0
6	7.0	ltm	289	diff_vonmises	0.060168577661353	3.4474055593006536	2.114265504618477	0.960545771119818	0.4527536612428702	2.098811979538425	0.0129886408481438	-0.2560718280184447	0.2690604688665886	74.157921141607	near	LO1
0	1.0	ltm	290	diff_vonmises	-0.0850731628899534	-4.874333183423312	5.859971662015818	0.413909383959393	0.1591881548521446	1.9472130104905143	0.0292944081538282	-0.3169453047336478	0.346239712887476	52.92382265518268	near	V1
1	2.0	ltm	290	diff_vonmises	0.0403944022764694	2.314428766395343	1.5179917331118704	130.45264966197345	1.495205228920442	131.2021243960868	0.195259183850915	-0.2518743642495984	0.4471335481005134	69.72777725833089	near	V2
2	3.0	ltm	290	diff_vonmises	0.0156671512184742	0.8976616418118193	3.7368702175102233	0.6566824005131822	0.3487863630770267	0.8864408504354904	0.2923845599350057	-0.1253597074855286	0.4177442674205343	65.83483314552075	near	V3
3	4.0	ltm	290	diff_vonmises	-0.0478799188688301	-2.743317274612762	1.5317909316181737	49.96991061115936	1.467523472540886	50.54954805181213	0.3140410432043126	-0.2450417599605421	0.5590828031648547	72.1301472136233	near	V4
4	5.0	ltm	290	diff_vonmises	0.0214118835001355	1.226810555983572	2.1054038813033897	1.1222297325520745	2.657321026549052e-18	1.068109011206265	0.4271473926545533	-0.1611363015041824	0.5882836941587358	94.6619002189602	near	V3ab
5	6.0	ltm	290	diff_vonmises	0.1758838102805581	10.07740001375566	2.010218678485668	0.5877635665434172	9.756110625571485e-13	0.4224532470756379	0.2369178597079095	-0.0617774351136142	0.2986952948215238	96.73447252532432	near	IPS0
6	7.0	ltm	290	diff_vonmises	0.0158123982439567	0.9059836833587952	0.4299704906049927	87.11147915292095	0.4139789781612623	87.41177009731551	0.1874475107484308	-0.1981230243594378	0.3855705351078686	132.78639214827567	near	LO1
0	1.0	ltm	291	diff_vonmises	-0.0969556369749167	-5.5551487986652806	8.702159252806105	0.2217340301735761	5.297829138304938e-23	2.806532823931639	-0.1897570938472888	-0.4466735647757283	0.2569164709284395	46.059398798973575	near	V1
1	2.0	ltm	291	diff_vonmises	0.076758447291728	4.3979350717934	4.083821865036856	0.696273518230736	0.2981325153667065	1.8629133029010108	0.1506273268846713	-0.287274266081709	0.4379015929663803	61.210918430008434	near	V2
2	3.0	ltm	291	diff_vonmises	0.0513845078826365	2.9441154340317843	3.705553373873376	0.8704360793601764	0.7144489747205047	1.3758163949350468	0.2464550362341599	-0.1918067210598934	0.4382617572940533	60.79020042009469	near	V3
3	4.0	ltm	291	diff_vonmises	-0.0174663845504033	-1.000750118090619	1.3112452377581976	210.41393343127396	1.293358306053009	211.6878841042128	0.1790485458605957	-0.3632643310799572	0.542312876940553	73.47932632052854	near	V4
4	5.0	ltm	291	diff_vonmises	-0.1302218778338028	-7.461164000145107	2.0003728991305394	0.9432658809321776	3.867032012027382e-15	2.0055166231866783	0.1674525295865424	-0.3102802445940611	0.4777327741806035	96.9913422735052	near	V3ab
5	6.0	ltm	291	diff_vonmises	0.2109646003079395	12.087381224309242	0.7574106458981662	106.4737239673374	0.7424634407189272	107.3563619663157	0.0455041818532109	-0.2143926581030371	0.259896839956248	95.29934058275693	near	IPS0
6	7.0	ltm	291	diff_vonmises	-0.0083794325373462	-0.4801061191045412	1.2231624684438185	2.045218090435471	0.4035241167389151	3.138131951964327	0.0659436276208477	-0.2669794622308506	0.3329230898516983	94.11534166731022	near	LO1
0	1.0	ltm	292	diff_vonmises	1.858312279497768	106.47345063255752	101.30409131535782	0.0252350681059866	0.1902281978160723	3.2930186369416528	-0.429419741572499	-0.6217820005951896	0.1923622590226906	142.77968555867528	near	V1
1	2.0	ltm	292	diff_vonmises	-0.0188602480038016	-1.0806126111878702	17.28174090848045	0.2985581364434241	0.0244078543525737	1.9215067951695908	0.1781319514941447	-0.309794931143585	0.4879268826377297	32.428756209702954	near	V2
2	3.0	ltm	292	diff_vonmises	0.0044557970297679	0.2552983641726289	3.551660708125908	0.7052667012803179	0.5630059837913557	1.2679523281951337	0.1800447603668384	-0.1795635797001536	0.359608340066992	62.74605806582676	near	V3
3	4.0	ltm	292	diff_vonmises	-0.1159474954344979	-6.643302133509116	1.0786369333358123	187.74085993002495	1.0615886615842416	189.56415487802045	-0.0429348622727161	-0.4085281404596337	0.3655932781869175	75.62471731691872	near	V4
4	5.0	ltm	292	diff_vonmises	-0.1322385025031571	-7.576708082561076	3.420906469609723	0.6988437370858736	5.870035896874976e-15	2.2756170235169844	0.1306682938170337	-0.3616491608109371	0.4923174546279708	74.1860302084396	near	V3ab
5	6.0	ltm	292	diff_vonmises	0.0597306319716413	3.422313119624227	0.7248320988534814	135.15393523514226	0.7104598998528747	136.64853871299212	-0.0578009556580667	-0.310339655142279	0.2525386994842122	91.86740025952486	near	IPS0
6	7.0	ltm	292	diff_vonmises	0.0897598045203272	5.142857968934039	1.4484970024110158	287.26444529558336	1.4359005326144076	288.8218403051386	-0.0164999581693479	-0.3975775177413325	0.3810775595719846	65.48818509072453	near	LO1
0	1.0	ltm	293	diff_vonmises	0.0032875405221652	0.1883621968983024	5.483985821800474	0.6295853757687682	0.1390364625217631	4.062212706264834	-0.1660078637753888	-0.6592847963836579	0.4932769326082691	53.96829055106346	near	V1
1	2.0	ltm	293	diff_vonmises	0.0397166024057837	2.275593694450538	1.330652235870624	74.97734358356557	1.2759109081897333	76.4853932960464	0.1528223963993085	-0.4127948636226648	0.5656172600219733	72.60410683832654	near	V2
2	3.0	ltm	293	diff_vonmises	0.0901785073206378	5.166847872262144	5.251994542270965	0.6096100999981043	1.7888262766352828e-33	1.6590552036562	0.2785656842927024	-0.2640319537238708	0.5425976380165732	59.54272139227683	near	V3
3	4.0	ltm	293	diff_vonmises	-0.2688550577277537	-15.404260108546396	1.6528486943000928	1.9288715141985904	0.1850217255913042	3.914944605621066	0.1428563418620976	-0.4899266866656477	0.6327830285277454	93.27877487020024	near	V4
4	5.0	ltm	293	diff_vonmises	-0.0075200565673959	-0.4308675030114233	2.034449840512299	1.273041154167586	2.5766994917854505e-17	1.7443443007762975	0.3858935999142284	-0.2662761411761908	0.6521697410904193	96.238217318802	near	V3ab
5	6.0	ltm	293	diff_vonmises	0.2423043861417005	13.88301868342763	0.9586917868806174	38.9243819813767	0.9248970551199482	39.00988839179452	0.2219406581584593	-0.1052504842284953	0.3271911423869547	95.45286569731044	near	IPS0
6	7.0	ltm	293	diff_vonmises	0.0342745373725969	1.963786336213216	0.2467362731022378	132.73105580066053	0.2332142644133495	133.93852607766635	0.0759221465815116	-0.3980437164542572	0.4739658630357688	150.65389612049933	near	LO1
0	1.0	ltm	294	diff_vonmises	0.0259995828525106	1.4896663665495686	6.173235094735873	0.3244864125815646	0.0691466166446466	2.631386187223814	-0.1337674648770449	-0.4229280176905132	0.2891605528134682	52.42626243064973	near	V1
1	2.0	ltm	294	diff_vonmises	0.0818834127771304	4.691573964257172	7.067297971673319	0.5393596108979717	0.393565419424952	1.561507921951879	0.2065890948776756	-0.274797286189505	0.4813863810671807	47.450867010990265	near	V2
2	3.0	ltm	294	diff_vonmises	0.013449845023729	0.7706193549647058	1.673124931487229	76.0825663121174	1.6426508715315329	76.51178859914293	0.1954035776207447	-0.1754533408318028	0.3708569184525476	67.84988573314078	near	V3
3	4.0	ltm	294	diff_vonmises	-0.1741094512304985	-9.9757367288464	1.1673615376806104	155.31183266586072	1.1489819787183144	156.57818159019286	0.062318233498317	-0.3159334795680415	0.3782517130663585	75.73726529861074	near	V4
4	5.0	ltm	294	diff_vonmises	-0.0427086316653244	-2.447024343201876	2.642814078726385	0.8750071366504673	8.519169524630583e-17	1.5278504440374991	0.289519598443978	-0.2404670816866143	0.5299866801305924	84.60550745381701	near	V3ab
5	6.0	ltm	294	diff_vonmises	0.2451751830678969	14.047503231137815	0.6354153189954095	105.5693993934182	0.6222717709125938	106.0932643629038	0.1219746519443454	-0.1799429347779568	0.3019175867223023	109.6505558520299	near	IPS0
6	7.0	ltm	294	diff_vonmises	-0.0750932384678558	-4.302525634177579	1.0269381851052075	160.24715950476198	1.0127327088986453	161.31223396502466	0.0633419156295005	-0.2622349828737143	0.3255768985032148	81.34404911527764	near	LO1
0	1.0	ltm	295	diff_vonmises	0.0103189871784481	0.5912344141746878	12.303100098677408	0.2600769535590541	0.0652740925664001	2.883877355339949	-0.1294438821876765	-0.4741843350687113	0.3447404528810348	37.74279163635876	near	V1
1	2.0	ltm	295	diff_vonmises	0.1456579035280239	8.345583124879477	7.029633397642689	0.5469720064946072	0.4343266071861322	1.4626237659092898	0.2243925337748565	-0.2591817846183683	0.4835743183932248	47.45368897540666	near	V2
2	3.0	ltm	295	diff_vonmises	0.101798968039175	5.832651227431888	2.084284062739781	82.17354672861794	2.054521498537522	82.50029045518491	0.2036578876269885	-0.1654900887946109	0.3691479764215994	60.94887502319671	near	V3
3	4.0	ltm	295	diff_vonmises	-0.0634848953214364	-3.637416564748135	1.3254603752195593	228.3955035912313	1.3110678652976735	229.6663515942577	0.0879201761897405	-0.337686095889552	0.4256062720792926	71.34360158323341	near	V4
4	5.0	ltm	295	diff_vonmises	-0.1240912317573094	-7.109903854273603	2.7539889252428584	0.6829955616488562	1.6528568411262297e-19	1.6315679957814655	0.1662141999459119	-0.2579454242166712	0.4241596241625832	82.85491564183354	near	V3ab
5	6.0	ltm	295	diff_vonmises	0.2371133639233068	13.585595018955038	0.7769194627443342	123.13950808287956	0.7647723474835126	124.0167605717539	0.0251480922905784	-0.2044816544930192	0.2296297467835977	92.8822535947652	near	IPS0
6	7.0	ltm	295	diff_vonmises	0.0350995489654681	2.0110560185341018	2.022490828535057	1.15149095959832	0.4885489606079072	2.3741780397415235	0.0173402505350862	-0.2775354245756014	0.2948756751106877	74.61999065562335	near	LO1
0	1.0	ltm	296	diff_vonmises	-0.738839187316599	-42.33236717211679	0.9870687870661996	72.31911718563158	0.955436723422561	74.01482490621191	-0.1313701522952257	-0.3472686889144061	0.2158985366191803	75.13151859847045	near	V1
1	2.0	ltm	296	diff_vonmises	-0.0885300225718425	-5.0723966535644935	1.451016477666621	2.2902575164846266	0.6632159212353683	3.413418529120841	0.0249006307084121	-0.2603384934978405	0.2852391242062527	79.58134798390856	near	V2
2	3.0	ltm	296	diff_vonmises	0.1606285833321229	9.203339894096086	7.992793086395373	0.3229046123841873	1.3930280194734126e-26	0.5370552464553047	0.272641496217689	-0.0854749562968855	0.3581164525145746	48.079769991168746	near	V3
3	4.0	ltm	296	diff_vonmises	0.1518590166192571	8.700880733290461	3.3455477028703906	1.5068875749541024	0.9070626464017322	2.336338821246734	0.2924750018656379	-0.3007483799529458	0.5932233818185837	60.5777853044502	near	V4
4	5.0	ltm	296	diff_vonmises	-0.041560445625514	-2.381238129024902	1.902842178921139	0.8794221796447272	4.5413085322182146e-17	1.3572202457958549	0.2241754797223916	-0.2062160514121299	0.4303915311345215	99.32619590098535	near	V3ab
5	6.0	ltm	296	diff_vonmises	0.4424236014712538	25.34900512128076	1.1648598454121897	88.19339579282004	1.1499863465133289	88.47998094197963	0.1377753178327481	-0.1117983019993325	0.2495736198320806	82.30651469300975	near	IPS0
6	7.0	ltm	296	diff_vonmises	0.2006363449826042	11.495615784434014	1.894587381346889	0.5608023472807429	8.671825823547526e-14	0.8986306776469256	0.1369335081638582	-0.1366896421857813	0.2736231503496396	99.45354654826032	near	LO1
0	1.0	ltm	297	diff_vonmises	-0.0191714630168888	-1.0984439179588756	6.723258666606546	0.3890934025099571	0.3742107394802874	1.0710003246566742	0.1550485768718696	-0.1851229913779225	0.3401715682497922	48.78126593392872	near	V1
1	2.0	ltm	297	diff_vonmises	0.1585609866061132	9.084875327960663	2.5805882046248056	90.51593215054405	2.5520119930125524	90.67581475221318	0.2575415749046925	-0.1449654959426745	0.402507070847367	56.023782700868026	near	V2
2	3.0	ltm	297	diff_vonmises	0.0449840333557624	2.5773952567609086	2.868393742801529	10.76589309670442	2.7267397792094026	10.628303079830326	0.283116129198298	-0.0546108025841352	0.3377269317824332	58.23126537811586	near	V3
3	4.0	ltm	297	diff_vonmises	-0.0698931383113478	-4.004581842164351	2.02123952207217	127.55687245275476	2.0026555420624983	127.79215810777806	0.2470544883063752	-0.1498564166013345	0.3969109049077097	63.10777976164917	near	V4
4	5.0	ltm	297	diff_vonmises	0.0083493803367392	0.4783842548446743	2.8600923510517653	0.7672980269431491	1.2380722958478269e-15	0.5421926018839559	0.4026558682414664	-0.08468899942742	0.4873448676688864	81.29160169711838	near	V3ab
5	6.0	ltm	297	diff_vonmises	0.0794146736522245	4.550125631681246	1.6550763748891215	0.6143911903369883	0.1150423183791417	0.3994845795315749	0.2114079403074326	-0.0461683325775035	0.2575762728849361	103.32576288614652	near	IPS0
6	7.0	ltm	297	diff_vonmises	-0.1929367090126757	-11.054459139569992	0.9415128518570792	83.69721377490828	0.9250665200541888	83.87328142615091	0.204028945100088	-0.1174374021429063	0.3214663472429944	94.48870597768132	near	LO1
0	1.0	ltm	298	diff_vonmises	-0.0399399051505343	-2.288387999278437	7.721164165475804	0.4810905037364155	0.1664399979642539	3.147293842728874	-0.0634935080573982	-0.5296052724198772	0.4661117643624789	46.06170842922151	near	V1
1	2.0	ltm	298	diff_vonmises	0.1030052380961834	5.901765410651473	3.0863781221735875	1.3572064147543357	0.7397316176897897	2.3647367874562377	0.2125491400533923	-0.3076681889512935	0.5202173290046859	63.22489016030298	near	V2
2	3.0	ltm	298	diff_vonmises	0.0609552984510888	3.4924813402077124	3.6525204311156023	0.847550191046963	0.6448697441688706	1.2820412690562288	0.2684809565792407	-0.1766221787583278	0.4451031353375685	62.30626288486948	near	V3
3	4.0	ltm	298	diff_vonmises	-0.0655297814918466	-3.754579911897307	1.2323421414760327	160.19036649474089	1.2091547523537858	161.34505945971227	0.2442248959624038	-0.3491190987848078	0.5933439947472117	77.31311113939634	near	V4
4	5.0	ltm	298	diff_vonmises	-0.0486178748873883	-2.7855990399424244	2.320161634799245	0.967501032095711	1.1581764678053841e-14	1.4782831295919754	0.3103174692048441	-0.2300084219161215	0.5403258911209656	90.27859237721674	near	V3ab
5	6.0	ltm	298	diff_vonmises	0.2872501385153246	16.458220601476395	0.9170925669514908	65.00059092293834	0.8975010550298641	65.27150815773747	0.1551326950910194	-0.1193242557695395	0.274456950860559	93.90560063636777	near	IPS0
6	7.0	ltm	298	diff_vonmises	-0.0357816774689424	-2.050139102868754	0.4968886806946654	55.60041586304567	0.4697749470824545	56.37929112312136	0.0932187488379057	-0.2458925581261084	0.3391113069640141	122.24467785724744	near	LO1
0	1.0	ltm	299	diff_vonmises	0.0774963053438589	4.440211224060247	2.7829198868092875	0.366795915369753	3.111892220355821e-22	1.0135079771451163	0.0687806313565546	-0.1604242687173404	0.2292049000738951	82.42442438284479	near	V1
1	2.0	ltm	299	diff_vonmises	0.1337234171036353	7.66178742210583	2.420903832134954	27.74722884606353	2.332890497707976	28.0215553731146	0.1927599189781812	-0.1567648845498812	0.3495248035280625	56.77973584910842	near	V2
2	3.0	ltm	299	diff_vonmises	0.0460447932725843	2.638172323071448	2.3716785610469344	52.82809346853964	2.3450533741062607	52.823096824483066	0.204105839948248	-0.0684859554867163	0.2725917954349643	60.85325970768159	near	V3
3	4.0	ltm	299	diff_vonmises	0.0194036929359311	1.1117497121966629	2.0477798754629544	102.0130993496268	2.0249577528180955	102.4158084837426	0.1505038798956661	-0.1708334160882962	0.3213372959839624	60.16584592206436	near	V4
4	5.0	ltm	299	diff_vonmises	0.0362255513496122	2.075571202867222	2.1166159315141333	0.8852181992817895	1.0666214047244394e-14	0.7493384415719161	0.3532801502181646	-0.1124064779868692	0.4656866282050338	94.41685428713376	near	V3ab
5	6.0	ltm	299	diff_vonmises	0.2230661092208447	12.780746610758657	0.8397272598495041	51.35240152736358	0.8215768396325914	51.24172141112183	0.2119922257220778	-0.0692667923774821	0.28125901809956	105.19227616226684	near	IPS0
6	7.0	ltm	299	diff_vonmises	-0.1086216594265657	-6.223562648849633	0.94412627937293	83.58276496397953	0.9250434819208312	83.85581185320228	0.2137757708336956	-0.1416486918643951	0.3554244626980907	93.43464913665905	near	LO1
0	1.0	ltm	300	diff_vonmises	-0.0198061273055773	-1.1348075031083968	5.838657443925071	0.2161703727240012	0.0234674754189677	2.4971768192488564	-0.2033240375689275	-0.3973725111511974	0.1940484735822699	54.92754847117121	near	V1
1	2.0	ltm	300	diff_vonmises	0.0284992072564873	1.6328842952653335	16.493702942124948	0.4142027679429102	0.4846335917250539	1.4482950905178908	0.3124443519828777	-0.3022385524644511	0.6146829044473289	31.98541076251109	near	V2
2	3.0	ltm	300	diff_vonmises	-0.0536881856198018	-3.076106445729604	1.8027011998719324	40.37319559168382	1.7662591484223171	40.57141432855005	0.1466845903672329	-0.1012291979852459	0.2479137883524789	66.50388679184042	near	V3
3	4.0	ltm	300	diff_vonmises	-0.17090923567761	-9.792377884133764	1.1321374092320715	68.83480956260844	1.1002394147060996	70.00062554790658	-0.0101053349787711	-0.2690572970428171	0.2589519620640459	74.79668317172917	near	V4
4	5.0	ltm	300	diff_vonmises	-0.0168501364908178	-0.9654417051432396	2.342769538701484	1.1444947513202215	0.2933950501258707	1.8025200790562896	0.272589554716837	-0.2262980683853215	0.4988876231021586	80.11889382308155	near	V3ab
5	6.0	ltm	300	diff_vonmises	0.8831922337224206	50.60318749102648	0.0002364371667497	4410.752161924593	5.647923720964584e-31	4411.488255208957	0.048830181959488	-0.28311633181454	0.331946513774028	158.15041254861248	near	IPS0
6	7.0	ltm	300	diff_vonmises	0.1548329116234158	8.871272365743794	1.6175293246203128	178.81664035105143	1.6018326130491285	179.74140004380234	0.0626992794734491	-0.2685950289177512	0.3312943083912003	64.1724223609753	near	LO1
0	1.0	ltm	301	diff_vonmises	-0.0548433809460983	-3.1422942624396306	5.727093215247635	0.4094419201165235	0.0644573437692965	3.906044659531237	-0.2808349663381387	-0.6262235802570432	0.3453886139189044	54.04174125057051	near	V1
1	2.0	ltm	301	diff_vonmises	0.0373378621261782	2.139301915871379	4.6674631552950725	0.7928285497411698	0.2726295252508836	2.419357733319348	0.1661744436412805	-0.3849914682974364	0.5511659119387169	57.80978905700937	near	V2
2	3.0	ltm	301	diff_vonmises	-0.0514243145831451	-2.9463961899672686	3.155802009866014	0.8747664459119012	0.2854416978614594	1.7676473632726852	0.2228812685509571	-0.2505649312671358	0.473446199818093	69.73924495471118	near	V3
3	4.0	ltm	301	diff_vonmises	-0.0913713777531598	-5.235194313551602	1.9061298696873892	1.9946632078818385	0.3744577222124393	3.794734481133632	0.1512092943694996	-0.4398915501264496	0.5911008444959491	81.36867875803586	near	V4
4	5.0	ltm	301	diff_vonmises	-0.0293504448581085	-1.68165661720107	2.099303771899728	1.2254083223815608	0.0129139604467948	2.1593308348822373	0.3027760173846936	-0.3294697136083643	0.632245730993058	94.12293230186408	near	V3ab
5	6.0	ltm	301	diff_vonmises	0.3349329406334007	19.19024391819962	0.6030033542881327	150.36228859913328	0.5922017634716071	151.0555622536849	0.1242500498240559	-0.223671196230887	0.347921246054943	111.54265108539944	near	IPS0
6	7.0	ltm	301	diff_vonmises	-0.0007423830471358	-0.0425354153829467	0.626901894741002	126.351906230663	0.611082935021084	127.53317194720104	0.0627952287331439	-0.2989328451383546	0.3617280738714985	105.56896989367546	near	LO1
0	1.0	ltm	302	diff_vonmises	-0.0468788900900154	-2.6859625504155464	5.390960479687777	0.2925851998069299	0.0255695565590756	1.7819956503392451	-0.0268651270401416	-0.2823715022283766	0.2555063751882349	57.66192804006752	near	V1
1	2.0	ltm	302	diff_vonmises	0.0745933248972084	4.273882696458169	1.447895112473398	95.90019481977347	1.4202584766469724	96.66547112595762	0.1491643360841834	-0.2377755941100403	0.3869399301942238	70.71718645438403	near	V2
2	3.0	ltm	302	diff_vonmises	0.1297477048599466	7.43399588998398	6.31009652779367	0.4709529495451706	0.3185201825991896	0.7783018227573353	0.2956336735506554	-0.1274391326273184	0.4230728061779738	51.81399521924905	near	V3
3	4.0	ltm	302	diff_vonmises	-0.033093229628393	-1.8961023881642096	1.548730766351154	118.5978012629782	1.5226245766788795	119.3670297519436	0.2013358373891947	-0.2606464608503547	0.4619822982395494	69.02607909238387	near	V4
4	5.0	ltm	302	diff_vonmises	-0.0312510200322354	-1.7905515533258811	2.092763691817064	0.9809352849892168	3.4454706559501824e-18	1.201874538881918	0.3287884825629662	-0.1833715719672386	0.5121600545302049	94.9378314706302	near	V3ab
5	6.0	ltm	302	diff_vonmises	0.113924697582627	6.527404353788781	2.596339569187104	0.5233789494880786	3.518396882943312e-11	0.5489303398703919	0.2279745002845476	-0.0856122948578513	0.3135867951423989	85.35726357916397	near	IPS0
6	7.0	ltm	302	diff_vonmises	-0.0610281199314033	-3.4966537036876284	0.6652393039278636	131.0868066606105	0.6522012080457287	131.70940349565646	0.1535101636924025	-0.2138745025572674	0.36738466624967	107.28086380782824	near	LO1
0	1.0	ltm	303	diff_vonmises	-0.0538229957440788	-3.08383049688631	6.635240263600082	0.4265561533336668	0.1117590559869965	2.997972259847072	-0.1024801273409472	-0.4893947706019995	0.3869146432610522	50.037627027370206	near	V1
1	2.0	ltm	303	diff_vonmises	0.0845974016914982	4.847074074695742	2.3694594235138746	1.9828440843623016	0.846173554118394	3.080939366795142	0.1695415717059406	-0.3191927154207691	0.4887342871267097	67.41713801083333	near	V2
2	3.0	ltm	303	diff_vonmises	0.1179978237521746	6.760777292728148	6.039238030962883	0.4909651848494005	0.1645472910629225	1.0056377024584284	0.2830398860286365	-0.1606085249311328	0.4436484109597693	53.70442972544231	near	V3
3	4.0	ltm	303	diff_vonmises	-0.0892337334654674	-5.112716317766579	1.1787621897644482	47.4718261608309	1.105261735495502	48.74575191295071	0.1892174054364055	-0.355401844023091	0.5446192494594966	78.95169702406969	near	V4
4	5.0	ltm	303	diff_vonmises	-0.0392280524048276	-2.247601841314645	2.223601935847345	0.9955073428666146	8.159592331330527e-17	1.4469714623182346	0.3170512504569995	-0.2238823036260019	0.5409335540830015	92.18427090966416	near	V3ab
5	6.0	ltm	303	diff_vonmises	0.2574052168397064	14.748232549564966	1.00303904769763	60.976469472607576	0.9822790478487944	61.14800389419794	0.1815730567904729	-0.105278212459817	0.28685126925029	91.40499562822272	near	IPS0
6	7.0	ltm	303	diff_vonmises	0.0030076644097524	0.1723264768705208	0.4832255477508453	76.55112260026988	0.4627091983569744	77.38768654949469	0.0916440611441196	-0.2608330941554309	0.3524771552995505	123.16863694384016	near	LO1
0	1.0	ltm	304	diff_vonmises	-0.2011214966992071	-11.523412930218884	7.598389241755634	0.2181330637080269	1.0648672699954147e-22	3.637745135586662	-0.3433625737680251	-0.5789650608085425	0.2356024870405174	49.33822821930332	near	V1
1	2.0	ltm	304	diff_vonmises	-5.799003081370217e-05	-0.0033225840194587	3.623414235253061	0.8185160451009569	0.2376040396014844	2.5923011762099724	0.0801141735179667	-0.3941787188268583	0.4742928923448251	64.59480367354439	near	V2
2	3.0	ltm	304	diff_vonmises	0.004649578886714	0.2664012467218528	4.484662393247356	0.5649199120126356	3.4364241543889993e-19	1.4123136008821682	0.2373296896985329	-0.2247178801493207	0.4620475698478536	64.5597394232201	near	V3
3	4.0	ltm	304	diff_vonmises	-0.1011446391672561	-5.795160944657379	2.061335072001971	1.6778319418021272	0.3331835401831016	3.5840195819185268	0.1071668692370325	-0.4455572160995681	0.5527240853366007	79.4292183440595	near	V4
4	5.0	ltm	304	diff_vonmises	-0.0559034280158942	-3.2030304856241485	2.267204748775301	1.092749914140276	1.971478573952516e-18	2.1108269975711487	0.2718678638560659	-0.3294245234507602	0.6012923873068261	91.30974671118688	near	V3ab
5	6.0	ltm	304	diff_vonmises	0.2356523709222285	13.5018862860951	0.7856452362703094	113.44233257033504	0.7709843272342797	114.05399034955308	0.1352502440321856	-0.1912084346805826	0.3264586787127683	98.01938538807477	near	IPS0
6	7.0	ltm	304	diff_vonmises	0.0442745800287547	2.536746575361848	0.7399054604217005	157.989864465301	0.7268788974046078	159.16556133462484	0.0521357181535577	-0.2828653676301229	0.3350010857836807	96.11474213731648	near	LO1
0	1.0	ltm	305	diff_vonmises	-0.0956641838627989	-5.481153985901894	7.155580788645986	0.3082019284337535	0.2925856458141424	1.0090445398254362	0.1120116605798444	-0.1731097149748063	0.2851213755546508	47.769331575429135	near	V1
1	2.0	ltm	305	diff_vonmises	0.1213955173958008	6.955450798586353	2.402540819412171	81.15065595669999	2.372857590950121	81.34282080558282	0.2325552487629849	-0.1426547684378736	0.3752100172008585	57.76361454433621	near	V2
2	3.0	ltm	305	diff_vonmises	0.0099127796835482	0.5679604391103403	2.864522205983836	11.175938332362096	2.74385601600434	10.994102178233897	0.2878129822642377	-0.0424207640182546	0.3302337462824923	59.367119867078	near	V3
3	4.0	ltm	305	diff_vonmises	-0.0274613466268858	-1.5734192614663762	2.0598227999830194	155.1599112051462	2.043446963254306	155.38121862447326	0.2755396724247276	-0.1562351939493389	0.4317748663740666	62.79274858404088	near	V4
4	5.0	ltm	305	diff_vonmises	0.0040132573180914	0.2299427064266338	2.865310661491975	0.7515923168107074	8.062322635401222e-20	0.5976681887341266	0.3843570407165213	-0.0935658368202104	0.4779228775367317	81.2124450063746	near	V3ab
5	6.0	ltm	305	diff_vonmises	0.1026627285287609	5.882141057995312	0.7817175284175729	27.092323138127263	0.7553559053762564	26.956765820675614	0.1763814473388798	-0.0532563407505011	0.2296377880893809	110.25400980847029	near	IPS0
6	7.0	ltm	305	diff_vonmises	-0.1298202258189719	-7.438151034862373	0.9626473314104392	78.85875444205087	0.9470489688343222	78.9748785964466	0.1949866306233758	-0.1003410969834517	0.2953277276068276	94.16086897185744	near	LO1
0	1.0	ltm	306	diff_vonmises	-0.0542240410062784	-3.106808697804067	4.221350380913049	0.3901087791586659	0.0026178254624733	2.816965731243937	-0.1406528239146446	-0.4472797155633968	0.3066268916487521	66.30846524046316	near	V1
1	2.0	ltm	306	diff_vonmises	0.0322303257625803	1.8466616385276229	2.5789168705747665	1.38944809813632	0.5582184767804593	2.726903351600086	0.1313043113606442	-0.344055787744643	0.4753600991052873	68.86150770305179	near	V2
2	3.0	ltm	306	diff_vonmises	0.0439158598253487	2.516193421680613	4.708948493137427	0.5151050834680703	3.821769386532535e-16	1.2906521445005048	0.2270880462877867	-0.2053785131354724	0.4324665594232592	62.96868571884818	near	V3
3	4.0	ltm	306	diff_vonmises	-0.0435742968717575	-2.4966233060018146	3.036541333714494	0.97674488308789	0.2100167258311789	2.365754554859449	0.1846484394111983	-0.3419718120048052	0.5266202514160034	71.60893789714416	near	V4
4	5.0	ltm	306	diff_vonmises	0.0104193541884811	0.596985020251927	1.7278872382442785	1.3138624202370728	6.425094388732672e-20	1.7947373853522566	0.3345375371027494	-0.2660650403748326	0.6006025774775821	103.83389721954276	near	V3ab
5	6.0	ltm	306	diff_vonmises	0.3081850131226537	17.65770056111195	0.8443475700706164	88.23088550581687	0.8280177162888879	88.45834487907537	0.2047246100074922	-0.1345085275334847	0.3392331375409769	99.1910329060313	near	IPS0
6	7.0	ltm	306	diff_vonmises	0.0964192816056726	5.524417899688412	0.3564862818063482	83.16274500432593	0.3359333676029434	84.01210693922816	0.1256896831052429	-0.3125831947584867	0.4382728778637297	138.49043406352774	near	LO1
0	1.0	ltm	307	diff_vonmises	0.0541185277279353	3.100763232272417	0.7104628247569408	2.033289576969339	0.2335301546212646	3.5810157875749624	-0.1274989298720558	-0.3046106454118499	0.1771117155397941	113.2330331994086	near	V1
1	2.0	ltm	307	diff_vonmises	0.077141363606764	4.419874560551664	2.1869358101341243	1.3790907650003543	0.7268534332609999	2.2702739943374355	0.0930728829032166	-0.2375471307879236	0.3306200136911403	70.3228797266452	near	V2
2	3.0	ltm	307	diff_vonmises	0.1834894816012008	10.513172880792176	8.486630294810224	0.3560002516631024	0.1972251279580826	0.6637660593979594	0.2797281321081719	-0.1107053753846647	0.3904335074928367	45.57916678648351	near	V3
3	4.0	ltm	307	diff_vonmises	0.1085492068951506	6.2194114245845045	2.90401192369205	1.617042890896084	1.0267632056232605	2.526714805831295	0.1633923887804981	-0.2921010938267822	0.4554934826072803	60.96300364015363	near	V4
4	5.0	ltm	307	diff_vonmises	-0.0725288194692002	-4.1555952486514505	1.914613679977162	0.8952488604274286	2.5068600167608184e-19	1.3275278907876584	0.2385182766450892	-0.2015099354702267	0.440028212115316	99.032393414043	near	V3ab
5	6.0	ltm	307	diff_vonmises	0.2091988078575957	11.98620876940848	1.1261645222468954	71.07187467911777	1.1073203177547075	71.27987525989467	0.1749580912052835	-0.1076451988479734	0.2826032900532569	85.52895331400586	near	IPS0
6	7.0	ltm	307	diff_vonmises	0.0178268058386219	1.0214007367522115	0.7642089057344142	88.43808837219404	0.7449763926378448	89.13975258427094	0.1190426632388295	-0.2054557920281494	0.3244984552669789	98.59608296704678	near	LO1
0	1.0	ltm	308	diff_vonmises	-0.0154373898341727	-0.8844972841962603	1.1968049963252174	0.8092470399289975	2.6638587433098913e-16	4.226764913978381	-0.3663734522956592	-0.6447419720455341	0.2783685197498748	120.8145941252282	near	V1
1	2.0	ltm	308	diff_vonmises	0.0908869117624124	5.207436456964152	11.263881659716375	0.4120191148941743	0.076240039341499	2.304435717425552	0.1499906717584723	-0.3785971263083825	0.5285877980668547	39.710851280828905	near	V2
2	3.0	ltm	308	diff_vonmises	0.1194961533857346	6.846625257050516	4.585997711683049	0.4252580429073194	1.8260349389089692e-23	1.5425297339448871	0.1065801498869452	-0.245464646410937	0.3520447962978823	63.82250850971462	near	V3
3	4.0	ltm	308	diff_vonmises	-0.7290123812064132	-41.76933265590977	0.0011412044390762	979.9339440628838	7.845953816139068e-21	982.4328577758598	-0.2196813907810053	-0.5756459941604248	0.3559646033794195	165.34766164975957	near	V4
4	5.0	ltm	308	diff_vonmises	-0.029568450149194	-1.6941474002917856	1.7891373870590968	1.1366145628074529	2.835798478597168e-18	2.1252508425156287	0.2097754445528937	-0.3229405890554729	0.5327160336083667	102.20078124667651	near	V3ab
5	6.0	ltm	308	diff_vonmises	0.479144320570156	27.452947346333293	0.682700825535471	162.2180145355082	0.6716149964918118	162.9670619874173	0.1332601444099026	-0.2294867609030753	0.3627469053129779	104.4967568037255	near	IPS0
6	7.0	ltm	308	diff_vonmises	0.1112913066780531	6.376522169148561	1.418694781090281	1.7877784183222225	0.3513265678914963	3.5617307975680017	-0.0324737873515973	-0.3764674868626598	0.3439936995110624	87.80269551406258	near	LO1
0	1.0	ltm	309	diff_vonmises	-0.1207423623003583	-6.918027768250033	7.552112596871614	0.2711210861755792	0.0099901671639838	2.9492476180246743	-0.1821071554923085	-0.4696237938168442	0.2875166383245358	49.03620749389515	near	V1
1	2.0	ltm	309	diff_vonmises	0.0976399409186156	5.594356526543388	4.950950875182811	0.6613270569624603	0.3010213255642719	1.862399014765994	0.1787868560196508	-0.2994308637247132	0.4782177197443641	56.30679279309959	near	V2
2	3.0	ltm	309	diff_vonmises	0.0603482921596397	3.457702441569796	3.9187875448168543	0.7231485925483035	0.5541852815311027	1.2202848050695971	0.2362376451799798	-0.1777916209939661	0.4140292661739459	61.02015244516687	near	V3
3	4.0	ltm	309	diff_vonmises	0.0034032942205142	0.1949943952767327	1.2571161461321074	149.25789819508375	1.231997789950669	150.54310397289942	0.1929411651502093	-0.3656432535892229	0.5585844187394322	75.46262048020512	near	V4
4	5.0	ltm	309	diff_vonmises	-0.0853855271647702	-4.89223033804098	2.032938752232435	0.9587579077470816	8.647384843584985e-21	1.822145126648144	0.209508307364025	-0.2814377478328227	0.4909460551968477	96.25763956612984	near	V3ab
5	6.0	ltm	309	diff_vonmises	0.3783662600702788	21.678789812176262	0.8424067659496844	117.96605899889413	0.8291767112741865	118.6543271193093	0.0850767359194364	-0.1847859985961157	0.2698627345155522	92.38543731033936	near	IPS0
6	7.0	ltm	309	diff_vonmises	0.0550237606541872	3.1526292584229263	1.863093402887475	0.6894541152059521	3.6224610785776666e-11	1.6061774455662674	0.085084152586159	-0.2474250154816719	0.332509168067831	100.29941961593816	near	LO1
0	1.0	ltm	310	diff_vonmises	-0.1384884247312905	-7.934802248518121	8.908158054642948	0.2626894814606492	0.1414383361547847	3.5712815535016147	-0.3433320026440384	-0.6069694605039166	0.2636374578598782	42.06587471128188	near	V1
1	2.0	ltm	310	diff_vonmises	-0.0620040409538749	-3.552569859413344	7.650641435624748	0.4964549843116184	0.1293439697065556	2.055142420230726	0.167444359226343	-0.337559518980898	0.505003878207241	47.500270704517874	near	V2
2	3.0	ltm	310	diff_vonmises	-0.8267645631468685	-47.37012011929281	0.0001959619987105	7223.8360936827	2.8924023886607434e-30	7224.254426535769	0.158725910852354	-0.2918633204899379	0.4505892313422919	161.4199279078749	near	V3
3	4.0	ltm	310	diff_vonmises	-0.1669825518663052	-9.567395474263655	1.1297075654556004	173.84690906958866	1.1083589956917153	175.27175176732584	0.1772585756593869	-0.3853680855540204	0.5626266612134074	79.26852490506622	near	V4
4	5.0	ltm	310	diff_vonmises	-0.0599272471363519	-3.433578338750416	3.4188007148451685	0.9316057170558658	1.4311319595475695e-09	1.833439926703157	0.3649644577515078	-0.2910963941080103	0.6560608518595181	74.21112143850362	near	V3ab
5	6.0	ltm	310	diff_vonmises	0.0754210774405784	4.32130942367449	0.68387510800145	61.93284904575046	0.6617459740827756	62.451418093095405	0.1170695954399043	-0.1712915582085941	0.2883611536484984	105.77045078954872	near	IPS0
6	7.0	ltm	310	diff_vonmises	-0.0607160490736874	-3.478773360631481	1.1467038072409712	143.9067692180483	1.1330750774691332	144.6833171013134	0.0805570357363834	-0.2057067838692781	0.2862638196056615	77.99770631615041	near	LO1
0	1.0	ltm	311	diff_vonmises	0.0793810508398769	4.548199186438368	2.3591023117681496	0.4059429078035731	0.032676428505833	1.7110896806022655	-0.0501202224410536	-0.2619404503407013	0.2118202278996477	85.91862597657021	near	V1
1	2.0	ltm	311	diff_vonmises	0.0844937950507843	4.841137851453306	3.9627704743286394	0.6189251638740192	0.4836520791502164	1.377348248428366	0.1377925099367666	-0.2096966366152108	0.3474891465519775	59.94842298393547	near	V2
2	3.0	ltm	311	diff_vonmises	0.0110003181917455	0.6302718056880032	1.8029850545818509	63.68232109226921	1.7645640735362371	64.09128260819104	0.2061371428858649	-0.1784569784785628	0.3845941213644277	65.50216400532057	near	V3
3	4.0	ltm	311	diff_vonmises	-0.1118603578484984	-6.409126399542053	1.4795532803334588	156.10038485106864	1.4626178579726572	157.01583555139652	0.0746776131594089	-0.2576341744949779	0.3323117876543868	67.6385859312893	near	V4
4	5.0	ltm	311	diff_vonmises	-0.0399191091555127	-2.2871964765329262	1.9008226071532557	1.00497780557793	3.722110927895388e-13	1.5204557774348142	0.2607262165863168	-0.230759897315959	0.4914861139022758	99.3744555425952	near	V3ab
5	6.0	ltm	311	diff_vonmises	0.027876239913467	1.597190895735792	0.7815634343627011	44.95397559334653	0.7474389854566814	45.35427002759005	0.1753641711159499	-0.1641916542068164	0.3395558253227664	101.4949067829624	near	IPS0
6	7.0	ltm	311	diff_vonmises	-0.1799715200654224	-10.311608532302714	1.0472050884171331	138.54915641764242	1.0291137616663204	139.4991517306657	0.1426236993567826	-0.2626853034467746	0.4053090028035573	83.05133087546	near	LO1
0	1.0	ltm	312	diff_vonmises	0.061671341924339	3.533507609172837	2.044631031184711	0.5261984693662307	2.776729595004703e-16	1.8927898264655243	-0.0261654276883567	-0.2966381810192638	0.2704727533309071	96.00189219013332	near	V1
1	2.0	ltm	312	diff_vonmises	0.0944017101347175	5.408819569536687	3.4809389475217016	0.7487805439582658	0.4803985473135152	1.5911490655634937	0.1464355973321253	-0.2306368007272825	0.3770723980594079	63.241985658543456	near	V2
2	3.0	ltm	312	diff_vonmises	0.0124224178711574	0.7117521153652083	2.469426661932385	1.431089700761417	0.8965067168005135	2.0377581826897817	0.1810539955871124	-0.2042080021477674	0.3852619977348799	67.40804651919811	near	V3
3	4.0	ltm	312	diff_vonmises	-0.0565419399707374	-3.2396145258053117	1.4038023491848235	38.88267065895846	1.3337068389510311	39.86786610708778	0.0917130299543025	-0.2720753410706198	0.3637883710249223	70.55007541065379	near	V4
4	5.0	ltm	312	diff_vonmises	-0.0001978092782423	-0.0113336367918165	1.376500321696267	1.3465010965999782	1.3460565244839473e-17	1.7719775992807336	0.2717654772838473	-0.2467228055843891	0.5184882828682364	114.45194726832584	near	V3ab
5	6.0	ltm	312	diff_vonmises	0.1703847376272321	9.762326359484272	0.7353350902214729	76.35715194800862	0.715483756950773	76.67664650442373	0.1973245709877957	-0.1609737772124742	0.3582983482002699	105.38172019107674	near	IPS0
6	7.0	ltm	312	diff_vonmises	-0.0663785322398172	-3.8032097476145967	0.6461210927093054	83.16659564306491	0.6200195696132769	84.12547969111695	0.1537800841240582	-0.292693856336462	0.4464739404605202	107.82287791187898	near	LO1
0	1.0	ltm	313	diff_vonmises	-0.2071115149268618	-11.866615693869932	5.253446815294368	0.2310110505338334	4.3152522010870287e-16	2.8520278946547304	-0.2482601075303435	-0.4539087130271554	0.2056486054968118	59.534017288658646	near	V1
1	2.0	ltm	313	diff_vonmises	0.0921134418575986	5.277711454864099	10.454554021379238	0.3998754688875742	0.1737908028675383	1.606825469985408	0.2072993800611809	-0.274659726631565	0.481959106692746	40.72495274061302	near	V2
2	3.0	ltm	313	diff_vonmises	0.0823740696352591	4.719686531417096	2.788978372805196	1.2058084148911672	1.0577234838614618	1.6163075557924746	0.1874675961878213	-0.1644328103774709	0.3519004065652923	63.74016030157389	near	V3
3	4.0	ltm	313	diff_vonmises	0.0095227605295331	0.5456139876560165	1.2614011981885709	188.4327532428356	1.243581542569432	189.7818466074438	0.0928662862010583	-0.3521105736659606	0.4449768598670189	73.28911429585546	near	V4
4	5.0	ltm	313	diff_vonmises	-0.1026762834634146	-5.882917698542547	2.350156717651791	0.7793959433871189	3.411664752509373e-18	1.7780102020946862	0.1599070602777589	-0.278952162919411	0.4388592231971699	89.70047503217796	near	V3ab
5	6.0	ltm	313	diff_vonmises	0.4326400418796705	24.788448448068305	0.7053088340262978	125.66291879586888	0.6932413399327216	126.59573896157325	0.0247848625022513	-0.2188065654070055	0.2435914279092568	97.68623562247012	near	IPS0
6	7.0	ltm	313	diff_vonmises	0.1093947410062648	6.267856960585695	2.363335340658242	0.8543580249301701	0.3738765441297637	1.8848892172572804	0.0659407453477541	-0.2439331870905692	0.3098739324383234	74.34966826059076	near	LO1
0	1.0	ltm	314	diff_vonmises	0.2733880569299077	15.663981831365993	0.122712397054893	6.121256003400594	6.6000324972343365e-09	6.836883193194331	0.0091618212141313	-0.229634475903429	0.2387962971175603	170.8626876247685	near	V1
1	2.0	ltm	314	diff_vonmises	0.1659102957696263	9.505959725366784	7.45594508357003	0.3891115244356836	0.6172775185693702	0.7621556411718026	0.2112719429630708	-0.1407688363960113	0.3520407793590822	45.96583945891794	near	V2
2	3.0	ltm	314	diff_vonmises	0.0718516326495831	4.1167953019455	2.3087927533200707	88.95398067202935	2.288072369532073	89.08797846044487	0.1925809976980659	-0.1079209469427624	0.3005019446408283	59.29056886347925	near	V3
3	4.0	ltm	314	diff_vonmises	0.0866776271424039	4.966262213468335	2.047058519012266	121.4055621548634	2.0241244754815093	121.90893568079262	0.1688315416638843	-0.2075923303240863	0.3764238719879706	59.89979548463021	near	V4
4	5.0	ltm	314	diff_vonmises	-0.0274850495355998	-1.574777338097877	1.4156337945936182	0.9823228496055686	1.9139913682318375e-14	1.1983176754730325	0.2201385006211803	-0.1665011822986067	0.386639682919787	113.15531978762058	near	V3ab
5	6.0	ltm	314	diff_vonmises	0.3564721807301011	20.424351469659506	0.8417470879967363	75.53620056301163	0.8265559019792255	75.81687332568644	0.1323802359698227	-0.1153709304043628	0.2477511663741856	97.34542710819672	near	IPS0
6	7.0	ltm	314	diff_vonmises	-0.0104352080370811	-0.5978933788657447	1.7148350788546702	0.9623890986680308	0.1595065032709127	1.4279176108640024	0.1873094768430159	-0.1782524423950058	0.3655619192380218	96.23935288770971	near	LO1
0	1.0	ltm	315	diff_vonmises	-0.2635024378330207	-15.097577579240436	0.4371107218352369	124.0469274506238	0.4200666530270858	127.45515456933217	-0.4001748474487883	-0.6051074111551085	0.2049325637063201	104.096167888831	near	V1
1	2.0	ltm	315	diff_vonmises	0.0262403460135319	1.5034610795383123	3.4353844897985053	0.7491193493618331	0.169393231971729	2.437135950093312	0.0733286227318292	-0.3681610759453818	0.441489698677211	67.6946143997992	near	V2
2	3.0	ltm	315	diff_vonmises	0.0560770404825144	3.2129777472323404	5.089186489564063	0.6048144118362151	0.1724383669301686	1.5612769704770773	0.2363341163788638	-0.2462810418921932	0.4826151582710571	57.63545305549948	near	V3
3	4.0	ltm	315	diff_vonmises	-0.0548189629849874	-3.140895216323664	1.28936358463763	6.408677260096431	0.7493665062746687	8.478223132466605	0.042426827659034	-0.4801735412162672	0.5226003688753013	80.42519377146431	near	V4
4	5.0	ltm	315	diff_vonmises	-0.1498999058858424	-8.58863195666702	1.742173516643052	1.15631409353798	1.8408742887713084e-15	2.670003963439259	0.1236093250425005	-0.4081166031295142	0.5317259281720148	103.3998842512525	near	V3ab
5	6.0	ltm	315	diff_vonmises	0.1566747023304841	8.976799200005223	0.7848810610936847	125.0096622614474	0.7678479607552496	126.18707785544642	0.0563349358042586	-0.2832002128509181	0.3395351486551767	93.41605310520828	near	IPS0
6	7.0	ltm	315	diff_vonmises	0.0220418831054754	1.2629068744644585	0.7494593502336032	42.583735847510575	0.6906293247406393	44.35814294201303	-0.0239238799500114	-0.3856611602233712	0.3617372802733598	93.75359290988854	near	LO1
0	1.0	ltm	316	diff_vonmises	-0.1801778627732559	-10.323431098594874	6.920029288231179	0.2482842047656698	1.5461708034654962e-17	1.909233003352437	-0.0483944830838106	-0.3038636206682851	0.2554691375844744	51.73485811266826	near	V1
1	2.0	ltm	316	diff_vonmises	0.1337286195284628	7.662085499091679	4.332701401054305	0.6953981515856683	0.5524151627774315	1.5100230224842424	0.1709114947064884	-0.2371564566597569	0.4080679513662454	57.2110801571404	near	V2
2	3.0	ltm	316	diff_vonmises	0.1433792042619376	8.215023274153173	5.848894054981304	0.4284443430331665	0.4377399771963522	0.6426651945601818	0.2525543791363999	-0.1047061336405576	0.3572605127769575	53.02346207724713	near	V3
3	4.0	ltm	316	diff_vonmises	0.0621056918027091	3.558394024035469	1.6367725082716091	64.0819063679149	1.5839193389380395	64.8866432118975	0.218246296910177	-0.2802717276027184	0.4985180245128955	67.39621957520376	near	V4
4	5.0	ltm	316	diff_vonmises	-0.0384877659339272	-2.2051865509014146	2.1070262357063294	0.857754704651238	1.8326017358424685e-19	1.1887648618610671	0.2674292028909579	-0.1824457858869758	0.4498749887779337	94.62658781702424	near	V3ab
5	6.0	ltm	316	diff_vonmises	0.3610200382069937	20.68492450891247	1.0811669387767302	112.74239967260615	1.070727978245443	112.9260544811609	0.1557489202180804	-0.0961462934280401	0.2518952136461205	87.19757571908235	near	IPS0
6	7.0	ltm	316	diff_vonmises	0.0715323301205019	4.0985006146412974	1.4605413956617992	0.8208813941816857	0.0590721367958865	1.320658207519024	0.1270917132048435	-0.1791100341923859	0.3062017473972295	108.09323181618768	near	LO1
0	1.0	ltm	317	diff_vonmises	-0.1252558433089221	-7.176631180953191	1.8492964222225	0.5279773885861785	2.7879199037477635e-16	3.9445911466874737	-0.3680608976703138	-0.6213703280324351	0.2533094303621213	100.62776985178664	near	V1
1	2.0	ltm	317	diff_vonmises	0.082591670920147	4.732154166657801	10.40177231701387	0.4217269814322036	0.0715785937669299	2.142878247721302	0.1698426903946908	-0.3501209890509321	0.5199636794456229	41.3674761567095	near	V2
2	3.0	ltm	317	diff_vonmises	0.0490296871739279	2.809194145912775	3.937470355627253	0.6080071572375659	0.2407953890331438	1.619570516287643	0.1402146993276309	-0.2470986211980571	0.387313320525688	63.21170704206352	near	V3
3	4.0	ltm	317	diff_vonmises	-0.0932288797070733	-5.341621335948151	1.4249213959707836	2.6010964441874656	0.4564347915568749	4.850559197815801	-0.0652361006552961	-0.4727925471578916	0.4075564465025955	83.17869320398484	near	V4
4	5.0	ltm	317	diff_vonmises	-0.076893696419078	-4.405684275973384	1.8733273603641256	1.0794882420132164	3.34359935248474e-20	2.341505966354874	0.1625567282245594	-0.3600317407639122	0.5225884689884717	100.04776439894304	near	V3ab
5	6.0	ltm	317	diff_vonmises	0.4336134603053112	24.844221215557788	0.5855394564351002	193.5053082670169	0.5756109695276688	194.66700067246012	0.0597658003307799	-0.298517822345957	0.3582836226767369	109.15417788887862	near	IPS0
6	7.0	ltm	317	diff_vonmises	0.0627764217388213	3.5968240185677747	1.4060853152502069	2.329232515202561	0.4712885086487001	4.211509704813763	-0.0463361977136369	-0.3987688555085353	0.3524326577948983	83.35603834932922	near	LO1
0	1.0	ltm	318	diff_vonmises	-0.0441948292945676	-2.53217719487986	5.160820331662136	0.2914341860855882	1.2999581470974505e-12	3.659760271909316	-0.3255047870550462	-0.5824604774150555	0.2569556903600092	60.08654038967581	near	V1
1	2.0	ltm	318	diff_vonmises	0.0627560419478961	3.5956563425604013	5.419130936723198	0.6053788280898195	0.1856252066978978	2.1907141191499973	0.1316247300123725	-0.3531383911328543	0.4847631211452268	55.035836937270346	near	V2
2	3.0	ltm	318	diff_vonmises	0.0194428672520847	1.1139942351775758	3.936423147577929	0.7071687741334647	0.2958111088230193	1.609697164280352	0.2020036380156476	-0.2430784236206274	0.4450820616362751	62.94063023910735	near	V3
3	4.0	ltm	318	diff_vonmises	-0.1283522039146074	-7.3540395755095265	0.948533324155122	136.0867524216022	0.9223824660016708	138.09266519469574	0.0205466582804945	-0.4569780261059328	0.4775246843864273	83.00842256334556	near	V4
4	5.0	ltm	318	diff_vonmises	-0.0846145547451998	-4.848056872278601	2.1487323860461376	1.052094031875631	1.659865360265084e-16	2.2614767834739924	0.2067955271611835	-0.3522159889535907	0.5590115161147743	93.72666637791198	near	V3ab
5	6.0	ltm	318	diff_vonmises	0.2403274242731735	13.76974711210274	0.6846283858509152	149.47130078907728	0.6721194885841113	150.44583199267487	0.0838535982671686	-0.2560346187282363	0.3398882169954049	101.85938395266344	near	IPS0
6	7.0	ltm	318	diff_vonmises	-0.0124970101184816	-0.7160259363212818	0.8097259755965278	167.5580816660813	0.7945251344834551	169.21137765227982	-0.0138985303315024	-0.3620699269369076	0.3481713966054052	88.87545420739002	near	LO1
0	1.0	ltm	319	diff_vonmises	-0.159952970010449	-9.164630102181356	12.782418096296746	0.2827315340091352	0.1233017924458811	3.070111328908947	-0.151495303350014	-0.5228689174863701	0.3713736141363561	36.47378488104221	near	V1
1	2.0	ltm	319	diff_vonmises	0.038154039370362	2.1860654272977253	2.461305111438956	1.4725503162068858	0.6207214950549342	2.634316483975498	0.1500282400055792	-0.3127059715523688	0.462734211557948	69.54862288203873	near	V2
2	3.0	ltm	319	diff_vonmises	0.072950608983545	4.179762007666281	4.699859212364687	0.6021076108661897	0.4593596420156081	0.9101041493320872	0.2874350660095616	-0.1393528488354788	0.4267879148450404	58.13163277666018	near	V3
3	4.0	ltm	319	diff_vonmises	0.0012600061397714	0.0721930339694725	1.3759578732055904	180.03574580161825	1.3531125301297835	181.10487636269607	0.3038084713763709	-0.3559112234610921	0.6597196948374631	73.79795951823752	near	V4
4	5.0	ltm	319	diff_vonmises	-0.0886503757727103	-5.0792923840251065	2.57435477298301	0.8479520818056764	5.0426988734662885e-14	1.6172402651806936	0.2510164472598901	-0.254439495409884	0.5054559426697741	85.72094236272625	near	V3ab
5	6.0	ltm	319	diff_vonmises	0.3098646969025941	17.753939352619117	0.9923118932806224	60.15711891510193	0.9696686958095424	60.63020447221144	0.0991431971915126	-0.140495529202516	0.2396387263940287	86.71116404067578	near	IPS0
6	7.0	ltm	319	diff_vonmises	0.0254723829521781	1.4594600373007962	0.7000141197830358	45.33712181286776	0.6694918190428057	45.956492989028185	0.090895880421062	-0.1798940836982998	0.2707899641193618	103.17289516819493	near	LO1
0	1.0	ltm	320	diff_vonmises	-0.1144957710593838	-6.560124453798808	19.193392968007	0.2427043432994221	0.1074008409943714	4.227030978641892	-0.3257468470370753	-0.7236612298243876	0.3979143827873123	29.968003240410013	near	V1
1	2.0	ltm	320	diff_vonmises	0.0812029218031996	4.6525847034541945	6.018147695672019	0.6049817522657277	0.2310364767959696	2.044935520301314	0.1739697728843841	-0.3367653043355991	0.5107350772199832	52.12256818328612	near	V2
2	3.0	ltm	320	diff_vonmises	0.0718038655103964	4.114058446470689	3.930198878344688	0.7086712053704102	0.6666657816656991	1.1038766719844302	0.2325368348544111	-0.1581748987637071	0.3907117336181183	60.14908544367566	near	V3
3	4.0	ltm	320	diff_vonmises	-0.0270552143110795	-1.5501495938468048	1.1684586706414974	237.8153350129419	1.1507831737291054	239.4417436507092	0.17912929756082	-0.4355653455788761	0.6146946431396962	77.45264443391295	near	V4
4	5.0	ltm	320	diff_vonmises	-0.1282018470584237	-7.345424762229347	3.119310589018696	0.7276348349795464	6.635970628870034e-18	1.9839590535782856	0.1714639534067432	-0.3148054613549895	0.4862694147617328	77.77191592768082	near	V3ab
5	6.0	ltm	320	diff_vonmises	0.3367037783884792	19.29170544776804	0.8114127698038278	104.9959476300855	0.7964058196923527	106.00000952014278	-0.00329792304926	-0.2217421526803438	0.2184442296310837	89.09501991726924	near	IPS0
6	7.0	ltm	320	diff_vonmises	0.1215250522202658	6.962872597328166	2.424697373923025	0.7059323747417345	0.3412730489344615	1.7254973056791405	0.0333101708449707	-0.230661897752518	0.2639720685974888	73.63515923979608	near	LO1
0	1.0	ltm	321	diff_vonmises	0.3260790022723941	18.682950618044966	0.8968990817950319	103.03702693114644	0.8801434903050068	104.345217125033	-0.0882523278956952	-0.2654318957847668	0.1771795678890715	79.59252813997435	near	V1
1	2.0	ltm	321	diff_vonmises	0.0179797354596662	1.0301629586005876	13.08980567775454	0.3191900729160632	0.4572843623177934	0.9450511038072656	0.2304857156929284	-0.1880212845096809	0.4185070002026094	35.81448547414274	near	V2
2	3.0	ltm	321	diff_vonmises	-0.0202436396573895	-1.1598751143520818	2.1975050598901986	45.551159170122006	2.1634348400284606	45.58723496994551	0.2121593199705493	-0.0822606896495363	0.2944200096200857	62.63642087265001	near	V3
3	4.0	ltm	321	diff_vonmises	-0.1715523026771284	-9.82922290915031	1.5428559215923654	126.9561641609868	1.524576304712859	127.7233662085096	0.067493323811	-0.2215039273860242	0.2889972511970242	66.30147165837178	near	V4
4	5.0	ltm	321	diff_vonmises	-0.0260166449768383	-1.4906439542630696	3.2691032445224057	0.7215659521358786	4.653060352200232e-17	1.0600650732766537	0.3273677611330728	-0.1679965526817764	0.4953643138148492	75.93508473493492	near	V3ab
5	6.0	ltm	321	diff_vonmises	0.030330243601117	1.7377949499476788	0.8727104912771442	56.220369735339766	0.850268005976463	56.47346501955742	0.1613902435712688	-0.1201771577434369	0.2815674013147058	96.74271672054827	near	IPS0
6	7.0	ltm	321	diff_vonmises	-0.1299585774328536	-7.446077998426619	1.4255542434711608	136.19101808237528	1.4092898823718547	136.83264529029572	0.1263320301134811	-0.1989208290235211	0.3252528591370023	71.19327401516117	near	LO1
0	1.0	ltm	322	diff_vonmises	-0.0652213894274852	-3.736910348174073	2.5401793623020144	0.2858910455527985	1.1842407063657277e-37	1.7632744303446153	-0.1105615361120321	-0.2795763301167586	0.1690147940047264	86.30136224308879	near	V1
1	2.0	ltm	322	diff_vonmises	0.0597421742708667	3.4229744446557206	15.352034029574009	0.3111562494125639	0.3642666711548659	1.050308091426831	0.2492599304116827	-0.2039121492798362	0.4531720796915189	33.45080788015835	near	V2
2	3.0	ltm	322	diff_vonmises	0.0482838052540725	2.7664582598899474	2.1634915916322126	65.07461920029166	2.137667368450705	65.21250544900875	0.1786196454742139	-0.1015242737388515	0.2801439192130655	61.27984544861869	near	V3
3	4.0	ltm	322	diff_vonmises	-0.0139215519113318	-0.7976461687915978	1.5352771738106916	160.6622697439962	1.5195049584262377	161.50625781845625	0.072286437543255	-0.2426619594078829	0.3149483969511379	66.39463015700525	near	V4
4	5.0	ltm	322	diff_vonmises	-0.0379310794952544	-2.173290767453295	2.6270330295915345	0.7102809662514727	4.3634505231111257e-17	1.243644252426266	0.232994289907759	-0.1956799576709997	0.4286742475787587	84.85753747662739	near	V3ab
5	6.0	ltm	322	diff_vonmises	0.4188814861168788	24.000141270664944	0.5510273649095204	104.89253576208864	0.5403855370833458	105.44420647768062	0.0696913167271908	-0.1684709648956825	0.2381622816228734	115.3563442857967	near	IPS0
6	7.0	ltm	322	diff_vonmises	0.0303272213810023	1.737621789490348	1.2967209563243651	121.88166963220452	1.27947121832811	122.55173043034316	0.1191135676792782	-0.1979825794376761	0.3170961471169544	74.59986271272399	near	LO1
0	1.0	ltm	323	diff_vonmises	0.504822157405873	28.92417902404544	0.7391745793366578	179.7107186239251	0.7242708890204687	183.12197759199557	-0.4737354419753128	-0.6150401387292526	0.1413046967539397	40.59969836971521	near	V1
1	2.0	ltm	323	diff_vonmises	0.0461955601114312	2.646810626627904	14.63819938988565	0.3605984211091145	0.1705903208011892	1.6712222704005792	0.232221640958253	-0.2917774740652387	0.5239991150234917	34.635349510514374	near	V2
2	3.0	ltm	323	diff_vonmises	0.0815658791613165	4.673380628217509	1.832642865236329	53.46140561454117	1.7876371082547289	53.90542184727157	0.1785768744394538	-0.1810010947810987	0.3595779692205525	64.35482397215031	near	V3
3	4.0	ltm	323	diff_vonmises	-0.1788453678257762	-10.247084761881782	1.0864733535468016	202.6720525504272	1.0707833607950388	204.42581987476217	-0.0258520137382021	-0.3979632593710853	0.3721112456328832	75.81083892537316	near	V4
4	5.0	ltm	323	diff_vonmises	-0.1150324641227626	-6.590874701224361	3.65376357374946	0.6632286014593864	9.667335551920718e-22	1.939024850677741	0.1765427729335809	-0.3082800504226592	0.4848228233562401	71.72220364259161	near	V3ab
5	6.0	ltm	323	diff_vonmises	0.1052825020659374	6.032243024955587	0.7455944337049556	113.89959120276517	0.7299946501779258	115.10195822994255	-0.0099174898495419	-0.2635266879954656	0.2536091981459236	92.8963759579412	near	IPS0
6	7.0	ltm	323	diff_vonmises	0.1078074964976885	6.17691454918896	1.4219317746359112	224.8194964496723	1.4067216521808434	226.3847560413392	-0.0435881259038666	-0.3894941773843925	0.3459060514805259	65.40470359249264	near	LO1
0	1.0	ltm	324	diff_vonmises	-0.0046056201775893	-0.2638825982161633	5.382935464520081	0.2445879517486648	0.0342361816323092	0.2291390526904336	0.1828338850828568	-0.0358856162819399	0.2187195013647967	58.5028190030956	near	V1
1	2.0	ltm	324	diff_vonmises	0.1047647048168805	6.00257542794114	3.453188787443872	8.795117667328267	3.3059775149276382	8.66077941933896	0.2430202606202476	-0.0393267031835447	0.2823469638037923	53.58765118985113	near	V2
2	3.0	ltm	324	diff_vonmises	-1.3996857423242552	-80.19608567981548	2.389788027953693	121.31932949003146	2.4102128393739592	120.70082125296568	0.2200261723936627	0.0055699595944531	0.2144562127992095	65.78285232373334	near	V3
3	4.0	ltm	324	diff_vonmises	-0.0142429918060355	-0.8160633181252496	2.686357244532116	18.624222167087147	2.584510189987827	18.62739350029619	0.2529461705976086	-0.090270675361852	0.3432168459594606	57.21439436980475	near	V4
4	5.0	ltm	324	diff_vonmises	0.0639889851654966	3.666298785308189	2.416182138616707	0.818141787312421	1.9129585641054456e-21	0.1936707027448164	0.4417485727707114	-0.0270580456897379	0.4688066184604493	88.48297418029816	near	V3ab
5	6.0	ltm	324	diff_vonmises	-0.0087824971704413	-0.5032000214518777	0.6653830530761815	14.625838593023904	0.6208071588653007	14.174102836711384	0.2455760834701381	-0.0292285529743911	0.2748046364445293	124.0993968037087	near	IPS0
6	7.0	ltm	324	diff_vonmises	-0.2111390894588408	-12.097378716226707	1.1297306388908264	58.6537716890289	1.107781400736782	58.51095455584629	0.29217641628804	-0.076565708718467	0.368742125006507	91.38594995595771	near	LO1
0	1.0	ltm	325	diff_vonmises	0.0158025210764964	0.9054177633497762	5.826575772207621	0.3539376484198337	0.005354103433431	2.7499248627462984	-0.1071868612537949	-0.4369002515786109	0.329713390324816	56.14725243924329	near	V1
1	2.0	ltm	325	diff_vonmises	0.1061628181286221	6.0826814199849935	6.229917460223481	0.6184524602055634	0.3789129007457428	1.7386469929477943	0.2123201005032315	-0.2971018794596389	0.5094219799628705	50.27375598800632	near	V2
2	3.0	ltm	325	diff_vonmises	0.0192517275131567	1.1030427348397702	1.4419100766166657	60.387030289917895	1.402162816307908	61.00624292548887	0.1690476005127372	-0.2063868605578989	0.3754344610706361	72.06285580324746	near	V3
3	4.0	ltm	325	diff_vonmises	-0.1186894283811895	-6.800403319062411	1.312551496210364	5.478631783702807	0.826196556776216	6.8586323632187804	0.0731502785614619	-0.337260488142722	0.4104107667041839	79.52582248923187	near	V4
4	5.0	ltm	325	diff_vonmises	-0.0153826307705895	-0.881359820962852	2.034605870050216	1.0766060620005944	0.0142201066920708	1.652840155076877	0.2943759784843198	-0.2497390817923965	0.5441150602767163	95.5685358587701	near	V3ab
5	6.0	ltm	325	diff_vonmises	0.3565966132833841	20.43148092979666	0.6700976360812714	124.72759291759974	0.6584733850889418	125.16995323400104	0.1534316219318086	-0.1735327900313894	0.326964411963198	108.13292038338123	near	IPS0
6	7.0	ltm	325	diff_vonmises	-0.056672433579074	-3.2470912588164285	0.7162132638590203	99.90878706348748	0.6959788667102925	100.98650895503737	0.0795644132975574	-0.2746582983107277	0.3542227116082852	99.28982795914165	near	LO1
0	1.0	ltm	326	diff_vonmises	0.0507992714485075	2.910583856338908	5.174272984162293	0.2835845370585104	2.796662376214461e-09	3.480655810723079	-0.3035328701766251	-0.5539555521925813	0.2504226820159562	59.99677984741206	near	V1
1	2.0	ltm	326	diff_vonmises	0.0755463027843337	4.328484307359745	11.431186754608197	0.3967355050654569	0.1425883967263766	1.8364651109760803	0.1935590769411496	-0.3115443986985841	0.5051034756397337	39.10953321673489	near	V2
2	3.0	ltm	326	diff_vonmises	0.0658599417568518	3.77349670164503	2.6730013295391664	1.1837996001087665	0.7217611959156215	2.019355472625968	0.1424906441885961	-0.2418353160228351	0.3843259602114313	66.50430559227925	near	V3
3	4.0	ltm	326	diff_vonmises	-0.276960856249197	-15.86868815340848	0.8479500571863644	144.6971057873762	0.8281632410994171	146.8278608073606	-0.1119683113086154	-0.4370456098850219	0.3250772985764065	83.48263575453691	near	V4
4	5.0	ltm	326	diff_vonmises	-0.0920352850591974	-5.273233400175454	2.448702970889186	0.8858481155483419	4.351641899481472e-17	2.073972159864833	0.1856566044489757	-0.3262322340223827	0.5118888384713585	87.89482727497861	near	V3ab
5	6.0	ltm	326	diff_vonmises	0.2389990699103403	13.69363801341461	0.6774694888938304	135.43632802902755	0.6632957818702979	136.49693536294933	0.070930723927745	-0.2699907873469573	0.3409215112747024	101.7737033180135	near	IPS0
6	7.0	ltm	326	diff_vonmises	0.0182997314636395	1.0484973790893086	1.0742709024254662	248.27382407368543	1.060957040720245	250.30386259273556	-0.0958558651076373	-0.4422167281700027	0.3463608630623653	74.18828026313196	near	LO1
0	1.0	ltm	327	diff_vonmises	-0.8129973603046204	-46.58131750073148	0.0001501056060036	3220.2167528499976	2.6782672470941834e-37	3223.4248056436013	-0.4336454906781455	-0.5875036556446958	0.1538581649665502	162.00589357034576	near	V1
1	2.0	ltm	327	diff_vonmises	-0.0243615785646157	-1.3958156340288566	9.61827473774111	0.3524705636428452	4.1509895716922237e-11	2.0759217203574933	0.0996437778323542	-0.330393201350279	0.4300369791826333	43.78160231533991	near	V2
2	3.0	ltm	327	diff_vonmises	-0.0143137325276481	-0.8201164629133645	4.7052208041968	0.4983866176095154	0.0696664773838519	1.2443100305456298	0.2062779919060371	-0.1941194085630714	0.4003974004691085	61.4611604238998	near	V3
3	4.0	ltm	327	diff_vonmises	-0.1361760998386368	-7.802315791306023	0.98683574473097	129.2145440413464	0.9611652362259376	131.1597227374245	-0.0215610452772097	-0.433100836071393	0.4115397907941833	80.13606216226717	near	V4
4	5.0	ltm	327	diff_vonmises	-0.1032529337739292	-5.915957327589942	2.7003721693187464	0.8811080769134771	4.6336601198583125e-17	2.2444221101513744	0.1859893984319562	-0.3547592764634825	0.5407486748954388	83.68245847414536	near	V3ab
5	6.0	ltm	327	diff_vonmises	0.1049567058389611	6.013576276168559	0.7948864024086996	121.43721105974409	0.7789159680482495	122.45545365777166	0.0652893890562893	-0.2511824517609486	0.316471840817238	93.4155256621542	near	IPS0
6	7.0	ltm	327	diff_vonmises	0.0009271222846439	0.0531201940026268	1.1339317293191469	212.9398702164576	1.120253930172603	214.43351337287805	-0.0006969528773623	-0.3490158680013984	0.348318915124036	74.81883402680725	near	LO1
0	1.0	ltm	328	diff_vonmises	-0.570894692347483	-32.709856417930354	0.0002505617863116	1687.165804805038	3.495557280084621e-33	1689.421603398568	-0.2917370997893727	-0.426297465173775	0.1345603653844023	170.8926663220256	near	V1
1	2.0	ltm	328	diff_vonmises	-0.0452786347657008	-2.594274674188981	12.195441104278643	0.2868676759048883	3.220255195615943e-15	1.6180591413690089	0.1377586943705704	-0.2575221105538042	0.3952808049243747	38.83063993009054	near	V2
2	3.0	ltm	328	diff_vonmises	-0.040689300279969	-2.331325177382703	4.056577442836196	0.5484303902499619	0.3019772976279882	0.9948243349928172	0.2155316956823085	-0.1485269133267774	0.364058609009086	62.9946146128994	near	V3
3	4.0	ltm	328	diff_vonmises	-0.0695251844467236	-3.983499638665856	1.2763901004221831	159.87384108879093	1.25679625630197	161.1722151780201	0.0668083127640031	-0.3337788885815094	0.4005872013455125	72.33281151880061	near	V4
4	5.0	ltm	328	diff_vonmises	-0.0794390562620905	-4.551522652320079	2.676205795701457	0.8246208018761412	2.228658826646518e-17	1.8563242018656725	0.2102462724624265	-0.2930474735543762	0.5032937460168028	84.07111647407046	near	V3ab
5	6.0	ltm	328	diff_vonmises	0.1011706280098895	5.796649995654705	0.7223464782965515	113.22590654787932	0.708466556525214	114.04893312317586	0.0641987919604289	-0.2107178887427814	0.2749166807032104	98.76005746997632	near	IPS0
6	7.0	ltm	328	diff_vonmises	-0.0218231925560906	-1.2503768289653072	1.205606281417376	175.06547386699734	1.1913940382044417	176.06222150738645	0.0833753712775262	-0.2610503936765376	0.3444257649540638	75.42865945577077	near	LO1
0	1.0	ltm	329	diff_vonmises	-0.036287280226256	-2.079108006973001	7.117874129859614	0.546933834585327	0.1272635239626534	4.352241235452651	-0.212362806381108	-0.7192741633491502	0.5069113569680421	47.94093655884444	near	V1
1	2.0	ltm	329	diff_vonmises	0.0853823949285089	4.892050874122764	3.65890319908841	1.1222447303168004	0.4664669184209188	2.588452349081008	0.1991341973212416	-0.3859869979078786	0.5851211952291202	61.74444053025172	near	V2
2	3.0	ltm	329	diff_vonmises	0.0507864665038078	2.909850187050718	4.115164552687804	0.7114473507769349	0.2458258532707726	1.519727825077287	0.2508691445051597	-0.2305333781020845	0.4814025226072443	62.80562791343141	near	V3
3	4.0	ltm	329	diff_vonmises	-0.0786471689585813	-4.506150851979006	1.6366471100457096	3.061019834455864	0.4825664550008794	4.913267526248424	0.2016343071145703	-0.4742883739276605	0.6759226810422309	83.6023442395257	near	V4
4	5.0	ltm	329	diff_vonmises	-0.0468949044342351	-2.686880104751001	2.150888115342707	1.108523793460987	4.885243441645932e-11	1.8896158224903663	0.2967201713629698	-0.29264886876885	0.5893690401318199	93.6890371947973	near	V3ab
5	6.0	ltm	329	diff_vonmises	0.3699217796931733	21.194956726387076	0.8555098638515958	124.65664513684602	0.8431812031721867	125.12356313755735	0.1476323767337319	-0.1609619648005296	0.3085943415342616	95.01402219181534	near	IPS0
6	7.0	ltm	329	diff_vonmises	0.010205316154397	0.5847215442436304	0.8722379911410445	1.424815697347964	1.091055316212256e-11	2.548474596537156	0.0466694713261017	-0.3265703030361933	0.3732397743622951	134.0937319367485	near	LO1
0	1.0	ltm	330	diff_vonmises	-0.6982150978559398	-40.004778299459126	0.335696775039645	1.3156050204769831	1.9148585150736345e-14	4.903225274865972	-0.4955419621903861	-0.634825258393453	0.1392832962030669	151.51833280339952	near	V1
1	2.0	ltm	330	diff_vonmises	0.0059108446622822	0.3386664525062013	15.16115335101976	0.318118451029044	0.0044626659778399	2.1654298150125766	0.1436478575160556	-0.3452137554769374	0.488861612992993	34.75112951663658	near	V2
2	3.0	ltm	330	diff_vonmises	0.02458015841917	1.4083393371814006	4.9483612951166185	0.4222383825131329	0.1159384278935427	1.0434697862103588	0.1782083892984137	-0.1632209232493666	0.3414293125477804	59.28235043101717	near	V3
3	4.0	ltm	330	diff_vonmises	-0.0025716228069693	-0.1473431333389293	1.0393649465225772	140.12316823307984	1.0139807860837506	142.08674816457108	-0.0049346284327	-0.4468404771537564	0.4419058487210563	78.43126955878745	near	V4
4	5.0	ltm	330	diff_vonmises	-0.116141786152554	-6.654434171652296	2.7438594990760183	0.7690726693475275	7.393656317438163e-15	2.206281501917111	0.1273770416262886	-0.3491606523010425	0.4765376939273311	83.01171808982974	near	V3ab
5	6.0	ltm	330	diff_vonmises	0.430920147716899	24.689905771332317	0.6219422303150635	144.00650077513723	0.6103631233896133	145.26524318890287	-0.0206669256631357	-0.276304617579056	0.2556376919159202	101.63493933679118	near	IPS0
6	7.0	ltm	330	diff_vonmises	0.158807931183212	9.099024210002066	1.2786090947300477	100.83730122501676	1.2501893827394812	102.12714152999052	0.023112873282443	-0.3196755937332103	0.3427884670156533	71.24147957880663	near	LO1
0	1.0	ltm	331	diff_vonmises	0.3072944709427949	17.606676252727663	0.9086129386266312	162.0151634019901	0.8879640182716142	165.041386077477	-0.3324943504432269	-0.5865445332789996	0.2540501828357726	73.66372206961165	near	V1
1	2.0	ltm	331	diff_vonmises	0.0309011008596317	1.7705026615649788	5.627301601809427	0.5985218251330272	0.3090999049367738	1.9375085586742773	0.1423643289211228	-0.3218734962060665	0.4642378251271893	52.77726926820304	near	V2
2	3.0	ltm	331	diff_vonmises	-0.0816711018037584	-4.679409441538645	2.8722220780015117	0.889100742854573	0.4213027026301116	1.498071290930153	0.2202331829389224	-0.1960829848281761	0.4163161677670985	70.85697927411468	near	V3
3	4.0	ltm	331	diff_vonmises	-0.3499897298022834	-20.052934390594885	0.9681341952893472	122.56951543625988	0.942380876353314	124.28855709241536	0.03059636234196	-0.3968086281635088	0.4274049905054689	82.46678685777849	near	V4
4	5.0	ltm	331	diff_vonmises	-0.0608283414580486	-3.485207240326841	3.2004278352409155	0.9016324466268592	1.2533263938741748e-16	1.7881281138458411	0.3279274482917341	-0.2835723333860344	0.6114997816777685	76.76206016632099	near	V3ab
5	6.0	ltm	331	diff_vonmises	0.0171307431856827	0.9815192844621168	1.5096920523291777	1.3675279038794106	0.3703169380822425	1.9156529816203665	0.1678888776591547	-0.1831412751014447	0.3510301527605994	92.57031194212873	near	IPS0
6	7.0	ltm	331	diff_vonmises	-0.1371751374642752	-7.859556430829873	1.173377897524331	184.9714170107666	1.1582053242360213	186.34901156070632	0.009346367182232	-0.3279640234719387	0.3373103906541708	73.84623630637549	near	LO1
0	1.0	ltm	332	diff_vonmises	-0.3663680996037665	-20.991345855524383	13.291518078619609	0.1443313734345521	1.4811804942149214e-20	2.5677523394155366	-0.2007935236108122	-0.408670477453168	0.2078769538423557	37.17577757313401	near	V1
1	2.0	ltm	332	diff_vonmises	0.02381677021941	1.364600415205063	9.765151067482895	0.3723281201108226	0.1716439807602315	1.6813347597732768	0.1424623938746757	-0.2863024511268121	0.4287648450014878	41.93569004200276	near	V2
2	3.0	ltm	332	diff_vonmises	0.0281575286888282	1.6133075553883929	4.63296981151095	0.4015900297625119	0.1111216603192278	0.7529360005731044	0.2007764948698777	-0.1162373643540282	0.317013859223906	61.66819354873425	near	V3
3	4.0	ltm	332	diff_vonmises	-0.0445226118524122	-2.5509577520423554	1.2116389567972583	65.15704185309417	1.1653545973730404	66.47855035928205	0.065415060383124	-0.3321857965014416	0.3976008568845657	74.73456552990797	near	V4
4	5.0	ltm	332	diff_vonmises	-0.0410320823709718	-2.350965144489833	2.7672866900812223	0.8074797773724386	2.3491464107411422e-20	1.4817883898777513	0.2690556192947094	-0.2338404901446108	0.5028961094393203	82.65950784985907	near	V3ab
5	6.0	ltm	332	diff_vonmises	0.3043771505372392	17.439526106001924	0.7952818532298447	117.26380786463012	0.7842592058057163	117.6959446875347	0.116913143864842	-0.1436674583190829	0.260580602183925	98.04684550623628	near	IPS0
6	7.0	ltm	332	diff_vonmises	0.0639381069424021	3.663383677855749	1.1090783443899856	142.01322158935483	1.0955778984683098	142.77268695651017	0.0856556194655908	-0.2021144600292892	0.2877700794948801	79.61544439295903	near	LO1
0	1.0	ltm	333	diff_vonmises	-0.0266802736924359	-1.5286670788304983	2.9250655598409927	0.434763213141863	1.4882147851680342e-15	3.5739810482233816	-0.2881781298785356	-0.5680084854043524	0.2798303555258168	80.36954602336425	near	V1
1	2.0	ltm	333	diff_vonmises	0.027614438009407	1.582190751564664	10.228977134353816	0.4692083129049758	0.1133033675074566	2.2411977708573905	0.1926367312371125	-0.3727733056383276	0.5654100368754402	41.41510320080752	near	V2
2	3.0	ltm	333	diff_vonmises	-0.1390566410210745	-7.967358643773324	2.514433908365014	0.9319048884116248	0.2920558693013972	2.081824929523699	0.1166877641018442	-0.2804230002833758	0.3971107643852201	75.1816800799999	near	V3
3	4.0	ltm	333	diff_vonmises	-0.1750110772803742	-10.027396096203333	2.9761910557906863	0.6788466254507779	0.0368647581704491	2.710442373852564	-0.0048283667861034	-0.4182639001853755	0.4134355333992721	76.8500113871907	near	V4
4	5.0	ltm	333	diff_vonmises	0.0209782543781001	1.201965437416979	1.1750695848945714	3.2505691401164145	0.3591061959418763	4.269989728534679	0.2748352158017972	-0.3470835151971758	0.6219187309989731	101.6648187246191	near	V3ab
5	6.0	ltm	333	diff_vonmises	0.5365415746757841	30.74156776222572	0.2918288557429202	185.31392480600348	0.2823515931884948	186.30374802968487	0.1082318253844363	-0.3511557068883668	0.4593875322728031	141.52112233109324	near	IPS0
6	7.0	ltm	333	diff_vonmises	-0.0238034050022958	-1.3638346446721443	0.8563936375607857	189.5187958250412	0.841703440302377	191.15916682830647	0.0200922418016062	-0.3718847330404564	0.3919769748420627	87.44736558843374	near	LO1
0	1.0	ltm	334	diff_vonmises	-0.1690706841421965	-9.687036640737276	5.583282147012792	0.1974938847486932	6.297830093917021e-27	2.6121179860447548	-0.2341654177585836	-0.4157289218039523	0.1815635040453687	57.71370354455081	near	V1
1	2.0	ltm	334	diff_vonmises	0.0387891753372714	2.2224560376185933	16.230188422246183	0.3782560459430701	0.3241961418472613	1.5518620738615294	0.2702843007995651	-0.2974857066805366	0.5677700074801018	32.54157870862747	near	V2
2	3.0	ltm	334	diff_vonmises	0.0290320818410698	1.6634157599716972	1.6711934159713435	49.049003563162536	1.6381533628924276	49.33068252209879	0.1453762609777236	-0.120394896931705	0.2657711579094286	68.28447103601363	near	V3
3	4.0	ltm	334	diff_vonmises	-0.0636286336279487	-3.6456521630656487	1.1404097403423463	107.2484042535616	1.1169213539066394	108.5101971355454	0.0110248055257784	-0.2981495241411256	0.309174329666904	75.18939845761167	near	V4
4	5.0	ltm	334	diff_vonmises	-0.029659939485311	-1.6993893531217474	2.521216240856906	0.9053576320931068	0.1188979390211928	1.6317052220868702	0.2447680099015406	-0.2316492330517491	0.4764172429532898	81.82247791740312	near	V3ab
5	6.0	ltm	334	diff_vonmises	0.7454383521180767	42.71047146355275	0.2235249961717779	83.32671981522853	0.2105983849718938	84.0538458209826	0.0465035581566759	-0.2438012179963706	0.2903047761530466	144.25119455179572	near	IPS0
6	7.0	ltm	334	diff_vonmises	0.151164271183048	8.661074751959703	1.4488629877576185	155.89030922995818	1.4329743997691964	156.74739536583925	0.0773943866891215	-0.2410504659976453	0.3184448526867669	68.58932863660499	near	LO1
0	1.0	ltm	335	diff_vonmises	-0.0060371051857012	-0.3459006476172235	4.902741631933687	0.4013364664579627	1.1824416214815731e-20	2.8201557474273	-0.1044873532189774	-0.4488227335139526	0.3443353802949752	61.68044278414453	near	V1
1	2.0	ltm	335	diff_vonmises	0.092091435607105	5.276450589587912	8.024470583316159	0.5556781037381552	0.2995354792901247	1.7589503902236	0.2481325070626724	-0.3068469223036011	0.5549794293662735	45.41798649035815	near	V2
2	3.0	ltm	335	diff_vonmises	-0.0372154991367681	-2.132291033009575	1.3130213587238004	101.7898256983154	1.2900707560813067	102.48777051978048	0.148382370904379	-0.2142251665933159	0.3626075374976949	74.74219929678316	near	V3
3	4.0	ltm	335	diff_vonmises	-0.064360316455465	-3.6875745010245273	2.42893578588714	1.018235974983448	0.2791008056253508	2.364855415825965	0.1019855707643813	-0.3182116866020526	0.4201972573664339	76.18283638225404	near	V4
4	5.0	ltm	335	diff_vonmises	0.0296855010865399	1.7008539249897612	1.0868475588955164	3.8190171865190767	0.4800611708111828	4.359987135875249	0.3079128755103719	-0.2532637775525289	0.5611766530629009	101.96618692335502	near	V3ab
5	6.0	ltm	335	diff_vonmises	0.4906056016877893	28.109630382186666	0.5691624704913689	148.72749667665843	0.5590210120749008	149.2185982114865	0.1577673223770261	-0.2019850200685358	0.359752342445562	116.4856713987176	near	IPS0
6	7.0	ltm	335	diff_vonmises	-0.0252495244532903	-1.4466911858859026	0.6555494713503209	48.56705722085954	0.6158338485183695	49.51695654789654	0.1110891818947532	-0.2686870356959812	0.3797762175907344	106.44079248692536	near	LO1
0	1.0	ltm	336	diff_vonmises	-0.0629629450200777	-3.607511015364697	8.924210334890628	0.2038288980208595	0.0710766748454011	1.7771942454524374	-0.064026539477688	-0.2899860963217561	0.225959556844068	44.06803482708179	near	V1
1	2.0	ltm	336	diff_vonmises	0.126803131056636	7.265284238589502	7.953964614438445	0.4967400148301443	0.7682362484557509	1.0660539300293683	0.2322683074187508	-0.2104901551798076	0.4427584625985584	43.59786819704468	near	V2
2	3.0	ltm	336	diff_vonmises	0.1197127115832384	6.859033127786445	2.6408073354445816	68.27913188308919	2.615016030485446	68.32969858413168	0.2063945343119826	-0.0900989723863983	0.2964935066983809	56.4147036843008	near	V3
3	4.0	ltm	336	diff_vonmises	-0.025709783714537	-1.473062099037147	1.6517077492402266	165.13292096559783	1.6356439575723	165.91111990666906	0.094468492674423	-0.2398529149772059	0.334321407651629	64.57311040656765	near	V4
4	5.0	ltm	336	diff_vonmises	-0.061087771396027	-3.500071480852344	3.490334962305407	0.5617942604598204	7.838959139152068e-14	1.058803169699157	0.2321238965025766	-0.1681411943455042	0.4002650908480808	73.42834069580272	near	V3ab
5	6.0	ltm	336	diff_vonmises	0.2308394528604354	13.22612639401207	0.829942616509497	86.20010019681678	0.8173334423068395	86.64085109889454	0.0722238202900023	-0.1256333910206457	0.197857211310648	94.07449601418114	near	IPS0
6	7.0	ltm	336	diff_vonmises	0.0424758472586399	2.433686779162395	1.3610575169910053	103.63835736950966	1.3418329821096486	104.31134133299804	0.0862503777270546	-0.1917568238865712	0.2780072016136259	71.80584605863186	near	LO1
0	1.0	ltm	337	diff_vonmises	-0.0246598252942734	-1.4129039128918242	4.814928093727588	0.3522955179957989	5.3462319401969545e-20	3.800624240399193	-0.305528308322435	-0.6048684509048521	0.2993401425824171	62.25587778183333	near	V1
1	2.0	ltm	337	diff_vonmises	0.0848129379301166	4.859423391500702	3.8154800856753184	0.8193875210897138	0.2793190258195822	2.4077857485020258	0.1169494684844105	-0.3684291503800367	0.4853786188644472	62.76607472162658	near	V2
2	3.0	ltm	337	diff_vonmises	0.0880514937084562	5.044978969317266	5.398965804357876	0.5575839454541258	0.1262522213259857	1.5639883238596193	0.222341348185657	-0.2476086097273411	0.4699499579129982	56.55296872605447	near	V3
3	4.0	ltm	337	diff_vonmises	-0.124353942925219	-7.124956095425772	1.2095534524729907	5.216524223176775	0.6089185753690066	7.403012143892618	0.0085577706333503	-0.487778192736629	0.4963359633699794	84.93625569624632	near	V4
4	5.0	ltm	337	diff_vonmises	-0.096190269345817	-5.511296463741936	1.8134054987254211	1.1591761621905374	5.548952707568448e-17	2.302038057206224	0.1970935944821105	-0.3513898455957635	0.548483440077874	101.5580477104324	near	V3ab
5	6.0	ltm	337	diff_vonmises	0.2431567616869322	13.931856204729574	0.8318866787305925	128.61509900956824	0.8165341931221813	129.4250052487319	0.1285056029402511	-0.2291376273674874	0.3576432303077386	93.9236839401785	near	IPS0
6	7.0	ltm	337	diff_vonmises	0.0180868803076709	1.0363019061878251	1.1146937046344676	1.8293803115610747	0.1965049585155918	3.624449794692584	-0.0307931293538048	-0.3989212159079219	0.368128086554117	105.25629219740296	near	LO1
0	1.0	ltm	338	diff_vonmises	0.0260949884444843	1.4951327043116054	6.620195186004283	0.3353701550079164	4.1919741113442356e-20	3.842881143165956	-0.2744741661617738	-0.6116129301405127	0.3371387639787388	52.91666690998122	near	V1
1	2.0	ltm	338	diff_vonmises	0.0813036342670608	4.6583551025778025	13.158433591001184	0.4783644169817951	0.2108775873533103	1.985633381891388	0.2993778925216083	-0.3516959652579479	0.6510738577795563	36.33808310766534	near	V2
2	3.0	ltm	338	diff_vonmises	0.0058078903486574	0.3327676048528377	1.3602187909113297	107.88741465626175	1.3365332391683462	108.72979824349528	0.1201073651353539	-0.2433830779194483	0.3634904430548022	72.17693660157099	near	V3
3	4.0	ltm	338	diff_vonmises	-0.0967865616334018	-5.545461495176746	0.8522304131936621	113.8189897138388	0.8257061106100823	115.74728121020476	-0.0187880351167848	-0.4222400392535519	0.4034520041367671	86.72197449644133	near	V4
4	5.0	ltm	338	diff_vonmises	-0.035809109885313	-2.0517108645486357	1.8486308601723436	1.335050651335399	0.1449008084855729	2.38925049566142	0.219389385590143	-0.3134875972369896	0.5328769828271327	92.5409921426034	near	V3ab
5	6.0	ltm	338	diff_vonmises	0.7965467417448444	45.63876648687673	0.1054970464624814	127.60455837365664	0.093905521249312	128.84232087803338	0.0306078951387469	-0.4020665130763774	0.4326744082151244	153.4197320953175	near	IPS0
6	7.0	ltm	338	diff_vonmises	0.0987850530037086	5.659966616088639	1.0588231432260662	110.51311969837198	1.0320883700465784	112.192431530136	-0.0275113161804583	-0.3771866107952277	0.3496752946147694	76.95392972099836	near	LO1
0	1.0	ltm	339	diff_vonmises	0.000366708861893	0.021010870096516	6.477568784761355	0.3511526918332207	0.0711899787874795	1.0415287577450811	0.1713221624810039	-0.1659714738888577	0.3372936363698617	52.46746797881394	near	V1
1	2.0	ltm	339	diff_vonmises	0.1311284409215649	7.513106238936227	2.258465509534518	82.93759402469739	2.2272062216901136	83.15048955779032	0.2640566710018035	-0.1557060393990141	0.4197627104008177	59.82377646022093	near	V2
2	3.0	ltm	339	diff_vonmises	-0.0154429693930478	-0.8848169693713483	2.2413232525802096	82.80027761600475	2.2188517673664934	82.80329718019877	0.2728227085569159	-0.0933619420081566	0.3661846505650725	62.52173030316016	near	V3
3	4.0	ltm	339	diff_vonmises	-0.0267441632317018	-1.53232767978547	1.9533704316742493	144.41544579742788	1.9355715205225383	144.65998569316687	0.282422312494333	-0.1620299943255787	0.4444523068199117	64.49282156501141	near	V4
4	5.0	ltm	339	diff_vonmises	0.0400018321536017	2.291936155192092	1.9103439450781423	1.052597804023758	2.2936200338496647e-10	0.8074837062155641	0.3996178864978376	-0.11694161958963	0.5165595060874676	99.1398853543131	near	V3ab
5	6.0	ltm	339	diff_vonmises	0.1335694170857986	7.6529638710388515	1.2666517755423472	0.7974239154749905	6.144221042504363e-10	0.5799546825553281	0.219790715613636	-0.0675224451048803	0.2873131607185163	118.1518239589878	near	IPS0
6	7.0	ltm	339	diff_vonmises	-0.0939596250776968	-5.3834899615836	0.5714707047822569	58.60646877807386	0.5459838150427279	58.76900271368809	0.2399262665968393	-0.1737494373051156	0.4136757039019549	121.07222452290516	near	LO1
0	1.0	ltm	340	diff_vonmises	-0.3460434938180004	-19.82683172373282	10.875814585955425	0.2103767591922002	0.029194631195918	1.8461169581174588	-0.02901336640562	-0.296958015453611	0.267944649047991	40.655721264579626	near	V1
1	2.0	ltm	340	diff_vonmises	-0.0395196362560433	-2.2643083653634712	1.2174870286995108	70.92143676960596	1.1819070052701115	71.89773965145451	0.0992438514798017	-0.2609851131773126	0.3602289646571144	75.86262090553524	near	V2
2	3.0	ltm	340	diff_vonmises	0.0929847710192153	5.32763493839141	6.025183140239906	0.4000715425380977	1.6000284188880722e-28	0.6038216698777474	0.28676471371191	-0.096098966204638	0.382863679916548	55.51357854449628	near	V3
3	4.0	ltm	340	diff_vonmises	0.0702317349434124	4.023982000138997	2.5448952606397395	2.238725703867344	1.029306610060567	2.925335161474659	0.3174535047792393	-0.2719732326188686	0.5894267373981079	66.18405148862917	near	V4
4	5.0	ltm	340	diff_vonmises	-0.0044531031017628	-0.2551440134676253	2.022387626213224	0.9913857095552148	7.894338957778442e-12	1.2461573502407297	0.3165501402646227	-0.18931427809225	0.5058644183568728	96.50781799267897	near	V3ab
5	6.0	ltm	340	diff_vonmises	0.3490346468456969	19.99821216809761	1.0945532793592336	74.48253643019316	1.079565152706608	74.57978628304426	0.174638357363726	-0.08422741544305	0.258865772806776	88.3648995553267	near	IPS0
6	7.0	ltm	340	diff_vonmises	0.1227827937302699	7.034935877569814	0.5767957074731196	32.059666002939494	0.5400390089329772	32.34289757313054	0.1500140436984764	-0.1505761549514188	0.3005901986498953	119.03653196066676	near	LO1
0	1.0	ltm	341	diff_vonmises	-0.0360150513132805	-2.0635104391980708	7.02697120794253	0.3357980746246286	0.114682827568243	2.7457068547739096	-0.1401611836977485	-0.4513267079804149	0.3111655242826664	48.4020465499737	near	V1
1	2.0	ltm	341	diff_vonmises	0.0691321810943492	3.9609822052403096	3.130455230406815	1.062649890671573	0.5885617731500457	2.113352719177536	0.1563827369632868	-0.2898450757829534	0.4462278127462402	64.16535726311929	near	V2
2	3.0	ltm	341	diff_vonmises	0.0228921455226261	1.3116233224457845	3.2806148188921105	0.9672991533364268	0.740197567278624	1.381750307286298	0.2626098170983607	-0.175101591475854	0.4377114085742147	64.04868111775659	near	V3
3	4.0	ltm	341	diff_vonmises	-0.1177575569019115	-6.747011016251168	1.2695739307781118	187.90847120250973	1.2514030592851864	189.06747869866436	0.1743945750608304	-0.3309348099244822	0.5053293849853127	74.96300244297211	near	V4
4	5.0	ltm	341	diff_vonmises	-0.0605293836438675	-3.468078219321807	2.6186249584027776	0.9139917892292918	5.627930092657662e-22	1.5771211623877557	0.3024337505827053	-0.2480646604456939	0.5504984110283992	84.99620513131774	near	V3ab
5	6.0	ltm	341	diff_vonmises	0.1075773886574546	6.163730341110684	0.7884858755856424	44.67921269144948	0.7575553478820368	45.0811605064963	0.1451006068144575	-0.150425760004861	0.2955263668193186	100.22088155047538	near	IPS0
6	7.0	ltm	341	diff_vonmises	-0.1020275614309634	-5.845748664005944	0.8573697885019501	130.24184528922498	0.8423126451083782	131.14166171479738	0.0937108814466611	-0.234420400818843	0.3281312822655042	91.03574113138347	near	LO1
0	1.0	ltm	342	diff_vonmises	-0.1663584403477516	-9.531636518305037	5.206448921425888	0.3165837451867064	1.0820808819094957e-15	3.097153396261791	-0.2124798114718857	-0.4929188442571293	0.2804390327852435	59.81659484190303	near	V1
1	2.0	ltm	342	diff_vonmises	0.1526368543478132	8.74544755228277	8.514407659381147	0.5010867354466367	0.2496533722027603	1.758795397155566	0.2204242699223226	-0.3041810415509874	0.5246053114733101	44.41118097264831	near	V2
2	3.0	ltm	342	diff_vonmises	0.1435362696189034	8.22402245621503	4.907813560551569	0.475673987615503	0.3420449128227463	0.9790103841282428	0.1953034863293404	-0.1546465283484208	0.3499500146777613	57.13125012520777	near	V3
3	4.0	ltm	342	diff_vonmises	0.0600293051465142	3.43942583199822	2.110859547311032	2.020546581949477	0.6336304552982623	3.5223255603207586	0.1189531317025388	-0.3804355650074693	0.4993886967100082	72.3270948282904	near	V4
4	5.0	ltm	342	diff_vonmises	-0.0783273148359034	-4.487824560689704	1.943567074051328	0.8867918477252039	1.4079038932590298e-11	1.6439145965066189	0.1879582923068541	-0.2524173200187002	0.4403756123255543	98.33993065686536	near	V3ab
5	6.0	ltm	342	diff_vonmises	0.5115090540176467	29.3073099779404	0.9463926882751592	131.71917774081484	0.9344763245726312	132.30006312347612	0.1069831152388971	-0.1675375788058524	0.2745206940447495	88.18431067485628	near	IPS0
6	7.0	ltm	342	diff_vonmises	0.1612852361569872	9.240963329566156	2.590574437021992	0.5134571646576481	3.0702791086670665e-18	1.4574034955056177	0.0770273714641191	-0.2302159441347695	0.3072433155988887	85.4411516876722	near	LO1
0	1.0	ltm	343	diff_vonmises	-0.0415419529621128	-2.380178577460052	8.912298966549404	0.3306624690770127	0.1213855884736613	1.9984042447738792	0.0301181624458407	-0.3322110487156696	0.3623292111615103	43.858103630923694	near	V1
1	2.0	ltm	343	diff_vonmises	0.1923629500193692	11.021585170795856	3.942930331704645	1.0023605224451777	0.978507391833958	1.590712555165925	0.2275546788171062	-0.2268470533404366	0.4544017321575428	56.45358787264553	near	V2
2	3.0	ltm	343	diff_vonmises	0.1408838676689685	8.07205101891149	3.115369092481134	1.7304867648658426	1.794904926584119	1.8787057591740035	0.2503421832755722	-0.1305466900625434	0.3808888733381156	57.77571946536375	near	V3
3	4.0	ltm	343	diff_vonmises	-0.0020603191591411	-0.1180475922687329	1.6291547167651748	167.0510839777902	1.610105416301491	167.80966884769353	0.19946810940489	-0.2629910491837641	0.4624591585886541	67.09158859316315	near	V4
4	5.0	ltm	343	diff_vonmises	-0.067180531803393	-3.84916093777882	2.50136449867688	0.7340096375855863	2.6777312127528386e-18	1.0659959998568882	0.2630733438066002	-0.1667507039907247	0.4298240477973249	86.9681719707607	near	V3ab
5	6.0	ltm	343	diff_vonmises	0.2352426704415434	13.47841217768736	1.1163546248030205	51.998242151848096	1.0944467275134486	52.16815582606496	0.1520379399178395	-0.091344794068676	0.2433827339865155	86.14611500554687	near	IPS0
6	7.0	ltm	343	diff_vonmises	-0.0718636145586801	-4.117481814767269	0.7047376893173825	61.799141639213744	0.6804038712487055	62.47092446118188	0.0978760000875738	-0.1940999082457795	0.2919759083333533	102.53130584725405	near	LO1
0	1.0	ltm	344	diff_vonmises	0.0050965036069685	0.2920081469524987	4.463628509172593	0.4648334729837575	4.0644091205629854e-14	2.84419118810676	-0.0733973386671414	-0.4526167435695093	0.3792194049023679	64.71622160477179	near	V1
1	2.0	ltm	344	diff_vonmises	0.0555413218006584	3.182283327755677	3.0972008205799395	1.23369400106272	0.5573760660350456	2.530697861634911	0.1711166541848864	-0.3484790026062242	0.5195956567911106	64.66544760958087	near	V2
2	3.0	ltm	344	diff_vonmises	-0.0119137177157651	-0.6826057434235832	1.585723691450522	2.2923831640828314	0.6322810265388248	3.206313524928871	0.1559274800235199	-0.2551993538796338	0.4111268339031537	81.93835666124471	near	V3
3	4.0	ltm	344	diff_vonmises	-0.0751451485776605	-4.305499864383451	3.496415468262561	0.7211629722427095	0.0125216759898741	2.147932247418949	0.1686828984948857	-0.3375146906922552	0.5061975891871409	72.66979863921796	near	V4
4	5.0	ltm	344	diff_vonmises	0.0553112581581393	3.169101652019928	0.7344357322546445	42.939166010117056	0.6775535726368779	43.27050126770365	0.3727586982783482	-0.2507144570123181	0.6234731552906663	108.4495987293839	near	V3ab
5	6.0	ltm	344	diff_vonmises	0.3594917037894666	20.59735739710358	0.7912635262249514	96.11930580288497	0.7764262602443932	96.2423196740162	0.2355397189127543	-0.1308863091483063	0.3664260280610607	103.99683904768918	near	IPS0
6	7.0	ltm	344	diff_vonmises	0.0878785117709413	5.035067834365666	0.2230452134598513	91.52643580356632	0.20307184642583	92.39349440279472	0.1509354131032054	-0.3685809485842437	0.5195163616874492	154.56454789292346	near	LO1
0	1.0	ltm	345	diff_vonmises	0.0322240991373992	1.846304879184136	8.680390976938764	0.3337687349694613	0.137429200643827	1.856404664528052	0.0489294290808984	-0.3099474615565384	0.3588768906374369	44.32095210948171	near	V1
1	2.0	ltm	345	diff_vonmises	0.1536626637532613	8.804222101799766	4.05000663535397	0.9700942465367188	1.042018069348351	1.4922045112661042	0.2291811588134872	-0.213425130063681	0.4426062888771682	55.60572353537262	near	V2
2	3.0	ltm	345	diff_vonmises	0.0645249838244888	3.697009246293114	2.296683621691441	93.0724048281376	2.271883613294769	93.2363446250418	0.2448210232306138	-0.1347771689430068	0.3795981921736207	59.55802624797943	near	V3
3	4.0	ltm	345	diff_vonmises	-0.1018938383163644	-5.83808689391608	1.5846857287146374	198.8615348900899	1.570557954136344	199.5898146803229	0.1590219157610732	-0.2400940406475875	0.3991159564086608	67.51017489424115	near	V4
4	5.0	ltm	345	diff_vonmises	-0.055212299703676	-3.163431750232045	2.7067977993626835	0.7551922291885027	1.8861283720719335e-16	1.1412779071501689	0.2845720831691557	-0.1795627242294951	0.4641348073986508	83.58569110303065	near	V3ab
5	6.0	ltm	345	diff_vonmises	0.1206309752586937	6.911645760870207	0.7801712374243034	60.905039658248825	0.7610741262930619	61.20774485049605	0.1324375856637765	-0.1236743062401934	0.25611189190397	101.0750373120092	near	IPS0
6	7.0	ltm	345	diff_vonmises	-0.1525692410598272	-8.74157359624217	0.9303233777088972	104.51302792450475	0.9125601477935924	105.25620698610874	0.1115607017165274	-0.205317465903045	0.3168781676195724	88.41764226271236	near	LO1
0	1.0	ltm	346	diff_vonmises	-0.0602656553616199	-3.452967701810783	5.286430350210046	0.3286401112058303	0.0036571674156521	3.833448125731854	-0.3188492189275049	-0.6091571991763692	0.2903079802488643	58.96134321492198	near	V1
1	2.0	ltm	346	diff_vonmises	0.0773613159483099	4.432476901416266	6.291600815874316	0.6055179478682503	0.2009431121196048	2.247207667469369	0.1598738441981576	-0.3701772071252097	0.5300510513233674	51.25820836658414	near	V2
2	3.0	ltm	346	diff_vonmises	0.028663893825388	1.642320140605838	3.95302810640942	0.6233419644092786	0.1955345298241887	1.5243477835673584	0.1839410501342872	-0.2315585224180439	0.4154995725523311	64.29427308659731	near	V3
3	4.0	ltm	346	diff_vonmises	-0.1116317849324605	-6.396030136142083	1.686237476184938	2.100112518004289	0.390459654709728	4.142511482799351	0.0385785242100431	-0.4582933925073832	0.4968719167174263	82.75902578974194	near	V4
4	5.0	ltm	346	diff_vonmises	-0.0512113962499723	-2.9341968680955075	2.11578142442735	1.075009855067736	2.101459631580173e-17	2.0824826743779905	0.2422811774231544	-0.3231014492939509	0.5653826267171054	94.43516687427896	near	V3ab
5	6.0	ltm	346	diff_vonmises	0.3782589365607331	21.672640628036763	0.6770679791049746	157.2517758958692	0.6661356982628491	158.02805718997843	0.1112942700901413	-0.2255919567575297	0.3368862268476711	104.13191125405766	near	IPS0
6	7.0	ltm	346	diff_vonmises	0.0298055656564108	1.707733118112415	0.7232563059447686	108.98261974548063	0.7028850573237648	110.43960723861966	0.0079743104096898	-0.3280501147218135	0.3360244251315034	95.4869899085129	near	LO1
0	1.0	ltm	347	diff_vonmises	-0.0450008531279228	-2.578358958718067	6.204360056787218	0.2719696542952715	0.0373499795676676	3.656956386494171	-0.3396692235538786	-0.584941239152421	0.2452720155985424	52.52376430630952	near	V1
1	2.0	ltm	347	diff_vonmises	0.0528369172626642	3.027332361632581	7.785086235648433	0.502878554392663	0.1852675892763448	2.0201130801437768	0.1665298173800443	-0.3389003380936524	0.5054301554736969	46.58667115246382	near	V2
2	3.0	ltm	347	diff_vonmises	0.0065899695766064	0.377577443859163	3.460731807499879	0.7413980671789906	0.4112139942099911	1.432868047144843	0.1963044347217423	-0.2048416645028359	0.4011460992245783	65.2267248138229	near	V3
3	4.0	ltm	347	diff_vonmises	-0.1637754712899136	-9.38364329267804	0.9678397781242184	143.22173125907452	0.9443800203558768	145.08960583448237	0.0192009133089996	-0.4267946228476518	0.4459955361566514	82.06798803957321	near	V4
4	5.0	ltm	347	diff_vonmises	-0.0749622098858586	-4.2950182494335545	2.6959136811448987	0.900081190071263	7.047709206446243e-17	1.9817939112241287	0.2389348188568771	-0.3128878169939096	0.5518226358507867	83.7571803150183	near	V3ab
5	6.0	ltm	347	diff_vonmises	0.2674234601018428	15.322235606620756	0.6555155329858665	132.90022481796285	0.6431697554011421	133.75672145133186	0.0773644627924241	-0.2294324854113796	0.3067969482038037	104.389017237391	near	IPS0
6	7.0	ltm	347	diff_vonmises	0.0192418275153807	1.1024755067500145	1.015094010671055	194.01498183667695	1.001902539123105	195.43415646570787	-0.0016599656018314	-0.3222957495904737	0.3206357839886422	79.23251394906745	near	LO1
0	1.0	ltm	348	diff_vonmises	-0.0742753106911029	-4.255661824623118	7.482414885663409	0.2543080156528535	0.0697182874692288	1.8105292429640385	-0.0360456648576286	-0.2928994956165415	0.2568538307589129	48.12978241508844	near	V1
1	2.0	ltm	348	diff_vonmises	0.1557650810560677	8.924681740025852	3.75941822413204	0.9377582366317846	0.9276122545167704	1.5800637226402692	0.1786718182160283	-0.2239878313472045	0.4026596495632328	57.27821989098865	near	V2
2	3.0	ltm	348	diff_vonmises	0.1384896085537394	7.934870076548134	2.4607667712898897	20.630933192553048	2.358872455775829	20.73428896492869	0.2384090376759378	-0.1156399258234497	0.3540489634993875	58.4996663810567	near	V3
3	4.0	ltm	348	diff_vonmises	-0.0170911957233527	-0.9792533817801536	1.610947487339485	134.24040231850714	1.5894991324080667	135.02613290504272	0.1404338831384208	-0.2515952861655997	0.3920291693040205	66.44627837488696	near	V4
4	5.0	ltm	348	diff_vonmises	-0.0424747727163207	-2.433625212422601	2.857621245822089	0.7013199261120958	5.904469874330594e-13	1.012084660627797	0.2856127632939572	-0.1596060317019841	0.4452187949959413	81.32596667569939	near	V3ab
5	6.0	ltm	348	diff_vonmises	0.1840112888335701	10.543070232926343	1.041044681676732	62.31421386578397	1.023257246891083	62.46771759459728	0.1559157132517938	-0.0906556250820864	0.2465713383338803	89.5271753026891	near	IPS0
6	7.0	ltm	348	diff_vonmises	-0.0646595670061765	-3.7047202945972617	0.9567227278898088	121.8209829396626	0.9431815270350667	122.44537074558718	0.1066286217687988	-0.1769506573311741	0.2835792790999729	87.45621690965191	near	LO1
0	1.0	ltm	349	diff_vonmises	0.0371244055450131	2.127071754661323	6.557835648287151	0.5182031898020101	0.1493043347286097	3.774496205865361	-0.1751071320698249	-0.6248490146147044	0.4497418825448794	49.45710508685923	near	V1
1	2.0	ltm	349	diff_vonmises	0.0271515462384744	1.5556690067188912	3.327098361454962	1.1123394105842244	0.4314607622697022	2.522198532737681	0.1821509400511042	-0.3639823864627319	0.5461333265138362	64.67256652132292	near	V2
2	3.0	ltm	349	diff_vonmises	-0.1051257561518403	-6.023262145621902	2.05723542839508	2.4570696685563624	0.7727947947934228	3.393001623633393	0.2767036363301769	-0.3033354080370617	0.5800390443672386	73.76306801351416	near	V3
3	4.0	ltm	349	diff_vonmises	-0.1589051494142551	-9.104594404332566	1.0686773942089032	66.56458430603033	1.0086144075466732	68.17740006794702	0.1998273300576976	-0.4317920309477694	0.631619361005467	82.43504765574596	near	V4
4	5.0	ltm	349	diff_vonmises	-0.0349967400228784	-2.00516550002751	2.207724096651196	1.299728974016777	1.0388125355783437e-15	2.2109922779059	0.3596788435127768	-0.3432880942232356	0.7029669377360124	92.50646733579131	near	V3ab
5	6.0	ltm	349	diff_vonmises	0.075452326233163	4.323099847604468	1.0947612823911264	1.2792263589239916	9.447326522563745e-19	1.9116851731418496	0.1556893274211616	-0.2527523920202379	0.4084417194413995	124.6816358884758	near	IPS0
6	7.0	ltm	349	diff_vonmises	-0.1417843612141899	-8.123645498531449	0.660734467747125	129.65202035996472	0.6427275295706462	130.9413056995636	0.0909528983541818	-0.3327190538713989	0.4236719522255807	103.45000891167052	near	LO1
0	1.0	ltm	350	diff_vonmises	-0.1381295043444942	-7.914237625173488	8.125594812836463	0.3771471468442132	0.2095524903844378	2.813511630108517	-0.1242852869316761	-0.486283460553345	0.3619981736216688	44.1482567554383	near	V1
1	2.0	ltm	350	diff_vonmises	-0.02695066395529	-1.5441592997134734	1.501911597270183	7.111031846566297	1.0622613810758603	8.276798781556371	0.1570223030952644	-0.3268577599373787	0.4838800630326432	74.18228151962336	near	V2
2	3.0	ltm	350	diff_vonmises	-0.1206628657359365	-6.913472950622877	3.086854507611516	0.8131147200915081	0.1664581137887574	1.1204149685364988	0.3321037215458031	-0.1587050923409603	0.4908088138867634	74.38643132825729	near	V3
3	4.0	ltm	350	diff_vonmises	-0.0935104028919151	-5.357751426274665	1.3438588193783076	142.9208113191423	1.3169341124664624	143.78467485773282	0.3497012273908524	-0.318882823931828	0.6685840513226804	75.95334113484884	near	V4
4	5.0	ltm	350	diff_vonmises	-0.0228449053610177	-1.308916660562104	2.7105660961560245	1.079340065627559	9.678581499111205e-13	1.4447715923373765	0.4368985778192559	-0.2269934453441641	0.66389202316342	83.53000461249039	near	V3ab
5	6.0	ltm	350	diff_vonmises	0.0271789472214152	1.557238967395909	1.3953156592540454	0.7886194971768151	5.640252397961969e-17	0.8602403692133553	0.1900711307275155	-0.116838839219058	0.3069099699465736	113.82203681119492	near	IPS0
6	7.0	ltm	350	diff_vonmises	-0.0744265074683563	-4.26432476183572	0.7533128226577406	108.34974642884752	0.7398941327223384	108.76348548173188	0.1566480564602415	-0.1602084475192953	0.3168565039795368	102.19190782151584	near	LO1
0	1.0	ltm	351	diff_vonmises	0.058351448675634	3.343291737588067	9.99655784769711	0.6255453895680507	0.2963273228894147	4.368135858578026	-0.136259687527974	-0.8011476721604449	0.6648879846324709	39.685175032819245	near	V1
1	2.0	ltm	351	diff_vonmises	0.1282069373521997	7.345716414579193	6.101873577016916	0.6886599160002408	0.5450766308877879	1.6303642919885923	0.2473791824724756	-0.2855800747513786	0.5329592572238542	49.78551145286039	near	V2
2	3.0	ltm	351	diff_vonmises	0.0586232572698023	3.358865222869297	1.996982536290543	122.53164108069032	1.975414089586067	122.89244532996663	0.2286430301227113	-0.1803170005545205	0.4089600306772318	62.370705022460186	near	V3
3	4.0	ltm	351	diff_vonmises	-0.1852820617533547	-10.615880157949515	1.1861452705472308	242.86620484198616	1.1709134134205867	244.34983481003675	0.1309367558735061	-0.3889312146887178	0.519867970562224	76.22968748724006	near	V4
4	5.0	ltm	351	diff_vonmises	-0.1009892967904799	-5.786260482088573	3.551001034815539	0.7033432010177806	2.267506026526781e-12	1.6744843275207668	0.2399597522788245	-0.2660853885783332	0.5060451408571577	72.77594425465534	near	V3ab
5	6.0	ltm	351	diff_vonmises	0.1735713191260714	9.944904030442238	0.6499420144924419	113.9432025768618	0.637557295734334	114.83436251779855	0.025088968329257	-0.2126641996636866	0.2377531679929436	102.16420260737596	near	IPS0
6	7.0	ltm	351	diff_vonmises	-0.0006678741695064	-0.0382663711585253	1.0426461897837136	96.52903773146832	1.0187583517832333	97.8875440347956	-0.0340536489234679	-0.3008147494936093	0.2667611005701413	77.00587440820087	near	LO1
0	1.0	ltm	352	diff_vonmises	0.1471547584836859	8.431346596382152	0.5169615061308892	50.109739597977175	0.4905828048597698	51.43580380007796	-0.0776715308964899	-0.2723357569213771	0.1946642260248872	108.72059196137972	near	V1
1	2.0	ltm	352	diff_vonmises	0.0541105431394421	3.1003057490506056	17.42873403666679	0.2665393697560247	0.2672408691112386	1.0431621217260376	0.2275732250319497	-0.1943654969001468	0.4219387219320966	31.66302439311886	near	V2
2	3.0	ltm	352	diff_vonmises	0.0541747595363084	3.1039850775665814	1.8663471338316089	62.28634614511607	1.8371894337445156	62.5909750100256	0.1441427718476085	-0.1322068641717084	0.2763496360193169	64.00745890490919	near	V3
3	4.0	ltm	352	diff_vonmises	-0.04884471011264	-2.798595740994249	1.4257923326645725	110.37239077423078	1.4054317254251358	111.3573718070514	-0.0103216779790074	-0.2491756112927241	0.2388539333137167	66.11822869737895	near	V4
4	5.0	ltm	352	diff_vonmises	-0.018343919719771	-1.0510291796696858	2.220622188095407	0.8348581894039594	2.5789398416341302e-20	1.3260681090510176	0.2476079023700186	-0.2056467092891129	0.4532546116591316	92.24361819639812	near	V3ab
5	6.0	ltm	352	diff_vonmises	0.2735127058931679	15.671123690881483	0.6229790875845977	120.30229078723016	0.6118941786543467	120.77415734534966	0.1264303732744593	-0.172233566521875	0.2986639397963344	111.24693817159556	near	IPS0
6	7.0	ltm	352	diff_vonmises	-0.0669103557268204	-3.833680988865812	1.2334564182204104	167.1422546151598	1.2186119531317832	168.0505117853731	0.1090348842344184	-0.2491744826003312	0.3582093668347497	75.42983840372273	near	LO1
0	1.0	ltm	353	diff_vonmises	0.01365970002716	0.782643160971009	5.856216613911698	0.6484703880736896	0.2656631813029527	3.874874801423633	-0.1789603955073908	-0.6593581447678868	0.4803977492604959	50.21340887267803	near	V1
1	2.0	ltm	353	diff_vonmises	0.0170124143438379	0.9747395412297376	2.7648629532592106	1.6033351551530703	0.6595980386469303	2.972815100142033	0.1789858141291215	-0.3760918900905927	0.5550777042197143	66.00580577200341	near	V2
2	3.0	ltm	353	diff_vonmises	-0.1984720902731016	-11.371613123788205	1.1978048492619793	11.16268125188748	0.9537717792395612	11.83126619499423	0.2884240566782874	-0.2499273003282854	0.5383513570065729	85.20168584260003	near	V3
3	4.0	ltm	353	diff_vonmises	-0.232322724547883	-13.311111601574064	1.769611159852691	2.614213112036471	0.5069516736604174	4.062746952759994	0.2443455887883683	-0.3989434026252259	0.6432889914135942	81.75260037762659	near	V4
4	5.0	ltm	353	diff_vonmises	-0.0153223682511983	-0.8779070329389137	2.560011876273794	1.2733840616160834	0.0547881867735905	1.7687731145823382	0.4638516703957296	-0.2618909269153502	0.7257425973110799	84.05597290266525	near	V3ab
5	6.0	ltm	353	diff_vonmises	0.0889682674529273	5.097506235643861	1.439807172804073	0.9137021300678684	1.508274364125166e-13	1.05900787993487	0.2175447255652406	-0.146864758171451	0.3644094837366917	112.32735422952317	near	IPS0
6	7.0	ltm	353	diff_vonmises	-0.1543094328083915	-8.841279238978393	0.7700873644004061	124.39107162818716	0.7544343164093839	125.23221559727595	0.1236841063430276	-0.2375125537350868	0.3611966600781144	97.55602896011732	near	LO1
0	1.0	ltm	354	diff_vonmises	0.03236189480714	1.8541999894954584	1.2998737859666696	0.6726353912152901	0.0474675309932973	2.075226946520921	-0.0788107546225513	-0.2949329752465534	0.216122220624002	110.94465317298402	near	V1
1	2.0	ltm	354	diff_vonmises	0.065011121404859	3.7248628779110327	2.8378166724820746	0.7948865473173163	0.4441031644228609	1.6764623405496957	0.1080781616656373	-0.2265353475151875	0.3346135091808249	68.69583987585378	near	V2
2	3.0	ltm	354	diff_vonmises	0.0554639836748949	3.177852179553981	3.9477689215176768	0.7157907529298901	0.6019808229237804	1.2107541851035737	0.224416451186186	-0.1768846692694109	0.4013011204555969	60.24667062729984	near	V3
3	4.0	ltm	354	diff_vonmises	-0.0084349777552773	-0.483288625664125	1.5351044936693805	99.7209576149876	1.504606886887675	100.67465287202442	0.1158953011407817	-0.2829733532745546	0.3988686544153363	67.32919433701082	near	V4
4	5.0	ltm	354	diff_vonmises	-0.0652271836304202	-3.737242331547889	1.4563198100704882	1.175314389689538	1.4196701738352728e-13	1.7656046122108904	0.2190570960736775	-0.2538344496926646	0.4728915457663422	111.82492691391109	near	V3ab
5	6.0	ltm	354	diff_vonmises	0.0967482025194912	5.543263679843808	0.836461078807717	46.99973913047417	0.8036181926307688	47.42320553864195	0.1658263202453689	-0.1607940611068512	0.3266203813522201	97.53944086735748	near	IPS0
6	7.0	ltm	354	diff_vonmises	-0.0754918230665296	-4.325362849460506	0.8007025501760869	110.7586937041369	0.780885952573669	111.69599791989582	0.137959646380942	-0.2627303031110948	0.4006899494920368	95.7078112575873	near	LO1
0	1.0	ltm	355	diff_vonmises	0.0063631961776312	0.3645842851920472	5.256361203147036	0.3503412111659519	8.208335191425896e-18	3.8201163722104896	-0.296041150623696	-0.6079819206363801	0.3119407700126841	59.52163339919628	near	V1
1	2.0	ltm	355	diff_vonmises	0.0919995718202327	5.271187182310039	12.759459221884434	0.4654554285283156	0.2286167566271676	2.015037851938613	0.2585929660636473	-0.3597870641390676	0.6183800302027149	36.743908977803926	near	V2
2	3.0	ltm	355	diff_vonmises	0.1048812371271219	6.009252237494882	1.2227932635827812	33.736711378784804	1.158244764558107	34.56630870501134	0.0946930029290857	-0.2244515638269666	0.3191445667560524	76.4780098010421	near	V3
3	4.0	ltm	355	diff_vonmises	-0.355972377975968	-20.395714881258662	1.989399422325256	0.7427476330064909	0.0314786833066472	2.9403641193467096	-0.1008936250966893	-0.4462140442095135	0.3453204191128242	93.35799063991291	near	V4
4	5.0	ltm	355	diff_vonmises	-0.0292467271284313	-1.675714029029887	2.1707960267114985	1.0174933168499116	0.0571842243458985	1.831001861356744	0.2431251798074707	-0.267814121833684	0.5109393016411548	90.30529223580857	near	V3ab
5	6.0	ltm	355	diff_vonmises	0.5456140609290054	31.26138293422576	0.5639352147044752	130.93333909713493	0.5523328051590735	131.59760516929057	0.1157935857127085	-0.2190979208954893	0.3348915066081979	114.9525921555472	near	IPS0
6	7.0	ltm	355	diff_vonmises	0.1154102331756711	6.612519273586675	1.0152595923795382	124.64974550780197	0.9932755540067274	126.29240739307672	-0.0410464039137252	-0.3615089714047172	0.320462567490992	78.05192531910694	near	LO1
0	1.0	ltm	356	diff_vonmises	-0.0443250500824944	-2.5396382964329343	7.774692191314044	0.3584770824013419	0.1071797732188823	2.967973832054078	-0.1324723859930024	-0.4890024672026684	0.3565300812096659	46.39702813132732	near	V1
1	2.0	ltm	356	diff_vonmises	0.1245235982861257	7.134676631577498	5.720557211921007	0.6727711369426653	0.4762454978763595	1.686402506815326	0.2179109959573961	-0.2875210790602092	0.5054320750176053	51.51054006708222	near	V2
2	3.0	ltm	356	diff_vonmises	0.0769873480652434	4.411050120043111	2.540270595681831	1.698934699429948	1.2397231210413353	2.049776935043755	0.2185365273438897	-0.1622450233915376	0.3807815507354273	64.64549962777485	near	V3
3	4.0	ltm	356	diff_vonmises	-0.0713609571876929	-4.088681668868561	1.2321615572315685	182.20814493065197	1.2139933991264271	183.4366167578341	0.1404328106857946	-0.3346980574926554	0.47513086817845	75.39420120066748	near	V4
4	5.0	ltm	356	diff_vonmises	-0.0603425740516468	-3.457374818115001	2.627329697290564	0.8135503515462179	1.5947603659024122e-14	1.451768523466898	0.262520765734374	-0.2284776912181372	0.4909984569525112	84.8545564624336	near	V3ab
5	6.0	ltm	356	diff_vonmises	0.3238171923466909	18.55335845524137	0.8106195227634889	99.86738557024886	0.7975466948573723	100.32807528822696	0.1096288015705226	-0.1460694771820243	0.255698278752547	96.6554975220671	near	IPS0
6	7.0	ltm	356	diff_vonmises	-0.0139868747697178	-0.801388892882846	0.827927908638544	79.55805384311985	0.805999391584441	80.44370312376255	0.0631717589008609	-0.2202619292095864	0.2834336881104473	91.85904033825877	near	LO1
0	1.0	ltm	357	diff_vonmises	0.0487430980212946	2.7927737970126585	6.625111494796373	0.5609716308318411	0.2445357454194893	3.7929052390980886	-0.1952278051602801	-0.6519575067299022	0.456729701569622	47.741930705547816	near	V1
1	2.0	ltm	357	diff_vonmises	0.0464214774494628	2.6597547366159477	3.390936509860634	1.0806268896583466	0.531971011123755	2.317453376370442	0.1726975992388089	-0.3334135277436932	0.5061111269825022	62.824023779536645	near	V2
2	3.0	ltm	357	diff_vonmises	-0.077888593061122	-4.462687654614243	2.2415087187472187	1.9584010494319384	0.8325932276231917	2.577296425936141	0.2832703850279021	-0.2336613349927774	0.5169317200206796	71.83715109262013	near	V3
3	4.0	ltm	357	diff_vonmises	-0.231981366490907	-13.29155322560655	1.1111567078583229	203.47961345320465	1.0922791132965504	204.981796183748	0.1795802032191886	-0.4029605957680751	0.5825407989872637	79.80435081631721	near	V4
4	5.0	ltm	357	diff_vonmises	-0.0588335247355687	-3.3709126612266243	2.9591907480292305	1.022832259111284	1.1297895277469589e-18	1.847776397019442	0.3705718793041689	-0.2922949039573638	0.6628667832615327	79.89375713884294	near	V3ab
5	6.0	ltm	357	diff_vonmises	0.0026335057771569	0.1508887663544106	1.70842536672913	0.8042218450345272	7.779892401735115e-16	1.2974663383641163	0.1705211703246074	-0.1941259118204731	0.3646470821450805	104.36169125895834	near	IPS0
6	7.0	ltm	357	diff_vonmises	-0.1947006188107883	-11.15552372644362	0.9330931331626914	140.25958779951063	0.916303099491054	141.43665820531658	0.0644104655110453	-0.2852335711000915	0.3496440366111368	85.46425299396032	near	LO1
0	1.0	ltm	358	diff_vonmises	-0.0560513032683415	-3.211503113483809	5.363188078414226	0.4258728585123738	0.0967653497277781	2.818947020478861	-0.1097785685338523	-0.4518326620250059	0.3420540934911536	55.51060389330689	near	V1
1	2.0	ltm	358	diff_vonmises	0.0086393329590318	0.4949973163607967	1.27498519083883	86.55853877300018	1.235693532682424	87.78299604952704	0.1505068650399295	-0.3390988608056045	0.4896057258455339	74.56240870307255	near	V2
2	3.0	ltm	358	diff_vonmises	-0.0056620208297934	-0.3244098970623262	3.9242802933465257	0.6947512129813587	0.129744673426157	1.361767816836024	0.2828586074968767	-0.2059869606993701	0.4888455681962468	66.31585816707502	near	V3
3	4.0	ltm	358	diff_vonmises	-0.0872816312841476	-5.000869101598673	2.214052587309314	1.83008956777479	0.5048033293272659	3.0111092512429534	0.2579843744857844	-0.3407373400904214	0.5987217145762058	75.83679709410407	near	V4
4	5.0	ltm	358	diff_vonmises	-0.0056189459671054	-0.3219418892271956	1.9567810623097777	1.2758202665138072	8.22276321380933e-19	1.6898675024220646	0.3805642845292857	-0.2559796420731774	0.6365439266024631	98.0321943788723	near	V3ab
5	6.0	ltm	358	diff_vonmises	0.1482239262994809	8.492605399818423	1.889939295577911	0.7207628041432121	2.2090729833725215e-10	0.8426015429170023	0.2251681567784198	-0.1259024971689071	0.351070653947327	99.60207904921322	near	IPS0
6	7.0	ltm	358	diff_vonmises	0.0247707532339176	1.419259615663517	0.4194427533884516	119.15260342736435	0.4049663706677893	119.89685077423752	0.1467351396596292	-0.2853500311861872	0.4320851708458164	131.53835597504224	near	LO1
0	1.0	ltm	359	diff_vonmises	-0.0729978592149301	-4.182469246505661	1.427581252534345	0.5488154117867389	1.0505008555006565e-12	2.7500805736623817	-0.2069741212238686	-0.4244119031632025	0.2174377819393338	112.74645057067146	near	V1
1	2.0	ltm	359	diff_vonmises	0.0110761611823682	0.6346172889563321	6.321215749247388	0.4344579328315387	0.083366367390038	1.800696247901718	0.115396882927358	-0.2883963502855878	0.4037932332129458	52.57414835636928	near	V2
2	3.0	ltm	359	diff_vonmises	-0.0489613665638491	-2.8052796633015005	3.612238026998376	0.698867131012824	0.328691147297121	1.4798777964377858	0.1895086237171822	-0.2173732213368162	0.4068818450539984	64.9868554858104	near	V3
3	4.0	ltm	359	diff_vonmises	-0.0777240698897591	-4.453261171263039	1.5451510992249315	3.657848216778386	0.8108864896376222	5.0976587110416025	0.0546505782234167	-0.349789524334663	0.4044401025580798	75.44546717801302	near	V4
4	5.0	ltm	359	diff_vonmises	-0.0345395471974038	-1.978970280704153	1.7189654648719317	1.19309553859534	1.1706126384623792e-13	2.1749598515327864	0.2152696263624299	-0.3281163978316961	0.543386024194126	104.07011918066053	near	V3ab
5	6.0	ltm	359	diff_vonmises	0.2029418674908999	11.627712493731774	0.5892148152692965	146.50208233574753	0.5776840534143367	147.34936807593718	0.0977557381636842	-0.2465732062958459	0.3443289444595301	111.29501920077166	near	IPS0
6	7.0	ltm	359	diff_vonmises	-0.0459194985141692	-2.6309934622191515	0.8835794906917339	170.73455821970495	0.868788993595471	171.9741898985583	0.0887471909370418	-0.3074525084019193	0.3961996993389611	88.54942673634716	near	LO1
0	1.0	ltm	360	diff_vonmises	0.0159514501241133	0.913950769225127	5.073358962546795	0.3096606919352391	3.818827973157738e-16	1.735389304574979	-0.0055875456105851	-0.2761851768181168	0.2705976312075316	60.60621680728909	near	V1
1	2.0	ltm	360	diff_vonmises	0.097087257175481	5.56269008065628	5.60552467597259	0.5785701394323184	0.5360020053259711	1.2650601931468155	0.2123154441220783	-0.2144240446525129	0.4267394887745913	51.93195976831538	near	V2
2	3.0	ltm	360	diff_vonmises	-0.0215688533790585	-1.235804267556539	1.8774985245828544	108.30469164347004	1.8563483104238712	108.61830083372402	0.2140918427775346	-0.1572701546227684	0.371361997400303	64.69736285813133	near	V3
3	4.0	ltm	360	diff_vonmises	-0.0858232902808513	-4.917312317018917	1.4766541752470612	173.05720959398292	1.4610524091757116	173.85580771283068	0.1349131108037369	-0.2442576980922339	0.3791708088959709	69.41103826927451	near	V4
4	5.0	ltm	360	diff_vonmises	-0.0124651979785395	-0.7142032349653239	2.012782841816269	0.9902600190911408	1.0072429426547958e-17	1.3929924838399343	0.2911167856210193	-0.2125456685195706	0.50366245414059	96.72770917207092	near	V3ab
5	6.0	ltm	360	diff_vonmises	0.2131674272516328	12.213593911180574	0.5671563434800494	100.01222357662812	0.5546847640706007	100.39764990238233	0.1360260735629417	-0.1658559017608887	0.3018819753238304	117.53430453524396	near	IPS0
6	7.0	ltm	360	diff_vonmises	-0.1211510437492901	-6.941443490439121	0.8937271372502442	115.25755559476818	0.876081034592135	115.98819330642712	0.1551616989967641	-0.2198158382179684	0.3749775372147326	91.54951633198552	near	LO1
0	1.0	ltm	361	diff_vonmises	0.0596332130092223	3.416731424233075	5.208007453135949	0.2475970099191348	0.0084840978936825	2.46502272527796	-0.17627798905113	-0.3912711853897822	0.2149931963386521	59.09987514016908	near	V1
1	2.0	ltm	361	diff_vonmises	0.0924094370292273	5.294670728954674	9.1886680236194	0.3959273051654372	0.2805241380997888	1.4050327859473646	0.1815823507841391	-0.2483161112190447	0.4298984620031838	42.67481202373338	near	V2
2	3.0	ltm	361	diff_vonmises	0.1004106314335141	5.753105399383999	1.8667371512510915	72.3407200601857	1.832199151279079	72.81294845764218	0.1728546377560889	-0.1892779446584001	0.362132582414489	63.34765347420122	near	V3
3	4.0	ltm	361	diff_vonmises	-0.1822694222846479	-10.443268631198084	1.1666267596504027	159.0055815096081	1.1499429891642243	160.46307026994376	-0.0461288562440103	-0.3317862583833388	0.2856574021393285	72.16696419657978	near	V4
4	5.0	ltm	361	diff_vonmises	-0.0917560497249901	-5.257234394034452	2.7258364468414067	0.7462098721767888	3.340880929571613e-20	1.6593283301623758	0.1984443237901521	-0.2621063288338019	0.460550652623954	83.28955768075781	near	V3ab
5	6.0	ltm	361	diff_vonmises	0.0670184180330134	3.83987250293512	0.8749759151076894	103.34899503348836	0.8574137183622035	104.13265508094078	0.0996224133351688	-0.2106919025856175	0.3103143159207864	90.76303391722884	near	IPS0
6	7.0	ltm	361	diff_vonmises	-0.0439515790404048	-2.518239981950845	1.2034266752466212	220.85181849657147	1.1898974831002158	222.35284140406625	-0.0141176235025142	-0.3540828622740299	0.3399652387715157	72.12804742183337	near	LO1
0	1.0	ltm	362	diff_vonmises	-0.0360150498420643	-2.0635103549035887	7.026971873852584	0.3357980560011783	0.1146828171951795	2.7457068363755117	-0.1401611777584818	-0.4513267057852502	0.3111655280267684	48.402044627436624	near	V1
1	2.0	ltm	362	diff_vonmises	0.0691321828168043	3.96098230392972	3.1304545093319143	1.0626502766770685	0.5885619520092924	2.113353103398876	0.1563827303432158	-0.2898450861841426	0.4462278165273584	64.16536050135062	near	V2
2	3.0	ltm	362	diff_vonmises	0.0228921424466578	1.311623146205778	3.2806154093456903	0.9672988982348656	0.7401974093721632	1.3817500508974545	0.2626098253207243	-0.175101586088809	0.4377114114095333	64.04867836827984	near	V3
3	4.0	ltm	362	diff_vonmises	-0.117757843377021	-6.747027430065878	1.268752259168168	206.5557769441183	1.2522172516099173	207.7147843671684	0.1743945029184885	-0.3309351038829184	0.505329606801407	74.96305902481194	near	V4
4	5.0	ltm	362	diff_vonmises	-0.0605293830081263	-3.4680781828965213	2.618624921123047	0.913991795918875	5.566408534599032e-22	1.5771211691233524	0.3024337489749732	-0.2480646613012809	0.5504984102762542	84.99620573965842	near	V3ab
5	6.0	ltm	362	diff_vonmises	0.1075777189819565	6.163749267310511	0.7881079140906277	45.79420762400872	0.7579272635976594	46.19615545102726	0.1451004303770542	-0.1504257688347343	0.2955261992117886	100.2209572269901	near	IPS0
6	7.0	ltm	362	diff_vonmises	-0.1020271916909609	-5.845727479464285	0.8571263764687245	134.59754777495291	0.8425548812268444	135.49736418939875	0.0937108685455001	-0.2344204329658801	0.3281313015113802	91.03573392948942	near	LO1
0	1.0	ltm	363	diff_vonmises	-0.1133335475441816	-6.493533951526862	6.802122254451937	0.2311584462660147	0.0481848156534366	1.7416400308500777	-0.0550135623599848	-0.2790469991443571	0.2240334367843722	50.74463216699715	near	V1
1	2.0	ltm	363	diff_vonmises	0.0707015750891391	4.0509018575349485	8.44685514686699	0.4611654701015746	0.5717649605458669	1.1255300827085877	0.2334313524319465	-0.2152061366713606	0.4486374891033071	43.251351839206	near	V2
2	3.0	ltm	363	diff_vonmises	0.0078677796098801	0.4507905657852166	2.1906241831559394	53.72035506229771	2.1616828084888238	53.74336972326137	0.2198524303958571	-0.0809383608250815	0.3007907912209386	62.95800988240529	near	V3
3	4.0	ltm	363	diff_vonmises	-0.0504512236723395	-2.890642187695567	1.5561546092400116	151.41506959268546	1.5388004219246458	152.1083171409771	0.1501144990780716	-0.2263138358472893	0.376428334925361	68.18964306580585	near	V4
4	5.0	ltm	363	diff_vonmises	-0.0157150380986137	-0.9004053579378627	2.765532743047604	0.7880199647699776	0.0381072176355997	1.0906974719043496	0.3122979179228093	-0.1651173786979079	0.4774152966207173	81.43470430430779	near	V3ab
5	6.0	ltm	363	diff_vonmises	0.3367953414950903	19.29695162733596	0.6532637728942368	88.81452254345855	0.6420697910180211	89.07148343750167	0.118634798490369	-0.117243109641115	0.2358779081314841	110.56863886469972	near	IPS0
6	7.0	ltm	363	diff_vonmises	-0.0164875534464514	-0.9446672269780444	1.147824850426246	94.86058342295932	1.1311592227858702	95.29177866743044	0.136545382237557	-0.1441124434488365	0.2806578256863936	81.56296114882684	near	LO1
0	1.0	ltm	364	diff_vonmises	0.1875927127947302	10.74827071054784	0.0002220417204531	2568.216896368117	3.4281793803182117e-31	2569.7784404960803	-0.1577649923953572	-0.3392798655706315	0.1815148731752742	178.78778904630082	near	V1
1	2.0	ltm	364	diff_vonmises	0.016342898389438	0.936379102725953	16.57920069054444	0.1963670004050295	0.0148596843639492	1.2637269874372068	0.1123734533918426	-0.2025851913651554	0.3149586447569981	33.15983169789371	near	V2
2	3.0	ltm	364	diff_vonmises	0.1032662043615752	5.916717676253715	5.465990909832651	0.3336174366685828	0.2645796187807899	0.5686202302564269	0.187437869288507	-0.0900049604796949	0.2774428297682019	55.6865851424792	near	V3
3	4.0	ltm	364	diff_vonmises	0.1375422809268199	7.880592201709501	2.291006518358483	2.8011807357585847	1.2273624347148444	3.7622418112335305	0.1224485776297721	-0.2973155863069499	0.419764163936722	62.96075592495615	near	V4
4	5.0	ltm	364	diff_vonmises	-0.053616414039667	-3.0719942370988957	1.9834929341447285	0.7862401425611457	1.374108156956174e-18	1.4406811168992473	0.1742901064974879	-0.22165153319483	0.395941639692318	97.39893281256818	near	V3ab
5	6.0	ltm	364	diff_vonmises	0.4183868110603673	23.97179847769644	0.8575559971665433	107.45703011166376	0.8449778366254802	108.00374371522864	0.0872004043730569	-0.1541088808945243	0.2413092852675813	92.37119063553156	near	IPS0
6	7.0	ltm	364	diff_vonmises	0.1136390390900011	6.51103732777925	1.1387997965388186	69.25506979532753	1.1123945581050354	69.82539219941334	0.1343180277341602	-0.1749833203719779	0.3093013481061382	81.07113865443864	near	LO1
0	1.0	ltm	365	diff_vonmises	-0.0107299393437533	-0.6147802388284371	7.634097098884838	0.3246781276766258	0.087093887596141	3.843654422035251	-0.3145720985425739	-0.6300348552649417	0.3154627567223678	46.506971845274194	near	V1
1	2.0	ltm	365	diff_vonmises	0.0590027955900097	3.3806111667806618	8.444573854514957	0.5156625010005118	0.2068528067791844	1.9313243092416876	0.2143195362840391	-0.3286346100145774	0.5429541462986166	44.81270715237707	near	V2
2	3.0	ltm	365	diff_vonmises	-0.0022543717458945	-0.1291659864932982	2.537005406717068	1.4614980101459405	0.8799713166799614	2.0661929565952946	0.2098833328347585	-0.21176956019136	0.4216528930261186	67.36584612236942	near	V3
3	4.0	ltm	365	diff_vonmises	-0.1243789741399703	-7.126390278387109	1.0569972979600135	188.8271700617591	1.038105327238326	190.5221098812769	0.0804275821071485	-0.4126771763065875	0.493104758413736	79.77688306476551	near	V4
4	5.0	ltm	365	diff_vonmises	-0.0867531242507027	-4.970587879139299	2.834343946026527	0.8736374501339211	7.79395870873497e-16	2.027980117247507	0.2311158286123623	-0.3208508515591822	0.5519666801715445	81.65763275382545	near	V3ab
5	6.0	ltm	365	diff_vonmises	0.3283712785586137	18.81428837472327	0.5204550223107385	140.58332897459542	0.5095841527580586	141.6383594415691	0.0240759174958213	-0.2647244715901724	0.2888003890859938	114.80693396384436	near	IPS0
6	7.0	ltm	365	diff_vonmises	0.0260094217385953	1.4902300931973318	1.0332033383886048	160.66176284242147	1.0177177415824763	162.00236851752098	0.0069438424893633	-0.3080055873376786	0.3149494298270419	78.87198751933448	near	LO1
0	1.0	ltm	366	diff_vonmises	0.0100560668344499	0.5761701881154662	5.967884915850012	0.3829405077190941	4.155558400099506e-17	1.9598591767909568	0.0526899103829732	-0.31191888610834	0.3646087964913133	55.78855095403813	near	V1
1	2.0	ltm	366	diff_vonmises	0.1775280128662026	10.171605882577587	5.176992779653234	0.7682336111561062	0.7499170797346542	1.4508449412316944	0.2519331565075612	-0.2431381035521277	0.4950712600596889	52.290235263244114	near	V2
2	3.0	ltm	366	diff_vonmises	0.1306447616622748	7.48539345874089	3.863558822655891	0.6405266656901165	0.6922569294606297	0.9731286821763664	0.2076745579771191	-0.1374212336512591	0.3450957916283783	60.43204620244066	near	V3
3	4.0	ltm	366	diff_vonmises	-0.0150953526116185	-0.864899994907525	2.141583216099927	1.8976762714951951	0.861706342322621	2.7641205419082926	0.1482946015443865	-0.2539487224224042	0.4022433239667907	69.84528371845877	near	V4
4	5.0	ltm	366	diff_vonmises	0.0055580405461693	0.3184522656580884	1.963939742951164	0.978678159794768	1.4604768998453395e-10	1.0864627584126452	0.3264283265838734	-0.163085545137652	0.4895138717215255	97.8625191515466	near	V3ab
5	6.0	ltm	366	diff_vonmises	0.3548229310175368	20.32985642176641	1.0179527584270702	68.64849311087882	1.002262523168136	68.6499200515637	0.2030816202271061	-0.0774406946780841	0.2805223149051903	93.58089973665388	near	IPS0
6	7.0	ltm	366	diff_vonmises	-0.0093143885354837	-0.5336751518282564	0.9853271247432448	1.3089790553666338	2.0445510555148346e-15	1.926438631161708	0.1370395304177881	-0.2447697742295388	0.381809304647327	129.20236513499609	near	LO1
0	1.0	ltm	367	diff_vonmises	-0.0759664180895459	-4.352555141257255	5.244222865085549	0.3833319977368377	0.1018935072954459	1.8705241924405347	0.0121266044506103	-0.2979608781524531	0.3100874826030634	56.67412550698327	near	V1
1	2.0	ltm	367	diff_vonmises	0.0110707897976418	0.6343095312813706	1.426051945497708	109.70636317799878	1.399720463000671	110.4944049556892	0.1868906883330581	-0.2535651636738993	0.4404558520069574	71.87745942369475	near	V2
2	3.0	ltm	367	diff_vonmises	-0.0687233861626786	-3.93755998096925	2.297701979411174	1.483269077688456	0.8192697164991538	1.7841650893407248	0.2833179735565101	-0.1581637997702307	0.4414817733267409	73.09775362816606	near	V3
3	4.0	ltm	367	diff_vonmises	-0.0440135678336382	-2.5217916781802274	1.5329801755221568	52.80140393560849	1.471466342679174	53.3931724383128	0.3144940867278691	-0.2483566442794176	0.5628507310072868	72.0141288471064	near	V4
4	5.0	ltm	367	diff_vonmises	0.0324116680115675	1.8570517840419984	1.8614984977118103	1.2635672459852092	2.5968071331548976e-11	1.298204927557383	0.4174911346262759	-0.1915362313697561	0.6090273659960321	100.3442807310362	near	V3ab
5	6.0	ltm	367	diff_vonmises	0.116443989699197	6.671749159428826	1.3774737244567272	0.8515539607948257	1.9636195457344128e-15	0.7641927896898656	0.2287398893614345	-0.0993365101230945	0.3280763994845291	114.34931141603872	near	IPS0
6	7.0	ltm	367	diff_vonmises	0.0081440629369936	0.4666204343786519	0.4524365939512776	93.99329511489596	0.4359480725134098	94.32127717453425	0.2098567384055663	-0.2155380310954022	0.4253947695009685	130.57747031025815	near	LO1
0	1.0	ltm	368	diff_vonmises	-0.0045337198673621	-0.2597630138944651	9.952934648428416	0.3741939706563427	0.083336968123913	3.075929857983726	-0.0664694120727647	-0.5064465060986749	0.4399770940259102	41.75315929386721	near	V1
1	2.0	ltm	368	diff_vonmises	0.1346960645424355	7.717516015303293	5.5114117961908295	0.7079955971572027	0.433655451600463	1.697754257499361	0.2484993850044752	-0.2831146218468934	0.5316140068513687	52.91447131821505	near	V2
2	3.0	ltm	368	diff_vonmises	0.0464894013969665	2.663646492135776	1.820220700542964	44.6909349660901	1.7586717846665667	45.14835173682135	0.2327157255161296	-0.200525977006774	0.4332417025229036	65.41548895519321	near	V3
3	4.0	ltm	368	diff_vonmises	-0.0369852167795327	-2.1190968258436595	1.2569968676845409	223.8982035514607	1.2407587612061313	225.1014919173415	0.2012827763741853	-0.348940614613344	0.5502233909875294	75.64680307734082	near	V4
4	5.0	ltm	368	diff_vonmises	-0.0873026353090148	-5.0020725435763485	2.167598621977259	0.9286329129876124	1.8198034153095714e-16	1.7336521827706275	0.2269310857127766	-0.2693323312210738	0.4962634169338504	93.3302173479838	near	V3ab
5	6.0	ltm	368	diff_vonmises	0.3598975087055521	20.62060830610094	0.7687579246969287	118.79925234058106	0.7562975213655173	119.50100924623804	0.0754063215284972	-0.1863559547291782	0.2617622762576754	96.46748080541738	near	IPS0
6	7.0	ltm	368	diff_vonmises	-0.0409093095832163	-2.343930781912388	1.6842247343674157	0.7587479337479333	2.672412826099303e-17	1.7689380285736305	0.071080801673273	-0.269389339851411	0.3404701415246841	105.0298431510836	near	LO1
0	1.0	ltm	369	diff_vonmises	0.0834583804093696	4.781812962454194	10.205957372868868	0.3911195943941251	0.1459582809482673	3.916251422927069	-0.22537006957507	-0.6685346973287449	0.4431646277536749	40.22497657952721	near	V1
1	2.0	ltm	369	diff_vonmises	0.1258339473249479	7.2097541011910335	7.57937568706634	0.5355795632294491	0.3792401150306891	1.6186847414682548	0.2145922923579532	-0.287595975147338	0.5021882675052913	46.05033590108485	near	V2
2	3.0	ltm	369	diff_vonmises	0.1009709658527798	5.78521019672384	1.886186679612668	99.17415698781956	1.859286930610388	99.66748367690856	0.1853490372547526	-0.2004383142004151	0.3857873514551677	62.99044348952884	near	V3
3	4.0	ltm	369	diff_vonmises	-0.2116881406882166	-12.128837034406413	1.070790048132367	230.4062764740343	1.0562834479669112	232.21774051364028	-0.0098450629266295	-0.4141629707725514	0.4043179078459218	76.8583385456771	near	V4
4	5.0	ltm	369	diff_vonmises	-0.1174669262050173	-6.730359103922184	3.218885920097546	0.6875051346855787	4.0223149935184473e-14	1.817511285730965	0.1793389371264833	-0.2885160991875105	0.4678550363139939	76.53080451437836	near	V3ab
5	6.0	ltm	369	diff_vonmises	0.1370445893021511	7.852076572116974	0.7727523340015369	109.51861674861576	0.7564365355389796	110.57872051697288	0.0281173226061994	-0.2463394006618493	0.2744567232680488	93.17292053512496	near	IPS0
6	7.0	ltm	369	diff_vonmises	0.0673795089458129	3.860561488259055	1.1657657531741688	125.1036232250142	1.1412547367012045	126.9080024711818	-0.0942578207740894	-0.4013199663493658	0.3070621455752764	71.02027459644145	near	LO1
0	1.0	ltm	370	diff_vonmises	0.0684717520099181	3.923142406034723	3.852125409095203	0.3684423422395013	0.0413535316834208	3.4213424362332474	-0.2897722090378516	-0.5383984288675971	0.2486262198297455	65.86612671414463	near	V1
1	2.0	ltm	370	diff_vonmises	0.0532139488609176	3.048934680955578	6.467973150702735	0.5262185758965511	0.1958841877437509	2.057054465524633	0.1282838906068656	-0.3399094806077709	0.4681933712146365	50.57188536449354	near	V2
2	3.0	ltm	370	diff_vonmises	-0.0118743324516429	-0.6803491340143726	3.3612180922503185	0.7415405679510458	0.3038960501603696	1.6736527676529562	0.1650853728373272	-0.2432273666487479	0.4083127394860752	66.99494179900748	near	V3
3	4.0	ltm	370	diff_vonmises	-0.3365473375342601	-19.282742047077864	0.802514737120194	104.25174022109628	0.7749669029174772	106.32591811510422	-0.0714550777092419	-0.4350038098185695	0.3635487321093276	87.76690464160232	near	V4
4	5.0	ltm	370	diff_vonmises	-0.0599846568875803	-3.4368676751986995	2.3669355841719533	1.0213434329714923	3.0191813246819025e-14	2.078054094700893	0.2520536776086417	-0.3256078045817431	0.5776614821903848	89.39527170939553	near	V3ab
5	6.0	ltm	370	diff_vonmises	0.1750670224672884	10.030601519297589	0.7279309310160842	106.55219887507596	0.710064121287839	107.34191669057816	0.136891792700883	-0.2356300379269704	0.3725218306278535	101.1882264137657	near	IPS0
6	7.0	ltm	370	diff_vonmises	-0.0721350929621252	-4.133036381513621	0.9782683889476352	231.9490744795656	0.965388634369637	233.75254577714836	-0.0379991175114042	-0.3961049758839223	0.358105858372518	79.6293067918495	near	LO1
0	1.0	ltm	371	diff_vonmises	-0.0020408232859943	-0.1169305610194962	6.46760324635275	0.3830697595888214	0.068772799180391	3.7823303794456513	-0.2635607884388521	-0.6102936305316353	0.3467328420927831	50.96258780614716	near	V1
1	2.0	ltm	371	diff_vonmises	0.0490828774373989	2.8122417235208528	2.4082361020166445	1.4753184413349214	0.5137841126862057	2.931045970385744	0.1197768017121063	-0.3628459845311106	0.482622786243217	71.19350316855468	near	V2
2	3.0	ltm	371	diff_vonmises	0.0627576619579312	3.595749162298181	4.915654361116542	0.6681157403053518	0.204072549221032	1.5685354472791075	0.2710516862420516	-0.2461160177654818	0.5171677040075335	58.35312611738655	near	V3
3	4.0	ltm	371	diff_vonmises	-0.1460335440731779	-8.367105742730795	0.975097958611658	177.77149203265452	0.953079070091066	179.699038018612	0.1010633433444994	-0.4670858117171406	0.56814915506164	83.5282989752119	near	V4
4	5.0	ltm	371	diff_vonmises	-0.0990352016629475	-5.674299078513889	2.076440015096777	1.1257986964146165	4.713742617205865e-16	2.216020758352816	0.2413668985861784	-0.3433519929629027	0.5847188915490812	95.28603939853754	near	V3ab
5	6.0	ltm	371	diff_vonmises	0.1006495405702421	5.7667938846056295	2.1868306173477787	0.7445049434307915	0.08343510716978	1.4163777629996346	0.1606651452818044	-0.2025911170934262	0.3632562623752307	88.50347822126031	near	IPS0
6	7.0	ltm	371	diff_vonmises	-0.0475942358342014	-2.7269488424500485	0.6041626420822882	130.72841042054645	0.5870477571983928	132.32358924880202	0.0035826238985805	-0.3667485530330978	0.3703311769316784	104.90205451100404	near	LO1
0	1.0	ltm	372	diff_vonmises	-0.0700728312091815	-4.014877486818701	7.3619208678219	0.3375388116742631	0.1915727357522061	1.8813836189744657	-0.0006278093886252	-0.3174975302157021	0.3168697208270769	47.03938795063124	near	V1
1	2.0	ltm	372	diff_vonmises	0.1058570129994562	6.065160076730336	2.1557295424092	3.938038081759396	1.457532189375178	4.549821125517945	0.1886004390995594	-0.2282388328572966	0.4168392719568561	63.89870546183917	near	V2
2	3.0	ltm	372	diff_vonmises	0.0567356298978763	3.2507121411645667	2.228261986455295	44.34184484258694	2.1819111966824463	44.39975297272629	0.2735170846184473	-0.1098131179542782	0.3833302025727256	62.10969134640081	near	V3
3	4.0	ltm	372	diff_vonmises	-0.0692680789283288	-3.968768577572311	1.6035340539686274	161.52796962162958	1.5850168424152489	162.15572483024133	0.2316092623527623	-0.236288670922832	0.4678979332755943	68.66878078626524	near	V4
4	5.0	ltm	372	diff_vonmises	-0.0278602862355569	-1.5962768173238322	2.850853760465745	0.798996079465019	2.6895816898149193e-13	1.0044964182424556	0.3483457365078833	-0.1581727568912564	0.5065184933991398	81.4238747248128	near	V3ab
5	6.0	ltm	372	diff_vonmises	0.1387728796139968	7.951100312759081	0.8997536122050265	35.50214256161057	0.871631886457133	35.567658379381044	0.1694815256407356	-0.0830602205192887	0.2525417461600243	98.36899665343827	near	IPS0
6	7.0	ltm	372	diff_vonmises	-0.1108264559720508	-6.34988818559095	0.8886996012934429	102.24689835589996	0.8740070490346202	102.69440133581574	0.1441413389997734	-0.1539735932932409	0.2981149322930143	93.28932614095132	near	LO1
0	1.0	ltm	373	diff_vonmises	-0.570894692347483	-32.709856417930354	0.0002505617863116	1687.165804805038	3.495557280084621e-33	1689.421603398568	-0.2917370997893727	-0.426297465173775	0.1345603653844023	170.8926663220256	near	V1
1	2.0	ltm	373	diff_vonmises	-0.0452786349683816	-2.5942746858017327	12.195441163942904	0.2868676749222663	3.2196791842869435e-15	1.618059139044534	0.1377586943814993	-0.2575221101838525	0.3952808045653518	38.83063983371957	near	V2
2	3.0	ltm	373	diff_vonmises	-0.0406892952144648	-2.3313248871506933	4.0565781662505325	0.5484303117016581	0.3019772183706967	0.9948242590167689	0.2155317062662293	-0.148526909582827	0.3640586158490563	62.994610579209706	near	V3
3	4.0	ltm	373	diff_vonmises	-0.0695248295608594	-3.983479305203629	1.2763753636017765	160.0985522876781	1.2568089224022851	161.39692654289092	0.0668082261231362	-0.3337788235579637	0.4005870496810999	72.33283910255071	near	V4
4	5.0	ltm	373	diff_vonmises	-0.0794390572517239	-4.551522709021896	2.6762057608006904	0.824620806968702	2.2290076889389512e-17	1.8563242071919468	0.2102462709167241	-0.2930474742382669	0.503293745154991	84.0711170252221	near	V3ab
5	6.0	ltm	373	diff_vonmises	0.1011711027796593	5.796677197958752	0.7222594887941461	114.67036366494352	0.7085537820193439	115.49339023010162	0.0641988049556729	-0.2107178721538858	0.2749166771095588	98.7600280787459	near	IPS0
6	7.0	ltm	373	diff_vonmises	-0.021823027593982	-1.250367377332706	1.2056703993003215	173.51966510270864	1.191331899137222	174.5164126435812	0.0833754467001739	-0.2610504176787778	0.3444258643789517	75.42863347177769	near	LO1
0	1.0	ltm	374	diff_vonmises	-0.0127493870419576	-0.7304860688829538	1.7435106782525729	0.6106697437460913	1.254602669315134e-13	2.9751251755841874	-0.1836623072356601	-0.4646386823362872	0.280976375100627	103.41050788938956	near	V1
1	2.0	ltm	374	diff_vonmises	0.0650895505097291	3.729356534611079	4.116678362859547	0.6783998806834081	0.2443702717167535	2.098724683254635	0.1096172184157463	-0.3259205888116848	0.4355378072274312	61.3345764036084	near	V2
2	3.0	ltm	374	diff_vonmises	0.0646489286298733	3.7041107605342174	5.3852096308396185	0.4423141390048105	0.0018029006553142	1.3438098142106285	0.1846884141175982	-0.2135702932224744	0.3982587073400726	58.72407806256783	near	V3
3	4.0	ltm	374	diff_vonmises	-0.0064993047244331	-0.3723827304794538	3.3163837175843898	0.785875837075309	0.1976481733708776	2.382286989121493	0.0871671196495507	-0.3558879347290671	0.4430550543786178	68.22587072631575	near	V4
4	5.0	ltm	374	diff_vonmises	-0.0064619074937815	-0.3702400269976427	1.482073500456713	1.362606715019543	1.3294343407375692e-22	2.0900089716786683	0.2532826217269823	-0.3023974065846982	0.5556800283116805	111.02331695842032	near	V3ab
5	6.0	ltm	374	diff_vonmises	0.3364123111312538	19.27500560406277	0.7745454328163336	137.0321081581632	0.7621295690184895	137.54816139841748	0.1719091372850698	-0.1872032274429464	0.3591123647280163	100.23240044087166	near	IPS0
6	7.0	ltm	374	diff_vonmises	0.0901415545486089	5.164730634383584	0.7969354792276182	2.7105488436698857	0.1785520832844815	3.8923769585159382	0.0867300398081036	-0.3472175268168243	0.4339475666249279	124.0138737179566	near	LO1
0	1.0	ltm	375	diff_vonmises	-0.6864345440489609	-39.32980228599246	0.0001601468554543	3706.677660002012	4.240785439832586e-32	3709.793351779223	-0.401399123709325	-0.5903488067298213	0.1889496830204962	166.98863113271534	near	V1
1	2.0	ltm	375	diff_vonmises	-0.0192749558080033	-1.104373618099767	13.306622754851704	0.2991985728519204	1.7947868056584253e-22	2.1023996140238648	0.0965614401802432	-0.3346072909251978	0.431168731105441	37.15490489210649	near	V2
2	3.0	ltm	375	diff_vonmises	0.0140352087738529	0.8041582273267543	4.825751429798896	0.4863367468936428	0.1481384046974049	1.3326194599829462	0.1691822632920813	-0.2088325833101618	0.3780148466022431	59.27696923503794	near	V3
3	4.0	ltm	375	diff_vonmises	-0.1037131118543905	-5.942323589424808	0.948430670676512	133.18233418876176	0.9255200292344424	135.32361531836506	-0.1214920283477383	-0.4455177806123238	0.3240257522645855	78.48275412916507	near	V4
4	5.0	ltm	375	diff_vonmises	-0.141218745312332	-8.091238094529507	2.3842026070887683	0.8578315318585874	2.6426826610532406e-20	2.5033925306975933	0.0932013252120586	-0.3942514186283655	0.4874527438404242	89.05902230400267	near	V3ab
5	6.0	ltm	375	diff_vonmises	0.0804507934319645	4.6094909221303695	0.8061065470979246	156.36406375214912	0.7916685707472779	157.77002664130669	0.0064375131641511	-0.3144946014343546	0.3209321145985058	89.86403989808491	near	IPS0
6	7.0	ltm	375	diff_vonmises	0.0282640667493544	1.619411736614052	1.2326274821329923	268.5720181009592	1.219147941249497	270.4418939144881	-0.0494614053537958	-0.4371145555335332	0.3876531501797373	70.39320239969791	near	LO1
0	1.0	ltm	376	diff_vonmises	-0.0020408188701044	-0.1169303080076431	6.46760337237946	0.3830697506330645	0.0687727945090824	3.7823303692296415	-0.2635607887868729	-0.6102936284970214	0.3467328397101485	50.96258745471431	near	V1
1	2.0	ltm	376	diff_vonmises	0.049082865925943	2.8122410639630155	2.4082357572877107	1.4753188262771957	0.5137842189468856	2.9310463539226075	0.1197767976762763	-0.3628459900767442	0.4826227877530205	71.19350493259282	near	V2
2	3.0	ltm	376	diff_vonmises	0.062757661219099	3.595749119966217	4.915653734683653	0.6681158085116925	0.2040726060502935	1.56853551645785	0.2710516769494631	-0.2461160246115075	0.5171677015609707	58.35312886929134	near	V3
3	4.0	ltm	376	diff_vonmises	-0.146033661113597	-8.367112448652843	0.9752160942858352	175.90199027891924	0.952964432989594	177.82953612855383	0.1010635511711512	-0.4670858139911686	0.56814936516232	83.52824636903446	near	V4
4	5.0	ltm	376	diff_vonmises	-0.0990352024448318	-5.674299123312557	2.076440017371094	1.125798695607625	4.713700162384079e-16	2.2160207577625477	0.2413668986516508	-0.343351992912056	0.5847188915637069	95.28603934794442	near	V3ab
5	6.0	ltm	376	diff_vonmises	0.1006495505795615	5.766794458097383	2.186830707224126	0.7445049004645237	0.0834350790152712	1.4163777201523584	0.1606651459009451	-0.2025911172230466	0.3632562631239918	88.5034777763322	near	IPS0
6	7.0	ltm	376	diff_vonmises	-0.0475939838455126	-2.726934404561692	0.6041746841511155	130.53577279440265	0.5870347016030281	132.13095164764866	0.0035825831398028	-0.3667486150196684	0.3703311981594712	104.90210818438068	near	LO1
0	1.0	ltm	377	diff_vonmises	-0.0598030116415182	-3.4264601692307277	6.096929946668672	0.2483930953045119	0.0687146671650854	2.495251644676268	-0.1857002168627682	-0.4017722753448702	0.216072058482102	52.30280647488922	near	V1
1	2.0	ltm	377	diff_vonmises	0.026875505262239	1.5398530238079295	4.437885498917886	0.6491244894743353	0.3701884902369401	1.7766262643193262	0.1321867052127984	-0.2818620396763237	0.4140487448891221	57.94650466278165	near	V2
2	3.0	ltm	377	diff_vonmises	-0.0426940522190122	-2.446189002460548	3.1805950881424	0.7891403175818048	0.5185377569160173	1.1630878135181937	0.2432195577924933	-0.1519774865152056	0.3951970443076989	67.57566521133523	near	V3
3	4.0	ltm	377	diff_vonmises	-0.1606223149928295	-9.202980744710022	1.2381394294891843	154.72691970941014	1.2181414752396462	155.89956542312578	0.1206013325996977	-0.3158282541854085	0.4364295867851062	74.9561492474217	near	V4
4	5.0	ltm	377	diff_vonmises	-0.0463374657531778	-2.65494122098908	2.8721920040758904	0.890309051096085	8.461892230294964e-20	1.5343852606905264	0.3245348644991481	-0.2423844403651573	0.5669193048643055	81.11414056677543	near	V3ab
5	6.0	ltm	377	diff_vonmises	0.0757402548417668	4.339596941678542	0.7988020101813288	54.973981960890754	0.7731201959517452	55.35203762609369	0.1567551148371215	-0.1494818946761382	0.3062370095132598	99.8791848218046	near	IPS0
6	7.0	ltm	377	diff_vonmises	-0.1112731747088672	-6.375483283839944	1.0788398877574688	155.1739528169618	1.065033813061308	156.02523270371913	0.1010501702992101	-0.2272601813666881	0.3283103516658983	80.94638048116195	near	LO1
0	1.0	ltm	378	diff_vonmises	0.22709426147936	13.011542734407676	0.6381981297828441	73.69843352800787	0.6120374022181697	76.06151232607752	-0.2671775521936865	-0.4271577942227189	0.1599802420290323	86.7605716776568	near	V1
1	2.0	ltm	378	diff_vonmises	0.0805864785302639	4.617265105605744	11.009408112360669	0.3556013773957338	0.2342118400195787	1.432593844925932	0.1807528594610432	-0.2531576501655306	0.4339105096265739	39.40196757411101	near	V2
2	3.0	ltm	378	diff_vonmises	0.1333314614325722	7.639330016397697	2.334393205348157	2.9096615311955274	1.5929213556549904	3.2652726249135395	0.1798634903346077	-0.1598875592508651	0.3397510495854728	62.36932114720847	near	V3
3	4.0	ltm	378	diff_vonmises	-0.0789938042270323	-4.526011589891634	1.218766187966293	157.03746964447316	1.2009713298151312	158.46758970380563	-0.0270688581968698	-0.3352685309335577	0.3081996727366878	71.25839077574173	near	V4
4	5.0	ltm	378	diff_vonmises	-0.0887746773582631	-5.0864143402640645	3.007459557538604	0.6732016024822505	4.9353925480634174e-14	1.5454461032248268	0.1955761544892837	-0.2448871145319366	0.4404632690212204	79.23331555701938	near	V3ab
5	6.0	ltm	378	diff_vonmises	0.1392150104442325	7.976432543324199	0.9021520509406652	114.42422498485396	0.8881255958511036	115.1076478687545	0.0867390323447097	-0.1832530423295963	0.2699920746743061	89.20573683656437	near	IPS0
6	7.0	ltm	378	diff_vonmises	0.0305542205707824	1.7506278850176369	1.2465054792774102	185.64218791459092	1.2320657445394771	186.88922873475704	0.0120137847248713	-0.3040866252516352	0.3161004099765065	71.66055373358333	near	LO1
0	1.0	ltm	379	diff_vonmises	-0.1211193510229093	-6.939627630976233	0.3401302223344399	49.37356691211954	0.3130699635484578	51.71999249347304	-0.2576437189137763	-0.4399492181319262	0.1823054992181498	124.99460496465632	near	V1
1	2.0	ltm	379	diff_vonmises	-0.0015657599348023	-0.0897114359948563	6.606953890755162	0.4066643053800448	0.061573162988952	1.849728795769628	0.095686217828922	-0.2958001393669555	0.3914863571958775	51.716332376940215	near	V2
2	3.0	ltm	379	diff_vonmises	-0.0131804015051981	-0.7551813785357316	4.551632576196746	0.484913314647319	0.1001739583970343	1.1243633758860647	0.2025340032499304	-0.1742915306333048	0.3768255338832352	62.02449155636708	near	V3
3	4.0	ltm	379	diff_vonmises	-0.0146640339540343	-0.8401872562027036	2.0068280701122334	2.0047003100192557	0.6591944155497227	3.414136945712314	0.091328498917507	-0.3518747766568977	0.4432032755744048	72.77777124628173	near	V4
4	5.0	ltm	379	diff_vonmises	-0.0481995915416951	-2.7616331695935923	1.9259052993354344	1.050900288805288	3.0808739411355574e-18	1.9953512339754405	0.2123158915693336	-0.3063142020659586	0.5186300936352923	98.76445720421589	near	V3ab
5	6.0	ltm	379	diff_vonmises	0.2721454990467608	15.59278850886096	0.6893086463229352	134.07913113121876	0.6774212585514109	134.82577517422726	0.0942845321690342	-0.2097914414180479	0.3040759735870821	102.7352775462328	near	IPS0
6	7.0	ltm	379	diff_vonmises	0.0315971332060746	1.8103823774207477	0.8972475775952563	133.64878412320937	0.880891123829792	134.65289408409376	0.0961563621761953	-0.2578063698692929	0.3539627320454883	88.65588420942669	near	LO1
0	1.0	ltm	380	diff_vonmises	-0.0517703197146914	-2.9662208236947407	3.8831623957272976	0.3265051830990137	3.133213839326494e-20	1.016165048362201	0.0852705372624364	-0.1616230203964668	0.2468935576589032	69.51008914181278	near	V1
1	2.0	ltm	380	diff_vonmises	0.0678717390981765	3.888764198538569	1.8052423530447612	77.55882676120551	1.7772706231264477	77.90033958820297	0.1915507779422398	-0.1553487297369926	0.3468995076792325	65.6419022349036	near	V2
2	3.0	ltm	380	diff_vonmises	-0.0075317249464832	-0.4315360518868884	2.0233258039997177	46.92184430500688	1.9886027441817224	46.91946387161535	0.2548463745246323	-0.084134392298627	0.3389807668232594	66.21069183141267	near	V3
3	4.0	ltm	380	diff_vonmises	0.0311999023270524	1.7876227245605012	2.061218632653734	107.21674740794654	2.0351755446589657	107.48343652568748	0.2912671167180107	-0.1747986398050525	0.4660657565230632	62.58239256032596	near	V4
4	5.0	ltm	380	diff_vonmises	0.0535216407888728	3.0665641298176527	1.763387810409232	1.099675406782407	5.068102837132802e-12	0.8757339452044384	0.3861877550673301	-0.1239259663059514	0.5101137213732815	102.86891524831336	near	V3ab
5	6.0	ltm	380	diff_vonmises	0.2033734255938311	11.6524389516444	0.8607747098693795	20.921708252483437	0.8195872407788488	20.72469181031126	0.2250163968700098	-0.0575629832364228	0.2825793801064327	106.66069901450754	near	IPS0
6	7.0	ltm	380	diff_vonmises	-0.0010112965526837	-0.0579430243049058	0.5592128920205345	67.95859822175504	0.538610127882044	68.07782158006691	0.2332157806894486	-0.1614731660431667	0.3946889467326153	122.29338556135096	near	LO1
0	1.0	ltm	381	diff_vonmises	-0.0128258369439274	-0.7348663256100099	3.9392165711065457	0.2767064987144657	3.5835195430559866e-12	3.609106119640463	-0.3634408834559403	-0.5743271528267919	0.2108862693708516	69.0027130490671	near	V1
1	2.0	ltm	381	diff_vonmises	0.1177589511537758	6.74709090099857	5.666948411424889	0.5310435532596176	0.2055625700056594	2.0024401836129635	0.1047522847068254	-0.3265132155152164	0.4312655002220418	53.555939209073244	near	V2
2	3.0	ltm	381	diff_vonmises	0.1282750557888695	7.349619313507403	5.028408486381108	0.5576333705131981	0.3499306703377892	1.338307873540719	0.1917694279746192	-0.2152300969194048	0.4069995248940241	55.911329696083385	near	V3
3	4.0	ltm	381	diff_vonmises	-0.2124297574992779	-12.171328547696175	0.8345187220402067	153.4967250130869	0.8154433106053351	155.74100097053545	-0.1290706794645544	-0.4559958135563882	0.3269251340918337	83.68455316539242	near	V4
4	5.0	ltm	381	diff_vonmises	-0.1451071284585272	-8.314026037936287	2.175178675771312	0.8748460931689208	1.0613848485760717e-21	2.1410757422566724	0.1339388936857743	-0.3346376911376633	0.4685765848234376	93.1598854371961	near	V3ab
5	6.0	ltm	381	diff_vonmises	0.1411715501786466	8.088534012555774	0.932713198039107	121.5990895937482	0.9152962550173112	122.55387837295596	0.0919424043324639	-0.2452120549341891	0.3371544592666531	86.89317369223949	near	IPS0
6	7.0	ltm	381	diff_vonmises	0.0216889211927266	1.2426836465350843	0.969401465551829	174.51175082065936	0.952174121060188	176.53480156708457	-0.1024698278904736	-0.4266091257477313	0.3241392978572577	77.99703020833687	near	LO1
0	1.0	ltm	382	diff_vonmises	-0.0091483125484906	-0.5241596986950844	4.535905571094276	0.3232273840668502	4.143926679571038e-18	3.630425114823983	-0.3118054796572229	-0.5777695412926006	0.2659640616353777	64.19141574898589	near	V1
1	2.0	ltm	382	diff_vonmises	0.0689661241176143	3.9514678413146993	3.32334311467979	0.8465276581785297	0.2778628730834056	2.373840385585269	0.0981333855712391	-0.3516489668902494	0.4497823524614885	66.53050766950003	near	V2
2	3.0	ltm	382	diff_vonmises	0.0718818421420997	4.118526178367934	4.881013842383911	0.6559526976158766	0.2451739805507801	1.6534578323150364	0.2302556118850398	-0.2612067363423093	0.4914623482273491	57.788782097710765	near	V3
3	4.0	ltm	382	diff_vonmises	-0.1360418360656163	-7.794623043770445	0.9339262353271586	167.26627620616117	0.912308304394904	169.40209575100857	-0.0064448121361238	-0.4767625695937809	0.4703177574576571	82.87541543564038	near	V4
4	5.0	ltm	382	diff_vonmises	-0.1381110771436064	-7.9131818243343774	1.760723467060207	1.1668981344291782	8.04561721862519e-17	2.5203189305390747	0.156058014253617	-0.3846528047429366	0.5407108189965537	102.9099597174469	near	V3ab
5	6.0	ltm	382	diff_vonmises	0.1257202245104104	7.203238263883684	0.8350072915494368	71.72343019308367	0.8047678020871981	72.73186215830643	0.1069796373993448	-0.2643943766265497	0.3713740140258945	92.82608642072708	near	IPS0
6	7.0	ltm	382	diff_vonmises	-0.0314138640116551	-1.799881826065744	0.6979568878189013	62.46656307538921	0.6566794199236121	64.44950534153958	-0.0570189447396494	-0.4202074626501311	0.3631885179104817	95.62644907464184	near	LO1
0	1.0	ltm	383	diff_vonmises	0.0339500710240476	1.9451957838473204	9.387219358258184	0.7822819350114991	0.2757983129746819	4.716376303042174	-0.0277065855061573	-0.8473154270887427	0.8196088415825854	41.29442682354343	near	V1
1	2.0	ltm	383	diff_vonmises	0.1358119591844073	7.78145206866954	4.154080406057028	1.0631365669004065	0.6292303465065181	2.0987148894571632	0.2654253428490281	-0.3219100055637421	0.5873353484127702	57.7410572079252	near	V2
2	3.0	ltm	383	diff_vonmises	0.0382886864214084	2.1937801350465644	1.7427123339757271	33.877010809442226	1.649893490189106	34.46081096991176	0.2588902905207781	-0.2385822529693753	0.4974725434901534	66.94354176360255	near	V3
3	4.0	ltm	383	diff_vonmises	-0.1166338939581104	-6.682629871976118	1.0677059190116207	277.8098279814943	1.0521778168395244	279.4226443168427	0.2443171367228132	-0.447395412558464	0.6917125492812772	82.17776469584331	near	V4
4	5.0	ltm	383	diff_vonmises	-0.0827957721260445	-4.743848304349254	2.541060703521127	0.9413188825657886	3.720643678343993e-12	1.742620619393558	0.2827444566912219	-0.2738701755487711	0.556614632239993	86.28491284960205	near	V3ab
5	6.0	ltm	383	diff_vonmises	0.2848592578269494	16.321233228713165	0.7907331067539612	67.69459796715603	0.769293236809841	68.26524173261394	0.1072289944283575	-0.1701941126812665	0.277423107109624	97.29038052115116	near	IPS0
6	7.0	ltm	383	diff_vonmises	-0.1804930285717811	-10.341488768697245	0.4031638842734775	38.1982086831327	0.3613622229583982	39.46015656860537	0.0126744930646474	-0.3340980615080751	0.3467725545727225	130.81675852705308	near	LO1
0	1.0	ltm	384	diff_vonmises	-0.0304513768996536	-1.744735376712321	2.1580553952627364	0.4047371486208554	5.4069749260343255e-15	2.6783448205344333	-0.2076922625769355	-0.423353281586929	0.2156610190099935	93.5378958791654	near	V1
1	2.0	ltm	384	diff_vonmises	0.0508720733665755	2.914755098984659	5.123644345436143	0.5352634685453092	0.213597057814682	1.8444732023499903	0.110871730161921	-0.2964195123266224	0.4072912424885435	56.08458563305447	near	V2
2	3.0	ltm	384	diff_vonmises	0.016712180101052	0.9575373862528014	3.971914117439869	0.5901967393713339	0.2729239947046394	1.2728008207122263	0.190781499634597	-0.191761397226977	0.382542896861574	63.30644416875708	near	V3
3	4.0	ltm	384	diff_vonmises	-0.0884038978141915	-5.06517023725898	1.4371079637846516	4.360920187843539	0.8278303100282676	5.824760758675816	0.0410446522571237	-0.3497167997763818	0.3907614520335056	76.43772075288803	near	V4
4	5.0	ltm	384	diff_vonmises	-0.0427588455224085	-2.449901385285867	1.9565584868056416	1.063949541365459	2.333610432107555e-16	1.875344154004528	0.2431289639034481	-0.2876488449692543	0.5307778088727025	98.03749486905068	near	V3ab
5	6.0	ltm	384	diff_vonmises	0.225202459532509	12.903150467178484	0.7378894031310415	129.36654850118694	0.7252835699424617	129.9650083925241	0.1379994724190183	-0.1931045075199087	0.331103979938927	101.36729709583088	near	IPS0
6	7.0	ltm	384	diff_vonmises	-0.0254892770628754	-1.4604279985423765	0.8554609274371576	149.7436313532586	0.8401015407888961	150.90801350635763	0.0764001515636323	-0.2864713395747422	0.3628714911383746	89.88312207651504	near	LO1
0	1.0	ltm	385	diff_vonmises	-0.1296035217147469	-7.425734804287119	6.18049851804939	0.3593230489765444	0.0575076773413561	3.851775186394482	-0.3003059693408062	-0.6187187804252688	0.3184128110844626	52.22788925963542	near	V1
1	2.0	ltm	385	diff_vonmises	-0.0260858428349424	-1.4946086994837828	1.8002768768496855	2.599143308913581	0.6005432378098404	4.3645840494770605	0.0984035068520527	-0.4281661578195704	0.5265696646716232	76.5698875019477	near	V2
2	3.0	ltm	385	diff_vonmises	0.0186592653760163	1.0690971548603223	4.420811349180728	0.6762053773715095	4.5330096896958364e-24	1.636030713355047	0.2885209672897409	-0.2603030097703099	0.5488239770600509	65.03569127497167	near	V3
3	4.0	ltm	385	diff_vonmises	-0.0730436342973504	-4.185091965535206	2.561629378323222	1.445958861521935	0.1986745139771861	3.269676317545128	0.2358976656257252	-0.4552747332260335	0.6911723988517589	77.48912957726509	near	V4
4	5.0	ltm	385	diff_vonmises	-0.0394428266816955	-2.2599075009271496	2.010531633501583	1.2946858073854135	4.463991789228978e-19	2.173583216578571	0.3240823573532725	-0.3339199737717848	0.6580023311250573	96.77727926655731	near	V3ab
5	6.0	ltm	385	diff_vonmises	0.2100933715516573	12.037463493583845	0.8590847856202298	21.77600545608629	0.7858899031987339	22.18947966640141	0.1798525105667403	-0.1644040631875141	0.3442565737542544	97.76938915192795	near	IPS0
6	7.0	ltm	385	diff_vonmises	0.0941674201925729	5.395395744669433	0.4168686884829955	128.18500435024927	0.4031082206208441	129.23797894902734	0.0833796904973525	-0.3221793963790773	0.4055590868764298	129.72614125072937	near	LO1
0	1.0	ltm	386	diff_vonmises	-0.3070883292502231	-17.594865203761614	0.5563809150083623	169.7168119426478	0.5396631773830682	173.3049102012136	-0.3781132515873437	-0.6529731036174447	0.2748598520301009	94.95169499542398	near	V1
1	2.0	ltm	386	diff_vonmises	0.0408843801113679	2.3425024283899862	4.858709839657102	0.6504371316897154	0.1140215640409346	2.5276441389703104	0.105994581642724	-0.3989879223991361	0.5049825040418603	58.924013281619466	near	V2
2	3.0	ltm	386	diff_vonmises	0.032988768749259	1.8901172206656087	5.128329053920783	0.5295049155789111	0.0132804366235427	1.613989847986812	0.2050896362099499	-0.2552536501684108	0.4603432863783607	59.879354172957136	near	V3
3	4.0	ltm	386	diff_vonmises	0.0036495619873393	0.2091044989459224	2.508713181377739	1.3078210402967567	0.2069762055832465	3.431115185971913	0.1078282255462079	-0.4806207882329705	0.5884490137791785	76.7776482294008	near	V4
4	5.0	ltm	386	diff_vonmises	-0.0591691195547156	-3.390140827990196	1.6315565501240814	1.306173250236107	3.5051454972898737e-15	2.5852753798179435	0.1839322319309964	-0.3886725457689099	0.5726047776999064	106.51630816095442	near	V3ab
5	6.0	ltm	386	diff_vonmises	0.4048836330707647	23.198123368878264	0.6915185251009092	190.95916298889557	0.681061618873511	192.02110638561004	0.0820005127304241	-0.273917426467257	0.3559179391976812	100.91788785264072	near	IPS0
6	7.0	ltm	386	diff_vonmises	0.1131004977695038	6.480181183021349	1.5211277975606965	0.9692941677131794	4.915246434940849e-15	2.462461975492912	0.0314916105268835	-0.3717029561752069	0.4031945667020905	109.75713294525596	near	LO1
0	1.0	ltm	387	diff_vonmises	-0.068524782650776	-3.926180837940755	5.91449167220236	0.4502981392653961	0.0877900224061804	3.043371510489598	-0.1010054697041115	-0.4895644900818521	0.3885590203777405	53.31696968960813	near	V1
1	2.0	ltm	387	diff_vonmises	0.0736522859001547	4.21996513356977	2.985691927725845	1.3452860492084582	0.649011624601736	2.527638568382252	0.1839624328602961	-0.3333804940845786	0.5173429269448748	64.59349913056926	near	V2
2	3.0	ltm	387	diff_vonmises	0.0618298817155633	3.5425912700948787	4.4506592344008284	0.5727514296672128	0.1799858609920388	1.1579115836428282	0.2476996405825126	-0.1776825728428633	0.4253822134253759	61.750773574343526	near	V3
3	4.0	ltm	387	diff_vonmises	-0.0478476788492427	-2.741470057558986	2.368605332428499	1.5183232351226414	0.4116151155543641	2.7899298662961898	0.2241245754362263	-0.3450523672832221	0.5691769427194484	75.28273118050078	near	V4
4	5.0	ltm	387	diff_vonmises	-0.0083069198045089	-0.4759514455520028	2.008972880316353	1.1258588572523474	5.0227440769985524e-21	1.5418928916749362	0.336947286059752	-0.2349220659806503	0.5718693520404023	96.81769600926944	near	V3ab
5	6.0	ltm	387	diff_vonmises	0.3534460751212007	20.25096838990865	0.9220695531736284	115.39196186783762	0.9109161183529706	115.57315876671332	0.1860569833269707	-0.1122247788354187	0.2982817621623894	95.0688445938424	near	IPS0
6	7.0	ltm	387	diff_vonmises	0.0542873308315032	3.1104349376755653	0.3875763642551358	25.936532613952085	0.3306600781846807	26.65803056981581	0.112706436722612	-0.2672634923797901	0.3799699291024021	137.15588953591237	near	LO1
0	1.0	ltm	388	diff_vonmises	0.0150215969507536	0.8606741068247682	8.302299546964255	0.3273853430312787	0.1209602024094386	3.8072812835798806	-0.3110575660127692	-0.6364556316463508	0.3253980656335816	44.13136824396148	near	V1
1	2.0	ltm	388	diff_vonmises	0.0760101562575352	4.355061153686676	6.593406902364572	0.5572097667403916	0.2712530486017551	1.860895751942893	0.177621008762615	-0.3137369487229482	0.4913579574855632	49.666043556222746	near	V2
2	3.0	ltm	388	diff_vonmises	0.0439544355599832	2.518403648466787	2.813565000214133	1.3161457609457052	0.9531666647641194	1.8399040591729916	0.2184528852468767	-0.1988928077405437	0.4173456929874204	64.47945333480106	near	V3
3	4.0	ltm	388	diff_vonmises	-0.1627949053568413	-9.327461003178689	1.0892936735688097	226.63245803640723	1.0735346595929274	228.34224898904333	0.0621511022071104	-0.4131555552577381	0.4753066574648485	78.04465842192357	near	V4
4	5.0	ltm	388	diff_vonmises	-0.1033447564199464	-5.921218377670449	3.1546408229763427	0.7856538668325633	1.8348262996046263e-12	1.9463061091843477	0.2196975845826173	-0.3088009613873745	0.5284985459699918	77.323570872385	near	V3ab
5	6.0	ltm	388	diff_vonmises	0.1351726964463028	7.744825011776175	0.7223231213249163	120.46822783931422	0.708466364599711	121.42647053982456	0.0441411435146719	-0.2320476980012831	0.276188841515955	97.459975435694	near	IPS0
6	7.0	ltm	388	diff_vonmises	0.0038910498021925	0.2229407315408451	1.0904492147958296	182.9450675829621	1.0761732048600672	184.37179316244004	-0.0180814696417002	-0.3249374723464484	0.3068560027047482	75.75192380793703	near	LO1
0	1.0	ltm	389	diff_vonmises	0.2281230893448169	13.07049022894381	0.0002385038057709	3460.1657494936144	1.51817012503323e-31	3462.6406121082427	-0.2625342490600815	-0.5252233250727159	0.2626890760126343	178.26767302834418	near	V1
1	2.0	ltm	389	diff_vonmises	0.0563970494457834	3.231312910234008	14.698813088665156	0.3102243318946867	0.0459149053782729	1.9122096043747243	0.1517997233351677	-0.3114055980264079	0.4632053213615756	35.02739526259788	near	V2
2	3.0	ltm	389	diff_vonmises	0.0578866728861147	3.3166620464287515	3.956795160953079	0.3725722096512326	2.259169032860789e-15	1.1010184470842632	0.1095107254853926	-0.175128373960101	0.2846390994454937	68.8453852004053	near	V3
3	4.0	ltm	389	diff_vonmises	0.0865377811829544	4.958249630209925	3.579626936297433	0.6815749477639006	0.2146761260580519	2.288150360881518	0.0467705143116085	-0.3483050569928991	0.3950755713045076	65.17282079985651	near	V4
4	5.0	ltm	389	diff_vonmises	0.0096247668405503	0.551458518760996	1.6539832494194049	1.1295233314069235	2.775575931589935e-15	1.9394868616772185	0.2104798521505435	-0.2896807137572084	0.5001605659077519	105.8849418734653	near	V3ab
5	6.0	ltm	389	diff_vonmises	0.5974681376982806	34.232402683652595	0.6276357635357283	164.50936935962503	0.6176174694084317	165.23923684841998	0.1163203378761181	-0.223854421443864	0.3401747593199822	108.71126427657958	near	IPS0
6	7.0	ltm	389	diff_vonmises	0.1982477657662776	11.35876027630583	2.6719996139359403	0.6098553881735571	0.0642078678988302	1.5434141418646932	0.1119949096875444	-0.2309393292565404	0.3429342389440848	80.58769779298285	near	LO1
0	1.0	ltm	390	diff_vonmises	-0.1769495941799456	-10.138464933063563	6.899208201198689	0.2221616648460417	3.746825820355407e-16	3.7852101091283794	-0.3741824759613286	-0.6024346673120925	0.2282521913507639	51.80918934909781	near	V1
1	2.0	ltm	390	diff_vonmises	0.0563255863938961	3.2272183789697446	5.507159149610222	0.5899530904839417	0.1691660776801002	2.2676918696881496	0.1140782346256348	-0.365600178635557	0.4796784132611918	54.74595387524903	near	V2
2	3.0	ltm	390	diff_vonmises	0.0539635358236496	3.0918828502981497	4.965116885985771	0.5153043769821049	0.1232142831148812	1.272374132611298	0.2169798597371279	-0.1991351012083303	0.4161149609454583	59.07935176017128	near	V3
3	4.0	ltm	390	diff_vonmises	-0.0744807800180411	-4.267434349876075	1.2171403882928853	7.265575152816261	0.7550256120689767	9.24204871013688	0.050685299649174	-0.4604522562680925	0.5111375559172665	81.92809659470046	near	V4
4	5.0	ltm	390	diff_vonmises	-0.0889672806086304	-5.097449693630614	2.3378524546475976	0.9507865754505064	3.104982833220567e-17	2.1096747582757174	0.2028334611719068	-0.3307459564246968	0.5335794175966035	89.93495906396294	near	V3ab
5	6.0	ltm	390	diff_vonmises	0.2982515906522561	17.08855737743775	0.7719032197169766	144.73329090814613	0.7598786408014383	145.5821836102329	0.0810584247674128	-0.2210056092424626	0.3020640340098754	95.86890322489872	near	IPS0
6	7.0	ltm	390	diff_vonmises	0.0649505751234381	3.7213938315204	0.8491716796449034	117.88526272738044	0.8301072484263596	119.23510102968444	0.0113142864833619	-0.3040571803024168	0.3153714667857787	87.75116904574017	near	LO1
0	1.0	ltm	391	diff_vonmises	0.0912967319522536	5.230917424201303	7.100361965702409	0.2606397800609982	2.122560514030159e-44	2.497323736617553	-0.1256442420210144	-0.397461232243369	0.2718169902223546	51.06041145104052	near	V1
1	2.0	ltm	391	diff_vonmises	0.0886999395322086	5.082132178261162	8.506689905654042	0.4068149732423032	0.1596452044959795	1.4401057733939449	0.1988140127905863	-0.2403877868456715	0.4392017996362579	45.108694258406416	near	V2
2	3.0	ltm	391	diff_vonmises	0.0116204123370601	0.6658005831153027	1.803840534183518	124.71117980831244	1.7784933104397982	125.38434746808193	0.1946498407141845	-0.2500560969581045	0.444705937672289	63.80349134665147	near	V3
3	4.0	ltm	391	diff_vonmises	-0.1457473178048554	-8.350706185570136	1.2737294727509976	254.0745356239429	1.261418411353418	255.4645169799489	0.028984891360551	-0.3459071000331875	0.3748919913937385	71.2594272800469	near	V4
4	5.0	ltm	391	diff_vonmises	-0.1422664421316558	-8.151266700486037	1.9165951645330743	0.9488976799943926	1.633020167304863e-13	2.2502334133055863	0.1189193161790796	-0.3478119389255381	0.4667312551046177	98.96022149375612	near	V3ab
5	6.0	ltm	391	diff_vonmises	0.0204652424962304	1.1725720217457816	0.5901886950097083	149.0533768407825	0.5777864494579318	150.4714669872508	-0.0213126269447982	-0.3151113395461404	0.2937987126013421	104.72652612549012	near	IPS0
6	7.0	ltm	391	diff_vonmises	-0.1013141556659721	-5.804873524591643	1.0280659024834455	119.40928066665818	1.0021777007124202	121.14376021719043	-0.0094108259297058	-0.3922810032923838	0.3828701773626779	78.741143839973	near	LO1
0	1.0	ltm	392	diff_vonmises	0.0581141633936816	3.3296962923916253	11.962549847588347	0.2952669061513378	0.0985084581926943	1.88806226160094	0.0721068639466812	-0.3147426622849465	0.3868495262316277	38.33044029171722	near	V1
1	2.0	ltm	392	diff_vonmises	0.1785903714822909	10.232474547608806	5.835849642987332	0.7018180474987008	0.9784956651016588	1.1799791475403647	0.2620747116637115	-0.209006363142149	0.4710810748058605	48.887390668585255	near	V2
2	3.0	ltm	392	diff_vonmises	0.0938812260034812	5.378998025513311	2.4415023106614195	103.31406352882324	2.419877564060328	103.48336035609287	0.2164749707129516	-0.1306964219775217	0.3471713926904733	57.31046733528783	near	V3
3	4.0	ltm	392	diff_vonmises	-0.0732678201767178	-4.197936870249392	1.6238063437258223	176.21408366492673	1.6081622260634405	176.9937622341048	0.1180278430426113	-0.2447581956382087	0.3627860386808201	65.67397373424043	near	V4
4	5.0	ltm	392	diff_vonmises	-0.087269047461844	-5.000148101690535	2.7890684466465334	0.6441785755957933	1.4625152106277637e-15	1.1842068291690144	0.2161592266626894	-0.1869430246121779	0.4031022512748673	82.32698205742588	near	V3ab
5	6.0	ltm	392	diff_vonmises	0.1962071959799889	11.241844239749575	0.7738157789982465	80.7073592519241	0.7589584826818615	81.24310136972797	0.0704847463268549	-0.1475785429629459	0.2180632892898009	96.89024832389288	near	IPS0
6	7.0	ltm	392	diff_vonmises	-0.081850368893497	-4.689680689186257	1.010847260076932	103.86371595555494	0.9918596475085676	104.76756665969606	0.0655557496924643	-0.2258484118555994	0.2914041615480638	82.57274291264036	near	LO1
0	1.0	ltm	393	diff_vonmises	-0.0008987385241951	-0.0514939243221962	6.5778160194006015	0.6113819198869884	0.2312415564185368	3.1004835026124624	-0.0009099955001093	-0.5240722836603229	0.5231622881602135	49.05533554175503	near	V1
1	2.0	ltm	393	diff_vonmises	0.0778583004295323	4.460952014673806	1.5428191218570229	100.7199941541485	1.5067877134138683	101.6841027122732	0.2127450433345004	-0.3140164706940904	0.5267615140285908	68.79227033324298	near	V2
2	3.0	ltm	393	diff_vonmises	0.0345220305719819	1.9779666519961627	3.5003846180677733	0.8888441891052746	0.4815562433214898	1.4181372112201656	0.2899412483997362	-0.1967433814313066	0.4866846298310428	65.08641287787162	near	V3
3	4.0	ltm	393	diff_vonmises	-0.1516414193036597	-8.688413325473356	1.1483240726302892	146.99444718235443	1.1240280169178547	148.11319942340708	0.2572232756341819	-0.341468249480398	0.5986915251145799	80.58758228684846	near	V4
4	5.0	ltm	393	diff_vonmises	-0.0165815468068779	-0.9500526498327332	2.2643561547192745	1.1036633551268589	3.0802882522494666e-19	1.3630030067348504	0.3965064389240909	-0.2103068881202673	0.6068133270443583	91.36791957192168	near	V3ab
5	6.0	ltm	393	diff_vonmises	0.1547008237404502	8.863704287525048	2.109556019345876	0.6036451488330422	1.1771078074221316e-18	0.6075611609828968	0.2248894195092804	-0.0919652312974899	0.3168546508067704	94.53906311876152	near	IPS0
6	7.0	ltm	393	diff_vonmises	-0.0682823601374085	-3.912291051065844	0.4020496337813571	95.78345373404888	0.3848189818063087	96.54833045819665	0.1299152560931809	-0.2833541206730423	0.4132693767662232	133.32100322882349	near	LO1
0	1.0	ltm	394	diff_vonmises	0.3812462821484765	21.843802922161487	0.0001601924396793	6323.054946361352	3.098731910394322e-32	6324.592206926361	-0.0834478282935151	-0.4058644951554697	0.3224166668619546	175.4965620488943	near	V1
1	2.0	ltm	394	diff_vonmises	0.1437349290799329	8.235404804892363	10.626095047971605	0.3530874646222303	0.1988326291178856	1.3613874142094464	0.1917445307113399	-0.2355936669357035	0.4273381976470434	40.30536066368103	near	V2
2	3.0	ltm	394	diff_vonmises	0.1865261712296592	10.687162380193996	3.5539366932383234	0.4005484080066716	0.1587566565697098	0.9536007927413732	0.1117835727477166	-0.142717656160822	0.2545012289085386	68.23507212635016	near	V3
3	4.0	ltm	394	diff_vonmises	0.1755623879942768	10.058983873310297	5.8185398738677385	0.4990724077110566	0.340231372354301	1.6027490532849356	0.1206502080641815	-0.2698941654924101	0.3905443735565916	51.6935782974343	near	V4
4	5.0	ltm	394	diff_vonmises	0.0424990922266371	2.435018617723552	1.270000472316362	1.4524584726841618	0.0880690859982696	1.7597537094570634	0.2640749721454981	-0.2110616717918597	0.4751366439373579	113.82961431134292	near	V3ab
5	6.0	ltm	394	diff_vonmises	0.5135651339977584	29.425114683142144	0.877282341725979	119.52726860675934	0.8654370207500456	119.77245322192186	0.1924557850218278	-0.130738022034702	0.3231938070565299	96.7996711240433	near	IPS0
6	7.0	ltm	394	diff_vonmises	0.1519943354771393	8.708633932735642	1.166303434134426	1.192788316156576	5.911857343635748e-16	1.8633207094456437	0.1482240972482825	-0.2533927855690669	0.4016168828173495	121.79769024965832	near	LO1
0	1.0	ltm	395	diff_vonmises	-0.0021164542152049	-0.1212638940639166	6.525149100372719	0.2823125741866109	0.0754989792877598	3.626259229435392	-0.3397822645541388	-0.588496590550873	0.2487143259967342	49.96720825810624	near	V1
1	2.0	ltm	395	diff_vonmises	0.0728632129937683	4.1747545863057045	5.746642188088985	0.5718589425793417	0.264031781139988	1.9722190142416376	0.1321298566106374	-0.3259170472483566	0.458046903858994	52.68481214864991	near	V2
2	3.0	ltm	395	diff_vonmises	0.0619340434371186	3.5485592971268107	3.853956136106512	0.713714036402235	0.5015367602142854	1.3173147627188306	0.2122185377341423	-0.1935262677795481	0.4057448055136905	61.53573723208876	near	V3
3	4.0	ltm	395	diff_vonmises	-0.2119153215482104	-12.14185353887021	0.9752636365766564	190.53419653866035	0.9580293275866388	192.4090975706608	-0.0029036636647106	-0.4222638764288682	0.4193602127641576	80.98402590430716	near	V4
4	5.0	ltm	395	diff_vonmises	-0.0929900613593429	-5.327938052552908	3.004427831834134	0.806388338283748	4.0322500490746906e-15	1.8957323304821676	0.2268531998470366	-0.3004164047312024	0.527269604578239	79.27535102408467	near	V3ab
5	6.0	ltm	395	diff_vonmises	0.1183748057963486	6.782376772811531	0.8475189245456709	113.1540966941532	0.8319165839385588	113.93219693007826	0.095954555710179	-0.20870185221181	0.3046564079219891	92.15032744104016	near	IPS0
6	7.0	ltm	395	diff_vonmises	-0.0095001576454441	-0.5443189377928938	1.0780703558698832	210.3259657283408	1.0652807774593571	211.8307696947332	-0.0274832024152971	-0.339441896309772	0.3119586938944749	75.8744117706139	near	LO1
0	1.0	ltm	396	diff_vonmises	0.0344159339898856	1.971887765621283	3.8580032081435727	0.4522505187357188	7.435339330413321e-15	2.9239280631679496	-0.1244511415682478	-0.4652056839115167	0.3407545423432688	69.74148069622186	near	V1
1	2.0	ltm	396	diff_vonmises	0.1795947359562774	10.290020393061113	6.980124345745588	0.5622064295971811	0.3360199286095497	1.7189597987968233	0.2088463426710939	-0.2971661967277966	0.5060125393988906	48.05652386994649	near	V2
2	3.0	ltm	396	diff_vonmises	0.1683113382029671	9.643529323229032	5.961431895384487	0.4372595358615539	0.2272032133894682	1.1931352661964674	0.1808282927562758	-0.1943953700242106	0.3752236627804864	52.90121950676678	near	V3
3	4.0	ltm	396	diff_vonmises	-0.1273887116365758	-7.298835534384872	1.49319614910941	2.097518645748366	0.5071365985772336	3.854480887577336	-0.0501562311146019	-0.3725270543684589	0.3223708232538569	80.35057031756813	near	V4
4	5.0	ltm	396	diff_vonmises	-0.0566531402953094	-3.245985835083771	1.7249874377450738	1.0329794348832384	1.7282395500359262e-11	1.6468172826251093	0.2250100186753281	-0.2466346413838438	0.4716446600591719	103.90446273217198	near	V3ab
5	6.0	ltm	396	diff_vonmises	0.3490443368605314	19.99876736505104	0.917935917089114	117.04211368073024	0.9044463948124148	117.44633906935422	0.1697393833378342	-0.1535068350701038	0.3232462184079381	92.65164345525284	near	IPS0
6	7.0	ltm	396	diff_vonmises	-0.0119442559607148	-0.684355455972937	1.6278789624790808	0.8390586077783211	6.179337487450953e-19	2.33467972477142	0.0103715567349444	-0.356850412476794	0.3672219692117385	106.6294119974558	near	LO1
0	1.0	ltm	397	diff_vonmises	0.0356618560753755	2.0432738427219928	11.206359943561932	0.2883976739868446	0.1048552109870256	3.911012548674412	-0.3087032450876795	-0.6571170896678041	0.3484138445801246	38.66241562228436	near	V1
1	2.0	ltm	397	diff_vonmises	0.0970966497346313	5.56322823465442	9.380206628128496	0.4655076575221157	0.2550960847956053	1.6848434633041405	0.2201365662103148	-0.2953476395180012	0.515484205728316	42.42224219438555	near	V2
2	3.0	ltm	397	diff_vonmises	0.0885075950351036	5.071111650364475	1.8753470102038143	61.293010549107166	1.833695087419623	61.75033868928419	0.1883546280609813	-0.1899584911861147	0.3783131192470961	63.57766226000078	near	V3
3	4.0	ltm	397	diff_vonmises	-0.13618148111473	-7.802624115714558	1.1121100312483985	242.0375347447317	1.0977213842261655	243.78819816754944	0.0212035221081805	-0.4128907179567989	0.4340942400649794	76.17546261747498	near	V4
4	5.0	ltm	397	diff_vonmises	-0.1292017005723073	-7.402712148706205	3.2919043484366064	0.6781008613081484	1.0173431338029114e-12	1.954326563533412	0.1570008976245765	-0.3103935258252921	0.4673944234498687	75.660572187193	near	V3ab
5	6.0	ltm	397	diff_vonmises	0.1918801648714776	10.993923619410069	0.6948214961972005	119.0450146803179	0.6805864159430599	120.27715983373533	-0.0232480247399138	-0.2658511257251419	0.242603100985228	95.64625108570137	near	IPS0
6	7.0	ltm	397	diff_vonmises	0.1000982901986246	5.735209564856929	1.2387444710900293	127.13801298595408	1.2148294004109026	128.73940883469402	-0.0521763603733163	-0.3721059394521369	0.3199295790788206	70.03540414770436	near	LO1
0	1.0	ltm	398	diff_vonmises	0.0297846369690554	1.7065339926562029	8.03083902574649	0.4518068168687582	0.1898194782224233	2.9681150509593257	-0.0637411616745828	-0.5062045649095421	0.4424634032349592	44.95255207056809	near	V1
1	2.0	ltm	398	diff_vonmises	0.1668506854948097	9.559840087717264	4.232439900500231	0.9093452282323844	0.7635673719109217	1.7348316502384449	0.2061933937760259	-0.2686634302945774	0.4748568240706033	55.97552232490989	near	V2
2	3.0	ltm	398	diff_vonmises	0.130843738027172	7.496793964672352	2.998495728962094	1.4733482787754304	1.3607488030192096	1.8034443500683808	0.2280195695978206	-0.1667809480617421	0.3948005176595628	60.22540092872782	near	V3
3	4.0	ltm	398	diff_vonmises	-0.1756662760731605	-10.064936221772056	1.192894763710413	171.57564706847313	1.1751342096206503	172.85581983427988	0.0847461837313829	-0.3276346751517103	0.4123808588830933	75.40672644287733	near	V4
4	5.0	ltm	398	diff_vonmises	-0.0693414507543311	-3.972972473537415	2.91300737171958	0.7262837005808096	4.461910020629297e-12	1.27821768849441	0.2643181539117117	-0.2020548809496205	0.4663730348613323	80.53138387275251	near	V3ab
5	6.0	ltm	398	diff_vonmises	0.1588254669399038	9.100028934851077	0.9985701919647396	59.51508843759554	0.9762327632817044	59.82826196321698	0.1461499168710318	-0.1224766995193213	0.2686266163903532	89.26221862016388	near	IPS0
6	7.0	ltm	398	diff_vonmises	-0.1089316369769389	-6.241323054229817	0.8364036542034231	107.26185578721396	0.8183747645050455	108.40061748619948	0.0194072858881284	-0.2599369986625461	0.2793442845506746	88.89685044493547	near	LO1
0	1.0	ltm	399	diff_vonmises	-0.0440804121559456	-2.5256215757328566	4.39945698321462	0.4325154233340161	0.023051076887751	3.874631352481635	-0.2808399579570951	-0.6124294868964204	0.3315895289393253	63.25930348407681	near	V1
1	2.0	ltm	399	diff_vonmises	0.0328542216709205	1.8824082409309928	2.5911124462271657	1.4280389939630262	0.4562264086877657	3.170721056194745	0.1029729956452338	-0.4184558847852545	0.5214288804304884	69.8299049758925	near	V2
2	3.0	ltm	399	diff_vonmises	0.0799566424759373	4.581178157907658	5.020855080608075	0.5765123895154632	2.810139082690623e-27	1.6984841493707314	0.2306358811530972	-0.270300327944843	0.5009362090979402	60.933436889488746	near	V3
3	4.0	ltm	399	diff_vonmises	-0.1360696868978012	-7.796218778910567	2.546089967887442	1.0771421873537488	0.0685349723710366	3.2294342943057366	0.091860609770604	-0.4820200123654908	0.5738806221360948	81.59913422323177	near	V4
4	5.0	ltm	399	diff_vonmises	-0.0244086454408031	-1.3985123673892608	1.812416796683995	1.315757795289211	2.5711792647383924e-19	2.124814979316899	0.3012157355129007	-0.3211312963496449	0.6223470318625456	101.598401048615	near	V3ab
5	6.0	ltm	399	diff_vonmises	0.2931442526386347	16.795928464710517	0.8646597533277881	99.9612240304433	0.8479012792124702	100.3676131342549	0.1924801353790322	-0.1659067376382452	0.3583868730172774	96.06814186597737	near	IPS0
6	7.0	ltm	399	diff_vonmises	0.0973520674148255	5.577862589742571	0.3476339834597555	109.27828475286329	0.3303624718893943	110.66612435807902	0.042130949934318	-0.3972555427945057	0.4393864927288238	137.26307666245208	near	LO1
0	1.0	ltm	400	diff_vonmises	0.2619793810086006	15.010312851242563	0.0002818552260932	2559.145475870572	1.3389529571628251e-24	2560.6687561088197	-0.1276296754995769	-0.3572293052999384	0.2295996298003615	177.76190172996246	near	V1
1	2.0	ltm	400	diff_vonmises	0.0572010953910969	3.277381349435078	15.772147257456371	0.2485516654743373	0.1191733257643162	1.2703048989394814	0.1635537787763591	-0.216122993256846	0.3796767720332051	33.566306178948	near	V2
2	3.0	ltm	400	diff_vonmises	0.0759544717729147	4.351870667733556	3.996514710664279	0.3891280414844789	0.3372330114827392	0.7041010541482825	0.1463855769236692	-0.1045894729200418	0.250975049843711	62.9338897612756	near	V3
3	4.0	ltm	400	diff_vonmises	0.1233595521614208	7.067981701473346	2.9323116320685703	1.1386519132920614	0.7818190723901893	2.117803512348298	0.1004040983173358	-0.2733312408259498	0.3737353391432857	62.49231364939118	near	V4
4	5.0	ltm	400	diff_vonmises	0.0042254955387156	0.242103060719764	1.7801920364482555	0.9372799861431208	3.321378313584172e-20	1.4342074585682287	0.2222772111209163	-0.215452936360168	0.4377301474810844	102.43465901047662	near	V3ab
5	6.0	ltm	400	diff_vonmises	0.5099327040632347	29.216991778516952	0.7377675497399011	117.88549150503546	0.7264236132387013	118.34553468148948	0.1219525653922701	-0.1556202084295073	0.2775727738217775	101.86904045049803	near	IPS0
6	7.0	ltm	400	diff_vonmises	0.1117792658668768	6.404480171242785	1.2471782792399926	3.433192763875152	0.7604724850016744	4.004706787788794	0.1456658017996623	-0.1782436056243513	0.3239094074240137	86.7500811110612	near	LO1
0	1.0	ltm	401	diff_vonmises	-0.1270430201985603	-7.279028873972779	2.037997757953446	0.6117489099358963	2.915790765454522e-13	4.201312642779232	-0.3494673826644475	-0.6632410255011668	0.3137736428367192	96.13450436257118	near	V1
1	2.0	ltm	401	diff_vonmises	0.0854759394812301	4.897410582190132	13.07858117886656	0.4495852559568608	0.0897898101390274	2.351191188862638	0.2336645284888266	-0.3907670717134819	0.6244316002023085	36.88676619414619	near	V2
2	3.0	ltm	401	diff_vonmises	0.0922761761514039	5.287035443081188	0.9482882702678918	47.44645444109975	0.901255889110292	48.57365203923111	0.0603871711366483	-0.2727012333544012	0.3330884044910496	85.4231798731486	near	V3
3	4.0	ltm	401	diff_vonmises	-0.0133766547038252	-0.766425858533006	2.5521240998631844	0.8699201661386697	0.0585032263706423	3.1302075397930813	-0.0088215760122747	-0.4721274989198185	0.4633059229075437	81.41749201376564	near	V4
4	5.0	ltm	401	diff_vonmises	0.0083131947559754	0.4763109737876824	1.2175614413432392	2.306347572087478	0.2400234200262525	3.3525298931354945	0.2132089547587008	-0.3366379042345901	0.549846858993291	105.19121179902788	near	V3ab
5	6.0	ltm	401	diff_vonmises	0.7049206332420886	40.38897717646108	0.4149009816173952	192.4740035854218	0.4048937053920239	193.5729754533037	0.1023200014148955	-0.3463970206169904	0.4487170220318859	126.6182325131785	near	IPS0
6	7.0	ltm	401	diff_vonmises	0.1397911477256107	8.009442777967314	2.4459458974569435	0.7279603099097589	0.0967312338453683	2.313822207940975	0.0188372478353586	-0.3396575936670036	0.3584948415023622	81.22796441482475	near	LO1
0	1.0	ltm	402	diff_vonmises	0.017132337144068	0.9816106115503148	1.6784629741716175	0.6505632921282043	1.0555756805732485e-18	4.107175348891728	-0.3519593604962164	-0.643164741376909	0.2912053808806926	105.19029204069034	near	V1
1	2.0	ltm	402	diff_vonmises	0.1538747438884012	8.816373398461849	6.1197838294185205	0.5503830212505488	0.1593532294360403	2.3183556812511017	0.1010929005769711	-0.3777312006372415	0.4788241012142126	52.17154443976767	near	V2
2	3.0	ltm	402	diff_vonmises	0.1966502007096584	11.267226541063977	10.389622602272434	0.3659672541887883	9.559526122935574e-22	1.4631497940557905	0.2317510071785316	-0.2328675217684443	0.464618528946976	42.10175058328218	near	V3
3	4.0	ltm	402	diff_vonmises	-1.0036497064716514	-57.50489229036953	0.000212570707276	6356.423708229383	8.64257229011401e-30	6359.1294636380535	-0.2155824659465679	-0.645663377137339	0.4300809111907711	153.23698393643522	near	V4
4	5.0	ltm	402	diff_vonmises	-0.0850757684618506	-4.874482471696239	1.6398586475143493	1.1153698533567638	2.527935013911912e-15	2.0517541443697143	0.1834612400775896	-0.3073505229002439	0.4908117629778336	106.26502390219908	near	V3ab
5	6.0	ltm	402	diff_vonmises	0.3201655885104826	18.344136966972854	0.9741788689649986	125.97645431130674	0.9600391721467874	126.5069794209702	0.1605798120758095	-0.1757522692194069	0.3363320812952164	88.69175982130227	near	IPS0
6	7.0	ltm	402	diff_vonmises	0.1235083093554217	7.076504860861808	1.8355181032078736	0.7394685986402991	3.086259009997284e-12	2.7428653099909663	-0.0744035989525686	-0.4273241254985139	0.3529205265459453	100.9682304618681	near	LO1
0	1.0	ltm	403	diff_vonmises	0.4931703923369565	28.256582061718564	0.850833290847333	166.37372736530995	0.8365334744293406	168.50545317669307	-0.2081136672588783	-0.412021768006884	0.2039081007480057	77.84314244765247	near	V1
1	2.0	ltm	403	diff_vonmises	0.0450165551429639	2.579258617909776	19.169539451900945	0.2712719511063046	0.2186106340433564	1.3062702896367655	0.2147863986886677	-0.2383136853602374	0.4531000840489052	30.28711614399859	near	V2
2	3.0	ltm	403	diff_vonmises	0.1602071125301372	9.17919139595431	1.97681851092314	39.35024436070816	1.9217457850709017	39.71539734040536	0.1581533152207122	-0.1579152788058859	0.3160685940265981	62.0125641591863	near	V3
3	4.0	ltm	403	diff_vonmises	-0.2665541173832209	-15.272425937893289	1.022192106504848	95.77010580145298	0.9996944547569304	97.26769840210764	-0.1044653544720475	-0.3129203187133544	0.2084549642413069	74.4039659114505	near	V4
4	5.0	ltm	403	diff_vonmises	-0.0624563075826044	-3.578482828454153	3.29616960138086	0.6688683111794965	1.7079575015472802e-14	1.4078484641072069	0.2379351267958118	-0.2234326043321995	0.4613677311280114	75.6124742578078	near	V3ab
5	6.0	ltm	403	diff_vonmises	0.0281053482174369	1.6103178346046705	1.0681138762357478	73.22853932547883	1.0441715016762196	73.75687093274931	0.1449223085137738	-0.1686791775090377	0.3136014860228115	84.36870896711102	near	IPS0
6	7.0	ltm	403	diff_vonmises	-0.0145890158242967	-0.8358890339817778	1.3889445784431929	214.61845092448343	1.3746459566482547	215.9898433899422	-0.0139536504869255	-0.3430312293471118	0.3290775788601863	66.9534055687055	near	LO1
0	1.0	ltm	404	diff_vonmises	0.0214389512302769	1.2283614226816726	1.1514318105293615	0.8241281293310518	3.5998645764055214e-17	2.9872372366772506	-0.1703985587913874	-0.4449380081522766	0.2745394493608892	122.52218142964416	near	V1
1	2.0	ltm	404	diff_vonmises	0.0774928732942992	4.440014582105396	12.149327831093538	0.3363151401033865	0.0664228121283917	1.6864104682521606	0.1759772970128921	-0.2761752330262065	0.4521525300390986	38.40607006079841	near	V2
2	3.0	ltm	404	diff_vonmises	0.0200477263960812	1.148650111328472	2.3331012027006093	1.1407198902825255	0.5942231333241553	2.082783409914517	0.0945908605601503	-0.2436920052583038	0.3382828658184542	70.89616829209149	near	V3
3	4.0	ltm	404	diff_vonmises	-0.1092941637318038	-6.262094307244152	2.1056377816224647	0.9889296668952962	0.3627539065458096	2.690954380064175	-0.0695479620690844	-0.3509389616620348	0.2813909995929504	74.29554726134788	near	V4
4	5.0	ltm	404	diff_vonmises	-0.0144700324845527	-0.829071790782075	1.509296109315564	1.2630212496056124	2.3110392338965906e-21	2.173319965171002	0.2032350129331133	-0.3190583074342278	0.5222933203673412	110.17111539670508	near	V3ab
5	6.0	ltm	404	diff_vonmises	0.3770216850178784	21.60175133643514	0.5405010899504915	163.2837708854697	0.5295293826274052	164.1547598319674	0.1168039607863704	-0.272059369314336	0.3888633301007065	116.6941148527928	near	IPS0
6	7.0	ltm	404	diff_vonmises	-0.0451036762043635	-2.5842502870346737	0.864108152583367	132.65469973888167	0.8431078721776915	134.26971854545818	0.0278122587014308	-0.3690236410632277	0.3968358997646586	87.460924215955	near	LO1
0	1.0	ltm	405	diff_vonmises	-0.0656943845864869	-3.764010974514987	0.2009735932235359	37.19528358407567	0.1679559437750095	40.7246919627391	-0.4481378856522324	-0.647501459534201	0.1993635738819685	149.09306308315416	near	V1
1	2.0	ltm	405	diff_vonmises	0.0401646575631707	2.301265363957887	15.875040101132615	0.3581973757959278	0.0787486147759144	2.3388457293477374	0.1625108860410041	-0.3890105807872531	0.5515214668282573	33.54198076286204	near	V2
2	3.0	ltm	405	diff_vonmises	0.0528169013121146	3.026185532143152	3.5976737133792165	0.4195347103795764	4.166758102598731e-16	1.2577609821582465	0.1041213122734667	-0.1999506317007333	0.3040719439742	72.28817879518482	near	V3
3	4.0	ltm	405	diff_vonmises	-0.1161461594753076	-6.654684744588521	2.7569844346414367	0.6574643462218251	0.0552596048320623	2.897186985747752	-0.076721319358562	-0.4420413689323216	0.3653200495737596	78.10510519983089	near	V4
4	5.0	ltm	405	diff_vonmises	-0.0304122773663406	-1.7424951384725575	2.21501410323771	0.9529670318652806	8.367458909285746e-16	1.957005697108688	0.211276297440735	-0.3052388062031161	0.5165151036438512	92.35920432770833	near	V3ab
5	6.0	ltm	405	diff_vonmises	0.5977810741500864	34.25033262159687	0.575837044100389	134.35034781878318	0.5641286554333151	135.1364757086753	0.0933476077782131	-0.2324163569297237	0.3257639647079369	112.50417316721064	near	IPS0
6	7.0	ltm	405	diff_vonmises	0.2165528593484098	12.407564882154016	1.5177959470966649	3.2072196948366387	0.8147953052755933	4.46533311644593	0.0306673127718175	-0.3003918106430887	0.3310591234149062	75.28616019054829	near	LO1
0	1.0	ltm	406	diff_vonmises	-0.0688145439169147	-3.942782935556868	1.0311782866079786	0.8393541519278831	1.188958955296521e-13	4.118777030297803	-0.3637640850251469	-0.618425289669129	0.2546612046439821	127.26323698948096	near	V1
1	2.0	ltm	406	diff_vonmises	0.0798970985826207	4.577766544124841	9.61622029315851	0.3995681788906907	0.0507625933452145	2.232237526198421	0.1138995912706218	-0.360848406394955	0.4747479976655768	43.12812193926902	near	V2
2	3.0	ltm	406	diff_vonmises	0.0872002555281792	4.996206614226996	5.719951482644857	0.4076480660139791	2.2096096514497778e-17	1.5230459841572486	0.1372185152885766	-0.2423962131674148	0.3796147284559914	57.00285793549003	near	V3
3	4.0	ltm	406	diff_vonmises	-0.2407036949354216	-13.791305833004143	1.4076894377791522	1.4687630788845296	0.2197845165247259	3.921035523470816	-0.1558931176694754	-0.4794295151944632	0.3235363975249878	91.10139727741831	near	V4
4	5.0	ltm	406	diff_vonmises	-0.065850035718642	-3.772929127463911	1.7667498776550667	1.131527362599896	2.187147607070677e-16	2.318245805998804	0.1724482463693191	-0.353149339120355	0.5255975854896742	102.78171842011972	near	V3ab
5	6.0	ltm	406	diff_vonmises	0.3634164246192651	20.82222733641812	0.7020121800552748	162.48326989824403	0.6898354359779256	163.43093448465234	0.1092089862844076	-0.2600841889559309	0.3692931752403385	101.44049669076703	near	IPS0
6	7.0	ltm	406	diff_vonmises	0.0652808289424063	3.7403159815153577	0.8317371345864928	135.35009025052304	0.8107577859706536	137.3269217903997	-0.0621684006889111	-0.4177846362531134	0.3556162355642023	86.16649521669984	near	LO1
0	1.0	ltm	407	diff_vonmises	1.2342221070521369	70.71571771583112	10.399517761762068	0.2160373823671517	0.3026794074528256	1.6666177598200684	-0.0765232664861464	-0.3087044865951597	0.2321812201090132	38.73692322385946	near	V1
1	2.0	ltm	407	diff_vonmises	-0.0046491844601075	-0.2663786477419718	20.878781591322426	0.2316986186637289	0.3544884995074479	1.02672934366061	0.1939021500298825	-0.2046547319546443	0.3985568819845268	28.79760681970552	near	V2
2	3.0	ltm	407	diff_vonmises	-1.1989160026032706	-68.69282693986302	0.0001070338169576	7753.259680919691	1.6201963322884455e-31	7753.215021369065	0.1391859006378126	-0.1249632562421538	0.2641491568799665	142.87473628744198	near	V3
3	4.0	ltm	407	diff_vonmises	0.0926157775731809	5.306493171265649	1.732879796752285	120.33172286107416	1.7111978309048457	121.19969803902212	0.0272278597560244	-0.2536689214422161	0.2808967811982406	61.058300011814765	near	V4
4	5.0	ltm	407	diff_vonmises	-0.0448099312539851	-2.567419941124708	3.713117947714375	0.5528914448113159	1.780009379480342e-13	1.0771993860703717	0.2366038750847825	-0.1711985952667347	0.4078024703515173	71.13061264441203	near	V3ab
5	6.0	ltm	407	diff_vonmises	0.1772373708248416	10.154953320258535	0.9040546296527356	79.7640946241802	0.8897820489747883	80.1714306971765	0.0861916246739333	-0.1222039989569871	0.2083956236309205	90.89659206777056	near	IPS0
6	7.0	ltm	407	diff_vonmises	0.0863265188162807	4.946145188229573	1.614416347296865	124.288300698534	1.597204664199482	124.8660754842841	0.1058189059501302	-0.1860466670335441	0.2918655729836743	66.38686059399845	near	LO1
0	1.0	ltm	408	diff_vonmises	0.3604437230546519	20.651904083013843	0.0005387233043932	868.9164890158069	6.816232602880049e-21	870.5590320876856	-0.1869088786063457	-0.3359087533405898	0.148999874734244	175.92869787625523	near	V1
1	2.0	ltm	408	diff_vonmises	0.0310008288924825	1.776216656946472	1.226646213876658	55.28539450846868	1.185274310885491	56.23438033717649	0.0649064576833176	-0.2447169435047635	0.3096234011880812	74.74958007943948	near	V2
2	3.0	ltm	408	diff_vonmises	0.2178608787598581	12.48250887395119	11.476425132369709	0.2913520243180878	0.0047119265376213	0.5029878311915552	0.3087009302336427	-0.0800886349828343	0.3887895652164771	40.02498042416454	near	V3
3	4.0	ltm	408	diff_vonmises	0.1741660752364048	9.97898104540396	3.7916928075585457	1.269997847100404	0.9743217490225624	2.1384702695753366	0.2279152954032325	-0.30420993868283	0.5321252340860625	56.55787672227683	near	V4
4	5.0	ltm	408	diff_vonmises	-0.0704758718058306	-4.037970011979128	2.1762062078187268	0.781518160956142	2.0735446066920024e-19	1.1936201813626486	0.2342239737450083	-0.1845087396311627	0.4187327133761711	93.15361272079257	near	V3ab
5	6.0	ltm	408	diff_vonmises	0.2689568460463636	15.41009214960648	1.2455663945276834	71.59862761249677	1.2286071438827788	71.7700213916903	0.1571261438524125	-0.0922049883565581	0.2493311322089706	81.35743770008983	near	IPS0
6	7.0	ltm	408	diff_vonmises	0.0796518823557526	4.563716689257175	0.7898458180433436	74.28532336426765	0.7705098929444342	74.82285205775084	0.1140966601765889	-0.1658880375870133	0.2799846977636022	97.74142819300052	near	LO1
0	1.0	ltm	409	diff_vonmises	0.0726794577369045	4.164226185624066	8.152374405429498	0.362352225512275	0.0881488560741974	3.6893638847955015	-0.234037044155021	-0.6055616665710793	0.3715246224160582	45.40681098347241	near	V1
1	2.0	ltm	409	diff_vonmises	0.0635949327590158	3.6437212455098695	8.104338866422276	0.5267657106637365	0.2229433008136164	1.8580398740712112	0.2233347556866796	-0.3163645648008977	0.5396993204875773	45.62456477382432	near	V2
2	3.0	ltm	409	diff_vonmises	-0.0270037531954558	-1.5472010891125316	1.55797015302552	70.8524685101697	1.515060483984624	71.59431125909916	0.204436330565553	-0.2545135190077161	0.4589498495732691	69.16764929078622	near	V3
3	4.0	ltm	409	diff_vonmises	-0.1762696898495175	-10.09950928445736	1.0554279803457447	212.3794718962482	1.038966111435956	214.0954129568404	0.05944780014336	-0.4110391186987989	0.470486918842159	79.30138689036937	near	V4
4	5.0	ltm	409	diff_vonmises	-0.0836948351603783	-4.79536082173281	2.6243807581651977	0.9556813388699488	1.189048550253062e-15	2.1603644299998197	0.2356337660677829	-0.3407880468959997	0.5764218129637826	84.89839462417038	near	V3ab
5	6.0	ltm	409	diff_vonmises	0.2847202050310756	16.3132660903801	0.4236639243452952	172.419549565896	0.4142828403002996	173.61899981290333	0.0210516292860063	-0.3162673228492032	0.3373189521352095	126.15527004754752	near	IPS0
6	7.0	ltm	409	diff_vonmises	-0.0558959012633374	-3.2025992344692	0.9844050314151952	183.5546024866783	0.9691471141352876	185.19072228869985	-0.0186993234459436	-0.3643239948896273	0.3456246714436837	79.99640254352701	near	LO1
0	1.0	ltm	410	diff_vonmises	-0.4738677736680801	-27.15062347844152	0.4765159608461619	109.94997913372818	0.4565444167310635	113.61078725841772	-0.4654876455895689	-0.6344104908358812	0.1689228452463123	95.10971559551794	near	V1
1	2.0	ltm	410	diff_vonmises	0.0145573580347207	0.8340751762503597	6.535453474961103	0.4910344533327668	0.0608107934166969	2.3305308306142294	0.096611096623545	-0.3726062318815302	0.4692173285050752	51.95793008485322	near	V2
2	3.0	ltm	410	diff_vonmises	0.0291286132151653	1.6689466002979725	5.282695329489445	0.4632016371116031	0.0106134730785305	1.180962722987455	0.2235887160623667	-0.1869261135519629	0.4105148296143296	59.10427485868675	near	V3
3	4.0	ltm	410	diff_vonmises	-0.008708309067575	-0.498949356267555	1.6842165815937538	3.012569042470072	0.5902157664511805	4.922340459488257	0.1019755876276717	-0.4597239583063015	0.5616995459339733	78.52942433634124	near	V4
4	5.0	ltm	410	diff_vonmises	-0.0986666141283286	-5.6531805683990894	2.3485237852308374	0.9364999505214504	6.988885483708942e-20	2.244359068095709	0.1747189704493423	-0.3523481592945179	0.5270671297438603	89.73562165343662	near	V3ab
5	6.0	ltm	410	diff_vonmises	0.3559875235937002	20.39658266123284	0.7438284877949605	154.70916017958285	0.7325036090138424	155.71599088490683	0.0416285510238338	-0.2407838776697275	0.2824124286935614	95.64660459602496	near	IPS0
6	7.0	ltm	410	diff_vonmises	0.1116759686611885	6.398561677321352	0.972771475758842	15.124367451158705	0.8343167492359418	16.28697299475682	0.0379765412194155	-0.2724958547687635	0.310472395988179	85.6568551150159	near	LO1
0	1.0	ltm	411	diff_vonmises	-0.034004190421642	-1.9482965969192665	4.446035015690132	0.2974734239706179	1.4786012395075896e-19	3.7699014423123502	-0.3577847232790416	-0.5999651511125121	0.2421804278334705	64.84611957774058	near	V1
1	2.0	ltm	411	diff_vonmises	0.1263843955232296	7.241292459793154	6.770241491724415	0.5254047329557677	0.2127111462478318	2.0573110334002824	0.1340001386963096	-0.3434955950742548	0.4774957337705645	49.35470222672646	near	V2
2	3.0	ltm	411	diff_vonmises	0.1440788360230123	8.25510922127606	5.735139394819977	0.4620836186655416	0.2118968735973167	1.2509645172507728	0.1875408812618849	-0.2020239108800489	0.3895647921419339	54.01777802941552	near	V3
3	4.0	ltm	411	diff_vonmises	-0.2536881163437903	-14.535258379122984	0.7400765025495959	108.34234614211968	0.7141350048177763	110.63589433732338	-0.122619948690243	-0.4639709975942825	0.3413510489040394	89.79876727267076	near	V4
4	5.0	ltm	411	diff_vonmises	-0.1056592089417701	-6.053826739054358	2.2330444024138187	0.8686357020241653	6.536108087872374e-18	1.9372744805913809	0.1704812205777151	-0.3028242526131431	0.4733054731908583	91.9818543959264	near	V3ab
5	6.0	ltm	411	diff_vonmises	0.2633236743631413	15.087335186885232	0.884380708579989	159.08907924438475	0.8728892257153423	159.8515373256612	0.106391351839413	-0.2083252953238084	0.3147166471632214	90.39580462865992	near	IPS0
6	7.0	ltm	411	diff_vonmises	0.0688926429512443	3.947257680608	0.9018094881851768	77.90424890672209	0.8677875278031194	79.73787081111635	-0.0753565922751633	-0.3853981522630061	0.3100415599878428	82.14661524746523	near	LO1
0	1.0	ltm	412	diff_vonmises	0.0410791275764217	2.35366063620844	6.698717088261388	0.4113650240087821	0.0956235612511151	2.741432781369864	-0.062856650022152	-0.4448855925155477	0.3820289424933957	50.25337102002851	near	V1
1	2.0	ltm	412	diff_vonmises	0.0886500794904402	5.079275408301482	2.236246359165972	1.9948769602963583	0.8441484693178657	2.991614617092392	0.1669503784306411	-0.2913428667805159	0.458293245211157	69.01915910440238	near	V2
2	3.0	ltm	412	diff_vonmises	0.0466360741221414	2.6720502202579826	3.5650196583247844	0.970251108706431	0.6191500917364967	1.6232059080309216	0.2632256782257757	-0.2263283503559045	0.4895540285816803	62.426376700002464	near	V3
3	4.0	ltm	412	diff_vonmises	-0.1583624179480998	-9.07349818191292	1.1779199164094756	191.62341718410536	1.1602147968228842	192.9233738112098	0.1462311470272794	-0.3496663387016987	0.4958974857289782	77.17255977183811	near	V4
4	5.0	ltm	412	diff_vonmises	-0.066769356093191	-3.825602304945952	2.043420598195952	1.094769710959064	1.2178709612674895e-14	1.7397149409578054	0.2952588380449557	-0.2672765136077887	0.5625353516527444	96.02592750140757	near	V3ab
5	6.0	ltm	412	diff_vonmises	0.0614848117336944	3.5228202164971347	2.2368580504253885	0.6736064171292715	1.965621400040664e-18	1.0308598341779445	0.2075879105366321	-0.1598271164487047	0.3674150269853369	91.91720597430992	near	IPS0
6	7.0	ltm	412	diff_vonmises	-0.1402922435110314	-8.03815345160371	0.6342914294604287	104.65325251333331	0.6135221052140006	105.88957114281015	0.0808063045301459	-0.3197001524297	0.400506456959846	105.6559473006187	near	LO1
0	1.0	ltm	413	diff_vonmises	-0.0441948233438091	-2.5321768539265146	5.160820070762806	0.2914341914693483	1.3126694681960424e-12	3.65976027702181	-0.3255047900903527	-0.5824604782243812	0.2569556881340284	60.0865419530852	near	V1
1	2.0	ltm	413	diff_vonmises	0.0627560409329834	3.595656284410189	5.419130346375193	0.6053788743812328	0.185625236532184	2.1907141628703872	0.1316247207097473	-0.3531383953390924	0.4847631160488397	55.03583926204405	near	V2
2	3.0	ltm	413	diff_vonmises	0.0194428670595228	1.1139942241445902	3.936423176762768	0.7071687697393128	0.2958111055648303	1.6096971597862035	0.2020036387313387	-0.2430784234011078	0.4450820621324466	62.94063008391825	near	V3
3	4.0	ltm	413	diff_vonmises	-0.1283524208888401	-7.354052007217325	0.9481065636935204	140.6683046057181	0.9228014765599784	142.67421728961287	0.0205467904523573	-0.4569783521143939	0.4775251425667512	83.00849740079647	near	V4
4	5.0	ltm	413	diff_vonmises	-0.0846145537370679	-4.848056814516902	2.1487323788553865	1.0520940342068708	1.6647387126658858e-16	2.261476786218537	0.2067955268388836	-0.3522159892778825	0.5590115161167661	93.72666653120751	near	V3ab
5	6.0	ltm	413	diff_vonmises	0.2403273019506672	13.769740103539393	0.6844677812566633	153.4058438591573	0.672278701271867	154.38037508156395	0.0838536113210892	-0.2560346491341985	0.3398882604552877	101.85939972803178	near	IPS0
6	7.0	ltm	413	diff_vonmises	-0.0124968971867147	-0.716019465807667	0.808897525360924	188.0375949851416	0.7953450393694396	189.690890945258	-0.0138985469488304	-0.3620701617745112	0.3481716148256808	88.87552226113681	near	LO1
0	1.0	ltm	414	diff_vonmises	-0.121119821954758	-6.939654613383607	0.3412854291526901	45.49024341569784	0.3119719279513873	47.83666898493227	-0.2576456244051286	-0.4399479824428418	0.1823023580377132	124.99407741066152	near	V1
1	2.0	ltm	414	diff_vonmises	-0.0015657589159275	-0.0897113776176298	6.606953653477851	0.4066643127718615	0.0615731678448153	1.849728803232638	0.0956862148537848	-0.2958001403865287	0.3914863552403135	51.71633319799213	near	V2
2	3.0	ltm	414	diff_vonmises	-0.0131804008410798	-0.7551813404845583	4.551632794666443	0.4849132943341968	0.1001739313023354	1.1243633545517508	0.2025340056395047	-0.1742915284991883	0.3768255341386931	62.0244905576466	near	V3
3	4.0	ltm	414	diff_vonmises	-0.0146640374976274	-0.840187459235636	2.006828676427889	2.004698886227404	0.6591941690010669	3.4141355245138936	0.0913285055580588	-0.3518747695362476	0.4432032750943064	72.77776837609068	near	V4
4	5.0	ltm	414	diff_vonmises	-0.0481995915416951	-2.7616331695935923	1.9259052993354344	1.050900288805288	3.0808739411355574e-18	1.9953512339754405	0.2123158915693336	-0.3063142020659586	0.5186300936352923	98.76445720421589	near	V3ab
5	6.0	ltm	414	diff_vonmises	0.2721454548104003	15.592785974304205	0.6894231106070156	131.53773558058214	0.6773067017342529	132.28437962973308	0.0942844686961379	-0.2097914472951831	0.3040759159913211	102.7353044908943	near	IPS0
6	7.0	ltm	414	diff_vonmises	0.0315971154197558	1.8103813583397472	0.8971226336304051	135.72160416625644	0.8810150724519612	136.72571411691422	0.0961563147498338	-0.2578063819456826	0.3539626966955165	88.65588852167443	near	LO1
0	1.0	ltm	415	diff_vonmises	-0.0349711676215864	-2.003700309361462	6.006816627035118	0.3138953094549075	0.027812380155893	3.778847843970502	-0.3183209387115683	-0.6022278721336627	0.2839069334220944	53.92651764643523	near	V1
1	2.0	ltm	415	diff_vonmises	0.0901628867592505	5.165952880021026	4.9413340393027525	0.6818791922927178	0.2759913040410112	2.2034975068849603	0.1340751142893388	-0.355487332801839	0.4895624470911778	56.187021249413874	near	V2
2	3.0	ltm	415	diff_vonmises	0.0756699999558896	4.335571633227604	4.691488807586288	0.5723884863605976	0.2234502283708776	1.369286318518599	0.2105612215058442	-0.213835681684162	0.4243969031900063	59.26420216375698	near	V3
3	4.0	ltm	415	diff_vonmises	-0.1671331911109718	-9.576026467212094	0.8991543438556681	121.1254069681204	0.8708485249853811	123.16964512277208	0.0050350983735469	-0.4578401305857795	0.4628752289593265	85.039560443332	near	V4
4	5.0	ltm	415	diff_vonmises	-0.0804510237199853	-4.609504116662037	2.3338479844647275	0.9570327265150252	4.55434013044333e-24	1.9758397691953808	0.2270933703415234	-0.309376778722579	0.5364701490641025	90.01742602408271	near	V3ab
5	6.0	ltm	415	diff_vonmises	0.2510481797004367	14.384001151276893	0.8123782977047036	125.49275170293885	0.7985613997870674	126.19552808721888	0.117899011354595	-0.2022546722190181	0.3201536835736132	95.26270526431026	near	IPS0
6	7.0	ltm	415	diff_vonmises	0.0079005358554429	0.4526673604086592	0.7901160395918579	159.27047160136215	0.7755095339789856	160.81762851282346	-0.018299269775106	-0.3367637610595224	0.3184644912844163	89.80170469402796	near	LO1
0	1.0	ltm	416	diff_vonmises	-0.0264820148746868	-1.5173076853222256	5.790257164204489	0.5919136150448753	0.3234147819831795	2.067669753978019	0.1115946815183814	-0.3480283665093621	0.4596230480277435	51.71273947529656	near	V1
1	2.0	ltm	416	diff_vonmises	0.0471912913204131	2.703861822432029	1.6275528643719763	171.08104026335872	1.6090836578633676	171.7174508707149	0.2511300695611851	-0.2459332218871814	0.4970632914483666	68.31934434342773	near	V2
2	3.0	ltm	416	diff_vonmises	-0.0948338781842686	-5.433580974816365	1.450826964372821	92.34487564569756	1.425669259011683	92.56302667914382	0.3198754548533884	-0.1572556790020698	0.4771311338554582	76.2307784558304	near	V3
3	4.0	ltm	416	diff_vonmises	-0.110311660153919	-6.3203925579010125	1.4818075755896254	97.59349654182309	1.4492766381899602	98.04003256105864	0.3698719144720499	-0.2289316337276492	0.5988035481996992	74.20152420891952	near	V4
4	5.0	ltm	416	diff_vonmises	0.0390455377950687	2.237144524475979	2.1204402569514382	1.2554469357402904	2.5501135188634976e-11	0.9866023701237756	0.5138679043920988	-0.1473648832898269	0.6612327876819257	94.3353068443297	near	V3ab
5	6.0	ltm	416	diff_vonmises	0.0807826703079004	4.628506066439488	1.399931842886578	0.8388036947174405	7.26004492292862e-20	0.5047360280676597	0.2681547495091618	-0.0591356430865413	0.3272903925957032	113.63756802652756	near	IPS0
6	7.0	ltm	416	diff_vonmises	-0.041583451091164	-2.382556245112377	0.3716220384653899	96.54074980017812	0.3558487678509947	96.76166398038036	0.2284029792057182	-0.2160546669259453	0.4444576461316636	139.37548416505126	near	LO1
0	1.0	ltm	417	diff_vonmises	-0.0528095001911518	-3.0257614791483163	5.02891969846334	0.3191291624682356	3.852227257905931e-19	1.9591360438359056	-0.0342258913516152	-0.3117942916484421	0.2775684002968269	60.88001406505632	near	V1
1	2.0	ltm	417	diff_vonmises	0.1807694541490356	10.357326787623393	6.994863612827979	0.530674973383193	0.521558570683845	1.2392055506838415	0.2383315260857106	-0.2228471972118084	0.4611787232975191	47.30072386703529	near	V2
2	3.0	ltm	417	diff_vonmises	0.1194181729299706	6.8421573060507335	2.056044874394925	62.681297925252	2.020419904320348	62.9654776198233	0.1974502485387645	-0.1493392150418504	0.346789463580615	61.72261618070087	near	V3
3	4.0	ltm	417	diff_vonmises	0.0405234167095167	2.3218207489052256	1.549991063144434	147.38044316333318	1.5290821520694922	148.29635679602092	0.1331988148155432	-0.2795346838532708	0.412733498668814	67.3008074054112	near	V4
4	5.0	ltm	417	diff_vonmises	-0.0832054796379912	-4.767322815618607	1.863614546846087	0.8484795246767665	6.270011392324823e-17	1.360249681096711	0.2028797015073048	-0.2064003518399536	0.4092800533472583	100.28465810563532	near	V3ab
5	6.0	ltm	417	diff_vonmises	0.3773535480111619	21.62076568532686	0.9229043587012284	101.6944668339202	0.909512323432337	102.1384620608904	0.1150650853144981	-0.1408612064665515	0.2559262917810496	90.6412762317658	near	IPS0
6	7.0	ltm	417	diff_vonmises	0.0146682289740007	0.8404276131417554	2.214581450571572	0.6052354815410718	2.6989943638407197e-15	1.4339325209048064	0.1037460643341471	-0.22425889265659	0.3280049569907372	92.36656705396302	near	LO1
0	1.0	ltm	418	diff_vonmises	0.335316803316357	19.212237629845585	0.863269121692285	102.35614551995072	0.8465742984913869	103.73366703534224	-0.1045026554329027	-0.2743380483854452	0.1698353929525424	80.22583373613472	near	V1
1	2.0	ltm	418	diff_vonmises	0.0515217701051807	2.951979980070152	16.784902515636084	0.3067851620465592	0.5406660890326858	0.8844497161283009	0.2726110996872075	-0.1891277667062848	0.4617388663934924	31.771966916773493	near	V2
2	3.0	ltm	418	diff_vonmises	0.0629012415090259	3.6039756646002905	2.4862744072266025	51.78044403604562	2.4541453894410097	51.85630906599762	0.187732971584726	-0.0901396208026739	0.2778725923873999	57.812884922340885	near	V3
3	4.0	ltm	418	diff_vonmises	-0.1238366034375286	-7.095314726205651	1.5811887588968436	131.02478750840024	1.5637527567032277	131.84793656374302	0.027858420102973	-0.2289414175728374	0.2567998376758105	64.08340565927568	near	V4
4	5.0	ltm	418	diff_vonmises	-0.0504218762720939	-2.8889607055218143	3.503726345806503	0.6070590606285774	9.95622001373541e-18	1.109618316102892	0.2572943841319553	-0.1762085109735298	0.4335028951054852	73.27801118561416	near	V3ab
5	6.0	ltm	418	diff_vonmises	0.051603386020746	2.9566562275731427	0.8573486478755613	75.77126552663431	0.8401081947963907	76.25886354212376	0.0974876351832882	-0.145288847650626	0.2427764828339143	93.33524864441152	near	IPS0
6	7.0	ltm	418	diff_vonmises	-0.0176304877210887	-1.0101525371756084	1.5222172821220612	158.11310273624963	1.506435947521087	158.92232415990875	0.0837728083581197	-0.2356610271552313	0.319433835513351	67.08964859921744	near	LO1
0	1.0	ltm	419	diff_vonmises	1.2688713019847229	72.70097034899437	5.881079080720973	0.3338533851513421	0.2747921863947127	3.992532317111523	-0.4737695105606882	-0.7056827413390646	0.2319132307783764	101.58167771603176	near	V1
1	2.0	ltm	419	diff_vonmises	-0.0440170302831974	-2.521990061926749	19.298903052990763	0.2789524157265947	0.0161449356500144	2.088745389762208	0.147493467225208	-0.3354404524862347	0.4829339197114428	30.73111602612616	near	V2
2	3.0	ltm	419	diff_vonmises	0.0381993347808662	2.1886606631509267	4.937658246516024	0.3771061204583931	0.2016153483882722	0.7216767373234385	0.1857148470630877	-0.1123061571465078	0.2980210042095955	58.7288552290708	near	V3
3	4.0	ltm	419	diff_vonmises	0.0123157872744969	0.7056426322095997	1.159688881706323	175.78441387797687	1.1393156617930342	177.5674283907862	0.0103408780852589	-0.4221545061859153	0.4324953842711743	74.34804494864076	near	V4
4	5.0	ltm	419	diff_vonmises	-0.1266108558836028	-7.254267682669548	3.961056547051169	0.5944017972113494	3.171669950714284e-17	2.044684683157614	0.1291348971714637	-0.3252568233007084	0.4543917204721722	68.80631324173996	near	V3ab
5	6.0	ltm	419	diff_vonmises	0.2774406479407156	15.896178192377942	0.754106543495896	114.6681650220844	0.7406006637076976	115.84260095814297	-0.0476588344961115	-0.2431902395652621	0.1955314050691505	89.74758315142009	near	IPS0
6	7.0	ltm	419	diff_vonmises	0.1853925017654817	10.622207904533765	1.5919009134529882	127.98259048494296	1.5694571388253356	128.993704359682	0.0437145833027372	-0.2844293874289434	0.3281439707316806	64.17516749628984	near	LO1
0	1.0	ltm	420	diff_vonmises	-0.0072879183125222	-0.4175669607436308	8.839541507789015	0.253459994905605	0.039723282867417	2.6990255942308408	-0.1507245735642615	-0.4348718493392591	0.2841472757749976	44.65171472770567	near	V1
1	2.0	ltm	420	diff_vonmises	0.0857534057428007	4.9133082279353975	5.414973807484227	0.5908592075557816	0.3299088147367828	1.6227458090972728	0.1848914181772921	-0.266375242956428	0.4512666611337201	53.95057032327938	near	V2
2	3.0	ltm	420	diff_vonmises	0.0251832473642172	1.4428937884036055	1.851328629039595	48.19161954299973	1.7943561674469803	48.63095910538863	0.2343720268904761	-0.1975417154314609	0.431913742321937	64.89156286344593	near	V3
3	4.0	ltm	420	diff_vonmises	-0.0917502458975072	-5.256901859214661	1.3137363147681904	235.4268719211268	1.299336031234513	236.6310179289217	0.1370770642616179	-0.3342728857851185	0.4713499500467364	72.79252858928501	near	V4
4	5.0	ltm	420	diff_vonmises	-0.1015587600644492	-5.818888324274712	2.4862327641493174	0.8550227786966941	1.882786442655071e-14	1.838094241382061	0.2097364707522219	-0.2890628933560412	0.4987993641082631	87.2288034918285	near	V3ab
5	6.0	ltm	420	diff_vonmises	0.1123677715185919	6.438199061305656	0.6292730390042087	105.64157321462062	0.6153211886155312	106.52124275093573	0.0433654297327308	-0.2206117645316698	0.2639771942644007	105.09634178807364	near	IPS0
6	7.0	ltm	420	diff_vonmises	-0.073641602633672	-4.219353027488897	0.9448331380660564	137.586306551015	0.9283627030815628	138.71928424382148	0.0589642414649631	-0.2737394426597124	0.3327036841246755	84.7905480055685	near	LO1
0	1.0	ltm	421	diff_vonmises	0.0425000820987945	2.4350753332204302	5.643403088371637	0.3664099267664916	2.959666697011865e-15	2.7314712107925585	-0.0959837773025398	-0.43472289681765	0.3387391195151102	57.401787435131126	near	V1
1	2.0	ltm	421	diff_vonmises	0.1250665661339054	7.165786397666574	4.001585411757024	0.8139335373189938	0.4490710542738729	1.915404809963967	0.1714764623469261	-0.2938547621317351	0.4653312244786613	59.90354568835323	near	V2
2	3.0	ltm	421	diff_vonmises	0.0725466387520251	4.156616218351267	3.714207772376154	0.8061014127525747	0.5111127837169162	1.5595569363067625	0.2070269563014729	-0.2277755807745769	0.4348025370760499	61.947504415076935	near	V3
3	4.0	ltm	421	diff_vonmises	-0.1303131276342796	-7.466392228593842	1.0728059344909595	142.4888585663518	1.0508822147251489	143.9993745516177	0.0567089160571683	-0.3641525639675329	0.4208614800247012	78.84480459955412	near	V4
4	5.0	ltm	421	diff_vonmises	-0.0606970575570769	-3.477685226883146	1.7780354604102373	1.129749949335959	7.41114200964253e-20	1.8346091731545169	0.2506437872022634	-0.2764926665488106	0.5271364537510741	102.4890250406064	near	V3ab
5	6.0	ltm	421	diff_vonmises	0.2148796875530712	12.31169919988079	0.8355010587988605	91.60016194928134	0.8171955554147161	92.08300291727184	0.1719163603261293	-0.1756984301231092	0.3476147904492386	96.8065739609842	near	IPS0
6	7.0	ltm	421	diff_vonmises	-0.072489900118813	-4.153365334132873	1.0575578670859087	2.0138912601032017	0.2101456079609001	3.4153652761915945	0.0466880201702675	-0.3500853281690881	0.3967733483393556	109.01106064765528	near	LO1
0	1.0	ltm	422	diff_vonmises	0.0103189890197006	0.5912345196706844	12.30309933479309	0.2600769617882908	0.0652740979706437	2.883877363521025	-0.1294438861033547	-0.4741843371013214	0.3447404509979667	37.74279270663911	near	V1
1	2.0	ltm	422	diff_vonmises	0.145657905725283	8.345583250773146	7.029633379320785	0.546972005446036	0.4343266034249367	1.4626237650349017	0.224392533087092	-0.259181784041004	0.483574317128096	47.45368905831529	near	V2
2	3.0	ltm	422	diff_vonmises	0.1017989743668537	5.832651589981171	2.0842097503908747	82.58830992323472	2.0545963572921218	82.9150535301385	0.2036579291407392	-0.1654901165970077	0.3691480457377469	60.94886930594109	near	V3
3	4.0	ltm	422	diff_vonmises	-0.0634846011221194	-3.637399708368932	1.325752460082934	219.4519620244955	1.3107750984703506	220.72281030854845	0.0879199087481623	-0.3376858479567701	0.4256057567049325	71.34362327396644	near	V4
4	5.0	ltm	422	diff_vonmises	-0.1240912319401442	-7.109903864749262	2.753988958045865	0.682995557952451	1.653159417807202e-19	1.631567991644303	0.1662142012325723	-0.2579454236689519	0.4241596249015242	82.85491514230498	near	V3ab
5	6.0	ltm	422	diff_vonmises	0.2371131584100969	13.585583243915472	0.7775911674537612	110.8923462158914	0.7641077557090485	111.76959860949742	0.0251480012185041	-0.2044814950311799	0.2296294962496841	92.88215885940554	near	IPS0
6	7.0	ltm	422	diff_vonmises	0.0350995649503667	2.0110569344013274	2.02249062070014	1.1514911704052486	0.4885490145568763	2.3741782502565703	0.0173402475222175	-0.2775354253725888	0.2948756728948063	74.61999210009085	near	LO1
0	1.0	ltm	423	diff_vonmises	-0.1581359781096429	-9.060524134855717	9.961173622590556	0.178664809087009	3.9898533708152684e-10	3.701676078722016	-0.367144552559404	-0.589140044924055	0.221995492364651	43.00572312356019	near	V1
1	2.0	ltm	423	diff_vonmises	0.0706740031644979	4.049322102619954	4.269968478800146	0.6839883929896262	0.2515483615652152	2.238793427756728	0.093836740477647	-0.3513486593957452	0.4451853998733922	60.03054514609585	near	V2
2	3.0	ltm	423	diff_vonmises	0.0992238185034768	5.68510602742131	5.45503620439268	0.5045273118533011	0.2038978086474433	1.1638519187398022	0.2333879182911992	-0.1852628042515662	0.4186507225427653	55.69999374127423	near	V3
3	4.0	ltm	423	diff_vonmises	-0.1092418594327463	-6.259097491657768	0.9884966263166076	146.04726929203034	0.9638414604137976	148.02019893259484	0.0218429395182511	-0.4526869403501727	0.4745298798684239	81.21737001085992	near	V4
4	5.0	ltm	423	diff_vonmises	-0.1121385384036412	-6.425064971294341	2.571606828904374	0.8525152099270769	3.962355734800837e-15	2.0175976673163976	0.1896794673995561	-0.3181277697910484	0.5078072371906046	85.77043124481222	near	V3ab
5	6.0	ltm	423	diff_vonmises	0.1845973695457638	10.576650184189065	0.9034002729617702	116.14983877076824	0.8880008290575795	116.92361291090404	0.0927671139364534	-0.2054705655092092	0.2982376794456627	88.99648486162675	near	IPS0
6	7.0	ltm	423	diff_vonmises	0.0331515964293749	1.8994465595241568	0.9192823197850838	157.10173367790696	0.9041420219750534	158.54152535427667	-0.0130403507084935	-0.3181332946900248	0.3050929439815313	83.06259511404517	near	LO1
0	1.0	ltm	424	diff_vonmises	-0.0732558154143941	-4.197249048034186	5.883967028233317	0.3320357514498464	0.0694544894741038	2.740225171773748	-0.1530882109759999	-0.4396638034453302	0.2865755924693303	53.530730102276266	near	V1
1	2.0	ltm	424	diff_vonmises	0.063235711692602	3.623139394492169	2.837827705331163	1.2634022897520554	0.6484466153211811	2.439640954970457	0.1312337476917195	-0.3167341462627559	0.4479678939544755	65.22842853192506	near	V2
2	3.0	ltm	424	diff_vonmises	0.0776446651902299	4.448711617106511	5.422033847991074	0.456570218527395	0.0749252769486278	0.935902411863532	0.2529395464205404	-0.1469322648116496	0.39987181123219	57.501681030702656	near	V3
3	4.0	ltm	424	diff_vonmises	-0.143299921225218	-8.210480690762159	1.1116304005509152	43.13438249991936	1.0407952876250914	44.41943298211743	0.1245761975763137	-0.3342153704325774	0.4587915680088912	80.21778853533075	near	V4
4	5.0	ltm	424	diff_vonmises	-0.0227382893053959	-1.302808010546646	2.4289631724829954	0.9676649246017782	1.5473470221009114e-11	1.3995344298304482	0.3379440238981519	-0.2183879121037457	0.5563319360018977	88.25500563397941	near	V3ab
5	6.0	ltm	424	diff_vonmises	0.2243643971726934	12.855133030992272	0.92902191838379	66.34771932053201	0.9103487995063742	66.50492199302118	0.1846757007113986	-0.1064905265689413	0.2911662272803399	95.21602674966064	near	IPS0
6	7.0	ltm	424	diff_vonmises	-0.0173767920985419	-0.9956168487227312	0.7239047854860281	128.0023847938	0.7105135824569033	128.79131772839378	0.1008567963763127	-0.2193338091943388	0.3201906055706516	100.20729710395958	near	LO1
0	1.0	ltm	425	diff_vonmises	0.3912909705328738	22.41932117311153	0.8043507529707241	142.94507711686472	0.7887053235458372	145.10279583299533	-0.2234437407815974	-0.4092077818829409	0.1857640411013434	79.0433696892008	near	V1
1	2.0	ltm	425	diff_vonmises	0.0371434737574684	2.128164282757871	16.53399961148097	0.3078169572234317	0.2230848155579483	1.3040113344340425	0.2392201893037207	-0.2361606149800546	0.4753808042837754	32.55019036594396	near	V2
2	3.0	ltm	425	diff_vonmises	0.0536373824242076	3.0731956370362803	1.9453219546363136	75.49822828560565	1.9148426355753283	75.87450486999124	0.1758002997044769	-0.1658853573034626	0.3416856570079396	62.54878077022525	near	V3
3	4.0	ltm	425	diff_vonmises	-0.2102157048572049	-12.0444726756856	1.2509096047500414	164.32280773451347	1.2348525631782314	165.64525773569534	-0.0256942169633092	-0.3130748500039786	0.2873806330406694	70.2514861139683	near	V4
4	5.0	ltm	425	diff_vonmises	-0.0864374170331603	-4.952499188012301	3.2479462192395148	0.6947278497509087	9.87559551321831e-17	1.6660537210491746	0.2107859784990671	-0.2644421814511551	0.4752281599502223	76.17803079372729	near	V3ab
5	6.0	ltm	425	diff_vonmises	-0.030659414729588	-1.756655066346626	0.8718134738124194	92.34420791831796	0.851532313479566	93.28069241943398	0.0636694574984915	-0.231103022517038	0.2947724800155296	89.20030175692835	near	IPS0
6	7.0	ltm	425	diff_vonmises	-0.0100006437809002	-0.5729946810593373	1.425912492803935	245.10347841798668	1.412605508647447	246.48192608343143	0.0041053947325764	-0.3536109548973769	0.3577163496299533	66.55874126883714	near	LO1
0	1.0	ltm	426	diff_vonmises	0.0417742692744236	2.3934893216675084	5.321917904435581	0.4549893810049724	0.133906137896166	3.4973832584357183	-0.2257421193401854	-0.5680147350545278	0.3422726157143423	54.19389564376493	near	V1
1	2.0	ltm	426	diff_vonmises	-0.009921701373382	-0.5684716142839451	4.5714084377153	0.7622456809919703	0.2688312029791736	2.267803680396734	0.1660961197467223	-0.3587954810581139	0.5248916008048362	58.48157360087876	near	V2
2	3.0	ltm	426	diff_vonmises	-0.1839853629846511	-10.541584791202991	2.237853573739265	1.5725836865731655	0.4839855273798631	2.4757858044788	0.2644291773151012	-0.2803855971870059	0.544814774502107	76.67988390513153	near	V3
3	4.0	ltm	426	diff_vonmises	-0.2077961783978714	-11.905844021145564	1.7967676994689024	2.4141470429910457	0.525641623403798	4.023126399165903	0.1550505360342029	-0.4059917870279739	0.5610423230621768	79.43313575452555	near	V4
4	5.0	ltm	426	diff_vonmises	-0.0237599885253324	-1.361347063780813	2.30100789027382	1.317769684979171	0.0219549854501051	2.2109742587522256	0.3797872994130051	-0.3367861949538057	0.7165734943668108	89.63543308940041	near	V3ab
5	6.0	ltm	426	diff_vonmises	0.0831341741936854	4.763237314603577	1.1285564486742528	1.285278284906033	4.4284122267162406e-13	1.8908373340567843	0.1693075417114711	-0.2517231318189258	0.4210306735303969	123.3508220920081	near	IPS0
6	7.0	ltm	426	diff_vonmises	-0.1628378239034789	-9.329920054763852	0.877666570860917	150.613467434093	0.8607003551979568	151.8421791647225	0.0999670538405936	-0.3091958741630698	0.4091629280036635	89.25696391387552	near	LO1
0	1.0	ltm	427	diff_vonmises	-0.2587043276814491	-14.822666117916508	0.0011290059639525	478.7030919430052	1.0025213968089179e-21	482.1955430251472	-0.469800331487292	-0.6418328192471989	0.1720324877599068	178.03091058227795	near	V1
1	2.0	ltm	427	diff_vonmises	-0.0134665820535422	-0.7715783161345906	15.98926829291259	0.3085596452081368	1.5131388159439653e-18	2.402898815349633	0.1057684147052357	-0.3824332242125473	0.488201638917783	33.87197988607892	near	V2
2	3.0	ltm	427	diff_vonmises	-0.0005241795467102	-0.0300332757335793	4.314227940155184	0.4160912090789604	6.531920932503193e-15	1.2173881357205816	0.1395816068811069	-0.1936936921893955	0.3332752990705026	65.85234500897917	near	V3
3	4.0	ltm	427	diff_vonmises	0.0170921585017702	0.9793085449200846	2.3013674678251066	1.1878031829158715	0.3060933872784946	3.32372904244513	-0.0352798586633338	-0.4501028481044154	0.4148229894410816	74.53680849303223	near	V4
4	5.0	ltm	427	diff_vonmises	-0.0721420112702616	-4.1334327713712105	2.2752451969222904	0.908750134185198	6.941672210285094e-13	2.2629025038638035	0.1463902172356441	-0.354801941112037	0.5011921583476812	91.14931276915618	near	V3ab
5	6.0	ltm	427	diff_vonmises	0.5607560020418494	32.12895225362735	0.5345096931986157	149.99650567365396	0.52338044712816	151.15526927239006	0.0223491969964086	-0.2857878407998679	0.3081370377962766	112.86410585040392	near	IPS0
6	7.0	ltm	427	diff_vonmises	0.1857040730739263	10.640059625525012	1.2253769495711375	55.36548664501869	1.174968135090796	56.63766570910295	0.0390575410912603	-0.3139988878540229	0.3530564289452833	73.69692497054123	near	LO1
0	1.0	ltm	428	diff_vonmises	-0.0714250753709792	-4.092355370160914	6.687012945772784	0.2209348769443255	0.0053293427045151	3.70940234572756	-0.3701977222921678	-0.5901412987521826	0.2199435764600147	52.16593896612139	near	V1
1	2.0	ltm	428	diff_vonmises	0.1018088717064738	5.8332186657698095	9.022520483385907	0.4638193242481735	0.2365717945406873	1.9304782082601737	0.1637985404769461	-0.3356558997016238	0.49945444017857	43.08499482282394	near	V2
2	3.0	ltm	428	diff_vonmises	0.1486173863117894	8.515148997930869	4.817269862918851	0.4979687164157735	0.3801950047911778	1.1016292847427491	0.1758274077521173	-0.1750738511634783	0.3509012589155956	56.8791032260848	near	V3
3	4.0	ltm	428	diff_vonmises	-1.083346309986621	-62.07117131330477	0.000216873914368	4781.9672670507525	3.7185969012964135e-27	4784.112814325769	-0.1764085947612557	-0.506522415923655	0.3301138211623993	149.16143873049842	near	V4
4	5.0	ltm	428	diff_vonmises	-0.0831276751230842	-4.762864945287372	2.8583480530958587	0.7313006886293084	8.212657730489862e-16	1.67907792732909	0.19864790831419	-0.2657004638503289	0.4643483721645189	81.31088455937865	near	V3ab
5	6.0	ltm	428	diff_vonmises	0.2724395134437055	15.609634292921976	0.8632992695383476	106.82784074098387	0.8485613081689961	107.48213366768448	0.0956246741265758	-0.1809120295678337	0.2765367036944095	91.80618084193634	near	IPS0
6	7.0	ltm	428	diff_vonmises	0.1175930609865709	6.737586094555013	1.1275345097413372	158.84140260633603	1.1099509239609189	160.42458763104713	-0.0520360317973072	-0.355699086968908	0.3036630551716008	73.37666939788559	near	LO1
0	1.0	ltm	429	diff_vonmises	-0.0002269131925808	-0.0130011682507243	5.739520236402776	0.4209665655105457	0.0544541355058043	3.882356490959373	-0.2592644432296786	-0.6206311592039307	0.3613667159742521	54.413697154900746	near	V1
1	2.0	ltm	429	diff_vonmises	0.078352470585846	4.489265878991902	9.00263546343015	0.5700869965928463	0.2697588875608773	2.104368895142304	0.2414205469384576	-0.3698086704413961	0.6112292173798537	43.08493569827553	near	V2
2	3.0	ltm	429	diff_vonmises	-0.0144684409464409	-0.8289806023653313	1.1770111782438906	58.04863765226173	1.136779220483334	58.86510298536751	0.1340774174623078	-0.2323616423113765	0.3664390597736844	78.7202284802562	near	V3
3	4.0	ltm	429	diff_vonmises	-0.2011486026170958	-11.524965984913738	2.245754211773961	1.020308992211689	0.1398762200243246	2.959326846219205	0.0252193749051794	-0.419089881575976	0.4443092564811555	82.36318382027765	near	V4
4	5.0	ltm	429	diff_vonmises	-0.0093185552742894	-0.5339138883761598	1.886635962155455	1.4327215261942554	0.187589371476717	2.184935307148156	0.2975765369420573	-0.2734420069404842	0.5710185438825415	91.13545173967675	near	V3ab
5	6.0	ltm	429	diff_vonmises	0.505098812973321	28.94003022043901	0.5390291856420582	167.31790729939334	0.5300196894487547	167.91487765277836	0.1325092017071725	-0.2170733067093753	0.3495825084165478	118.02814822644837	near	IPS0
6	7.0	ltm	429	diff_vonmises	0.0170881711081438	0.979080084094034	0.8437609806711169	129.9295355388832	0.8265934805742233	131.25348020995088	0.0170473025764366	-0.3002784203747772	0.3173257229512138	88.23896221174888	near	LO1
0	1.0	ltm	430	diff_vonmises	0.0275553136883411	1.5788031775010136	8.359118305784953	0.3126102906974525	2.5245342096180344e-18	1.0360349781657083	0.1898839713980603	-0.1648900685147113	0.3547740399127717	47.00365950877554	near	V1
1	2.0	ltm	430	diff_vonmises	0.1825845598527639	10.461324683817145	2.758318153643214	27.653999405392717	2.651043406070154	27.82564438745532	0.2878287056499324	-0.1634106169797524	0.4512393226296849	54.51971274382242	near	V2
2	3.0	ltm	430	diff_vonmises	0.0345772596904512	1.9811310473906831	2.494916746078792	99.26134186795224	2.4756077208855185	99.29397351866103	0.2472316563144403	-0.0965577193187634	0.3437893756332038	58.544648617334985	near	V3
3	4.0	ltm	430	diff_vonmises	-0.0083491820884334	-0.4783728960534582	1.9545683695852685	160.30991411347054	1.9388051177472083	160.631078471029	0.2364295383164716	-0.1694962930953245	0.4059258314117961	63.43600426794672	near	V4
4	5.0	ltm	430	diff_vonmises	0.0011159007968485	0.0639364060147098	1.9848429140034856	0.8897435292588711	5.078141494220851e-13	0.843406338514926	0.3226663690445193	-0.1256063106319652	0.4482726796764845	97.37114173507214	near	V3ab
5	6.0	ltm	430	diff_vonmises	0.2752918974778231	15.773063859627417	0.8178092407951613	41.953783507273386	0.7969809304506484	41.94524076062145	0.169450921335363	-0.0726865340937932	0.2421374554291562	104.46727520514742	near	IPS0
6	7.0	ltm	430	diff_vonmises	-0.1159541867088529	-6.643685515289222	0.6830352716890066	13.836253514497786	0.5768429500855613	14.143083112594304	0.1986212754562069	-0.1723054509246966	0.3709267263809035	113.2367530780009	near	LO1
0	1.0	ltm	431	diff_vonmises	-0.0021082767603119	-0.1207953604113879	4.497899748571269	0.5328133488877755	1.5506015377446925e-19	4.0987308624494485	-0.2157809253314431	-0.652279174462916	0.4364982491314728	64.46092037817397	near	V1
1	2.0	ltm	431	diff_vonmises	0.1167983671317325	6.6920534906677895	6.998444602264464	0.661490791459132	0.1972426700379638	2.394029803886779	0.2250339874101149	-0.3981151497523472	0.6231491371624621	48.96158117402055	near	V2
2	3.0	ltm	431	diff_vonmises	0.0764515354046529	4.380350315981604	0.9912399051808274	25.391664175701543	0.885916436057942	26.70011330695261	0.0893879907239618	-0.3233557395581274	0.4127437302820893	85.3157604190884	near	V3
3	4.0	ltm	431	diff_vonmises	-0.0747769083043334	-4.284401250875064	2.707357391564963	0.9451244820995792	1.5024908646413195e-20	3.271100791212649	0.062910372723331	-0.5180146588846771	0.5809250316080081	83.57768395300664	near	V4
4	5.0	ltm	431	diff_vonmises	0.0255617466831487	1.464580201926954	0.7053954204409136	27.568282689834604	0.6104281548772084	28.35295425037415	0.2878160663547975	-0.317313093134032	0.6051291594888295	108.91110137724569	near	V3ab
5	6.0	ltm	431	diff_vonmises	0.5101752052911517	29.230886075403337	0.7098467819497247	174.7971186302819	0.699137614972604	175.3951089819531	0.1867941401752375	-0.218548734805962	0.4053428749811996	104.53644599205325	near	IPS0
6	7.0	ltm	431	diff_vonmises	-0.0039677880114485	-0.2273375070586052	0.6199090537586648	2.601652487074403	5.596584910525579e-16	4.247571144678331	0.0246718311814444	-0.4732133587910991	0.4978851899725436	146.05259080049166	near	LO1
0	1.0	ltm	432	diff_vonmises	-0.1599113865679933	-9.162247546431022	6.636639735390405	0.2213050522469742	7.429700462873315e-15	3.927566274191301	-0.4022812027961996	-0.6250912036400221	0.2228100008438225	52.844295844136695	near	V1
1	2.0	ltm	432	diff_vonmises	0.0955395095048864	5.474010671380006	8.961585408263971	0.4581571441080629	0.1295957527703254	2.041702055688476	0.1705796677454448	-0.3392533948442786	0.5098330625897234	44.02351441116701	near	V2
2	3.0	ltm	432	diff_vonmises	0.0919017897300643	5.2655846812314175	4.196736995380255	0.6106688659807002	0.4164907417918047	1.277258036291668	0.1865729158883865	-0.1954241063523314	0.3819970222407179	59.95146805720404	near	V3
3	4.0	ltm	432	diff_vonmises	-0.0393154676680558	-2.252610366962642	1.004034437433471	187.66093051769928	0.9843853979379302	189.6967759659868	0.0082299914399612	-0.4642270307754614	0.4724570222154227	80.09464702991738	near	V4
4	5.0	ltm	432	diff_vonmises	-0.1261322337190735	-7.226844652660606	2.370523813210744	0.8298249416457227	2.1309121357257774e-17	2.114375678536282	0.1374398957785023	-0.332375814101404	0.4698157098799063	89.31622697173174	near	V3ab
5	6.0	ltm	432	diff_vonmises	0.3710016514482578	21.2568288203688	0.7412752959249638	157.46055076905378	0.7298063160205469	158.56903302431368	0.0229049716151763	-0.2557725871214416	0.2786775587366179	94.79300465503366	near	IPS0
6	7.0	ltm	432	diff_vonmises	0.1479897473737552	8.47918793572343	2.837894118172333	0.7192196693870637	0.2746835589056673	2.2495944037026154	-0.0061822048994931	-0.3256810921756059	0.3194988872761128	69.70322679797741	near	LO1
0	1.0	ltm	433	diff_vonmises	-0.0382950587470885	-2.1941452424137173	5.55660679553915	0.4322450881228918	0.1086986665182788	3.746535375711332	-0.2663881303046849	-0.6069584059117213	0.3405702756070364	53.56051926634868	near	V1
1	2.0	ltm	433	diff_vonmises	0.0056891543592928	0.3259645337859356	2.7917781271964945	1.2900513154327613	0.4452425524039461	2.8907174796082424	0.1269493842997572	-0.3927886539843449	0.5197380382841021	68.42050874232822	near	V2
2	3.0	ltm	433	diff_vonmises	-0.066457283015217	-3.807721834678384	3.4689851946859966	0.775292406875766	0.0898074644304043	1.6577344886896586	0.2630225691567031	-0.2502700659318618	0.5132926350885649	70.90662401125573	near	V3
3	4.0	ltm	433	diff_vonmises	-0.1571992190110254	-9.006851792084454	1.915537922199588	2.051238603650602	0.3826770407555083	3.783969701968853	0.1793736308764321	-0.4345834928448601	0.6139571237212922	81.40058690447393	near	V4
4	5.0	ltm	433	diff_vonmises	-0.031882660212436	-1.826741869822259	2.285729615631414	1.218739059240059	3.727198584144293e-16	2.0226641475608065	0.3592744755861308	-0.3148713846724371	0.6741458602585679	90.94730846946324	near	V3ab
5	6.0	ltm	433	diff_vonmises	0.1454705765007645	8.334850076828781	1.4954253727662477	1.0241967842745878	0.1263489779812625	1.4293359491245414	0.1857069158443195	-0.1774380306654621	0.3631449465097816	104.0600373772712	near	IPS0
6	7.0	ltm	433	diff_vonmises	-0.0367559995583145	-2.10596364647614	0.6411661215164953	150.1417043268254	0.6276786805407438	151.2456535379656	0.0854854721108964	-0.2907085598293371	0.3761940319402335	105.20302354578264	near	LO1
0	1.0	ltm	434	diff_vonmises	-0.0172577409281144	-0.9887957191111448	4.886260169051668	0.5296473277485292	0.0691105172313662	2.899384536740797	-0.0402090093315469	-0.4585946656447477	0.4183856563132008	59.147665918624256	near	V1
1	2.0	ltm	434	diff_vonmises	0.0159703365112862	0.915032879500387	2.34549863371508	2.1104571305358086	0.7630282163552213	3.3799740706172554	0.195398683544528	-0.3611710690698995	0.5565697526144275	68.87968929685175	near	V2
2	3.0	ltm	434	diff_vonmises	-0.1137675999855226	-6.518403324503052	1.113414272546002	122.56386326402138	1.0901426965619925	123.44612335070866	0.2173940810208989	-0.2735111819310809	0.4909052629519799	82.14686801048899	near	V3
3	4.0	ltm	434	diff_vonmises	-0.0611691643774504	-3.5047349551698925	3.4373666759420574	0.8572796358300645	0.004845301669265	2.061270004678594	0.2765245276646312	-0.3258470524441698	0.602371580108801	73.77564615928029	near	V4
4	5.0	ltm	434	diff_vonmises	0.0784535346445216	4.495056423014476	0.7327675386640147	96.57550968922013	0.7055674151754393	96.78627980666636	0.4408162065296146	-0.2551719525712288	0.6959881591008434	108.59871559297343	near	V3ab
5	6.0	ltm	434	diff_vonmises	0.2972153246736498	17.029183710410617	0.6730020920448887	55.778565714492	0.6492418038665776	55.78315129267255	0.2508174858350571	-0.1289633256461506	0.3797808114812078	114.24043196775015	near	IPS0
6	7.0	ltm	434	diff_vonmises	0.0943781475478005	5.40746953275193	0.1575606356520691	115.76506796530644	0.1415838461607014	116.37866151928868	0.2026415808872954	-0.3551923138924397	0.5578338947797352	162.336489636742	near	LO1
0	1.0	ltm	435	diff_vonmises	-0.0537364688178391	-3.0788728691985354	4.760473900311524	0.3231199960777898	1.8332711027451537e-12	1.892517653270176	-0.0282687320361538	-0.3011835330612288	0.272914801025075	62.61383397039396	near	V1
1	2.0	ltm	435	diff_vonmises	0.1346583137126089	7.715353052081112	4.191012403761449	0.7446743959580001	0.5970204887748074	1.5076318297743996	0.1877346700103868	-0.2324870664766475	0.4202217364870343	57.79484677793823	near	V2
2	3.0	ltm	435	diff_vonmises	0.0889602664102374	5.097047809666031	3.5723047372627823	0.790985096492085	0.846284508070115	1.1072590920122989	0.2254782560061947	-0.144487073753437	0.3699653297596317	61.07937308876859	near	V3
3	4.0	ltm	435	diff_vonmises	0.0084264738646609	0.4828013886223638	1.5222283290775092	100.97279361360944	1.491564879929248	101.81829355430162	0.1758121026500134	-0.2709269699760419	0.4467390726260554	69.05678199238696	near	V4
4	5.0	ltm	435	diff_vonmises	-0.0336136625738194	-1.925920999456704	1.8933023937265945	0.9703139214893606	3.674548896831793e-17	1.3180524091099417	0.2744446107862862	-0.1987960869997876	0.4732406977860739	99.55812786904622	near	V3ab
5	6.0	ltm	435	diff_vonmises	0.2928338540583426	16.778143936092928	0.9303295471232984	81.96291249440215	0.9149338196396284	82.18700437849431	0.1670880437516011	-0.1134630380602388	0.2805510818118399	93.90523124431834	near	IPS0
6	7.0	ltm	435	diff_vonmises	-0.0078441415311102	-0.4494362036359028	0.6378693967885503	29.465293864987693	0.5826707865486387	30.131968550041183	0.1332459880994658	-0.2204917768188563	0.3537377649183222	110.78129230313172	near	LO1
0	1.0	ltm	436	diff_vonmises	-0.0002548631128488	-0.0146025807198051	7.495588337591763	0.6053973583475557	0.4687242936958919	2.146286499945478	0.1323852662590573	-0.3968121979493364	0.5291974642083938	45.044391335760025	near	V1
1	2.0	ltm	436	diff_vonmises	0.1053885834396784	6.038321039955896	2.018047235693924	99.15925230766516	1.986029891670988	99.59911680974062	0.2687944522723953	-0.217478816156257	0.4862732684286523	62.005994487934856	near	V2
2	3.0	ltm	436	diff_vonmises	-0.0341966740042417	-1.959325093827792	2.185632083162349	86.54592797965397	2.159748471388042	86.5521240540519	0.3316858905321851	-0.1136319187108263	0.4453178092430114	63.35737388351308	near	V3
3	4.0	ltm	436	diff_vonmises	-0.1260418369038192	-7.221665296665111	1.6456764729143734	195.531933756491	1.630106510532465	195.97532066686296	0.3148736230461821	-0.2159808937488954	0.5308545167950776	69.53815820335018	near	V4
4	5.0	ltm	436	diff_vonmises	-0.0201085319623496	-1.152134013646552	2.9163262502821867	0.8948672921784154	3.602310462896909e-11	0.9504515193010852	0.4254279436818491	-0.1495791309197603	0.5750070746016094	80.48608014269684	near	V3ab
5	6.0	ltm	436	diff_vonmises	-0.0479978802145824	-2.7500759618700497	0.8510428479020048	1.086915140036888	3.7022781673522894e-16	1.042616574204938	0.1746869739065031	-0.103839732123753	0.2785267060302562	135.02684372063774	near	IPS0
6	7.0	ltm	436	diff_vonmises	-0.2184229513836285	-12.514713263073078	0.8085535540357074	90.47405712652882	0.7921834498509273	90.8120492814682	0.1806909961627063	-0.1502738926532751	0.3309648888159815	99.83802866167836	near	LO1
0	1.0	ltm	437	diff_vonmises	-0.2299990046058325	-13.177972256124184	9.237896908714577	0.2152885822549965	0.0183167413833173	2.694895289724337	-0.1794859245974175	-0.4310271358453639	0.2515412112479464	44.09513043807959	near	V1
1	2.0	ltm	437	diff_vonmises	0.0238094993310859	1.3641838239907809	3.180075105407337	0.9479024315540764	0.4497168319586179	2.250449814037048	0.1074632978284522	-0.3224457119873382	0.4299090098157904	64.91620332071759	near	V2
2	3.0	ltm	437	diff_vonmises	0.0378129139379298	2.166520379734788	4.962449593537816	0.4556003021021406	8.121747591597896e-19	0.8947154987754573	0.2510760599913717	-0.1423791365299168	0.3934551965212885	61.29621265504474	near	V3
3	4.0	ltm	437	diff_vonmises	-0.0520361219923163	-2.9814501723876137	1.9232168107360688	2.382618867034954	0.6928627042868684	3.6194352802422034	0.175352446956942	-0.3376072146579962	0.5129596616149383	74.91146280878493	near	V4
4	5.0	ltm	437	diff_vonmises	-0.027551026812452	-1.578557557605274	2.422291674344489	0.964599332446742	1.4546875726093716e-13	1.5025158928064957	0.3188534769162087	-0.2347404034905366	0.5535938804067453	88.37792992872363	near	V3ab
5	6.0	ltm	437	diff_vonmises	0.2651438885503938	15.19162577762464	0.8877161820689228	83.30236208723524	0.8725437660881409	83.55665584230438	0.1601913428736878	-0.119005262393923	0.2791966052676109	95.66240240294772	near	IPS0
6	7.0	ltm	437	diff_vonmises	0.0404196124626997	2.3158732036670777	0.7635955540842956	122.69289024962112	0.7506788345597728	123.34866283590448	0.1096218774862194	-0.1911508536946335	0.300772731180853	98.36970460977032	near	LO1
0	1.0	ltm	438	diff_vonmises	-0.052016716401001	-2.980338313906288	7.751104624373906	0.345283798476717	0.0805849778367276	2.0178102171316614	0.0293761864149821	-0.3275282742131508	0.3569044606281329	47.390480144360055	near	V1
1	2.0	ltm	438	diff_vonmises	0.1712282432034274	9.810655668996016	4.872915980232554	0.7907366442344108	0.7784683600292563	1.428530284457545	0.2484122395376761	-0.2325369737428756	0.4809492132805518	53.47858739269961	near	V2
2	3.0	ltm	438	diff_vonmises	0.1038420996113372	5.94971404350671	2.13370552528759	35.98140674466461	2.073024958330752	36.16430736973044	0.2356183391801494	-0.1329961791429221	0.3686145183230715	62.01172462431708	near	V3
3	4.0	ltm	438	diff_vonmises	0.0037641298586095	0.2156687544375034	1.5573844423945609	157.21455033832825	1.5372913775170538	157.9639394825921	0.2176240110140952	-0.2611355855631991	0.4787595965772944	69.05865042884105	near	V4
4	5.0	ltm	438	diff_vonmises	-0.0419313831279375	-2.402491282376888	2.243158891182538	0.8316670840153992	1.7575346232552986e-13	1.124719444749607	0.2806391563564775	-0.1738275606017876	0.4544667169582651	91.79297688532108	near	V3ab
5	6.0	ltm	438	diff_vonmises	0.3494082221289161	20.01961645515647	1.019795840763558	75.09575605014187	1.0047620907240218	75.27563579068611	0.1517104558561648	-0.0952113762987165	0.2469218321548814	89.93019444206763	near	IPS0
6	7.0	ltm	438	diff_vonmises	-0.0222349665576117	-1.2739697413656836	1.329071301614188	0.9399469464446768	0.0729663166517481	1.5079584814515516	0.1207227454622648	-0.1962857719675196	0.3170085174297844	111.38342520211158	near	LO1
0	1.0	ltm	439	diff_vonmises	-0.1252558405856253	-7.176631024919779	1.8492961424484848	0.527977436584726	2.788254675186584e-16	3.944591193693668	-0.3680609054126015	-0.6213703319220113	0.2533094265094098	100.62777690766347	near	V1
1	2.0	ltm	439	diff_vonmises	0.0825916714702145	4.732154198174342	10.401772781133296	0.421726972493742	0.0715785878482383	2.1428782386339638	0.1698426949633046	-0.3501209872057875	0.5199636821690923	41.36747530290589	near	V2
2	3.0	ltm	439	diff_vonmises	0.0490296881353316	2.809194200997151	3.937470480115652	0.6080071420940137	0.2407953793838945	1.6195705013235475	0.1402147015377157	-0.2470986205205363	0.3873133220582521	63.211706326954754	near	V3
3	4.0	ltm	439	diff_vonmises	-0.0932288877396374	-5.341621796180173	1.4249211512720157	2.6010975796079285	0.4564348966223305	4.850560333827889	-0.0652361026072194	-0.4727925503380643	0.4075564477308449	83.17869460593414	near	V4
4	5.0	ltm	439	diff_vonmises	-0.0768936960526758	-4.405684254980086	1.8733274099648012	1.0794882238566377	3.717213981558974e-20	2.341505948585108	0.1625567306581333	-0.3600317391981323	0.5225884698562657	100.04776316685492	near	V3ab
5	6.0	ltm	439	diff_vonmises	0.4336144609506154	24.844278548310506	0.5860216916127453	176.3875846345197	0.5751328307797396	177.5492769495089	0.059765752529401	-0.2985177392539935	0.3582834917833946	109.15412920664346	near	IPS0
6	7.0	ltm	439	diff_vonmises	0.0627764633153864	3.5968264007294843	1.4060837930071794	2.3292387374911026	0.4712891269844991	4.211515927155832	-0.0463362239604389	-0.3987688636146779	0.352432639654239	83.35604815362291	near	LO1
0	1.0	ltm	440	diff_vonmises	0.0347744093301193	1.992426889676193	8.072593864162373	0.4794146423683713	0.2188465069784669	2.914372660588004	-0.0359953692299235	-0.5028161568655224	0.4668207876355988	44.6611155537237	near	V1
1	2.0	ltm	440	diff_vonmises	0.107739198044619	6.1730013360808	3.294641010273015	1.1958387440510587	0.7875941706463947	2.049088298581459	0.2084992278509716	-0.2734821375771017	0.4819813654280733	61.418772281204895	near	V2
2	3.0	ltm	440	diff_vonmises	0.0181287595501127	1.038701410028948	1.8552605434627216	79.0641666966288	1.819837127858796	79.44620556851457	0.2678934724694031	-0.1925869768415413	0.4604804493109444	65.32366827465034	near	V3
3	4.0	ltm	440	diff_vonmises	-0.1582910932289348	-9.06941157652981	1.3025752082783164	250.1781736214556	1.2889129702722093	251.2644892539448	0.1921733716113607	-0.3211912158464294	0.5133645874577901	74.3498818432237	near	V4
4	5.0	ltm	440	diff_vonmises	-0.0632512886697716	-3.624031889541559	2.7266532028989343	0.8973702378927263	1.0666376323019975e-14	1.5095631237797762	0.3160553937100222	-0.2378719663571145	0.5539273600671367	83.27987778350939	near	V3ab
5	6.0	ltm	440	diff_vonmises	0.0580675215984835	3.3270239143778566	1.616233410186851	0.7508408582515651	0.0582757320050576	1.1609846320593873	0.1446014665108271	-0.1607395353360881	0.3053410018469152	103.76676505868365	near	IPS0
6	7.0	ltm	440	diff_vonmises	-0.1779111366893081	-10.19355726067245	0.8117204456749431	126.24750503187838	0.7958838875373774	127.23023437302736	0.0841688028608729	-0.2502799900582602	0.3344487929191331	93.14817162777318	near	LO1
0	1.0	ltm	441	diff_vonmises	-0.0813372422770552	-4.660280699708316	2.5777124260160567	0.4407072853516731	7.44082185579631e-14	2.806478149930275	-0.1822390456985276	-0.4451395161949235	0.2629004704963958	85.66930079958252	near	V1
1	2.0	ltm	441	diff_vonmises	0.0597826969473384	3.425296222992126	4.323798423342196	0.6426006043427035	0.2172826599117913	1.924015092378004	0.1392706927802789	-0.2998627198262011	0.4391334126064801	60.74514321796289	near	V2
2	3.0	ltm	441	diff_vonmises	0.0011037594752303	0.0632407595282731	3.479173250696415	0.8800471259060075	0.4943996856760994	1.6908424437068217	0.211134065546978	-0.2409929201861875	0.4521269857331655	63.7751026381641	near	V3
3	4.0	ltm	441	diff_vonmises	-0.042596705323454	-2.4406114361963627	1.4521590718131223	5.744356519730399	0.908166899161546	7.177977410051883	0.1121699587465325	-0.3681604749363217	0.4803304336828543	76.29161573082757	near	V4
4	5.0	ltm	441	diff_vonmises	-0.0589596787459365	-3.3781407535893457	1.5334975233013926	1.2767867125634764	1.0611161908552895e-17	2.2776158034680227	0.1979870199354009	-0.3363956018823084	0.5343826218177093	109.4194540041002	near	V3ab
5	6.0	ltm	441	diff_vonmises	0.2230893660185993	12.78207912711499	0.6298703379376553	127.94086122083488	0.6164410749016975	128.81834251479498	0.0901235751301285	-0.2435118475317477	0.3336354226618763	107.10197488848098	near	IPS0
6	7.0	ltm	441	diff_vonmises	-0.0186722591024944	-1.0698416405476652	1.17609599874696	1.9190625697184835	0.2356603017628871	3.2246882060203053	0.0784130442824503	-0.332672663158468	0.4110857074409183	103.82462898981252	near	LO1
0	1.0	ltm	442	diff_vonmises	-0.0726668688444002	-4.163504895214828	3.533287850045898	0.4566817915554485	1.6826607051615858e-11	2.906804355105379	-0.1346938740976087	-0.4623524931520299	0.3276586190544212	72.96313609871564	near	V1
1	2.0	ltm	442	diff_vonmises	0.0215104835456109	1.2324599224491102	3.2909598950733354	1.030613853408196	0.411583935755394	2.4589782163086347	0.1448820524837363	-0.3563645623845152	0.5012466148682515	64.91716080118101	near	V2
2	3.0	ltm	442	diff_vonmises	-0.015204346418145	-0.8711448800145615	2.927800516719875	0.722340713940769	0.1275496962207272	1.5846583163344268	0.1812066470074828	-0.2313813355536456	0.4125879825611284	75.51344321910855	near	V3
3	4.0	ltm	442	diff_vonmises	-0.0048622314549616	-0.2785853413850589	3.633193609099626	0.7869524478274177	0.0393665207432049	2.155858941297939	0.2171324674449926	-0.334078957798025	0.5512114252430177	70.33035245467462	near	V4
4	5.0	ltm	442	diff_vonmises	0.0600158377024704	3.4386542042936776	0.802051277835039	9.618274512932908	0.5490495827660095	10.055290667188308	0.3507382732804824	-0.2702968248831331	0.6210350981636156	110.17634473227788	near	V3ab
5	6.0	ltm	442	diff_vonmises	0.4094520862198297	23.45987645322294	0.7755067505270506	113.73647058948134	0.762496724534078	113.97768065633134	0.2110228712273425	-0.1460196277399443	0.3570424989672869	103.34560662358508	near	IPS0
6	7.0	ltm	442	diff_vonmises	0.1502536428418014	8.608899591301274	0.2426148303402951	62.42344694931805	0.2157754623144405	63.13518039512897	0.1543445124011704	-0.3233333720823719	0.4776778844835423	152.540921259586	near	LO1
0	1.0	ltm	443	diff_vonmises	0.0223127558143953	1.278426737470841	4.789283779524951	0.3298778565711079	0.0560038903825633	2.4598691345571115	-0.1341967142042131	-0.3897265439373603	0.2555298297331472	59.49355345623411	near	V1
1	2.0	ltm	443	diff_vonmises	0.0100913870719992	0.5781938886584411	5.866322684841163	0.5634233439287725	0.2887429400388754	1.7062352044914924	0.1766154986046474	-0.2828399018880898	0.4594554004927372	52.31991620256497	near	V2
2	3.0	ltm	443	diff_vonmises	-0.1405513371973403	-8.052998426327695	1.7978750765938836	2.9023276828925235	0.9937335076126949	3.4607868243594764	0.2250652785332274	-0.2041194466622787	0.4291847251955061	74.4791125872068	near	V3
3	4.0	ltm	443	diff_vonmises	-0.1816061238916945	-10.405264432724044	1.191955528116985	125.90594802489792	1.1681291618660448	127.09016400387324	0.1137330392455311	-0.313292878206532	0.4270259174520632	76.3851076391085	near	V4
4	5.0	ltm	443	diff_vonmises	-0.0106838991110748	-0.6121423278081594	2.256584351753972	1.1370274687755255	0.0141254520959726	1.7710715552285567	0.3447828801172563	-0.2709924150291958	0.6157752951464521	90.90783038109296	near	V3ab
5	6.0	ltm	443	diff_vonmises	0.1470428804704496	8.4249364584034	0.5114399144443198	89.35927290336087	0.495025914413008	89.84277301259904	0.1554148869516396	-0.2091120652670888	0.3645269522187284	122.9695088154703	near	IPS0
6	7.0	ltm	443	diff_vonmises	-0.1476896358504001	-8.461992812051946	0.9982187957107328	152.01661494742586	0.9825328556278724	152.95991167367575	0.1322111936821954	-0.2570476163434989	0.3892588100256944	84.91244515676954	near	LO1
0	1.0	ltm	444	diff_vonmises	0.0282952328043975	1.621197420032095	5.47412885483707	0.5408202634256727	0.1518761300127042	3.756599751286324	-0.199923975402194	-0.6132623108948885	0.4133383354926944	53.448895042304855	near	V1
1	2.0	ltm	444	diff_vonmises	0.0377476508195872	2.1627810784958896	2.456281536036101	1.719637716660476	0.6302107086726442	3.16856099945872	0.1434420775802404	-0.3788754732486989	0.5223175508289393	68.91000731149578	near	V2
2	3.0	ltm	444	diff_vonmises	-0.0510517760190457	-2.9250513025385096	3.014670884300541	0.9562176706636144	0.2480347216129157	1.8852222583667628	0.2493644930069105	-0.2654689073215171	0.5148334003284276	72.00849236925717	near	V3
3	4.0	ltm	444	diff_vonmises	-0.2474367945896778	-14.17708402623402	1.2596329917226006	4.926818861851462	0.601609688722317	6.719822495729118	0.1354202161989341	-0.4441987961430017	0.5796190123419358	86.96718354562584	near	V4
4	5.0	ltm	444	diff_vonmises	-0.0278534625696757	-1.5958858500680324	2.292920631800074	1.2142278638264816	5.5063521469901e-19	1.8958980162772596	0.3781668711165512	-0.2948089687684284	0.6729758398849797	90.80869767866572	near	V3ab
5	6.0	ltm	444	diff_vonmises	0.1124720772446404	6.444175339187284	1.9120524176678044	0.7833630273377123	1.7031954657657628e-15	1.0736681802497503	0.2223671447379794	-0.1622908985644889	0.3846580433024683	99.07773103076347	near	IPS0
6	7.0	ltm	444	diff_vonmises	-0.101749780773858	-5.829833004723432	0.6252928299791753	140.26869224520465	0.6097262066609614	141.5438362907692	0.0729696115409268	-0.325499812965365	0.3984694245062918	105.88588605533012	near	LO1
0	1.0	ltm	445	diff_vonmises	-0.0548875077577621	-3.1448225425113345	3.961771710818947	0.3634266753840049	5.019403173002225e-20	2.909536683126673	-0.1851093065829566	-0.4629664894433629	0.2778571828604062	68.79967550655383	near	V1
1	2.0	ltm	445	diff_vonmises	0.1453598011912217	8.328503119117721	7.0696568590456765	0.5075699030482325	0.238571376725147	1.6589855571061447	0.1976561901227563	-0.2790559799346802	0.4767121700574365	48.52634028269537	near	V2
2	3.0	ltm	445	diff_vonmises	0.0888714920716247	5.091961414734456	3.254681472539352	0.9706997833200176	0.7741855456281881	1.6031193062639522	0.186909098199159	-0.2103443335317224	0.3972534317308814	62.26600258248084	near	V3
3	4.0	ltm	445	diff_vonmises	-0.019355235428157	-1.108973301515484	1.178474331524703	164.48718836796388	1.1580641570338144	166.00697279681057	0.0585939526431218	-0.3754277137550943	0.4340216663982161	75.02326769354883	near	V4
4	5.0	ltm	445	diff_vonmises	-0.1201165858362307	-6.882173417936901	1.7009369968736523	1.004870406675399	5.5838514244925226e-15	1.986517926601928	0.1536620314640123	-0.3005137550990645	0.4541757865630769	104.53516335236432	near	V3ab
5	6.0	ltm	445	diff_vonmises	0.3322723134040155	19.03780120709826	0.7798971409131683	153.5537701721594	0.7684621131965642	154.43982433755386	0.0716000843734576	-0.2249563800248069	0.2965564643982645	94.83706972516975	near	IPS0
6	7.0	ltm	445	diff_vonmises	0.0236099511992524	1.352750558227001	2.5761553439656986	0.5887732885386799	2.236748075131672e-22	2.0072406202976687	0.0336776268972267	-0.3174187928252108	0.3510964197224376	85.69801581065019	near	LO1
0	1.0	ltm	446	diff_vonmises	-0.0312181750064819	-1.7886696719722066	5.746992761294856	0.2805000253687187	2.087944844739713e-21	3.7927190402577446	-0.3417763414366659	-0.6036273142031323	0.2618509727664664	56.86670442996251	near	V1
1	2.0	ltm	446	diff_vonmises	0.0991957261996171	5.683496456973344	8.62952007077106	0.4700896991421404	0.1423505217706591	1.963010845083322	0.1839975789765164	-0.3267558251347591	0.5107534041112756	44.76157957380192	near	V2
2	3.0	ltm	446	diff_vonmises	0.0640564539954342	3.6701644645123017	3.2983442948136386	0.9132811693686894	0.6037534537097456	1.7159782023434806	0.1741745081309735	-0.2373344602216915	0.4115089683526651	63.37149633208463	near	V3
3	4.0	ltm	446	diff_vonmises	-0.0970288995652782	-5.559346435889189	0.967216838069654	221.4107430084272	0.9514004934221468	223.4729246521521	-0.0211046962623555	-0.4584395087461779	0.4373348124838223	80.82521309532117	near	V4
4	5.0	ltm	446	diff_vonmises	-0.1246553114450997	-7.14222323969304	2.1779966303090545	0.9202949630508804	1.477664094483904e-15	2.2626709554057207	0.1396479618399289	-0.3537033737811548	0.4933513356210837	93.10597699726895	near	V3ab
5	6.0	ltm	446	diff_vonmises	0.3183940977308629	18.242638021854308	0.6483076254653248	164.34731810820446	0.6367159573178603	165.61420478064318	0.0166329035604064	-0.2935445542910244	0.3101774578514309	101.4123722653045	near	IPS0
6	7.0	ltm	446	diff_vonmises	0.0555884874572358	3.1849857208155283	1.914476568197919	1.3364620110921794	0.3948017378410372	3.197539578253479	-0.0552160046956485	-0.3906772908366051	0.3354612861409565	76.65591101746872	near	LO1
0	1.0	ltm	447	diff_vonmises	0.0291172896072667	1.668297805356517	8.954361833162858	0.5053810429231907	0.2067798691616435	3.137740154742748	-0.0132524081352431	-0.5432506848305186	0.5299982766952754	42.78688240244506	near	V1
1	2.0	ltm	447	diff_vonmises	0.1480029610881882	8.479945025792135	5.721322462611126	0.7600913263600875	0.6557826944290112	1.5808417225494087	0.2712528450660862	-0.2742692855228203	0.5455221305889066	50.6689198769092	near	V2
2	3.0	ltm	447	diff_vonmises	0.0635381820553151	3.6404696697034207	1.962523311127428	102.76768918804537	1.9380445460600229	103.09968716861722	0.228870969906815	-0.1703805224977053	0.3992514924045203	63.2055607044114	near	V3
3	4.0	ltm	447	diff_vonmises	-0.1150268959750996	-6.590555669863564	1.2552210928559255	240.76172216542776	1.2416559514482322	241.9052943148808	0.1564121957879081	-0.3209924745325025	0.4774046703204107	75.07335668829424	near	V4
4	5.0	ltm	447	diff_vonmises	-0.062930150158267	-3.6056320081932336	2.729210641934417	0.7970550587641269	2.5250182218712708e-11	1.3853306429466554	0.2739043205679312	-0.2183757240734974	0.4922800446414287	83.24068672401782	near	V3ab
5	6.0	ltm	447	diff_vonmises	0.3107151220126296	17.802665122216094	0.7451788884132163	87.72140259153356	0.7308358236417287	88.19061999610715	0.1038460089673947	-0.1490157339086071	0.2528617428760018	100.75306676402532	near	IPS0
6	7.0	ltm	447	diff_vonmises	-0.1087186845990258	-6.229121781738125	0.7497593954055894	66.97351954885521	0.7239018381187079	67.9507231583768	0.0479680542197655	-0.2368975574767322	0.2848656116964978	96.08640742135334	near	LO1
0	1.0	ltm	448	diff_vonmises	0.0297846369690554	1.7065339926562029	8.03083902574649	0.4518068168687582	0.1898194782224233	2.9681150509593257	-0.0637411616745828	-0.5062045649095421	0.4424634032349592	44.95255207056809	near	V1
1	2.0	ltm	448	diff_vonmises	0.1668506832107688	9.559839956851356	4.232439144406851	0.9093454392197524	0.763567506624689	1.734831858348291	0.2061933848209352	-0.2686634374103371	0.4748568222312723	55.97552499657456	near	V2
2	3.0	ltm	448	diff_vonmises	0.1308437463938084	7.49679444404531	2.998495366812458	1.473348724983908	1.360748945059171	1.8034447984152893	0.2280195660177429	-0.1667809501110169	0.3948005161287599	60.22540216050084	near	V3
3	4.0	ltm	448	diff_vonmises	-0.175667610564524	-10.06501268249498	1.1931481705646434	166.8303393809145	1.174884352416022	168.11051209322932	0.0847460795119516	-0.3276345700371585	0.4123806495491102	75.40668842712952	near	V4
4	5.0	ltm	448	diff_vonmises	-0.069341451750216	-3.972972530597412	2.9130074004336386	0.7262836960399841	4.454076616046195e-12	1.2782176829767709	0.2643181545073813	-0.202054880151538	0.4663730346589193	80.53138346779491	near	V3ab
5	6.0	ltm	448	diff_vonmises	0.15882538400843	9.100024183227635	0.9987004536355912	58.83342956492345	0.9761048935542906	59.14660305487761	0.1461499233339864	-0.1224766568337223	0.2686265801677088	89.26217905264	near	IPS0
6	7.0	ltm	448	diff_vonmises	-0.108931403105525	-6.241309654384856	0.8357493479509936	115.63285855024552	0.8190192873468489	116.77162032533076	0.0194073181473442	-0.2599371958579812	0.2793445140053254	88.89697590808726	near	LO1
0	1.0	ltm	449	diff_vonmises	0.0082136568226668	0.4706078703076445	2.526994297002823	0.6406965798432002	7.939780239095034e-12	3.053121203724624	-0.1059618287797546	-0.4834933375231364	0.3775315087433818	86.53236037942352	near	V1
1	2.0	ltm	449	diff_vonmises	0.1163562748640534	6.666723469574408	6.882958013492729	0.5828295686220455	0.2303399354720287	1.9969271321361544	0.2031260652245572	-0.3344773602137568	0.537603425438314	49.09395066007255	near	V2
2	3.0	ltm	449	diff_vonmises	0.124918710091614	7.157314870467771	0.8374959387402298	83.86520696732002	0.8130830911650081	84.90366677966304	0.0729621202782411	-0.2576541232294289	0.33061624350767	91.33172500473552	near	V3
3	4.0	ltm	449	diff_vonmises	-0.0316301728316149	-1.8122754085208943	3.702046954512925	0.6002963989848197	1.4830520741019049e-18	2.2296423960906115	0.0874817760972087	-0.3545893208376761	0.4420710969348849	71.2370739099552	near	V4
4	5.0	ltm	449	diff_vonmises	0.0752441502230857	4.311172240831163	0.6564303167132176	100.39864858431577	0.6332049923966432	100.79615841880506	0.3349428443536979	-0.2604086581884646	0.5953515025421625	112.65080946517016	near	V3ab
5	6.0	ltm	449	diff_vonmises	0.495269048856461	28.37682622293379	0.7879612663591347	125.74578394977206	0.7754502124375885	125.98552388058926	0.2287510825871592	-0.1523658285875804	0.3811169111747396	102.72772391432348	near	IPS0
6	7.0	ltm	449	diff_vonmises	0.119646171306937	6.85522065078674	0.4346167814282049	3.8229415652689536	1.6783289425436702e-10	4.8120428625972185	0.1309432202571488	-0.3898540208654011	0.5207972411225501	155.3377976122841	near	LO1
0	1.0	ltm	450	diff_vonmises	-0.0543657681585682	-3.1149290654726776	2.743838452413294	0.4226286834116406	0.0015390376613167	2.6799333763202093	-0.1642109129879995	-0.4247804229463932	0.2605695099583937	82.77959888626444	near	V1
1	2.0	ltm	450	diff_vonmises	-0.0005807669767937	-0.0332754966508526	2.955406784217548	0.9197533776187576	0.3024633973768873	2.279453692003298	0.117392177169161	-0.3239948208109721	0.4413869979801332	69.76729718722373	near	V2
2	3.0	ltm	450	diff_vonmises	-0.0443009790873786	-2.538259130004119	3.6263258839101855	0.7937687191303813	0.2578042102227462	1.6889617317601593	0.2360612234460677	-0.2493857359791619	0.4854469594252297	66.1192445852366	near	V3
3	4.0	ltm	450	diff_vonmises	-0.0545238403300244	-3.123985933755588	2.387996678402654	1.4876636947351818	0.4629661239570315	2.851429791912913	0.1695110189324914	-0.3522926255138527	0.5218036444463442	73.21805703339902	near	V4
4	5.0	ltm	450	diff_vonmises	-0.0069325134938704	-0.3972037646162701	1.4883182247933349	1.484849306263481	7.398526354937298e-16	2.3039934944803524	0.2734139078987881	-0.3340672868004677	0.6074811946992559	110.82728647183178	near	V3ab
5	6.0	ltm	450	diff_vonmises	0.1360506585436296	7.7951285345254515	0.6177642618513286	26.24341766233089	0.555538988675012	26.831813465966487	0.1573220603023521	-0.2200789979219313	0.3774010582242835	114.17885656444324	near	IPS0
6	7.0	ltm	450	diff_vonmises	0.0106955481818813	0.6128097704006237	0.5291284003490747	151.22059277202592	0.5149008806999782	152.32733208181077	0.12726521220101	-0.336586999372674	0.463852211573684	117.82812192174352	near	LO1
0	1.0	ltm	451	diff_vonmises	0.0248552421036076	1.4241004713125869	6.61705424451715	0.3030079458288154	0.0693431513961403	1.766276409490713	0.003616839970585	-0.2837107463240936	0.2873275862946787	51.26306406966182	near	V1
1	2.0	ltm	451	diff_vonmises	0.1542900548627996	8.840168964480345	3.5825498991320246	1.0287270496494152	0.99461088429555	1.6251017622599884	0.190759702644313	-0.2181172642154199	0.4088769668597329	57.99874515817302	near	V2
2	3.0	ltm	451	diff_vonmises	0.100715497687095	5.77057294903015	2.207893026133948	64.51130619198304	2.172350945361741	64.71624179041368	0.230362054150838	-0.1404270677658345	0.3707891219166725	60.403214548791794	near	V3
3	4.0	ltm	451	diff_vonmises	-0.0957361550409437	-5.48527763065618	1.5190280289269458	154.57248492635637	1.501754076293404	155.3936920939798	0.1100713847003049	-0.2458630336530802	0.3559344183533852	67.78981977584206	near	V4
4	5.0	ltm	451	diff_vonmises	-0.0445564573797949	-2.552896957916782	2.577920890702749	0.7813577409520396	3.78728564918194e-12	1.1086793823564058	0.2923720280433989	-0.1737483174161158	0.4661203454595147	85.67050979336094	near	V3ab
5	6.0	ltm	451	diff_vonmises	0.1177159215081097	6.744625483907964	0.9443764404469694	51.66514650189597	0.920220855138581	51.85386644836256	0.1756358847227019	-0.1089477253944828	0.2845836101171848	94.01423298795793	near	IPS0
6	7.0	ltm	451	diff_vonmises	-0.1462600000732026	-8.380080715777622	0.9462667784585986	121.04374592849382	0.9301392505647696	121.83754049990374	0.1102641232722732	-0.2159305274524268	0.3261946507247	87.3296137059168	near	LO1
0	1.0	ltm	452	diff_vonmises	0.0271145604836089	1.553549879062995	4.86727839511629	0.2854958174845062	0.0878485593246877	1.581505688219817	-0.0302879718225584	-0.2507152382322508	0.2204272664096923	58.68014784597534	near	V1
1	2.0	ltm	452	diff_vonmises	0.0261146082466014	1.4962568361677988	4.7794089426336575	0.5972921032264524	0.5595741930564476	1.2574983700042377	0.1811809832888261	-0.2031488038193511	0.3843297871081773	55.232090465780914	near	V2
2	3.0	ltm	452	diff_vonmises	-0.1105592029737255	-6.334575716724696	1.8335311178743112	65.6496633219897	1.8019989093785385	65.80152992480494	0.2635807685599225	-0.1269908338727123	0.3905716024326349	67.6386970791242	near	V3
3	4.0	ltm	452	diff_vonmises	-0.1628909921232946	-9.332966369363518	1.572664758167694	174.82464338250867	1.557320933512325	175.5075333652394	0.1601980518221779	-0.2276257855704599	0.3878238373926379	68.0104544795579	near	V4
4	5.0	ltm	452	diff_vonmises	-0.0128051953832119	-0.7336836512984506	2.574544913709603	0.9338109243292836	8.703435586605347e-18	1.2350907183541706	0.3633259749219915	-0.193320587513652	0.5566465624356435	85.72393866789983	near	V3ab
5	6.0	ltm	452	diff_vonmises	-0.0198316869258932	-1.136271961478455	0.6484034897662313	35.758093156102696	0.612834139810422	35.96712275503739	0.1853628812818026	-0.1436185360275637	0.3289814173093663	113.97608532731051	near	IPS0
6	7.0	ltm	452	diff_vonmises	-0.2152387043631131	-12.332269347870442	1.2041947456470554	124.68596339016196	1.186621857218261	125.25090290576844	0.1922073722606612	-0.193873740412684	0.3860811126733452	79.77943852330637	near	LO1
0	1.0	ltm	453	diff_vonmises	-0.0503759828416893	-2.886331205652249	6.968977252563694	0.3226509875731639	0.0913998679301472	1.8726112320917976	0.007364576841715	-0.3035105559437496	0.3108751327854646	49.64210412615091	near	V1
1	2.0	ltm	453	diff_vonmises	0.0902799484583229	5.1726600213205085	1.5895518437776612	55.02811987785707	1.5386903576064546	55.70738971813627	0.1841706187495582	-0.2337346778892159	0.4179052966387742	68.45393550681482	near	V2
2	3.0	ltm	453	diff_vonmises	0.0592564846456349	3.395146478976649	3.2824671739802618	1.0955728937405056	1.0921425666502012	1.3260804575698868	0.2788401868525722	-0.1458511868700668	0.424691373722639	61.71464633128608	near	V3
3	4.0	ltm	453	diff_vonmises	-0.0425265198058625	-2.436590102255429	1.5820486910296223	161.38769033842357	1.562060298645335	162.07739475869374	0.2494890175052262	-0.2567627059080948	0.506251723413321	69.1349171860233	near	V4
4	5.0	ltm	453	diff_vonmises	-0.0412023696842321	-2.3607218888442723	2.205135539427346	0.9416066210643232	9.216994531502932e-18	1.222433718569145	0.3205656566249123	-0.1882961187836854	0.5088617754085978	92.56162989092232	near	V3ab
5	6.0	ltm	453	diff_vonmises	0.1140902128588673	6.536887680562292	2.16460873812344	0.5471215849598969	4.229294847174616e-12	0.6613163336867812	0.1907460558540884	-0.1013505953233436	0.2920966511774321	93.38713913519624	near	IPS0
6	7.0	ltm	453	diff_vonmises	-0.0889630002786536	-5.09720444878802	0.6740136926610467	134.78829000376308	0.6617522231614101	135.3666599681601	0.1541148478696143	-0.2032037534516035	0.3573186013212179	106.81797561569356	near	LO1
0	1.0	ltm	454	diff_vonmises	0.0308443079840894	1.767248669489994	10.054094124833782	0.381253586310102	0.1689384363505829	3.9948157876017496	-0.271520699870758	-0.6906444826155516	0.4191237827447935	40.10480532870781	near	V1
1	2.0	ltm	454	diff_vonmises	0.07906031078349	4.529822134886609	7.319457877329605	0.554003806572255	0.2873820611751463	1.764338429222273	0.220185152375944	-0.3027436080546711	0.5229287604306152	47.40320857697608	near	V2
2	3.0	ltm	454	diff_vonmises	0.0282864091977335	1.620691864610167	1.8283730796706703	61.17518249426719	1.783557140938365	61.62828321414148	0.2296789909099068	-0.1991670629528661	0.4288460538627729	65.07856339419908	near	V3
3	4.0	ltm	454	diff_vonmises	-0.1392287056793451	-7.977217222495594	1.1666455230684476	281.6643976042688	1.153456530154266	283.2132773575058	0.1162764183845581	-0.3983749226815547	0.5146513410661129	76.49073393486671	near	V4
4	5.0	ltm	454	diff_vonmises	-0.1142337199184871	-6.54511002940884	3.319221600727357	0.7651126632824407	5.573377780009545e-13	1.998896617270458	0.2124070045631728	-0.3174396197636192	0.5298466243267921	75.34193925714183	near	V3ab
5	6.0	ltm	454	diff_vonmises	0.1597109401145475	9.150762810630212	0.583458394913293	105.2127134738792	0.5690411031627329	106.37557886151764	-0.0156101128107124	-0.2600163828867643	0.2444062700760518	105.61386180802252	near	IPS0
6	7.0	ltm	454	diff_vonmises	0.016830214684847	0.9643002697408388	1.10843724789647	138.5966404905643	1.090121910698702	139.94676809091257	-0.0089712028983299	-0.3109636164591052	0.3019924135607752	75.49115227423474	near	LO1
0	1.0	ltm	455	diff_vonmises	-0.2145336490905338	-12.291872656428202	0.4541737221591384	100.15202821458924	0.4298976930978872	103.84469209379844	-0.4131509718072514	-0.6646543962467764	0.2515034244395249	104.49431065599178	near	V1
1	2.0	ltm	455	diff_vonmises	0.1258398939429403	7.210094817304372	7.338002438669699	0.4995343291607216	0.0987585357028294	2.322113550337848	0.1230199734723694	-0.3771899034629005	0.50020987693527	48.648619355807625	near	V2
2	3.0	ltm	455	diff_vonmises	0.1513926567444694	8.674160280730879	7.132230619695557	0.3954055678880341	5.3335735238403403e-17	1.3513545640630409	0.1982266871292096	-0.2150744948702551	0.4133011819994648	50.9455648015406	near	V3
3	4.0	ltm	455	diff_vonmises	-0.001086764292943	-0.0622670073111585	2.7364015917963465	0.9975415958791248	0.1737552074373777	3.426140292238728	-0.0241698618327613	-0.5014960561228903	0.4773261942901289	73.62166674071852	near	V4
4	5.0	ltm	455	diff_vonmises	-0.1008414402617092	-5.777788927016553	1.698519453524956	1.0808131837511472	3.060848346446114e-18	2.22180241713453	0.1512802340462481	-0.3367105715126511	0.4879908055588993	104.61235407868026	near	V3ab
5	6.0	ltm	455	diff_vonmises	0.4128803470323829	23.65630132885233	0.8675948491967667	169.4991137345221	0.8562669184980318	170.32784352396422	0.1057006262375921	-0.223044395705358	0.3287450219429502	91.01040331838652	near	IPS0
6	7.0	ltm	455	diff_vonmises	0.1777805235545235	10.18607367930032	2.6720191706411494	0.572343658739952	1.1733619804506102e-17	2.239097139190941	-0.0056754421898942	-0.3546882547645679	0.3490128125746737	84.1187648920064	near	LO1
0	1.0	ltm	456	diff_vonmises	-0.1192680159353605	-6.833553943995204	8.2349114033885	0.214661821596992	2.466006353155148e-19	2.8823930228303083	-0.2169657534423337	-0.4587470805072104	0.2417813270648767	47.35731231090085	near	V1
1	2.0	ltm	456	diff_vonmises	0.1644004713670181	9.419453159291471	5.768220428428336	0.5517198903038107	0.3093231286243986	1.6844969180943186	0.1592915744295943	-0.2800755468332698	0.4393671212628641	52.43038245072324	near	V2
2	3.0	ltm	456	diff_vonmises	0.1518673535110115	8.701358402002244	4.87883290840952	0.5653165406309634	0.617139924248239	0.9993387689053944	0.2151759518142125	-0.1597244925924795	0.374900444406692	55.11144519718465	near	V3
3	4.0	ltm	456	diff_vonmises	0.0336583057982116	1.928478867798233	1.3030380184136894	143.20374799736135	1.2779377169627573	144.68917642571765	0.0700025702634903	-0.3826359441362008	0.4526385143996911	71.4909399159533	near	V4
4	5.0	ltm	456	diff_vonmises	-0.171112869378381	-9.804045235754574	1.877242105434196	0.8357400890724399	5.566023788914512e-25	1.7885191858603744	0.130255530174298	-0.2749374314209385	0.4051929615952366	99.90639458104856	near	V3ab
5	6.0	ltm	456	diff_vonmises	0.2753636813674878	15.77717677354224	1.0089177093406991	113.90273372315974	0.9940102425786792	114.60669528675564	0.0814182648202219	-0.1860186038765761	0.267436868696798	83.8182128929792	near	IPS0
6	7.0	ltm	456	diff_vonmises	0.097722433651687	5.599083011988874	3.040118997244625	0.492024457693398	0.0611974960575864	1.7342135409760304	0.0315256244187939	-0.2645483210541683	0.2960739454729622	75.10532223417209	near	LO1
0	1.0	ltm	457	diff_vonmises	-0.0508051302527849	-2.910919541096992	6.257840652948919	0.5889884526232776	0.1481677785982701	4.2528135361978165	-0.2056284283239916	-0.7012180333271136	0.495589605003122	50.49975502853698	near	V1
1	2.0	ltm	457	diff_vonmises	0.0290393923808811	1.6638346230488503	2.1871591890497126	2.4274266990893243	0.7229565551693442	3.982147012680851	0.1709136197805123	-0.4164407829887348	0.5873544027692472	70.49371758103823	near	V2
2	3.0	ltm	457	diff_vonmises	0.0169641557565142	0.9719745278508268	4.124758310707953	0.704441798117286	0.0665491378913989	1.6031407443656749	0.2783511552933065	-0.2475965136333476	0.5259476689266541	65.68004108917137	near	V3
3	4.0	ltm	457	diff_vonmises	-0.0947964530496042	-5.431436672552384	2.285439562776081	1.6941620863452715	0.2237312871353921	3.464087232880207	0.2657870777222268	-0.4606393815860411	0.726426459308268	80.93199852686135	near	V4
4	5.0	ltm	457	diff_vonmises	-0.0183726722068886	-1.0526765758320271	2.08653959718518	1.265099655078356	1.2676223698694387e-14	1.9049854106525852	0.366350692050235	-0.2928737507910456	0.6592244428412808	95.07427550958928	near	V3ab
5	6.0	ltm	457	diff_vonmises	0.2987279346936168	17.115849880603925	0.8462839963931014	69.2287527174631	0.8257762916485686	69.49743126289218	0.1880902883040285	-0.1361475410948953	0.3242378293989238	98.49920292794673	near	IPS0
6	7.0	ltm	457	diff_vonmises	0.0479377388274749	2.7466301142147285	0.2916362369689513	92.5092787388361	0.2743706261454585	93.46392872057814	0.0881724598063726	-0.3274134673398592	0.4155859271462319	145.57923176683784	near	LO1
0	1.0	ltm	458	diff_vonmises	-0.0499881179597159	-2.8641081848938343	6.902109206527191	0.4053928476017137	0.0565793755008286	3.103701523134261	-0.1057068220385029	-0.4987888772711285	0.3930820552326255	50.16952644157632	near	V1
1	2.0	ltm	458	diff_vonmises	0.143916721589631	8.245820748445155	5.892685283702475	0.693432685180739	0.4110396432677692	1.8047589358180625	0.2403979809277432	-0.3059190051439295	0.5463169860716728	51.400225623374894	near	V2
2	3.0	ltm	458	diff_vonmises	0.0906622335233007	5.194563342114623	3.706980105145546	0.719305939643886	0.5332280258218125	1.2430977477230871	0.2159653476998798	-0.1780245578900249	0.3939899055899047	62.4477529606084	near	V3
3	4.0	ltm	458	diff_vonmises	-0.0254051026060226	-1.4556051574219082	1.5622989542735988	4.116281685783609	0.8027192040735351	5.461523176812754	0.1663008444410003	-0.3612397487445873	0.5275405931855877	77.71686985141179	near	V4
4	5.0	ltm	458	diff_vonmises	-0.0414123279338507	-2.3727516104213704	2.059819841672427	0.9779887714525234	3.3654248974489904e-14	1.5447131112409576	0.2677149641073206	-0.2375024003851379	0.5052173644924586	95.66573421400122	near	V3ab
5	6.0	ltm	458	diff_vonmises	0.4323586982032193	24.77232864281496	0.9219829818743472	109.4637338718306	0.9091446995225374	109.84105544439932	0.1450110165514573	-0.1379026643994727	0.28291368095093	92.11152417380416	near	IPS0
6	7.0	ltm	458	diff_vonmises	0.0270185190404225	1.5480471097100674	1.212333786240026	0.9826177282408636	8.110331205537065e-17	1.8648837488114067	0.0779638525178528	-0.2636330555007746	0.3415969080186274	120.23208720747104	near	LO1
0	1.0	ltm	459	diff_vonmises	0.3259110173573581	18.673325791391537	0.0002239846554988	3446.703019907717	1.3568582735358081e-24	3447.4172600445786	0.0091990167867379	-0.2365349539702492	0.2457339707569872	176.64378893536576	near	V1
1	2.0	ltm	459	diff_vonmises	0.1171287682574836	6.7109840807196965	8.921274316733733	0.2265975662642986	0.1632813427251993	0.7597211813219115	0.1245680759028652	-0.1273393342913871	0.2519074101942524	44.14551217201367	near	V2
2	3.0	ltm	459	diff_vonmises	0.1061826024452728	6.083814977829632	3.380561725919276	0.7405758803721958	1.2292971565632644	0.8792336573704386	0.180774228415547	-0.0944910295381031	0.2752652579536502	59.995878206698166	near	V3
3	4.0	ltm	459	diff_vonmises	0.1541245495286416	8.830686207346186	2.250773523916753	64.64130108855043	2.200757766816729	65.17972979056958	0.1832137970938063	-0.2349274168360349	0.4181412139298412	57.09107100212714	near	V4
4	5.0	ltm	459	diff_vonmises	-0.0211778259865495	-1.2134000482917686	1.1929631904803977	1.0962789335253258	1.8313391665005093e-12	1.3503819342149563	0.1992908384104918	-0.1768103992220931	0.3761012376325849	120.95730173471831	near	V3ab
5	6.0	ltm	459	diff_vonmises	0.3744101821075659	21.452123241488096	0.9368599535007202	75.770826641596	0.9206919261673128	76.05181452944247	0.1411575314198003	-0.1152192396889466	0.256376771108747	92.3654022392189	near	IPS0
6	7.0	ltm	459	diff_vonmises	0.0698550787696983	4.002401191057632	1.639211601404203	1.0393893784195396	0.2195552614069306	1.44236654275104	0.1926462620920023	-0.1654348802685799	0.3580811423605823	95.96995889549768	near	LO1
0	1.0	ltm	460	diff_vonmises	-0.1335254965432632	-7.650447409317644	8.15454408195751	0.3201493143591561	0.0815763870483556	3.970326902745106	-0.3257378369984834	-0.6510470993342109	0.3253092623357274	45.204293089415216	near	V1
1	2.0	ltm	460	diff_vonmises	0.041023148185706	2.3504532533807194	3.7110085009006193	0.9174209267989	0.3478182024329182	2.5162674638409195	0.1265970794892849	-0.3821398616560404	0.5087369411453253	62.44340436850234	near	V2
2	3.0	ltm	460	diff_vonmises	0.0370701195258527	2.1239613948768694	4.857471486942126	0.537537691085124	0.0682468746000032	1.1944965634299878	0.2556727150742036	-0.1864470589288129	0.4421197740030165	60.67402214963647	near	V3
3	4.0	ltm	460	diff_vonmises	-0.0934092910181958	-5.35195814265189	1.410881981293127	4.7449465756563	0.6779133855499541	6.521015564544655	0.1524383112543657	-0.4477428851617731	0.6001811964161388	82.1454062437283	near	V4
4	5.0	ltm	460	diff_vonmises	-0.0637328482106742	-3.6516232188195374	2.5668233314134765	0.968397767678481	7.899996711993816e-19	1.880712033934226	0.2802792299601392	-0.2959075138550451	0.5761867438151844	85.85315630604538	near	V3ab
5	6.0	ltm	460	diff_vonmises	0.2793252746643421	16.004159349599306	0.8224870780029522	100.69931238631914	0.807711297881373	101.23616010899036	0.1203084096841848	-0.1665570803753748	0.2868654900595597	95.7458810093966	near	IPS0
6	7.0	ltm	460	diff_vonmises	0.0415794286883121	2.3823257784054617	0.7386456336561529	135.00423209498632	0.725388404291952	136.01777850899433	0.0481959046791971	-0.2452741837055363	0.2934700883847334	96.35223664539024	near	LO1
0	1.0	ltm	461	diff_vonmises	0.1153718768713836	6.61032161923328	0.5564701201299697	51.18526140988428	0.5327975165655988	52.53737523879917	-0.1140265051033821	-0.257939749704235	0.1439132446008528	100.03100054519422	near	V1
1	2.0	ltm	461	diff_vonmises	-0.0068141480791897	-0.3904219259147477	11.368497507016276	0.2860739748264015	0.1775725180743282	1.0701364837717602	0.1784745612749349	-0.184114640141481	0.3625892014164159	39.18973413358731	near	V2
2	3.0	ltm	461	diff_vonmises	-0.0213941645993424	-1.2257953377505142	1.969774371572183	46.50585230244745	1.9286994607972887	46.66922403291447	0.2190352858047113	-0.1182184095351166	0.3372536953398279	64.69670031111355	near	V3
3	4.0	ltm	461	diff_vonmises	-0.0781587941694845	-4.47816903774317	1.5752560312909112	177.61506849991338	1.5602434567404295	178.4194637606974	0.1028891423277116	-0.2435843450466848	0.3464734873743964	66.34228966821615	near	V4
4	5.0	ltm	461	diff_vonmises	-0.0386091487620996	-2.2121412746610543	2.608789995371237	0.794824436218594	5.801035808185657e-18	1.3314338841541449	0.2683560055918138	-0.2093009733138695	0.4776569789056833	85.1557009840385	near	V3ab
5	6.0	ltm	461	diff_vonmises	0.0586359689058603	3.3595935459661264	0.7144959153363136	107.70156886778445	0.7024188451353062	108.15715680449654	0.1181480352402566	-0.1547592105024549	0.2729072457427115	103.52177202729206	near	IPS0
6	7.0	ltm	461	diff_vonmises	-0.10051536467803	-5.759106172269472	1.258320092398037	147.81656555134578	1.243418816936521	148.48315936807862	0.1456147791251965	-0.2039688185644657	0.3495835976896622	76.42296399352901	near	LO1
0	1.0	ltm	462	diff_vonmises	-0.2321876748970438	-13.303373826556262	8.370752104596972	0.1709909512467377	1.995236333593765e-31	3.6532469543381305	-0.3872179967427336	-0.5814323007037812	0.1942143039610475	46.96832408220246	near	V1
1	2.0	ltm	462	diff_vonmises	0.015226481594405	0.8724131321930371	9.710534649772706	0.4273920019349202	0.0838007109080072	2.0985364995560687	0.1615707970832287	-0.3437510022548976	0.5053217993381263	42.67815787178404	near	V2
2	3.0	ltm	462	diff_vonmises	-0.0258526334199518	-1.4812467842621042	4.101966789440222	0.5730055492221692	0.2127226191877587	1.2246728270321563	0.2081724296386108	-0.1857776003271811	0.393950029965792	63.41291814203467	near	V3
3	4.0	ltm	462	diff_vonmises	-0.0847561413682435	-4.856169188214516	1.0272434242319055	147.77453262928458	1.003109327911089	149.5757868122372	0.0571835519434529	-0.4274846900063984	0.4846682419498513	80.4854469783015	near	V4
4	5.0	ltm	462	diff_vonmises	-0.0842262640530395	-4.825809454393605	2.730316938329947	0.8861385515523706	1.0570339102008343e-14	2.112218553097187	0.2136296513925049	-0.3338328429863701	0.5474624943788751	83.22052788446643	near	V3ab
5	6.0	ltm	462	diff_vonmises	0.3260844894930804	18.683265012631548	0.6002366752267987	142.59024538813676	0.5890548328064351	143.60744589364765	0.0335941138143525	-0.2498004993012923	0.2833946131156448	106.85356257539644	near	IPS0
6	7.0	ltm	462	diff_vonmises	0.0699931763688634	4.010313600650683	1.077399293501447	165.12772671094987	1.0624674208513407	166.359588744779	0.0277794080257507	-0.2919450527797806	0.3197244608055314	77.92030695553612	near	LO1
0	1.0	ltm	463	diff_vonmises	-0.0716737349397778	-4.106602513988617	4.251373079101066	0.2975652470138401	1.6191233310112964e-19	2.669933154645595	-0.1884388454503725	-0.4248850714499464	0.2364462259995738	66.35135813627693	near	V1
1	2.0	ltm	463	diff_vonmises	0.0601375483719364	3.445627711975791	6.165524933052412	0.5193907025409988	0.2174939157244609	1.7296957485233466	0.1648978409481483	-0.2845130828408221	0.4494109237889705	51.77256583820332	near	V2
2	3.0	ltm	463	diff_vonmises	-0.0060486441943089	-0.3465617841102104	2.897949257282773	1.0651164002968916	0.7199031600402224	1.6560074293512883	0.2063938288497344	-0.2011325954569758	0.4075264243067102	66.16649368017553	near	V3
3	4.0	ltm	463	diff_vonmises	-0.0714192565834492	-4.09202197819356	1.1962774988138132	157.80574183447436	1.1758167576380147	159.12804113997575	0.1022374926045941	-0.3428888378707029	0.445126330475297	75.66645989216795	near	V4
4	5.0	ltm	463	diff_vonmises	-0.055235172475345	-3.164742263514446	2.075670613746842	1.0142762802629357	4.0855810338921074e-17	1.8977767252011752	0.233063151481594	-0.2936161110472368	0.5266792625288308	95.31012146341516	near	V3ab
5	6.0	ltm	463	diff_vonmises	0.2554099654818602	14.633913067692632	0.6098969819622614	129.8809824215769	0.598123366623986	130.64961139146558	0.0856884686255341	-0.2191583677014943	0.3048468363270284	109.16195135052118	near	IPS0
6	7.0	ltm	463	diff_vonmises	-0.0367238600377255	-2.104122187590816	0.8635820268167512	140.9335242305134	0.8477756471088047	142.03248700343835	0.0812857287389192	-0.2736839864768559	0.3549697152157751	89.73914295972352	near	LO1
0	1.0	ltm	464	diff_vonmises	0.1688018986676977	9.671636367454072	0.5216088076835029	59.68702655710008	0.5033058440834118	61.178641510059165	-0.1643958952348398	-0.2685091787421703	0.1041132835073304	96.97039559338174	near	V1
1	2.0	ltm	464	diff_vonmises	0.0327122108739277	1.87427162161802	8.896737516508491	0.3314918670707756	0.3279854792767112	1.1233267503960505	0.1469542551587911	-0.201413357402593	0.3483676125613842	43.053642772836696	near	V2
2	3.0	ltm	464	diff_vonmises	0.0993283199842671	5.691093521223456	2.435129047563773	18.382433225978936	2.346135688945645	18.39360653958999	0.226004054958576	-0.0813053492182001	0.3073094041767761	60.10330813864718	near	V3
3	4.0	ltm	464	diff_vonmises	0.0176818057706846	1.013092844830297	1.6727226237593729	127.98223583927044	1.6504506669465258	128.75910934003124	0.1247519688542695	-0.2492943468946151	0.3740463157488847	64.84769067005578	near	V4
4	5.0	ltm	464	diff_vonmises	-0.0332768363186975	-1.9066222766090224	3.1912170330243894	0.6691141611019563	3.482383848775568e-15	1.0547179896196597	0.2860055366956789	-0.1670960815541903	0.4531016182498693	76.8710661963677	near	V3ab
5	6.0	ltm	464	diff_vonmises	0.1816636941851024	10.408562967561643	0.940478351060159	72.84125449827901	0.9255364750439156	73.07231620110828	0.1312136902259517	-0.1005139777089407	0.2317276679348925	92.55060959456247	near	IPS0
6	7.0	ltm	464	diff_vonmises	-0.0005479033716652	-0.031392550777405	1.2496271023610237	104.62110221167634	1.2336332604332385	105.09851361143564	0.1231574438905198	-0.1518385834492441	0.274996027339764	77.27112171250013	near	LO1
0	1.0	ltm	465	diff_vonmises	0.0292562873934924	1.676261791868911	6.880497122866379	0.3502359101533099	0.0751359145361853	1.8062498390528536	0.0498282086100879	-0.2907180583566435	0.3405462669667314	50.37383468641278	near	V1
1	2.0	ltm	465	diff_vonmises	0.1006042609921544	5.764199555883067	1.639878585195236	44.63265372664807	1.5769233711140933	45.26396579664432	0.1983159718363119	-0.2278826306627879	0.4261986024990998	67.86888364120676	near	V2
2	3.0	ltm	465	diff_vonmises	0.0162687896718105	0.9321329859807675	1.881182727241188	83.0432857233515	1.8484349580373929	83.38607685267732	0.269402605488743	-0.1830797902113161	0.4524823957000592	65.08670383150826	near	V3
3	4.0	ltm	465	diff_vonmises	-0.0969861902854861	-5.556899374411063	1.5287162205042517	182.52127506601065	1.5119296930499868	183.24959857815605	0.2166637925263899	-0.253723476987691	0.4703872695140809	69.79428027554184	near	V4
4	5.0	ltm	465	diff_vonmises	-0.0360333043508111	-2.064556261211863	1.985237196175756	1.0579762863035571	1.4166056286737757e-19	1.3529524645476922	0.3280252680475171	-0.2050789485749362	0.5331042166224533	97.36064215629544	near	V3ab
5	6.0	ltm	465	diff_vonmises	0.0292832762397758	1.6778081388548771	1.6708608025405924	0.7566158864468432	5.984360545361847e-16	0.9018439883308388	0.2063922666751518	-0.1311533202535174	0.3375455869286692	105.40189740602592	near	IPS0
6	7.0	ltm	465	diff_vonmises	-0.1633506772946433	-9.359304389586546	0.6986903342901759	88.90560080393286	0.6764500419208077	89.64334961183164	0.1700175223301023	-0.2433206970343757	0.4133382193644781	104.67080723554524	near	LO1
0	1.0	ltm	466	diff_vonmises	-0.0414254680824469	-2.373504485478112	4.788261972202385	0.3600108211187492	0.0242704064840426	2.762239189327029	-0.1453425782140096	-0.4370392804468379	0.2916967022328283	60.88089134358202	near	V1
1	2.0	ltm	466	diff_vonmises	0.0420518702433018	2.40939468557297	1.8912242571040672	2.5967268413519524	0.8096341076052584	3.843373708014426	0.1208638795575405	-0.3306306909013358	0.4514945704588763	72.30812164270623	near	V2
2	3.0	ltm	466	diff_vonmises	0.1102447914301433	6.316561262247241	6.676426582941124	0.4531159655151176	2.6166197346849693e-22	1.1443774274200902	0.2754576567942324	-0.1821325974017942	0.4575902541960267	52.68511895976639	near	V3
3	4.0	ltm	466	diff_vonmises	-0.0908675274496629	-5.206325817654841	2.128274479885085	1.6262300057198005	0.4679745026448014	3.017875681049511	0.1443564238064683	-0.3514514377056345	0.4958078615121028	76.05772040493417	near	V4
4	5.0	ltm	466	diff_vonmises	-0.0292751519061442	-1.677342648826433	1.9262271981289496	1.150510221292295	1.3778071165457926e-18	1.6701502596439168	0.3143493728931117	-0.2534964859197191	0.5678458588128309	98.75955718057128	near	V3ab
5	6.0	ltm	466	diff_vonmises	0.2183170203393384	12.50864386131584	0.9501741591771444	55.4831624304268	0.924242332693169	55.69538907442428	0.2039655187803752	-0.1248236007240652	0.3287891195044405	93.85208980166752	near	IPS0
6	7.0	ltm	466	diff_vonmises	0.0359269741818539	2.058463991295704	0.4810540270931703	104.84534664398892	0.4640088157631046	105.81220674740206	0.1004422011249559	-0.2981501895744092	0.3985923906993651	123.064509156622	near	LO1
0	1.0	ltm	467	diff_vonmises	-0.0403673060785476	-2.312876268613576	2.5942854680940823	0.4059553218435116	1.1023598560538288e-20	2.776679242252903	-0.1974321976868418	-0.440557872929001	0.2431256752421591	85.39509620499234	near	V1
1	2.0	ltm	467	diff_vonmises	0.0674362651888142	3.863813381444049	6.044350111889261	0.5328868924623549	0.2391955609415907	1.8771628066863075	0.1367411350292097	-0.3105342887754735	0.4472754238046832	51.808156497553625	near	V2
2	3.0	ltm	467	diff_vonmises	0.0268487993391333	1.538322887125976	4.020800152023413	0.4934220632982714	0.13302281580688	1.1604709103021753	0.1703556279682852	-0.1770984746350055	0.3474541026032908	65.09389578604245	near	V3
3	4.0	ltm	467	diff_vonmises	-0.0599249813525609	-3.433448518901902	2.53287090944372	1.0116554102723831	0.3349064868715881	2.482749531421556	0.0636160325142123	-0.3366798458472606	0.4002958783614729	72.7718687117235	near	V4
4	5.0	ltm	467	diff_vonmises	-0.0074579696996717	-0.4273101875276385	1.9462879416421817	1.0916853658697083	1.4915688925150038e-17	1.717490358065588	0.2806058078051732	-0.2620492350274942	0.5426550428326674	98.2831077407408	near	V3ab
5	6.0	ltm	467	diff_vonmises	0.3621184258030983	20.74785748243878	0.7322335388058319	130.71447588411172	0.7209062181298551	131.14647364449374	0.1578379495262538	-0.1665245895911393	0.3243625391173932	103.48630264419116	near	IPS0
6	7.0	ltm	467	diff_vonmises	0.0394524075370893	2.2604564435053405	0.7446941442515427	107.15347884163886	0.7263359347218181	108.12894921771236	0.0929234155454175	-0.2557088378827092	0.3486322534281267	97.92460436854712	near	LO1
0	1.0	ltm	468	diff_vonmises	-0.0338124363949572	-1.9373099004855905	2.3498868111663254	0.5065891198316883	3.352971702636409e-20	3.05043503348086	-0.1976447671063817	-0.4828731654017295	0.2852283982953478	89.71230789920628	near	V1
1	2.0	ltm	468	diff_vonmises	0.1570897915916125	9.000582062789086	7.602454234458696	0.4948207487803709	0.2273910618343507	1.7788355493566137	0.1838936316871802	-0.3014997562937748	0.485393387980955	46.88719803750715	near	V2
2	3.0	ltm	468	diff_vonmises	0.1519230971027857	8.704552274545806	6.110286552773464	0.4045551357067578	0.1502830508853649	1.119187162191901	0.1841823336449613	-0.1799498602558715	0.3641321939008329	53.11327061045219	near	V3
3	4.0	ltm	468	diff_vonmises	0.0313076672758027	1.7937972013033368	2.927892147030471	0.9079449499154292	0.3329207822931013	2.6038083953765674	0.0240253040840831	-0.3751191704827931	0.3991444745668762	67.94053837953012	near	V4
4	5.0	ltm	468	diff_vonmises	-0.0628541742926477	-3.601278911748391	1.679888965932768	1.04534288584223	4.9876721153346723e-17	1.77358144132535	0.2027653642550146	-0.2654211638437768	0.4681865280987915	105.14562734929224	near	V3ab
5	6.0	ltm	468	diff_vonmises	0.4021437130982149	23.04113751824756	0.886330662917233	147.50989300835317	0.8752426794352358	148.04019511706105	0.1431368726226694	-0.1715654896490459	0.3147023622717153	92.66277464274626	near	IPS0
6	7.0	ltm	468	diff_vonmises	0.0765767202214094	4.387522877640866	1.8759397308175525	0.7362837527721018	2.2633813908385557e-13	2.0335455012405905	0.0417171309830416	-0.3150716332187744	0.3567887642018161	99.9775151160755	near	LO1
0	1.0	ltm	469	diff_vonmises	-0.1139563716601861	-6.529219144752891	11.933565881930424	0.166718708334308	3.07962185812111e-17	3.834366013067001	-0.3830911255525328	-0.6102583045933738	0.227167179040841	39.262280506446416	near	V1
1	2.0	ltm	469	diff_vonmises	0.1148165134761129	6.578501640588213	6.757325196462733	0.5070281061041506	0.196519733825342	1.9693706598601577	0.137384099840475	-0.326917276415988	0.464301376256463	49.60937941184602	near	V2
2	3.0	ltm	469	diff_vonmises	0.1255658983809586	7.194396027997505	4.557630683568268	0.5850391967502739	0.5005891400483709	1.1549158890671385	0.1976618237116778	-0.1810758769646536	0.3787377006763314	57.27489860829064	near	V3
3	4.0	ltm	469	diff_vonmises	-0.0618955976206354	-3.5463565141023934	1.0283455261300227	179.31777206899056	1.0083287865892852	181.35152719793487	-0.0203027656234411	-0.4576162644153534	0.4373134987919123	78.36888250476343	near	V4
4	5.0	ltm	469	diff_vonmises	-0.148427880842234	-8.504291134330694	2.5598506999845103	0.7505894212051082	5.017676520516926e-21	2.031222442294527	0.1252262580435098	-0.3205974997451349	0.4458237577886447	85.96474754733293	near	V3ab
5	6.0	ltm	469	diff_vonmises	0.2267498824067164	12.991811266992572	0.8872494816182085	141.32055127809377	0.8739950294145366	142.32882148938782	0.0366624275720184	-0.2373959028463943	0.2740583304184127	86.93068654042938	near	IPS0
6	7.0	ltm	469	diff_vonmises	0.109906221278008	6.297162621460787	2.1666577971769407	1.1580026982421228	0.4666286904465965	2.7712750453239026	-0.0396655456652834	-0.3489583957080898	0.3092928500428064	71.70209047086055	near	LO1
0	1.0	ltm	470	diff_vonmises	-0.014177066019137	-0.8122860487748854	3.130515956605732	0.3930293196636627	6.519874004834055e-16	2.913115646283553	-0.1999208094507391	-0.4631332318359037	0.2632124223851646	77.62890738750374	near	V1
1	2.0	ltm	470	diff_vonmises	0.1756918776608685	10.066403084696557	6.064121170494861	0.5504082140150444	0.3065626633834801	1.7421047162004988	0.1605392231304772	-0.2923918885433509	0.4529311116738281	51.24368442163254	near	V2
2	3.0	ltm	470	diff_vonmises	0.1814195505597419	10.394574568233462	6.988320356337804	0.4064241228676785	0.2285701123029223	1.0319068566402765	0.2165718223455728	-0.1713040645065763	0.3878758868521491	49.33694927847719	near	V3
3	4.0	ltm	470	diff_vonmises	0.0244322144172919	1.3998627702695123	2.275208078309097	1.3477791830503645	0.5299189635217615	3.04258357647402	-0.0165490430903465	-0.3808955077658063	0.3643464646754598	69.72634352585877	near	V4
4	5.0	ltm	470	diff_vonmises	-0.1060590908241459	-6.076738283218238	1.7721425764835723	0.9445483118797654	2.9472021722434386e-15	1.692649657267986	0.1833946431568582	-0.2563127992125	0.4397074423693583	102.6240528931247	near	V3ab
5	6.0	ltm	470	diff_vonmises	0.2876847283382846	16.48312076415134	1.0050918687961148	125.60639454085552	0.9920929615017678	126.08927234623012	0.1446034990711666	-0.1588857107604369	0.3034892098316035	87.19073970094763	near	IPS0
6	7.0	ltm	470	diff_vonmises	0.0575185433331363	3.295569776729051	2.1888345594695986	0.6244279588688115	0.0160803152288191	2.0244854866331194	0.0126868162323839	-0.3127766839954436	0.3254635002278276	91.3916957324461	near	LO1
0	1.0	ltm	471	diff_vonmises	-0.114140934986782	-6.539793844419727	0.6505272332618418	1.2410530064905567	1.0395946381562348e-17	4.483935378608212	-0.3721835033034934	-0.6206767711493107	0.2484932678458173	144.3658650798535	near	V1
1	2.0	ltm	471	diff_vonmises	0.0264356411232756	1.514650665086174	15.353383652549963	0.3590268328921578	0.0391765814949513	2.3123873827058627	0.1736269039718384	-0.3754617245123066	0.549088628484145	34.321812023117445	near	V2
2	3.0	ltm	471	diff_vonmises	-0.0924229734699896	-5.295446309879982	4.388442831498219	0.4137389026852717	2.5923287568859387e-16	1.5247882190724074	0.091823134911742	-0.2426259768848534	0.3344491117965955	65.28241335611736	near	V3
3	4.0	ltm	471	diff_vonmises	-0.1040739621640551	-5.962998789204578	2.612762979192652	0.6930737928496956	0.0886127073598149	2.9050357917771645	-0.0850424671910279	-0.4353518014294606	0.3503093342384327	78.00372645517234	near	V4
4	5.0	ltm	471	diff_vonmises	-0.0088837329670207	-0.5090004053315204	1.6171459596943172	1.4402496312475324	0.0825040439701492	2.683034516998962	0.1900054953319922	-0.3668127177204274	0.5568182130524197	101.44954069755144	near	V3ab
5	6.0	ltm	471	diff_vonmises	0.7319665829565835	41.93859594802469	0.1609587373156549	132.34646914010833	0.1488062645883913	133.62932944334275	0.0385069338506696	-0.4097375218125982	0.4482444556632678	150.3912854083081	near	IPS0
6	7.0	ltm	471	diff_vonmises	0.1108711067668176	6.352446487682993	1.050721082762378	184.0988188048009	1.0334714217207086	185.85044024501968	-0.0112640532485102	-0.3980026530892395	0.3867385998407293	77.62433296965617	near	LO1
0	1.0	ltm	472	diff_vonmises	0.4310099145725146	24.695049033299245	0.0747829456333571	30.786835183888435	0.058003740044531	30.785252871242196	0.0851161318996682	-0.0791608756590962	0.1642770075587645	167.46277127635176	near	V1
1	2.0	ltm	472	diff_vonmises	0.1995088732380563	11.431016411951166	4.274079886460277	11.73189264220505	4.142899926878869	11.731306103872036	0.1572288781976123	-0.0617002103663202	0.2189290885639325	44.777224800774746	near	V2
2	3.0	ltm	472	diff_vonmises	-1.0979427361630107	-62.90748492918618	2.4536693670110923	116.2465629303067	2.472433983484179	115.7736014727043	0.1800131640796181	-0.0277468028356224	0.2077599669152405	54.292458790471045	near	V3
3	4.0	ltm	472	diff_vonmises	0.2602724567129795	14.912513293155136	3.6513269649126303	70.19542314496249	3.6043549133439816	70.3939975749242	0.2221932360962668	-0.1745213728712897	0.3967146089675566	45.89767654817274	near	V4
4	5.0	ltm	472	diff_vonmises	0.0316696304303391	1.814536162397514	2.9921197633364165	0.4908756100118785	1.2030240482589828e-11	0.2624444207035095	0.279246597725807	-0.0409609423229058	0.3202075400487128	79.44128738297161	near	V3ab
5	6.0	ltm	472	diff_vonmises	0.273819914485	15.688725446623618	1.306671989027953	30.812265237884397	1.2857289612408975	30.703979380748667	0.1601270817657045	-0.0322013868888493	0.1923284686545538	86.38992174349835	near	IPS0
6	7.0	ltm	472	diff_vonmises	0.0088229371790042	0.5055170632660066	1.3098323455849517	55.38956410942296	1.289185834858774	55.434722199855685	0.1900075190183798	-0.0747579156406068	0.2647654346589867	81.76999160473346	near	LO1
0	1.0	ltm	473	diff_vonmises	0.0713478705577134	4.08793186020269	9.481504890275154	0.4830035680798173	0.2072960340289304	3.999659479522388	-0.1897546551912784	-0.7002169816479528	0.5104623264566743	41.14028661665228	near	V1
1	2.0	ltm	473	diff_vonmises	0.1069295513410897	6.126611997071897	6.176972449446621	0.6329645503437981	0.4165061376897262	1.709430915412284	0.2184665773530426	-0.293839080890142	0.5123056582431846	50.22209553469639	near	V2
2	3.0	ltm	473	diff_vonmises	0.0414893695874753	2.3771657720207724	1.8370922826327245	93.12034050207794	1.806457027928779	93.61276816810584	0.2253193443837844	-0.2097515032075758	0.4350708475913603	64.4902192479978	near	V3
3	4.0	ltm	473	diff_vonmises	-0.2009977509143125	-11.516322819011894	1.1405862930064825	244.44737646360875	1.125746527920601	246.0544219780044	0.0891742752976085	-0.4016833290571497	0.4908576043547583	76.82998110022746	near	V4
4	5.0	ltm	473	diff_vonmises	-0.1033954974066132	-5.92412562205479	3.2446650397809664	0.7760404141908391	9.912419166572569e-16	1.8659025870060348	0.2343817429806221	-0.2961601946809964	0.5305419376616185	76.21724365624345	near	V3ab
5	6.0	ltm	473	diff_vonmises	0.1161883860769657	6.657104150646714	0.657544239422751	111.38871617749112	0.6429853692340802	112.38100234874447	0.0366238911821668	-0.2403824735419313	0.2770063647240981	102.07504857463512	near	IPS0
6	7.0	ltm	473	diff_vonmises	-0.0360146259295148	-2.063486066503617	1.0386908752164483	158.1178721394451	1.0222601361815251	159.65167352841664	-0.0404708931216504	-0.339063305006583	0.2985924118849326	76.93231010810405	near	LO1
0	1.0	ltm	474	diff_vonmises	-0.0817454290765098	-4.683668080570016	5.263074962939307	0.2643089578171939	1.3608968300655947e-11	1.7813932091953293	-0.0480070471910683	-0.2835112160810317	0.2355041688899634	59.48122704733146	near	V1
1	2.0	ltm	474	diff_vonmises	0.0938095529275521	5.374891460757857	5.9112280130367845	0.5395738697477186	0.4928572459056972	1.2746966823888712	0.1983814524353768	-0.2187390164445195	0.4171204688798964	50.90988449810644	near	V2
2	3.0	ltm	474	diff_vonmises	0.0232759455999881	1.3336134470554206	1.93966924835448	65.59373624546187	1.9093248227603965	65.78921961963331	0.2179465059699907	-0.12649400200615	0.3444405079761408	64.77586384673862	near	V3
3	4.0	ltm	474	diff_vonmises	-0.0257459842264304	-1.4751362355848527	1.5263580213096963	163.85219163346855	1.50892553218694	164.6192679019543	0.1643260443469216	-0.2479194679214309	0.4122455122683526	68.8793230204368	near	V4
4	5.0	ltm	474	diff_vonmises	-0.0212545873250651	-1.217798149018485	2.245215238750266	0.8792287218874962	1.839025772070222e-20	1.2639563266767928	0.2850500038984052	-0.1957114241249528	0.480761428023358	91.74933711024676	near	V3ab
5	6.0	ltm	474	diff_vonmises	0.2928572239604675	16.779482932852314	0.7063804801534096	88.10369966647568	0.6932185409786227	88.43021600399754	0.1285300175834116	-0.1323681652915835	0.2608981828749952	105.76157156295486	near	IPS0
6	7.0	ltm	474	diff_vonmises	-0.039860328621953	-2.283828600042428	0.901547251717675	106.4876380071264	0.8854882046487971	107.05183804309466	0.1452706182495404	-0.1793322578600378	0.3246028761095783	91.80336641649654	near	LO1
0	1.0	ltm	475	diff_vonmises	-0.2875343517471654	-16.474504820142645	0.0002908912089572	2145.1327086457363	5.6996469619179786e-30	2147.278307051929	-0.2421660535437695	-0.4407846883099751	0.1986186347662055	177.6335190676609	near	V1
1	2.0	ltm	475	diff_vonmises	0.0004017861451498	0.023020650383916	16.62714918492618	0.2648158701956688	0.0138892506235364	1.6372646928136452	0.1632464888653659	-0.2623246257785581	0.425571114643924	33.120781255720374	near	V2
2	3.0	ltm	475	diff_vonmises	-0.039666552874851	-2.272726067561487	3.4649641696052704	0.6470801968199282	0.4547725482254656	1.3198833190564694	0.1450828271873529	-0.1898697791182537	0.3349526063056067	64.09395764145813	near	V3
3	4.0	ltm	475	diff_vonmises	-0.082920640779775	-4.751002751201495	1.1280765231182226	125.76098400169498	1.10665381802747	127.2662715469052	-0.0412572822553301	-0.3401378141508893	0.2988805318955592	73.74508240865782	near	V4
4	5.0	ltm	475	diff_vonmises	-0.061737620332581	-3.5373050822379497	2.018157122404651	0.9485347156930876	9.826179962176185e-14	2.086795047037418	0.1598584757588939	-0.3234329907931815	0.4832914665520754	96.60311003618352	near	V3ab
5	6.0	ltm	475	diff_vonmises	0.3231035800081506	18.512471480034552	0.4774914887356339	146.3278515802188	0.4666802004759858	147.4506164900248	0.0242620589279809	-0.28897502547483	0.3132370844028109	119.8024012322492	near	IPS0
6	7.0	ltm	475	diff_vonmises	-0.0040245683119299	-0.2305907786356778	1.2029362276694868	235.96424675768137	1.1898931351397788	237.34951653429104	0.0461923173495648	-0.3426161718277392	0.388808489177304	73.90797349115837	near	LO1
0	1.0	ltm	476	diff_vonmises	-0.0685247825145696	-3.9261808301366994	5.914491446526059	0.450298151349383	0.0877900285070416	3.0433715208709677	-0.1010054717017449	-0.4895644914114591	0.3885590197097142	53.31697050638007	near	V1
1	2.0	ltm	476	diff_vonmises	0.0736522859001547	4.21996513356977	2.985691927725845	1.3452860492084582	0.649011624601736	2.527638568382252	0.1839624328602961	-0.3333804940845786	0.5173429269448748	64.59349913056926	near	V2
2	3.0	ltm	476	diff_vonmises	0.0618298812922565	3.542591245841184	4.450659799578299	0.572751372250174	0.1799857989034458	1.1579115280826409	0.2476996486094354	-0.1776825683409111	0.4253822169503466	61.7507707185458	near	V3
3	4.0	ltm	476	diff_vonmises	-0.0478476656064241	-2.7414692988013725	2.3686041976623207	1.518324356859468	0.4116154286642299	2.789930987272905	0.2241245508626944	-0.3450523833218549	0.5691769341845494	75.28273862282333	near	V4
4	5.0	ltm	476	diff_vonmises	-0.0083069210161191	-0.4759515149721537	2.00897289902747	1.125858852060526	4.88667286623358e-21	1.5418928869152726	0.3369472873968325	-0.2349220656043645	0.571869353001197	96.81769558343235	near	V3ab
5	6.0	ltm	476	diff_vonmises	0.3534462118598144	20.250976224454107	0.9220716282178728	115.37903203551907	0.9109169376669372	115.56022885809443	0.1860570880224372	-0.1122247337182198	0.2982818217406571	95.0687716545344	near	IPS0
6	7.0	ltm	476	diff_vonmises	0.05428734778644	3.1104359091218883	0.3876140573255631	25.90231586804692	0.3306236123025959	26.623813825763023	0.1127063329069795	-0.2672634302378287	0.3799697631448082	137.15588212589398	near	LO1
0	1.0	ltm	477	diff_vonmises	-0.0384828016478788	-2.204902118262549	7.61945269798746	0.177390048016708	3.8439426171517163e-22	2.566585828320967	-0.2165715675768763	-0.4084847752114728	0.1919132076345965	49.26193747466115	near	V1
1	2.0	ltm	477	diff_vonmises	0.0593100730324198	3.3982168673703392	13.001990210474506	0.3454973678443767	0.1798468666596312	1.3830212063761909	0.23052958030307	-0.2405812078927086	0.4711107881957787	36.70910458009607	near	V2
2	3.0	ltm	477	diff_vonmises	0.0487006409465705	2.7903411858204943	1.9775546930304368	85.85867625348469	1.9490315210381344	86.22766439663994	0.1978035055836997	-0.1720224002373545	0.3698259058210542	62.33315835191533	near	V3
3	4.0	ltm	477	diff_vonmises	-0.1027124677104823	-5.884990903184384	1.3201657904589486	218.3083423975334	1.306258955675626	219.5688071278449	0.0481663106789227	-0.3237814762134618	0.3719477868923846	70.55311487159713	near	V4
4	5.0	ltm	477	diff_vonmises	-0.1163376936298306	-6.665658843275296	2.952404800526029	0.6943901665678818	2.319776313865539e-16	1.8163636951746025	0.1615575238773964	-0.2878545546819582	0.4494120785593546	79.98392283319077	near	V3ab
5	6.0	ltm	477	diff_vonmises	0.1422267626955163	8.148993236261786	0.6285186462083234	119.69416304793448	0.6158829748212287	120.83723805189156	-0.0201549307370996	-0.2499078289954717	0.229752898258372	101.00495127649516	near	IPS0
6	7.0	ltm	477	diff_vonmises	0.0255947149588801	1.4664691449841856	1.284604704632013	184.2269739328824	1.269115090666856	185.48373486090196	0.0282708131696125	-0.3141525938798217	0.3424234070494343	71.05178717917673	near	LO1
0	1.0	ltm	478	diff_vonmises	-0.0361683535800613	-2.0722940120744	7.588196154605594	0.3096871468884811	0.0561738913619156	2.849075851060695	-0.144925440508249	-0.4598593272016886	0.3149338866934396	47.7697398682252	near	V1
1	2.0	ltm	478	diff_vonmises	0.097335009379703	5.576885236323268	6.300406500660704	0.5916714408778977	0.3532946326899549	1.655230923031799	0.2159865286930246	-0.2813358696594348	0.4973223983524594	50.30722243948611	near	V2
2	3.0	ltm	478	diff_vonmises	0.0275266444442868	1.5771605508148732	1.7501441933222306	47.61261275323098	1.6974822472759357	48.03791255925627	0.2188080722353582	-0.1843710444817139	0.4031791167170722	66.78513825408322	near	V3
3	4.0	ltm	478	diff_vonmises	-0.0656323142369823	-3.760454605455476	1.244369086085915	229.29595169779927	1.229842094934766	230.50449751228192	0.1469508330070681	-0.3328959599083418	0.47984679291541	75.10665153179909	near	V4
4	5.0	ltm	478	diff_vonmises	-0.0662009430544386	-3.793034636805233	2.418881257935125	0.8883314916744742	7.232370967796142e-20	1.678128234145846	0.2463839199830673	-0.263013174831832	0.5093970948148994	88.43325496482942	near	V3ab
5	6.0	ltm	478	diff_vonmises	0.3132594625682756	17.94844509769858	0.6503895090110833	119.437190156337	0.6387566979592134	120.1252556030378	0.0761926463871915	-0.191605225173804	0.2677978715609956	105.46616463557156	near	IPS0
6	7.0	ltm	478	diff_vonmises	-0.0308737062614139	-1.7689330667056409	0.8478233261229482	93.72125884195326	0.8271209527100227	94.68199882197555	0.0736398530543311	-0.2404891189204878	0.314128971974819	90.85652162572056	near	LO1
0	1.0	ltm	479	diff_vonmises	0.045927131924703	2.631430824426029	1.5517811012677694	0.5383236153577172	4.215741358822438e-32	2.0050293646822115	-0.0810916729686928	-0.3084252254286719	0.227333552459979	108.86273814410396	near	V1
1	2.0	ltm	479	diff_vonmises	0.0627209062274408	3.5936432140681647	7.1257184273884455	0.4378723359991688	0.3311093320820835	1.3184986950601345	0.1730807352207861	-0.2281367556947724	0.4012174909155586	47.713719395261165	near	V2
2	3.0	ltm	479	diff_vonmises	-0.0150040646056827	-0.8596695774472407	1.927563257137908	1.7904387795489762	1.0472365647153952	2.0959406737073087	0.1683663870754982	-0.1270815948516313	0.2954479819271295	72.93887480372774	near	V3
3	4.0	ltm	479	diff_vonmises	0.0120034750818412	0.6877484616799537	2.3400858941201044	1.5285874298238549	0.8193294154174752	2.366717107794721	0.1390056206609199	-0.2444032444968633	0.3834088651577833	68.2736110290029	near	V4
4	5.0	ltm	479	diff_vonmises	0.0365355041387171	2.0933301895312413	1.730518001051949	1.1911372201466006	0.0752860073845936	1.4635566119785324	0.3120027308796598	-0.1980636008010233	0.5100663316806832	100.6507557604391	near	V3ab
5	6.0	ltm	479	diff_vonmises	0.3952989578213478	22.64896192908317	0.6932359825850868	109.7762509755877	0.682156526241416	110.00103219559546	0.1684812908751318	-0.131190807237008	0.2996720981121399	108.8163208578612	near	IPS0
6	7.0	ltm	479	diff_vonmises	0.028965499161238	1.659600853428666	0.7949878551742183	84.14093487791014	0.7753648653886038	84.62441054753813	0.1707711407699506	-0.1782927450543949	0.3490638858243455	99.34432664722225	near	LO1
0	1.0	ltm	480	diff_vonmises	-0.0786373119134809	-4.505586084896287	1.999911813354744	0.5860005348844857	5.7204975812463255e-15	4.0829829148820425	-0.3475483514269133	-0.6442886872389681	0.2967403358120548	97.01734619017	near	V1
1	2.0	ltm	480	diff_vonmises	0.1275161601576301	7.306137796746471	7.122812988417584	0.5161527083124077	0.1118528092776917	2.24187125471858	0.1413634439092865	-0.3646596860155564	0.5060231299248429	49.25177016585553	near	V2
2	3.0	ltm	480	diff_vonmises	0.1166031460735747	6.680868147963272	5.987006648239441	0.45318155837447	0.0510617466834034	1.5703972277823168	0.1693886816009517	-0.2490834013498225	0.4184720829507742	54.67442845747729	near	V3
3	4.0	ltm	480	diff_vonmises	-0.0860980046985562	-4.933052293724807	1.94279379543844	1.3545463761054573	0.2411596127411634	3.817299485010283	-0.0754876554946081	-0.5040287288346547	0.4285410733400465	81.40511943155241	near	V4
4	5.0	ltm	480	diff_vonmises	-0.0918972251704448	-5.265323151229888	1.5693057964953012	1.2097120486018431	2.3595252954749416e-21	2.402964007046566	0.156097426552684	-0.3591008662330927	0.5151982927857768	108.32319055691454	near	V3ab
5	6.0	ltm	480	diff_vonmises	0.3738886199433363	21.422239930724032	0.7726878511644021	178.07622814974889	0.7610600259522695	179.04374712992464	0.108781488480929	-0.2586932276220075	0.3674747161029366	96.32945760761854	near	IPS0
6	7.0	ltm	480	diff_vonmises	0.0726280533631519	4.161280931959532	2.151035201644161	0.7055445173341759	3.9062958192963175e-22	2.7432923871350536	-0.0563161302092359	-0.4314591082089715	0.3751429779997355	93.67707557298716	near	LO1
0	1.0	ltm	481	diff_vonmises	-0.0637770391039362	-3.65415517049636	4.947159975845045	0.4060647878488774	0.036530947052741	2.9040315507325065	-0.1291346946490323	-0.4597047745183103	0.3305700798692779	59.476366534816776	near	V1
1	2.0	ltm	481	diff_vonmises	0.0481272141826946	2.757486252390562	2.1152244196446155	2.315039753610641	0.8127344804278421	3.5961046367290077	0.1346146195977846	-0.3472166319200377	0.4818312515178223	69.74535886128285	near	V2
2	3.0	ltm	481	diff_vonmises	0.137123595705616	7.856603305590016	7.101113152087295	0.4317264170465944	3.8198457088966483e-35	1.1088565267956485	0.2738015353413795	-0.1764796915365217	0.4502812268779013	51.05688534795027	near	V3
3	4.0	ltm	481	diff_vonmises	-0.070195743035511	-4.021919815719624	2.9385815641801862	0.9650760177324365	0.1953057176539677	2.3659710452219307	0.1712233503793206	-0.3411292553329971	0.5123526057123178	72.91501556199526	near	V4
4	5.0	ltm	481	diff_vonmises	0.0009781107908332	0.0560416202109499	1.931738625816392	1.15970143960562	1.7322452428615982e-18	1.5169192600568784	0.3444026990311348	-0.2291257963938592	0.5735284954249941	98.62642427430696	near	V3ab
5	6.0	ltm	481	diff_vonmises	0.3158380359170347	18.096186467747398	0.9931859613427816	76.83159878870387	0.9769411595627404	76.9233547930251	0.2054515751999872	-0.0979764079192868	0.3034279831192741	93.16497194859826	near	IPS0
6	7.0	ltm	481	diff_vonmises	0.1022963093634657	5.861146786291189	0.3407037224575898	95.19536983851482	0.3244632051368465	95.97450877745734	0.1119758956269052	-0.2871481053118963	0.3991240009388015	140.03588052667692	near	LO1
0	1.0	ltm	482	diff_vonmises	0.2400233388717241	13.752324301988148	0.4346250748303125	16.02904255128711	0.3741204535419417	16.75194730189725	0.0165206909589006	-0.194977710143964	0.2114984011028646	128.36606224756434	near	V1
1	2.0	ltm	482	diff_vonmises	0.2635117158499602	15.09810917045332	4.3987595471403065	0.6877838923882734	1.1356278266098614	1.0715283004029694	0.1633403912373244	-0.1614458926852945	0.3247862839226189	53.13257780199183	near	V2
2	3.0	ltm	482	diff_vonmises	0.2387402130055632	13.678806605273058	7.07445187996356	0.4301796180712156	1.193872799198288	0.5289795320642261	0.2477970789062777	-0.0983271523490987	0.3461242312553764	45.7416978362767	near	V3
3	4.0	ltm	482	diff_vonmises	0.308379906315928	17.668867118542394	5.544233330749018	1.1212058308999524	2.008884748047967	1.6874339100974516	0.1541263862139829	-0.2850073188946103	0.4391337051085932	43.63250278769655	near	V4
4	5.0	ltm	482	diff_vonmises	-0.0838182271902593	-4.802430664270541	1.6466628379274315	0.8189602923848609	2.523859573569324e-25	0.928050909455606	0.2277122707383083	-0.1337643542944722	0.3614766250327806	106.07256618489076	near	V3ab
5	6.0	ltm	482	diff_vonmises	0.1953275119583699	11.191442058005716	1.3025489839653	55.64058246719779	1.2819115051935144	55.67069273776452	0.1971327412633208	-0.0739724868408551	0.2711052281041759	82.3121444367217	near	IPS0
6	7.0	ltm	482	diff_vonmises	-0.0327977815371521	-1.8791744594709128	0.8669096025731761	95.7374571441369	0.8492612142418349	96.32705200958787	0.1377575298937223	-0.1832284513055686	0.320985981199291	93.38366485099962	near	LO1
0	1.0	ltm	483	diff_vonmises	0.0062061344344492	0.3555853101847521	11.215802541024331	0.4820696453940695	0.2711343317847662	3.2563005897705883	-0.0308969000989289	-0.5945411739600576	0.5636442738611286	38.06813579840602	near	V1
1	2.0	ltm	483	diff_vonmises	0.1434016083382394	8.216306933169157	5.631936996505885	0.7411483254908888	0.6514770200846882	1.5133988530967704	0.2678659232695289	-0.2604144242709673	0.5282803475404962	51.098793875642514	near	V2
2	3.0	ltm	483	diff_vonmises	0.0602339320590588	3.451150090461816	2.2197556951810458	85.3812986479398	2.1915855771141484	85.5853662335023	0.2456031109740095	-0.1456547987344336	0.3912579097084432	60.30934118322233	near	V3
3	4.0	ltm	483	diff_vonmises	-0.0804053274430408	-4.606885912853652	1.4060863357834033	247.4200516177289	1.392004846368955	248.40873948960785	0.2125388616482979	-0.310520319821471	0.5230591814697689	71.95531041542674	near	V4
4	5.0	ltm	483	diff_vonmises	-0.0977902506498869	-5.602968639764976	3.2167034174388847	0.6882416286317012	6.78736280803867e-13	1.472325074119417	0.234580267414471	-0.2335741772560425	0.4681544446705136	76.56078869103445	near	V3ab
5	6.0	ltm	483	diff_vonmises	0.2610768129191206	14.958599508992176	0.7061059908127599	70.4463408530449	0.6892729387439606	71.15232088044192	0.0265488601474856	-0.169033748123712	0.1955826082711977	98.36213948116205	near	IPS0
6	7.0	ltm	483	diff_vonmises	-0.0564428586310289	-3.23393758321151	0.8975844112108563	67.3328977799714	0.8725129178773404	68.19712419110007	0.0473502579176177	-0.2091215888959103	0.2564718468135281	87.46209655292691	near	LO1
0	1.0	ltm	484	diff_vonmises	0.3622786373164646	20.757036925984075	0.8346813906241297	96.6815316418625	0.8182537675306477	98.0642699907745	-0.1214643029959994	-0.2693436101053379	0.1478793071093385	80.06207584475018	near	V1
1	2.0	ltm	484	diff_vonmises	0.02578666183194	1.477466890701255	15.859148204852016	0.3974526935356669	0.917227382088882	0.9478673550460752	0.3169783191650293	-0.2340295689631061	0.5510078881281354	31.934382024418227	near	V2
2	3.0	ltm	484	diff_vonmises	-1.52425059728913	-87.33312614496204	0.000137822519528	7027.131707641993	3.4975640335085283e-31	7026.962828299526	0.1810217716974875	-0.1272551860804469	0.3082769577779345	123.05251186063114	near	V3
3	4.0	ltm	484	diff_vonmises	-0.1441290015512975	-8.257983494323842	1.5665816512671824	96.6184388986383	1.545508046336555	97.3257207395062	0.0400055450707697	-0.1997519008123873	0.239757445883157	65.05153242664386	near	V4
4	5.0	ltm	484	diff_vonmises	-0.0111519003008733	-0.638956820790713	2.6760356603094557	0.9492236152999484	0.3581877531956188	1.3287878305523977	0.2889986218023432	-0.1673356625996202	0.4563342844019635	75.4340600828929	near	V3ab
5	6.0	ltm	484	diff_vonmises	0.8087393559417578	46.33735182159116	0.0002241303751844	3553.432594293787	8.906127519323689e-28	3553.8864178732056	0.0545327567231197	-0.1989750846719289	0.2535078413950486	161.44299849109754	near	IPS0
6	7.0	ltm	484	diff_vonmises	0.0781043007409086	4.475046794274571	1.7434375888612512	137.96993085466997	1.726819204494703	138.5447791085205	0.1094395942859165	-0.1935738929932284	0.303013487279145	63.786756013235134	near	LO1
0	1.0	ltm	485	diff_vonmises	-0.1120032156071719	-6.417311546184746	9.19609835567992	0.2811448241875884	0.1199872799548005	3.811464696689081	-0.3463171590590976	-0.6410802513804713	0.2947630923213737	41.92882341487143	near	V1
1	2.0	ltm	485	diff_vonmises	0.0332181776680326	1.9032613834939955	4.718582510400144	0.6924306106746583	0.2897940898823553	2.1687800529994807	0.1304524672757129	-0.3473716957753144	0.4778241630510274	57.16859070112227	near	V2
2	3.0	ltm	485	diff_vonmises	0.0085760239218806	0.4913699757269951	4.142679065634324	0.6091950797836052	0.2789595201205638	1.0845317378124355	0.2535702613175046	-0.1626130451434623	0.4161833064609669	62.79430618461501	near	V3
3	4.0	ltm	485	diff_vonmises	-0.1359451913956947	-7.7890857120715	1.0840887928573797	170.60384955644176	1.0620772188582108	172.23129927794147	0.1300834282708649	-0.4143758175006731	0.544459245771538	79.84474043628967	near	V4
4	5.0	ltm	485	diff_vonmises	-0.0787665159803403	-4.512988932623256	3.2335087370996205	0.8333770814018135	1.6253320487652918e-22	1.8182795783176564	0.2800490801524616	-0.2885031541452255	0.5685522342976872	76.36041412154563	near	V3ab
5	6.0	ltm	485	diff_vonmises	0.1545082412695375	8.852670124733548	0.8003931254547375	84.5704536688123	0.7831278327368936	85.18134323420146	0.0953191204067529	-0.1734318940737589	0.2687510144805118	95.85292492179778	near	IPS0
6	7.0	ltm	485	diff_vonmises	-0.0024875557591828	-0.1425264463046406	1.029704070571937	143.60995443169912	1.0154645907537083	144.61962289398502	0.0380894593381597	-0.2417843019951178	0.2798737613332775	80.41985117254896	near	LO1
0	1.0	ltm	486	diff_vonmises	0.2232841032147952	12.793236746571225	0.8743507996580788	13.744359412106515	0.8210031043204987	13.71633735377068	0.1485334341192192	-0.0573790564418142	0.2059124905610335	102.63817628339775	near	V1
1	2.0	ltm	486	diff_vonmises	0.1844077557653066	10.565786114831344	4.167626192441442	42.52585033336399	4.123224422668484	42.447010913446334	0.2556356555950074	-0.0640808289073708	0.3197164845023783	46.71286514694671	near	V2
2	3.0	ltm	486	diff_vonmises	-1.3573827682848565	-77.77230380650644	2.205055673206042	96.91494907610574	2.2252451428374926	96.3917818725426	0.1770788427181884	-0.0018934741293037	0.1789723168474921	67.18848586267478	near	V3
3	4.0	ltm	486	diff_vonmises	0.1159403315367989	6.642891672406097	3.143266074802586	18.024578499827008	3.028733747491749	18.091536547071957	0.2084946408526402	-0.1028074531719713	0.3113020940246116	51.51040716793924	near	V4
4	5.0	ltm	486	diff_vonmises	0.0813954776765195	4.663617342315876	1.51558025090978	18.839975356626702	1.4689900871328594	18.262455311927937	0.4007910726836687	-0.0185208003256696	0.4193118730093383	89.11684144788578	near	V3ab
5	6.0	ltm	486	diff_vonmises	0.2517819483505546	14.42604299806766	1.0764907107705948	21.646106150036548	1.054125698955277	21.2547043963716	0.2287306608293837	-0.0131739999203239	0.2419046607497077	104.4133328916127	near	IPS0
6	7.0	ltm	486	diff_vonmises	-0.1059278861922104	-6.069220811555766	0.9992012275607856	60.43876342922882	0.9807801775010884	60.32902141893203	0.2478940864802687	-0.0733803430290835	0.3212744295093523	96.54338362237309	near	LO1
0	1.0	ltm	487	diff_vonmises	0.0742575221198152	4.254642614564767	9.80059268545405	0.3049395537229131	0.0086950840617801	2.6711696738949167	-0.0531267472002787	-0.4258385611290474	0.3727118139287686	43.15402552771136	near	V1
1	2.0	ltm	487	diff_vonmises	0.1196547488129294	6.855712105678852	3.925848144903243	0.8042205832836554	0.4617902468809214	1.781729717209107	0.1850960236601663	-0.2699315929456967	0.455027616605863	60.5216159813595	near	V2
2	3.0	ltm	487	diff_vonmises	0.0335094022777062	1.9199473245186365	2.2712402182739018	3.0514310091185464	1.28699472085812	3.7208481678255456	0.2290071719061572	-0.2508457701403464	0.4798529420465037	64.94881184116883	near	V3
3	4.0	ltm	487	diff_vonmises	-0.1229628195329847	-7.045250596268824	1.2383056695160717	229.0428394272988	1.2233637304329767	230.39701132134925	0.1099650135258656	-0.3563389713459131	0.4663039848717787	74.30876872190362	near	V4
4	5.0	ltm	487	diff_vonmises	-0.1127701218046033	-6.461252034579993	1.8455494989587544	1.0710733481277708	6.533026610580937e-16	2.0357999192566183	0.2022346895235262	-0.3108791604600149	0.5131138499835413	100.73088722909245	near	V3ab
5	6.0	ltm	487	diff_vonmises	0.0704287537299888	4.035270345094616	0.6874726542549601	44.29002279847372	0.6488608398002647	45.11820830868681	0.0977992690219533	-0.231029506581311	0.3288287756032644	103.72002491096416	near	IPS0
6	7.0	ltm	487	diff_vonmises	-0.1555953679697197	-8.914957896449971	2.0933871743096826	0.8282706043274818	0.0582766941249083	2.337141892651548	0.0452625405735695	-0.3445821543380906	0.3898446949116602	90.0941915475825	near	LO1
0	1.0	ltm	488	diff_vonmises	0.0259995836455636	1.4896664119881586	6.173235625675305	0.3244863964743745	0.0691466086257703	2.631386170412852	-0.1337674599753566	-0.4229280156956203	0.2891605557202636	52.42626051941107	near	V1
1	2.0	ltm	488	diff_vonmises	0.0818834135748555	4.691574009963452	7.0672980950500754	0.5393596049664475	0.3935654155030101	1.5615079162443786	0.2065890962438179	-0.2747972858014377	0.4813863820452557	47.45086666988638	near	V2
2	3.0	ltm	488	diff_vonmises	0.0134520361782263	0.770744898869665	1.6727947500954945	77.75767259458154	1.6429753807630243	78.18689493776137	0.1954038915551876	-0.175453543698179	0.3708574352533667	67.84992996157692	near	V3
3	4.0	ltm	488	diff_vonmises	-0.1741095970131081	-9.975745081574663	1.167165677477094	158.68147599386916	1.14917487962933	159.9478249668512	0.0623181803655512	-0.315933520003874	0.3782517003694252	75.7372948301751	near	V4
4	5.0	ltm	488	diff_vonmises	-0.0427086324170786	-2.4470243862742165	2.642814049181037	0.8750071417902143	8.525214560547122e-17	1.5278504488342015	0.2895195973342418	-0.2404670822922894	0.5299866796265312	84.60550792948266	near	V3ab
5	6.0	ltm	488	diff_vonmises	0.2451752811684193	14.047508851883716	0.6353889755374819	106.02084598512616	0.6223012464533604	106.54471091144347	0.1219747436086464	-0.1799427576318422	0.3019175012404886	109.65041088487192	near	IPS0
6	7.0	ltm	488	diff_vonmises	-0.0750933854959151	-4.302534058264846	1.0272152292951615	154.24799735428843	1.012459142020084	155.31307173479786	0.0633420140428242	-0.2622349451708246	0.3255769592136488	81.34401000043079	near	LO1
0	1.0	ltm	489	diff_vonmises	0.0222881776004373	1.277018509543081	5.537725123011903	0.3019153201496568	2.6215479406091828e-12	1.8318340196784424	-0.0151737987720893	-0.2915411581791902	0.2763673594071009	57.955013697843526	near	V1
1	2.0	ltm	489	diff_vonmises	0.190552899909736	10.917876938806682	5.842632374244404	0.6623812860241372	0.848192028853636	1.29742284969826	0.2178801919585401	-0.2324129389095437	0.4502931308680838	48.97546667104285	near	V2
2	3.0	ltm	489	diff_vonmises	0.1938728706870517	11.10809725245364	2.2787826437219767	24.135051146755654	2.1934976254841483	24.35052786869413	0.185704723032499	-0.1303701321740993	0.3160748552065984	59.16838308512271	near	V3
3	4.0	ltm	489	diff_vonmises	0.0841793200722106	4.823119762418566	1.5900942952843369	68.3570295884892	1.5520062481494057	69.33639810557527	0.0155378947164805	-0.2678626621153839	0.2834005568318645	63.58129774710261	near	V4
4	5.0	ltm	489	diff_vonmises	-0.0338665565476475	-1.9404107568213496	2.4865043712274773	0.7094683709272577	1.5903181638998224e-14	0.9868507244465636	0.2597423657921265	-0.1541769215510459	0.4139192873431725	87.22891189676173	near	V3ab
5	6.0	ltm	489	diff_vonmises	0.2744301780812327	15.723690975078227	1.0127279020540625	78.67222693491767	0.998246856098913	78.82655082914091	0.1627246534276771	-0.0940899008028317	0.2568145542305089	90.80617318892008	near	IPS0
6	7.0	ltm	489	diff_vonmises	-0.0386136646389316	-2.2124000153443317	0.9230752413753294	76.42533275158405	0.8991408051864453	77.27556786544548	0.0739333403091002	-0.2155257402052157	0.289459080514316	87.25213452716162	near	LO1
0	1.0	ltm	490	diff_vonmises	0.00776086578445	0.4446648548164756	6.617226423194007	0.779921108948068	0.267262001667582	4.299172452366584	-0.094224902200651	-0.7396972690066218	0.6454723668059708	48.14530335898803	near	V1
1	2.0	ltm	490	diff_vonmises	0.042838619562447	2.4544721010947828	1.3834025995016408	147.54860119244253	1.3558779137621544	148.83582104096806	0.2043361326642667	-0.3799939495476394	0.5843300822119062	71.88128985452272	near	V2
2	3.0	ltm	490	diff_vonmises	-0.0135752316087151	-0.777803477091971	3.188236024601285	1.072863297834764	0.3264050480692528	1.9073459819378884	0.3175950457518089	-0.2656383699805589	0.5832334157323679	69.39103443494861	near	V3
3	4.0	ltm	490	diff_vonmises	-0.1809007471779971	-10.364849324062371	1.3653091913291882	5.650146695333541	0.6638722124445948	7.236460493316136	0.3029805638240308	-0.4567882376006666	0.7597688014246975	85.70950215492316	near	V4
4	5.0	ltm	490	diff_vonmises	-0.025812162474567	-1.4789279698986522	2.3142151001241005	1.2397814104464229	5.745109990729146e-23	1.7139026788572649	0.4252514854227395	-0.2659551924214445	0.691206677844184	90.39935728777806	near	V3ab
5	6.0	ltm	490	diff_vonmises	0.1203911060049354	6.897902264994901	1.9487668272062144	0.6945396823857587	7.151319007423392e-15	0.7819239663141889	0.2282723935320013	-0.1172896732996661	0.3455620668316674	98.190061725247	near	IPS0
6	7.0	ltm	490	diff_vonmises	-0.063556291123125	-3.6415072428598423	0.333049641748614	124.66602662694358	0.3188633935243318	125.66545214631758	0.1053411785868121	-0.342464921755452	0.4478061003422642	140.46760282291456	near	LO1
0	1.0	ltm	491	diff_vonmises	0.4637318431748387	26.569877439740825	0.0201850961249975	30.193641131344624	1.951261715647582e-12	30.15382278075588	0.1038194770719265	-0.0901661056937443	0.1939855827656709	172.46108011165842	near	V1
1	2.0	ltm	491	diff_vonmises	0.1648124292710154	9.443056608527575	5.278383021713126	34.23312668396704	5.20747986871834	34.174925753906614	0.2700679047692844	-0.0784507237158811	0.3485186284851655	41.00621287299714	near	V2
2	3.0	ltm	491	diff_vonmises	-2.5242676935430977	-144.6298852012422	2.954453178501122	0.8508766612575683	2.9544586520446097	0.5477591714199211	0.1967905819679646	0.0005343933157941	0.1962561886521705	46.10509532535488	near	V3
3	4.0	ltm	491	diff_vonmises	0.137381934465227	7.871405026200372	2.896309195711749	32.79726062563489	2.829795526752952	32.92413063761917	0.1987891790191653	-0.1190285375063719	0.3178177165255373	52.74944513841709	near	V4
4	5.0	ltm	491	diff_vonmises	0.0494366911182208	2.832513754165936	2.537979320378024	0.5905678959023619	9.39384525976963e-16	0.2750116182779343	0.3073777840085346	-0.0415764623896017	0.3489542463981364	86.33698971579997	near	V3ab
5	6.0	ltm	491	diff_vonmises	0.4472914367350551	25.62791153726153	1.0034090281269177	43.20959725214761	0.989959541855592	43.07016815762425	0.1573410557671888	-0.0330695311356747	0.1904105869028636	98.923468179504	near	IPS0
6	7.0	ltm	491	diff_vonmises	-0.0142452021399771	-0.8161899609314167	1.1991405156834307	42.12026514079001	1.1739622756750268	42.09135853510149	0.2071031576150801	-0.0669024612872672	0.2740056189023474	87.11231423540411	near	LO1
0	1.0	ltm	492	diff_vonmises	-0.1581359794962757	-9.060524214303925	9.961171928581775	0.1786648183929373	3.9958388313980415e-10	3.7016760883863817	-0.3671445619454135	-0.5891400464618323	0.2219954845164187	43.0057268216857	near	V1
1	2.0	ltm	492	diff_vonmises	0.0706740074584316	4.049322348644233	4.269968540587628	0.6839883887200757	0.2515483605928935	2.2387934244186822	0.0938367423950912	-0.351348659776484	0.4451854021715752	60.03054479171999	near	V2
2	3.0	ltm	492	diff_vonmises	0.0992238232066321	5.685106296892256	5.45503647670403	0.5045272921734334	0.2038977837283821	1.1638518995463134	0.2333879213278261	-0.1852628020024092	0.4186507233302353	55.69999268812396	near	V3
3	4.0	ltm	492	diff_vonmises	-0.1092422879387325	-6.259122043242272	0.9883839450115528	147.38581943630143	0.963951241919303	149.35874911673048	0.0218426435987098	-0.4526868985756884	0.4745295421743982	81.21740177438235	near	V4
4	5.0	ltm	492	diff_vonmises	-0.1121385384036412	-6.425064971294341	2.571606828904374	0.8525152099270769	3.962355734800837e-15	2.0175976673163976	0.1896794673995561	-0.3181277697910484	0.5078072371906046	85.77043124481222	near	V3ab
5	6.0	ltm	492	diff_vonmises	0.1845974270010266	10.576653476133131	0.9034518465893056	115.38355248434328	0.887950467175984	116.15732659783345	0.0927671483892851	-0.2054705575010409	0.298237705890326	88.99646195934938	near	IPS0
6	7.0	ltm	492	diff_vonmises	0.0331525757305575	1.899502669348791	0.9191834512511792	159.1815261466391	0.9042400904528646	160.62131780996546	-0.0130405401997393	-0.3181332645282495	0.3050927243285102	83.06258966616733	near	LO1
0	1.0	ltm	493	diff_vonmises	-0.0785009835853625	-4.497775047067028	5.218826445540744	0.3850503088272693	0.0169682689999707	4.022719044126798	-0.3096230993268548	-0.6383540129508972	0.3287309136240424	58.46296203567641	near	V1
1	2.0	ltm	493	diff_vonmises	0.0904372514411366	5.18167281834055	7.374055440079222	0.6049312458021148	0.2154337792275767	2.3007788687659256	0.1944428182959361	-0.3876817074901061	0.5821245257860422	47.54101568884644	near	V2
2	3.0	ltm	493	diff_vonmises	0.0467505535322603	2.678609407298944	3.819369386673903	0.5587703508456006	0.1027049049276341	1.4547359280847263	0.1629600195244647	-0.2222867988508449	0.3852468183753096	67.05146437227566	near	V3
3	4.0	ltm	493	diff_vonmises	-0.1015231783345615	-5.8168496413243735	2.308554631500894	1.1667496640327706	0.1496584871743265	3.2406642812856514	0.0603072498199157	-0.4577609847431323	0.5180682345630481	81.29860908584743	near	V4
4	5.0	ltm	493	diff_vonmises	-0.0198196164038477	-1.1355803715087316	1.9715630075046169	1.1852159538175413	0.0459093099219673	2.005950241100784	0.2720799970460574	-0.293018763184348	0.5650987602304055	95.2757675229118	near	V3ab
5	6.0	ltm	493	diff_vonmises	0.4874889214676932	27.931057759483256	0.7148489442278704	145.84591116983003	0.7039159084911156	146.42949976477144	0.1375411958694385	-0.1916903244485244	0.329231520317963	103.07915917054116	near	IPS0
6	7.0	ltm	493	diff_vonmises	0.0752571208130548	4.311915400894187	1.0569451385193502	2.12603119552239	0.3214274284298524	3.360856089649342	0.0303382724687157	-0.2920739435869514	0.3224122160556671	101.5881719687753	near	LO1
0	1.0	ltm	494	diff_vonmises	2.2751629885734045e-05	0.0013035723694962	1.3335272946089072	0.4626018669059953	2.8342146491340748e-11	2.75220363932942	-0.2513476802240376	-0.4250607339250875	0.1737130537010499	115.91096219877798	near	V1
1	2.0	ltm	494	diff_vonmises	0.0522407755909548	2.9931759598517624	16.73897515123889	0.2851298042068876	0.1281141691450474	1.5448581119269291	0.183482514283766	-0.2649709080144837	0.4484534222982497	32.55149520136561	near	V2
2	3.0	ltm	494	diff_vonmises	0.1157014007661457	6.629201947651858	3.894040751810555	0.5436129629408596	0.5068784834630093	1.0396847543758765	0.1539711027870112	-0.1541258678237089	0.3080969706107202	60.993752902640495	near	V3
3	4.0	ltm	494	diff_vonmises	-0.05212299984399	-2.9864279066216803	1.0956348835546283	67.67977214868925	1.0580927185783533	69.245095305298	-0.0750606520112349	-0.3416032393912953	0.2665425873800604	73.81736351565601	near	V4
4	5.0	ltm	494	diff_vonmises	-0.0571557654384897	-3.2747841344651567	2.5140762717076885	0.7888011846486266	2.787626021079416e-15	1.5767957161001769	0.2154560129260589	-0.2478992440836599	0.4633552570097189	86.7492611703895	near	V3ab
5	6.0	ltm	494	diff_vonmises	0.2696898088389764	15.452087824163312	0.7983170874224492	117.5420471887258	0.7853262677572972	118.13149731576912	0.1142612009911374	-0.1766593620472836	0.290920563038421	96.6515848835608	near	IPS0
6	7.0	ltm	494	diff_vonmises	0.0450590668459028	2.581694359068085	1.172504517988569	184.59071955388248	1.158379155814324	185.81163911208992	0.0305387328789095	-0.2967505651585327	0.3272892980374422	74.61721410439986	near	LO1
0	1.0	ltm	495	diff_vonmises	0.0358683421047857	2.0551046207356083	7.514011426027544	0.5126855607025519	0.1454653433059523	4.110914882875316	-0.2020444587688697	-0.6870687299078682	0.4850242711389984	46.47808220140152	near	V1
1	2.0	ltm	495	diff_vonmises	0.141833017487984	8.126433297666683	5.06669391010458	0.7789662231647063	0.4667577093823832	1.997232768384117	0.1998294446729947	-0.3305462387034475	0.5303756833764423	54.05313979434729	near	V2
2	3.0	ltm	495	diff_vonmises	0.1102750214271814	6.318293313492214	3.917000901841169	0.75674462846757	0.5525168150578644	1.4078547454579606	0.2139226611094847	-0.2084017366668657	0.4223243977763505	60.42154357002772	near	V3
3	4.0	ltm	495	diff_vonmises	-0.2425190892315501	-13.895320264324434	0.8905971500598127	184.1580324362451	0.8720410054608315	186.12975266557223	0.0255674420934042	-0.4483855467928777	0.4739529888862819	85.78348419098369	near	V4
4	5.0	ltm	495	diff_vonmises	-0.0751451161190332	-4.305498004641096	2.619256941890808	0.8394449954892131	7.387593874028568e-13	1.6241597098631604	0.2499047816713836	-0.2557941986483154	0.505698980319699	84.98325003239015	near	V3ab
5	6.0	ltm	495	diff_vonmises	0.2481375025112696	14.217231632812618	0.8859768137224217	89.41897471303778	0.86908607121261	89.90978121832059	0.1324326774874933	-0.1588843467869054	0.2913170242743987	92.84036312469804	near	IPS0
6	7.0	ltm	495	diff_vonmises	-0.060774952339013	-3.482148269134179	0.7129390012208375	132.61642217817413	0.6971649428713098	134.17550236361012	-0.0440197562446726	-0.3300866122012227	0.28606685595655	93.64758530327154	near	LO1
0	1.0	ltm	496	diff_vonmises	0.06662696694533	3.8174440077250553	7.743002320014424	0.340222945961065	0.0677524462804351	3.7702264010201096	-0.2702107019753631	-0.6126694684498393	0.3424587664744761	46.79717143474434	near	V1
1	2.0	ltm	496	diff_vonmises	0.1053749746914271	6.037541316116641	9.300094703820228	0.4863521004408433	0.2752930667539315	1.7692636057119409	0.2194245462884761	-0.3126428356580328	0.532067381946509	42.43553177670839	near	V2
2	3.0	ltm	496	diff_vonmises	0.0954141904720513	5.466830419705894	1.6414309570868315	43.75782480725884	1.5813499427406872	44.40730437739792	0.1584713315578483	-0.2210093080559234	0.3794806396137717	67.06773921748055	near	V3
3	4.0	ltm	496	diff_vonmises	-0.2261428648432853	-12.95703172251765	0.9323909514308064	189.7555066584564	0.9160102541085487	191.74122629523703	-0.055641931925237	-0.4280951611987404	0.3724532292735034	81.26911216251773	near	V4
4	5.0	ltm	496	diff_vonmises	-0.094049526548787	-5.388640936449085	2.7708370112083	0.7857133418102308	7.347970893744906e-14	1.8501940195609183	0.1971704824921555	-0.2925400772387696	0.4897105597309252	82.60447413596478	near	V3ab
5	6.0	ltm	496	diff_vonmises	0.2933823237959214	16.80956893724684	0.6642627637455999	138.6064403210092	0.6520302946565157	139.5655178682518	0.0582707525360319	-0.2424486024381735	0.3007193549742055	102.51541654020636	near	IPS0
6	7.0	ltm	496	diff_vonmises	0.0641384440539023	3.674862148824553	1.0911326974369933	162.8766350264089	1.0726005306116824	164.6997376968022	-0.0816129055021903	-0.3998847260957738	0.3182718205935835	73.86677191130971	near	LO1
0	1.0	ltm	497	diff_vonmises	0.2498583266570964	14.315827593652694	0.6052282131066409	89.64227941480556	0.5788147032601173	92.89588001645872	-0.4031983984991889	-0.5754857737862569	0.1722873752870679	85.73014759911075	near	V1
1	2.0	ltm	497	diff_vonmises	0.0554893303729722	3.1793044383784017	12.016585835703331	0.3451264609405924	0.0787219936255452	1.8163755791320837	0.1598162283723359	-0.2992971848412468	0.4591134132135827	38.49995040629406	near	V2
2	3.0	ltm	497	diff_vonmises	0.0855423201534236	4.901213914548058	3.655397953985836	0.7587127658853338	0.5822247090654693	1.45284572376201	0.1742521291820525	-0.210545118813013	0.3847972479950655	61.33171370980424	near	V3
3	4.0	ltm	497	diff_vonmises	-0.1943590876592741	-11.135955432889611	0.9363304845649344	173.2126803202528	0.9189429264930704	175.27994845897754	-0.101850666415352	-0.4333734694429161	0.3315228030275641	79.51793647798272	near	V4
4	5.0	ltm	497	diff_vonmises	-0.1245350215657885	-7.135331137290373	2.7425032212371496	0.780293654631682	1.2236411136803226e-16	2.119402977641067	0.1480675184246518	-0.3352998224420458	0.4833673408666977	83.03029462596112	near	V3ab
5	6.0	ltm	497	diff_vonmises	0.0986495635779249	5.652203643822583	0.8497074778694264	131.58180255768954	0.8338557016104018	132.70621997647666	0.0493845277070619	-0.2676642697834168	0.3170487974904787	89.35298709632917	near	IPS0
6	7.0	ltm	497	diff_vonmises	0.0348390288888343	1.9961293176645556	1.184571846523221	258.9554720010932	1.1715604207090435	260.837610207614	-0.0792911585957938	-0.4263388362705953	0.3470476776748015	70.9234845752768	near	LO1
0	1.0	ltm	498	diff_vonmises	-0.0567833808697401	-3.253448070320008	6.305266787259917	0.3470160478477573	0.0826355184499001	2.780775159241402	-0.1397587613048296	-0.4491456727125565	0.3093869114077269	51.58624058360832	near	V1
1	2.0	ltm	498	diff_vonmises	0.0499961828356267	2.864570268245823	4.0054836223548165	0.8290487357017843	0.4389306806316464	1.962609528099362	0.1759265975358758	-0.3011457465902595	0.4770723441261353	60.00322568216461	near	V2
2	3.0	ltm	498	diff_vonmises	-0.033818704321734	-1.9376690262362009	2.7041508857946304	1.190892192348892	0.738970483342942	1.666259807350826	0.2482445510895199	-0.1858995922795103	0.4341441433690303	68.62061959721433	near	V3
3	4.0	ltm	498	diff_vonmises	-0.0869097916512527	-4.9795642599781	1.2313746905174012	143.91071556602637	1.2076848226000367	145.0584210719412	0.1911354212455407	-0.3307642679064031	0.5218996891519438	76.59482216082617	near	V4
4	5.0	ltm	498	diff_vonmises	-0.0331578226552487	-1.899803295989017	2.3207292223970684	1.0328247792587897	1.2659578557617307e-18	1.662213729257702	0.3179734362469604	-0.2589318599167495	0.5769052961637099	90.26732752447086	near	V3ab
5	6.0	ltm	498	diff_vonmises	0.2161881785955734	12.38667021414684	0.6436355334227386	84.74502462667282	0.627884429038492	85.18267615025364	0.1348899386345117	-0.1666733545138505	0.3015632931483623	110.13247488669808	near	IPS0
6	7.0	ltm	498	diff_vonmises	-0.0556838391888082	-3.1904489726038925	0.7592700334816946	125.53343443550048	0.7446479627016327	126.3309538361597	0.1166865803988557	-0.2256412629845403	0.342327843383396	98.23415190367102	near	LO1
0	1.0	ltm	499	diff_vonmises	-0.0164910653131737	-0.9448684421194454	6.164481778973852	0.4437463736206212	0.1906686159947538	3.733662213269739	-0.2827297313929653	-0.6280596898236606	0.3453299584306952	49.34204804681005	near	V1
1	2.0	ltm	499	diff_vonmises	0.0298335777254867	1.709338091445893	2.8880466738279837	1.242459828599846	0.5357515070150629	2.659106804329866	0.1223069306213763	-0.3600476552672811	0.4823545858886574	66.08402978069665	near	V2
2	3.0	ltm	499	diff_vonmises	-0.0600945932011677	-3.443166561982482	3.5583744212600417	0.6792675837798093	0.1147381371497698	1.2564541599653352	0.2661029449145266	-0.1879687939761069	0.4540717388906334	69.8422179937867	near	V3
3	4.0	ltm	499	diff_vonmises	-0.2465289582600121	-14.125068836055531	0.9881594107317788	140.13520876963614	0.96247321496245	141.7481324851379	0.1426248658848834	-0.4106320446435241	0.5532569105284075	84.22622969919394	near	V4
4	5.0	ltm	499	diff_vonmises	-0.050622019837815	-2.900428087134332	3.044375182202943	0.9606572257117983	3.4822235836951087e-19	1.68418217015132	0.3664230057425062	-0.2666067753965712	0.6330297811390775	78.74306600877023	near	V3ab
5	6.0	ltm	499	diff_vonmises	0.0666712312330462	3.819980164594344	2.0705874292102697	0.6591562822788315	0.0770357820678024	0.9614681625520192	0.1822069613540951	-0.135944271357921	0.3181512327120162	92.08669894059672	near	IPS0
6	7.0	ltm	499	diff_vonmises	-0.1140214175488119	-6.532945999645822	0.9334794708319266	132.5295164898474	0.917934228630384	133.54094927244063	0.061955717891216	-0.247384687694927	0.309340405586143	85.66256681786379	near	LO1
0	1.0	ltm	0	diff_vonmises	-0.2427910021269943	-13.91089972562857	0.0642159141728243	25.16516989087221	0.0385249207145899	27.30408707022476	-0.2481905626556715	-0.4276189906441927	0.1794284279885212	172.09027260316032	far	V1
1	2.0	ltm	0	diff_vonmises	0.26745453791403	15.32401623409558	0.9445247875147286	113.70374202005024	0.9255317270385848	114.67344663616925	0.0928450275849925	-0.2488948053027293	0.3417398328877219	86.34007912131764	far	V2
2	3.0	ltm	0	diff_vonmises	0.2058250409959749	11.792906167176511	4.387689044117123	0.3401470625612487	4.9089404899904826e-21	0.8943021675337657	0.1326530369262203	-0.14229012548112	0.2749431624073403	65.286597804243	far	V3
3	4.0	ltm	0	diff_vonmises	-0.3518098922443123	-20.15722201655137	1.8339082568574816	0.7309254421085454	5.044289014259122e-16	2.1578467635966128	0.0143284292052832	-0.3342974573721061	0.3486258865773893	100.80674396863324	far	V4
4	5.0	ltm	0	diff_vonmises	-0.1013983764766899	-5.809699021592942	1.4619806358506484	1.5344387411087308	0.3934549154798543	2.060362466900309	0.186671274595808	-0.1863048419069559	0.3729761165027639	93.35458032824496	far	V3ab
5	6.0	ltm	0	diff_vonmises	-0.3462964678383299	-19.84132606742416	0.4853152753548134	106.43272520466958	0.4709902827308989	106.87120766243758	0.1781356898081334	-0.216495787032791	0.3946314768409245	125.64773316522869	far	IPS0
6	7.0	ltm	0	diff_vonmises	0.1331210665190626	7.627275275822578	1.144280805679633	207.9770070396288	1.13172535226593	209.27798313991173	0.0097797094076383	-0.3077153364821292	0.3174950458897676	74.81525866234347	far	LO1
0	1.0	ltm	1	diff_vonmises	0.1592396398107745	9.123759292340786	2.4536515528352885	0.494218934559665	2.0687636765689653e-23	3.754067317641695	-0.3093958985121928	-0.5953487256377882	0.2859528271255953	87.78977371640926	far	V1
1	2.0	ltm	1	diff_vonmises	0.0870426587253258	4.987176982558738	1.4754070352578514	2.2588347448310278	0.4365225718042637	3.922219293325665	0.0472027427816771	-0.3808752892067508	0.428078031988428	85.72726186186941	far	V2
2	3.0	ltm	1	diff_vonmises	-0.0943888151367824	-5.408080740578175	1.6605195480569062	0.9343510814302768	1.1351314574363291e-14	2.1907504502100665	0.081819715677257	-0.3331202394634485	0.4149399551407055	105.6783592269184	far	V3
3	4.0	ltm	1	diff_vonmises	-0.1493578632624699	-8.557575202031575	0.0003678123795516	3468.619362995732	1.5993535940101078e-26	3470.692397308379	-0.1268709868672886	-0.5329589915378392	0.4060880046705506	179.34297742273012	far	V4
4	5.0	ltm	1	diff_vonmises	-0.080114648489627	-4.590231235629765	1.522044798841791	1.2544650391623906	3.228752012883766e-13	2.4489662877774427	0.1584153915336887	-0.3636479233341861	0.5220633148678748	109.76176652266334	far	V3ab
5	6.0	ltm	1	diff_vonmises	-0.1915581596610698	-10.97547407987248	0.1897821089491566	7.144123654197056	1.070816889646076e-12	8.135812410944403	0.0674951080683659	-0.36279013879319	0.4302852468615559	168.31858587755653	far	IPS0
6	7.0	ltm	1	diff_vonmises	0.3129314830043793	17.929653252920783	0.9003940859554034	114.65805329672492	0.8816023161874479	116.05945407435144	-0.0368154090212584	-0.3011810640055401	0.2643656549842816	82.95187183378005	far	LO1
0	1.0	ltm	2	diff_vonmises	0.127706124493743	7.317021951463746	0.5724535681774914	87.83005988124218	0.5443828511881466	90.72404954669294	-0.2736279331356392	-0.5390075359846058	0.2653796028489665	96.61984084788284	far	V1
1	2.0	ltm	2	diff_vonmises	-0.005467496950065	-0.3132644997393759	1.67777201904632	1.6410694054610355	0.4777194060263295	2.7666835862316987	0.0897432686855025	-0.2769530707503478	0.3666963394358504	82.27055347701614	far	V2
2	3.0	ltm	2	diff_vonmises	0.1107018220742842	6.342747189264659	1.28438778794292	70.74143809250103	1.2524909587210546	71.41010877270607	0.1523549907649979	-0.207174903919812	0.35952989468481	75.99874373089864	far	V3
3	4.0	ltm	2	diff_vonmises	-0.1254048836624083	-7.185170564185085	0.5828497632073919	136.5924318114067	0.5678303931519832	138.1041379012633	-0.0049572103391639	-0.3459563037149795	0.3409990933758156	106.48121230708416	far	V4
4	5.0	ltm	2	diff_vonmises	0.0010236033690849	0.0586481529439408	1.098060723949104	138.44789032947273	1.075417883336633	139.18938195506814	0.3239198083266217	-0.2786493613641827	0.6025691696908044	84.72763970278703	far	V3ab
5	6.0	ltm	2	diff_vonmises	-0.1230653946029388	-7.051127714860453	0.7574237194462679	146.85359947869176	0.7400548264560397	147.56104112538486	0.2802024095699806	-0.2792167517882671	0.5594191613582478	102.20646124669572	far	IPS0
6	7.0	ltm	2	diff_vonmises	0.1994451011411576	11.427362539948174	0.7794283137523407	67.81857799160166	0.7481143382832341	68.57466908716191	0.1833790497087442	-0.2446748990062088	0.428053948714953	99.33524185749816	far	LO1
0	1.0	ltm	3	diff_vonmises	-1.084541508023393	-62.13965111649415	1.6836368415931633	1.5218390440102143	1.683786401151124	0.8870538885316603	0.2949287839259185	0.0101745360198895	0.2847542479060289	100.94261640392412	far	V1
1	2.0	ltm	3	diff_vonmises	0.3868448644142681	22.16457805724813	0.9014624786943514	11.584468847432792	0.8439945659583034	11.005466913510876	0.3076068371148128	-0.0182418531635991	0.325848690278412	113.00588122604005	far	V2
2	3.0	ltm	3	diff_vonmises	0.0580256726675737	3.3246261472595906	1.8995623312943768	6.529821927831286	1.8605802716279851	6.173457326809168	0.2168046021575191	-0.0006796773577535	0.2174842795152727	87.68835037440627	far	V3
3	4.0	ltm	3	diff_vonmises	-0.3752186333209414	-21.498444083956745	6.395013267544306	0.6109335501953441	0.1785390635377406	0.8708348506111164	0.4387619812687775	-0.1388962289181924	0.57765821018697	52.58839819465626	far	V4
4	5.0	ltm	3	diff_vonmises	-0.3538885751660564	-20.276321774913228	0.8371121360882754	0.6372046588853643	1.5971898680363286e-12	0.2349372911315372	0.1606055241229493	-0.0002754791601456	0.160881003283095	134.43896137904534	far	V3ab
5	6.0	ltm	3	diff_vonmises	-0.6959461626176817	-39.87477788631843	2.5631174636679463	0.7678947984510993	0.5978416550023149	0.6334623344670588	0.2912690062338338	-0.0609064241270579	0.3521754303608917	77.12143072320244	far	IPS0
6	7.0	ltm	3	diff_vonmises	0.167583436053686	9.601823602176724	1.699560533247663	183.5322605227541	1.6802308805268882	184.16874693141168	0.2998412658410387	-0.2652371514826619	0.5650784173237007	67.25256690814399	far	LO1
0	1.0	ltm	4	diff_vonmises	0.2344565543487363	13.4333710433622	0.4009908057644075	87.75745944738482	0.3824196962504587	90.44476071867985	-0.3061860873137298	-0.4850164487883219	0.178830361474592	111.01845805151402	far	V1
1	2.0	ltm	4	diff_vonmises	0.1977986521703871	11.333027962739362	0.7805791767788037	114.72836623559232	0.7628130715108811	115.99892979393135	0.0124375678802834	-0.2868505631954825	0.299288131075766	91.82513483707356	far	V2
2	3.0	ltm	4	diff_vonmises	0.2127983137575411	12.19244526580779	2.229249141026777	0.864406305503076	0.4472013000867062	1.5310625542908771	0.1132594009133431	-0.1809882518753236	0.2942476527886667	76.24507799091575	far	V3
3	4.0	ltm	4	diff_vonmises	-0.016266917983035	-0.932025746113372	0.7623883071427812	0.9845942038474844	2.1316242603188422e-09	2.712259157176728	-0.1397748697172496	-0.3681327834806533	0.2283579137634037	139.12919922615126	far	V4
4	5.0	ltm	4	diff_vonmises	-0.0213320346504925	-1.222235553900054	1.0528274631658163	96.23188644778438	1.0281616873647514	96.9903249737543	0.1841189661130187	-0.2338306556423717	0.4179496217553904	84.59306469281819	far	V3ab
5	6.0	ltm	4	diff_vonmises	-0.2298393531379232	-13.168824900819915	0.4939611213323061	109.69039459196648	0.4787574720722082	110.38676650472604	0.1419571127553709	-0.2552251791156958	0.3971822918710668	123.3030565502933	far	IPS0
6	7.0	ltm	4	diff_vonmises	0.2667197949738728	15.28191856459754	0.9423328615252812	69.42590303593522	0.9177979072239234	70.28586030345193	0.0434408143205438	-0.2072321623531818	0.2506729766737257	85.04511255166906	far	LO1
0	1.0	ltm	5	diff_vonmises	0.0713972510802525	4.090761155734329	1.2133930244189468	0.6758778793846323	1.6316059675467911e-26	2.088491762833702	-0.074473388425325	-0.3096141283306332	0.2351407399053082	120.1562331451592	far	V1
1	2.0	ltm	5	diff_vonmises	-0.0338399324316862	-1.9388853073435008	1.7520488956201568	0.8540872737614227	2.146653787845525e-14	1.8978648906129365	0.10453760303964	-0.289826744097337	0.3943643471369771	103.17908967569866	far	V2
2	3.0	ltm	5	diff_vonmises	-0.0193687938020127	-1.1097501391144775	0.8565469280078709	149.31634944001146	0.8399604039697328	149.9632725398986	0.2712338937411616	-0.2504072414918941	0.5216411352330557	96.10372709436032	far	V3
3	4.0	ltm	5	diff_vonmises	-0.2050572477535975	-11.748914854849618	4.453940747236882	0.5617799957021391	2.236338087443188e-34	2.0238242950033	0.1357397425496523	-0.322039680926631	0.4577794234762833	64.7874661639305	far	V4
4	5.0	ltm	5	diff_vonmises	-0.1274501381078711	-7.302355011940473	1.1942989139133195	0.9109422358088904	1.0131161151831348e-20	1.3687671130715704	0.1265604475242114	-0.1862428616693842	0.3128033091935956	120.82004712294584	far	V3ab
5	6.0	ltm	5	diff_vonmises	-0.4311608182122127	-24.70369517496711	0.8872424936046369	1.2020790017841263	3.2511566326990615e-14	1.8891460525799435	0.0843451717811699	-0.2353785888944744	0.3197237606756444	131.71298906126583	far	IPS0
6	7.0	ltm	5	diff_vonmises	0.2702402985606925	15.483628561882975	1.6597995604786109	156.27056365747407	1.6446755101539483	156.85911446563415	0.130336269070483	-0.1986529979425739	0.328989267013057	65.89685391531762	far	LO1
0	1.0	ltm	6	diff_vonmises	0.1786078357914027	10.233475178813023	0.498867044136941	108.12245059246098	0.4834778002757697	110.28537812712028	-0.2164497518619548	-0.399342095755653	0.1828923438936982	102.16769671928066	far	V1
1	2.0	ltm	6	diff_vonmises	0.2358237646983244	13.511706426100204	0.4383190672908463	102.63321561116716	0.424241730273821	103.744479939543	0.0082162189429126	-0.283431151973442	0.2916473709163547	124.22678805665656	far	V2
2	3.0	ltm	6	diff_vonmises	0.078234543555225	4.482509157846807	1.3949584012278178	111.64136687674734	1.378901565445399	112.0327225469692	0.1595880521472992	-0.1460155547047286	0.3056036068520278	74.31815082320045	far	V3
3	4.0	ltm	6	diff_vonmises	-0.0976774514858456	-5.596505723732809	0.6763817332324892	56.34456919017927	0.6493861524970577	57.71306117884839	-0.0869005343758093	-0.2712971186499384	0.184396584274129	93.1023843504484	far	V4
4	5.0	ltm	6	diff_vonmises	-0.0269380530505764	-1.5434367480975402	1.8091497437747204	1.6319750917212412	0.6681866608546962	2.4803140702252544	0.1014245900310686	-0.2243578953892454	0.325782485420314	76.58240201687522	far	V3ab
5	6.0	ltm	6	diff_vonmises	-0.2859613290175921	-16.38437725665995	0.6969259268180894	168.0129834035876	0.6839260766897326	169.1399554629114	0.0988664182119762	-0.2956977682049633	0.3945641864169396	100.9799006704624	far	IPS0
6	7.0	ltm	6	diff_vonmises	0.2642773404168283	15.141976226826396	0.865884003085034	70.61071863387274	0.8407207585068713	71.43960584602213	0.080875640307358	-0.2138023461740203	0.2946779864813784	90.64510739040684	far	LO1
0	1.0	ltm	7	diff_vonmises	0.163228634266586	9.352311839159864	3.413303902784064	0.4453080345391736	1.2955026539362094e-18	3.4654523371571733	-0.2378809998720813	-0.5512036485521995	0.3133226486801181	74.26713266956065	far	V1
1	2.0	ltm	7	diff_vonmises	-0.015982646802891	-0.9157382072539176	2.085632552108492	1.204574163840766	0.3100914505303409	2.6138928691827683	0.0834774479165805	-0.3298236409511025	0.4133010888676831	79.8168087227192	far	V2
2	3.0	ltm	7	diff_vonmises	0.0421824262064214	2.41687499124999	0.9808147822694	38.70773630628417	0.9197138201876696	39.65409807342896	0.1401213422810929	-0.2604559293777311	0.400577271658824	86.96456678247239	far	V3
3	4.0	ltm	7	diff_vonmises	-0.1055768451224596	-6.049107639823289	0.9884438912589514	1.260416510231892	6.3381045516237875e-15	3.019821780527539	-0.0526789532073423	-0.4213499137314416	0.3686709605240992	128.98345784739277	far	V4
4	5.0	ltm	7	diff_vonmises	0.0156819588594167	0.8985100571423722	1.87943612156796	1.4265961017032922	0.1973557062637708	2.3649049895917758	0.2546757938166804	-0.2960866608435544	0.5507624546602348	90.20345578783608	far	V3ab
5	6.0	ltm	7	diff_vonmises	-0.1676546717667764	-9.605905107887413	0.534360286579713	17.84771604196016	0.4244346198227259	18.702036191428057	0.1665480024564605	-0.3103297406227996	0.4768777430792601	124.0848484799374	far	IPS0
6	7.0	ltm	7	diff_vonmises	0.2581702697631603	14.792066853183018	0.8229410506202491	47.35463973814162	0.7810928899738419	48.23429493552749	0.1144978042052855	-0.2398227820218901	0.3543205862271756	94.58168484309708	far	LO1
0	1.0	ltm	8	diff_vonmises	0.3134698521791998	17.960499534457945	3.811824489852768	0.6455246602519822	0.1331504474284165	3.1196391693486563	-0.0813230891831068	-0.4853949777622815	0.4040718885791746	64.18557498761541	far	V1
1	2.0	ltm	8	diff_vonmises	0.0135394219557275	0.7757517351099532	1.0961646098700313	196.87512516550572	1.0806836604834196	198.29296454124332	0.0653490594885113	-0.3472133974206279	0.4125624569091393	78.13967328953572	far	V2
2	3.0	ltm	8	diff_vonmises	0.121779419900307	6.9774467918390615	0.7884899908494095	119.58167222017738	0.7686865778620864	120.70724479059476	0.1171899685099191	-0.2962879814260208	0.41347794993594	95.31590090222778	far	V3
3	4.0	ltm	8	diff_vonmises	0.0993770678852516	5.693886570209992	1.094953914570954	1.1211558232133274	2.5878416176409023e-13	2.845437295088424	-0.0497147307280868	-0.4077405282411349	0.3580257975130481	124.6410773412921	far	V4
4	5.0	ltm	8	diff_vonmises	0.0021407997147558	0.122658788438323	1.1840241687894637	4.046652474935727	0.6203670176928284	5.092840736986589	0.1501920913101864	-0.2860402480922989	0.4362323394024853	89.99670106325436	far	V3ab
5	6.0	ltm	8	diff_vonmises	-0.1300720321394631	-7.452578474281239	0.5017757267668704	2.3945144922629176	1.354293220061009e-16	3.3284849145224293	0.0618593119727938	-0.3128706012476845	0.3747299132204783	151.84253921472168	far	IPS0
6	7.0	ltm	8	diff_vonmises	0.0128590916503227	0.73677167993541	1.8745489760043743	0.5498481877835025	1.1791960416946242e-11	2.575012026149337	-0.1370913718311798	-0.4034057488867967	0.2663143770556168	100.02343490994468	far	LO1
0	1.0	ltm	9	diff_vonmises	0.089741089249724	5.141785662916033	3.652021157122593	0.3572887995040645	7.050827598590935e-27	3.576959945177861	-0.3079834871060981	-0.5691150414467888	0.2611315543406907	71.73387041192137	far	V1
1	2.0	ltm	9	diff_vonmises	0.063489851222424	3.6377005169584056	2.871375576164619	0.7564523968032947	0.1803349994122219	2.105327223222767	0.0851035200158887	-0.3058955183038697	0.3909990383197584	73.34725312289888	far	V2
2	3.0	ltm	9	diff_vonmises	0.0204858596675508	1.1737532986479389	2.256710730044288	0.5637646654469364	0.1229940835892192	1.2481221568253695	0.0889201881718205	-0.1755089674663398	0.2644291556381604	84.75129259582647	far	V3
3	4.0	ltm	9	diff_vonmises	-0.4144912545556632	-23.74859953112216	0.4882583054175317	143.9048333354461	0.4756873703710094	145.53333657325229	-0.0572984780412682	-0.3596985987301941	0.3024001206889259	114.31857829635328	far	V4
4	5.0	ltm	9	diff_vonmises	0.0145114561608728	0.8314451926071282	2.116552537615492	0.9638607830890914	1.0880740034035165e-17	1.7823153718883549	0.2308441791277951	-0.2762000491684796	0.5070442282962748	94.42058229233736	far	V3ab
5	6.0	ltm	9	diff_vonmises	-0.2125255148442599	-12.17681503942102	0.3515372776466672	102.21145020814744	0.3354770752650408	102.81864461031194	0.1657256568511584	-0.2776096345166934	0.4433352913678519	139.48303802040488	far	IPS0
6	7.0	ltm	9	diff_vonmises	0.3344741215565886	19.163955521538195	1.000330040951999	2.6563095345573644	0.3818673916395903	3.507123953365721	0.1191307418664122	-0.2466818358005523	0.3658125776669645	104.3248597749861	far	LO1
0	1.0	ltm	10	diff_vonmises	-0.3841543638531419	-22.010423730318024	0.0008037817946865	640.497943642745	1.3536089626309252e-18	641.7373976723866	-0.1153125354395285	-0.2791850062415193	0.1638724708019907	175.78025682763166	far	V1
1	2.0	ltm	10	diff_vonmises	0.2445103981549395	14.009413861341384	0.863460172677873	84.42453713894157	0.8446237993414499	85.0605849729504	0.1048607867782145	-0.180545197002095	0.2854059837803095	92.33220455394007	far	V2
2	3.0	ltm	10	diff_vonmises	0.2057757941286619	11.790084529525233	1.2502697182694682	41.8666254238774	1.2194581318383484	42.08740381716479	0.1525154457193842	-0.1018273762982691	0.2543428220176533	80.66513653428049	far	V3
3	4.0	ltm	10	diff_vonmises	-0.2746900830583005	-15.738582433338658	10.864133074920526	0.3044429416268118	3.500184726274158e-35	1.285312751514584	0.1909042855418706	-0.2045638776777993	0.3954681632196699	41.16160980430149	far	V4
4	5.0	ltm	10	diff_vonmises	-0.1174799889433839	-6.7311075436994745	2.8540809146827124	0.4581890370625434	0.1701799741312069	0.7678715646422916	0.1478015047319842	-0.1081600428080381	0.2559615475400224	76.30125167568033	far	V3ab
5	6.0	ltm	10	diff_vonmises	-0.4622533500595784	-26.485166024197262	0.7335570446005942	38.68751234989357	0.6941772177707553	39.12210559361684	0.1673340303340165	-0.1728380807042127	0.3401721110382292	104.6233536603441	far	IPS0
6	7.0	ltm	10	diff_vonmises	0.0714696180227812	4.094907476117489	1.1428413838991385	203.2225532952185	1.1290411299978524	204.47750757316575	0.0634473065615282	-0.3120351165430328	0.375482423104561	76.55949816326026	far	LO1
0	1.0	ltm	11	diff_vonmises	0.182385057750984	10.449894055381169	4.865771620969984	0.4461887825923067	2.189524668382305e-15	3.114392496847617	-0.1144004533695134	-0.4956483137428661	0.3812478603733527	61.92310058830134	far	V1
1	2.0	ltm	11	diff_vonmises	-0.0755909262759038	-4.331041045093849	1.1653664853848764	143.56378381202117	1.143425828368278	144.77007570123743	0.1409253772367762	-0.3252343042246863	0.4661596814614626	77.79633863194755	far	V2
2	3.0	ltm	11	diff_vonmises	0.1157785025919982	6.633619556865962	1.0160874454133366	107.63240968619856	0.990378826911055	108.6108368566576	0.1907277201523172	-0.2853503412584999	0.4760780614108171	85.44751570067157	far	V3
3	4.0	ltm	11	diff_vonmises	-0.0541174462588061	-3.100701268655637	1.606936395927761	1.1123651536500965	1.6894720105653074e-10	2.7038263433371528	0.0720696375695795	-0.4101305565916618	0.4822001941612414	107.2283233497991	far	V4
4	5.0	ltm	11	diff_vonmises	0.0197173125918371	1.1297187948524223	0.993389839332492	88.82469619518416	0.9590337500608962	89.4792591466901	0.3598228978187201	-0.2769976078603307	0.6368205056790508	90.3301222574787	far	V3ab
5	6.0	ltm	11	diff_vonmises	-0.0919849573060957	-5.270349832330352	1.4178711737694414	1.355171093967536	6.009312228785469e-14	1.952202356984394	0.2566504099981373	-0.2774121900266493	0.5340626000247866	113.05153031075606	far	IPS0
6	7.0	ltm	11	diff_vonmises	0.1247176807323785	7.145796736625355	0.8889490040664781	117.13921096865845	0.8691388940811615	117.90377762594518	0.2001210704209413	-0.244995314755835	0.4451163851767763	92.6441925524374	far	LO1
0	1.0	ltm	12	diff_vonmises	0.2472997278964976	14.16923068320298	4.1397067124156575	0.4185320374254536	2.35607199716726e-18	3.34160263327408	-0.203972524603159	-0.5317494004377654	0.3277768758346064	67.26354688410612	far	V1
1	2.0	ltm	12	diff_vonmises	0.0629459448026183	3.606536974653468	0.9387132512898276	142.6285814779706	0.9177617089832588	144.2191472941514	0.0495643718906109	-0.3729088120951189	0.4224731839857298	84.33638183925623	far	V2
2	3.0	ltm	12	diff_vonmises	-0.0130002414574739	-0.7448589681642613	0.7485052377329525	10.575367838096168	0.5426053984781166	11.831087638185036	0.0934661439485502	-0.3276600663534763	0.4211262103020265	104.37287767122984	far	V3
3	4.0	ltm	12	diff_vonmises	-0.0522977857273957	-2.9964424000592884	0.0005790834237396	2147.286887230726	8.251824361814376e-32	2149.278744034362	-0.1190826858175455	-0.5148877256094124	0.3958050397918669	179.8885255051518	far	V4
4	5.0	ltm	12	diff_vonmises	-0.0602001723419205	-3.449215801152239	1.7910198887114617	1.0710257434745925	0.0253416821810019	2.148762843748801	0.1660042696982003	-0.318999429193463	0.4850036988916634	100.46110965222611	far	V3ab
5	6.0	ltm	12	diff_vonmises	-0.1652737203566935	-9.469486640863936	0.2116741092072805	5.992719249405662	1.0191497939821904e-18	6.907101359528558	0.0662178814117731	-0.3360488789840313	0.4022667603958044	167.3197179423217	far	IPS0
6	7.0	ltm	12	diff_vonmises	0.2426218781623198	13.9012096362382	0.8598976192961345	100.27970677150014	0.8389033557502534	101.759263556599	-0.0585186465025486	-0.3099207934259116	0.2514021469233629	84.02782297133382	far	LO1
0	1.0	ltm	13	diff_vonmises	0.3116593373933737	17.856764678484076	1.724807283689321	1.8186321213842265	0.355551285498108	4.424302844639139	-0.1162338621752169	-0.5302055772893441	0.4139717151141272	79.99318243371599	far	V1
1	2.0	ltm	13	diff_vonmises	-0.0547822926531876	-3.138794161078191	0.994797229305805	217.88787580413344	0.9803807591911846	219.4426852496202	0.0693264730811193	-0.3737881619461767	0.4431146350272961	82.17515364744767	far	V2
2	3.0	ltm	13	diff_vonmises	0.0931626950088052	5.337829232069038	0.8528245527590195	202.44582320835443	0.8370032369397863	203.8995734624681	0.1595448806782968	-0.3820450033966374	0.5415898840749342	91.4790199687642	far	V3
3	4.0	ltm	13	diff_vonmises	0.1764893929668292	10.112097345825187	1.5310909386149534	1.1014178993327446	6.411553690259361e-17	3.0329438031357925	0.000344022682755	-0.4601080338916851	0.4604520565744401	109.38233751206678	far	V4
4	5.0	ltm	13	diff_vonmises	0.0105985678867203	0.6072532087919611	0.8904263245026647	73.93946893500835	0.849430689472673	75.25782357061767	0.1652496555003431	-0.3534334976923823	0.5186831531927254	90.51870389502608	far	V3ab
5	6.0	ltm	13	diff_vonmises	-0.1060615083465505	-6.076876797048898	1.1317186809766655	1.3225327365631236	2.340612179631453e-13	2.6170120832303696	0.0681477359482042	-0.3661095378845829	0.4342572738327871	123.22121561776224	far	IPS0
6	7.0	ltm	13	diff_vonmises	-0.1627513693016035	-9.324966570956912	0.9074453064617208	130.28190714325544	0.8871975802339532	132.29880972776138	-0.1435182426486889	-0.4081190787155044	0.2646008360668155	78.81637601231952	far	LO1
0	1.0	ltm	14	diff_vonmises	0.0300664687442754	1.7226817639089869	0.3788300111906877	68.74283432101072	0.3566945173898135	70.89850963766958	-0.1977983385418884	-0.4241416693367634	0.226343330794875	122.66379211398112	far	V1
1	2.0	ltm	14	diff_vonmises	0.0382773327321667	2.193129616571115	0.8302485605594134	12.630528205884389	0.6667933457701115	13.727663440590876	0.0886339210940372	-0.2799813306316436	0.3686152517256809	96.63915983466369	far	V2
2	3.0	ltm	14	diff_vonmises	0.0882374525841396	5.0556336280569205	1.0835386841039611	39.412345054352784	1.0228890153062933	40.15420082289676	0.1931619574651861	-0.2332406018942006	0.4264025593593867	84.30681769969243	far	V3
3	4.0	ltm	14	diff_vonmises	-0.1382676330198961	-7.922151815303752	1.6744986537549815	0.9398697778970082	8.322016707587936e-17	2.504258302977188	0.0366994716688617	-0.3832787447431817	0.4199782164120434	105.2570754928288	far	V4
4	5.0	ltm	14	diff_vonmises	-0.0404941234368133	-2.320142368011199	1.4815294140468025	1.840263935990668	0.4016702561838317	2.446730731915976	0.2320222352463804	-0.2204136206832834	0.4524358559296638	92.84089008935058	far	V3ab
5	6.0	ltm	14	diff_vonmises	-0.2710669555831089	-15.53099252037229	0.5375732610043177	110.55383357562228	0.5206446087637927	111.269259018568	0.171983073628553	-0.2689887870232468	0.4409718606517998	119.36215300521296	far	IPS0
6	7.0	ltm	14	diff_vonmises	0.1436207332835549	8.228861867721765	1.3936278940453728	165.82563746947304	1.3783470859771667	166.6458606532652	0.1158538436143459	-0.2389223539643126	0.3547761975786585	71.10031871309698	far	LO1
0	1.0	ltm	15	diff_vonmises	-0.0819291642624072	-4.694195331269991	0.1682633910984283	76.79419891204954	0.1559168807181855	78.93032520965373	-0.2328836822964906	-0.4269122665657097	0.1940285842692191	156.51706000559096	far	V1
1	2.0	ltm	15	diff_vonmises	0.1787258230414108	10.240235350274842	0.7634116886806678	114.30706102596072	0.7454413244821506	115.40474544415991	0.0702919783266153	-0.2720801677541189	0.3423721460807343	95.51165597056836	far	V2
2	3.0	ltm	15	diff_vonmises	0.1358246137286735	7.782177120647655	2.5854803277449627	0.6935190146159707	0.1831623338028424	1.3925739573432423	0.1528904495654393	-0.193575128971828	0.3464655785372673	78.40107106735664	far	V3
3	4.0	ltm	15	diff_vonmises	-0.1997472073019671	-11.44467194792746	1.364686921368392	0.9494793390491002	6.277985963708233e-21	2.545697998035267	-0.0166908279329529	-0.3798067560935743	0.3631159281606214	114.68642281205815	far	V4
4	5.0	ltm	15	diff_vonmises	-0.0822111431655156	-4.71035153232983	1.4034074079320016	1.732650012981496	0.4045426615176122	2.347577729478237	0.1832244493154159	-0.2053495580239769	0.3885740073393928	93.88759005543426	far	V3ab
5	6.0	ltm	15	diff_vonmises	-0.3275034386262559	-18.76456480930625	0.4663227841751369	98.46509640820864	0.4499245691092493	99.10602232088377	0.1474967459856948	-0.2506574903202931	0.398154236305988	126.34612972462276	far	IPS0
6	7.0	ltm	15	diff_vonmises	0.127905400690105	7.328439636472707	1.365237624688121	168.55930325591433	1.3498754839983775	169.63672743164005	0.0278934852460821	-0.2770314872816222	0.3049249725277043	68.93453928957581	far	LO1
0	1.0	ltm	16	diff_vonmises	0.0327354153112775	1.8756011379441395	3.0149322691729816	0.455944821391464	7.66621921359711e-26	3.5877106037849544	-0.2715334056834527	-0.5702813995424544	0.2987479938590017	79.13455196922763	far	V1
1	2.0	ltm	16	diff_vonmises	0.0180776883125127	1.035775243659953	2.890236845363228	0.8989717543215582	0.2514056539338579	2.109326627565739	0.1514460233544067	-0.2986290310898686	0.4500750544442753	72.1058682318623	far	V2
2	3.0	ltm	16	diff_vonmises	0.0540593326054411	3.09737160158574	3.280703962312176	0.5567905634796175	1.0938116698169482e-14	1.4500400723129272	0.1528237752805215	-0.2302386636300143	0.3830624389105359	75.78823544453704	far	V3
3	4.0	ltm	16	diff_vonmises	-0.2895712351984712	-16.59120964526251	0.4754139746174416	90.77070771184738	0.4492373539433991	92.43301408806518	0.0468454864499321	-0.4374344167503299	0.484279903200262	121.38021701814984	far	V4
4	5.0	ltm	16	diff_vonmises	-0.0062322332890519	-0.3570806644036095	1.7481823580096554	1.6482903000956273	0.128724538889084	2.209031924102741	0.3853710583131361	-0.2840872567403527	0.6694583150534889	97.5463449605042	far	V3ab
5	6.0	ltm	16	diff_vonmises	-0.1526566810786473	-8.746583540281106	0.4510505445350863	53.42910066476682	0.4149167214984203	53.79042750197136	0.2731450626633211	-0.2669067681878569	0.5400518308511781	131.8135748672355	far	IPS0
6	7.0	ltm	16	diff_vonmises	0.2290167971493632	13.121695914262215	0.9810948994148716	102.13761108387524	0.9591375392985164	102.77932698249388	0.210966963059171	-0.2186950220907295	0.4296619851499006	88.84662365515729	far	LO1
0	1.0	ltm	17	diff_vonmises	0.136305957935367	7.809756112184262	0.4960415095506911	43.89543013049277	0.4544419888388756	46.093474304779214	-0.1837915521417628	-0.4253730973282792	0.2415815451865164	107.97729978197204	far	V1
1	2.0	ltm	17	diff_vonmises	-0.022708424315755	-1.301096872685018	1.4841404551555428	1.2019094731399858	0.1521859764614234	2.4413849014417948	0.0674407091845498	-0.3062724388714218	0.3737131480559716	99.1589759961588	far	V2
2	3.0	ltm	17	diff_vonmises	0.0426715413590265	2.44489922519016	1.0874422498960177	179.49575966252675	1.0728151007749158	180.26480007671316	0.2193207536205932	-0.2484268544247783	0.4677476080453715	83.51931309074175	far	V3
3	4.0	ltm	17	diff_vonmises	-0.0510595691764549	-2.925497817567136	1.8050103721686228	0.7773521890116944	8.30942924981343e-18	2.409491950262426	-0.0066531357612136	-0.3732888028551482	0.3666356670939346	101.78135447642318	far	V4
4	5.0	ltm	17	diff_vonmises	-0.0027046390167649	-0.1549644007670462	2.000363441810833	1.0090397426090625	0.1729106400971137	1.785089643687506	0.185379158741466	-0.2330099734905179	0.418389132231984	88.43767291176044	far	V3ab
5	6.0	ltm	17	diff_vonmises	-0.2729359448312567	-15.638077716246483	0.5462833206105864	73.4403298681237	0.5198215242154219	74.42275113543887	0.1189093739375337	-0.2998391228316688	0.4187484967692025	116.70418602441669	far	IPS0
6	7.0	ltm	17	diff_vonmises	0.1862204777537469	10.669647434199538	1.3491629000321328	112.11320595123765	1.329230153048729	112.82065365415964	0.1184556811553179	-0.2091473496640965	0.3276030308194144	72.89631351836437	far	LO1
0	1.0	ltm	18	diff_vonmises	-0.5781029387166895	-33.122858512576386	0.4302135576630743	27.849465075934624	0.3932038289450296	28.586216122746617	0.0223406698509807	-0.2013912069537631	0.2237318768047438	126.21790700044748	far	V1
1	2.0	ltm	18	diff_vonmises	0.1029415058027392	5.898113819218434	2.1261320292334744	0.6733190123510576	3.664376859577655e-15	0.8024338730585289	0.2326848205426244	-0.1225821339547121	0.3552669544973366	94.19882623894031	far	V2
2	3.0	ltm	18	diff_vonmises	0.0670269088205665	3.840358989226652	1.6752942251800198	54.061206033325824	1.651109746635852	54.02405635318109	0.2377735478253839	-0.0691827106528935	0.3069562584782774	73.65782343890396	far	V3
3	4.0	ltm	18	diff_vonmises	-0.3666095185807401	-21.005178143999345	2.5349556106311657	1.109997737176212	0.339982533510919	1.7787279897557144	0.2730670149544952	-0.2256739010961138	0.498740916050609	76.44985373664773	far	V4
4	5.0	ltm	18	diff_vonmises	-0.0943537934711733	-5.406074146947256	2.197759567075432	0.6481020305476507	3.497859899546701e-14	0.3978036650171233	0.2905288103300169	-0.0589481992749932	0.3494770096050102	92.7064373820609	far	V3ab
5	6.0	ltm	18	diff_vonmises	-0.4348629548560876	-24.91581197984187	0.907274465491512	73.0192761734879	0.8824478368928077	73.10823593513881	0.3169353733011419	-0.1475795790629543	0.4645149523640963	98.22427894514163	far	IPS0
6	7.0	ltm	18	diff_vonmises	0.1272532111627203	7.291071929110933	1.4948362097228685	192.78580132433052	1.4790608021177922	193.24648887945216	0.3355890919685862	-0.2218821219294717	0.557471213898058	73.29396897813803	far	LO1
0	1.0	ltm	19	diff_vonmises	0.0808298446613364	4.631208957792626	0.6276775295153019	88.38651146571256	0.6096966640462246	89.72549530583429	-0.0567234550025688	-0.2779553205260168	0.2212318655234479	99.05297859185458	far	V1
1	2.0	ltm	19	diff_vonmises	0.0302484312709817	1.733107448718796	0.8119074556531669	71.44765904577221	0.7877849478099536	72.13377800616527	0.122389471396282	-0.2007456331074806	0.3231351045037627	95.83603407549596	far	V2
2	3.0	ltm	19	diff_vonmises	0.0806851589144812	4.622919075142127	1.3476332922747911	137.5442282336601	1.3339051446461578	137.83841934769148	0.2220015208754731	-0.1423021822665227	0.3643037031419958	77.511318016741	far	V3
3	4.0	ltm	19	diff_vonmises	-0.1730519936590422	-9.915148872987803	4.721032540559338	0.433920421448882	1.0208849531521289e-15	1.451499998334734	0.1338827813142453	-0.2309844570655274	0.3648672383797727	62.881499178675256	far	V4
4	5.0	ltm	19	diff_vonmises	-0.0474135259318045	-2.716594927726484	2.433448671638039	0.7298994535373343	0.3378753055157622	1.2129981733847623	0.1602900931422798	-0.1526239812463606	0.3129140743886405	77.4093519261528	far	V3ab
5	6.0	ltm	19	diff_vonmises	-0.3391035473691834	-19.429202082168803	2.2266461285397825	0.7902336216857164	1.3442399837277906e-12	1.634970307333094	0.174605086964372	-0.2551516053332249	0.4297566922975969	92.01658379728148	far	IPS0
6	7.0	ltm	19	diff_vonmises	0.0423634092325001	2.427244554807802	1.1431742672842946	189.143578018388	1.128082046310355	190.1921327779864	0.1484915889485307	-0.2900086400983177	0.4385002290468485	79.03695955813984	far	LO1
0	1.0	ltm	20	diff_vonmises	-0.2832944045741742	-16.231573741771825	0.0877289750227972	27.764490634399408	0.0629079774204483	30.235275036534578	-0.3047096458966818	-0.4742964098458273	0.1695867639491455	168.05129146591506	far	V1
1	2.0	ltm	20	diff_vonmises	0.2621334483783643	15.01914026129071	0.440218003743108	109.9671198304037	0.4255643539969153	111.08994539132983	0.0361255591725324	-0.3040709312372733	0.3401964904098058	125.12880201011372	far	V2
2	3.0	ltm	20	diff_vonmises	0.056103023127743	3.214466443144524	2.1348178588079096	1.6035185615808696	1.0118912115446927	2.103579347521236	0.1368431599249377	-0.1661456223637363	0.3029887822886741	69.04243913199605	far	V3
3	4.0	ltm	20	diff_vonmises	-0.2666693658075659	-15.279029186203791	0.4340467928423369	99.26778977704164	0.419517590592651	100.86131964478076	-0.1032999878000993	-0.3327100843724455	0.2294100965723462	118.23351665023404	far	V4
4	5.0	ltm	20	diff_vonmises	-0.0957519186278019	-5.486180817653141	1.0260484370499012	32.519361438131895	0.9549031260141136	33.498769594046045	0.1116582486754271	-0.2580727158119917	0.3697309644874189	84.27766612802841	far	V3ab
5	6.0	ltm	20	diff_vonmises	-0.3444531275682052	-19.735710449739504	0.6506218243137637	177.9929622981838	0.6375134146540601	179.17074793419087	0.1221141164500068	-0.3239668705597456	0.4460809870097524	105.28791229905556	far	IPS0
6	7.0	ltm	20	diff_vonmises	-0.0415924759122766	-2.3830733292729898	1.3508208415632343	169.58009001293718	1.3358507835428066	170.71928698723974	-0.0022898642323241	-0.2835512740143358	0.2812614097820116	68.27250352169645	far	LO1
0	1.0	ltm	21	diff_vonmises	0.2537744760051669	14.540206423240043	0.6660188352790769	52.8146855026626	0.6154360619036272	55.67239419724186	-0.2598689463842554	-0.5374882340839342	0.2776192876996788	90.58669456038253	far	V1
1	2.0	ltm	21	diff_vonmises	0.0859202058415448	4.922865169615799	0.9727741014191782	134.50573336171152	0.953892438342101	135.79613282915307	0.0521816154595242	-0.307582696889364	0.3597643123488883	83.09116949202982	far	V2
2	3.0	ltm	21	diff_vonmises	0.1151777710901898	6.599200177191783	1.598246350201061	1.3831672325408824	0.4957693937621816	2.152239819765585	0.0932919488633068	-0.2005128466683261	0.2938047955316329	84.22848972585456	far	V3
3	4.0	ltm	21	diff_vonmises	-0.1161503509992179	-6.654924901218311	0.9727188351761528	0.9831316443418392	8.595780453878214e-16	2.585117484429581	-0.080573269278979	-0.3641443692502761	0.2835710999712971	129.62674799100483	far	V4
4	5.0	ltm	21	diff_vonmises	-0.0074941162586491	-0.4293812328009662	1.3565380890621863	2.9703937177574917	0.5676559640688671	3.975732837740214	0.179491846007195	-0.2855265915050153	0.4650184375122104	88.26685449424255	far	V3ab
5	6.0	ltm	21	diff_vonmises	-0.1877290063124657	-10.75607975388908	0.446555362261858	72.95580766213715	0.4220932377712055	73.81523259453735	0.1301088661394409	-0.2986704765553494	0.4287793426947903	128.2375353490504	far	IPS0
6	7.0	ltm	21	diff_vonmises	0.2449650574026381	14.03546391735111	1.1922512500005489	1.1171571771195266	0.0507298124221636	2.638369404873817	-0.0195213395941654	-0.3600054144276544	0.3404840748334889	115.5648870943864	far	LO1
0	1.0	ltm	22	diff_vonmises	0.2159923088198983	12.375447702666484	4.13912723364772	0.5117276475851326	0.006981986032339	3.7180928306579935	-0.1950849568230395	-0.5888974853456601	0.3938125285226206	66.58547844918778	far	V1
1	2.0	ltm	22	diff_vonmises	-0.0875561916516795	-5.01660025187981	2.6658740449325133	0.9087538599091272	0.1188622425031173	2.818942109942581	0.0525823847803158	-0.414128282442887	0.4667106672232028	77.38659877110194	far	V2
2	3.0	ltm	22	diff_vonmises	-0.095808499549044	-5.489422665641277	0.7614302592135443	195.04805663322745	0.7468204184337441	196.3462354910517	0.1629990550221194	-0.3554749576412739	0.5184740126633933	97.55377613027808	far	V3
3	4.0	ltm	22	diff_vonmises	0.0251147984065777	1.4389719520187925	0.0005346850899258	2035.56328547466	4.639487371920448e-23	2037.656363498784	-0.1598837432070468	-0.5063173802787446	0.3464336370716978	179.919172891258	far	V4
4	5.0	ltm	22	diff_vonmises	0.0341513259209302	1.956726840045034	1.8835053839086773	1.0234409622479796	2.506362418547281e-20	2.301261868296401	0.142868874947997	-0.3544856471695178	0.4973545221175148	99.79599452919928	far	V3ab
5	6.0	ltm	22	diff_vonmises	-0.2391378474644838	-13.701589381558176	0.4208713512324932	2.993171335996917	4.135826962148784e-18	4.199579526065699	0.0261736725595376	-0.369054726135783	0.3952283986953206	155.39240986092955	far	IPS0
6	7.0	ltm	22	diff_vonmises	0.4194134549808386	24.03062084140221	1.2050291728489375	2.3500746021217607	0.5512468526822296	3.1913862543901907	0.0750634532056145	-0.2131681381832239	0.2882315913888384	90.20765318010596	far	LO1
0	1.0	ltm	23	diff_vonmises	-0.2151973959124791	-12.329902547990889	0.2084444223961516	82.66544601710387	0.1966893575789062	84.15657639154666	-0.117568992876599	-0.3306821766121555	0.2131131837355564	151.6327523703684	far	V1
1	2.0	ltm	23	diff_vonmises	0.1008969208714515	5.780967731799604	0.3827074088734516	98.32622539879944	0.3672961418471113	99.1606594907019	0.0909920303374853	-0.2785313706149441	0.3695234009524295	134.5220296398685	far	V2
2	3.0	ltm	23	diff_vonmises	0.0456687537099788	2.616626843204208	1.3160796309493814	142.43910266482186	1.2995193012483288	142.88747647943725	0.2499921958949329	-0.1873692702563332	0.4373614661512661	77.65373559768005	far	V3
3	4.0	ltm	23	diff_vonmises	-0.1368344271725176	-7.84003516907549	3.370185500242842	0.5781822139104612	4.151498672119536e-30	1.9211170112422464	0.0986383753746443	-0.3052771784446775	0.4039155538193219	74.75119399802918	far	V4
4	5.0	ltm	23	diff_vonmises	-0.0889226884984226	-5.094894753916123	2.2964867945325973	0.6727463478503065	0.1120781070995715	1.279848775810824	0.1499354357720667	-0.1802905985599631	0.3302260343320299	85.3359097091041	far	V3ab
5	6.0	ltm	23	diff_vonmises	-0.3749375266696487	-21.482337859244616	1.8047858339929448	0.9250897297784616	2.4287801714866693e-13	1.93116825882254	0.1410298017759565	-0.2952185892286287	0.4362483910045853	101.51044992652676	far	IPS0
6	7.0	ltm	23	diff_vonmises	0.0448185888827642	2.56791598671434	1.6024326964390072	180.80272952834548	1.5857864205685854	181.75957552180336	0.0872585703281316	-0.2824568811372216	0.3697154514653533	65.03124043232978	far	LO1
0	1.0	ltm	24	diff_vonmises	0.1607916633403424	9.21268369029002	0.2670237368344701	98.94897202115	0.2523518865495078	102.39734177049242	-0.4386035293277928	-0.617521170410102	0.1789176410823092	131.50741761519913	far	V1
1	2.0	ltm	24	diff_vonmises	0.1562848041070135	8.95445967736071	0.2743490976623248	112.79458313442834	0.2603992737865019	114.55189051906238	-0.0779757958617075	-0.4251972887978077	0.3472214929361001	144.07561561657224	far	V2
2	3.0	ltm	24	diff_vonmises	-0.0235499703199196	-1.3493139069897502	1.2377419722321876	144.20140003333898	1.2220483662125865	145.01603709353552	0.1039429378866501	-0.2255249772546825	0.3294679151413326	75.47305657002701	far	V3
3	4.0	ltm	24	diff_vonmises	0.154208800247932	8.83551341798247	0.0002309288015703	1761.2183566955869	3.335621190379236e-32	1763.2673735178255	-0.2613768168733372	-0.3908380206143533	0.1294612037410161	179.1450394636479	far	V4
4	5.0	ltm	24	diff_vonmises	0.0023889035017234	0.1368740883127751	2.242181635081627	0.960404048882945	0.2356417167789738	2.633977742701074	0.0073683921792179	-0.3588557189559896	0.3662241111352076	78.3567655468141	far	V3ab
5	6.0	ltm	24	diff_vonmises	-0.266156236376144	-15.249629035439368	0.5368223857389524	159.0780099044272	0.5221216613023979	160.93662993161803	-0.0273200923889191	-0.4224489935990156	0.3951289012100965	110.47670770194377	far	IPS0
6	7.0	ltm	24	diff_vonmises	1.308498095926814	74.97141839751077	0.000128091704809	6651.796907589304	1.0622239742634544e-34	6652.857447403711	-0.033179449698764	-0.3043921728967689	0.2712127231980048	135.47718649181564	far	LO1
0	1.0	ltm	25	diff_vonmises	-0.2049101824557871	-11.740488633972248	0.0002366705401351	1694.6286817229422	1.8805900670815717e-30	1696.6907613691326	-0.2643549833452994	-0.3920178008606854	0.127662817515386	178.78858727020008	far	V1
1	2.0	ltm	25	diff_vonmises	0.4544695002149237	26.039184279734997	0.8833891054018531	111.72241560751068	0.8659933402707792	112.67868630053604	0.0681437075802904	-0.2370565764581425	0.3052002840384329	88.61395495100982	far	V2
2	3.0	ltm	25	diff_vonmises	0.2851028852580486	16.33519205228876	8.947488382501838	0.2025085540829512	2.1981315383888054e-32	0.5356244417425167	0.1528105795475507	-0.0852472735158209	0.2380578530633716	45.40957108809303	far	V3
3	4.0	ltm	25	diff_vonmises	-0.5719051580315062	-32.76775183696768	0.7974651167316372	92.82149839639006	0.7760746734866538	94.2537058738602	-0.0491694824954223	-0.3003826666791944	0.2512131841837721	87.89057236797355	far	V4
4	5.0	ltm	25	diff_vonmises	-0.0953766831335747	-5.4646814075104135	1.0474270963983274	33.80965471011868	1.0032823771137145	34.20605784746579	0.1459647707138263	-0.1399571207234085	0.2859218914372348	86.73392100867406	far	V3ab
5	6.0	ltm	25	diff_vonmises	-0.4382515786824335	-25.10996582344896	0.6027789269204137	111.52953662119636	0.5902650061984288	111.89717986151376	0.1671162969134059	-0.1739479568052058	0.3410642537186117	114.82431699134692	far	IPS0
6	7.0	ltm	25	diff_vonmises	0.2219361351539238	12.716003865764858	1.2948036520833086	132.33805378035433	1.280019138610088	133.11749310979266	0.049442156547407	-0.2041198476556545	0.2535620042030615	72.07465860771015	far	LO1
0	1.0	ltm	26	diff_vonmises	-0.7094793515229635	-40.650172493944346	0.292114240945218	47.15962262430528	0.2691067607130067	47.99608111185413	0.0219120122186797	-0.2455734005230718	0.2674854127417516	138.67024995056198	far	V1
1	2.0	ltm	26	diff_vonmises	0.1304674924923159	7.475236683464455	2.6026913143959978	0.6909051015932246	0.0763681763830942	0.9284603921022015	0.257605645198906	-0.134965432589406	0.3925710777883121	82.79698616297125	far	V2
2	3.0	ltm	26	diff_vonmises	-0.0240848616240904	-1.379960921216982	2.958276774080565	0.4315644090721099	5.267113164450232e-12	0.5703072322091691	0.1896206816109909	-0.0900116198599545	0.2796323014709455	79.90723659697645	far	V3
3	4.0	ltm	26	diff_vonmises	-0.4159405643302166	-23.83163886441112	3.146114377262476	0.8036953688679659	0.0150681342963708	1.536331347367653	0.2925733360692987	-0.239854637295208	0.5324279733645068	76.81597674698293	far	V4
4	5.0	ltm	26	diff_vonmises	-0.1618144967116098	-9.271287725608785	1.104441119510443	1.1680520251482691	9.500658077734408e-17	1.0833959488018536	0.2496621797431655	-0.1260713407878604	0.375733520531026	124.18741099309264	far	V3ab
5	6.0	ltm	26	diff_vonmises	-0.5077076131870791	-29.08950346228017	1.9026363591901103	0.9498554919100834	6.251145588355944e-07	1.0325817779246282	0.3110854299650697	-0.1537606262591271	0.4648460562241969	98.8661400505195	far	IPS0
6	7.0	ltm	26	diff_vonmises	0.1390477591148309	7.966849748031537	1.275070317416264	245.6263725234449	1.2609173567584722	246.6386161007921	0.2402167147699998	-0.3166030729302882	0.5568197877002881	76.14123644528561	far	LO1
0	1.0	ltm	27	diff_vonmises	-0.4532032583095986	-25.966633962717257	0.0002076601402667	3280.737926110131	2.6783133905664218e-33	3282.3538591610536	-0.148749281886694	-0.36560692546675	0.216857643580056	174.20268177313562	far	V1
1	2.0	ltm	27	diff_vonmises	0.1674471381046917	9.59401430494306	2.3491298756080714	0.7123207483688259	0.0645360656503194	1.5814912709194364	0.1364425319757411	-0.2329266761490345	0.3693692081247756	85.98138750044751	far	V2
2	3.0	ltm	27	diff_vonmises	-0.1070258475665498	-6.132129364373797	1.3089542802819565	0.981694228342888	0.1571794342133598	1.4018570370376693	0.1323022605064214	-0.1609059006982016	0.2932081612046231	107.72240509776545	far	V3
3	4.0	ltm	27	diff_vonmises	-0.4518272713534714	-25.88779571746612	2.792513587095931	0.6319744725487432	3.337549443339016e-14	1.850633370706463	0.1027090474399086	-0.2930463094063106	0.3957553568462192	82.20231680215957	far	V4
4	5.0	ltm	27	diff_vonmises	-0.1664119680259338	-9.53470342835201	0.6629483057784766	2.4771601515352586	0.2130899512082518	2.8442553659141567	0.1335261557802375	-0.1791281093374749	0.3126542651177124	130.93957795567303	far	V3ab
5	6.0	ltm	27	diff_vonmises	-0.5051747504104925	-28.944381115095972	1.1854698272560429	1.016451176729096	1.2591121859580972e-10	1.4299964341236662	0.1550519734815636	-0.1918548133880486	0.3469067868696123	119.73131253011066	far	IPS0
6	7.0	ltm	27	diff_vonmises	0.2939431875130191	16.841704061118556	1.2343774693814171	172.42793952521333	1.2202427194014214	173.31924750617603	0.1070837287656729	-0.2446159830863479	0.3516997118520208	75.39022670743296	far	LO1
0	1.0	ltm	28	diff_vonmises	-0.3101305373842143	-17.769170890239682	0.330123898244768	44.95093700698885	0.315153703992043	45.46781099587523	0.0111620887888506	-0.1461844467216426	0.1573465355104932	138.35360520023391	far	V1
1	2.0	ltm	28	diff_vonmises	0.4424286945724365	25.349296934483167	0.2314978909577352	71.15402114062283	0.2184430803682828	71.28572193426291	0.1366070096370197	-0.1462533717706833	0.2828603814077031	150.9062091957766	far	V2
2	3.0	ltm	28	diff_vonmises	0.2118126655034427	12.135971780763512	1.97729030917942	21.3821775305028	1.9202757333033555	21.22574770144101	0.2711678829853952	-0.0494339000359389	0.3206017830213341	70.41122806896598	far	V3
3	4.0	ltm	28	diff_vonmises	-0.2173700528339688	-12.454386619922134	7.283299466759764	0.417806625464995	0.1188066530047761	1.086395564593295	0.2474253809192442	-0.175857789172437	0.4232831700916812	49.24243241492454	far	V4
4	5.0	ltm	28	diff_vonmises	-0.2416224827669554	-13.84394849801901	2.7951286876587966	23.01712895184189	2.7251149872578617	22.996948224001933	0.223238200043637	-0.0726307627421092	0.2958689627857462	56.28317780721622	far	V3ab
5	6.0	ltm	28	diff_vonmises	-0.3754333985824891	-21.510749227029446	1.054894959249279	64.74124803714575	1.0211218687616823	65.23468772065097	0.2415432301914428	-0.1955950601114526	0.4371382903028955	87.15538896780517	far	IPS0
6	7.0	ltm	28	diff_vonmises	-0.029297753491878	-1.678637624299281	1.7570217915142814	181.13485392684888	1.738516630220712	181.7575776627728	0.2598843139485751	-0.2527316618021835	0.5126159757507587	65.69606385725021	far	LO1
0	1.0	ltm	29	diff_vonmises	0.2848237511473448	16.319198845827298	0.6428976757715935	213.32597057458875	0.6299304464453779	216.27518361026915	-0.2746859824348533	-0.5523097997571007	0.2776238173222474	90.4681194080044	far	V1
1	2.0	ltm	29	diff_vonmises	0.0820220247143607	4.699515843250604	0.6313108977931128	133.89951478582557	0.6167042993213846	135.32682853042616	-0.0125706264725167	-0.3177566345894647	0.3051860081169479	101.5307135369691	far	V2
2	3.0	ltm	29	diff_vonmises	0.0696002384384338	3.9877999156264634	1.3111434931144357	147.28622636135836	1.2948708398946398	148.0384956715136	0.1371374084118244	-0.2239919877446006	0.361129396156425	74.2198723861141	far	V3
3	4.0	ltm	29	diff_vonmises	0.2666841997061818	15.279879105988208	3.4578475837540616	0.331704083974771	1.3143188539838233e-15	2.0267030202575644	-0.0872153797130503	-0.3223263013737077	0.2351109216606574	73.76874426799048	far	V4
4	5.0	ltm	29	diff_vonmises	-0.0009953123206289	-0.0570271952694097	1.106266834828588	140.54636158526273	1.0828460774277675	142.02007080860255	0.0900971929669083	-0.3680080546674951	0.4581052476344034	78.42674259637354	far	V3ab
5	6.0	ltm	29	diff_vonmises	-0.0750218855916814	-4.298437415516666	0.8414936064247487	102.94979322376274	0.8111757100672571	104.6081955377424	0.0887630688578582	-0.4009034115850003	0.4896664804428585	90.63132681021108	far	IPS0
6	7.0	ltm	29	diff_vonmises	0.961016190860154	55.062171780025615	0.0001153632663128	9766.147046004067	2.282379117743203e-39	9767.54513003896	-0.0431942669331419	-0.4018193600668382	0.3586250931336963	154.47689004801666	far	LO1
0	1.0	ltm	30	diff_vonmises	-0.2217010653383491	-12.70253535744151	0.0004925787261638	1215.0127313810244	7.902845785060981e-26	1217.5071958088834	-0.3017433503590894	-0.4922458793378155	0.1905025289787261	178.57084523939866	far	V1
1	2.0	ltm	30	diff_vonmises	0.1877124610290307	10.755131778977402	0.5400929970310545	60.97832101258238	0.5099169021134392	62.28761740287051	0.0196994761405697	-0.3204965848481542	0.340196060988724	113.18591768381276	far	V2
2	3.0	ltm	30	diff_vonmises	-0.0270598681915518	-1.550416241556226	1.0063519085331576	52.98912753283796	0.974126859529967	53.59464198187664	0.1193266472696308	-0.1770808628335292	0.29640751010316	86.07444529996499	far	V3
3	4.0	ltm	30	diff_vonmises	-0.3562640233086764	-20.412424927937543	0.4213171505873612	57.80338962119925	0.3967456726438781	59.42110266667515	-0.1071519692940103	-0.3394693554057468	0.2323173861117364	120.58859211608238	far	V4
4	5.0	ltm	30	diff_vonmises	-0.0327200333989207	-1.8747198192852528	2.176251154642939	0.6283943249253462	1.8348265859372343e-15	1.555436499065033	0.0935287606357609	-0.2431640545378357	0.3366928151735967	93.15677518442686	far	V3ab
5	6.0	ltm	30	diff_vonmises	-0.4182341269492611	-23.963050322531345	0.4345773526967175	144.83896795163443	0.4228720626729332	145.8634193905348	0.0747979487219581	-0.3053433338854301	0.3801412826073882	126.50016558892888	far	IPS0
6	7.0	ltm	30	diff_vonmises	0.3167959694452056	18.151072015965664	1.022292196559464	135.28358553450806	1.007749521486765	136.25459266297696	0.0384509155376093	-0.232811119957045	0.2712620354946544	80.80777084087518	far	LO1
0	1.0	ltm	31	diff_vonmises	0.1475737459110551	8.455352807639452	0.4771466447163451	102.97465575901208	0.4633858580272814	104.86357048962408	-0.1896337061799613	-0.3494215866998242	0.1597878805198629	104.55727296643514	far	V1
1	2.0	ltm	31	diff_vonmises	0.3555370644409255	20.37077325293581	0.3646333264293169	97.88538063451134	0.3524801674211292	98.77277146770992	0.0213399582210094	-0.2470067948609813	0.2683467530819907	133.58010404712658	far	V2
2	3.0	ltm	31	diff_vonmises	0.1564028216586589	8.96122158497846	1.7854256828614186	104.02447507207162	1.7661645731160074	104.311387346592	0.1923150765667642	-0.1399312019112493	0.3322462784780136	66.42520478928654	far	V3
3	4.0	ltm	31	diff_vonmises	0.1078693859286439	6.18046055237917	0.902330689828657	106.37562391725132	0.883894543586681	107.6588684911658	-0.0365597882518997	-0.2750008164675623	0.2384410282156626	82.69345728089186	far	V4
4	5.0	ltm	31	diff_vonmises	-0.1551879492845542	-8.891614525295223	1.6781933672666451	99.33228178275564	1.6471183547548645	100.12608954301255	0.1572092579214441	-0.2633264130627459	0.4205356709841901	65.36586431620015	far	V3ab
5	6.0	ltm	31	diff_vonmises	-0.1568736310257005	-8.98819697466517	0.9948799556189952	194.6864272900028	0.9791489570463998	195.8928947927849	0.1724990621232365	-0.3299021010830962	0.5024011632063328	85.12533707025776	far	IPS0
6	7.0	ltm	31	diff_vonmises	-0.2835521381603297	-16.24634078849731	1.6199201797862777	162.24291630092577	1.6010633183006486	163.2465844719726	0.0703079977225371	-0.2921893471077581	0.3624973448302953	64.20918070978496	far	LO1
0	1.0	ltm	32	diff_vonmises	0.0700232032142735	4.012034012164771	2.909488673187255	0.4451545870987041	2.7259627075219746e-18	3.608521193202512	-0.2878168092974655	-0.5734629046322048	0.2856460953347393	80.58027104743601	far	V1
1	2.0	ltm	32	diff_vonmises	0.0592258754820689	3.3933927030898903	1.3429734180330977	3.8809456233937807	0.7239011372986427	5.10019421073149	0.0981700987144609	-0.306022442158485	0.404192540872946	82.17297465092904	far	V2
2	3.0	ltm	32	diff_vonmises	0.0733374522556229	4.201926494489374	3.1848354375039523	0.5211550928549208	0.1115209918535986	1.333484298970274	0.1165690629856071	-0.1991926245274902	0.3157616875130974	72.65493750550004	far	V3
3	4.0	ltm	32	diff_vonmises	-0.2589517332368725	-14.83684141207036	0.4159176180678714	95.52314244300584	0.3960238243542327	97.11459039174558	-0.0129530009520344	-0.3959256700959166	0.3829726691438821	126.60332924578051	far	V4
4	5.0	ltm	32	diff_vonmises	-0.0155683403735064	-0.8920001974250419	1.4351504869491287	2.5953652807343355	0.4110809078551011	3.5244428560189216	0.2830576102816172	-0.3108791646613628	0.59393677494298	92.9637633492355	far	V3ab
5	6.0	ltm	32	diff_vonmises	-0.1644777282825429	-9.423879654489244	0.5211491332861339	83.41912562928043	0.4954870240109503	84.1232093199266	0.2274621067327942	-0.3039434140045554	0.5314055207373496	122.47523338015895	far	IPS0
6	7.0	ltm	32	diff_vonmises	0.1664832333818263	9.538786632470147	0.6557323636716529	133.0968431366162	0.6382292964317732	134.42227270443092	0.0810689430146212	-0.336730855487211	0.4177997985018322	103.4709585622179	far	LO1
0	1.0	ltm	33	diff_vonmises	-0.1936283401340222	-11.094086683803043	0.0003013244775127	1472.9343972723552	4.4564442869753866e-30	1475.1475448726733	-0.2815902275357871	-0.4228658908186844	0.1412756632828973	178.91236779308625	far	V1
1	2.0	ltm	33	diff_vonmises	0.3996509896661301	22.89831498609573	0.6905021789148214	121.39175802667395	0.6756967029879205	122.44793145421562	0.0466302976981367	-0.2568648243523839	0.3034951220505206	99.78299633348286	far	V2
2	3.0	ltm	33	diff_vonmises	0.1805546403141565	10.3450188615038	3.1292095811402465	0.476422243660379	0.4076181941005446	0.8673397335374301	0.1204345652740616	-0.1189117399722627	0.2393463052463244	68.27469662342267	far	V3
3	4.0	ltm	33	diff_vonmises	-0.4508293029389744	-25.83061633922808	0.6265369840031302	98.71530885171433	0.6098457488182137	100.21985470583394	-0.0899674527575271	-0.3010137936488082	0.211046340891281	97.09833275837649	far	V4
4	5.0	ltm	33	diff_vonmises	-0.0846245586382533	-4.848630053129272	1.0945662341638025	9.932854277272488	0.9194252874191722	10.542814252825668	0.1296429867584621	-0.1815672676075087	0.3112102543659708	85.6296921625592	far	V3ab
5	6.0	ltm	33	diff_vonmises	-0.4178807633023019	-23.942804076927235	0.5876632717159548	151.4713729463824	0.5765625127016353	152.14743083643583	0.1411319583061256	-0.2317819167511334	0.3729138750572591	113.55074893413912	far	IPS0
6	7.0	ltm	33	diff_vonmises	0.1793381818012289	10.275320922760285	1.2660099667107088	125.7027085539568	1.2500012287397908	126.55460133330496	0.0375453674802344	-0.2167519105091919	0.2542972779894263	72.35579328796697	far	LO1
0	1.0	ltm	34	diff_vonmises	0.1858369623074546	10.647673617748913	2.6905124553496083	0.3636364607695916	3.027184720166216e-30	3.153961767503787	-0.2782740590315153	-0.5009388121009869	0.2226647530694715	83.82887229432541	far	V1
1	2.0	ltm	34	diff_vonmises	0.1627305940072246	9.323776234270856	1.0170126731124258	79.02126055033081	0.9843886891814164	80.28058097708184	0.0610355068730896	-0.3048358009864742	0.3658713078595639	81.75973399777573	far	V2
2	3.0	ltm	34	diff_vonmises	0.1771862363282319	10.152023529415272	3.055239473039541	0.4489060365896904	3.00694058619421e-25	1.2318744294447026	0.1010216049095944	-0.1953995240416497	0.2964211289512442	78.59268092398534	far	V3
3	4.0	ltm	34	diff_vonmises	-0.2314257828746433	-13.25972062922803	0.8302737136348729	1.305432394750369	1.560385458676073e-20	3.0129518205656045	-0.0755961384339189	-0.4027640531406609	0.3271679147067419	135.45790215126766	far	V4
4	5.0	ltm	34	diff_vonmises	-0.0384016899266989	-2.200254758969899	1.5657819482449336	1.5350240545133091	0.3188507509479885	2.1925094501282087	0.2144132085207509	-0.2253007542815853	0.4397139628023363	93.19030271352408	far	V3ab
5	6.0	ltm	34	diff_vonmises	-0.1559707926348092	-8.936468145284715	0.2249176931506005	26.077251747826743	0.1737304615306366	26.52185244674697	0.1477162152935163	-0.2484487899763166	0.3961650052698329	156.35325752469242	far	IPS0
6	7.0	ltm	34	diff_vonmises	0.2788479438177766	15.976810306659695	0.8736206946833995	94.22056242902954	0.8529501480835989	95.25448585160318	0.0470879057415238	-0.2466981465981881	0.293786052339712	88.23908641847305	far	LO1
0	1.0	ltm	35	diff_vonmises	0.1082583981987825	6.2027493136369145	0.418772917019372	71.58444593065676	0.3951649366570414	73.7373251020837	-0.1789053288056088	-0.4281552780357689	0.24924994923016	117.97895244675956	far	V1
1	2.0	ltm	35	diff_vonmises	-0.0551007353561155	-3.157039583972697	0.6593643367051951	34.96450794779068	0.5984763069476967	36.19340405752624	0.0779628619422556	-0.3159365681827051	0.3938994301249607	105.1499143014183	far	V2
2	3.0	ltm	35	diff_vonmises	0.0632152790123902	3.6219686881518927	1.0822959162222825	189.16823529703268	1.066243047671813	190.06448168620275	0.2527577559781946	-0.2885287953851545	0.5412865513633491	83.71759526766354	far	V3
3	4.0	ltm	35	diff_vonmises	-0.0146318303721808	-0.8383421268772944	1.6994078130908103	1.0147343317703528	1.573665968678154e-17	2.752459549389497	0.0361092459172937	-0.42222374500495	0.4583329909222438	104.610996756768	far	V4
4	5.0	ltm	35	diff_vonmises	-0.0207780982127611	-1.19049733389953	1.515981818364549	1.8159346369056493	0.3723077043390537	2.521213932745411	0.2290404771692619	-0.2404424359431322	0.4694829131123941	92.52421853110758	far	V3ab
5	6.0	ltm	35	diff_vonmises	-0.2439001399372692	-13.974448641055703	0.8375050147627349	3.453391155943088	0.3071409226252907	4.383781951091177	0.1467672246756846	-0.300257064513061	0.4470242891887456	115.45466539295325	far	IPS0
6	7.0	ltm	35	diff_vonmises	0.159387888404364	9.132253311072212	1.6473465647820922	130.2276702527756	1.6286551195771997	130.84797699361357	0.1308066213738428	-0.206614889931	0.3374215113048429	66.0632598455739	far	LO1
0	1.0	ltm	36	diff_vonmises	-0.3115353808080732	-17.8496624893035	0.3384735313561865	2.292783226375764	4.406018891794331e-19	3.854475587799361	-0.1159175949093606	-0.3606246951084637	0.244707100199103	158.98079602758298	far	V1
1	2.0	ltm	36	diff_vonmises	0.0757926922549727	4.342601384143823	2.781488467187486	0.7235393943311139	0.0611701073275864	1.4427972041653898	0.2098603137082413	-0.2158675643444431	0.4257278780526845	79.80717869475745	far	V2
2	3.0	ltm	36	diff_vonmises	-0.0436216935378436	-2.499338934931538	1.9814445534864489	0.8022319542986879	1.892254104135425e-21	1.3324899284356124	0.1994303432084791	-0.2042492893996061	0.4036796326080852	97.45332964554302	far	V3
3	4.0	ltm	36	diff_vonmises	-0.3667379196698956	-21.01253498449284	2.474546705664762	1.0015598189228725	7.946006270600501e-18	2.209509065723734	0.23508524520861	-0.3474944034673732	0.5825796486759832	87.35511354014803	far	V4
4	5.0	ltm	36	diff_vonmises	-0.140116928759495	-8.028108656254291	1.1490022654398555	1.363722690174041	1.6099811604230335e-16	1.5030497566864107	0.264925842392806	-0.188571964575584	0.4534978069683901	122.50624654465034	far	V3ab
5	6.0	ltm	36	diff_vonmises	-0.3740495040835772	-21.431457912950425	0.5259187326610988	15.297789062422575	0.4301126228718618	15.51069957380559	0.2231151222481129	-0.1895322254695284	0.4126473477176413	127.2587826147051	far	IPS0
6	7.0	ltm	36	diff_vonmises	0.2388103513482591	13.682825236291576	1.5255809034587722	251.61042722336467	1.5138780707244217	252.3266040190324	0.2010083429514679	-0.2458065883111402	0.4468149312626082	69.62782138083455	far	LO1
0	1.0	ltm	37	diff_vonmises	0.2305242893848817	13.20806885700617	0.4862234002069856	98.54224451053088	0.4641698753590836	101.75937800357232	-0.3677708000038464	-0.5739909191853378	0.2062201191814914	99.57201043357952	far	V1
1	2.0	ltm	37	diff_vonmises	0.2153380695479177	12.33796255359028	0.790999608774896	148.7108880861894	0.7751565183656562	150.2097886706809	0.0019012211113604	-0.3334771680915196	0.3353783892028801	90.61800253555506	far	V2
2	3.0	ltm	37	diff_vonmises	0.0125694965964089	0.7201791055782832	0.9853295631757572	6.391248915457447	0.7645031058297882	7.1127245812204025	0.0546776085614988	-0.1799292555849151	0.2346068641464139	88.89272285469173	far	V3
3	4.0	ltm	37	diff_vonmises	-0.1554187747069707	-8.90483984780401	0.0006375198744414	983.0031317064532	7.552063931212991e-23	984.7532557526227	-0.1787852758415056	-0.3782647172075428	0.1994794413660372	179.27336030684262	far	V4
4	5.0	ltm	37	diff_vonmises	-0.0195841156290102	-1.1220871710384828	2.114689674238414	0.8740972528955545	0.1176416369319598	2.1344609417559446	0.0855469290407687	-0.2997398089495082	0.385286737990277	86.77762633664119	far	V3ab
5	6.0	ltm	37	diff_vonmises	-0.2870540018853263	-16.446982800369575	0.3361907569048922	107.2271546897252	0.3211489106879522	108.36277651319853	0.0479589253404562	-0.336849074293065	0.3848079996335212	138.25305474279995	far	IPS0
6	7.0	ltm	37	diff_vonmises	0.4559284499856129	26.122775944117056	0.4434888058228648	81.20442541916083	0.4242260079263026	82.73755059601197	-0.0677250457479345	-0.3393323842603504	0.2716073385124158	119.58928265841932	far	LO1
0	1.0	ltm	38	diff_vonmises	0.3154232778879239	18.072422583160183	2.102741585261494	0.95950570122824	0.1644201916884491	4.196257187120717	-0.2717381403335468	-0.6020571862206341	0.3303190458870872	78.80785798921747	far	V1
1	2.0	ltm	38	diff_vonmises	0.0294081654497731	1.68496376349445	2.5829919029693404	0.7780123288508093	0.1056288258230343	2.6657023637145763	-0.0028413806055915	-0.3936206204941024	0.3907792398885108	78.51967388783353	far	V2
2	3.0	ltm	38	diff_vonmises	-0.1216411307036813	-6.969523404520155	0.6795364477074605	136.4326521783459	0.6652713876161838	137.43093495326352	0.0929664926465392	-0.266173820446653	0.3591403130931923	102.5811607933041	far	V3
3	4.0	ltm	38	diff_vonmises	0.0007880408667713	0.0451514157498284	0.0001902426002459	3763.3904655966967	1.100932299101554e-34	3765.360595015314	-0.1996023262895505	-0.4274985058375478	0.2278961795479972	179.97958653638048	far	V4
4	5.0	ltm	38	diff_vonmises	0.0131494953860917	0.7534105883498075	1.818802804257116	0.7967475796923033	3.604401922101857e-26	2.062174184204769	0.0598126262592132	-0.3179940737037403	0.3778066999629535	101.43068482423024	far	V3ab
5	6.0	ltm	38	diff_vonmises	-0.2771074237636964	-15.87708585340302	0.0102296395484845	102.96723041845414	8.283335502205078e-11	104.12360165023608	-0.0159746200387083	-0.3512523440895165	0.3352777240508082	177.2500642291072	far	IPS0
6	7.0	ltm	38	diff_vonmises	0.510064966733498	29.22456987131017	0.6844278790639134	57.25315789523039	0.6557421432007322	58.34129786555466	0.0120758086343464	-0.2494172382030752	0.2614930468374217	99.04703870898696	far	LO1
0	1.0	ltm	39	diff_vonmises	-0.0545468730974492	-3.125305614119532	0.269930368377669	79.71666286804044	0.2589127194681436	80.96185173650508	-0.0969981737558285	-0.2697152973412109	0.1727171235853823	142.4889128403526	far	V1
1	2.0	ltm	39	diff_vonmises	0.1795879690795649	10.289632679584996	0.3479347395019067	98.41789994285682	0.3352330770950715	99.0624909109888	0.0866809574573821	-0.2318226689839715	0.3185036264413536	138.63335616792045	far	V2
2	3.0	ltm	39	diff_vonmises	0.1660158422769181	9.512007094776951	1.552271249704454	138.8034655398078	1.5373242933296924	138.9698211482483	0.2863307722572443	-0.1344433530733528	0.4207741253305972	73.71775101218418	far	V3
3	4.0	ltm	39	diff_vonmises	-0.1483600745876126	-8.500406122116301	4.462590681328313	0.4854700512451958	1.7260080888863181e-16	1.6765418171014477	0.1291838834250576	-0.26677723083318	0.3959611142582376	64.7285493976145	far	V4
4	5.0	ltm	39	diff_vonmises	-0.0670255439127374	-3.840280785768621	1.3323634811882012	63.20408238054858	1.3059668018596544	63.43980387737814	0.2083020571204628	-0.1240250854243578	0.3323271425448206	78.5904469207793	far	V3ab
5	6.0	ltm	39	diff_vonmises	-0.3268062676891425	-18.72461985701047	0.7824499234443881	141.08805950450008	0.7683622681669806	141.72419951574273	0.1902340200813057	-0.2205463935544394	0.4107804136357451	99.35670859764276	far	IPS0
6	7.0	ltm	39	diff_vonmises	0.0825549064805847	4.7300477194347135	1.9388155937791085	127.21909327316769	1.9192056664812296	127.61924252547932	0.1943127986731525	-0.1786626106671391	0.3729754093402917	62.67251291006258	far	LO1
0	1.0	ltm	40	diff_vonmises	0.1553747967891742	8.902320098722498	3.2436525914443983	0.5260827688558437	5.7078507940924096e-33	3.579512327878568	-0.2095558725741607	-0.569148707834197	0.3595928352600363	76.22673184790409	far	V1
1	2.0	ltm	40	diff_vonmises	-0.0589593396965509	-3.3781213274905078	2.927594234680034	0.935046590302127	0.109029341804272	2.644837048335274	0.1358543482349897	-0.3928591040486225	0.5287134522836122	75.14279536756962	far	V2
2	3.0	ltm	40	diff_vonmises	-0.0926340239562958	-5.307538612009513	1.5134057876191862	1.6036324338924006	2.519641051992175e-15	3.173921003975904	0.193213148273289	-0.4712943564379097	0.6645075047111988	110.01894612502248	far	V3
3	4.0	ltm	40	diff_vonmises	-0.0729071468817588	-4.177271812665159	0.2020629677894635	9.450631989122488	1.191203726983195e-10	11.680877569433028	-0.0367954994330108	-0.6425897985773992	0.6057942991443883	168.35921641853378	far	V4
4	5.0	ltm	40	diff_vonmises	-0.0404329947999958	-2.316639955114167	1.4151366854153298	1.6328548274213577	1.7388793986794284e-16	2.323044533907641	0.3130851875449897	-0.3294387734653287	0.6425239610103184	113.16734567968052	far	V3ab
5	6.0	ltm	40	diff_vonmises	-0.1473299121919805	-8.441382164633497	0.2961420464123968	4.563213473373793	5.695426376280764e-18	5.1220198687099066	0.1403031012267834	-0.2867353556399328	0.4270384568667162	162.76969822455047	far	IPS0
6	7.0	ltm	40	diff_vonmises	0.3946519205696729	22.611889425374457	1.6725746860057078	79.64273125241705	1.6468471517858536	79.98561833225516	0.1889606980352525	-0.1504737474027635	0.339434445438016	68.35909822745504	far	LO1
0	1.0	ltm	41	diff_vonmises	-0.2056096853464792	-11.78056719736611	0.934887634098306	0.9457855122022724	7.101756988011466e-24	2.544661916774536	-0.0934924452896627	-0.3569740785431083	0.2634816332534455	130.99236341504698	far	V1
1	2.0	ltm	41	diff_vonmises	-0.0151359255733316	-0.8672246543760318	3.595837661690615	0.6472468391304975	0.0243334950226835	1.3592909841402936	0.2476951674778862	-0.2116824105747706	0.4593775780526569	71.43997343702668	far	V2
2	3.0	ltm	41	diff_vonmises	-0.0565633820093387	-3.2408430641213224	2.2377889647215565	0.7888959195616827	0.0588803044012042	1.2534754307175966	0.2239847115672941	-0.1829700860185609	0.406954797585855	89.26949513572319	far	V3
3	4.0	ltm	41	diff_vonmises	-0.3518900782521164	-20.161816336374542	2.577646288301145	0.8998492526628297	1.4481961215333934e-18	1.9994447425990625	0.221701819224503	-0.3151067447703402	0.5368085639948432	85.60637224643352	far	V4
4	5.0	ltm	41	diff_vonmises	-0.0637827571353318	-3.654482789562452	1.2131955788601838	1.3475199435709213	2.5521859348634708e-12	1.496073629454513	0.276057255278651	-0.1926764204367867	0.4687336757154376	120.18731029876332	far	V3ab
5	6.0	ltm	41	diff_vonmises	-0.3560036946337092	-20.39750919357569	0.9721065050492356	1.8061476921956925	0.1246562612119269	2.112146400207519	0.2283132835006353	-0.2086573339303546	0.4369706174309899	122.47440950299514	far	IPS0
6	7.0	ltm	41	diff_vonmises	0.218357794652444	12.510980057369338	1.303037255614929	162.38046856472653	1.286522980216564	162.9486904208433	0.263374443245155	-0.219703619736574	0.483078062981729	77.49026013101428	far	LO1
0	1.0	ltm	42	diff_vonmises	0.0777450003640421	4.454460399102662	0.9163124046533776	3.819839375230104	0.4388302252941355	5.811712885797757	-0.123272229361196	-0.3951679395184647	0.2718957101572686	93.77399559964452	far	V1
1	2.0	ltm	42	diff_vonmises	-0.1152759650954743	-6.604826279268074	2.0652384916472166	1.4550723703704949	0.5929337543160238	2.2033156467179835	0.1831477988870469	-0.2248795973410208	0.4080273962280677	76.37940456555947	far	V2
2	3.0	ltm	42	diff_vonmises	0.1098959763034052	6.296575627654826	1.4638003735862168	127.91438255636706	1.4456601254368109	128.2869162174685	0.251883043482735	-0.1724384565846044	0.4243215000673395	73.94675708294292	far	V3
3	4.0	ltm	42	diff_vonmises	-0.1535741692899302	-8.799151742540625	0.8779728804216056	152.9763535265773	0.8611770310903466	154.09043816962196	0.1386772926430168	-0.2983113288878769	0.4369886215308938	90.50833721588708	far	V4
4	5.0	ltm	42	diff_vonmises	0.005698907899953	0.326523370501072	1.2655239132396714	114.6734380688532	1.2440265494434275	114.82373021728478	0.3932862509397807	-0.168349211560054	0.5616354624998348	82.7259114742667	far	V3ab
5	6.0	ltm	42	diff_vonmises	-0.1586941757546685	-9.092506504049824	0.8874449598181798	146.13386505889923	0.8704858274906493	146.55394666745698	0.339238770781165	-0.2270879558499228	0.5663267266310879	96.45380967416024	far	IPS0
6	7.0	ltm	42	diff_vonmises	0.1316137185548261	7.540910599214188	1.184535361288545	102.17953102224116	1.1616153222232155	102.35248890383912	0.3699136262433526	-0.1676658895553497	0.5375795157987024	85.31488811195771	far	LO1
0	1.0	ltm	43	diff_vonmises	0.0468222338440291	2.6827163866374777	1.3314984419480536	0.5295655805032844	1.3019304120535749e-17	2.583317336457536	-0.197644484613349	-0.3962576327810485	0.1986131481676995	115.9674368974728	far	V1
1	2.0	ltm	43	diff_vonmises	0.1254038385816904	7.185110685470701	1.2100441396437096	3.479236636862373	0.653872609912113	4.484124854457137	0.0889371933410079	-0.2540462881378782	0.3429834814788861	86.99298312060242	far	V2
2	3.0	ltm	43	diff_vonmises	0.1358959709448138	7.786265587970296	1.83894688620945	1.0235744630467285	0.3946017151595494	1.5691920803540118	0.1452813787905355	-0.1675166668403858	0.3127980456309213	84.70817424079073	far	V3
3	4.0	ltm	43	diff_vonmises	-0.2890383807543747	-16.56067933452099	2.307732256208971	0.6346650351938287	2.1112692924597253e-18	2.022342786399488	0.0348755120540828	-0.318334494106739	0.3532100061608218	90.45506702234272	far	V4
4	5.0	ltm	43	diff_vonmises	-0.0457070116685661	-2.618818862764044	1.790176748372828	1.0564375668032289	0.2566067279053383	1.5018983303777185	0.2055998072268687	-0.1725358889651208	0.3781356961919896	91.10121995323124	far	V3ab
5	6.0	ltm	43	diff_vonmises	-0.3083587329476683	-17.667653973903036	0.4751849012680844	105.07936066131822	0.4612134308972889	105.51886997909028	0.1676851914940798	-0.2120364796132232	0.379721671107303	126.6121021122834	far	IPS0
6	7.0	ltm	43	diff_vonmises	0.2061777755672819	11.813116369400756	1.1456762908787388	143.20586003751484	1.1298824711441102	144.05416580494096	0.1108667275883306	-0.2317613833537386	0.3426281109420692	78.71415945929544	far	LO1
0	1.0	ltm	44	diff_vonmises	-0.2176166826901975	-12.468517469785958	0.0008986862007457	691.4627884973374	3.886077880462103e-32	693.6224244742534	-0.2447976716639459	-0.4425913761877638	0.1977937045238178	178.6002247122767	far	V1
1	2.0	ltm	44	diff_vonmises	0.1793433636469248	10.275617820648751	1.6025422808985617	2.303377008171678	0.639843726143585	3.441317435849732	0.0987126099988326	-0.2870116258205286	0.3857242358193613	79.66419325992669	far	V2
2	3.0	ltm	44	diff_vonmises	-0.0557916176236186	-3.196624222041052	0.5267876757767759	33.1395743050273	0.4880866071067983	33.77652219869703	0.0842314432949251	-0.2023815903848467	0.2866130336797718	119.87452494362802	far	V3
3	4.0	ltm	44	diff_vonmises	-0.4244979529636445	-24.32194111675977	2.339737746550933	0.6395749845803513	1.3754032792514692e-18	2.0928938859090764	0.0293712377022754	-0.3297290704149196	0.3591003081171951	89.7616212861018	far	V4
4	5.0	ltm	44	diff_vonmises	-0.1205833892826361	-6.908919285278094	1.4062170022754874	0.8618030258271346	2.3822627829893013e-16	1.3509365896177148	0.1440090356735018	-0.1934460734456283	0.3374551091191302	113.40877018418044	far	V3ab
5	6.0	ltm	44	diff_vonmises	-0.2163510740552133	-12.396003436486048	0.0669541271001547	15.051500902926936	9.449731635630035e-10	15.425734393368735	0.1034478642030727	-0.2172047180243383	0.3206525822274111	174.91956051128216	far	IPS0
6	7.0	ltm	44	diff_vonmises	0.3104257810010545	17.786087103412797	1.0101953881861014	129.6887900492975	0.9929631252381576	130.80148334683338	0.043970067708372	-0.2662179648692184	0.3101880325775905	81.37293522637674	far	LO1
0	1.0	ltm	45	diff_vonmises	0.2771313850918139	15.87845873637568	0.3480759185427978	135.6184718150842	0.3364573606694316	138.46720821104662	-0.3319950379197536	-0.5170874618232144	0.1850924239034608	118.84890193671797	far	V1
1	2.0	ltm	45	diff_vonmises	0.1829239607474103	10.48077092264335	0.5138908143919056	151.01421672984728	0.5018128868743547	152.55742016363666	-0.0399952466382913	-0.3446558461263151	0.3046605994880238	112.01180455309762	far	V2
2	3.0	ltm	45	diff_vonmises	0.1402168946626208	8.03383628059861	1.1228237662441063	111.3314633563498	1.1021167956671358	112.2017137353097	0.1168585237070303	-0.2378799913768023	0.3547385150838327	79.73615894559151	far	V3
3	4.0	ltm	45	diff_vonmises	0.2768967029313483	15.86501243905399	0.5698530076040375	1.1804678378246205	6.721034737734135e-15	3.2126134081404216	-0.2045487393339158	-0.4131682029914422	0.2086194636575264	147.33229011589918	far	V4
4	5.0	ltm	45	diff_vonmises	-0.0138780844081595	-0.7951556643138523	1.0017721016008665	92.22369826739208	0.9737757710578018	93.34856333132775	0.1101336416155724	-0.290225689762579	0.4003593313781515	83.94446386350961	far	V3ab
5	6.0	ltm	45	diff_vonmises	-0.2487793222316748	-14.2540051940001	0.4998253425975354	125.06514697360716	0.484646738345902	126.27915818229928	0.0582989162686224	-0.3278622633248815	0.386161179593504	118.77605704816	far	IPS0
6	7.0	ltm	45	diff_vonmises	-0.0570150670979817	-3.266722713369555	1.3213406053944112	88.97901461254571	1.3003316479380584	89.94443202705669	-0.0446259072208334	-0.2277560426301335	0.1831301354093	66.99784049398909	far	LO1
0	1.0	ltm	46	diff_vonmises	0.1034410967126288	5.926738269838207	0.5266479447601599	115.71174330989992	0.5109549505720429	117.85126701539524	-0.1919402593405479	-0.4040743174111174	0.2121340580705695	101.59719303884498	far	V1
1	2.0	ltm	46	diff_vonmises	0.0738440854386157	4.2309544376361385	0.6723268914463101	68.49885773453366	0.6470572274633368	69.47223692482017	0.0620202267319989	-0.2472869365208936	0.3093071632528925	102.514482681732	far	V2
2	3.0	ltm	46	diff_vonmises	0.0822085051149899	4.710200383168565	1.4489861926724403	131.79809170880193	1.4335541778539151	132.19998922917387	0.1906961247517742	-0.1597721263655405	0.3504682511173147	73.27261750465266	far	V3
3	4.0	ltm	46	diff_vonmises	-0.1190486577235364	-6.820985644256151	0.7514525305205385	111.84267281150724	0.7341499594182879	113.13389127593024	-0.0064698508175524	-0.2845528598286915	0.278083009011139	92.78042755994215	far	V4
4	5.0	ltm	46	diff_vonmises	-0.0182757588593316	-1.0471238500385294	1.1908375663622155	61.119672730818834	1.1518376646428012	61.78008780006237	0.1976454481108689	-0.217286588070479	0.414932036181348	80.19766863492691	far	V3ab
5	6.0	ltm	46	diff_vonmises	-0.2176317149038663	-12.469378752185918	0.7952538141463978	164.38526423482165	0.7803312726564429	165.3077562711683	0.1917908878640304	-0.2822844309910461	0.4740753188550766	97.17153848047464	far	IPS0
6	7.0	ltm	46	diff_vonmises	0.1590171243985795	9.111010098345396	1.0305609420291402	108.2494424617329	1.0107311139670472	108.93133046264408	0.1709248272977248	-0.212187751469651	0.3831125787673759	85.56353126385457	far	LO1
0	1.0	ltm	47	diff_vonmises	0.1677190649349605	9.609594564653838	4.822858888888567	0.5174866933074256	3.4385288778791464e-17	3.69704882118714	-0.1482811077990696	-0.5883751115426542	0.4400940037435846	62.20260661491065	far	V1
1	2.0	ltm	47	diff_vonmises	-0.1090843456701032	-6.250072617843094	2.4306752263728564	1.294062195314064	0.2826144772778922	3.037884530775979	0.1213480335984729	-0.4090551339770372	0.5304031675755101	75.94509507965645	far	V2
2	3.0	ltm	47	diff_vonmises	-0.0743108876702982	-4.257700235378836	0.7934707146464998	161.80530316511783	0.7742699170729432	163.15329129702812	0.1906102524552793	-0.3752376169833784	0.5658478694386577	96.00575851455912	far	V3
3	4.0	ltm	47	diff_vonmises	-0.046824707364846	-2.68285810894082	0.6273599482772858	2.3219683376939	5.074049047205562e-14	4.318593254339324	-0.058679452082396	-0.50806001814275	0.449380566060354	145.6540248549964	far	V4
4	5.0	ltm	47	diff_vonmises	0.0303390880244201	1.7383016980751724	1.8355286679606455	1.277647430375226	2.1778886744298403e-19	2.4000150186210547	0.2437141008059488	-0.366050158759194	0.6097642595651429	101.00137559964624	far	V3ab
5	6.0	ltm	47	diff_vonmises	-0.1671257807597729	-9.575601885363689	0.7693479842454067	1.973662064642804	1.0714128897581967e-16	3.0161129925425127	0.1076969208943891	-0.3538621616607964	0.4615590825551856	138.50456399021203	far	IPS0
6	7.0	ltm	47	diff_vonmises	0.32528199492637	18.63728546087686	1.5702401911861856	1.4747664369872906	0.4216311725569118	2.216548704844535	0.1421129104366426	-0.2124372525543651	0.3545501629910078	88.22472113664065	far	LO1
0	1.0	ltm	48	diff_vonmises	0.272742587744302	15.626999171225036	0.7609912533767463	28.636142120181034	0.6835335696920655	30.62371036352424	-0.1362722684802371	-0.3915400515931133	0.2552677831128762	88.41025313298445	far	V1
1	2.0	ltm	48	diff_vonmises	0.039441442305888	2.259828182036119	0.9381272679991204	58.81477883839507	0.901377346195584	59.873747508639966	0.069193938117877	-0.2604282468009469	0.3296221849188239	86.10001857664997	far	V2
2	3.0	ltm	48	diff_vonmises	0.1140794260710372	6.536269643145123	1.0725764076390136	129.52285502062125	1.059212993530288	130.0198424984403	0.1499261910254006	-0.1633917973147181	0.3133179883401187	84.3012843172582	far	V3
3	4.0	ltm	48	diff_vonmises	-0.1794923932466096	-10.284156587733207	3.0969308560331106	0.4124953968481573	1.330665199725051e-21	1.698064810602746	0.0048299186662715	-0.2696936615794426	0.2745235802457141	78.05413108165877	far	V4
4	5.0	ltm	48	diff_vonmises	0.0004586092604953	0.0262763750720012	1.9210883412290305	1.0633755655116637	0.383483418214279	1.7179113302539994	0.1485210189625642	-0.1910356282011311	0.3395566471636954	83.15325489188226	far	V3ab
5	6.0	ltm	48	diff_vonmises	-0.3034863857390482	-17.38848904252676	0.5419848930398895	105.53804364198464	0.5265022662212839	106.2890325699356	0.1178855646671479	-0.2447169202316708	0.3626024848988187	117.4031241956084	far	IPS0
6	7.0	ltm	48	diff_vonmises	0.1891506416595369	10.837533459282874	0.7877030847850685	102.71689919604496	0.7675527880620442	103.79283137525222	0.0752194195540383	-0.268254626072947	0.3434740456269853	94.2229196503876	far	LO1
0	1.0	ltm	49	diff_vonmises	-0.0126603661994093	-0.7253855503162376	0.9797824755674162	1.2059600426848094	0.1174310658341651	3.5564245057617296	-0.2268932259383727	-0.4442275265051434	0.2173343005667707	110.36505331409782	far	V1
1	2.0	ltm	49	diff_vonmises	0.0972902676937392	5.574321726549239	0.786309351698418	71.20169619660953	0.7572094747672197	72.28042652328999	0.0768985615006734	-0.26980539693258	0.3467039584332534	94.6557695803272	far	V2
2	3.0	ltm	49	diff_vonmises	0.0315922559231832	1.810102929695576	1.1466628230715747	66.33159639471556	1.1193009241653171	66.88346211538989	0.1374422770754328	-0.1718910177783055	0.3093332948537384	80.98056752135014	far	V3
3	4.0	ltm	49	diff_vonmises	-0.2521593562939466	-14.447666880378732	1.4903843476626903	0.8434478241303224	0.0644934491864031	2.2086927555982063	-0.0106469741413668	-0.3107559124998439	0.3001089383584771	104.22780443926266	far	V4
4	5.0	ltm	49	diff_vonmises	-0.027575809320845	-1.5799774907419384	2.085066906786732	0.9348062593109856	0.1626194852623476	1.7718442816559958	0.164886029992422	-0.2366540316089946	0.4015400616014167	86.87645940494872	far	V3ab
5	6.0	ltm	49	diff_vonmises	-0.3033880964948309	-17.382857483661574	0.5833169318086161	143.86479678103058	0.5691040617057636	144.78512804160297	0.1470125768740828	-0.291859991739555	0.4388725686136379	113.21517851498754	far	IPS0
6	7.0	ltm	49	diff_vonmises	0.1623756396973154	9.30343885039308	0.8500418642032052	177.26840346906192	0.8366574923075049	178.49955697555995	0.0703531552423868	-0.2990694135230498	0.3694225687654366	89.80470175459979	far	LO1
0	1.0	ltm	50	diff_vonmises	0.1651449792473203	9.46211031864702	5.655164139422111	0.4904750669506089	2.145055575070472e-11	3.730703325449855	-0.1398301184888334	-0.5937543146678463	0.4539241961790128	57.34140871355427	far	V1
1	2.0	ltm	50	diff_vonmises	-0.1005678774337318	-5.762114931541787	2.8915345793698406	1.0542639756530647	0.2420756618390643	2.801456656035541	0.1163414052829047	-0.4018929756189038	0.5182343809018085	71.51654865974686	far	V2
2	3.0	ltm	50	diff_vonmises	-0.0910233933832566	-5.21525627781963	0.8082064155883942	180.6427730612977	0.7934231148777413	181.78291619931463	0.165206503249216	-0.3177740657207728	0.4829805689699888	95.02363364512512	far	V3
3	4.0	ltm	50	diff_vonmises	-0.0768368782219614	-4.402428833079062	0.5775404901616806	2.009879308095707	1.0370795528361111e-14	3.873620541639216	-0.0913119724171166	-0.4510482501555511	0.3597362777384345	148.11250704365932	far	V4
4	5.0	ltm	50	diff_vonmises	0.0584240655419211	3.3474523775477865	1.938802140741962	1.114232965245307	1.0717346827882018e-21	2.306254527882233	0.1970342956930555	-0.3553741912556427	0.5524084869486983	98.45108415487992	far	V3ab
5	6.0	ltm	50	diff_vonmises	-0.1918872672019263	-10.994330552969483	0.6962682828505753	2.036245970113495	5.637054459173604e-13	3.1301387829705023	0.0798050965375707	-0.3545806812130968	0.4343857777506676	141.84495839922926	far	IPS0
6	7.0	ltm	50	diff_vonmises	0.3477886008029341	19.92681898876832	1.7567805163961607	0.8358085965677119	3.887672298568137e-16	1.6707085327877718	0.1326425994006683	-0.2540286030509395	0.3866712024516078	102.75924899913493	far	LO1
0	1.0	ltm	51	diff_vonmises	-0.1733675218111015	-9.933227304418368	0.0004113944212995	1710.242510213329	6.530893543160579e-31	1713.7081205707814	-0.4395786722670323	-0.6635363324851369	0.2239576602181046	179.1178824975111	far	V1
1	2.0	ltm	51	diff_vonmises	0.1956741308329853	11.211301856620754	1.5877312911854409	2.246525821761658	0.5089668459376294	3.83972721936256	0.0533935530155132	-0.369276739753141	0.4226702927686543	81.56863299734317	far	V2
2	3.0	ltm	51	diff_vonmises	-0.2306035115668486	-13.212607953676688	0.4117729019666751	47.222552986675154	0.3839358344066633	48.149614634526266	0.0322042227690069	-0.2584066156321922	0.2906108384011991	129.6642243362523	far	V3
3	4.0	ltm	51	diff_vonmises	-0.2948646229893077	-16.894498425003523	0.004861186401826	221.39070169591847	8.673706694511157e-10	223.31998292804872	-0.1355611755127412	-0.4781317916552794	0.3425706161425381	177.26032378451288	far	V4
4	5.0	ltm	51	diff_vonmises	-0.0979595667523542	-5.61266973783996	1.2264313306950478	1.348393031312547	6.082079014075161e-12	2.3946187767003018	0.1366662090954544	-0.3365594088909298	0.4732256179863842	119.67197716739796	far	V3ab
5	6.0	ltm	51	diff_vonmises	-0.1625278202304875	-9.312158152667896	0.0003485526738559	3662.008975365022	4.420220044912892e-31	3662.7481741438646	0.0855133941311123	-0.3207722718794912	0.4062856660106035	179.22604406283398	far	IPS0
6	7.0	ltm	51	diff_vonmises	0.422366082703919	24.19979394840804	0.8130817474393068	126.5278147448494	0.7970333848333716	127.80934445365484	-0.00064451934049	-0.2843081311411204	0.2836636118006304	89.19771816049308	far	LO1
0	1.0	ltm	52	diff_vonmises	-0.5066496660336286	-29.028887555439574	0.4146832389598283	28.199587003600374	0.3858725717308343	28.8614493090057	-0.0002753951302132	-0.1686468290546257	0.1683714339244124	126.76238641950344	far	V1
1	2.0	ltm	52	diff_vonmises	0.3548470414724581	20.331237849075546	0.2530526234255922	65.95989164930675	0.237556978768047	66.09650598169706	0.152676747200072	-0.1575600833646806	0.3102368305647527	150.00986063229965	far	V2
2	3.0	ltm	52	diff_vonmises	0.1170060577183597	6.703953284726125	2.028434651270643	69.04968176359074	2.013066703892512	68.88094828934386	0.2519983107966936	-0.0396928524875521	0.2916911632842458	69.89160463497456	far	V3
3	4.0	ltm	52	diff_vonmises	-0.33538892602402	-19.216369956601728	1.2895743706963734	65.66851718483736	1.2524638563831003	66.35989843236895	0.1763451009996899	-0.2202104687844128	0.3965555697841028	76.28201302616225	far	V4
4	5.0	ltm	52	diff_vonmises	-0.1231227833968807	-7.054415850544673	3.153205880386841	0.5660862762128757	1.1614839243089636	0.3903492858786681	0.2361842172260835	-0.0291722640760342	0.2653564813021178	67.9630612155369	far	V3ab
5	6.0	ltm	52	diff_vonmises	-0.4241651762316304	-24.302874414495204	0.949489972363848	95.4129582077192	0.929891320773486	95.6983243154671	0.2616285119613124	-0.1627209914684497	0.4243495034297622	93.60302234718704	far	IPS0
6	7.0	ltm	52	diff_vonmises	0.1474041639327793	8.445636476002766	1.7381673594024114	130.7701494708581	1.7200719968918243	130.92078470333863	0.322527475001678	-0.1444550060777327	0.4669824810794107	69.79676953700019	far	LO1
0	1.0	ltm	53	diff_vonmises	-0.011580180090862	-0.6634954452078167	0.8614778623533564	0.9215157978986946	8.084359851885268e-16	3.3874779832056645	-0.2485106350506359	-0.4872451325102753	0.2387344974596393	134.57903361400724	far	V1
1	2.0	ltm	53	diff_vonmises	-0.002571796394062	-0.1473530791467217	1.4089397158777872	1.029217263645291	1.6825449986817454e-16	2.3278038362082296	0.0587768200354135	-0.3448405869131623	0.4036174069485758	113.37513898610156	far	V2
2	3.0	ltm	53	diff_vonmises	-0.0213812190902968	-1.2250536147185531	1.1140681882768904	44.64345690927822	1.0570886773990802	45.42365944855192	0.2020294054159173	-0.2450174707175154	0.4470468761334327	82.9608502115174	far	V3
3	4.0	ltm	53	diff_vonmises	-0.1544534371599478	-8.849530080554086	1.2419540139884917	1.015770629864623	7.158836978462476e-18	2.7235220524589945	-0.0405003964414763	-0.4006821984187078	0.3601818019772315	119.03089819206332	far	V4
4	5.0	ltm	53	diff_vonmises	-0.0062384954907937	-0.3574394621338768	2.104810012281193	0.8569773039774768	1.1931455196677137e-17	1.7246177118451174	0.1814305623088273	-0.267709669259258	0.4491402315680853	94.67752601832352	far	V3ab
5	6.0	ltm	53	diff_vonmises	-0.3047689019332971	-17.4619718076144	0.5122931263014401	126.12710232720518	0.4961038702549881	127.1887161210734	0.1206987792362284	-0.3262724376069741	0.4469712168432025	119.55822795248366	far	IPS0
6	7.0	ltm	53	diff_vonmises	0.2426145498607759	13.900789755488734	1.3354326734914297	114.91894454164353	1.3165312939820215	115.58984733093072	0.1243644223282842	-0.2013664791424574	0.3257309014707417	73.58374508967961	far	LO1
0	1.0	ltm	54	diff_vonmises	0.0073314304718565	0.4200600238309845	0.000469258291251	1046.068805264904	7.015157170775639e-31	1049.2574119096105	-0.429350030785713	-0.5855966588473507	0.1562466280616377	179.95706668259575	far	V1
1	2.0	ltm	54	diff_vonmises	0.3414845848124502	19.56562547853061	0.6859977451497892	143.44397009381	0.6713604377123711	144.8882061910634	-0.0033325895453657	-0.3220617067568501	0.3187291172114843	97.52408985709488	far	V2
2	3.0	ltm	54	diff_vonmises	0.1480507598430227	8.482683692710134	4.520264090316159	0.3378073095318942	0.1325002938158774	1.0356696220779351	0.0901144333800441	-0.1615515345288945	0.2516659679089387	61.08281917022529	far	V3
3	4.0	ltm	54	diff_vonmises	-0.0953202922715941	-5.46145044911582	0.0005341394428101	1077.0525746928863	4.604206923303833e-26	1078.9597828156466	-0.211971103034898	-0.3950876473870437	0.1831165443521456	179.71129592896176	far	V4
4	5.0	ltm	54	diff_vonmises	-0.0520504611738236	-2.9822717469696545	1.0448035744336892	8.95932944103765	0.783148388162313	10.080134550484972	0.1089399232027581	-0.287907562004315	0.3968474852070731	87.58197718035973	far	V3ab
5	6.0	ltm	54	diff_vonmises	-0.3092598445303265	-17.719283864459708	0.464939301314549	151.6758395391637	0.4527739618585899	152.74035503427578	0.0891970960523096	-0.3180149874425062	0.4072120834948158	123.75531825086236	far	IPS0
6	7.0	ltm	54	diff_vonmises	0.3436771494445027	19.691250178256876	0.854413235093434	80.01198736668192	0.8340896842243285	81.1136877167848	-0.0313657838021015	-0.2345000482672734	0.2031342644651719	85.15542205577202	far	LO1
0	1.0	ltm	55	diff_vonmises	0.0362480143844754	2.0768582399599445	2.506475313777551	0.5245547935927926	1.581328963338272e-33	2.945245283268574	-0.1591286109669678	-0.4666909649207711	0.3075623539538032	86.88013098399108	far	V1
1	2.0	ltm	55	diff_vonmises	-0.0330054922770681	-1.8910754082276369	3.3781098579837217	0.7494709072372268	0.064388515916676	1.9425957920874848	0.1954951607914853	-0.2964878908158812	0.4919830516073665	72.10279335505976	far	V2
2	3.0	ltm	55	diff_vonmises	-0.0793937439240396	-4.548926446589896	2.064727247508887	0.9565073582423482	9.084247082638315e-18	1.8644641766412935	0.2062552840485521	-0.2886436488218287	0.4948989328703808	95.5523973700344	far	V3
3	4.0	ltm	55	diff_vonmises	-0.2805005346344834	-16.07149678571907	1.4573871031818408	1.3294706543648047	1.269754236565032e-18	2.9014122992711666	0.1041351065893524	-0.4310925521426644	0.5352276587320169	111.51857506777634	far	V4
4	5.0	ltm	55	diff_vonmises	-0.0464746735536594	-2.662802648872949	1.323008715395361	1.5158532640868865	5.837950283651795e-16	2.005077460002544	0.2896940718430499	-0.2759310544464387	0.5656251262894886	116.26945412941956	far	V3ab
5	6.0	ltm	55	diff_vonmises	-0.2528532630022761	-14.487424806141828	0.7367900422758106	2.015896063340713	2.072522856985129e-11	2.515562297910582	0.1874056818263731	-0.2656966836657296	0.4531023654921028	139.6172788377243	far	IPS0
6	7.0	ltm	55	diff_vonmises	0.2798693891891262	16.035334815441203	1.305217097109465	136.16592587448474	1.2876749999972166	136.72766694057927	0.2124430638297454	-0.2016707516983729	0.4141138155281183	76.77536249974563	far	LO1
0	1.0	ltm	56	diff_vonmises	0.2312271263034064	13.248338446123611	5.8808025141875975	0.4016468435567799	6.209547725219235e-19	3.2203157499304305	-0.1330129966047694	-0.5125262100108344	0.379513213406065	56.20293915179454	far	V1
1	2.0	ltm	56	diff_vonmises	0.0229879938896666	1.3171150293504232	1.4681691997871436	4.110096606879441	0.7806053155128774	5.586837452480575	0.0815993204729688	-0.3629278573107444	0.4445271777837132	77.87043113908658	far	V2
2	3.0	ltm	56	diff_vonmises	0.0007962211803278	0.0456201131917103	0.6720808932528396	89.44041698831863	0.6494486174555596	90.46316340661726	0.103817397999304	-0.2780986212866549	0.381916019285959	103.8093211371193	far	V3
3	4.0	ltm	56	diff_vonmises	-0.0885637860316815	-5.074331157315023	0.4640294811290623	2.478367669574938	5.533969363579669e-17	4.230499804882897	-0.0784103931598212	-0.4381308764306864	0.3597204832708652	153.96536733120615	far	V4
4	5.0	ltm	56	diff_vonmises	-0.0169036789133261	-0.9685094599778752	2.0064530719969547	0.9324043968678892	1.0699077647469399e-13	1.8078376620030416	0.1942247631282084	-0.2790122469294013	0.4732370100576098	96.87187479288464	far	V3ab
5	6.0	ltm	56	diff_vonmises	-0.1383402403798696	-7.926311910591817	0.2094718980154903	5.788183328175292	4.597517821045256e-18	6.474420918406201	0.0930915974220978	-0.2914454283784269	0.3845370258005247	167.6265351309034	far	IPS0
6	7.0	ltm	56	diff_vonmises	0.2499785632467564	14.322716642783265	1.5495535742406072	0.9456335313743656	0.1035108367045141	2.181417901238184	0.0337319345162002	-0.2934825305017206	0.3272144650179208	99.9914689741498	far	LO1
0	1.0	ltm	57	diff_vonmises	0.1030168684606931	5.902431781452081	0.0512887452490023	48.67769091027495	0.0387387065110467	50.758239075896064	-0.2447134787963119	-0.4134200039194562	0.1687065251231443	174.02619156065782	far	V1
1	2.0	ltm	57	diff_vonmises	0.171732976113712	9.839574734536676	0.5055888675872143	50.44194539103261	0.4744063864509662	51.52508010340773	0.0314290344014658	-0.2804261145624949	0.3118551489639607	118.1917513146123	far	V2
2	3.0	ltm	57	diff_vonmises	0.1521987211660955	8.720344370105705	1.2462403472691392	95.25939866897484	1.22571931666711	95.72423871677812	0.1806594850525371	-0.1674503152015169	0.3481098002540541	78.82959791385812	far	V3
3	4.0	ltm	57	diff_vonmises	-0.1859426792529298	-10.653730752547652	1.975421202692898	0.5607607076083536	0.0028421506863245	2.1351594910510534	-0.0536650776511594	-0.3333318653957876	0.2796667877446281	97.21138352501552	far	V4
4	5.0	ltm	57	diff_vonmises	-0.0349352794064698	-2.001644066101021	1.2278559416491437	4.551893111301086	0.8385094299942814	5.022597202134289	0.187151089186029	-0.1707254961217461	0.3578765853077751	86.84986278348916	far	V3ab
5	6.0	ltm	57	diff_vonmises	-0.3326463622776088	-19.059232628886782	0.5728489959748123	150.5561233723062	0.5618319047384378	151.16880513987556	0.1545688487926497	-0.2275309521088839	0.3820998009015337	115.70581891242206	far	IPS0
6	7.0	ltm	57	diff_vonmises	0.2337903371424909	13.395199609205342	1.5941671657076684	98.06803210664334	1.5753582502406935	98.47927337331905	0.1333517998292777	-0.1488517443698871	0.2822035441991648	68.50798884909767	far	LO1
0	1.0	ltm	58	diff_vonmises	0.348635253166181	19.975328595897142	0.5117436513549896	96.8758014041492	0.4956239825589061	98.912412850166	-0.2088100502884096	-0.3733268442120714	0.1645167939236618	100.11878686170112	far	V1
1	2.0	ltm	58	diff_vonmises	0.320333317917643	18.353747154103377	0.29812615872997	107.79428641160592	0.2861917518674459	109.07893365798412	-0.037064078384926	-0.3217698318191146	0.2847057534341886	140.41305418171416	far	V2
2	3.0	ltm	58	diff_vonmises	0.1186237089865259	6.79663787511603	1.2553502291635774	122.19570363971292	1.240938004071267	122.6195438854234	0.1590083359183793	-0.150966017489889	0.3099743534082684	78.30623468007084	far	V3
3	4.0	ltm	58	diff_vonmises	0.6148257083644879	35.22691822542635	0.0002879294656634	1237.0224031438142	1.5634926074796366e-35	1238.570740736233	-0.1897349024220886	-0.3031080997158994	0.1133731972938107	168.89301318872896	far	V4
4	5.0	ltm	58	diff_vonmises	-0.0052549744651255	-0.3010878583007139	2.201163894535981	0.8198646564008876	0.4744215334630599	1.637880697469139	0.0517323457005609	-0.1971762266879597	0.2489085723885206	74.06186507670415	far	V3ab
5	6.0	ltm	58	diff_vonmises	-0.3976177999294513	-22.781821795234723	0.5336231109058279	138.231187456111	0.5218225528916686	139.33705334823327	0.0287424902682857	-0.2772409268343239	0.3059834171026097	113.51194976763128	far	IPS0
6	7.0	ltm	58	diff_vonmises	0.3047401181296101	17.4603226171448	1.0639194952571205	60.94308333066717	1.039718068686036	61.62216229176931	0.0404753627579026	-0.1680206418101377	0.2084960045680404	80.04274480471807	far	LO1
0	1.0	ltm	59	diff_vonmises	0.2155224156751843	12.348524808652238	4.206439494403085	0.4232122513193207	4.103790773537909e-17	2.64276825497766	-0.0862115389678337	-0.4205353866955499	0.3343238477277162	66.71599863505946	far	V1
1	2.0	ltm	59	diff_vonmises	-0.0824054056080958	-4.721481950407575	2.700579777251186	0.8156853630008732	0.1121451843332796	2.252921942841521	0.1030176523802955	-0.3306052391638083	0.4336228915441039	77.81774177932607	far	V2
2	3.0	ltm	59	diff_vonmises	-0.0538137978379329	-3.083303495683793	0.8035744011997691	182.36384247834144	0.7896738044111016	183.2609455567407	0.2134735467433302	-0.2851107379810429	0.4985842847243731	97.11896263799738	far	V3
3	4.0	ltm	59	diff_vonmises	-0.1097947891649256	-6.290778031678938	1.404987035678643	0.9096111543981024	2.5738960333980576e-32	2.5720640912871264	-0.0306287699536229	-0.3865539847267759	0.355925214773153	113.45985147653217	far	V4
4	5.0	ltm	59	diff_vonmises	0.0004213776809964	0.0241431627021045	1.7059637912582435	0.870256983747204	8.4326384487028875e-22	1.6053995204827975	0.1521136956123579	-0.2420649154980068	0.3941786111103647	104.42946395016848	far	V3ab
5	6.0	ltm	59	diff_vonmises	-0.3189964112810241	-18.27714804622208	0.6021761952097398	1.8529230686752785	1.7679860625374374e-14	2.6664278827481365	0.0684394991697454	-0.2765848015305545	0.3450243007003	145.5363523440232	far	IPS0
6	7.0	ltm	59	diff_vonmises	0.3382972159798442	19.383002696670747	1.1735848659626396	94.68405667996196	1.153129985504737	95.29666837744392	0.1326851446889847	-0.1848164229408695	0.3175015676298542	79.38996660515534	far	LO1
0	1.0	ltm	60	diff_vonmises	0.1166180260684022	6.68172070886606	2.070440494233981	0.6222010383811913	1.5593104676413676e-26	4.052633143854248	-0.3172469545699581	-0.6397821509464822	0.322535196376524	95.40838945230368	far	V1
1	2.0	ltm	60	diff_vonmises	-0.0327705601351227	-1.8776147880221985	2.83730705407118	0.7799428867962707	1.6138345553168223e-11	2.57668637642172	0.0846793352076256	-0.4083942985259126	0.4930736337335382	81.61667084776624	far	V2
2	3.0	ltm	60	diff_vonmises	-0.1374476722728937	-7.875171525134121	1.798086416409156	1.1688248799422414	4.819620626406567e-16	2.650307706711958	0.1434655514629138	-0.406304793854685	0.5497703453175988	101.92906659555216	far	V3
3	4.0	ltm	60	diff_vonmises	-0.1366394482622448	-7.828863700422801	0.0003989002887956	3966.975949769127	1.0932356129855813e-29	3969.220253100716	-0.1053167656418736	-0.6090169415344917	0.5037001758926181	179.44355814638965	far	V4
4	5.0	ltm	60	diff_vonmises	-0.0545357882927381	-3.1246705015928606	1.3294240740924317	1.6715033598328992	3.879264707836242e-16	2.8137924774149257	0.2254503511412087	-0.4006797154219717	0.6261300665631805	116.0414461744255	far	V3ab
5	6.0	ltm	60	diff_vonmises	-0.2008822608351341	-11.509705724899336	0.3832468609694974	3.922715170507464	4.406609736881109e-11	4.904544515891804	0.1025782558632911	-0.3702197280905772	0.4727979839538683	157.68886246219745	far	IPS0
6	7.0	ltm	60	diff_vonmises	0.3627696104799303	20.785167616104847	1.2202158741402496	97.4623613882076	1.197914537479889	98.28229819323616	0.0903958230256734	-0.2217361580710797	0.3121319810967531	75.75875908407386	far	LO1
0	1.0	ltm	61	diff_vonmises	0.0327585147797762	1.8769246399981097	1.3869619886275666	0.6723134990705435	3.4473538954128437e-26	3.0850792746989497	-0.2132399190485937	-0.473668314394169	0.2604283953455752	114.09283874793968	far	V1
1	2.0	ltm	61	diff_vonmises	0.0294775720709487	1.6889404699580757	1.577870247294532	1.388143335990093	0.2244439913185328	2.744230449257876	0.0801827434497639	-0.3274879329872759	0.4076706764370398	92.8297770792193	far	V2
2	3.0	ltm	61	diff_vonmises	-0.0666343234895616	-3.817865506661328	1.578975012559532	1.4238263506163082	0.2390287825948924	2.394007504071041	0.1591772704103522	-0.2746082773564711	0.4337855477668233	94.2061066962248	far	V3
3	4.0	ltm	61	diff_vonmises	-0.1821520495313272	-10.436543667802976	0.77196130461327	1.7064154152338251	4.024847739785246e-18	3.4249036290853385	-0.0360951955959787	-0.4363937236878625	0.4002985280918838	138.32677687098248	far	V4
4	5.0	ltm	61	diff_vonmises	-0.0968595571904844	-5.549643832520786	1.4241415069938044	1.119328131530099	1.807465757097796e-15	2.0576194367951746	0.1423695491349512	-0.300253058564055	0.4426226076990062	112.84516785331918	far	V3ab
5	6.0	ltm	61	diff_vonmises	-0.3283370428487902	-18.812326813041743	0.7068261114522582	1.906643228005504	4.2993224119601785e-17	2.890395547006657	0.0850091128926409	-0.3274394539953721	0.412448566888013	140.4904804786579	far	IPS0
6	7.0	ltm	61	diff_vonmises	0.2291501970430214	13.129339165156328	1.141203363700689	167.68550458711132	1.1261794683666249	168.9019352708925	0.0251689752854531	-0.2918502052951126	0.3170191805805658	75.52246262447346	far	LO1
0	1.0	ltm	62	diff_vonmises	0.2819582457422905	16.15501747994576	5.000347060611384	0.4205074213245912	0.0292921656359434	3.263859505068825	-0.1701415685438158	-0.5169560850705485	0.3468145165267326	59.37126938479818	far	V1
1	2.0	ltm	62	diff_vonmises	0.0743493723287765	4.259905243885646	1.323918232344368	4.0477790006138665	0.6889310568560483	5.672406885033982	0.0242370815014019	-0.3721722868269491	0.396409368328351	80.97715521688784	far	V2
2	3.0	ltm	62	diff_vonmises	-0.022142053812793	-1.2686462332245951	0.6308474189822291	113.19406238879246	0.6148655385069011	114.16371552819696	0.0828792836183041	-0.2606645078533223	0.3435437914716264	106.53365771680726	far	V3
3	4.0	ltm	62	diff_vonmises	0.0170322223294769	0.9758744552075106	0.0002545456275268	3328.4852215792557	6.218563540253658e-30	3330.321217484623	-0.1573550136215544	-0.4270434720502862	0.2696884584287318	179.9513610194586	far	V4
4	5.0	ltm	62	diff_vonmises	-0.0180955645962527	-1.0367994792716346	2.05294755160064	0.7306599879189705	3.904577605309271e-17	1.7093217021444682	0.110883089041164	-0.2657381181569578	0.3766212071981218	95.81623531270525	far	V3ab
5	6.0	ltm	62	diff_vonmises	-0.1748741447943261	-10.019550442674545	0.0004699245442341	2200.545574257106	1.5244824943044024e-24	2201.379850944945	0.0318206586765654	-0.2973405060078562	0.3291611646844217	179.0995942837173	far	IPS0
6	7.0	ltm	62	diff_vonmises	0.3791977177909216	21.726428830412654	0.6433847380194059	25.139748980329163	0.5772107348909692	26.4499009236983	-0.0271324470813629	-0.2853913217042518	0.2582588746228889	101.83983099633669	far	LO1
0	1.0	ltm	63	diff_vonmises	0.2256449407089629	12.928502771103272	2.380800522815478	0.4395358290315203	2.1851177564720968e-15	2.5330107276378824	-0.151452944872159	-0.4009887560055853	0.2495358111334263	89.0937369081424	far	V1
1	2.0	ltm	63	diff_vonmises	-0.0265658492679019	-1.5221110422314883	2.018771998713642	0.7520250711036504	0.0349187212143132	2.030993074418088	0.0555006594528051	-0.3051723063083255	0.3606729657611307	93.70063755120373	far	V2
2	3.0	ltm	63	diff_vonmises	0.0553970010604848	3.174014358447525	1.025343514658666	185.3081496528228	1.0121670378942045	186.0196060536872	0.2163765755617177	-0.2349386454490627	0.4513152210107805	86.33838723899069	far	V3
3	4.0	ltm	63	diff_vonmises	-0.0485731704871822	-2.7830376664849523	1.902875905155255	0.6512551221698029	8.858379178612558e-25	2.271442553148476	-0.0355209016050898	-0.3542602809554638	0.3187393793503739	99.32268648443056	far	V4
4	5.0	ltm	63	diff_vonmises	0.0169288951292645	0.969954242726436	2.470877851425236	0.6714536903683511	0.0445582104346535	1.3527899925490217	0.1680094354658804	-0.2031460886151355	0.371155524081016	85.18278683700046	far	V3ab
5	6.0	ltm	63	diff_vonmises	-0.3049275761960093	-17.47106317318516	0.4741217561826041	73.10233680536852	0.4521096340613474	73.95938341907028	0.0950704876801431	-0.2698629146826539	0.364933402362797	123.98318430670577	far	IPS0
6	7.0	ltm	63	diff_vonmises	0.2621272845763298	15.018787101448378	1.3359598755737212	98.41270159595568	1.3163731761415485	98.96233817600806	0.1286831715363092	-0.1731545969382804	0.3018377684745896	74.30291139213273	far	LO1
0	1.0	ltm	64	diff_vonmises	0.1515057031898805	8.680637364941887	0.3652030940595296	51.9617080475299	0.332354115041666	55.01331647540482	-0.34944162193311	-0.5568907458701569	0.2074491239370468	118.54412213020484	far	V1
1	2.0	ltm	64	diff_vonmises	0.0714200159969269	4.0920654893807376	1.7339164574078367	0.9335089834811086	0.1291456760932181	2.2887262869376044	0.0288401897022469	-0.3082784275590216	0.3371186172612685	93.19848851565324	far	V2
2	3.0	ltm	64	diff_vonmises	0.0835230670006504	4.785519231125671	1.387688243354304	4.626087426264572	0.9524789882382964	5.352798410555854	0.1309695870554421	-0.2098454370372897	0.3408150240927319	78.77393680077296	far	V3
3	4.0	ltm	64	diff_vonmises	-0.1449027312113326	-8.30231493832795	0.3814912936577523	94.28079022974514	0.3650028519611196	96.05758230254928	-0.1106548447110853	-0.3846782535723818	0.2740234088612965	126.82713653791338	far	V4
4	5.0	ltm	64	diff_vonmises	0.0035924689563115	0.2058333092284189	1.5433930285961204	2.359384597873711	0.5211849176426055	3.221578273531589	0.2321320031140454	-0.2703690078635293	0.5025010109775748	86.9369809114169	far	V3ab
5	6.0	ltm	64	diff_vonmises	-0.2019863874312006	-11.572967518902097	0.5771381113754076	138.36967888381673	0.5619814427984413	139.20904083654864	0.1787791570650938	-0.2926505650883602	0.471429722153454	114.97529011724066	far	IPS0
6	7.0	ltm	64	diff_vonmises	0.3263660818051065	18.69939906365397	0.9606243992380282	45.15991620146709	0.9230135532818502	45.7552693848156	0.1279732810298703	-0.178424477055402	0.3063977580852723	88.6707364809674	far	LO1
0	1.0	ltm	65	diff_vonmises	0.1775441334180415	10.172529522161378	3.131094698112859	0.43547252753791	6.51759740390997e-10	2.7311297057131347	-0.1424468460702125	-0.4341154826450886	0.2916686365748761	77.61476096964694	far	V1
1	2.0	ltm	65	diff_vonmises	0.0284842252690882	1.6320258906186496	0.8665714459326094	107.89458929080688	0.843257846914194	109.15986727251946	0.0852516370871683	-0.312027782314427	0.3972794194015954	89.55009681164756	far	V2
2	3.0	ltm	65	diff_vonmises	-0.0165636943480264	-0.9490297792866088	0.8787942500850933	95.93279491199688	0.8557483636041677	96.8011272359658	0.1487370467978728	-0.2481474276746027	0.3968844744724755	91.73023364116249	far	V3
3	4.0	ltm	65	diff_vonmises	-0.141116034162326	-8.085353179125228	1.2982768097812236	0.9860672815302184	2.3369005699722193e-22	2.5303158014906364	-0.0110943761193893	-0.3735249038898869	0.3624305277704976	117.04717862136566	far	V4
4	5.0	ltm	65	diff_vonmises	-0.0654172240066175	-3.748130843041073	1.926488094599264	0.8397567837562008	1.9073173943279245e-14	1.8599243115041804	0.1274836317078129	-0.2870306311886279	0.4145142628964409	98.74740078278012	far	V3ab
5	6.0	ltm	65	diff_vonmises	-0.3112781734487219	-17.834925593152967	0.9392914981919092	1.4618423183288063	3.8319083082201284e-14	2.546237783517097	0.0774497839526509	-0.331486660556983	0.4089364445096339	130.3397101730856	far	IPS0
6	7.0	ltm	65	diff_vonmises	0.1165066219412372	6.675337722559167	0.8807483151687101	175.50656061252857	0.866184625114213	177.13608426218426	-0.0280284939527462	-0.3540227407149992	0.3259942467622529	84.43238282478984	far	LO1
0	1.0	ltm	66	diff_vonmises	-0.2693951239441731	-15.435203623404826	0.3541678894532672	2.2617561596216844	6.363167837529157e-17	4.783674612696625	-0.2641112294152151	-0.5164709544178424	0.2523597250026272	158.6275109640812	far	V1
1	2.0	ltm	66	diff_vonmises	0.1197682199455424	6.862213522674148	0.8867772735826985	64.99602773919837	0.8482068974841207	66.17305103977687	0.1098631783196637	-0.301434518900729	0.4112976972203928	89.73547760215325	far	V2
2	3.0	ltm	66	diff_vonmises	-0.0501471125132918	-2.8732179017793	2.5041178219642046	0.5967256196544743	2.91278528170524e-17	1.4430389476403802	0.1223582626151545	-0.2273142807772347	0.3496725433923893	86.92137375798089	far	V3
3	4.0	ltm	66	diff_vonmises	-0.3175560885276879	-18.19462363131926	0.930112947870058	1.5368988547489262	2.427891572677427e-17	3.0907126246725185	0.0128950647218872	-0.4133359815708179	0.4262310462927052	130.69073225258416	far	V4
4	5.0	ltm	66	diff_vonmises	-0.122308070312308	-7.00773622928457	1.4553695579125805	1.2078850584895822	2.3734977514600774e-15	2.1457919283374065	0.1722115163482076	-0.3135485290649325	0.4857600454131401	111.814533993253	far	V3ab
5	6.0	ltm	66	diff_vonmises	-0.3156927619832304	-18.087862884467143	0.8451966938453354	1.8067102695695367	1.3767437789288979e-10	2.667950341268308	0.139569612099202	-0.3205546882787637	0.4601243003779658	134.3393791722052	far	IPS0
6	7.0	ltm	66	diff_vonmises	0.1281297772073453	7.3412954639324175	0.9534105384741592	242.24151540220865	0.9416170818548264	243.95158313912367	-0.022806353591477	-0.3777640779277789	0.3549577243363018	81.16077008484788	far	LO1
0	1.0	ltm	67	diff_vonmises	0.1434884283126444	8.221281351279996	0.3474989495739147	89.25203938259307	0.3267701195559818	92.44183889840076	-0.3510936205837716	-0.594874571592797	0.2437809510090254	122.76489522949892	far	V1
1	2.0	ltm	67	diff_vonmises	-0.0234594698670879	-1.3441286129984713	1.6054398937091614	0.9023368247212902	2.2030071410349263e-18	2.380505917976412	0.0284272316504348	-0.3624456796003008	0.3908729112507356	107.27972947754591	far	V2
2	3.0	ltm	67	diff_vonmises	0.0392798710388853	2.2505708303462804	1.279380831366632	45.3438618627776	1.2130470497169363	46.30695593470504	0.1841632217513229	-0.2862395633113337	0.4704027850626566	76.15338822676148	far	V3
3	4.0	ltm	67	diff_vonmises	0.0095526050761156	0.5473239542166743	1.1316277544214537	1.0887481194420718	2.3572917788350777e-14	3.0752302766729147	-0.0904853056982626	-0.447939560461064	0.3574542547628013	123.29212868023858	far	V4
4	5.0	ltm	67	diff_vonmises	0.0082853655918476	0.4747164801357792	1.0789803792913553	11.614278308960053	0.8143796478992414	12.700463894937712	0.2502513115974221	-0.3313487752273971	0.5816000868248192	88.81501067695993	far	V3ab
5	6.0	ltm	67	diff_vonmises	-0.1323601705481807	-7.583679148042538	0.7163566684432767	97.96289437485174	0.6879365589701915	99.15852058330734	0.1932011309147014	-0.3528451155300214	0.5460462464447229	102.1859716394112	far	IPS0
6	7.0	ltm	67	diff_vonmises	0.215805320249647	12.364734046773894	1.2833422416648297	81.19164355328954	1.2597400122777576	81.73917262130702	0.1363934999746696	-0.1733846914270103	0.3097781914016799	76.18978466079949	far	LO1
0	1.0	ltm	68	diff_vonmises	-0.1557621997966663	-8.924516656022472	0.8945035314735936	0.9146199949622148	1.2184553508658677e-25	2.4080506947246576	-0.0890422519542484	-0.334082791148842	0.2450405391945935	132.8932706813585	far	V1
1	2.0	ltm	68	diff_vonmises	0.0113252047275029	0.6488864330075266	2.371425661607677	0.8888968915895976	0.2104108538997611	1.6550646598280552	0.1862643805001475	-0.2213706533731977	0.4076350338733452	80.86870028655096	far	V2
2	3.0	ltm	68	diff_vonmises	-0.0130760796909226	-0.7492041788665987	0.9446760781630104	35.07971518243159	0.8905512663568101	35.56568480556372	0.2053084482268801	-0.1847307060394305	0.3900391542663106	92.34482412780758	far	V3
3	4.0	ltm	68	diff_vonmises	-0.2935473108993191	-16.819022001945616	3.049674364152207	0.7225544502107377	1.2820891591777134e-22	1.8556852570809808	0.1823387926185208	-0.2942693772171171	0.476608169835638	78.65541841901808	far	V4
4	5.0	ltm	68	diff_vonmises	-0.0888503916191569	-5.090752447862231	1.4578043382760268	0.9787558526002448	3.0706697923488776e-14	1.3127331135124949	0.2077659859446473	-0.1863551333106053	0.3941211192552526	111.7624768371043	far	V3ab
5	6.0	ltm	68	diff_vonmises	-0.3832892586662288	-21.96085685427303	1.2346902229575825	1.159499979506265	1.7966220331498946e-13	1.6548250387739247	0.183646349399025	-0.2255390116679039	0.4091853610669289	118.63273456111334	far	IPS0
6	7.0	ltm	68	diff_vonmises	0.1758397233290557	10.074874017502976	1.2261635269205662	185.4951220948324	1.2108359117804446	186.40927030838947	0.1753195961599374	-0.2706139958658653	0.4459335920258027	77.07187979035567	far	LO1
0	1.0	ltm	69	diff_vonmises	0.0736757485741398	4.221309445765208	0.2834768152656208	90.63189406580284	0.2720555188023001	92.62632155365378	-0.225056281260727	-0.3766617237812557	0.1516054425205286	133.80416909903823	far	V1
1	2.0	ltm	69	diff_vonmises	0.2944969915519267	16.873434695225264	0.3047873919894157	100.52586406615688	0.2924803100488833	101.48848774457448	0.0203314665264144	-0.2759112516643061	0.2962427181907205	141.35856450828845	far	V2
2	3.0	ltm	69	diff_vonmises	0.1361163174464218	7.798890512542908	1.760055844534517	120.45483580874036	1.7420691531995884	120.77630119677296	0.2059286854068531	-0.1529580788294069	0.3588867642362601	66.81137162425594	far	V3
3	4.0	ltm	69	diff_vonmises	0.067460280781911	3.865189373571	0.7819585169577222	102.46664965463792	0.7632183195502429	103.90916186721108	-0.0611916770557279	-0.2982266358800807	0.2370349588243527	88.03428476144401	far	V4
4	5.0	ltm	69	diff_vonmises	-0.1135968267228774	-6.508618737299805	1.4887444173657527	108.39964271980304	1.4637706915077822	109.11723298465031	0.1695901262242003	-0.2341917388546655	0.4037818650788658	70.20247784896043	far	V3ab
5	6.0	ltm	69	diff_vonmises	-0.2012217323352845	-11.529156009122929	0.8939027691182196	188.0798928990844	0.8793335216807152	189.1814427287304	0.1710148324920553	-0.3072873742587561	0.4783022067508113	90.33942554349171	far	IPS0
6	7.0	ltm	69	diff_vonmises	-0.1542653800117179	-8.838755199653246	1.7459803205026263	130.8571846338139	1.7270971447926633	131.538318351294	0.0887442014701562	-0.2178993322754543	0.3066435337456106	62.85086155943264	far	LO1
0	1.0	ltm	70	diff_vonmises	-0.354431575203845	-20.307433385353963	0.0578765050088249	11.222437279310396	3.748895644075925e-07	13.781150570131164	-0.3023945165774182	-0.509079401323651	0.2066848847462328	173.32425287806822	far	V1
1	2.0	ltm	70	diff_vonmises	0.2349399320609771	13.461066546184286	0.7159888147420969	107.9746078466872	0.6967121066335044	109.10063378641176	0.0770891060651592	-0.2842781257359874	0.3613672318011467	99.0668202981986	far	V2
2	3.0	ltm	70	diff_vonmises	0.0404377411945679	2.31691190349105	4.216996101551705	0.363729900483726	0.0119914193331736	1.001282022366122	0.1265178266771071	-0.157889709120755	0.2844075357978621	66.16940901688739	far	V3
3	4.0	ltm	70	diff_vonmises	-0.4038383054788387	-23.13823050965233	0.4347112631328221	91.34472345407596	0.4152384562292871	92.916926845116	-0.0351641173917478	-0.3720833167113753	0.3369191993196274	122.81819505419804	far	V4
4	5.0	ltm	70	diff_vonmises	-0.0993870849143082	-5.694460503698193	1.2895461626884035	1.8572007868122649	0.3119606450496998	2.7191242102757123	0.1575584059943482	-0.2575182728304251	0.4150766788247734	99.0537966388198	far	V3ab
5	6.0	ltm	70	diff_vonmises	-0.3731338389311082	-21.37899416426675	0.5083094024207898	162.0912163788184	0.4963240727200191	162.93452980621962	0.1557203014397643	-0.2955556613546388	0.4512759627944032	121.0604900925718	far	IPS0
6	7.0	ltm	70	diff_vonmises	0.1519696530127104	8.707219731695881	1.1122382379042903	206.53273889655375	1.099719776789608	207.8594081591561	0.0054607149974117	-0.3100119948390691	0.3154727098364809	75.77525893756254	far	LO1
0	1.0	ltm	71	diff_vonmises	-0.0070655210639276	-0.4048245370238358	1.152413008854503	0.6782531989481722	1.0061498905053711e-14	3.1905461769567163	-0.256630106473093	-0.4827298649051622	0.2260997584320692	122.49527916574073	far	V1
1	2.0	ltm	71	diff_vonmises	0.0397723833748685	2.278789708556252	1.539040582055054	0.9021351132882236	9.463818321276233e-14	2.211120073702732	0.0449805837014953	-0.3336341609027703	0.3786147446042657	109.25002443898056	far	V2
2	3.0	ltm	71	diff_vonmises	-0.0435180404419593	-2.493400050003901	1.1047196053059092	114.83487923348308	1.085846641826816	115.48848404517302	0.1720441840128828	-0.206294704295372	0.3783388883082548	82.63273410479266	far	V3
3	4.0	ltm	71	diff_vonmises	-0.2225552501184043	-12.751476540262988	1.3520309490918532	0.7422881885448533	1.128830687850947e-09	2.3344662121378845	-0.0695236398510742	-0.3513263129627865	0.2818026731117123	115.0680251866799	far	V4
4	5.0	ltm	71	diff_vonmises	0.0207969542875019	1.1915777074003648	2.248321234222644	0.7194321775592564	4.5539150927076135e-17	1.660119953212128	0.1339606420545923	-0.2597779623982483	0.3937386044528406	91.68578110722692	far	V3ab
5	6.0	ltm	71	diff_vonmises	-0.3398401863310715	-19.47140838570989	0.4936909647301408	141.2782884699364	0.4798689680602366	142.3955655166632	0.0927121567801947	-0.3267569603632374	0.4194691171434321	120.54087980958003	far	IPS0
6	7.0	ltm	71	diff_vonmises	0.3005162085834409	17.218310427104292	1.0381722656565384	114.47897338176207	1.0208726035600746	115.23813088205962	0.1112229540672657	-0.2088745848111628	0.3200975388784286	83.33744733486009	far	LO1
0	1.0	ltm	72	diff_vonmises	0.1515057031898805	8.680637364941887	0.3652030940595296	51.9617080475299	0.332354115041666	55.01331647540482	-0.34944162193311	-0.5568907458701569	0.2074491239370468	118.54412213020484	far	V1
1	2.0	ltm	72	diff_vonmises	0.0714199958606574	4.09206433565748	1.7339161063326702	0.9335092756339076	0.1291457682046327	2.288726578233802	0.0288401853886591	-0.3082784285663198	0.3371186139549789	93.19849106752211	far	V2
2	3.0	ltm	72	diff_vonmises	0.0835216257211872	4.785436651895328	1.3870737074248507	4.638269496603043	0.9529451676729064	5.364980053892259	0.1309664722974568	-0.2098475275709412	0.3408139998683981	78.77537118271519	far	V3
3	4.0	ltm	72	diff_vonmises	-0.1449022935699796	-8.302289863325479	0.3816471948594876	92.53012296751982	0.364849727587659	94.30691503794893	-0.110654835840851	-0.3846783113121148	0.2740234754712638	126.82715439727176	far	V4
4	5.0	ltm	72	diff_vonmises	0.0035924720854915	0.205833488517227	1.5433925624639837	2.3593863713960235	0.5211851691985615	3.221580047409809	0.2321319974056503	-0.270369012511212	0.5025010099168624	86.93698342842848	far	V3ab
5	6.0	ltm	72	diff_vonmises	-0.2019864781073344	-11.572972714261866	0.5772526394513507	136.31657380707176	0.5618683830700743	137.1559357435208	0.1787792385674009	-0.2926505628137423	0.4714298013811433	114.97526048140368	far	IPS0
6	7.0	ltm	72	diff_vonmises	0.3263662844403255	18.6994106737968	0.960615111233348	45.18295658626005	0.923023314595238	45.77830974745656	0.1279733001207983	-0.1784244779730626	0.3063977780938609	88.67072273173812	far	LO1
0	1.0	ltm	73	diff_vonmises	-0.0322381784778266	-1.8471115659689523	0.3175636072151675	3.588384362744485	0.0894552853319285	6.811870910045358	-0.4180641353625628	-0.5839557801384421	0.1658916447758792	147.92580572716366	far	V1
1	2.0	ltm	73	diff_vonmises	0.2649379255539599	15.179824967193108	0.729940712188392	146.82612632933592	0.7159311626651358	148.13026748105622	0.0173375146494905	-0.2974610328479148	0.3147985474974053	95.25371218682108	far	V2
2	3.0	ltm	73	diff_vonmises	0.1204337205619381	6.900343899256974	3.797412498340908	0.3724063397888648	0.239926464418488	0.9582856267454344	0.0871779417672508	-0.1448911361063256	0.2320690778735764	64.34236920345998	far	V3
3	4.0	ltm	73	diff_vonmises	-0.3929168808953179	-22.51247897474617	0.3988668984773992	134.10299767157434	0.3887996443870447	135.79084492136928	-0.1343893741136419	-0.3418069886893544	0.2074176145757125	120.62777654523045	far	V4
4	5.0	ltm	73	diff_vonmises	-0.0379802811423114	-2.176109814174757	1.2943996996000682	3.686830772035624	0.6554960897489645	4.720760417829632	0.1582945134115534	-0.284560048649667	0.4428545620612204	86.6979543631289	far	V3ab
5	6.0	ltm	73	diff_vonmises	-0.2659893777355571	-15.240068739558447	0.5340986081706787	155.89797677820815	0.5212621902146864	156.8086864975509	0.1472139633860933	-0.3007333055475918	0.4479472689336852	118.21620186998572	far	IPS0
6	7.0	ltm	73	diff_vonmises	0.4392188393274362	25.16538577609672	0.5859674096287767	36.2964336158286	0.5426749888908731	37.391307470014056	0.0173556380478832	-0.2628165632371271	0.2801722012850103	108.91024576869276	far	LO1
0	1.0	ltm	74	diff_vonmises	0.0132094421303916	0.7568452837937404	1.5868037370669192	0.6217761492001073	1.4909467469016003e-28	2.8613113700585147	-0.1767163006126197	-0.4437282900610715	0.2670119894484518	107.8254712354077	far	V1
1	2.0	ltm	74	diff_vonmises	0.0465805394355784	2.668868317101336	1.903555909596635	1.5556679659589967	0.439460901922675	2.6566886403989054	0.1532615624393712	-0.2901596311784507	0.443421193617822	80.74477104070448	far	V2
2	3.0	ltm	74	diff_vonmises	-0.0069435522563286	-0.3978362391161716	2.0410838548380346	0.8592335310959391	1.5231803764142686e-15	1.766145627836632	0.1676298250372084	-0.2735197612302258	0.4411495862674343	96.08800618321136	far	V3
3	4.0	ltm	74	diff_vonmises	-0.2540974337582342	-14.55871053945183	1.4113782706189868	1.339810817707543	7.970900849027962e-19	2.879092050235165	0.1011378098911557	-0.424969574502892	0.5261073843940478	113.04529496560112	far	V4
4	5.0	ltm	74	diff_vonmises	-0.094107109136163	-5.391940175679171	1.5076988945569767	1.2595856648764152	2.1305611626008486e-16	1.7711231699461765	0.2653859706931447	-0.2550505250887166	0.5204364957818614	110.1956927423119	far	V3ab
5	6.0	ltm	74	diff_vonmises	-0.2431381994051192	-13.930792664323551	0.672486702665839	2.128048622142783	1.6678002763169717e-15	2.58330662004672	0.183254941116761	-0.2562766952438286	0.4395316363605897	142.70961201614898	far	IPS0
6	7.0	ltm	74	diff_vonmises	0.2027321717734943	11.615697814142464	1.2496228337682305	173.8978264329903	1.233638203996242	174.91264995820632	0.1191170645837331	-0.2785331067084229	0.3976501712921561	74.86786643632863	far	LO1
0	1.0	ltm	75	diff_vonmises	0.1549475482775197	8.877840562201447	0.509927131688255	110.85511360503236	0.4945646566213359	112.84742362424412	-0.1711483837900687	-0.3808602726151502	0.2097118888250815	104.22953390614784	far	V1
1	2.0	ltm	75	diff_vonmises	0.0291962862642584	1.6728239803977878	1.0990841495364092	2.028073287102016	0.3577000281400845	3.0271012586274293	0.063396103008037	-0.2507235406061118	0.3141196436141488	99.91944383131944	far	V2
2	3.0	ltm	75	diff_vonmises	0.1250912203956697	7.167198982812679	1.3547852514880172	148.05864993702642	1.3397475796743197	148.50014781842097	0.2226640843274268	-0.1774792290725688	0.4001433133999956	76.13477784558378	far	V3
3	4.0	ltm	75	diff_vonmises	-0.0734281073678641	-4.207120649812082	0.7624773533786479	37.23647526100175	0.7067699435935922	38.61783253357676	0.0009705136670703	-0.3076770058938161	0.3086475195608864	93.70716668127562	far	V4
4	5.0	ltm	75	diff_vonmises	-0.0035215564401652	-0.2017703213385824	1.1768891827772188	97.94458845061342	1.154251768693079	98.45923589959696	0.2208350536787833	-0.1917048813066628	0.4125399349854461	81.62960423192797	far	V3ab
5	6.0	ltm	75	diff_vonmises	-0.2306700568568309	-13.216420717939148	0.7311019588856364	153.69832817022828	0.7172838709707832	154.46576885734618	0.1842589767968263	-0.251812587663256	0.4360715644600823	102.0574868807874	far	IPS0
6	7.0	ltm	75	diff_vonmises	0.1708483191405526	9.788887623657825	1.3477215803855178	91.7224249511049	1.325796511381183	92.14330797364734	0.1939227211650021	-0.1630645375812509	0.356987258746253	76.169751689391	far	LO1
0	1.0	ltm	76	diff_vonmises	-0.2961827845488998	-16.970023519084528	0.1994990992103459	46.48540316678572	0.1805625207152406	47.91823942051214	-0.1189387557017944	-0.3145022638509447	0.1955635081491502	152.6541481468692	far	V1
1	2.0	ltm	76	diff_vonmises	0.1394421851879757	7.9894486973526515	0.7757090468104544	53.49241889769565	0.7448620199479719	54.14896929128977	0.122606113892262	-0.1967436200513974	0.3193497339436595	98.57079619254844	far	V2
2	3.0	ltm	76	diff_vonmises	0.0822032931266945	4.709901758236367	1.2888613205394204	82.84384899447618	1.270519085228257	83.09573518429542	0.1783956700834039	-0.1176920038121611	0.2960876738955651	79.24894379026094	far	V3
3	4.0	ltm	76	diff_vonmises	-0.2924499190325479	-16.756146079507644	3.638568352542721	0.4921104332369094	3.9540841893312275e-14	1.5068846217729064	0.1193412769985303	-0.2395798757081717	0.3589211527067021	71.86665665432542	far	V4
4	5.0	ltm	76	diff_vonmises	-0.0712452294221491	-4.082050956330425	2.6920799785673144	0.5398016518576159	0.0357119350655658	0.8750484758415195	0.1879068823582304	-0.1328362847796372	0.3207431671378676	82.41259920275985	far	V3ab
5	6.0	ltm	76	diff_vonmises	-0.4003666650704092	-22.93932016626224	0.7046884759215857	78.28249898501528	0.6814305279186857	78.82919640373935	0.1932827061646413	-0.2120371951136883	0.4053199012783297	105.8852680048849	far	IPS0
6	7.0	ltm	76	diff_vonmises	0.1220641112263621	6.993758403286	1.1519051612463458	203.85534485658127	1.1387118716358793	204.7880712404585	0.1576368928052147	-0.2664635599019149	0.4241004527071297	79.22908887861689	far	LO1
0	1.0	ltm	77	diff_vonmises	0.0854929740958379	4.898386593712787	1.1450041632367596	0.7008887165689008	5.466935322304621e-27	2.811645323343726	-0.1889033098640867	-0.4213014943081965	0.2323981844441098	122.71394999441354	far	V1
1	2.0	ltm	77	diff_vonmises	0.0832560374971041	4.770219567566994	1.908465331817173	1.2125875474983188	0.2777481587969095	2.48525105725405	0.0958037980534936	-0.306142900921905	0.4019466989753986	84.18797240890717	far	V2
2	3.0	ltm	77	diff_vonmises	-0.0286691281273629	-1.6426200440176966	1.2216413273840026	1.5898046469354103	0.1210869409784237	2.5551048518801784	0.1517596936644456	-0.3060480873738846	0.4578077810383303	111.66355922887266	far	V3
3	4.0	ltm	77	diff_vonmises	-0.1691220722972689	-9.689980965139886	0.8421504159576958	1.751660282252682	2.0094001288223096e-32	3.488379620523845	-0.0092209591582809	-0.4538720991175901	0.4446511399593091	135.17272682342684	far	V4
4	5.0	ltm	77	diff_vonmises	-0.1283553885491686	-7.354222041629178	1.350464150007386	1.0554701123358168	1.1250350499296803e-09	1.5799303456059617	0.177686753171369	-0.2226383911273012	0.4003251442986703	115.26469273061362	far	V3ab
5	6.0	ltm	77	diff_vonmises	-0.2581969768226712	-14.793597054976194	0.3168952570633392	3.4206485085877314	5.021190400197607e-16	3.915306861834415	0.1058435385717516	-0.2363568444958808	0.3422003830676325	160.72818948640736	far	IPS0
6	7.0	ltm	77	diff_vonmises	0.3022984216543458	17.32042371426019	1.4619889927643634	134.04947061517996	1.443776422930942	134.89983161602655	0.0712846390076578	-0.2385029513384822	0.30978759034614	68.1369826115147	far	LO1
0	1.0	ltm	78	diff_vonmises	0.1861681358600424	10.666648464598545	5.447596942278143	0.5330208575953611	0.0362192016601728	3.581043961254061	-0.1070743601050729	-0.5682353851999953	0.4611610250949223	56.90423817934644	far	V1
1	2.0	ltm	78	diff_vonmises	-0.0604554306276818	-3.4638410236121016	1.7869289467972835	2.8199038342137404	0.7162552316660488	4.285971893691318	0.1256896261196614	-0.3755282360302604	0.5012178621499218	75.16306403622136	far	V2
2	3.0	ltm	78	diff_vonmises	-0.0278576459280102	-1.596125538844793	0.8161334887409705	130.00029934409395	0.7989623148013167	130.9807561846226	0.1287347943030639	-0.26747227062401	0.3962070649270739	94.27051545159044	far	V3
3	4.0	ltm	78	diff_vonmises	-0.1317758121565624	-7.550197878479755	1.0338436852272697	1.2241999857172396	4.3173768210345093e-16	2.841472826266922	-0.0261002656292208	-0.3983344383139732	0.3722341726847523	127.06527333677953	far	V4
4	5.0	ltm	78	diff_vonmises	0.0296104261897292	1.6965524502551264	2.1410574244977103	1.0617414062011572	2.492338558903866e-12	2.1501622741813358	0.2284687146492797	-0.3343254718386472	0.5627941864879269	93.89729920475824	far	V3ab
5	6.0	ltm	78	diff_vonmises	-0.1462264091706578	-8.37815609883177	0.8312467460267345	1.8318046796980336	8.937543729782631e-21	2.754461237948859	0.128750126657556	-0.3308160687788379	0.459566195436394	135.73577950418297	far	IPS0
6	7.0	ltm	78	diff_vonmises	0.1773112732433666	10.159187616935828	0.9194936587161008	1.740046240176503	2.7078872806699924e-12	3.063171105162971	0.0804889428915326	-0.3972172507171496	0.4777061936086823	131.68771780644042	far	LO1
0	1.0	ltm	79	diff_vonmises	0.3984421338312701	22.82905264871849	0.1098628312357426	33.234378513318866	0.0949853707528894	35.68811488154346	-0.3459658671273571	-0.4288068309725306	0.0828409638451734	159.38062200944216	far	V1
1	2.0	ltm	79	diff_vonmises	0.7225161386471234	41.3971253745692	0.8058850223503939	117.83019693843748	0.7904751963526512	118.94474830868512	0.0103391195345636	-0.2512384097263584	0.2615775292609221	90.1755917653296	far	V2
2	3.0	ltm	79	diff_vonmises	0.280378830198396	16.064523635183246	1.8645894955412248	32.61796376124235	1.8206955338168356	32.90011670256054	0.0943134166251198	-0.1101615128231596	0.2044749294482795	63.22476422218693	far	V3
3	4.0	ltm	79	diff_vonmises	-1.2192836320519802	-69.85980614596045	712.1430265138843	646.4167730900379	0.2721530618789811	1.6942771903397973	inf	-0.345047102706598	inf	0.0	far	V4
4	5.0	ltm	79	diff_vonmises	-0.1618792088290912	-9.274995456823822	1.580391019975166	122.1120954661027	1.5578171586680165	122.9582191580214	0.1001561461073166	-0.2540888324102752	0.3542449785175918	66.12902741395385	far	V3ab
5	6.0	ltm	79	diff_vonmises	-0.2857117469918557	-16.370077259942928	0.7457220184445333	168.06210887420497	0.7336879312849178	169.04601188348977	0.0996946993733374	-0.2602081750974534	0.3599028744707908	97.8283899180696	far	IPS0
6	7.0	ltm	79	diff_vonmises	-1.7017758559259344	-97.50457422181928	1.741107144380486	1.4262758908108044	1.7410650903889653	2.314279503409872	-0.0129483969976318	-0.4210859320965612	0.4081375350989293	156.02899781924566	far	LO1
0	1.0	ltm	80	diff_vonmises	0.2687117132352583	15.396047074109966	0.5143762960912136	125.13130265951136	0.4953265412270025	128.3450338104185	-0.344298191695934	-0.5826599508947439	0.2383617591988098	98.68883915535211	far	V1
1	2.0	ltm	80	diff_vonmises	0.1248188239142414	7.151591814072624	0.6484739639571797	133.2715965553049	0.6315197953483754	134.94604293824136	-0.0255302331232698	-0.3664950830960585	0.3409648499727886	99.67592982104804	far	V2
2	3.0	ltm	80	diff_vonmises	-0.0043357124054878	-0.2484180220169695	0.9252630347837376	105.24728744232806	0.905720366424398	106.17914601790912	0.089671122836954	-0.2393001160180823	0.3289712388550363	87.31676773753156	far	V3
3	4.0	ltm	80	diff_vonmises	-0.0022827431882788	-0.1307915504006127	0.0004039720043384	1712.2824257823356	2.3802861654536447e-25	1714.234727718811	-0.2006179454197649	-0.4207968254244179	0.2201788800046529	179.97041286684276	far	V4
4	5.0	ltm	80	diff_vonmises	0.0051812790525362	0.2968654221898712	2.2315892499062358	0.8491310604673336	0.0934909646556855	2.2388993484647344	0.077462341845884	-0.323025247724609	0.4004875895704931	85.67905270820017	far	V3ab
5	6.0	ltm	80	diff_vonmises	-0.2815284957651913	-16.13039462001213	0.3510841821161462	100.88320169862584	0.3339980854812949	102.2587349279016	0.0145747106077891	-0.3735907501054125	0.3881654607132017	135.6280359172229	far	IPS0
6	7.0	ltm	80	diff_vonmises	0.5481919658485886	31.40908600610389	1.3879505428694487	0.6678265824651948	0.047425533246039	1.9723846078520089	-0.0529544400404422	-0.2820112999497418	0.2290568599092995	107.7764146200036	far	LO1
0	1.0	ltm	81	diff_vonmises	-0.1665863210577069	-9.54469312121792	0.3043459318901487	2.343316636074222	4.685499331799907e-16	4.563495534700771	-0.2321929984087913	-0.4574712445064151	0.2252782460976237	162.19666256929318	far	V1
1	2.0	ltm	81	diff_vonmises	0.1664521683656054	9.537006738150188	1.297820671000527	4.608187379579747	0.7744004432703357	5.706300621138966	0.1249435945111525	-0.2884421984710633	0.4133857929822159	82.76509131020694	far	V2
2	3.0	ltm	81	diff_vonmises	-0.0326394418429144	-1.8701022632616973	1.4567704515221758	0.903363234162992	2.4956528771017987e-27	1.7518573866378346	0.1056140948814121	-0.2579484778675033	0.3635625727489154	111.82010699800306	far	V3
3	4.0	ltm	81	diff_vonmises	-0.3169932139704959	-18.162373294796865	1.2755230959636084	1.3107445483074809	2.853374376607184e-23	2.8827354528581486	0.0563269814125418	-0.4186211457662528	0.4749481271787947	117.44809279506543	far	V4
4	5.0	ltm	81	diff_vonmises	-0.1464240108976966	-8.38947784381559	1.3568088229925557	1.2030934988961746	0.0196278820440972	1.7258234384596722	0.2104430615628465	-0.2367860935342958	0.4472291550971423	113.93373873457108	far	V3ab
5	6.0	ltm	81	diff_vonmises	-0.2369104484887836	-13.573968820958797	0.3683460270811718	3.4259316427875075	6.73440681575123e-11	3.8205507377940178	0.1539439884310298	-0.2432849853419421	0.3972289737729719	158.18751556182343	far	IPS0
6	7.0	ltm	81	diff_vonmises	0.2281534757805993	13.072231243468586	1.2337937136715873	198.24430898858316	1.2196199996304649	199.5099426229804	0.0325103566252096	-0.3129180248216876	0.3454283814468972	72.66841271101995	far	LO1
0	1.0	ltm	82	diff_vonmises	0.0380681291130178	2.1811431321350194	4.056373496972055	0.4966334733115672	3.6909875788580463e-26	4.166115541629599	-0.2782995583661604	-0.6629425673203313	0.3846430089541709	67.97061868080803	far	V1
1	2.0	ltm	82	diff_vonmises	-0.0328527593100613	-1.8823244538256376	3.578491014241681	0.7650795514545686	0.0587665109026447	2.368687945195994	0.1538264754158104	-0.3648596289454524	0.518686104361263	69.98982317114397	far	V2
2	3.0	ltm	82	diff_vonmises	-0.1300009207978361	-7.448504094530498	2.413093237768377	0.7869051943289039	1.7200655070650213e-15	1.971042476475553	0.1404700194186433	-0.3100595080152033	0.4505295274338466	88.53478588350066	far	V3
3	4.0	ltm	82	diff_vonmises	-0.2802463747950594	-16.056934499598356	0.519521013997172	2.955749827487188	5.152835032027881e-10	4.851330892399482	-0.0320164371580181	-0.5102717421203248	0.4782553049623066	149.96394967418894	far	V4
4	5.0	ltm	82	diff_vonmises	-0.0074370603300825	-0.4261121688979031	1.4161622436069203	1.7661315770742405	2.2274712919174625e-13	2.999688678990512	0.2614354490193568	-0.4339114174405284	0.6953468664598852	113.14050424247368	far	V3ab
5	6.0	ltm	82	diff_vonmises	-0.1793437777149391	-10.275641544998402	0.7496828010328119	2.398088352988366	1.0792877341982414e-14	3.409479700291432	0.1624831610203677	-0.3851997221005392	0.547682883120907	139.37288141703368	far	IPS0
6	7.0	ltm	82	diff_vonmises	0.2667789846857159	15.285309885276746	0.7517108920497291	118.47284401833082	0.7324431657782583	119.56552254847423	0.1179960565100586	-0.2919250247137732	0.4099210812238318	97.86932457730428	far	LO1
0	1.0	ltm	83	diff_vonmises	0.1491432969801762	8.545281459630335	0.2014198989584872	66.63766479503178	0.1883390624403816	68.65901764257961	-0.2341656868076089	-0.3881909894476081	0.1540253026399991	149.30349576195792	far	V1
1	2.0	ltm	83	diff_vonmises	0.2483441182062362	14.229069840115365	0.3195116545618448	81.58077079991592	0.3042455989771312	82.53130331104659	0.0231550862735687	-0.2725230561748404	0.2956781424484092	140.0411615416453	far	V2
2	3.0	ltm	83	diff_vonmises	0.1376533624858827	7.886956706225533	1.6752187525444897	109.90789362888124	1.6576191592511411	110.16185381312	0.2094210394156164	-0.1336111975709162	0.3430322369865326	69.27795047401645	far	V3
3	4.0	ltm	83	diff_vonmises	-0.1326834615029132	-7.602202355303462	0.773641650897886	126.99812432740222	0.7588219705516576	128.3988321092907	-0.0549376774384597	-0.2910054541205422	0.2360677766820824	88.70263935520549	far	V4
4	5.0	ltm	83	diff_vonmises	-0.059057724145243	-3.3837583411702834	1.399066940398572	84.55112702364741	1.3727847232070451	85.00648061293717	0.2106850614886184	-0.177820116744364	0.3885051782329825	74.73920839474974	far	V3ab
5	6.0	ltm	83	diff_vonmises	-0.251737305964839	-14.42348517777876	0.7981657392823511	171.51806931151697	0.7852783943065871	172.2727784364777	0.1950656742484398	-0.2468385534479651	0.4419042276964049	97.74793798985075	far	IPS0
6	7.0	ltm	83	diff_vonmises	0.207245534252275	11.8742944355893	1.5860150800464226	70.76202814187708	1.5627663856703269	70.96230423548012	0.1943275197136849	-0.1132359267649034	0.3075634464785883	71.81340101062273	far	LO1
0	1.0	ltm	84	diff_vonmises	-0.0203307661240145	-1.1648670931735816	0.4361442660980847	105.9805335522616	0.4216204266753995	108.07826089790012	-0.2029754637400422	-0.3957616819383762	0.1927862181983339	111.12446437220652	far	V1
1	2.0	ltm	84	diff_vonmises	0.107870215868086	6.180508104406451	0.782672623745307	82.98507919468632	0.761303186282255	83.83360719892525	0.0872505245122958	-0.2232151584224402	0.3104656829347361	95.70319970111836	far	V2
2	3.0	ltm	84	diff_vonmises	0.1308012640456107	7.494360384789776	1.466026613282111	86.78756370180997	1.4442646074831638	87.16634063786223	0.1730541633167917	-0.1488210752887084	0.3218752386055001	72.78913940439494	far	V3
3	4.0	ltm	84	diff_vonmises	-0.1994641983702633	-11.428456730576324	0.7485604150823703	122.46151957840064	0.7317708170427354	123.69639041459486	0.0335324962584806	-0.2880327811641372	0.3215652774226178	94.82174626297112	far	V4
4	5.0	ltm	84	diff_vonmises	-0.046957073625266	-2.690442137012817	1.2107568460233766	92.90788506965424	1.185209352292615	93.39387796131966	0.255631951736504	-0.1970550893690088	0.4526870411055128	81.12355773486527	far	V3ab
5	6.0	ltm	84	diff_vonmises	-0.2394005728498318	-13.716642437309568	0.7784037390959667	169.90746218552312	0.7650506758621769	170.53311820339508	0.2474317503348899	-0.2438205338976846	0.4912522842325746	100.63991392919804	far	IPS0
6	7.0	ltm	84	diff_vonmises	0.0856440251659502	4.907041182521158	1.1271225613774254	154.67012909319013	1.1111214285192943	155.46203557307433	0.1751149207096887	-0.2390662361928122	0.4141811569025009	81.0976785845458	far	LO1
0	1.0	ltm	85	diff_vonmises	-0.6611915703913129	-37.88348643304931	0.6408689085168454	1.0421707294365854	4.597659601295656e-16	1.799136514709307	-0.0015108215165589	-0.2072852199935477	0.2057743984769888	139.16059688833383	far	V1
1	2.0	ltm	85	diff_vonmises	0.2566412635445864	14.704461250009476	0.5814943824532434	53.39246612439251	0.5581364746597326	53.640460197801374	0.1713914078354879	-0.1530105355545226	0.3244019433900105	118.52956576629802	far	V2
2	3.0	ltm	85	diff_vonmises	0.0624153514928923	3.576136217368296	1.5700413715119943	53.413728670963565	1.548968956541884	53.39631533915465	0.2020984582198082	-0.0626065946582095	0.2647050528780177	75.78522075281958	far	V3
3	4.0	ltm	85	diff_vonmises	-0.3937935066919713	-22.56270593310669	2.520109450584137	0.9752377767065962	0.3719109914730402	1.7274529233166505	0.1920892192841964	-0.2199026344683448	0.4119918537525413	75.031367025668	far	V4
4	5.0	ltm	85	diff_vonmises	-0.1161998045136935	-6.657758378879853	2.3632016077996694	0.465366190799395	5.074365251159492e-17	0.4410393195153073	0.1951066621236762	-0.0678432870327497	0.262949949156426	89.45615345702001	far	V3ab
5	6.0	ltm	85	diff_vonmises	-0.5091508945664449	-29.172197393967654	1.0024462957813849	5.935430820981987	0.7139605163649143	6.215355832812628	0.2457685132057123	-0.1611923986094939	0.4069609118152063	97.9670428578352	far	IPS0
6	7.0	ltm	85	diff_vonmises	0.154426118340474	8.847964827496957	1.4311931667729958	202.645053259291	1.4173558166708575	203.26914318617065	0.2368828659439117	-0.2287262044679288	0.4656090704118405	73.04133029751881	far	LO1
0	1.0	ltm	86	diff_vonmises	0.1425900155508559	8.169806091768823	3.049038154981698	0.4094990278666178	3.728443115225702e-36	2.543383226997259	-0.1341040878846402	-0.4041837102248765	0.2700796223402362	78.6769985208023	far	V1
1	2.0	ltm	86	diff_vonmises	0.0468620402037784	2.6849971230488863	2.2144002330769093	1.2150382209683603	0.3705129862978404	2.351954782697306	0.1423248605326059	-0.290314715112363	0.4326395756449689	77.57303355798268	far	V2
2	3.0	ltm	86	diff_vonmises	-0.0083497030113522	-0.4784027427381556	1.5255879589567485	1.1508961181107813	0.0820079866132811	1.992980284242612	0.1599029355076794	-0.2679028610360212	0.4278057965437006	104.42102757148348	far	V3
3	4.0	ltm	86	diff_vonmises	-0.2675014655460729	-15.326704989354184	1.7024663440578436	1.054955500428442	4.0017071444764457e-29	2.585280595942341	0.082041332793639	-0.3950705596614238	0.4771118924550628	104.35818071914537	far	V4
4	5.0	ltm	86	diff_vonmises	-0.0833447771374029	-4.775303974431625	1.5101174999041147	1.0886601241619436	4.357714332519577e-16	1.5315338973426589	0.2297244341385455	-0.2206498957291059	0.4503743298676515	110.12450516471844	far	V3ab
5	6.0	ltm	86	diff_vonmises	-0.2414560078402613	-13.834410187324693	0.4965874915868336	2.4325172017414056	2.276672333276299e-13	2.8248741059337794	0.1490503016457799	-0.227855109451473	0.376905411097253	151.4487499249497	far	IPS0
6	7.0	ltm	86	diff_vonmises	0.2614239999688428	14.978491861642857	1.265671365083486	135.3645308680125	1.247490781572851	136.18748949857078	0.1314062563981082	-0.2370932155629681	0.3684994719610763	75.26164012592358	far	LO1
0	1.0	ltm	87	diff_vonmises	-0.3993751035401012	-22.882507875448063	0.2872410008171682	36.84546132101472	0.2597561640118758	37.5463458670169	0.0375585925294803	-0.2212490637297079	0.2588076562591883	144.3077318432338	far	V1
1	2.0	ltm	87	diff_vonmises	-0.0167325345780835	-0.9587036118809018	2.449017304991702	1.0608540404924025	0.5661355337958385	1.2274067266702906	0.2995994597359863	-0.1289598358093638	0.4285592955453502	76.02520873245987	far	V2
2	3.0	ltm	87	diff_vonmises	0.0268680748995441	1.539427295385262	1.2257946765152263	34.423180391099045	1.1791607214759738	34.54595482418422	0.2503123958890914	-0.1140425984881856	0.364354994377277	84.18266222868888	far	V3
3	4.0	ltm	87	diff_vonmises	-0.3216589914794499	-18.429702654206984	3.94081802456687	0.7639070158194832	1.8782669937878184e-17	1.4121718389032527	0.3577523345823529	-0.2245341168602713	0.5822864514426243	68.98594998898335	far	V4
4	5.0	ltm	87	diff_vonmises	-0.0961998543161465	-5.511845642088573	1.503260772568299	0.9733277701175076	6.9752501704003e-20	0.7663262105369464	0.3001671593920445	-0.1010822383227477	0.4012493977147923	110.33354509144505	far	V3ab
5	6.0	ltm	87	diff_vonmises	-0.41592419737228	-23.83070110679789	1.9471744891707383	0.9503953340641954	5.483932189493546e-16	1.059760192672042	0.3137472138170737	-0.1588456009150534	0.4725928147321271	97.97760048492331	far	IPS0
6	7.0	ltm	87	diff_vonmises	0.088786347098704	5.087082967139342	1.2801252809485566	230.68157506718808	1.264952925468687	231.44361074661447	0.3411565356869204	-0.2901190655541938	0.6312756012411143	78.08440642165323	far	LO1
0	1.0	ltm	88	diff_vonmises	-0.3039144574416572	-17.413015744415233	0.0002443139386727	2235.6018837231445	5.485514833301065e-36	2237.9005418176143	-0.2789111165147346	-0.4527638620767789	0.1738527455620442	177.36211448914636	far	V1
1	2.0	ltm	88	diff_vonmises	0.3154313983501163	18.072887851371505	0.9096305552979036	107.64070736224753	0.8890719293705084	108.69701374266351	0.0827896758395709	-0.2645179077083117	0.3473075835478827	87.57018710122236	far	V2
2	3.0	ltm	88	diff_vonmises	0.1426936180991916	8.175742080535258	3.6060658136874326	0.3305883182262244	5.842624686796895e-33	0.8410607969483711	0.1062315183105703	-0.1336818905404213	0.2399134088509917	72.20129182155588	far	V3
3	4.0	ltm	88	diff_vonmises	-0.5333175353252942	-30.55684391445855	0.6603573010708258	79.09706626025758	0.6343648454829273	80.5810928704408	-0.0130992160518559	-0.3286069232588584	0.3155077072070025	99.556524783	far	V4
4	5.0	ltm	88	diff_vonmises	-0.1022507125486078	-5.858534281240593	1.5084817707108211	1.0770873409045316	0.2005562214323771	1.596083697388692	0.1607976229764603	-0.1833443931380765	0.3441420161145369	99.28684730452258	far	V3ab
5	6.0	ltm	88	diff_vonmises	-0.394310053089247	-22.59230186159328	0.45888107300205	100.11246268054586	0.4447138059623422	100.5358294515368	0.1628095218586942	-0.2078450989704841	0.3706546208291783	127.90909262259083	far	IPS0
6	7.0	ltm	88	diff_vonmises	0.274577132769119	15.732110858473773	1.136252256748728	170.15623700051552	1.1232533147074957	171.1690367794213	0.0430203152004793	-0.249093462643593	0.2921137778440723	76.49832507079091	far	LO1
0	1.0	ltm	89	diff_vonmises	0.1247905754020066	7.149973293544049	6.103717289224256	0.4878658122381389	1.312804445594377e-19	3.644136422810969	-0.1098733227782301	-0.5799799775475111	0.4701066547692809	55.14599961657049	far	V1
1	2.0	ltm	89	diff_vonmises	-0.0660601256084231	-3.784966391466736	2.5044251981688666	1.538226121736646	0.4770221416265958	2.958653127704133	0.1901696627920928	-0.37194056054767	0.5621102233397628	71.73805450684537	far	V2
2	3.0	ltm	89	diff_vonmises	-0.044717856159424	-2.5621444268080933	1.6925173392908055	1.4282025988885674	0.1967962399331214	2.5846310918980326	0.169701366938623	-0.3177130174993841	0.4874143844380071	93.09836372518436	far	V3
3	4.0	ltm	89	diff_vonmises	-0.1868446646766674	-10.705410710510137	1.0497980033228471	1.7012575016037732	1.0027124949568172e-12	3.4100667694865	0.0545901878068768	-0.4695518234217278	0.5241420112286047	126.293491666954	far	V4
4	5.0	ltm	89	diff_vonmises	0.0140868344127984	0.807116158553002	1.7688837853790802	1.522359575715669	2.0845895674706417e-15	2.3376309571661045	0.3569049297037449	-0.3508485521425667	0.7077534818463116	102.73195531870292	far	V3ab
5	6.0	ltm	89	diff_vonmises	-0.1232820229345565	-7.0635396039851095	0.8361095704440092	2.095127212191048	2.417396663006572e-20	2.7405962940295927	0.2144390727470792	-0.3139737867485308	0.5284128594956101	135.57442708551537	far	IPS0
6	7.0	ltm	89	diff_vonmises	0.195546777395603	11.204005042152264	1.0105614113597057	4.066487728239539	0.4906070617667593	4.893571749165964	0.1988300245632133	-0.2698779568278046	0.4687079813910179	101.0894344129917	far	LO1
0	1.0	ltm	90	diff_vonmises	0.3013186443083973	17.26428660747481	0.0003931958991517	889.5243119606589	2.594395214087872e-32	892.2625410866558	-0.3801322169560706	-0.4914622412073299	0.1113300242512593	177.09230847036974	far	V1
1	2.0	ltm	90	diff_vonmises	0.557277179866363	31.929630425295457	0.7278474472167111	144.35626248188913	0.714260694917535	145.71247864115466	-0.0154715658377853	-0.2958675010228475	0.2803959351850622	93.81317742968564	far	V2
2	3.0	ltm	90	diff_vonmises	0.274443478795491	15.724453049869735	4.155135009053179	0.3462590890818304	0.3376745073283003	0.8028785596614096	0.0976745547745387	-0.1231627399404989	0.2208372947150376	60.8186619555419	far	V3
3	4.0	ltm	90	diff_vonmises	-1.2201513363008043	-69.90952193728366	712.1429631863712	796.9943350322043	0.1734808970636455	1.9450458225372615	inf	-0.363730267999984	inf	0.0	far	V4
4	5.0	ltm	90	diff_vonmises	-0.0635091283345363	-3.638805014123644	1.1634561110497963	90.81323294977707	1.1404296330560617	91.6189901638528	0.0923116632381919	-0.2165883595592586	0.3089000227974505	77.83064318058868	far	V3ab
5	6.0	ltm	90	diff_vonmises	-0.3548823399778371	-20.333260304456875	0.5303157486642139	141.1620622647279	0.5191198906423631	142.01855081236133	0.0820688289094206	-0.2503019088167839	0.3323707377262046	116.78384923895165	far	IPS0
6	7.0	ltm	90	diff_vonmises	-1.615989928361934	-92.58940263078708	1.5087480140827825	1.0857626811012102	1.5087698969560046	1.7297209959024218	-0.0136937828298857	-0.2799127718325945	0.2662189890027087	144.57905114977316	far	LO1
0	1.0	ltm	91	diff_vonmises	0.0141363211981058	0.8099515424927863	0.6174651302808318	52.68592164140872	0.5890022722362562	53.91291948261679	-0.0393726772873908	-0.261165424731935	0.2217927474445442	101.43644844036736	far	V1
1	2.0	ltm	91	diff_vonmises	-0.0191378068582833	-1.0965155621161586	1.1803452351458037	92.68516857542676	1.1587145844814537	93.1820111059042	0.1873977771413919	-0.1763763457696718	0.3637741229110638	81.05276819452422	far	V2
2	3.0	ltm	91	diff_vonmises	0.1533736910101631	8.787665183225922	1.3274134543337943	125.80119574846086	1.3131494199316422	126.03972486843598	0.2296426060558616	-0.1318002383305039	0.3614428443863655	78.76969955614288	far	V3
3	4.0	ltm	91	diff_vonmises	-0.244617432443471	-14.015546474337429	4.110190455477647	0.5977298561546309	9.0202577078984e-16	1.471140118761157	0.2322865014559123	-0.2340137008337053	0.4663002022896176	67.51006971033158	far	V4
4	5.0	ltm	91	diff_vonmises	-0.0450944858650901	-2.583723719382012	1.205281288374154	31.25175819207784	1.1523600780892391	31.33446586593628	0.2757915060743716	-0.1149032192159413	0.390694725290313	85.66102068286901	far	V3ab
5	6.0	ltm	91	diff_vonmises	-0.307072898384302	-17.5939810802701	0.7904012486889155	96.43873262523552	0.7712176425361313	96.75040555447194	0.2603568531733593	-0.1816755192579053	0.4420323724312647	102.44090154808931	far	IPS0
6	7.0	ltm	91	diff_vonmises	0.0397343135806889	2.2766084700228286	1.220225073578714	196.93304409392348	1.2046943272965838	197.7333514797706	0.259781758819571	-0.2709104613650588	0.5306922201846298	79.02640072622123	far	LO1
0	1.0	ltm	92	diff_vonmises	-0.1777299039502105	-10.183173389612564	0.6196791021001885	1.212237723505435	3.0268917702126866e-17	2.5782269769584936	-0.0839022071637432	-0.3158110807124038	0.2319088735486605	145.64036682379685	far	V1
1	2.0	ltm	92	diff_vonmises	0.058525460632871	3.3532618883225576	2.08137920226364	1.225196778284362	0.4304535068571427	1.902092095539072	0.2026933072673552	-0.2120806695340872	0.4147739768014425	80.11613715347278	far	V2
2	3.0	ltm	92	diff_vonmises	0.04509419674631	2.583707154096137	2.104726133297596	0.8120016178872448	5.379395995961987e-13	1.3254621304374523	0.2210144185937414	-0.2045364632659325	0.425550881859674	94.67622578381372	far	V3
3	4.0	ltm	92	diff_vonmises	-0.3134474199456447	-17.95921426215018	3.381266107315879	0.8476993015938454	1.6441051552580463e-28	1.98761247439339	0.277658239722537	-0.3156515123196945	0.5933097520422317	74.61545140811675	far	V4
4	5.0	ltm	92	diff_vonmises	-0.1289634430782509	-7.38906099985941	1.4156174389485483	1.0542560804976329	2.468542666424491e-18	1.154448315260692	0.2572063424814713	-0.1577452975995968	0.4149516400810682	113.09460593555414	far	V3ab
5	6.0	ltm	92	diff_vonmises	-0.3481832548874189	-19.949431002176897	1.0271378799252058	1.2656263248508894	5.600437878236965e-16	1.451520742370234	0.2079504749079933	-0.1747473680963402	0.3826978430043335	126.56576708320569	far	IPS0
6	7.0	ltm	92	diff_vonmises	0.2022199452462955	11.586349395979326	1.5286838087106869	183.92802177160823	1.5121578410179732	184.6814521402951	0.2014681485439098	-0.2556140865841456	0.4570822351280554	69.46651196215623	far	LO1
0	1.0	ltm	93	diff_vonmises	-0.2826452977977343	-16.19438266302848	0.8222483130734989	1.0526936249180288	1.21349080480767e-16	1.7660362755773713	0.0430419254442643	-0.2184829822615721	0.2615249077058365	135.55044457516823	far	V1
1	2.0	ltm	93	diff_vonmises	-0.0795312618219779	-4.556805641749269	2.640848108166727	0.9277076319183812	0.4113176053214165	1.1701006002667704	0.2950644241646675	-0.1408390536314845	0.435903477796152	75.62170437723452	far	V2
2	3.0	ltm	93	diff_vonmises	-0.0106072164603317	-0.6077487355587071	1.234593192376713	100.9230999951175	1.2169314826139042	101.06036946769296	0.2754795401059766	-0.1254956897039143	0.400975229809891	83.34039244667821	far	V3
3	4.0	ltm	93	diff_vonmises	-0.2909153844107749	-16.668223722163347	4.096401223667154	0.6784936796486047	2.4895508768929004e-18	1.3835175163548832	0.3082508482155909	-0.2200474439173295	0.5282982921329205	67.6293398907938	far	V4
4	5.0	ltm	93	diff_vonmises	-0.0526221465708942	-3.01502690743106	1.4686040392661452	0.8894010334978175	4.626683735188273e-17	0.8255618482173612	0.2489536608969873	-0.1112287668966692	0.3601824277936565	111.43786577466602	far	V3ab
5	6.0	ltm	93	diff_vonmises	-0.4144708257465471	-23.74742904657933	2.059189613447693	0.8820753500902291	7.288897471769004e-19	1.2361903127413565	0.2663771053593654	-0.1892100873395152	0.4555871926988806	95.45055538039418	far	IPS0
6	7.0	ltm	93	diff_vonmises	0.1147331392555039	6.573724649627124	1.2555591878708028	198.3501432872635	1.2395379700188656	199.00151784800272	0.3309631349186759	-0.2605662062349267	0.5915293411536027	79.31291951558248	far	LO1
0	1.0	ltm	94	diff_vonmises	0.0653673787321744	3.745274919186811	0.1873718274801227	56.01202864977166	0.1757005249957175	57.927558215018365	-0.2480882847235417	-0.3476212201510176	0.0995329354274758	148.7856824790092	far	V1
1	2.0	ltm	94	diff_vonmises	0.5999902804302444	34.376910817523715	0.5469984938745108	118.1040519754196	0.5348923621261692	119.11127423311684	0.0136875269308873	-0.2434476425272542	0.2571351694581416	111.21105136821885	far	V2
2	3.0	ltm	94	diff_vonmises	0.2333182838960359	13.368152950478022	1.6784458651471026	53.94301529009909	1.654530627497902	54.14211395099996	0.1260723173260167	-0.092641636603461	0.2187139539294778	68.59021345426348	far	V3
3	4.0	ltm	94	diff_vonmises	-0.3163919534413049	-18.127923604086416	0.7707002578838278	73.64863574009384	0.753648509252263	74.98722758636897	-0.154821053870009	-0.2482217970015803	0.0934007431315713	78.28055498245817	far	V4
4	5.0	ltm	94	diff_vonmises	-0.1333063015263543	-7.637888459958468	1.4962648685742437	59.07103147931247	1.4613888424047454	59.74858167930608	0.0730676943259851	-0.1960153095992254	0.2690830039252105	68.03590675185737	far	V3ab
5	6.0	ltm	94	diff_vonmises	-0.3883208268412976	-22.24914447503681	0.7148761769584565	166.45931519485794	0.7037324052573999	167.40394209084275	0.0842231572895002	-0.2469451069241373	0.3311682642136375	99.6033026652351	far	IPS0
6	7.0	ltm	94	diff_vonmises	-0.0149697080649434	-0.8577010926642115	1.3117882538229535	77.46654984919844	1.287716861004682	78.2846974702174	0.0156125621460638	-0.2051902672195549	0.2208028293656188	70.26913890518927	far	LO1
0	1.0	ltm	95	diff_vonmises	0.3541867922470602	20.293408355033456	0.5869144943989463	127.05428424857809	0.5668189704326095	130.1265011179839	-0.3145008016272683	-0.5631363359328976	0.2486355343056292	93.18307879748347	far	V1
1	2.0	ltm	95	diff_vonmises	0.1344389392411371	7.702783820732867	0.6613744692623179	81.07581876949011	0.6339357353364796	82.78726575117065	-0.0427617095357284	-0.3667266904489441	0.3239649809132157	98.26113238128232	far	V2
2	3.0	ltm	95	diff_vonmises	0.005112333478606	0.292915131787559	0.871537791977878	120.89867404184297	0.8558419669060863	121.76226478663315	0.0905069751959146	-0.2249345077429598	0.3154414829388745	90.2871927657862	far	V3
3	4.0	ltm	95	diff_vonmises	0.1347810078345216	7.722382907437775	0.0001962474387627	2911.8313860481608	8.715139448504718e-31	2913.7613732451364	-0.2162161951469556	-0.3981088861789885	0.1818926910320328	179.32689842034236	far	V4
4	5.0	ltm	95	diff_vonmises	0.0286372270319631	1.6407922458894395	2.7755465902515897	0.5807009366675571	0.0079203986041287	1.80542323858565	0.074094874565297	-0.2836581876341071	0.3577530621994042	81.94977703142163	far	V3ab
5	6.0	ltm	95	diff_vonmises	-0.3042708142835635	-17.433433487457076	0.2775934921398796	111.4400488723067	0.2647653083955126	112.65602434741362	0.0057838799183898	-0.3391618767524651	0.3449457566708549	144.5234777599357	far	IPS0
6	7.0	ltm	95	diff_vonmises	0.5634851543371554	32.28532116179682	1.0159517064056438	1.4694289293905798	0.2695094156334967	2.544001200007209	-0.014088983413511	-0.2392648168858732	0.2251758334723621	104.049761029716	far	LO1
0	1.0	ltm	96	diff_vonmises	-0.2026145046461126	-11.60895598435606	0.0008488435166326	790.4484589703259	1.0768588769990077e-22	792.7448991796116	-0.2586819223459002	-0.472252380493785	0.2135704581478847	178.7815942459741	far	V1
1	2.0	ltm	96	diff_vonmises	0.1301922819005624	7.459468278079687	2.6691771869126986	0.9566328341066436	0.3310558519511502	2.0511943918660283	0.1433827920019795	-0.2771111312778319	0.4204939232798114	72.84058547408003	far	V2
2	3.0	ltm	96	diff_vonmises	-0.1296049757696032	-7.4258181154935645	0.4648408321509179	20.16624788366983	0.4032063924148852	20.78315978851516	0.0884563898165469	-0.2112943265169222	0.2997507163334691	128.2607858112629	far	V3
3	4.0	ltm	96	diff_vonmises	-0.4849138678331753	-27.783518054205555	2.286503234136786	0.7820769590273723	3.9967252527404635e-14	2.205641295948091	0.0861741247882626	-0.3465235293211037	0.4326976541093663	90.71637816293196	far	V4
4	5.0	ltm	96	diff_vonmises	-0.0981555264039679	-5.623897398832277	1.231333887504451	1.1327462079243713	3.1181876146949075e-14	1.4969955597797562	0.1977411589989151	-0.2011022663804817	0.3988434253793969	119.49217349357934	far	V3ab
5	6.0	ltm	96	diff_vonmises	-0.1871634395895565	-10.723675167633337	0.0578034293443289	18.955850055252775	0.0007337362088123	19.17619029433792	0.1395483418682532	-0.2046482117621781	0.3441965536304314	175.70490894539105	far	IPS0
6	7.0	ltm	96	diff_vonmises	0.3266440651818216	18.71532633791454	1.1022334437801924	128.30640260084013	1.085420875723179	129.07967808638656	0.1274776152068568	-0.2185773810319968	0.3460549962388537	81.09666473068407	far	LO1
0	1.0	ltm	97	diff_vonmises	0.4025616354609263	23.065082705795056	0.8525606258804933	163.5010029046238	0.8317772350610682	166.11369015517883	-0.1606395937411164	-0.5293615132766902	0.3687219195355737	82.40730364143249	far	V1
1	2.0	ltm	97	diff_vonmises	-0.032664479329337	-1.8715368055633297	0.7847777867745078	119.42237841816726	0.7642640307549343	121.12953525565784	-0.0389019164124491	-0.3647447388940961	0.325842822481647	89.5233079899399	far	V2
2	3.0	ltm	97	diff_vonmises	0.0916065407374655	5.248668160050021	0.9752857791972172	185.0120226394303	0.961965853151331	185.97398144741783	0.1455839588380527	-0.2658183557085039	0.4114023145465566	86.15948630982314	far	V3
3	4.0	ltm	97	diff_vonmises	0.5004663907117877	28.6746119759307	0.5293328395212265	26.82626901195455	0.4698440117072995	28.68417522470702	-0.1497464810004825	-0.3603564993494421	0.2106100183489596	105.64539636961231	far	V4
4	5.0	ltm	97	diff_vonmises	0.0818369068276337	4.688909369628763	1.3944975044914345	2.9357597068775525	0.6559587793067156	4.2473680505152185	0.0438427191809582	-0.3077354929222428	0.3515782121032011	81.2463528917879	far	V3ab
5	6.0	ltm	97	diff_vonmises	-0.2005621976705295	-11.491367456389892	1.2173518789267903	0.9320213920026194	1.0020828801891998e-15	2.384278578901661	-0.023138320453147	-0.3482438497744695	0.3251055293213225	119.84206407708496	far	IPS0
6	7.0	ltm	97	diff_vonmises	0.8541159713113473	48.937240370857104	0.0002281624913934	3364.193052783715	8.903668585011884e-25	3365.5063726511794	-0.0868498783428322	-0.3311788825390067	0.2443290041961745	159.46211283219637	far	LO1
0	1.0	ltm	98	diff_vonmises	-0.4055202197900144	-23.23459710118535	0.1106627319111338	39.84793976899216	0.0959156418910664	40.34078097300308	0.011955053186198	-0.1595618229367241	0.1715168761229222	163.990574311435	far	V1
1	2.0	ltm	98	diff_vonmises	0.2364625847100225	13.548308116639005	0.7385701122953546	57.99346163695341	0.7192725908263659	58.20714853435725	0.1519288297375034	-0.116766136762453	0.2686949664999565	105.55696984962856	far	V2
2	3.0	ltm	98	diff_vonmises	0.2320528736159162	13.295650282074698	1.5791622340483509	75.31051281704237	1.56102726858014	75.2973861961556	0.2411932297547565	-0.0764414465098601	0.3176346762646167	75.37888958477734	far	V3
3	4.0	ltm	98	diff_vonmises	-0.2458260147767807	-14.084793141230143	12.470970972594088	0.363936538676362	2.3305848223225647e-18	1.041480353361416	0.3416258435443964	-0.1657567463630953	0.5073825899074917	38.38883155580888	far	V4
4	5.0	ltm	98	diff_vonmises	-0.2391092387412555	-13.69995022245994	6.897175796100515	0.2504810691081118	0.0599089754355335	0.3410643440525746	0.1997078074961276	-0.05404267002031	0.2537504775164377	51.398241340262416	far	V3ab
5	6.0	ltm	98	diff_vonmises	-0.4617157910487685	-26.454366161638628	3.179071268716536	0.5915651340210776	2.6702901116700152e-18	1.036763473702137	0.2353594876624098	-0.1643122268979971	0.3996717145604069	76.98483553378978	far	IPS0
6	7.0	ltm	98	diff_vonmises	-0.0502015653062528	-2.8763378169986638	1.4568987418312542	328.5368974203544	1.444934871547345	329.8293061903494	0.14724512623917	-0.3730562930784487	0.5203014193176188	68.85278329059861	far	LO1
0	1.0	ltm	99	diff_vonmises	0.2000148829565644	11.460008633214285	3.1479826953659558	0.4749361899815164	2.315567853026906e-19	3.5378959387775053	-0.2434218828042164	-0.5624841561648478	0.3190622733606313	77.40575160835849	far	V1
1	2.0	ltm	99	diff_vonmises	0.0616122682112193	3.530122934730916	0.9208844842175228	157.11159774645975	0.9019201171638884	158.66714716020283	0.0645326194601025	-0.3696167683157085	0.4341493877758111	85.59698905491851	far	V2
2	3.0	ltm	99	diff_vonmises	-0.0023109926595384	-0.1324101258772676	2.1280265627962613	0.8406009219408231	1.356704220777743e-13	2.179020010609182	0.1033722662883179	-0.3404190970466662	0.4437913633349841	94.1744515758493	far	V3
3	4.0	ltm	99	diff_vonmises	-0.1091225709972043	-6.252262767756494	0.0853566305982556	16.429001173991523	5.0725551984960134e-09	18.437324225637123	-0.0918278638353817	-0.537926457668791	0.4460985938334092	174.8024788587014	far	V4
4	5.0	ltm	99	diff_vonmises	-0.0729765395581268	-4.181247720150167	1.5494097691032187	1.5219171593750738	0.110253547495387	2.7434691396963884	0.1862512151375401	-0.3595463770789057	0.5457975922164459	101.62008962395127	far	V3ab
5	6.0	ltm	99	diff_vonmises	-0.1673243375841143	-9.58697835339197	0.4602589401661435	3.1585847904964752	3.6047770088897403e-17	4.195263430710947	0.0882527654398857	-0.3665853466949861	0.4548381121348718	153.82990713664014	far	IPS0
6	7.0	ltm	99	diff_vonmises	0.1196943279756178	6.857979824657562	0.8830976796959732	152.34164533659842	0.8673705238279391	154.08384813185685	-0.0946114152293233	-0.3588265390125471	0.2642151237832237	81.47925767324074	far	LO1
0	1.0	ltm	100	diff_vonmises	-0.1320089924024358	-7.563558122434125	0.1416565014028887	34.523367865403664	0.119838936301775	36.80231697744247	-0.2802583366660327	-0.4321588146698234	0.1519004780037907	160.31479856222523	far	V1
1	2.0	ltm	100	diff_vonmises	0.2874734785138563	16.47101704078872	0.5389439963789563	137.89960723249382	0.527535328028849	138.9643757518586	0.027246103680639	-0.2657769637441163	0.2930230674247553	112.8741529489833	far	V2
2	3.0	ltm	100	diff_vonmises	0.0863611178046019	4.948127564235803	1.346013856449198	65.1168594202039	1.3240615596574152	65.45328777587	0.1230507223184673	-0.1200606440850071	0.2431113664034745	75.48216674781224	far	V3
3	4.0	ltm	100	diff_vonmises	-0.4235485833289604	-24.267546243494493	0.6994943104852599	129.2347578025257	0.6869207349602857	130.60084191325285	-0.0757073326996717	-0.2750501455843626	0.1993428128846908	91.86383383026768	far	V4
4	5.0	ltm	100	diff_vonmises	-0.038031143503049	-2.1790240127810936	2.17741555919276	0.8768374347111848	0.3646900685790342	1.5495275158351425	0.1324648131575355	-0.1870060857926865	0.3194708989502221	79.23307601523476	far	V3ab
5	6.0	ltm	100	diff_vonmises	-0.3721069831480623	-21.32015966172962	0.6161071982802786	177.2846665175824	0.6056910084687305	178.08884386496348	0.1354433259805745	-0.2523864372326905	0.387829763213265	110.03595879240552	far	IPS0
6	7.0	ltm	100	diff_vonmises	0.3081121235158053	17.65352429426917	0.9410829641179425	94.9472532665341	0.9225675434689522	95.6660928360546	0.0991565532125235	-0.1953228008968111	0.2944793541093347	87.61885460701001	far	LO1
0	1.0	ltm	101	diff_vonmises	0.1664274636084236	9.535591259829774	5.276878050529435	0.4264598437801132	8.595372950515334e-21	3.3504580190462585	-0.1527549820738074	-0.5332320229962055	0.3804770409223981	59.40584093995133	far	V1
1	2.0	ltm	101	diff_vonmises	0.0034290047578869	0.1964675005572008	2.352892870493425	1.454634223661547	0.4473816934649173	2.8894952805660163	0.1424944259054423	-0.3592034989032045	0.5016979248086468	73.53048387608493	far	V2
2	3.0	ltm	101	diff_vonmises	-0.025697799783009	-1.4723754703386216	1.63039811016412	1.1209104586122725	0.0097085679859951	2.3194481068139514	0.1379695496373257	-0.3459844987494732	0.483954048386799	105.84987576439076	far	V3
3	4.0	ltm	101	diff_vonmises	-0.1685894850121766	-9.659465961481772	0.7192168073198344	2.3333508951486923	7.982925747092273e-21	4.176786090144986	0.0077592169379282	-0.5051647592239107	0.5129239761618389	140.852878942996	far	V4
4	5.0	ltm	101	diff_vonmises	-0.0311968650744813	-1.7874487028068646	1.6745030609431777	1.3380202028548591	1.0764776105285764e-16	2.0012358083952475	0.3011408636533158	-0.2967445221048626	0.5978853857581784	105.3020075778545	far	V3ab
5	6.0	ltm	101	diff_vonmises	-0.1132544572485147	-6.489002411384711	0.2758376740407327	5.009400073517312	3.319804354314606e-17	5.466230942103076	0.1608219299912865	-0.2762416370480904	0.437063567039377	164.07566433221933	far	IPS0
6	7.0	ltm	101	diff_vonmises	0.2740902602348282	15.704215117098077	1.0297665484441518	106.67266648900696	1.0092692876634335	107.453088678237	0.1448430049337901	-0.2250827232152605	0.3699257281490506	84.5573558305505	far	LO1
0	1.0	ltm	102	diff_vonmises	-0.1033317479951205	-5.920473049829814	0.3399302106509149	100.54871354669582	0.328150730626059	101.9495993132925	-0.0874980220738734	-0.3092622607892092	0.2217642387153358	132.91731088683406	far	V1
1	2.0	ltm	102	diff_vonmises	0.0193908070248842	1.1110114038784975	0.6409785606569892	25.13328652344346	0.5735363326123495	25.866185297217942	0.1300517700470331	-0.234167977970791	0.3642197480178242	110.60671090328614	far	V2
2	3.0	ltm	102	diff_vonmises	0.0717372474315335	4.110241511712575	1.282768731748575	170.75577550658878	1.268686364823425	171.15747520787107	0.2815351704124396	-0.1866798874589612	0.4682150578714008	79.34561060687204	far	V3
3	4.0	ltm	102	diff_vonmises	-0.1657589714718576	-9.497289481766858	3.2784775298933297	0.6811287142279712	3.823604747967789e-21	1.9180451743745064	0.1637674695119674	-0.3046000825096787	0.4683675520216462	75.82034362903781	far	V4
4	5.0	ltm	102	diff_vonmises	-0.0532581613085396	-3.0514678676062617	1.8951944728093733	0.9902411563291034	0.2657851533691406	1.3353453100410737	0.2220639743832132	-0.1542367022908259	0.3763006766740392	89.28731462909198	far	V3ab
5	6.0	ltm	102	diff_vonmises	-0.3304953360014227	-18.93598790163957	1.0461549219604338	2.654200653385128	0.3604228154317678	3.362804627881392	0.1869714490326228	-0.247257334390158	0.4342287834227809	105.85664256403032	far	IPS0
6	7.0	ltm	102	diff_vonmises	0.1184925931885671	6.789125493265502	1.6659930337974431	156.35451601878864	1.6480537466326832	156.97106639152273	0.191388934676425	-0.2246705513267777	0.4160594860032027	66.74973815884371	far	LO1
0	1.0	ltm	103	diff_vonmises	-0.3829044147703691	-21.93880692326889	0.0607687458280707	57.01618711233628	0.0476421311629003	57.66640054088744	0.0137812185185417	-0.2144168610701058	0.2281980795886475	169.94416709551257	far	V1
1	2.0	ltm	103	diff_vonmises	0.0368536479235275	2.1115584856792	0.7737909855368283	45.6976605346592	0.7394881533912862	46.10893275335245	0.1791479930914548	-0.1689544554713298	0.3481024485627846	102.0055339451082	far	V2
2	3.0	ltm	103	diff_vonmises	0.03182249792384	1.8232948245998613	1.177418767455611	133.62332591297698	1.163110499151181	133.8331976244972	0.2765530374184948	-0.1429106787127061	0.4194637161312009	84.55815201548828	far	V3
3	4.0	ltm	103	diff_vonmises	-0.2275426908892595	-13.037235847004462	6.852356319348104	0.4977769621670794	5.696826931204321e-20	1.379781348468475	0.290019462249463	-0.2195984526630746	0.5096179149125377	51.98716030820165	far	V4
4	5.0	ltm	103	diff_vonmises	-0.140391563072408	-8.043844043293678	1.814447182879954	0.5354677432986377	1.1123512324923198e-18	0.8042894448428627	0.1323916345779469	-0.1210942264182612	0.2534858609962082	101.50561477229576	far	V3ab
5	6.0	ltm	103	diff_vonmises	-0.4749724109444249	-27.213914532268905	2.4664150213933325	0.6732583003129833	1.2724507011690143e-24	1.362946394746641	0.1767222574371343	-0.2140829429047094	0.3908052003418438	87.4329001779474	far	IPS0
6	7.0	ltm	103	diff_vonmises	0.0946295914099844	5.421876204839538	1.4076934257786509	199.1189759381093	1.3905549760335116	200.21952081442916	0.1537415155182202	-0.3211884435289924	0.4749299590472127	70.71833818912788	far	LO1
0	1.0	ltm	104	diff_vonmises	-0.0975043381357537	-5.5865870593951685	1.7794629902021184	0.616834569207524	1.6760071651217934e-23	1.264602176948893	0.0951538267268805	-0.1928279674619253	0.2879817941888059	102.43839027506398	far	V1
1	2.0	ltm	104	diff_vonmises	-0.1273934330822584	-7.299106053295686	1.5262049135336746	85.13180818612064	1.4982026577914394	85.2638284919688	0.3587981475239985	-0.1498161797023538	0.5086143272263524	75.21117945014501	far	V2
2	3.0	ltm	104	diff_vonmises	0.0303808352169812	1.7406936360154446	1.2051312955271365	98.38934109756852	1.1828479937345415	98.51578549087009	0.357798504968386	-0.1526523178305776	0.5104508227989637	84.92637690624832	far	V3
3	4.0	ltm	104	diff_vonmises	-0.2770253597563705	-15.872383932133316	3.929588181628117	0.905061996616393	3.4770475010120577e-19	1.5638824539209175	0.4402356641541999	-0.2486334793556436	0.6888691435098435	69.08529396852256	far	V4
4	5.0	ltm	104	diff_vonmises	-0.0494723975595085	-2.8345595825531515	1.536267293932126	1.0992867254598802	2.6048627295451084e-19	0.7216692118273097	0.3682468481960946	-0.0924874562679834	0.4607343044640781	109.33628510904803	far	V3ab
5	6.0	ltm	104	diff_vonmises	-0.3484571714871395	-19.96512526727946	1.795805473143998	0.9952982632104116	9.656164684545617e-16	1.0942060385501988	0.3068350137820225	-0.1608953215902751	0.4677303353722976	101.77471759425896	far	IPS0
6	7.0	ltm	104	diff_vonmises	0.1366066463157423	7.8269842873283935	1.598615727613945	185.256786740106	1.581502642242805	185.45336358245896	0.4560766327360994	-0.1978675244022412	0.6539441571383406	73.06110998590793	far	LO1
0	1.0	ltm	105	diff_vonmises	-0.0149011999316572	-0.8537758657645932	0.3103125742676277	116.89926659594498	0.3000209634276494	118.97512574009474	-0.2205426622732851	-0.3980200661003312	0.1774774038270461	130.4031108959793	far	V1
1	2.0	ltm	105	diff_vonmises	0.1779330239880095	10.194811310512982	0.6076177886320436	102.18915879508796	0.5915931841455617	103.1574346581398	0.0543321964049781	-0.2487291274098968	0.3030613238148749	107.50630946964012	far	V2
2	3.0	ltm	105	diff_vonmises	0.149589178631245	8.570828596398899	1.4009760621600449	97.9627063629226	1.3802316624084283	98.41837011856224	0.1756181247396355	-0.166876515748557	0.3424946404881925	74.03277020464319	far	V3
3	4.0	ltm	105	diff_vonmises	-0.1244170128637763	-7.128569736719257	1.2990027000081932	1.318284560659358	0.2311872972258503	2.738824050494064	-0.0182740118757632	-0.3088960738929248	0.2906220620171615	97.06732068787056	far	V4
4	5.0	ltm	105	diff_vonmises	-0.0545004774743988	-3.122647340730867	1.154076954779933	104.9011531927338	1.1323766299184503	105.51157702390653	0.2000972924963662	-0.2063345877257667	0.4064318802221329	81.54286931115345	far	V3ab
5	6.0	ltm	105	diff_vonmises	-0.2746437459657661	-15.73592751350153	0.7032201807050349	168.34763388088143	0.6905775165410298	169.1300813522288	0.184361207887612	-0.2586692261810288	0.4430304340686408	104.0286334504616	far	IPS0
6	7.0	ltm	105	diff_vonmises	0.0410900317758107	2.354285400812401	1.3701833488986204	150.17792979615544	1.3538260240425215	151.02216818810456	0.0977990155510895	-0.2382112963543932	0.3360103119054827	71.24929914561716	far	LO1
0	1.0	ltm	106	diff_vonmises	0.0224462888398463	1.2860776162547944	0.3413051046552163	92.83634917424254	0.3263444651443819	95.08850207872524	-0.2329970908742282	-0.4312258978444472	0.1982288069702189	125.7053903437024	far	V1
1	2.0	ltm	106	diff_vonmises	0.0679179363312928	3.891411105021316	1.4080179056315163	0.8754802894135921	7.134733358712544e-11	1.927302642387717	0.0582560622994022	-0.284897297117308	0.3431533594167102	113.3779529374205	far	V2
2	3.0	ltm	106	diff_vonmises	0.0604853659089861	3.4655561888893778	1.39818769936619	136.83221178132067	1.3821492468704433	137.28581419797624	0.2053728282759195	-0.1758080578584007	0.3811808861343202	74.55273812560648	far	V3
3	4.0	ltm	106	diff_vonmises	-0.1783517833741648	-10.218804455971169	0.6609477348437028	128.4309552584089	0.6454938326815296	129.88198966105168	-0.0205428775917084	-0.3175041904233264	0.296961312831618	98.67502970160724	far	V4
4	5.0	ltm	106	diff_vonmises	-0.0050611632700564	-0.2899832948008649	1.708297903713546	1.7345028378155911	0.548770339212363	2.322160355202495	0.2188807836826601	-0.2031364262796837	0.4220172099623439	84.09777726677567	far	V3ab
5	6.0	ltm	106	diff_vonmises	-0.2565557992854778	-14.699564508663338	0.702016428910976	173.978044377764	0.6891918290460259	174.8109543736715	0.1898823709129686	-0.2725248716300879	0.4624072425430565	104.00096613874828	far	IPS0
6	7.0	ltm	106	diff_vonmises	0.2247754485940805	12.87868454260061	1.3184596763674	90.56744617137942	1.297013871895971	90.96913095729026	0.1931430710440622	-0.1577634977266875	0.3509065687707497	77.19426941494856	far	LO1
0	1.0	ltm	107	diff_vonmises	-0.2968901961409966	-17.010555217690307	0.0002774933710666	1753.4675745828806	1.3718409378079465e-25	1755.546472513787	-0.2534205949270927	-0.4083024241776911	0.1548818292505984	177.477863603703	far	V1
1	2.0	ltm	107	diff_vonmises	0.2943302686265178	16.86388217525126	0.947928922308219	129.3021699936247	0.9317960609212044	130.30920592186078	0.0653222583131878	-0.2477491344991591	0.3130713928123469	85.1060042731979	far	V2
2	3.0	ltm	107	diff_vonmises	0.2425647074943467	13.897933998251396	4.108536381388438	0.2660451765569205	7.050762512713347e-34	0.6568950304232426	0.1030077968587425	-0.1044920494764646	0.2074998463352072	67.5239116922159	far	V3
3	4.0	ltm	107	diff_vonmises	-0.5064081102867023	-29.01504743062357	1.770974641031048	0.8217351388961511	0.2202548809509831	2.1261943770819944	-0.0229458324201952	-0.2735649682731458	0.2506191358529506	86.08641192993169	far	V4
4	5.0	ltm	107	diff_vonmises	-0.0740689997273233	-4.243841077131272	2.1139202615342536	0.6115144431474512	0.12534796122333	1.1045764548045416	0.127684021970653	-0.1514480629847341	0.2791320849553871	88.21767291660342	far	V3ab
5	6.0	ltm	107	diff_vonmises	-0.4129779400561649	-23.66189299722496	0.4866691159567768	104.88177253973234	0.4745089632494749	105.3033816432514	0.1355994552675028	-0.1857787714595229	0.3213782267270257	124.60783515391503	far	IPS0
6	7.0	ltm	107	diff_vonmises	0.2744070191624349	15.722364066773023	0.8653885274270908	134.4134507369919	0.8504590351564568	135.56706106048225	0.0214219288128276	-0.264185351348118	0.2856072801609457	87.29441096824783	far	LO1
0	1.0	ltm	108	diff_vonmises	-0.3569764494898383	-20.453243941332744	0.8201785941198385	0.9702487158109132	5.075010497897239e-17	3.6993607486143727	-0.2904299602262761	-0.5309169336671162	0.24048697344084	135.15804323385407	far	V1
1	2.0	ltm	108	diff_vonmises	0.1234943908697359	7.075707390374797	0.670098818259053	72.02366106647655	0.6416288230917206	73.12104751508198	0.0897956760750808	-0.2886528045694216	0.3784484806445025	103.53773511598963	far	V2
2	3.0	ltm	108	diff_vonmises	-0.0326685728393841	-1.8717713464124213	3.322350134218511	0.5763679733464647	0.3144537864841466	1.1874672216743083	0.147368583417873	-0.1703101142452132	0.3176786976630863	67.62610514727163	far	V3
3	4.0	ltm	108	diff_vonmises	-0.3774904145693364	-21.628607561466737	0.4724598692042087	144.66585554166718	0.4597154607680666	146.11315915041888	-0.0035918673619548	-0.352172132776019	0.3485802654140641	119.0729232305006	far	V4
4	5.0	ltm	108	diff_vonmises	-0.0455231996583154	-2.6082872103528643	1.8312106625665547	1.1283218984124377	0.099334283434728	2.1625489356105927	0.1725690468553718	-0.2969597035175309	0.4695287503729027	94.89886928979053	far	V3ab
5	6.0	ltm	108	diff_vonmises	-0.2988679848364469	-17.12387416270829	0.6246479559157931	160.6929609532615	0.6092233360288825	161.78613624318342	0.1776567262865214	-0.3383078397844077	0.5159645660709291	109.3343216039204	far	IPS0
6	7.0	ltm	108	diff_vonmises	0.1327880303356541	7.608193708088125	0.905326060753016	211.05043738477136	0.8925759682439434	212.44800095516635	0.0634619541738885	-0.3337331184907945	0.3971950726646831	86.3778630921015	far	LO1
0	1.0	ltm	109	diff_vonmises	0.1283569908088313	7.354313844345534	0.5046669425447792	82.21417546599211	0.4847510073192984	84.28501064358755	-0.199290147382527	-0.3859313661911017	0.1866412188085746	102.75462067264527	far	V1
1	2.0	ltm	109	diff_vonmises	0.1986506804960637	11.381845589826227	0.8557223113001285	129.9605701621879	0.8404050810640281	130.98352822509895	0.0613442510685118	-0.2495251178505775	0.3108693689190893	89.6518703673259	far	V2
2	3.0	ltm	109	diff_vonmises	0.1425085984299219	8.165141234359197	1.0900966640437229	30.298201263905263	1.040098225323156	30.79804915628768	0.1101547390326498	-0.1503026207995845	0.2604573598322344	83.22695769025307	far	V3
3	4.0	ltm	109	diff_vonmises	-0.231044105093657	-13.237852103243595	2.403880225501684	0.4586753999197216	1.0017884611575912e-21	1.7815258770061302	-0.0193926209159988	-0.2813815100148123	0.2619888890988134	88.67424114924276	far	V4
4	5.0	ltm	109	diff_vonmises	-0.0571614633763007	-3.2751106022536574	1.7485380055391329	1.2318730466616024	0.4212637033031817	1.9742795510051732	0.1274424698983798	-0.2048318605067585	0.3322743304051384	84.43717614107928	far	V3ab
5	6.0	ltm	109	diff_vonmises	-0.3499263518748544	-20.04930310283892	0.5375432474569343	101.59351572650009	0.5211449117706488	102.3644636790709	0.1194410688084239	-0.2512263061378448	0.3706673749462688	117.80062233722182	far	IPS0
6	7.0	ltm	109	diff_vonmises	0.0898412704308331	5.147525621780219	0.8406064513168529	170.41477759735514	0.8267031186394013	171.98328733739694	-0.0319872826540716	-0.3376651375017729	0.3056778548477012	86.29838216128769	far	LO1
0	1.0	ltm	110	diff_vonmises	0.4517421447796903	25.88291832406405	0.0002662974600812	2289.750799658583	2.8056058391930098e-30	2292.600462774511	-0.3564862195277101	-0.5505768011892656	0.1940905816615554	173.79151922813242	far	V1
1	2.0	ltm	110	diff_vonmises	0.050917572494938	2.917362007011357	0.1716924763405295	74.12378462765369	0.153943608833824	75.62563753081095	-0.0522413020259993	-0.3948067424646897	0.3425654404386904	159.43665838539135	far	V2
2	3.0	ltm	110	diff_vonmises	0.1235785638742895	7.080530148284657	1.4209712518112354	171.50637830002233	1.4037892743503018	172.32080736739402	0.1857604110339821	-0.2597944482090959	0.445554859243078	71.76793108680081	far	V3
3	4.0	ltm	110	diff_vonmises	0.3569749142504945	20.45315597859781	3.0007881164864902	0.4228103133721063	4.023875629721674e-31	2.580170236633292	-0.133708520182833	-0.4099613382052632	0.2762528180224301	79.29482150892369	far	V4
4	5.0	ltm	110	diff_vonmises	-0.0273770668402098	-1.5685903853915784	1.143953843526707	155.56962823791295	1.1246929469412528	156.58736584274556	0.1869312216432135	-0.2951756990806444	0.4821069207238579	79.90700827632367	far	V3ab
5	6.0	ltm	110	diff_vonmises	-0.1568329488303494	-8.985866056570224	0.7315972632923115	148.10417394743038	0.7140983492974865	149.35019809767346	0.1364908464089467	-0.335613786192976	0.4721046326019227	99.27181440189295	far	IPS0
6	7.0	ltm	110	diff_vonmises	-1.6007071235728891	-91.71376241725248	1.3987774045265666	59.05934408681858	1.4205324259929994	59.37113999031394	0.0546177810555779	-0.3595632684617129	0.4141810495172908	46.130515622612734	far	LO1
0	1.0	ltm	111	diff_vonmises	0.3349531711860226	19.19140304348207	0.8516807828559021	196.7062018103713	0.8331374268402859	199.48933656454184	-0.1665439818844376	-0.5652517365797074	0.3987077546952697	82.55959876052964	far	V1
1	2.0	ltm	111	diff_vonmises	-0.0835420923133368	-4.786609301246517	0.954089733768829	121.96155131484596	0.9312853562980972	123.48026046925696	0.0292611450737965	-0.3507089573219204	0.3799701023957169	83.11157892871927	far	V2
2	3.0	ltm	111	diff_vonmises	0.0661579094791272	3.790568994562532	1.063361400417657	184.19136461373444	1.050047312855592	185.08774982321535	0.146612547814172	-0.2522101874455451	0.3988227352597171	82.55733277330793	far	V3
3	4.0	ltm	111	diff_vonmises	0.2241073297493408	12.840404152583869	2.0106439640738545	0.5501990148214605	0.0300403039749087	2.211366362294056	-0.0778517928775162	-0.3363518372766592	0.258500044399143	93.02714469022018	far	V4
4	5.0	ltm	111	diff_vonmises	0.0649905133580157	3.723682123802899	1.001002722146688	81.332629937779	0.9643265573240792	82.74102885731796	0.0933463639662832	-0.3483464981593904	0.4416928621256737	83.18642488141111	far	V3ab
5	6.0	ltm	111	diff_vonmises	-0.0983247376903637	-5.633592491388739	1.6018161815538372	1.18901090475558	0.1141145997324897	2.6962730492831435	0.0565213502310914	-0.3605109184733681	0.4170322687044595	97.98606431666944	far	IPS0
6	7.0	ltm	111	diff_vonmises	0.563858078541634	32.306688144791714	0.0001785803691586	6529.138148412395	3.0827915246189467e-31	6530.683523230275	-0.0603775876365944	-0.4315139260502292	0.3711363384136348	170.570152688294	far	LO1
0	1.0	ltm	112	diff_vonmises	0.17737563552598	10.162875304089404	3.939944443041477	0.3648333417826141	3.2396461743912385e-21	1.8168532215916835	-0.0109700108933441	-0.289055934953157	0.2780859240598129	68.9939164863705	far	V1
1	2.0	ltm	112	diff_vonmises	-0.0574239106315861	-3.290147722326305	2.9664660182180147	0.6554695685537197	0.0638053227899478	1.5812402055952255	0.1585739952497196	-0.2385356029949556	0.3971095982446753	76.86736507589535	far	V2
2	3.0	ltm	112	diff_vonmises	-0.0353640139640781	-2.0262087467833854	0.9242465521038477	145.31032151796302	0.9105948547064424	145.77101282040104	0.2278739961445097	-0.1881136334520601	0.4159876295965699	92.89140262316916	far	V3
3	4.0	ltm	112	diff_vonmises	-0.2643545755701555	-15.146401475142092	4.128178406410942	0.4997958582443325	4.4678304302800864e-20	1.684997491572934	0.1227515919997972	-0.2680741912326311	0.3908257832324284	67.35951579547094	far	V4
4	5.0	ltm	112	diff_vonmises	-0.0261866661174686	-1.5003854480491892	1.530612849387104	0.7397361653689226	4.709542314227905e-20	1.1627527003396487	0.1392909893907156	-0.1698667318964356	0.3091577212871513	109.51884548288676	far	V3ab
5	6.0	ltm	112	diff_vonmises	-0.4231788236686084	-24.24636057552213	1.09266433379227	1.0511818742031076	4.4400482362339994e-16	1.6860191008447414	0.1092019868058217	-0.22588649809655	0.3350884849023718	123.61293274704732	far	IPS0
6	7.0	ltm	112	diff_vonmises	0.2622029771074514	15.023123964022307	1.1928881560013458	142.72040349761238	1.1773610518317816	143.34804417596973	0.1749102875121053	-0.2024912825679408	0.3774015700800461	79.4613817231473	far	LO1
0	1.0	ltm	113	diff_vonmises	0.0646284292374025	3.7029362318630574	2.147901550297774	0.5535220868292158	3.62388339879108e-32	3.987522369615156	-0.3365493496169977	-0.630572073183821	0.2940227235668233	93.74715139236218	far	V1
1	2.0	ltm	113	diff_vonmises	0.0484480868762355	2.775870903491447	2.765490411124364	0.8825506492643675	0.1300007443622931	2.5014958017393534	0.1001519237877077	-0.3663906372997865	0.4665425610874942	76.2004063645237	far	V2
2	3.0	ltm	113	diff_vonmises	-0.1524159804397613	-8.732792409546834	1.4868549303127423	1.0552496571651149	2.972505184228968e-19	2.284354073191723	0.0910809733251866	-0.3403269556445484	0.431407928969735	110.79350008140172	far	V3
3	4.0	ltm	113	diff_vonmises	-0.228859975601037	-13.112710701406415	0.1158885397758314	12.747053103147676	4.5456266260737486e-09	14.786273393680746	-0.082907119245184	-0.5526003304065612	0.4696932111613772	172.04600126220825	far	V4
4	5.0	ltm	113	diff_vonmises	-0.0654036619358205	-3.7473537936229513	1.3283508460510935	1.61271659913589	9.677385528945852e-15	2.6359120168331214	0.2297623123810533	-0.3739511736295921	0.6037134860106455	116.07430058804168	far	V3ab
5	6.0	ltm	113	diff_vonmises	-0.1714048771312872	-9.820776047581202	0.2237725682250065	6.621168668464342	1.3122289839964662e-20	7.388944644215086	0.1257332634756991	-0.343931642996609	0.4696649064723082	166.59906038117612	far	IPS0
6	7.0	ltm	113	diff_vonmises	0.3432376017103092	19.666065948193044	1.009847111051904	113.35836315832071	0.9903662387855604	114.37580356029174	0.0719221528814131	-0.2535858580611556	0.3255080109425687	82.56699409815866	far	LO1
0	1.0	ltm	114	diff_vonmises	0.130551713017283	7.480062164093449	3.2469173196252634	0.479765495090395	7.199490299977663e-18	2.750942820981257	-0.1092423435479539	-0.4373289739078412	0.3280866303598873	76.1967583214342	far	V1
1	2.0	ltm	114	diff_vonmises	-0.0251781615566205	-1.4426023930928993	1.0134284934679885	118.22568144993548	0.9898303999585888	119.3471412118379	0.1466096585099663	-0.3020970423374418	0.4487067008474081	84.19082502691606	far	V2
2	3.0	ltm	114	diff_vonmises	0.0051527475410755	0.2952306870000439	1.5446575851278714	1.965596217295488	0.4591437129171545	2.8669222698008987	0.1811137582632452	-0.261170120343855	0.4422838786071003	87.76726052905806	far	V3
3	4.0	ltm	114	diff_vonmises	-0.157293951011412	-9.012279535891436	1.6170449789031796	1.084383092866963	1.3039806093102613e-21	2.5371918166341025	0.0878253988847006	-0.3844382627620388	0.4722636616467395	106.87484280852478	far	V4
4	5.0	ltm	114	diff_vonmises	-0.0545794772498272	-3.1271736944453954	1.915609188146411	1.0644618289957115	0.0031254501669221	1.9015517631100676	0.2314006573466093	-0.2900958490531108	0.5214965063997202	98.83518628725206	far	V3ab
5	6.0	ltm	114	diff_vonmises	-0.2359655338987238	-13.519829202948037	1.1967214590267738	1.40209607325105	1.369417635856015e-18	2.282059078651977	0.1675139529941801	-0.3147348062049249	0.4822487591991051	120.5121311137938	far	IPS0
6	7.0	ltm	114	diff_vonmises	0.0515492013685763	2.953551675689431	0.9458145902943156	234.83978017293384	0.9333879357758996	236.33050907400744	0.0640141280238282	-0.3557003793821494	0.4197145074059776	84.28806477017517	far	LO1
0	1.0	ltm	115	diff_vonmises	-0.3998619680695235	-22.910403158178585	0.0002122991509471	2896.215265844855	1.7770513704407202e-33	2898.8643297353897	-0.3237478873621171	-0.5194649505243092	0.195717063162192	175.46773600156217	far	V1
1	2.0	ltm	115	diff_vonmises	0.2317587420995414	13.278797787564637	0.5575620082559638	133.95285023443347	0.5435518985566626	135.23220980614667	0.0271357009445978	-0.3130059606136708	0.3401416615582686	110.68465342544718	far	V2
2	3.0	ltm	115	diff_vonmises	-0.0588471235496608	-3.3716918158804816	1.0943377677630357	43.14662197611246	1.0588746841098184	43.67707018328369	0.1000854271214812	-0.1539175956844003	0.2540030228058816	82.22897919665138	far	V3
3	4.0	ltm	115	diff_vonmises	-0.4797452590368598	-27.487378584222483	0.4742046541874939	100.07221808427482	0.4599524137184786	101.58303129541171	-0.0963895309351627	-0.3101869051250645	0.2137973741899017	112.59243582361596	far	V4
4	5.0	ltm	115	diff_vonmises	-0.0306466607020606	-1.7559243143975096	2.315933292323568	0.5874713571010488	4.7419393675849465e-15	1.7036558182893418	0.0597813668643211	-0.2679230199320684	0.3277043867963896	90.36130811762756	far	V3ab
5	6.0	ltm	115	diff_vonmises	-0.433370499055114	-24.830300561336266	0.4729162931487881	158.85507492102218	0.4609974479675196	160.06593633848925	0.0619808978335072	-0.335043856660409	0.3970247544939163	121.46270581589933	far	IPS0
6	7.0	ltm	115	diff_vonmises	0.3274097538054523	18.75919706446976	0.7769597279371099	153.97519845596236	0.7638849693186252	155.24506672234338	0.0075950205635919	-0.2848618556392601	0.2924568762028521	91.68219280187708	far	LO1
0	1.0	ltm	116	diff_vonmises	0.000896035016258	0.0513390247275212	1.98046539239913	0.6082382587701546	1.570681898949884e-23	2.0771606610837114	-0.0186662780002767	-0.3246496645242204	0.3059833865239436	97.47289513331695	far	V1
1	2.0	ltm	116	diff_vonmises	-0.1079621109567491	-6.185773305144826	1.8584245906940668	1.7200038921682916	0.4949493470598525	2.443813707203208	0.2480212429791477	-0.2404760768812047	0.4884973198603524	82.52868428174256	far	V2
2	3.0	ltm	116	diff_vonmises	-0.0060051463735091	-0.3440695425603648	1.247690441326064	5.970203062985448	0.8048273254951921	6.582807816091739	0.311003920000747	-0.2468345315243896	0.5578384515251367	88.0232607388458	far	V3
3	4.0	ltm	116	diff_vonmises	-0.2076348664367345	-11.89660152658744	2.6770704462575994	1.0149009059904468	3.994992571691462e-18	2.190375078469588	0.2739327137581809	-0.3456652879872671	0.6195980017454481	84.03540070143991	far	V4
4	5.0	ltm	116	diff_vonmises	-0.0544014003616494	-3.116970640323986	1.540208482600082	1.2235910491325197	2.0082694286454369e-13	1.4262356533061888	0.311578252023552	-0.2022503047981791	0.5138285568217311	109.21483960485092	far	V3ab
5	6.0	ltm	116	diff_vonmises	-0.2941155410386823	-16.851579190723257	1.394342024061466	1.2308286059881344	1.0910215818042896e-16	1.7450021004050869	0.2324133717070088	-0.24635079442573	0.4787641661327388	113.50775728909134	far	IPS0
6	7.0	ltm	116	diff_vonmises	0.1678178225167933	9.61525295728777	1.521255986752196	172.70024278251	1.503927275715637	173.23804000128357	0.2887921903800787	-0.2270651369064467	0.5158573272865254	71.77494647495564	far	LO1
0	1.0	ltm	117	diff_vonmises	-0.2301393632222396	-13.18601421246261	0.5761703911535889	1.2783747792034557	1.2094619355624628e-32	3.5349951604342644	-0.2288916924071275	-0.4571902647621872	0.2282985723550597	147.50529856708494	far	V1
1	2.0	ltm	117	diff_vonmises	0.1582531431420605	9.067237196719756	1.0903581099747004	135.76862194805767	1.0715809189336432	136.75936248752734	0.1264461943964576	-0.2676267414959348	0.3940729358923924	80.80001947799684	far	V2
2	3.0	ltm	117	diff_vonmises	0.0666918389694452	3.821160900915327	2.601930913535841	0.4565902712900754	1.991868854040913e-22	1.1160985449283276	0.0978328148500961	-0.1761187965229757	0.2739516113730718	85.26556537519889	far	V3
3	4.0	ltm	117	diff_vonmises	-0.333158525771358	-19.088577435499285	1.5281245010890083	0.9426946477830606	5.874261629978955e-16	2.260311457611046	0.0532148600982417	-0.340304415887267	0.3935192759855088	109.23118981389648	far	V4
4	5.0	ltm	117	diff_vonmises	-0.1224548847319128	-7.016148075899587	1.8450682389328603	0.9179831242447166	1.0829391458262784e-10	1.6555161990874472	0.1874975255011788	-0.2522232204205422	0.439720745921721	100.73541533371387	far	V3ab
5	6.0	ltm	117	diff_vonmises	-0.2901521540380495	-16.624493843009983	0.5566120949520484	4.120989647164331	0.1926421616098536	4.688770787174164	0.1641370376138153	-0.2614086105178995	0.4255456481317148	136.52224787505713	far	IPS0
6	7.0	ltm	117	diff_vonmises	0.0161301811137195	0.9241913005977576	0.7372595547714847	259.8973395037225	0.7263876774627319	261.97081098176903	-0.0612812649120115	-0.4376154976520467	0.3763342327400352	91.70292710554604	far	LO1
0	1.0	ltm	118	diff_vonmises	0.1919850970311292	10.999935789293296	5.150344665229167	0.3909276469732274	9.513347326492941e-24	3.292114975606741	-0.1795795210757907	-0.5239447971166648	0.3443652760408739	60.13854843430025	far	V1
1	2.0	ltm	118	diff_vonmises	0.0807300211634444	4.625489492667183	1.1476633124313145	147.0964666965942	1.1263606006984035	148.37680517601387	0.1160141701351946	-0.3338103535759096	0.4498245237111042	77.75026045158813	far	V2
2	3.0	ltm	118	diff_vonmises	0.0453098222683572	2.5960615864647463	2.0027677495717566	0.7346927944142057	1.0247007911921206e-21	1.8004880227088047	0.0927587826040587	-0.2796468291030208	0.3724056117070795	96.95362779721243	far	V3
3	4.0	ltm	118	diff_vonmises	-0.204131320742256	-11.695863144962592	0.69023398082123	2.19965915702195	6.306603515792336e-13	3.905111587883743	0.000313451281855	-0.4651485523220114	0.4654620036038664	142.07688532896208	far	V4
4	5.0	ltm	118	diff_vonmises	-0.0640277817405504	-3.668521665318336	1.6019886689598424	1.5173605936700587	0.1210649586104778	2.345194434814072	0.2642658177506505	-0.3017097185680529	0.5659755363187036	100.7119059494368	far	V3ab
5	6.0	ltm	118	diff_vonmises	-0.0914315219009837	-5.238640319384323	0.2369778152479772	6.189086468132905	8.058480390509902e-11	6.7148185073618105	0.1623880043754231	-0.3023003346465353	0.4646883390219584	166.33221927584884	far	IPS0
6	7.0	ltm	118	diff_vonmises	0.0967837204914233	5.54529870973238	0.7041730218830318	149.08284879943668	0.688245698026343	150.70797461970736	-0.0063170305435136	-0.3603874273441558	0.3540703968006422	96.10524062857758	far	LO1
0	1.0	ltm	119	diff_vonmises	-0.3246901384515862	-18.603374582794256	0.6912687198466433	1.278731823685349	1.4841299145496352e-25	2.979515938273431	-0.112464786033017	-0.3834263105678958	0.2709615245348787	141.2457216876863	far	V1
1	2.0	ltm	119	diff_vonmises	-0.0081841845048171	-0.4689192308823861	3.774998757201703	0.6186461255343467	0.007633374107288	1.3090771280561762	0.2507998648361885	-0.2065686206616801	0.4573684854978687	70.24297212819957	far	V2
2	3.0	ltm	119	diff_vonmises	-0.075660259389242	-4.335013539868626	2.4669146885307787	0.6562510519178558	0.1065595526356294	1.0728944923766233	0.1943156661938634	-0.1523348304863844	0.3466504966802479	83.41495705509843	far	V3
3	4.0	ltm	119	diff_vonmises	-0.387457504188159	-22.19967973065393	2.1009537402477614	1.0156162639053263	0.0765371301058442	2.0435883345656958	0.1891232312847907	-0.2932446727482326	0.4823679040330234	90.25770325478648	far	V4
4	5.0	ltm	119	diff_vonmises	-0.0479286165237476	-2.7461074447117197	1.1913677259970397	1.379668242184581	2.2387195901247637e-14	1.6344357294195218	0.2607473570991504	-0.212051725806804	0.4727990829059545	121.00688687182851	far	V3ab
5	6.0	ltm	119	diff_vonmises	-0.3684433733311456	-21.110250281437597	0.8571936433595017	3.235307590880921	0.3146414384289952	3.632822253676224	0.2449745001276155	-0.2285828921151718	0.4735573922427873	117.62050698079068	far	IPS0
6	7.0	ltm	119	diff_vonmises	0.1684636120237594	9.652253970490763	1.0446148516420928	200.89226598191243	1.0304492231710551	201.72853303473872	0.24587233544338	-0.272887068564259	0.5187594040076391	85.40171758318121	far	LO1
0	1.0	ltm	120	diff_vonmises	-0.3620315934582571	-20.742882355554155	0.2443437788705625	33.017424329641095	0.2138909438386639	34.518432961264914	-0.1165056882010935	-0.3306014456047741	0.2140957574036806	146.52086182421925	far	V1
1	2.0	ltm	120	diff_vonmises	0.1334262757454803	7.644762476364765	0.7593957220703866	80.0999724971823	0.7384197969407147	80.72082550654292	0.139508465926081	-0.1972172559018368	0.3367257218279178	100.05256538860272	far	V2
2	3.0	ltm	120	diff_vonmises	0.064214542835075	3.67922228781184	1.3943155941111591	67.82165861474083	1.3693259879652568	68.107954393449	0.1861521179526803	-0.1290793236748637	0.3152314416275441	75.87721591781482	far	V3
3	4.0	ltm	120	diff_vonmises	-0.2776758686882125	-15.909655348463422	2.971054167550715	0.6015573402677324	6.236734429408467e-14	1.623774159076776	0.1333881597706022	-0.2574025668299147	0.3907907266005169	79.70799115631144	far	V4
4	5.0	ltm	120	diff_vonmises	-0.0949888791220919	-5.442461874374211	2.5440861627065225	0.6663105485027977	0.0929323484733579	1.048716253878447	0.2139479776508872	-0.1508277244644109	0.3647757021152981	82.7879955529256	far	V3ab
5	6.0	ltm	120	diff_vonmises	-0.3670207831273701	-21.0287418667846	0.7528258531043607	96.3939672015823	0.7308492804244877	97.00892823029564	0.2257251085850171	-0.2355021837060755	0.4612272922910927	102.41108492895974	far	IPS0
6	7.0	ltm	120	diff_vonmises	0.0529808689580345	3.0355801862310523	1.178810175685431	263.12545522304544	1.167052816296104	264.257953221572	0.1512495721581359	-0.3121992695086284	0.4634488416667643	77.52163317282495	far	LO1
0	1.0	ltm	121	diff_vonmises	0.1319663148754484	7.561112880257688	0.180505430300375	75.433049469656	0.16651999819084	78.6799859604033	-0.4251035920677175	-0.5866878312466905	0.161584239178973	149.8800347956285	far	V1
1	2.0	ltm	121	diff_vonmises	0.266021172316499	15.241890434857806	0.4900386611718505	130.35765784098484	0.4759175354587689	131.9736035636031	-0.0483468512953777	-0.3618727871521567	0.313525935856779	114.75110390291997	far	V2
2	3.0	ltm	121	diff_vonmises	0.0419247928974481	2.402113689983832	1.1324172440680922	90.65351069581322	1.112136104957275	91.37754297215297	0.0805760435573574	-0.1929268934259003	0.2735029369832578	78.83028029429775	far	V3
3	4.0	ltm	121	diff_vonmises	0.1013031074213102	5.804240506801484	0.0002300505832343	1863.2353112517044	9.023423208093528e-32	1865.2019758938047	-0.2447809588672953	-0.3812199926890116	0.1364390338217163	179.58368591335085	far	V4
4	5.0	ltm	121	diff_vonmises	-0.0152915894645513	-0.8761435383655038	1.9098771302003132	1.1731676337328565	0.3185801394807073	2.4771503386264366	0.0598890336972631	-0.3012177214622535	0.3611067551595167	82.04820755199256	far	V3ab
5	6.0	ltm	121	diff_vonmises	-0.3232061148173967	-18.518346291857533	0.4548988918107645	164.6282057771458	0.4434551341492129	165.99245681921064	0.0267984428827148	-0.3546821291738169	0.3814805720565317	122.49458248183852	far	IPS0
6	7.0	ltm	121	diff_vonmises	-1.7874133509624544	-102.4112412554844	0.9396017692950152	1.2956346100658658	0.9396199180670736	2.249115126569804	-0.0480862190967395	-0.3148940973683704	0.2668078782716308	152.13371962657916	far	LO1
0	1.0	ltm	122	diff_vonmises	0.1557141315724242	8.92176254964471	0.4036883277944261	5.028253545858293	0.1419333454304804	8.520940547004093	-0.4042135634961641	-0.6574636592488742	0.25325009575271	137.26195060839456	far	V1
1	2.0	ltm	122	diff_vonmises	-0.0650623581357555	-3.727798526347445	0.7907251754708343	1.7864347204700026	5.696199029147339e-16	3.7167712347318753	-0.0522704464035211	-0.4806249009948491	0.428354454591328	137.76407567463218	far	V2
2	3.0	ltm	122	diff_vonmises	-0.0628703331497155	-3.6022047460601314	2.021975929923249	1.4288462247656737	0.3230831671603197	2.777640259909363	0.1469279422766684	-0.3382521583752793	0.4851801006519477	81.48379499259892	far	V3
3	4.0	ltm	122	diff_vonmises	-0.0055626633492679	-0.3187171327651613	0.0002667093326686	3882.939990201486	7.078176260756415e-30	3885.33416165434	-0.2162123244421536	-0.5458541396035343	0.3296418151613807	179.981556744174	far	V4
4	5.0	ltm	122	diff_vonmises	-0.0015445266967512	-0.0884948610691276	2.1217941474949225	0.9509255365697882	0.0005855311355331	2.5468537237856923	0.102780395576027	-0.3978089762852493	0.5005893718612764	94.26172891926706	far	V3ab
5	6.0	ltm	122	diff_vonmises	-0.2690579136883092	-15.4158828989353	0.3763588613287854	66.79801831613001	0.3458333019496968	68.46549072394272	0.006654583598971	-0.4401730285556171	0.4468276121545882	133.04199192582	far	IPS0
6	7.0	ltm	122	diff_vonmises	0.2467221890016183	14.136140142021748	1.2151780947711124	96.58998749892817	1.1955799578427608	97.53769913953698	-0.0091462178411134	-0.2240734471751793	0.2149272293340658	71.84012328109682	far	LO1
0	1.0	ltm	123	diff_vonmises	0.0638021038802345	3.655591276392691	0.4671592095991019	125.63494995610988	0.4537227911436229	127.73001173001803	-0.1854580357153601	-0.4014352341190559	0.2159771984036957	108.7991242635036	far	V1
1	2.0	ltm	123	diff_vonmises	0.0328449184002542	1.8818752027861485	0.6744763135924665	54.968405929139344	0.6418054235500179	55.93150231934763	0.078116428701751	-0.252765815532034	0.3308822442337851	103.32359787064286	far	V2
2	3.0	ltm	123	diff_vonmises	0.0988398624975648	5.663106968763849	1.4427196124033046	153.74038238989812	1.4267901338443942	154.22828602825342	0.2290770632143335	-0.1929952999545818	0.4220723631689154	73.41886538489055	far	V3
3	4.0	ltm	123	diff_vonmises	-0.0640768390679413	-3.671332443132024	0.7463078208429929	53.55420958443645	0.7046015504800809	54.94602726561131	0.0288269499296252	-0.3216020875721872	0.3504290375018124	95.50046491648696	far	V4
4	5.0	ltm	123	diff_vonmises	-0.0214498979488079	-1.2289886234530194	1.1738918613107447	101.31995498878506	1.149196540955033	101.9023435657954	0.249421083869187	-0.2167634101593396	0.4661844940285267	81.7715427938333	far	V3ab
5	6.0	ltm	123	diff_vonmises	-0.1960352042881167	-11.231989841693984	0.8073161243234517	164.26516879815117	0.7918767267604802	165.13030673400806	0.2229670283092133	-0.2819016029232557	0.5048686312324691	97.23580217412535	far	IPS0
6	7.0	ltm	123	diff_vonmises	0.0886559068528682	5.0796092915743	1.3814192768916436	138.9196135596294	1.3644625191006825	139.48549558204954	0.1910869757818076	-0.1981278300546147	0.3892148058364224	74.10912894532476	far	LO1
0	1.0	ltm	124	diff_vonmises	0.2172526059604824	12.447657409754354	0.3709932067059268	115.42302474834808	0.3550443967351577	118.70105628433106	-0.3863313546317783	-0.5881899265849633	0.2018585719531849	114.177919545497	far	V1
1	2.0	ltm	124	diff_vonmises	0.1182681188790762	6.7762640627225625	0.413728330584203	89.55149027507035	0.3940492841377673	91.18800761994171	-0.0481140049104595	-0.3844798547720831	0.3363658498616235	125.62244180526427	far	V2
2	3.0	ltm	124	diff_vonmises	0.0059806271811573	0.3426646963215364	1.211377766075479	140.53092558443885	1.1950145470919151	141.31671088900796	0.1273578040124903	-0.2247386880011603	0.3520964920136507	77.06192983066546	far	V3
3	4.0	ltm	124	diff_vonmises	0.0942885132224995	5.4023338642126815	0.3120148731169021	1.7826708422126325	3.3421216210668383e-16	3.7262249253744266	-0.2147021861772819	-0.390333964830501	0.175631778653219	162.08571194804517	far	V4
4	5.0	ltm	124	diff_vonmises	0.0253268109043456	1.4511193733449188	2.2387672469684703	1.0355867331287936	0.2319767714298632	2.3865476621688604	0.0990505541007142	-0.318884578828245	0.4179351329289592	80.24022594517402	far	V3ab
5	6.0	ltm	124	diff_vonmises	-0.2224109242184963	-12.743207275323828	0.5761421129999246	189.91106114604543	0.5639440768937416	191.38241918081133	0.0563568501338167	-0.3698522566696844	0.4262091068035012	109.5785767920638	far	IPS0
6	7.0	ltm	124	diff_vonmises	1.070743393689433	61.34907739991926	0.0001766785942457	4841.636342135885	8.983729791988419e-28	4842.408331196027	0.0132808982659753	-0.2590006222253578	0.2722815204913331	148.9092451681072	far	LO1
0	1.0	ltm	125	diff_vonmises	-0.8225463692964096	-47.12843541449347	1.750232711867092	0.4827627395523484	8.787396044290079e-23	1.2260940901551125	0.0345366568825211	-0.1882064995031714	0.2227431563856926	101.40329867957936	far	V1
1	2.0	ltm	125	diff_vonmises	0.266028523583739	15.242311631444732	0.8400396583952603	47.10577884640999	0.8118764912571187	47.28038361164023	0.1998573902723066	-0.1221553788538183	0.322012769126125	100.38530959860375	far	V2
2	3.0	ltm	125	diff_vonmises	0.11764515500172	6.740570861760947	1.6916870992825732	15.191398393704704	1.624252923046384	15.161566207182387	0.1866980274062735	-0.0541769730125161	0.2408750004187896	73.79582178287419	far	V3
3	4.0	ltm	125	diff_vonmises	-0.4178648827948775	-23.94189419087529	2.662062972630472	0.9819938889748944	0.3155149377824925	1.679917166279378	0.2427973117514225	-0.2206988082118056	0.4634961199632281	75.06800151376196	far	V4
4	5.0	ltm	125	diff_vonmises	-0.1543319118440791	-8.842567192850819	2.2805874418298613	0.542230537544182	2.2631011279667932e-14	0.3939255144565778	0.2399688516841756	-0.0595323673754658	0.2995012190596415	91.02883621055771	far	V3ab
5	6.0	ltm	125	diff_vonmises	-0.5152087821226904	-29.51928878370534	0.947154644588301	68.15099995977461	0.922923779335021	68.19686168399777	0.298876277873191	-0.1280834415343834	0.4269597194075745	96.593471377741	far	IPS0
6	7.0	ltm	125	diff_vonmises	0.1292780768332262	7.407088186111846	1.458770830659908	206.41294435948245	1.4435853410989317	207.14499857268763	0.2439722881883312	-0.2591251935046337	0.503097481692965	71.91242177009977	far	LO1
0	1.0	ltm	126	diff_vonmises	-0.337342835800674	-19.32832074035335	0.155127082217879	49.03713728436664	0.1414900544335048	50.37221363161184	-0.1298706158787332	-0.2815353912452742	0.151664775366541	157.66497470164737	far	V1
1	2.0	ltm	126	diff_vonmises	0.3474725599237646	19.9087111802383	0.4664038088104534	91.70664083907312	0.452247091602822	92.35483080440892	0.0868300462907605	-0.2140365675511866	0.3008666138419471	124.702848452768	far	V2
2	3.0	ltm	126	diff_vonmises	0.1762467548856792	10.098195207826144	1.671521352385695	100.25851569239003	1.6555988068033043	100.41437600244522	0.1977889513563724	-0.1042675066516096	0.3020564580079821	70.31935026914687	far	V3
3	4.0	ltm	126	diff_vonmises	-0.2032303780055044	-11.644242928563756	6.773374527111884	0.3218319579169358	7.727624899391623e-43	1.4682168406239449	0.0937837939113947	-0.2336735391770815	0.3274573330884762	52.30244562138554	far	V4
4	5.0	ltm	126	diff_vonmises	-0.1390317003614833	-7.965929649240478	2.142837893442504	1.1264812550371917	0.7743260993661306	1.5127143365637508	0.1538844476737804	-0.1374533221191597	0.2913377697929402	73.51313103256851	far	V3ab
5	6.0	ltm	126	diff_vonmises	-0.4103432191867171	-23.510934611210555	0.7803332403708315	139.9146241602791	0.7660948241843404	140.61208424651772	0.1731341196001921	-0.2266031234194976	0.3997372430196897	98.79435440064888	far	IPS0
6	7.0	ltm	126	diff_vonmises	-0.0286556307187073	-1.6418466994673633	1.6470407404575405	171.70910003576122	1.6299549458920768	172.61608027863866	0.0848169279591815	-0.2721735844348494	0.3569905123940309	64.138052595049	far	LO1
0	1.0	ltm	127	diff_vonmises	-0.2788612672805326	-15.977573684844115	0.5287238148320629	1.3341422468054902	2.178125998447591e-17	3.9564406700747377	-0.2933251482048888	-0.5128547119894996	0.2195295637846108	149.51323062721906	far	V1
1	2.0	ltm	127	diff_vonmises	0.1339603696951985	7.67536380554709	0.6953446131247372	33.60610690400115	0.6356688504653545	34.74024303186303	0.0726699760727651	-0.2877405161683919	0.360410492241157	102.07158566307884	far	V2
2	3.0	ltm	127	diff_vonmises	-0.0274501181451508	-1.5727759168526232	2.3211018788659983	0.808280725268509	0.4512372704948834	1.3660325805768525	0.1312451023518983	-0.162291808428316	0.2935369107802144	75.7212401512493	far	V3
3	4.0	ltm	127	diff_vonmises	-0.3924157453440262	-22.48376602269319	0.5195874147647944	141.0177207850173	0.5070216256825534	142.45065614029417	-0.0235967158688552	-0.32691563113422	0.3033189152653648	112.21635566587707	far	V4
4	5.0	ltm	127	diff_vonmises	-0.0245934067408515	-1.4090984100993824	2.160717539395589	0.8026138361313431	4.301384872420359e-14	1.7343783511409734	0.1577251849962911	-0.2702735676881785	0.4279987526844697	93.48513620185317	far	V3ab
5	6.0	ltm	127	diff_vonmises	-0.3347695524961423	-19.18088246751221	0.5593586810595685	158.09651028595013	0.545818237378066	159.08662140891946	0.1502434165590216	-0.3151990845455987	0.4654425011046204	115.38410319053796	far	IPS0
6	7.0	ltm	127	diff_vonmises	0.2208390278043683	12.653144244962546	0.8633072106392795	173.6530458420204	0.8498219128995547	174.8230137519778	0.0803676424218053	-0.2890753716317604	0.3694430140535658	89.50576281036459	far	LO1
0	1.0	ltm	128	diff_vonmises	-0.0981731086093404	-5.624904784994656	0.0004679128000954	724.1760028177245	1.4386391914822384e-22	726.1793308663676	-0.2649045633258566	-0.3727619436756555	0.1078573803497988	179.69865956572	far	V1
1	2.0	ltm	128	diff_vonmises	0.489210810834804	28.02971475300716	0.6869342441366988	116.40102557600514	0.6739971233036466	117.23983455468736	0.0522186902549322	-0.2110319033606611	0.2632505936155933	100.78357286073506	far	V2
2	3.0	ltm	128	diff_vonmises	0.2395728017101653	13.726510424117023	1.7963341327578768	32.01628823133458	1.758327775445528	32.17984604010514	0.1220377570154198	-0.0837330233204536	0.2057707803358734	66.67065844082092	far	V3
3	4.0	ltm	128	diff_vonmises	-0.4944193875647525	-28.328144216903254	0.8759797957116014	135.7408344373661	0.8629545466556839	137.00533363313133	-0.0619910963089793	-0.2621012859449756	0.2001101896359962	82.22894460306397	far	V4
4	5.0	ltm	128	diff_vonmises	-0.1189311416184374	-6.814252467409161	1.4344591103006623	72.43148047926985	1.4083217562734032	72.82805819028731	0.1711276698172881	-0.1517576311444415	0.3228853009617296	73.52202491087687	far	V3ab
5	6.0	ltm	128	diff_vonmises	-0.380296648462254	-21.789392919857484	0.7390093803865495	161.70354320654863	0.7282676171155362	162.17789805458025	0.1939248265908091	-0.1916173512553598	0.3855421778461689	103.38745135864464	far	IPS0
6	7.0	ltm	128	diff_vonmises	0.1746533846772898	10.006901819683549	1.2528440480712983	95.60919192835608	1.233778733331197	96.20469808653084	0.1049901760707214	-0.174161218722066	0.2791513947927875	75.98729559784854	far	LO1
0	1.0	ltm	129	diff_vonmises	0.1780410130450954	10.2009986277176	0.3801672850881194	99.94136395480358	0.3669206299863611	102.08240352346826	-0.2342374706816663	-0.3944663342972312	0.1602288636155648	115.96878796694293	far	V1
1	2.0	ltm	129	diff_vonmises	0.2763822683950496	15.835537511288306	0.3095449124728215	115.75703877863904	0.2978693482567659	117.00343866347085	-0.0193056224568799	-0.3225145453889659	0.303208922932086	139.6930912252618	far	V2
2	3.0	ltm	129	diff_vonmises	0.0931499310054171	5.33709790854521	1.3350671016908062	132.94945137500792	1.3204733702048468	133.41929057554	0.1624594408308226	-0.1645148586122982	0.3269742994431208	75.52060699487308	far	V3
3	4.0	ltm	129	diff_vonmises	0.0225663175009178	1.292954751954802	8.922499237808303	0.1643145806951864	3.1619945067418264e-35	1.7299171499859305	-0.0824372068101933	-0.2753248621286993	0.192887655318506	45.47274800878765	far	V4
4	5.0	ltm	129	diff_vonmises	-0.0286067191930417	-1.6390442754771826	1.730908385054202	1.5697776245124104	0.6388546875294565	2.510224842944284	0.0566832047310774	-0.2302961602460706	0.2869793649771481	76.89617860729314	far	V3ab
5	6.0	ltm	129	diff_vonmises	-0.3448318826711813	-19.75741151860908	0.6024832713040148	153.0137496960889	0.5895825015651937	154.27428290520177	0.0412112473692758	-0.3091484418722725	0.3503596892415483	106.70217792007442	far	IPS0
6	7.0	ltm	129	diff_vonmises	0.1036162377273654	5.936773110802252	1.2254521199198256	93.0981076381839	1.2051922510649646	93.95727455439338	0.0210447618053706	-0.2114669519962824	0.232511713801653	72.97672807538342	far	LO1
0	1.0	ltm	130	diff_vonmises	0.313207038189207	17.945441402034362	0.8307854971916074	136.74105204802598	0.8047599773411555	139.54888202279002	-0.175634263446895	-0.5655733942811523	0.3899391308342572	83.54787288689744	far	V1
1	2.0	ltm	130	diff_vonmises	-0.1078100577873078	-6.177061300274254	1.932234715683498	1.6804379769964948	0.5015764507980794	3.189730521464205	0.0610382140393176	-0.3542205980816109	0.4152588121209285	76.44916356653917	far	V2
2	3.0	ltm	130	diff_vonmises	0.044480529991481	2.548546639016944	1.0044207892854462	162.7727423761225	0.9905775052486734	163.5784393348263	0.152451806724045	-0.233370221478161	0.385822028202206	85.6023508795898	far	V3
3	4.0	ltm	130	diff_vonmises	0.0837577081329911	4.798963177708964	1.5896495840247296	0.5796742514276952	1.0711313431416187e-11	2.195784647708232	-0.0893798404129247	-0.33864616707567	0.2492663266627452	107.71427102256176	far	V4
4	5.0	ltm	130	diff_vonmises	0.0746392001994079	4.276511157658088	2.331350026841964	1.0036410413423251	0.2065324979391435	2.088626335145567	0.1632374184235551	-0.2817344088554064	0.4449718272789615	80.76731979741993	far	V3ab
5	6.0	ltm	130	diff_vonmises	-0.1531403097236383	-8.774293420490721	1.0796428998612615	1.6464393661365675	0.1332757982583415	2.7508560675161715	0.0892976514881432	-0.3137068132900695	0.4030044647782128	115.09647907158016	far	IPS0
6	7.0	ltm	130	diff_vonmises	0.3862525469948261	22.130640768982023	0.7733556194682915	1.707600393883384	6.11217918463796e-16	2.6289087815393053	0.0914098305918589	-0.3098400225508533	0.4012498531427123	136.83847194556793	far	LO1
0	1.0	ltm	131	diff_vonmises	0.084595673456095	4.846975054101132	3.0022972224659563	0.5137677508002806	0.0091820258456735	2.931778331366599	-0.1342618327243809	-0.4616713006945371	0.3274094679701562	78.1613579426645	far	V1
1	2.0	ltm	131	diff_vonmises	-0.0101891007781471	-0.5837924716212965	1.0217669064823838	98.28683411560436	0.9937885244906076	99.38065194681538	0.1473382732094492	-0.2962196217626083	0.4435578949720575	84.0145044128248	far	V2
2	3.0	ltm	131	diff_vonmises	-0.0197835707376851	-1.1335151069678775	1.8272414492656823	1.3531195375603724	0.4248049626740806	2.1615016749600144	0.1576970317609182	-0.2285515722998161	0.3862486040607343	83.27202647543561	far	V3
3	4.0	ltm	131	diff_vonmises	-0.2016500384421025	-11.55369614138328	1.5272858006820278	1.029991852630763	3.0679589128244814e-19	2.391821846901838	0.0703552231980364	-0.359405644136204	0.4297608673342405	109.4917971544522	far	V4
4	5.0	ltm	131	diff_vonmises	-0.0503681008697829	-2.885879601927773	1.9878317143631925	1.0261236016933006	1.9475567793070143e-10	2.0435590093419025	0.202167977250793	-0.3153446077029445	0.5175125849537375	97.29881383124209	far	V3ab
5	6.0	ltm	131	diff_vonmises	-0.2363116234216229	-13.539658671943853	1.4445448495136128	1.2707622122309463	3.873090182152753e-18	2.312417567064754	0.1699782757301305	-0.3381020528639321	0.5080803285940627	112.01514951217202	far	IPS0
6	7.0	ltm	131	diff_vonmises	-0.0003300655673329	-0.0189113639707679	0.7429701736598542	288.91642453858384	0.7325383268082422	290.7954138352493	0.028867473704949	-0.429413693070046	0.4582811667749951	94.3510171541455	far	LO1
0	1.0	ltm	132	diff_vonmises	-0.4883421198775055	-27.979942427452773	0.0004979653710324	1225.6911934173745	1.5158326126160162e-23	1227.2147654721605	-0.1453314372827492	-0.3396124237729907	0.1942809864902415	173.27341098886512	far	V1
1	2.0	ltm	132	diff_vonmises	0.2544388542791434	14.578272494339084	0.5885478866806646	104.3778192705972	0.573864297449105	105.12825973581155	0.0939368065926089	-0.2227601597832897	0.3166969663758987	111.81746722770106	far	V2
2	3.0	ltm	132	diff_vonmises	0.0549567848184961	3.1487918257084666	1.319786166412602	73.60883667987535	1.2997326750237823	73.89226822512191	0.1552205875167267	-0.117529462282917	0.2727500497996438	77.53428277156416	far	V3
3	4.0	ltm	132	diff_vonmises	-0.2832991980447743	-16.231848387406433	3.472623119013044	0.4213440748632335	2.639974105858523e-23	1.524410036700002	0.0570413607303428	-0.2423287439791448	0.2993701047094876	73.60649321378544	far	V4
4	5.0	ltm	132	diff_vonmises	-0.1203879489818557	-6.897721380896611	3.402843195492393	0.4002089703732747	2.9047403880750843e-16	0.9827396370818764	0.1250223376335713	-0.1560961950030353	0.2811185326366067	74.38191713085646	far	V3ab
5	6.0	ltm	132	diff_vonmises	-0.4533690170459945	-25.976131238730165	0.9156964401481108	3.876267859017995	0.45403246216096	4.704148715860035	0.1421131324335469	-0.2519572026626966	0.3940703350962435	104.70991231108307	far	IPS0
6	7.0	ltm	132	diff_vonmises	0.0896918464420055	5.138964257862386	1.1151527798516736	209.91571915166196	1.101928691433818	211.19641125305205	0.0569870486137773	-0.3142959428866518	0.3712829915004292	77.3336511660942	far	LO1
0	1.0	ltm	133	diff_vonmises	0.3380335003123857	19.3678929019339	0.808646995323246	174.59055317712813	0.7905934018083173	177.10154146360148	-0.1560235552618678	-0.5046438079894138	0.3486202527275459	84.56419013828807	far	V1
1	2.0	ltm	133	diff_vonmises	0.0022489289254229	0.128854135851624	0.9006919032160252	170.68653572926593	0.8860968809610043	172.08112583315426	0.0282370421494277	-0.3208783884623685	0.3491154306117963	85.53519354374956	far	V2
2	3.0	ltm	133	diff_vonmises	0.1712012688950478	9.809110154970575	1.054561148117269	166.27048913729277	1.0380093387273632	167.3387931060076	0.1456212217994306	-0.2906274808531641	0.4362487026525947	82.40425254611421	far	V3
3	4.0	ltm	133	diff_vonmises	0.2838382656392544	16.262734685442414	0.6715297232410119	56.0368717631076	0.6303544834916008	57.79853361990962	-0.0394104538375046	-0.3792979310056967	0.3398874771681921	98.21913035124138	far	V4
4	5.0	ltm	133	diff_vonmises	0.0200670828682995	1.149759155492844	1.0567736115518425	154.6729275766647	1.0364458637096503	156.0009078960442	0.1292419359489045	-0.3442694364651153	0.4735113724140198	81.40851314337169	far	V3ab
5	6.0	ltm	133	diff_vonmises	-0.0937336423160986	-5.370542103101312	1.88049163888608	0.8982812840219248	0.0034274399985655	2.297431457919761	0.0795101161909926	-0.3540106971673795	0.4335208133583721	99.58370529518363	far	IPS0
6	7.0	ltm	133	diff_vonmises	-0.3643978349236579	-20.87845800483048	1.06935952990999	163.10999220391162	1.050441722626839	165.1830773201309	-0.1477821586484964	-0.4389118378990204	0.291129679250524	72.55373748902478	far	LO1
0	1.0	ltm	134	diff_vonmises	2.967892476385936	170.04771294554445	712.1428996282898	609.5304133189599	0.8668993538267066	0.7780225264263236	inf	-0.2407191077109236	inf	0.0	far	V1
1	2.0	ltm	134	diff_vonmises	0.588747943797336	33.73277237659274	0.2553123451131053	93.18908914531104	0.243497974820676	93.5747901554386	0.1168399429228195	-0.1984974117655422	0.3153373546883617	145.41737944818598	far	V2
2	3.0	ltm	134	diff_vonmises	0.133430956935058	7.645030688770667	1.877691351124588	36.400517850007695	1.856548136399774	36.27966699556213	0.1834670595457908	-0.0304229308634291	0.2138899904092199	72.51982660919836	far	V3
3	4.0	ltm	134	diff_vonmises	-0.4175166951211952	-23.92194450669481	1.2946651087069752	68.71677542122106	1.2658706327042348	69.55980432432341	0.0310476641336663	-0.2141667641708426	0.245214428304509	71.45215738323564	far	V4
4	5.0	ltm	134	diff_vonmises	-0.1694694061216613	-9.70988172735971	712.118054622127	503.0330089635988	0.0371400289767966	0.2839385775399555	inf	-0.0468286917456609	inf	0.0	far	V3ab
5	6.0	ltm	134	diff_vonmises	-0.5902685312520454	-33.819895620128136	1.5470591762017538	1.148478359659536	0.3074090551898436	1.7649637370080071	0.1337401668257347	-0.1856228114587295	0.3193629782844642	92.9494702993076	far	IPS0
6	7.0	ltm	134	diff_vonmises	0.1785028352227014	10.227459089379966	1.547257318421971	97.79774542564508	1.5272832147640518	98.2327491928205	0.1485479047325384	-0.1579744973524413	0.3065224020849797	69.79312266679693	far	LO1
0	1.0	ltm	135	diff_vonmises	0.2527593786797393	14.482045630698025	4.943471984977822	0.3946693346763507	0.0030208959856578	3.378030539108988	-0.1991519488547141	-0.5366440012648208	0.3374920524101067	61.13608262908048	far	V1
1	2.0	ltm	135	diff_vonmises	0.0772482729912867	4.42600001707516	0.9642860424438542	101.09566950726791	0.9350557363748804	102.68560189099648	0.0374486778217004	-0.3696749669387529	0.4071236447604534	82.99345016635158	far	V2
2	3.0	ltm	135	diff_vonmises	-0.0303873067019712	-1.7410644247925546	0.6664569298288859	88.28691295626946	0.6446613424102706	89.3317568611915	0.0795469837301716	-0.2720207145095941	0.3515676982397657	103.34903596230755	far	V3
3	4.0	ltm	135	diff_vonmises	-0.0663433083250794	-3.801191565962192	0.0003093350011091	3171.2487725742685	5.7026957182445995e-31	3173.105173475903	-0.1393167109731052	-0.4515699014636993	0.3122531904905941	179.8566118652571	far	V4
4	5.0	ltm	135	diff_vonmises	-0.0372794672818861	-2.1359561377481127	1.974275547915722	0.8691291986300486	1.541609109387366e-12	2.000194637842988	0.1265310090494045	-0.3097624730316184	0.436293482081023	97.6158303730655	far	V3ab
5	6.0	ltm	135	diff_vonmises	-0.1841293189690113	-10.54983286154248	0.1528307119441605	7.7639089553486365	9.573138621730497e-13	8.728006971673066	0.0422245196833044	-0.3347263419652817	0.3769508616485861	170.44626218149403	far	IPS0
6	7.0	ltm	135	diff_vonmises	0.2986464984914221	17.111183929918596	0.5980114770783427	44.88429979788942	0.5579943382526968	46.452188730954965	-0.0647513502778291	-0.3288153588864597	0.2640640086086305	102.88068469492067	far	LO1
0	1.0	ltm	136	diff_vonmises	0.3104023882149636	17.784746795498737	2.018158354023234	1.0992158976985402	0.1691242469856573	4.075914656828326	-0.1926048912496598	-0.5720810320914315	0.3794761408417716	81.43176420171787	far	V1
1	2.0	ltm	136	diff_vonmises	-0.0953308925178894	-5.462057798490341	0.7652733540863217	143.04112811961397	0.7441666643117556	144.99949912599547	0.0026013964700268	-0.4361258058596267	0.4387272023296535	92.40888570007488	far	V2
2	3.0	ltm	136	diff_vonmises	-0.0384650757869414	-2.203886501242599	0.7681937551489465	239.72927036008576	0.7544699877502936	241.27490317791197	0.1722872538654485	-0.4131771087934943	0.5854643626589429	96.66446250006044	far	V3
3	4.0	ltm	136	diff_vonmises	0.1970128053198124	11.288002254857789	0.6198985349319356	2.00243098483719	9.201427283173466e-19	4.270845697114203	-0.1404242022848648	-0.5236265973901932	0.3832023951053284	145.43568880885036	far	V4
4	5.0	ltm	136	diff_vonmises	0.00669394590555	0.3835348486768963	2.121880190905335	0.9010593470494273	4.9147842222834975e-14	2.283636631048419	0.1182418049687683	-0.3565374003053142	0.4747792052740825	94.3100287212692	far	V3ab
5	6.0	ltm	136	diff_vonmises	-0.2373186516774671	-13.59735714085414	0.4338593492876106	2.812995287637464	2.790551610793001e-17	4.196555630679553	-0.0084167072966495	-0.3909729879075619	0.3825562806109124	154.72861633153917	far	IPS0
6	7.0	ltm	136	diff_vonmises	0.3145391829838994	18.02176767647056	1.0126995142899875	70.88282744168158	0.9862304630396208	71.99262949872839	-0.021396593423983	-0.2457524058636551	0.224355812439672	78.5923849702013	far	LO1
0	1.0	ltm	137	diff_vonmises	-0.5121535871731779	-29.34423900750859	0.0006725889384573	1163.684682011978	2.8485573373357936e-25	1165.3810712651266	-0.1454024229929871	-0.3945331587251814	0.2491307357321943	172.6104556122786	far	V1
1	2.0	ltm	137	diff_vonmises	0.1017237074486856	5.828339113233182	2.8061345423531003	0.712649023057228	0.1127803152359623	1.4251196768782652	0.1961246600400307	-0.2072867213626205	0.4034113814026513	77.7586623878017	far	V2
2	3.0	ltm	137	diff_vonmises	-0.0732454392815601	-4.196654539415129	2.313852609350252	0.5011957004360283	2.9772295730985405e-17	0.8851369179246479	0.1413043441939512	-0.1381149358223161	0.2794192800162673	90.3970298441238	far	V3
3	4.0	ltm	137	diff_vonmises	-0.4602247889844126	-26.368938036105742	1.888003491081654	1.1160355290093555	0.1519934142335058	2.1711666358322264	0.1560110976491029	-0.286578665693935	0.442589763343038	90.76256240426729	far	V4
4	5.0	ltm	137	diff_vonmises	-0.1097447261243622	-6.287909630745067	1.1375961122937628	1.2464291629127653	1.813210772580719e-16	1.5574893978273552	0.2102464546549937	-0.2007956329143746	0.4110420875693683	122.99061991529368	far	V3ab
5	6.0	ltm	137	diff_vonmises	-0.4355392986056983	-24.954563622194613	0.585558639563746	42.55254788153997	0.5467037349680468	42.889912466589465	0.2256008410888679	-0.2045900266860609	0.4301908677749289	118.45573409446972	far	IPS0
6	7.0	ltm	137	diff_vonmises	0.1879420687715635	10.768287333568058	1.0423522604879032	217.0123350196272	1.029223592590058	218.09595778651004	0.1609081395455263	-0.2989896736256803	0.4598978131712066	83.11473497868593	far	LO1
0	1.0	ltm	138	diff_vonmises	-0.0810029524393648	-4.64112730287454	0.261176262579153	77.83348248214656	0.2493033564916963	79.830565499432	-0.2384349233767508	-0.3702095417976192	0.1317746184208683	136.2701386241128	far	V1
1	2.0	ltm	138	diff_vonmises	0.3848961918402198	22.052927343102272	0.5093078389529668	131.905129853928	0.4991685715433578	132.7523456878053	0.0412233682520977	-0.2272583257480427	0.2684816940001404	117.25360189291388	far	V2
2	3.0	ltm	138	diff_vonmises	0.1729748443687768	9.910728544263169	1.8371592049843888	75.12784044853524	1.814766469200206	75.36714953420655	0.1570749484688534	-0.1169372609421692	0.2740122094110226	65.3774898837427	far	V3
3	4.0	ltm	138	diff_vonmises	-0.1210864892997054	-6.937744792929124	0.771626823245853	108.10040055931192	0.7561178913374353	109.38033047616796	-0.0577991219096105	-0.263239808985924	0.2054406870763134	88.30780445252867	far	V4
4	5.0	ltm	138	diff_vonmises	-0.1452502615854892	-8.322226962019723	1.561778945691637	93.0579911028198	1.5336975386952187	93.67554927779608	0.181403258178598	-0.2158453499534438	0.3972486081320419	69.0854241250579	far	V3ab
5	6.0	ltm	138	diff_vonmises	-0.2610167641106751	-14.95515896570346	0.8625947363948092	188.5230955108364	0.8497288541696881	189.37558288391816	0.1958024388156687	-0.2636951161385212	0.45949755495419	93.42796122992756	far	IPS0
6	7.0	ltm	138	diff_vonmises	-0.1068608424025547	-6.122675264879015	1.454571766645938	153.02539201729513	1.4378271723543357	153.902024344305	0.0830770136649476	-0.2480057903790786	0.3310828040440263	68.5546130264635	far	LO1
0	1.0	ltm	139	diff_vonmises	0.1471618511562752	8.431752976586987	3.1560115413198084	0.5771983075481013	2.17905684550699e-14	4.066454842882168	-0.2581535029732429	-0.6464903991626922	0.3883368961894493	77.30753615004866	far	V1
1	2.0	ltm	139	diff_vonmises	-0.0869968500450586	-4.984552338514363	1.9233189571282088	1.3702868693386678	0.2016850575630047	3.1984796758619263	0.0738532360695989	-0.4181679966714604	0.4920212327410593	85.98831307147458	far	V2
2	3.0	ltm	139	diff_vonmises	-0.1045119446352269	-5.988093336303427	1.7519536196839365	1.7289947024905663	0.2677471937974154	3.195297323520208	0.1701439123477921	-0.3780282870237313	0.5481721993715234	88.38167627230223	far	V3
3	4.0	ltm	139	diff_vonmises	-0.0989002149239461	-5.666564908078871	0.2159022837739436	6.498465959201333	5.578841224641825e-17	8.62842282123756	-0.1045875089120809	-0.5494575662524651	0.4448700573403842	167.48068247277428	far	V4
4	5.0	ltm	139	diff_vonmises	-0.0016403793293737	-0.0939868123736161	1.7151529287876872	1.3640828778601994	1.7622478241957804e-15	2.953437236880215	0.1709626082346166	-0.44929981707363	0.6202624253082467	104.17698396407766	far	V3ab
5	6.0	ltm	139	diff_vonmises	-0.1724797615110047	-9.882362386003551	1.0019383794154255	1.706530229599756	2.6025802762199728e-17	3.240968965153137	0.0679475324462842	-0.4371177504136276	0.5050652828599119	128.27892689825367	far	IPS0
6	7.0	ltm	139	diff_vonmises	0.2670500244955346	15.300839322459389	0.8395923754265651	101.87372954456995	0.8183937588367195	103.1274790880133	0.0271694024357707	-0.288289555284404	0.3154589577201747	89.04297758082527	far	LO1
0	1.0	ltm	140	diff_vonmises	-0.0303600900336519	-1.739505024565448	1.4179002998457615	0.5991781701281946	1.4790877026456888e-18	2.936447795730506	-0.2164961286436219	-0.4526317581845251	0.2361356295409032	113.07928340523448	far	V1
1	2.0	ltm	140	diff_vonmises	0.0118310490893439	0.677869180031504	2.9799438919365677	0.6111768852874059	2.1946697289261823e-18	1.6690727466190498	0.1331064618458598	-0.2646122318308604	0.3977186936767202	79.60896337126951	far	V2
2	3.0	ltm	140	diff_vonmises	0.0258585777499205	1.481587369281342	1.8910871227871235	1.2280429498826146	0.4584289718695225	1.8250251586648376	0.1761946758464759	-0.1883601574615622	0.3645548333080381	82.44892162553035	far	V3
3	4.0	ltm	140	diff_vonmises	-0.3011706777111999	-17.255808745946485	1.37752066931811	1.3357423004186726	0.1393860294518106	2.7645036514531216	0.0462529760376742	-0.3461266639600317	0.3923796399977059	102.674961077824	far	V4
4	5.0	ltm	140	diff_vonmises	-0.0074903856119164	-0.4291674824883267	2.0579030366713367	0.9330070870869316	7.725470119913702e-15	1.4243032627647891	0.2629760872524516	-0.2186962475344386	0.4816723347868902	95.71169047383054	far	V3ab
5	6.0	ltm	140	diff_vonmises	-0.2843857849130534	-16.29410522903316	0.5289712052493604	133.5598696274068	0.5153631297808314	134.1121723171593	0.2029474162254061	-0.2501868584324338	0.4531342746578399	121.2917080656599	far	IPS0
6	7.0	ltm	140	diff_vonmises	0.2429960485708564	13.922648021466037	1.1764474902238102	128.178717891332	1.1592269905334915	128.7576058952168	0.1945258389642106	-0.1975027859874956	0.3920286249517062	80.72039843281539	far	LO1
0	1.0	ltm	141	diff_vonmises	-0.7874850410849921	-45.11956928385628	5.722106584316293	0.2137026198781948	2.8027380714712736e-47	1.6495322762369506	-0.0634853870493086	-0.2625290834640085	0.1990436964146999	56.99024226651025	far	V1
1	2.0	ltm	141	diff_vonmises	0.2619028062382094	15.00592544008197	0.4734586618032748	81.47992546068214	0.4570606384361598	82.07715508914296	0.1057055094233518	-0.2124306047428517	0.3181361141662036	125.04475665828502	far	V2
2	3.0	ltm	141	diff_vonmises	0.129160097796769	7.400328485251827	1.704512745961587	81.21925153235667	1.6848223667078268	81.35012589366303	0.2071875502693458	-0.1012690147143828	0.3084565649837287	70.05509125805335	far	V3
3	4.0	ltm	141	diff_vonmises	-0.3209539472744638	-18.389306596891128	0.913406136177966	33.16351814938729	0.8467317191035524	34.2781420103521	0.0730595134375651	-0.2739802572984415	0.3470397707360066	88.13928977803509	far	V4
4	5.0	ltm	141	diff_vonmises	-0.1035840639714784	-5.934929690378842	1.2626305246653886	20.11335426755148	1.1841004535159458	20.32335337634449	0.2117195322261977	-0.1196139301370646	0.3313334623632624	82.0624955778305	far	V3ab
5	6.0	ltm	141	diff_vonmises	-0.3941182276790694	-22.58131107518674	0.7756527774620271	161.66891271237543	0.7635985143471533	162.1501806855464	0.2293237821272313	-0.2050944862856845	0.4344182684129158	101.44212324751784	far	IPS0
6	7.0	ltm	141	diff_vonmises	0.1142654636337287	6.546928810318248	1.631676958094609	152.55481973440658	1.6151657125681609	153.10291947103156	0.1806859591101925	-0.2011954274936975	0.3818813866038901	67.67389115993663	far	LO1
0	1.0	ltm	142	diff_vonmises	0.1941571414010428	11.1243847646045	4.533327851808929	0.3760207335564485	1.7487067914830898e-15	1.655963977470832	0.0458356365120226	-0.2635191320828559	0.3093547685948786	64.20065981848262	far	V1
1	2.0	ltm	142	diff_vonmises	-0.04219050125801	-2.4173376576253665	1.225137783111086	130.6984406215502	1.206777604558757	131.32739233584445	0.2029259439244626	-0.2125751697435358	0.4155011136679984	78.8889681279689	far	V2
2	3.0	ltm	142	diff_vonmises	0.0871311093310407	4.992244828961578	1.0954271235581363	118.37199400251306	1.0783013043053615	118.83184854579832	0.2162091377400514	-0.1782007320677099	0.3944098698077614	84.96717868813252	far	V3
3	4.0	ltm	142	diff_vonmises	-0.2141505649888726	-12.269923554204455	4.226989631582064	0.6254383352390176	3.0743230897093783e-27	1.5695201638684142	0.2457120685178696	-0.2496913138076153	0.495403382325485	66.54833585858682	far	V4
4	5.0	ltm	142	diff_vonmises	-0.083885924039815	-4.806309408036413	2.436124618786864	0.6897739803927323	3.669412155948389e-15	1.0724426760958126	0.2296888509169994	-0.1676191587310104	0.3973080096480099	88.11989091702861	far	V3ab
5	6.0	ltm	142	diff_vonmises	-0.3224687211040715	-18.476096744244515	1.8334265252406656	0.9367305674885266	7.964566903730611e-18	1.5194252334264275	0.2165711421097293	-0.2301074535541615	0.4466785956638909	100.86144944391982	far	IPS0
6	7.0	ltm	142	diff_vonmises	-0.0479175993295871	-2.745476205984248	0.9760068795570748	282.2220397676412	0.9636637652566532	283.8029743659443	0.1312471514100366	-0.3994550288219045	0.5307021802319412	84.3095820005075	far	LO1
0	1.0	ltm	143	diff_vonmises	-0.0775658771150736	-4.4441973929240985	0.3729433938529198	52.4974434361137	0.3446801974123762	54.90037834853243	-0.2545291065753972	-0.4510415010411863	0.1965123944657891	120.1069575526043	far	V1
1	2.0	ltm	143	diff_vonmises	0.1294777484265385	7.418528525697293	0.5231267108765953	83.11056057805816	0.5032824118278215	84.13597608844287	0.055219130397436	-0.2765562271404977	0.3317753575379338	116.65498982175794	far	V2
2	3.0	ltm	143	diff_vonmises	0.0215377925312741	1.2340246120703968	1.5055671821474188	127.11136448088996	1.489623255615266	127.52158496811006	0.1777597009524854	-0.1593584339836251	0.3371181349361105	71.51236656003141	far	V3
3	4.0	ltm	143	diff_vonmises	-0.2384528148419734	-13.662339903459552	0.6636755411158332	131.66117739553894	0.6497645253030113	133.0187370580196	-0.0250652034487472	-0.2943274744269395	0.2692622709781922	98.06155913839396	far	V4
4	5.0	ltm	143	diff_vonmises	-0.017918540452159	-1.0266567429431517	1.876610582402357	1.4793233773874908	0.4838305791688929	2.222575761203469	0.1925887726181845	-0.2258728983451658	0.4184616709633504	81.71691644314865	far	V3ab
5	6.0	ltm	143	diff_vonmises	-0.2437246079721333	-13.96439140028378	0.7637688525422414	174.3872587653969	0.7491496331059921	175.3798958880985	0.1949690470888541	-0.3020396192827963	0.4970086663716504	99.01801410326937	far	IPS0
6	7.0	ltm	143	diff_vonmises	0.2186375377214504	12.527008154571444	1.010561759976276	103.62767162211104	0.9904906626282022	104.27806330893216	0.1723421343542241	-0.2058870660158671	0.3782292003700913	86.66242551301096	far	LO1
0	1.0	ltm	144	diff_vonmises	0.3660464704020431	20.97291785969748	0.8202424506103443	233.78905298958423	0.8048375180829883	236.73347790566456	-0.2090686863535467	-0.5852654057866182	0.3761967194330715	82.88730923759218	far	V1
1	2.0	ltm	144	diff_vonmises	0.0050062301754406	0.286835860323788	0.7581519413945054	138.63311651837003	0.740886756909151	140.26749116886734	-0.0209076931540792	-0.3552012122548618	0.3342935191007825	91.8151799852828	far	V2
2	3.0	ltm	144	diff_vonmises	0.0395624550911672	2.266761703899739	1.0794152228087968	165.71179009984502	1.0650194497902237	166.63336908719444	0.1218444901079465	-0.2500827224240218	0.3719272125319683	81.25526204126382	far	V3
3	4.0	ltm	144	diff_vonmises	0.3363260567920262	19.270063594460336	2.361855095585811	0.4208625546731242	0.0265779302525457	2.178701166263295	-0.116175559869404	-0.3360024742158931	0.2198269143464891	85.86731414160187	far	V4
4	5.0	ltm	144	diff_vonmises	0.0629470771165447	3.606601851462537	0.9599879033929068	91.01926171277668	0.9270705201517968	92.7499143666776	0.0017566072837027	-0.3896754965122184	0.3914321037959212	82.15915741088659	far	V3ab
5	6.0	ltm	144	diff_vonmises	-0.1067163076569285	-6.114394033961638	1.973370407491796	0.8725864974911793	0.055667021057411	2.7691334702488173	-0.0190714836322531	-0.4084336362156008	0.3893621525833476	92.15453546287512	far	IPS0
6	7.0	ltm	144	diff_vonmises	0.7547389767164968	43.24335799987777	0.0001334398751551	7595.092828149832	2.1033032571168347e-35	7597.031639286512	-0.1472657875424374	-0.4698662030573359	0.3226004155148985	163.68940505345088	far	LO1
0	1.0	ltm	145	diff_vonmises	0.2722201622288706	15.59706639408087	2.461783582450616	1.3890850781466824	0.4387893049664939	3.076700239020193	0.0871260261558111	-0.3993827749556193	0.4865088011114304	71.42865483081897	far	V1
1	2.0	ltm	145	diff_vonmises	-0.1795970917421616	-10.29015536964971	1.4236838314392637	225.41404839945076	1.40820437643437	226.3687186568207	0.2227827149071544	-0.3063026431688698	0.5290853580760242	71.74298211886634	far	V2
2	3.0	ltm	145	diff_vonmises	0.1257979403123781	7.207691051337906	1.0672755820022444	228.52124303227143	1.054086642401859	229.3717217330732	0.2675073183365697	-0.2834461045806478	0.5509534229172175	84.66015303828257	far	V3
3	4.0	ltm	145	diff_vonmises	0.0459085360518528	2.6303653593953507	0.9886801877126382	12.307731375243694	0.7664401068593073	13.445172820243814	0.1829053856196791	-0.3199263263966416	0.5028317120163208	91.06459556971303	far	V4
4	5.0	ltm	145	diff_vonmises	0.0431990283288194	2.475122002307437	1.0949933047837082	133.48734308453015	1.074010882223138	134.20937742546357	0.2685041005232804	-0.2549356991822336	0.523439799705514	84.27211776208773	far	V3ab
5	6.0	ltm	145	diff_vonmises	-0.0981005972142351	-5.620750188088516	1.0844842845968696	3.826480533156345	0.497771725510851	4.7455303593642135	0.199508260267391	-0.2857567905452113	0.4852650508126023	98.15472683551224	far	IPS0
6	7.0	ltm	145	diff_vonmises	-0.1786432684466346	-10.235505320414752	0.7661799946864715	233.43768971656536	0.751620559367052	235.16722483299048	0.1397220833628694	-0.4403439080060281	0.5800659913688975	95.83726569474878	far	LO1
0	1.0	ltm	146	diff_vonmises	-0.0971048395452262	-5.563697476236517	1.8693770395603664	0.55267183058909	3.611324239469606e-17	3.1911257337389904	-0.2342173268888614	-0.5013739316256892	0.2671566047368278	100.14044298540676	far	V1
1	2.0	ltm	146	diff_vonmises	-0.0242942752658625	-1.391959439062992	2.531844608347607	0.704582495481749	1.776201237399235e-15	1.8350269940027573	0.1262716745635358	-0.2894085703974426	0.4156802449609785	86.44776851618062	far	V2
2	3.0	ltm	146	diff_vonmises	-0.0527999642503354	-3.025215109985849	1.5752036274269108	3.3208831518302047	0.948967397185733	3.925284281891432	0.1784552079027832	-0.1979238119922456	0.3763790198950289	77.41991046162877	far	V3
3	4.0	ltm	146	diff_vonmises	-0.2925558554548064	-16.76221578939977	0.5596881534178065	117.43576475853556	0.5430064013263971	118.84389672907736	0.0099919054970385	-0.3334661192647061	0.3434580247617447	109.70007361088632	far	V4
4	5.0	ltm	146	diff_vonmises	0.02649219930226	1.517891210038924	2.13880632695568	0.9241675023576869	5.720357291022815e-19	1.836976245526842	0.2040326537157769	-0.2854749335204303	0.4895075872362072	93.94920066709184	far	V3ab
5	6.0	ltm	146	diff_vonmises	-0.2508180349326137	-14.370814827403612	0.6595292123245589	131.7502993762284	0.640368347460659	132.83283152121763	0.1840231473177098	-0.332384425514407	0.5164075728321169	106.57483173450996	far	IPS0
6	7.0	ltm	146	diff_vonmises	0.2121024028474643	12.15257250774328	0.8704174304392472	144.611426998782	0.8539392241891844	145.52643892724225	0.1672767461479338	-0.2658017243741319	0.4330784705220658	92.24751008070086	far	LO1
0	1.0	ltm	147	diff_vonmises	0.0803618926979719	4.604397285276981	0.1742629058348923	72.37620485462423	0.1611248247852507	74.60633399649659	-0.2514328754313855	-0.4378597102223427	0.1864268347909572	155.07429274998597	far	V1
1	2.0	ltm	147	diff_vonmises	0.1114302829486361	6.384484922905431	0.318906971006585	65.41946688645776	0.2965066248436526	66.60521034871019	0.0143872610207331	-0.3301892952268783	0.3445765562476115	140.79732748947183	far	V2
2	3.0	ltm	147	diff_vonmises	0.0740351259996442	4.241900255498883	1.332618230719755	158.7028407974442	1.3179692575346769	159.23933838592816	0.205723944079736	-0.1942318305858883	0.3999557746656244	75.93083435798803	far	V3
3	4.0	ltm	147	diff_vonmises	-0.0570948360055721	-3.2712931351108576	1.85225334665235	0.5659853112140626	9.474632509653378e-18	2.218074994748394	-0.0743120849514798	-0.3461577154046033	0.2718456304531234	100.57618591064409	far	V4
4	5.0	ltm	147	diff_vonmises	-0.0182469495360938	-1.0454731974063751	1.594689365793657	1.8160254903217112	0.5601382271820292	2.521726356766584	0.1657241599786114	-0.2118685097627323	0.3775926697413437	84.50335509492808	far	V3ab
5	6.0	ltm	147	diff_vonmises	-0.2990504351808093	-17.134327797410972	0.6220116773815958	168.31670731014117	0.6097748650978351	169.28747820842102	0.1308166307055458	-0.2865651187510831	0.417381749456629	108.7255272282375	far	IPS0
6	7.0	ltm	147	diff_vonmises	0.2018127059949079	11.563016305622751	1.5561283068834009	89.03261765022329	1.5349357945038624	89.48864452793484	0.1265768452387803	-0.1570839987828378	0.2836608440216182	68.97060765977301	far	LO1
0	1.0	ltm	148	diff_vonmises	0.2481073646769727	14.215504862103735	2.431244464800535	0.4964753053922636	1.709158588496146e-29	3.3479010539790863	-0.2450018168436288	-0.5306096242354885	0.2856078073918597	88.16641053850284	far	V1
1	2.0	ltm	148	diff_vonmises	0.0505684033419532	2.897356088209166	1.7799690616934725	1.4964224759725522	0.2945562370075242	3.233059782576254	0.0432009661574197	-0.390091200102313	0.4332921662597327	84.54320127009163	far	V2
2	3.0	ltm	148	diff_vonmises	-0.0732172511295351	-4.195039477271825	0.9453255382851524	2.494546721637773	0.1199527546302509	4.014753519082201	0.1087354829704397	-0.4399190388257317	0.5486545217961715	121.54355488413036	far	V3
3	4.0	ltm	148	diff_vonmises	-0.0010734522067029	-0.061504280953086	0.0002301997577853	6668.040112500638	9.160000779237078e-33	6670.349049544843	-0.1231649777707843	-0.6117643911575215	0.488599413386737	179.97915863679287	far	V4
4	5.0	ltm	148	diff_vonmises	-0.0977620314479693	-5.60135179859387	1.4300195138555996	1.2260155751507964	0.0075244236996917	2.040177195777745	0.1887652619332575	-0.2927189034169495	0.481484165350207	112.17790199480427	far	V3ab
5	6.0	ltm	148	diff_vonmises	-0.1435218207391037	-8.223194596383815	0.0003389850792322	3379.8249832404567	5.94480250163502e-32	3380.486161727564	0.0771296908734484	-0.2875584345972584	0.3646881254707068	179.39210060711537	far	IPS0
6	7.0	ltm	148	diff_vonmises	0.3734659096714345	21.39802041618723	1.4642927627832742	100.2729598022847	1.4426362579715504	101.09269773010612	0.036701209302663	-0.2213995948255398	0.2581008041282029	67.10077956760398	far	LO1
0	1.0	ltm	149	diff_vonmises	-0.0126603661994093	-0.7253855503162376	0.9797824755674162	1.2059600426848094	0.1174310658341651	3.5564245057617296	-0.2268932259383727	-0.4442275265051434	0.2173343005667707	110.36505331409782	far	V1
1	2.0	ltm	149	diff_vonmises	0.0972902664188792	5.574321653505143	0.786192023726044	71.77677153105064	0.7573235948074563	72.85550188072976	0.0768984526057607	-0.2698054262727911	0.3467038788785519	94.6558193722584	far	V2
2	3.0	ltm	149	diff_vonmises	0.0315923519379218	1.810108430934871	1.1468138661062528	65.60762185392595	1.119151283666813	66.15948762365495	0.1374422648116819	-0.1718909680753002	0.3093332328869822	80.98056048908941	far	V3
3	4.0	ltm	149	diff_vonmises	-0.2521593562939466	-14.447666880378732	1.4903843476626903	0.8434478241303224	0.0644934491864031	2.2086927555982063	-0.0106469741413668	-0.3107559124998439	0.3001089383584771	104.22780443926266	far	V4
4	5.0	ltm	149	diff_vonmises	-0.0275758048913936	-1.5799772369530696	2.0850669399547503	0.9348062295846484	0.1626194673907633	1.771844251940169	0.1648860299123218	-0.2366540316114289	0.4015400615237508	86.87645947025834	far	V3ab
5	6.0	ltm	149	diff_vonmises	-0.3033880364200523	-17.38285404163031	0.5835922146213813	138.50902618891445	0.568831574464803	139.4293574313976	0.1470126505100708	-0.2918600167230565	0.4388726672331273	113.21514440273576	far	IPS0
6	7.0	ltm	149	diff_vonmises	0.1623754024482291	9.303425257021743	0.850032969848624	177.51387658532096	0.8366670384936978	178.74503005907434	0.070353223605629	-0.2990694295816958	0.3694226531873248	89.80468380312385	far	LO1
0	1.0	ltm	150	diff_vonmises	-0.1920065748142861	-11.001166375621484	0.5148757902655788	1.2607699301017874	3.619240479710782e-23	3.776094269835562	-0.2863944111412344	-0.4886454675268984	0.202251056385664	150.849442478293	far	V1
1	2.0	ltm	150	diff_vonmises	0.1233844111905122	7.069406018923077	1.684776520872469	0.9403288040191154	0.1129588300336618	2.111398153208521	0.0620750266801266	-0.2849706718006455	0.3470456984807721	96.20116381225212	far	V2
2	3.0	ltm	150	diff_vonmises	-0.0278946363363602	-1.5982449331257087	1.073268561567838	50.1800720244642	1.0418035704906754	50.68712927356487	0.1197466437384235	-0.1551913669075908	0.2749380106460144	83.78223215285371	far	V3
3	4.0	ltm	150	diff_vonmises	-0.4235363174680805	-24.266843461433982	0.581624456830534	130.27393747770674	0.5683396062804854	131.69145501880377	-0.0412421864774543	-0.3059581857702618	0.2647159992928074	104.38133385637396	far	V4
4	5.0	ltm	150	diff_vonmises	-0.0039352677011295	-0.2254742305288756	2.2083940431867437	0.7027419302212717	5.672045421647789e-17	1.5330483466798583	0.1408046980964263	-0.2393464305324233	0.3801511286288496	92.49434449626494	far	V3ab
5	6.0	ltm	150	diff_vonmises	-0.3658041442222339	-20.95903359232888	0.5045600837548535	162.5378098515855	0.4932171570584667	163.42370029804388	0.1270656790942084	-0.2892246722327591	0.4162903513269675	120.68579248620752	far	IPS0
6	7.0	ltm	150	diff_vonmises	0.2944665052668699	16.871687959758475	0.8428182412358196	141.88060408276132	0.8283338803995199	142.84179966748056	0.0952093013218515	-0.2488895179872692	0.3440988193091208	91.69391268479644	far	LO1
0	1.0	ltm	151	diff_vonmises	0.0638017461425672	3.6555707795341807	0.4671074362699929	126.6120257730491	0.4537738569313257	128.70708754904882	-0.1854578733965723	-0.4014353182344266	0.2159774448378542	108.7991359703681	far	V1
1	2.0	ltm	151	diff_vonmises	0.0328449609520926	1.8818776408268976	0.6743484756770719	55.40047222802043	0.6419302321354334	56.36356862097278	0.0781163623208858	-0.2527658244205852	0.3308821867414711	103.32363084809614	far	V2
2	3.0	ltm	151	diff_vonmises	0.0988398355825737	5.663105426648455	1.4426547481931111	154.98088810703987	1.4268525828648129	155.46879188808873	0.2290769343917702	-0.1929952792595948	0.422072213651365	73.41889337968095	far	V3
3	4.0	ltm	151	diff_vonmises	-0.0640767886899622	-3.671329556686446	0.7466549581391743	52.68109734275404	0.7042662664248033	54.07291503103456	0.0288270485046258	-0.3216018788149997	0.3504289273196255	95.50032544561054	far	V4
4	5.0	ltm	151	diff_vonmises	-0.0214498642383338	-1.2289866919851244	1.1739948613744198	100.48479919352506	1.149094876308277	101.06718776028934	0.249421097796322	-0.2167633698847932	0.4661844676811153	81.77152838554912	far	V3ab
5	6.0	ltm	151	diff_vonmises	-0.1960352716910369	-11.23199370359684	0.8072154845254864	166.42228682464696	0.7919756987981752	167.28742480032088	0.2229669062152908	-0.2819016227364557	0.5048685289517465	97.23583587411744	far	IPS0
6	7.0	ltm	151	diff_vonmises	0.0886579141720579	5.07972430249201	1.3817291454484728	133.98714693039955	1.3641495115610176	134.55302925474143	0.1910862262270356	-0.1981274970191346	0.3892137232461703	74.10917697981674	far	LO1
0	1.0	ltm	152	diff_vonmises	0.0500758092257499	2.869132524337745	5.304680661805461	0.4288877455152596	1.2743309059877278e-31	2.69694006525985	-0.0454486026623066	-0.4292218691104488	0.3837732664481422	59.24034309001516	far	V1
1	2.0	ltm	152	diff_vonmises	-0.0231510666639067	-1.326458411067873	3.2056859209535564	1.175971795440869	0.5113018293632965	2.0092930566915856	0.2996636437911811	-0.2713508679622509	0.5710145117534321	66.36105142036436	far	V2
2	3.0	ltm	152	diff_vonmises	-0.016853078424921	-0.9656102655509636	2.125865202018034	0.866916615884687	7.008535361740606e-20	1.5973458002792662	0.2097607855724556	-0.2476185088776326	0.4573792944500882	94.22019770227728	far	V3
3	4.0	ltm	152	diff_vonmises	-0.3445306250400454	-19.740150727798884	2.040759882972973	1.3405509015941528	1.0128046085848956e-16	2.545959316367804	0.2948314382477909	-0.3933836965369474	0.6882151347847384	95.93318803679712	far	V4
4	5.0	ltm	152	diff_vonmises	-0.0269210653856089	-1.542463426591124	1.4505899577749597	1.7375095130574891	1.7049405810594705e-15	1.6850847923127388	0.4692886793058647	-0.2276552475654183	0.696943926871283	112.0243930165417	far	V3ab
5	6.0	ltm	152	diff_vonmises	-0.1770165623680746	-10.142301927604992	0.4082220584421326	30.88835630949018	0.3560936411137194	30.82821564011254	0.3074432226185326	-0.1938107706920919	0.5012539933106246	138.54546320168106	far	IPS0
6	7.0	ltm	152	diff_vonmises	0.1862146180383438	10.669311697237788	1.1641918291810416	128.03087115891734	1.14376189351773	128.36559534075477	0.3629051602572417	-0.2009900649884191	0.5638952252456608	84.73578911624864	far	LO1
0	1.0	ltm	153	diff_vonmises	0.2378844182111033	13.62977317542124	1.071347525232997	0.6919007870259647	3.641456579530505e-16	3.540652825370832	-0.3177809720759555	-0.5346774296870102	0.2168964576110545	125.22477584548426	far	V1
1	2.0	ltm	153	diff_vonmises	0.0384262400875327	2.201661379572039	2.1474061112179506	0.682791806741812	0.0254665489588071	2.070394034939007	0.0296962008481339	-0.3161611828833315	0.3458573837314654	91.50024619840084	far	V2
2	3.0	ltm	153	diff_vonmises	0.1233018893029187	7.0646778630465175	1.0991176774039404	64.10985204244534	1.062544422628291	64.91736679952172	0.1545016430923738	-0.2350866453235269	0.3895882884159007	82.10213594721483	far	V3
3	4.0	ltm	153	diff_vonmises	-0.0298962963911769	-1.7129316062866335	0.856066434289837	1.2026566935596803	8.109249898944039e-16	3.0898998620808724	-0.1137247096260772	-0.4235410778386667	0.3098163682125895	134.81440120741962	far	V4
4	5.0	ltm	153	diff_vonmises	0.0056035201483971	0.3210580549196764	1.497026303166092	2.4407552286630763	0.5540011126495616	3.138267901940054	0.2498027120766289	-0.2416568942617782	0.4914596063384071	87.89585028304961	far	V3ab
5	6.0	ltm	153	diff_vonmises	-0.203030658314827	-11.632799833202286	0.5194334360986927	123.03448284460428	0.5045665859019768	123.7257082707977	0.1713411584500512	-0.266513473134534	0.4378546315845852	121.27042932740312	far	IPS0
6	7.0	ltm	153	diff_vonmises	0.317376253837066	18.184319862536583	1.3155762431780136	63.50584430310895	1.2899256324876551	63.87250430966611	0.1508935704065912	-0.1356824654496176	0.2865760358562088	76.85415891591518	far	LO1
0	1.0	ltm	154	diff_vonmises	0.1961715709204831	11.239803074194995	2.7965661733730305	0.6193644282570253	0.0595344295627017	3.448749469349806	-0.1924008202015349	-0.5284847352450381	0.3360839150435032	76.35624207681911	far	V1
1	2.0	ltm	154	diff_vonmises	-0.0383279600161532	-2.1960303462717503	1.0130286588021218	119.24976321703326	0.9890523352722566	120.55990956011158	0.0958460492226436	-0.3276223062785366	0.4234683555011802	82.60541117443645	far	V2
2	3.0	ltm	154	diff_vonmises	0.0940270411454002	5.387352617734371	1.0267236617333928	98.2385909202508	0.999453311979372	99.2500988654218	0.1606410671279619	-0.2823385594899914	0.4429796266179533	84.3139389877872	far	V3
3	4.0	ltm	154	diff_vonmises	-0.0229682570332024	-1.3159841907741687	1.4057077221691534	1.0772770861794545	7.397027181407701e-18	2.776301064466846	0.0068126573147296	-0.4148866356012474	0.421699292915977	113.48153563970416	far	V4
4	5.0	ltm	154	diff_vonmises	0.0106704278060973	0.6113704788884156	0.9556995421059844	90.53810983766704	0.921473684653897	91.48466957317268	0.2795272871056156	-0.3121987944593591	0.5917260815649747	89.99264235395154	far	V3ab
5	6.0	ltm	154	diff_vonmises	-0.1079374432266009	-6.184359948317167	1.482942642425539	1.2829618757478995	2.5899979356116017e-13	2.1711469427422228	0.2063306157585016	-0.3171183513841486	0.5234489671426503	110.9554423569552	far	IPS0
6	7.0	ltm	154	diff_vonmises	0.1088437855648037	6.236289539090209	0.8511329212315161	140.76131092932224	0.8346817584365789	141.88350295375554	0.0937661489352947	-0.2837312910937406	0.3774974400290354	90.7822268624698	far	LO1
0	1.0	ltm	155	diff_vonmises	0.2071736857037767	11.870177816996206	0.362162546339122	152.3003795071725	0.351191161335208	155.35046915626037	-0.3654192766338298	-0.5444824126482608	0.179063136014431	114.35220505349912	far	V1
1	2.0	ltm	155	diff_vonmises	0.229478874505961	13.148170996603833	0.5394422073734806	157.90235675342015	0.5277083137029672	159.4112393881947	-0.032141411490798	-0.3368162520801512	0.3046748405893531	109.43903012374464	far	V2
2	3.0	ltm	155	diff_vonmises	0.0942551940583685	5.400424816731073	1.19902173201796	87.43407921752201	1.1749737083430112	88.21550386595271	0.0964695660364043	-0.213526009346106	0.3099955753825103	76.81279594640313	far	V3
3	4.0	ltm	155	diff_vonmises	0.1500355258948336	8.596402410799744	0.5335635506742492	1.051742029320316	2.8385858012097334e-15	2.96292410596102	-0.2054482013827943	-0.380018987090722	0.1745707857079276	150.02921652752855	far	V4
4	5.0	ltm	155	diff_vonmises	-0.0244834703330386	-1.4027995179168753	1.0003212824478185	84.94251485493196	0.967677942417448	86.27804780022899	0.0770235968921291	-0.3266011031763209	0.4036247000684501	82.82791854467439	far	V3ab
5	6.0	ltm	155	diff_vonmises	-0.2402868995394386	-13.767425215893835	0.5604830004577991	135.92120813806198	0.5445097542497757	137.34445079952278	0.045719783459198	-0.3564267403589909	0.4021465238181889	111.10183074103854	far	IPS0
6	7.0	ltm	155	diff_vonmises	0.0189948781593783	1.0883263508976049	1.0034816137771851	100.57125210819753	0.9846957395992576	101.83451749240211	-0.0704227021646346	-0.2669835047939877	0.196560802629353	76.25002273984902	far	LO1
0	1.0	ltm	156	diff_vonmises	0.0012108270161913	0.0693752777481841	0.0002976434278785	1660.5684592043938	1.0762043786886218e-31	1662.7787605751626	-0.2731111031133082	-0.4304379678470127	0.1573268647337045	179.9730113166964	far	V1
1	2.0	ltm	156	diff_vonmises	0.2300939871127396	13.183414352897538	0.3901026371877574	84.10448974784572	0.37226255581841	85.29252188741158	0.0090103993054668	-0.3127121926094478	0.3217225919149147	130.65745698603163	far	V2
2	3.0	ltm	156	diff_vonmises	0.1248400603385319	7.15280857155642	1.27402660315451	84.4559560309876	1.2515411497478095	84.95953322162826	0.1516588032738965	-0.1675861512663665	0.3192449545402631	77.09567366931006	far	V3
3	4.0	ltm	156	diff_vonmises	-0.1326278293381587	-7.599014867057853	1.3245647373155311	0.5741535829392601	4.445949995757051e-13	2.255714585117559	-0.1282513365799933	-0.342689622090194	0.2144382855102007	116.1476763301748	far	V4
4	5.0	ltm	156	diff_vonmises	-0.0583951262480938	-3.345794278149393	1.2683577726877684	3.2450123250819085	0.731752521144714	3.948753273062622	0.123487497853175	-0.1994821891354142	0.3229696869885893	85.7337884169772	far	V3ab
5	6.0	ltm	156	diff_vonmises	-0.3841514209438635	-22.01025511403688	0.5514176044937008	159.61791399443456	0.540341527852424	160.50225656042002	0.10769931765887	-0.2677165914100357	0.3754159090689057	115.28259359543046	far	IPS0
6	7.0	ltm	156	diff_vonmises	0.1394586786763633	7.990393704626707	1.5228136668125387	105.23960409362486	1.5041776055482294	105.91510537378612	0.0490373023975934	-0.1909889563724043	0.2400262587699977	66.40999497919105	far	LO1
0	1.0	ltm	157	diff_vonmises	-0.7092862534422935	-40.63910878888987	0.0002798531051679	2775.364113676686	8.594175573335064e-30	2776.236565726472	-0.0152341299054228	-0.2624586871521046	0.2472245572466818	166.13626350861972	far	V1
1	2.0	ltm	157	diff_vonmises	0.204046589664122	11.691008411791918	1.4670022811861263	0.8945006447923025	4.349018352987353e-11	1.343697761739191	0.1684101343552838	-0.1935249637176525	0.3619350980729364	111.32557398932624	far	V2
2	3.0	ltm	157	diff_vonmises	-0.0932884485509605	-5.34503437929336	1.050518871364769	33.534656628009735	1.015279234918241	33.68754419832506	0.1701796433922862	-0.0958024509785473	0.2659820943708335	89.71046517988941	far	V3
3	4.0	ltm	157	diff_vonmises	-0.4298090077761645	-24.62624214227981	2.8177995907995825	0.6980319668335899	0.1376602931629585	1.5670549504997071	0.156169884090259	-0.2268749739727762	0.3830448580630352	76.40112775355252	far	V4
4	5.0	ltm	157	diff_vonmises	-0.178221233203962	-10.211324482203835	0.3653276655448348	22.315980042843226	0.3252619184276996	22.57532775652635	0.1062627536248381	-0.143494953596468	0.2497577072213062	140.01104309751474	far	V3ab
5	6.0	ltm	157	diff_vonmises	-0.5993428287945791	-34.33981457136125	1.9994138353168824	0.776341834089604	9.034251583344903e-17	1.295491832023303	0.1942344614724797	-0.1988408909340063	0.393075352406486	96.46260116709318	far	IPS0
6	7.0	ltm	157	diff_vonmises	0.211281721563573	12.105550933850934	1.20310338624258	207.4301992147408	1.1893713525535998	208.43698647420925	0.1467278027669181	-0.2824831364410052	0.4292109392079233	76.97351723008691	far	LO1
0	1.0	ltm	158	diff_vonmises	-0.2010339636864709	-11.518397658021035	0.2444878310984979	64.55421264108057	0.2321840427537195	65.80151194217518	-0.1075994078471076	-0.2651051365848715	0.1575057287377639	145.4996742326167	far	V1
1	2.0	ltm	158	diff_vonmises	0.2506048094155245	14.358597905189912	0.5521719079126866	89.20184591670655	0.5377040891535749	89.76106291715283	0.1008124283740343	-0.1882564936248929	0.2890689219989273	116.81140557182226	far	V2
2	3.0	ltm	158	diff_vonmises	0.2048010917981509	11.73423819970539	1.6147848682856296	89.95379510666096	1.5967588685343117	90.06814932655801	0.2258220168718168	-0.1022837954813429	0.3281058123531597	72.44955499994254	far	V3
3	4.0	ltm	158	diff_vonmises	-0.2376072057935039	-13.61389007386418	4.885544767111903	0.4350506492574937	7.140314748454606e-16	1.486266941959563	0.136027128762302	-0.2365254600292612	0.3725525887915633	61.79248246222028	far	V4
4	5.0	ltm	158	diff_vonmises	-0.0970290857827046	-5.559357105361796	1.3993243245402147	45.94187423970049	1.3652700237745494	46.10706697082583	0.2125444746225966	-0.1091406174118763	0.3216850920344729	77.56090732608891	far	V3ab
5	6.0	ltm	158	diff_vonmises	-0.3696155762686822	-21.17741256249128	0.799788055230866	140.23195757553367	0.7867433941408605	140.66874784922527	0.2178159070704737	-0.1880618560739595	0.4058777631444332	100.05044154632866	far	IPS0
6	7.0	ltm	158	diff_vonmises	0.0672226300677198	3.851572990649577	1.6775488481613423	151.20920663242268	1.6599515799980138	151.7833043131905	0.1841693519089204	-0.211631966584644	0.3958013184935645	66.5907895893217	far	LO1
0	1.0	ltm	159	diff_vonmises	0.1921971340800015	11.012084617294088	1.0828419096781845	0.7990930756163034	3.28121325856378e-17	3.918471684952315	-0.3381123238949863	-0.590901776967846	0.2527894530728596	124.9161079527492	far	V1
1	2.0	ltm	159	diff_vonmises	0.0004084928165503	0.0234049143497478	2.106430859297992	0.7773517271402883	7.32795916689676e-11	2.439709620275325	0.0254677079196329	-0.3821665707685917	0.4076342786882246	94.64033568076852	far	V2
2	3.0	ltm	159	diff_vonmises	0.0090375599869522	0.5178140443486688	2.0205373427306865	1.1115083797654697	0.162084039849972	2.309951950058837	0.147418078381163	-0.3089638338048526	0.4563819121860157	87.33866259666758	far	V3
3	4.0	ltm	159	diff_vonmises	-0.0214019275613527	-1.226240122710228	0.0006111611045837	2007.8959042345973	7.829370690734181e-24	2010.0759002550567	-0.1516221804091628	-0.5422324246945323	0.3906102442853694	179.95231727276592	far	V4
4	5.0	ltm	159	diff_vonmises	-0.0112019147856946	-0.6418224396855002	1.947469765918947	1.0944954423349695	0.0297356730970839	2.050689662406105	0.2194383187777139	-0.3054412215276453	0.5248795403053592	96.5092347653225	far	V3ab
5	6.0	ltm	159	diff_vonmises	-0.2206265020662407	-12.64096741712993	0.337409410060553	41.36432093106979	0.2971600927561065	42.25765330485443	0.1120761079507577	-0.3209800620586316	0.4330561700093893	141.3116499797503	far	IPS0
6	7.0	ltm	159	diff_vonmises	0.3414668669944269	19.56461032233569	1.3622372957014257	81.39583667146037	1.339289564945943	81.9960199210867	0.0936224333147777	-0.1758772955014382	0.269499728816216	72.36224476476869	far	LO1
0	1.0	ltm	160	diff_vonmises	0.0888973133094633	5.0934408626844085	2.9992755357779277	0.4550837563763424	1.354424103801042e-22	3.09941927955571	-0.1952695296433955	-0.4925481083533233	0.2972785787099278	79.34248065385091	far	V1
1	2.0	ltm	160	diff_vonmises	-0.0476491886566194	-2.730097407246931	2.933734899939297	0.6932301180021448	4.2778855091192963e-16	2.162497540603012	0.1040945543576296	-0.3429034844597508	0.4469980388173805	80.24381683185473	far	V2
2	3.0	ltm	160	diff_vonmises	-0.1464444339108481	-8.390647996274112	0.8550267359958011	107.32645747048085	0.8343378260313675	108.13911954968754	0.1716512946011121	-0.2460273627129048	0.417678657314017	93.77587839871131	far	V3
3	4.0	ltm	160	diff_vonmises	-0.28900519551818	-16.558777960544887	1.093484414146097	1.0257968464921454	8.038957748575286e-14	2.657970047871744	-0.0544566426178679	-0.3816517369794117	0.3271950943615437	124.23775368345224	far	V4
4	5.0	ltm	160	diff_vonmises	-0.0054280156213773	-0.3110023862360031	1.1968290844714111	1.238397412048632	8.658919590341992e-20	2.244209413353312	0.1116115188547042	-0.31437741590115	0.4259889347558542	120.81504901311114	far	V3ab
5	6.0	ltm	160	diff_vonmises	-0.367114102261953	-21.03408865934401	0.6801129615777689	1.9399020859949532	4.949420231302622e-12	3.017528601549428	0.0644104576193963	-0.3404919833421099	0.4049024409615063	141.39875140373823	far	IPS0
6	7.0	ltm	160	diff_vonmises	0.3521903699056137	20.179021780742943	0.9407070670279	110.17036370434404	0.9223532710436207	110.98297290025806	0.1187451357623032	-0.2232085196164472	0.3419536553787505	87.82292875766296	far	LO1
0	1.0	ltm	161	diff_vonmises	0.1892367298801434	10.842465950989414	0.3241815830951378	78.68167634119133	0.3107058264591037	80.57343833986288	-0.210427815725307	-0.354037786630835	0.143609970905528	126.19927818744074	far	V1
1	2.0	ltm	161	diff_vonmises	0.3381400436393115	19.37399738490203	0.2926850636510544	91.3679241312034	0.2797838768884504	92.36596302158476	0.003988717074403	-0.2753840719303841	0.2793727890047872	142.1741592616826	far	V2
2	3.0	ltm	161	diff_vonmises	0.1812066480567078	10.382376153361838	1.644587430912985	110.21363958714107	1.6271062895959976	110.49217489138898	0.2004808170905363	-0.1364874282146519	0.3369682453051883	69.62368093990972	far	V3
3	4.0	ltm	161	diff_vonmises	0.04915134551748	2.8161646555408617	0.7727237636439368	79.95479367751524	0.7509694376471368	81.384492951114	-0.0886286699560265	-0.2859460621715186	0.197317392215492	86.72215378727893	far	V4
4	5.0	ltm	161	diff_vonmises	-0.0889587399235322	-5.096960348420338	1.4776801502248973	92.62103865211428	1.4522404331794914	93.25301806022458	0.146734695356514	-0.2048931946013734	0.3516278899578875	70.4320676220936	far	V3ab
5	6.0	ltm	161	diff_vonmises	-0.246184254581884	-14.105318770116154	0.8137775111993784	171.8344320035679	0.8004921730249883	172.8149575483536	0.1381146051580017	-0.2713027213727876	0.4094173265307894	94.53438668933453	far	IPS0
6	7.0	ltm	161	diff_vonmises	-0.003517107492218	-0.2015154153979328	1.6570245140918758	98.3820223084988	1.6367958809837455	98.88925257346668	0.1055315279452102	-0.1689669637986597	0.27449849174387	65.83515862139546	far	LO1
0	1.0	ltm	162	diff_vonmises	-0.4658227530918242	-26.689677753326148	0.3025717726642245	24.124508168477803	0.2650405910495694	24.87445884544135	0.0083469952078107	-0.2112639650778134	0.2196109602856242	141.6059553876435	far	V1
1	2.0	ltm	162	diff_vonmises	0.0870497981557298	4.98758604178902	1.5971660328456323	0.8226685526045884	8.900027397268162e-23	1.0243643326730418	0.2071488610642148	-0.1478574631464667	0.3550063242106815	107.49117083886068	far	V2
2	3.0	ltm	162	diff_vonmises	0.021128088128873	1.2105502789648808	1.6170260688792042	88.35997899078754	1.6006446810624864	88.3360734763799	0.2581160591022282	-0.079274095170942	0.3373901542731703	74.61744331567058	far	V3
3	4.0	ltm	162	diff_vonmises	-0.3379119159087791	-19.360926628752622	2.3864018678379515	1.1312962236932869	0.4063561398602953	1.855767877704472	0.2230090843923981	-0.2252515715011968	0.4482606558935949	76.41739087452207	far	V4
4	5.0	ltm	162	diff_vonmises	-0.048914598920762	-2.8026000747348343	2.251131524893311	0.563475151967781	2.175985142908761e-17	0.4510553793149204	0.2403055314161636	-0.0683283954586519	0.3086339268748156	91.62883606515098	far	V3ab
5	6.0	ltm	162	diff_vonmises	-0.4282128273141483	-24.534787738465035	1.3531060938903086	1.9785509428736836	0.4263559557284049	2.314350716757078	0.2660047470872531	-0.1805823883105793	0.4465871353978324	97.12315309759336	far	IPS0
6	7.0	ltm	162	diff_vonmises	0.1532844137695529	8.782549974132383	1.4691545726108166	215.8383821425165	1.4565110515412478	216.2073641954597	0.3240358651114263	-0.1950967072773686	0.519132572388795	74.41992800767778	far	LO1
0	1.0	ltm	163	diff_vonmises	-0.499940504635022	-28.64448092322733	0.2719669791883805	62.9114135079046	0.2592182567897515	62.91618557444578	0.141076167625334	-0.109406083952412	0.250482251577746	146.74404917507326	far	V1
1	2.0	ltm	163	diff_vonmises	-0.0393863721328042	-2.2566728935413645	2.8350261326884745	0.6607346459048741	1.1452958459623384e-14	0.4375666418667485	0.3493056439794262	-0.0681964160776189	0.4175020600570451	81.65147813077334	far	V2
2	3.0	ltm	163	diff_vonmises	-0.0078005951632216	-0.4469411805427647	1.3282075231778292	72.82570209591414	1.3079654005415804	72.63018205651471	0.3450793368453375	-0.0761580023259345	0.421237339171272	85.0024862181881	far	V3
3	4.0	ltm	163	diff_vonmises	-0.3308862694166082	-18.958386736400342	4.754624269809802	0.7709112216246158	0.0434160615914725	1.2655201618960894	0.4404992113448673	-0.1974415690738988	0.6379407804187662	61.92814409883414	far	V4
4	5.0	ltm	163	diff_vonmises	-0.1105371262507032	-6.333310813670037	0.9274929343617884	1.111838592474243	5.6713938664373465e-18	0.6659484202142105	0.2586387328912738	-0.0489393070036884	0.3075780398949623	131.56619015213963	far	V3ab
5	6.0	ltm	163	diff_vonmises	-0.5040176786661	-28.878085787548443	2.2565386085500188	0.7244474643947835	9.214210019358172e-15	0.7883856257900915	0.2763537537019573	-0.121069500551528	0.3974232542534853	91.2747777724118	far	IPS0
6	7.0	ltm	163	diff_vonmises	0.1891670683197147	10.838474637582555	1.8231212565791437	196.6371386533468	1.8081289021397196	196.79079027501652	0.4058165198408971	-0.1739448679759014	0.5797613878167986	68.28530118172466	far	LO1
0	1.0	ltm	164	diff_vonmises	0.0468222424621801	2.682716880421154	1.3314985766648897	0.5295655416033739	1.3025119686711217e-17	2.583317298127235	-0.1976444812868599	-0.3962576308877751	0.1986131496009152	115.96743224599192	far	V1
1	2.0	ltm	164	diff_vonmises	0.1254039838551394	7.185119009026204	1.21006540574845	3.4789945869616528	0.6538583992994647	4.483882810624247	0.088937483984387	-0.2540462374399079	0.342983721424295	86.99290881431594	far	V2
2	3.0	ltm	164	diff_vonmises	0.1358959700589243	7.786265537212564	1.8389460107000104	1.023575397503616	0.3946020895031575	1.5691930149117124	0.1452813717230962	-0.167516673544382	0.3127980452674783	84.7081797098759	far	V3
3	4.0	ltm	164	diff_vonmises	-0.289038380249245	-16.560679305579193	2.307732243724302	0.6346650375077623	2.1112266611155755e-18	2.022342789189125	0.0348755117602219	-0.3183344944610012	0.3532100062212231	90.45506726238904	far	V4
4	5.0	ltm	164	diff_vonmises	-0.0457070102026149	-2.6188187787712307	1.7901768668664524	1.0564374751022534	0.256606697629398	1.5018982378820622	0.2055998102578782	-0.1725358878444349	0.3781356981023131	91.1012184539002	far	V3ab
5	6.0	ltm	164	diff_vonmises	-0.3083588378644695	-17.667659985192945	0.4751864822451742	105.0650199889912	0.4612131030008581	105.50452929718642	0.1676852866775888	-0.2120364273278756	0.3797217140054645	126.61204115539876	far	IPS0
6	7.0	ltm	164	diff_vonmises	0.2061779923300498	11.813128788992517	1.1456999945188695	142.7782951933643	1.1298590182254615	143.6266009580864	0.1108667089366051	-0.2317613711455521	0.3426280800821573	78.71415624463589	far	LO1
0	1.0	ltm	165	diff_vonmises	0.1662567497158316	9.52581007428	0.2262462092026025	64.26310633160597	0.2105091796871059	66.38688667114099	-0.2362367348202241	-0.4125632335751152	0.1763264987548911	145.65956220290224	far	V1
1	2.0	ltm	165	diff_vonmises	0.1400618729501161	8.024954190739203	0.3172802435081651	49.98826490510878	0.2892803975094004	51.21294352354703	-0.0042838229446235	-0.3278157267737711	0.3235319038291475	140.81507352945673	far	V2
2	3.0	ltm	165	diff_vonmises	0.0964948202196417	5.528745943459113	1.2456490438178986	147.74990133866257	1.2313106152440958	148.23832334312198	0.2009963707248658	-0.1796579189471252	0.3806542896719911	78.93695884501486	far	V3
3	4.0	ltm	165	diff_vonmises	-0.0568945248459289	-3.2598161510739314	2.0062346092934984	0.4463140290058195	1.3700801352520225e-18	2.085436257167096	-0.1012318319928863	-0.3277346996670787	0.2265028676741923	96.8736765927963	far	V4
4	5.0	ltm	165	diff_vonmises	0.0034654146529023	0.1985536338740992	2.161914209318986	0.8612966262564481	0.3219784283132315	1.478525922884702	0.1492036396846996	-0.1803776192865067	0.3295812589712064	81.01382915827506	far	V3ab
5	6.0	ltm	165	diff_vonmises	-0.3359709727697506	-19.249718778611413	0.5595916823746029	150.0364403039617	0.5481495526582192	150.8848291197888	0.1062837864183663	-0.2570039762486029	0.3632877626669692	114.59675421821952	far	IPS0
6	7.0	ltm	165	diff_vonmises	0.2840768284782549	16.276403329265797	1.5381095103639362	66.55423418754557	1.5143197243016293	66.88195243260662	0.1326746370890426	-0.1251214352092526	0.2577960722982952	70.58434061483788	far	LO1
0	1.0	ltm	166	diff_vonmises	0.195154518340905	11.181530253842276	0.5348623707116796	152.51274832353602	0.5197944519777173	155.43212781097623	-0.2998987977417755	-0.5343297809361296	0.234430983194354	97.62206927420227	far	V1
1	2.0	ltm	166	diff_vonmises	0.0754204554646401	4.321273787078267	0.8027361776535004	87.08037154383236	0.778173069934307	88.33974463803393	0.0313189583235349	-0.291315651419243	0.3226346097427779	91.4701442967894	far	V2
2	3.0	ltm	166	diff_vonmises	0.1063379447422579	6.092715435826743	1.2291828927541328	101.86188262441974	1.2095603275945166	102.50250378823918	0.1241263165274091	-0.1900653283137092	0.3141916448411184	77.07565218137282	far	V3
3	4.0	ltm	166	diff_vonmises	-0.0926671069598448	-5.309434128486487	0.4852152193339393	92.96013452641428	0.468245431196917	94.55391593730194	-0.0900863734060948	-0.3326618019262444	0.2425754285201495	112.38598744053655	far	V4
4	5.0	ltm	166	diff_vonmises	8.481557339121165e-05	0.0048595743922985	1.069800651815015	92.37224902664384	1.038751393711466	93.31509366261386	0.21066434336376	-0.2844172847740047	0.4950816281377648	83.7199417214905	far	V3ab
5	6.0	ltm	166	diff_vonmises	-0.1685987019223903	-9.659994051537169	0.6659200762259729	150.809764381179	0.6507459354394128	151.73876485924865	0.1795278052643709	-0.294563908477123	0.4740917137414939	106.35881656386869	far	IPS0
6	7.0	ltm	166	diff_vonmises	0.416883571260808	23.8856691815856	1.1909606814682772	1.0316356426364683	5.480769518600915e-32	1.9426720428206772	0.0802207846091454	-0.2732150572169173	0.3534358418260628	119.94274792532096	far	LO1
0	1.0	ltm	167	diff_vonmises	0.2725161225376778	15.614023670678913	4.445236596023623	0.3727149746819939	5.1965993913032364e-17	2.416329429769976	-0.0811520716719231	-0.3845289853750938	0.3033769137031706	64.8534141235321	far	V1
1	2.0	ltm	167	diff_vonmises	0.0054269624810013	0.3109420457372264	0.9615717240473834	14.005367144865252	0.786128061622501	15.338388865394696	0.0670102482520054	-0.3202065176810005	0.3872167659330059	87.95764896805457	far	V2
2	3.0	ltm	167	diff_vonmises	0.016826332716025	0.9640778493111376	0.7729661239815856	156.60094035651974	0.7582627301906548	157.4963208466324	0.1749258849708823	-0.2711625849557713	0.4460884699266536	98.38136702471908	far	V3
3	4.0	ltm	167	diff_vonmises	-0.0638765338144698	-3.6598557974938086	1.2629812700871537	0.974160781835325	1.3089390510599204e-32	2.604629297098426	-0.0339289565731117	-0.3840965398540836	0.3501675832809718	118.37544431113363	far	V4
4	5.0	ltm	167	diff_vonmises	-0.0531828626830904	-3.0471535741648847	1.8983409894308343	0.7314065630932862	1.89895920378043e-13	1.4605355591536169	0.1331344354321129	-0.2242458234274309	0.3573802588595438	99.4320347387368	far	V3ab
5	6.0	ltm	167	diff_vonmises	-0.3109359061217407	-17.81531511985172	0.564043094126807	1.900061655196401	1.5213580722781825e-18	2.683721173621652	0.0645368997348068	-0.2679983588180497	0.3325352585528565	147.4723271435551	far	IPS0
6	7.0	ltm	167	diff_vonmises	0.2527785667361398	14.48314502534683	1.1274734085600506	109.87671546480324	1.1070384861243483	110.93671097754864	0.0358977904179624	-0.2573303877823161	0.2932281782002786	76.63165131045	far	LO1
0	1.0	ltm	168	diff_vonmises	0.0808301308468942	4.631225355017248	0.6276020745954392	89.1323768709984	0.6097705798256623	90.4713607129608	-0.056723695177169	-0.2779552348838567	0.2212315397066877	99.05298351756508	far	V1
1	2.0	ltm	168	diff_vonmises	0.0302488236956345	1.7331299329951773	0.8111502472078395	76.2199247871215	0.7885314114086392	76.90604374944895	0.1223893632870556	-0.2007457916222756	0.3231351549093313	95.83615941437722	far	V2
2	3.0	ltm	168	diff_vonmises	0.0806850479245559	4.62291271588784	1.3476334081372288	137.53617430114596	1.333904459483497	137.8303654515301	0.2220014879710703	-0.142302178170226	0.3643036661412964	77.51132598437056	far	V3
3	4.0	ltm	168	diff_vonmises	-0.1730519933982696	-9.915148858046637	4.721032476929764	0.4339204241746736	1.0209541241741756e-15	1.4515000018341822	0.133882780413224	-0.2309844576188258	0.3648672380320498	62.88149961320176	far	V4
4	5.0	ltm	168	diff_vonmises	-0.0474135408773515	-2.7165957840432493	2.433449016927015	0.7298993116183995	0.3378752126767322	1.212998032118754	0.1602900973275893	-0.1526239787915617	0.312914076119151	77.40934938793268	far	V3ab
5	6.0	ltm	168	diff_vonmises	-0.3391035474554876	-19.42920208711367	2.2266461328951137	0.790233620223259	1.3454995246569525e-12	1.6349703050882232	0.1746050870243823	-0.2551516050234805	0.4297566920478629	92.01658371009316	far	IPS0
6	7.0	ltm	168	diff_vonmises	0.0423631564098295	2.427230069135814	1.142981029001349	194.09383949935437	1.1282727012637157	195.14239434466427	0.1484915374256985	-0.2900086813391382	0.4385002187648368	79.03699009837578	far	LO1
0	1.0	ltm	169	diff_vonmises	-0.6944216719152675	-39.78743100316316	0.4934387653088449	1.3686134173469322	4.11452436286268e-13	2.087799883906033	0.0037271125989293	-0.2070385843117766	0.210765696910706	144.7427992453706	far	V1
1	2.0	ltm	169	diff_vonmises	0.3113439825654466	17.838696177794777	0.5339120941666001	84.29396149269378	0.5192637407582165	84.56092055135817	0.1648547565902696	-0.1596776286802379	0.3245323852705075	122.06485489300184	far	V2
2	3.0	ltm	169	diff_vonmises	0.0842947417681245	4.8297329384586725	1.7075724577921565	65.91766527384766	1.688140593428732	65.9412314957665	0.2035655197052186	-0.0727558252357818	0.2763213449410004	71.70009496602864	far	V3
3	4.0	ltm	169	diff_vonmises	-0.2770127646147365	-15.87166228367532	5.582438551582356	0.4452643568066563	4.189958697030177e-26	1.2300454803620386	0.2135818000618711	-0.1957620206433915	0.4093438207052626	57.71369038365052	far	V4
4	5.0	ltm	169	diff_vonmises	-0.2247529752708745	-12.87739691602927	5.2294529214906325	0.3009952983244845	3.4718220661610665e-20	0.4739493112228339	0.1918753957841101	-0.0754237060110639	0.2672991017951741	59.67281885334816	far	V3ab
5	6.0	ltm	169	diff_vonmises	-0.4989908760962682	-28.59007121585157	2.5861692985876994	0.7487272500404334	5.6242122605705306e-15	1.2850566873948577	0.2455671598587623	-0.2019701932927585	0.4475373531515209	85.39613203631704	far	IPS0
6	7.0	ltm	169	diff_vonmises	0.0269876360321709	1.546277643678581	1.404091388797133	332.5132165711784	1.3933966832194102	333.70706643541365	0.1401884775524706	-0.3407448037011562	0.4809332812536269	70.28399164485555	far	LO1
0	1.0	ltm	170	diff_vonmises	0.2251107294358834	12.89789471978751	0.6874580874310102	143.37993349233977	0.672837075609468	145.26676837151726	-0.1279688879213978	-0.3711683974492565	0.2431995095278587	91.29320547964798	far	V1
1	2.0	ltm	170	diff_vonmises	-0.018240920692902	-1.0451277701361386	0.8764342225822673	51.32410497181814	0.8394277600200893	52.24670930527712	0.0752439148943118	-0.2323464247589814	0.3075903396532933	89.87809663568154	far	V2
2	3.0	ltm	170	diff_vonmises	0.1466199617575398	8.400705001076565	1.4037479207826575	129.12499817944027	1.3877234327310937	129.51603817177948	0.2079680466265188	-0.1615853921620864	0.3695534387886052	74.88682405075767	far	V3
3	4.0	ltm	170	diff_vonmises	-0.0309574138051875	-1.7737291556772792	0.8422736193526158	103.1895172481852	0.8222620342909268	104.41617364683655	0.0165072375707779	-0.2784466938972016	0.2949539314679796	88.43338386231724	far	V4
4	5.0	ltm	170	diff_vonmises	-0.0175590415988383	-1.0060589759080825	1.304860861638167	106.46964266101088	1.282368674123189	107.05409511817965	0.2053526019676539	-0.2047034421693183	0.4100560441369723	76.62281757197289	far	V3ab
5	6.0	ltm	170	diff_vonmises	-0.1939402259731716	-11.111956426076205	0.8248448033809459	150.38935499832522	0.8092206186647598	151.2434922220424	0.1877963562073077	-0.2633643713544789	0.4511607275617866	95.55737307668775	far	IPS0
6	7.0	ltm	170	diff_vonmises	0.0928004726813519	5.317075421460558	1.067222360705551	96.8280123010352	1.044138725939948	97.5405827939843	0.171124513570291	-0.2190652419063052	0.3901897554765963	83.91666611619297	far	LO1
0	1.0	ltm	171	diff_vonmises	-0.2981599263622892	-17.083305400490584	0.0005020644433142	908.8201365600336	1.0409810271811735e-27	910.305850642106	-0.1638294872191465	-0.309069763210573	0.1452402759914264	177.44428882463515	far	V1
1	2.0	ltm	171	diff_vonmises	0.3289364687509638	18.846671387367117	0.1616297800116452	114.89817026106329	0.151477076847669	115.7396180410683	0.0440232012262811	-0.2845372658617258	0.3285604670880069	158.82474917786894	far	V2
2	3.0	ltm	171	diff_vonmises	0.0760708353366507	4.358537808824733	1.5701138558457677	90.73426805792094	1.5534809122247386	90.89277139064392	0.1904182127331921	-0.1013511854743978	0.2917693982075899	72.60346210160398	far	V3
3	4.0	ltm	171	diff_vonmises	-0.3151120781378367	-18.054592150894663	0.8467915481904987	44.21416892655998	0.808043869097024	45.47373766243564	-0.0573344157681585	-0.260662069548677	0.2033276537805184	84.67702565465873	far	V4
4	5.0	ltm	171	diff_vonmises	-0.0936984625800715	-5.368526452702574	4.099628857680674	0.3248971323173735	0.1689144366873486	0.8596657255028116	0.0923028291914375	-0.1318727701860052	0.2241755993774428	63.51466075232477	far	V3ab
5	6.0	ltm	171	diff_vonmises	-0.4773335750560668	-27.349199270603734	0.6623926824756496	133.8870523352916	0.6485536592733017	134.81401330507987	0.0975844478923093	-0.2543362957327009	0.3519207436250102	104.37223527217704	far	IPS0
6	7.0	ltm	171	diff_vonmises	0.1529144406618529	8.761352076527837	1.518780237250528	103.77691485601363	1.4994886791578952	104.35640455104873	0.0985925158395204	-0.1794083902505523	0.2780009060900728	68.43509733648784	far	LO1
0	1.0	ltm	172	diff_vonmises	0.1709345186855214	9.793826493780484	4.534085460473264	0.4525228592178588	7.24596019801218e-19	2.6484979406860862	-0.0491584445419338	-0.4214786115348977	0.3723201669929639	64.19693320654358	far	V1
1	2.0	ltm	172	diff_vonmises	-0.1113321896087305	-6.378864588530501	2.4005665583209423	1.2475612833731518	0.3328610046154496	2.5284795054984976	0.1717272482333744	-0.3275008226519555	0.49922807088533	76.11631469049476	far	V2
2	3.0	ltm	172	diff_vonmises	-0.0336903091022716	-1.9303125220513464	0.8408398094945239	175.1544277367494	0.8249799587870791	176.0794300648533	0.2450001463284294	-0.3010003950185158	0.5460005413469453	95.30917028354207	far	V3
3	4.0	ltm	172	diff_vonmises	-0.146345257820659	-8.384965624877667	1.7850790362502689	1.0076052356970724	5.127992016726369e-22	2.5735365618349704	0.0755486049333072	-0.3959326018819336	0.4714812068152408	102.26664520392872	far	V4
4	5.0	ltm	172	diff_vonmises	0.0041711243193353	0.2389878193222964	1.7176567000401357	1.0870380800358346	5.950928806491966e-19	1.6650824717182269	0.2462677939188531	-0.248534765411184	0.4948025593300372	104.1101365080639	far	V3ab
5	6.0	ltm	172	diff_vonmises	-0.2510067121799877	-14.381625237368294	0.8453482978906667	1.5806634446843553	6.226029460586189e-16	2.252519191883409	0.1351361466075078	-0.2674741514788807	0.4026102980863885	134.69479225245328	far	IPS0
6	7.0	ltm	172	diff_vonmises	0.274022432581637	15.700328878835942	1.244903638069556	106.37835868387582	1.2244940342439277	106.87733312733792	0.2074849410970145	-0.1841980700572421	0.3916830111542566	79.09633726380014	far	LO1
0	1.0	ltm	173	diff_vonmises	0.0646284292374025	3.7029362318630574	2.147901550297774	0.5535220868292158	3.62388339879108e-32	3.987522369615156	-0.3365493496169977	-0.630572073183821	0.2940227235668233	93.74715139236218	far	V1
1	2.0	ltm	173	diff_vonmises	0.0484480874139381	2.775870934299536	2.765490420039153	0.8825506451868116	0.1300007421917201	2.501495797739937	0.1001519239079706	-0.3663906371858461	0.4665425610938167	76.20040632825581	far	V2
2	3.0	ltm	173	diff_vonmises	-0.1524159794678995	-8.732792353863253	1.486854924323482	1.0552496580813373	2.9631908254386803e-19	2.284354074105614	0.0910809724628265	-0.340326955547961	0.4314079280107876	110.79350027010716	far	V3
3	4.0	ltm	173	diff_vonmises	-0.2288596964036474	-13.11269470457434	0.1158901066803605	12.746881459207607	4.434538988377459e-09	14.786101748752616	-0.0829070208628142	-0.5526002445761118	0.4696932237132976	172.04591735707004	far	V4
4	5.0	ltm	173	diff_vonmises	-0.0654036619358205	-3.7473537936229513	1.3283508460510935	1.61271659913589	9.677385528945852e-15	2.6359120168331214	0.2297623123810533	-0.3739511736295921	0.6037134860106455	116.07430058804168	far	V3ab
5	6.0	ltm	173	diff_vonmises	-0.1714048179317362	-9.820772655696778	0.223773227344752	6.621149267547751	3.3920058566080424e-14	7.388925242462036	0.1257332996724758	-0.3439316025115129	0.4696649021839887	166.59902427032608	far	IPS0
6	7.0	ltm	173	diff_vonmises	0.3432374484385251	19.6660571663667	1.0095999210975934	116.29838222413672	0.9906094061078008	117.3158226846736	0.071922086952668	-0.2535859142020538	0.3255080011547218	82.5670422693506	far	LO1
0	1.0	ltm	174	diff_vonmises	0.1963263747373652	11.248672679554854	0.687916360365311	140.16888293575445	0.6703905538897955	142.4016691893992	-0.1550226118798932	-0.4379078283831212	0.282885216503228	91.1545471597476	far	V1
1	2.0	ltm	174	diff_vonmises	-0.0063001427566302	-0.3609715902848308	0.813352830435244	100.52380097442663	0.7916665666003427	101.64954779904772	0.0762519891283091	-0.2788096497460675	0.3550616388743766	92.59431488755656	far	V2
2	3.0	ltm	174	diff_vonmises	0.0353662647298703	2.026337706163954	1.2223699535451469	174.08201336650686	1.2093916407818723	174.7056378010962	0.1788234473419407	-0.2034677281785448	0.3822911755204856	78.48870640289317	far	V3
3	4.0	ltm	174	diff_vonmises	-0.0484300070426936	-2.7748350053352	2.5117076488215844	0.5231648722044626	3.1434781471050823e-16	1.891715576491476	0.008098487072412	-0.2990408175582018	0.3071393046306138	86.7903954369242	far	V4
4	5.0	ltm	174	diff_vonmises	0.0066489460109147	0.380956544635759	1.5623058924530602	1.9844032081744196	0.5183603843187489	3.018520665900625	0.1258580948349874	-0.2702662858815123	0.3961243807164998	84.29744063061182	far	V3ab
5	6.0	ltm	174	diff_vonmises	-0.2156887590266178	-12.35805558063944	0.7200539409733941	54.868622450050005	0.6751578795874111	56.14201233519395	0.1131168873088963	-0.3339574980545681	0.4470743853634644	100.4781557010966	far	IPS0
6	7.0	ltm	174	diff_vonmises	0.0788937021420538	4.520276162901905	0.8309011212044546	158.27951368276058	0.8152746280195411	159.65849444094286	0.0494547927983077	-0.3242938097848018	0.3737486025831096	90.06267458731756	far	LO1
0	1.0	ltm	175	diff_vonmises	-0.0175275565978466	-1.004255018233294	3.198694332899368	0.4840525569143613	6.863163133645316e-34	2.882708504043799	-0.1300227755747629	-0.4582496018086567	0.3282268262338937	76.77899565572523	far	V1
1	2.0	ltm	175	diff_vonmises	-0.0003547967861189	-0.0203283584294213	3.2855895430897863	0.9574930182336904	0.3206648774957339	1.885667823078985	0.2570870001766812	-0.2681560497954595	0.5252430499721408	68.07074151526302	far	V2
2	3.0	ltm	175	diff_vonmises	-0.0425206584855295	-2.436254273337974	2.2058061847514088	0.7859980671134759	1.1239144428885232e-21	1.5486636610914164	0.1835857384426367	-0.2412577361839517	0.4248434746265884	92.54943015648186	far	V3
3	4.0	ltm	175	diff_vonmises	-0.353254614420443	-20.23999849981261	1.7837178816973596	1.3311924751413964	4.445101483630817e-20	2.641540514928108	0.2202439079812032	-0.4023290737677013	0.6225729817489045	102.08000341455944	far	V4
4	5.0	ltm	175	diff_vonmises	-0.0446749628173726	-2.5596868193393334	1.396432131522019	1.6920748045699034	1.7546482055252904e-16	1.885089294871196	0.4018957104780565	-0.2570284495179542	0.6589241599960107	113.78493994002906	far	V3ab
5	6.0	ltm	175	diff_vonmises	-0.2087464348363437	-11.960289704525158	0.3999321843244528	50.65345995551901	0.3661558892612682	50.77947678143151	0.2847026364641518	-0.2261430599934364	0.5108456964575883	137.55714846049426	far	IPS0
6	7.0	ltm	175	diff_vonmises	0.1893579680950441	10.849412389018926	1.1121278194670514	160.6090584730133	1.0952858798899523	161.23317078361825	0.281741974167133	-0.2375148550497172	0.5192568292168502	84.15651574687982	far	LO1
0	1.0	ltm	176	diff_vonmises	0.2148130578393223	12.307881598492813	0.242342570159219	62.07781916562208	0.2235582883177966	64.95454577314504	-0.3610744400923398	-0.5234194726066796	0.1623450325143398	138.3534281276328	far	V1
1	2.0	ltm	176	diff_vonmises	0.248535186854789	14.240017267274707	0.725542525857722	118.13015839037682	0.7083068520535788	119.49900483390869	-0.0033530016586951	-0.3036428746392925	0.3002898729805974	94.71081002900766	far	V2
2	3.0	ltm	176	diff_vonmises	0.1825226297459174	10.457776350070048	3.0154735458579904	0.4604239005806601	0.1726737666802602	1.0759697207103855	0.1004020342577609	-0.1561987002154663	0.2566007344732273	73.0084144212662	far	V3
3	4.0	ltm	176	diff_vonmises	0.0432356087383728	2.477217905387706	0.0003173418371098	1862.0952599989523	8.702744783083716e-23	1863.878768669512	-0.1898020683487402	-0.3778914529801227	0.1880893846313824	179.87835703103724	far	V4
4	5.0	ltm	176	diff_vonmises	-0.0131038259280007	-0.7507939211485427	1.7186840925871738	1.3917701493051535	0.4197204694664048	2.132023030987867	0.1605589885043545	-0.2163084782291883	0.3768674667335429	85.67569382667361	far	V3ab
5	6.0	ltm	176	diff_vonmises	-0.2742956541108465	-15.715983319331754	0.4217894521040214	119.76264579603072	0.4093093979473641	120.42632125380216	0.1225140603780481	-0.2483297340241943	0.3708437944022424	130.54784851659127	far	IPS0
6	7.0	ltm	176	diff_vonmises	0.428017522304369	24.523597585686925	0.9093700594322012	55.430554402522695	0.8833724930001937	56.06954763438795	0.0702950955605352	-0.1673555441958631	0.2376506397563984	88.69587331356291	far	LO1
0	1.0	ltm	177	diff_vonmises	-0.3851779831996473	-22.069072798700724	0.0006994015592796	971.9425011778108	6.888214734257965e-24	973.4344122793004	-0.1292361475129837	-0.3456160713681129	0.2163799238551291	175.76384503332292	far	V1
1	2.0	ltm	177	diff_vonmises	0.1481892515890738	8.490618685256257	2.6013310179134392	0.9134837209525632	0.3642619124780433	1.574132848363474	0.2020432664088629	-0.2022646384812426	0.4043079048901055	74.57401734452921	far	V2
2	3.0	ltm	177	diff_vonmises	-0.0629695526436855	-3.607889604310035	1.2876764741871916	0.8103068396547378	5.455600917545987e-23	1.183842320114762	0.1318276215789899	-0.1640338419533407	0.2958614635323306	117.49753236605618	far	V3
3	4.0	ltm	177	diff_vonmises	-0.4492986365878685	-25.74291561746702	3.193794193505504	0.7759964246972785	5.2746330188332527e-14	1.8396003828185956	0.2338123985253481	-0.2918955439504186	0.5257079424757667	76.80413830915225	far	V4
4	5.0	ltm	177	diff_vonmises	-0.1408496914459851	-8.070092865574841	1.1584098225444237	1.0968446463498691	5.610153992969746e-15	1.1589105775909907	0.2229556778073879	-0.1442818855191803	0.3672375633265682	122.14602959028664	far	V3ab
5	6.0	ltm	177	diff_vonmises	-0.4110833334695684	-23.553340035975285	0.5161380071139944	41.18488822118654	0.4877327801781947	41.22044279573839	0.2100111103073896	-0.1349917044233888	0.3450028147307784	126.21429334985704	far	IPS0
6	7.0	ltm	177	diff_vonmises	0.2559901252735377	14.66715377519894	1.333945500105106	169.00560248687796	1.3182923092922338	169.73573603697955	0.1860309278379475	-0.2346981465309241	0.4207290743688716	74.57784174081223	far	LO1
0	1.0	ltm	178	diff_vonmises	0.2579748108182004	14.780867880568737	5.501690390785528	0.345145546210015	2.272767233807192e-14	3.3811234183047025	-0.223259402356609	-0.5381172638044892	0.3148578614478802	58.14686490439652	far	V1
1	2.0	ltm	178	diff_vonmises	0.0980152303110765	5.615859024827425	2.280377852662671	1.0373276194534526	0.2664858907490278	2.7734368419047577	0.012863075409377	-0.3751984891370203	0.3880615645463973	76.89091337639806	far	V2
2	3.0	ltm	178	diff_vonmises	-0.1012702187634475	-5.802356125512105	0.5617167110231472	110.08807008846424	0.547257163456176	110.97964978423136	0.0718884496379992	-0.2472768031659864	0.3191652528039856	113.12111953710443	far	V3
3	4.0	ltm	178	diff_vonmises	-0.0233424881008756	-1.3374260515145218	0.0002030417930589	3620.059217520077	5.1515943333342906e-33	3621.948810476756	-0.1837515570464347	-0.417712686573509	0.2339611295270742	179.97375514982437	far	V4
4	5.0	ltm	178	diff_vonmises	-0.0246430999511272	-1.411945621318636	1.673463825423566	0.7786755498293283	1.917679843426312e-21	1.718852520660921	0.0868990392853641	-0.2608772546061243	0.3477762938914884	105.33418754833704	far	V3ab
5	6.0	ltm	178	diff_vonmises	-0.2033706310637833	-11.65227883686694	0.0002906409557573	3322.444080374846	2.256914815415845e-27	3323.225056261344	0.029398274312598	-0.277968287761837	0.307366562074435	178.8039115644952	far	IPS0
6	7.0	ltm	178	diff_vonmises	0.5002111002641608	28.659984910731676	0.7672755434770583	75.95774716860497	0.7456141805572392	76.94727246525744	0.0239360297209074	-0.2292024920451565	0.253138521766064	93.585073338028	far	LO1
0	1.0	ltm	179	diff_vonmises	-0.0725426027143997	-4.1563849704293725	0.8727209482911659	0.8559999970721843	1.0930716054934135e-16	2.2892168350735718	-0.092540398048276	-0.3168923690797028	0.2243519710314268	134.02747322987145	far	V1
1	2.0	ltm	179	diff_vonmises	-0.0366748206970979	-2.1013124403427548	2.2001238365604494	0.7311709460868475	1.290643579749274e-13	1.4471797102806454	0.1691457548745751	-0.2254225371381427	0.3945682920127179	92.66258450447576	far	V2
2	3.0	ltm	179	diff_vonmises	0.0481688899063254	2.759874095462758	1.1916092995924177	124.56424614886268	1.1738232692315251	124.89522535424678	0.2863936519971659	-0.1728211069391036	0.4592147589362696	83.1161299156411	far	V3
3	4.0	ltm	179	diff_vonmises	-0.2496710424361836	-14.305096998224997	3.102408312853722	0.7214191747728207	2.378199220294634e-16	1.9173370258387823	0.1764264503591783	-0.3041809423600059	0.4806073927191842	77.97833144246063	far	V4
4	5.0	ltm	179	diff_vonmises	-0.0161874541856569	-0.927472805899524	2.0409060023127346	0.7774577777950755	6.928158753917515e-19	0.90176934430106	0.2624915034242514	-0.1366688104892892	0.3991603139135406	96.08643938886578	far	V3ab
5	6.0	ltm	179	diff_vonmises	-0.3455015481780654	-19.795780525839024	0.6230086838211979	91.62802677564476	0.6048299381778895	92.0611784348401	0.2002482959311784	-0.203674035913993	0.4039223318451714	113.47407811126897	far	IPS0
6	7.0	ltm	179	diff_vonmises	0.2431820636827508	13.933305902303234	1.7774064691030722	114.84833617833505	1.758292365870851	115.03294346119532	0.2736832850523782	-0.1381345606942154	0.4118178457465937	68.3728103269705	far	LO1
0	1.0	ltm	180	diff_vonmises	-0.4827454399864397	-27.659276290408968	0.0002109682839281	3450.808738801231	2.0170062766091224e-32	3452.424927710856	-0.1413538117392363	-0.3730828749130523	0.231729063173816	173.4389993449583	far	V1
1	2.0	ltm	180	diff_vonmises	0.1154221444873941	6.613201741476868	1.548386937956947	1.2384580215408376	0.2573814335613763	2.119525371776233	0.1176395580033778	-0.238441941231582	0.3560814992349599	93.6794714200781	far	V2
2	3.0	ltm	180	diff_vonmises	-0.0640497697969386	-3.669781488149074	0.9481310691265228	81.52356640422985	0.9296685926193382	81.94383677208371	0.1480264042473891	-0.1476650433718314	0.2956914476192205	90.61441491804548	far	V3
3	4.0	ltm	180	diff_vonmises	-0.3423398279976037	-19.614627303497237	2.8592720101625098	0.5256386029472822	5.709524222909211e-22	1.6635684456838875	0.0701462389297107	-0.2636649860689353	0.333811224998646	81.26485513235818	far	V4
4	5.0	ltm	180	diff_vonmises	-0.1100420660195541	-6.304945951820422	1.337209356515884	0.7938739687165423	4.240913988430328e-18	1.4401992100054088	0.0916683700887558	-0.2070900855218702	0.2987584556106261	115.73585724027556	far	V3ab
5	6.0	ltm	180	diff_vonmises	-0.4885031852528338	-27.989170793684774	1.360038563474473	1.001208300620947	2.0301425398417054e-17	1.8114366444088896	0.1205151155716093	-0.2613706359401656	0.3818857515117749	113.9447877272574	far	IPS0
6	7.0	ltm	180	diff_vonmises	0.1864190829810549	10.68102667551352	0.9345850825731534	193.2799256166415	0.9209134860755568	194.6282202637979	0.0620194298567611	-0.3227985778504134	0.3848180077071745	84.97937341241808	far	LO1
0	1.0	ltm	181	diff_vonmises	-0.337343319762579	-19.32834846932796	0.154987870998147	50.08313321459414	0.1416299671761852	51.41820956595703	-0.129853822866556	-0.2815496435715099	0.1516958207049539	157.66529239085844	far	V1
1	2.0	ltm	181	diff_vonmises	0.3474724294160377	19.90870370269636	0.4652286520819775	109.92694334154952	0.4534115434937933	110.57513341452604	0.0868301002784086	-0.2140366532330571	0.3008667535114657	124.70298265913532	far	V2
2	3.0	ltm	181	diff_vonmises	0.1762468390582961	10.09820003056184	1.6715920390881458	99.38183174513586	1.6555291419559788	99.53769201471404	0.1977889759537774	-0.1042674986096372	0.3020564745634146	70.319341256227	far	V3
3	4.0	ltm	181	diff_vonmises	-0.20323037965715	-11.64424302319608	6.773374488516645	0.3218319582655883	3.715250914412045e-43	1.4682168406685343	0.0937837933077526	-0.2336735391841459	0.3274573324918985	52.302445769508665	far	V4
4	5.0	ltm	181	diff_vonmises	-0.1390315977288531	-7.965923768823924	2.142839143023855	1.1264796979407694	0.7743255224914996	1.5127127809179417	0.1538844536652356	-0.1374533138244723	0.2913377674897079	73.51312504620245	far	V3ab
5	6.0	ltm	181	diff_vonmises	-0.4103432009741011	-23.510933567704527	0.7806512110724314	133.94532771853935	0.7657798907475846	134.64278777014928	0.1731341611934524	-0.2266030627194926	0.3997372239129451	98.79430942823883	far	IPS0
6	7.0	ltm	181	diff_vonmises	-0.028657226344551	-1.6419381220938916	1.647041251172863	171.68321192332368	1.6299528965156351	172.59019250687314	0.0848167152628605	-0.2721735528048761	0.3569902680677366	64.13806186013753	far	LO1
0	1.0	ltm	182	diff_vonmises	-0.0666900177967892	-3.8210565554083744	0.2968824792278071	107.00599097600238	0.2871837029174219	108.9543397726442	-0.2195924618579035	-0.3661604984558426	0.1465680365979391	130.95706670426122	far	V1
1	2.0	ltm	182	diff_vonmises	0.3317055734126994	19.00532939751457	0.7424856532811345	120.64191192794162	0.7289919291917003	121.53417822384772	0.0518354201046022	-0.2197229753355838	0.2715583954401861	96.54203317562218	far	V2
2	3.0	ltm	182	diff_vonmises	0.2295778668807362	13.153842841882428	1.448876238485798	44.23868781858303	1.413315584713126	44.60629351654409	0.1254700389219074	-0.1305031560987481	0.2559731950206556	72.52133962367631	far	V3
3	4.0	ltm	182	diff_vonmises	-0.1581179146677342	-9.059489175870866	3.000173695238377	0.3502046394619383	4.2091847996546453e-19	1.6371059731958166	-0.0311770979892115	-0.2599851363660796	0.2288080383768681	79.32721587811633	far	V4
4	5.0	ltm	182	diff_vonmises	-0.096933584278403	-5.553885272228165	1.266154523104293	82.85033109789362	1.2392374281325498	83.53830513366482	0.1427488700247678	-0.208216274181785	0.3509651442065529	76.2035852587826	far	V3ab
5	6.0	ltm	182	diff_vonmises	-0.3289689240992831	-18.84853094184844	0.7109135049596592	148.95392133086355	0.6976962654007003	149.73920029725235	0.1522050940207009	-0.2432513714817687	0.3954564655024697	102.70619418735797	far	IPS0
6	7.0	ltm	182	diff_vonmises	-0.1395935393220655	-7.998120650447857	1.2082700046852672	188.230452666874	1.1927861666126176	189.73105416663535	-0.0285979600753591	-0.350726426269258	0.3221284661938988	71.52831412969763	far	LO1
0	1.0	ltm	183	diff_vonmises	-0.0156113848389085	-0.8944664636239824	2.7620936574953987	0.4382879526442195	1.2539675857308896e-22	2.7967526989655034	-0.1713549028020919	-0.4440249394278385	0.2726700366257465	82.73696469135348	far	V1
1	2.0	ltm	183	diff_vonmises	-0.0238969311365677	-1.3691932974400958	3.5047845038992174	0.6589600050418162	0.1156608555538161	1.5908752519528	0.1877473906901849	-0.2396421136354182	0.4273895043256032	69.63534966542468	far	V2
2	3.0	ltm	183	diff_vonmises	0.0213711171489553	1.2244748161148005	1.9499281537183817	1.1582006988947249	0.5173483440374778	1.6611628638102651	0.1731289875968612	-0.1665995954367133	0.3397285830335745	80.55645393359771	far	V3
3	4.0	ltm	183	diff_vonmises	-0.3434024653186216	-19.675511937144645	0.7204937047405467	138.77840449283005	0.7034293665960609	140.02077833257633	0.0972457120135104	-0.3185385782731416	0.415784290286652	99.02295669824744	far	V4
4	5.0	ltm	183	diff_vonmises	0.0147837657779401	0.847047384385908	2.060215645166709	1.0340326528690025	1.1326309271662304e-15	1.391398965807357	0.3216281361060319	-0.2126296892659729	0.5342578253720048	95.65411795271535	far	V3ab
5	6.0	ltm	183	diff_vonmises	-0.2525962484298104	-14.472698955866182	0.5967570422963293	153.1271277098139	0.5840672184618655	153.53379187191075	0.2606415050916055	-0.2350836778593255	0.495725182950931	116.55258129870091	far	IPS0
6	7.0	ltm	183	diff_vonmises	0.2062653717857451	11.818135263020006	0.9676797103144108	125.87325349082576	0.9492387947754836	126.41872518775205	0.2594035301935662	-0.2164103416589888	0.4758138718525551	90.70225828749832	far	LO1
0	1.0	ltm	184	diff_vonmises	0.2627005312524318	15.051631716608926	0.8916480527813696	92.90566374564052	0.8614370259890454	94.76380896250436	-0.0508981125360854	-0.3978255792547625	0.346927466718677	83.58269908274349	far	V1
1	2.0	ltm	184	diff_vonmises	-0.1351438948999698	-7.743174804727844	1.1900798898051728	152.02244661676912	1.172161844954041	152.9953753910887	0.1406883188324528	-0.2719302313850349	0.4126185502174877	77.47205542301526	far	V2
2	3.0	ltm	184	diff_vonmises	0.1201158823490357	6.882133111089687	1.1844478659933324	178.1659524871751	1.1710830015623286	178.74915963847153	0.2232827805152908	-0.2082145303313609	0.4314973108466517	80.80380238231709	far	V3
3	4.0	ltm	184	diff_vonmises	-0.0252375628846451	-1.4460058384861805	1.86675930035563	1.0779254150740278	0.2348145212037275	2.2876772352978967	0.0791239392231939	-0.2879093177265732	0.3670332569497672	86.3278286341085	far	V4
4	5.0	ltm	184	diff_vonmises	0.0291339208529431	1.6692507055418229	1.1277944156990762	105.05770976435946	1.104691542101819	105.70858597896776	0.2182609794345964	-0.221525704870837	0.4397866843054334	82.65169679477594	far	V3ab
5	6.0	ltm	184	diff_vonmises	-0.1712107971760518	-9.809656085258124	0.7541757669706539	85.71311322010105	0.7280243600108928	86.58115161171902	0.1761730882570447	-0.2681986681817143	0.444371756438759	100.20479000498209	far	IPS0
6	7.0	ltm	184	diff_vonmises	0.0441546387968904	2.529874448986424	0.8602667844217686	115.04837640638073	0.8383303262879078	116.09466353416174	0.1561940003151463	-0.2908493696056755	0.4470433699208218	92.25628757992088	far	LO1
0	1.0	ltm	185	diff_vonmises	-0.2424578877053775	-13.891813675174983	0.0641492302532076	46.57063814362381	0.0534264233933682	47.83735798203977	-0.13077527524604	-0.2680542839981141	0.1372790087520741	171.23539558326183	far	V1
1	2.0	ltm	185	diff_vonmises	0.3870867997816777	22.178439932715648	0.4618711460129606	89.76007065116329	0.4478906838279808	90.44403894239544	0.0706310765397617	-0.2133159925235599	0.2839470690633217	124.40415584871934	far	V2
2	3.0	ltm	185	diff_vonmises	0.2142455825998982	12.275367662295634	1.560041086465724	101.38417068326866	1.5459247672954195	101.50780507110842	0.1930180622479724	-0.0934892844162078	0.2865073466641803	73.33621381961592	far	V3
3	4.0	ltm	185	diff_vonmises	-0.2254357388449512	-12.916516387229134	13.530514376148446	0.2313893861989449	1.7015282490453867e-31	1.3696360578517626	0.118318847035091	-0.2179843488434104	0.3363031958785015	36.843622626158975	far	V4
4	5.0	ltm	185	diff_vonmises	-0.1064334734327818	-6.098188826616176	1.666051214954983	2.0936966203989438	1.0233237830851434	2.424989978339073	0.1273014367986777	-0.1190158486590038	0.2463172854576816	75.66960055888012	far	V3ab
5	6.0	ltm	185	diff_vonmises	-0.4494113319940517	-25.749372588611827	0.7390634771950847	131.16380739030504	0.7261214667359902	131.77513498715277	0.1469193469045251	-0.1998665730423816	0.3467859199469068	101.4556046573483	far	IPS0
6	7.0	ltm	185	diff_vonmises	0.054471866607916	3.1210080588331914	1.6220007418194122	140.35965581439973	1.6043609505463277	141.0818893335596	0.0968140875310581	-0.2230162721675626	0.3198303596986207	65.44276131208153	far	LO1
0	1.0	ltm	186	diff_vonmises	-0.0784500809243877	-4.494858539427184	1.3511644061824537	0.6717464992780763	2.517763895299197e-15	2.083760541251616	-0.0584393477860575	-0.3133210096949231	0.2548816619088656	115.28760902857158	far	V1
1	2.0	ltm	186	diff_vonmises	-0.0851035299679636	-4.876073088829436	2.9826049866311286	0.6862476583375114	0.0106673301451177	1.265841725792049	0.2443520736282259	-0.1981718927325858	0.4425239663608117	79.12933690139121	far	V2
2	3.0	ltm	186	diff_vonmises	0.0581503863568355	3.331771715301797	1.254998113449776	101.49100382250074	1.2307602862369211	101.81469539549396	0.3268277371482497	-0.1843378954827592	0.511165632631009	81.39847485400676	far	V3
3	4.0	ltm	186	diff_vonmises	-0.2423822406043853	-13.887479415555733	2.8476168688672483	0.9352751426334824	1.7064192355398648e-11	2.0276749766100224	0.2718349715364149	-0.3207156272160607	0.5925505987524755	81.44942552070556	far	V4
4	5.0	ltm	186	diff_vonmises	-0.0130124729814272	-0.7455597828637958	1.9879733804763065	0.992829873110112	5.755928386568141e-15	0.8941669593847422	0.3680009820059361	-0.1327364806941101	0.5007374627000463	97.29949734960132	far	V3ab
5	6.0	ltm	186	diff_vonmises	-0.2870459969210546	-16.446524149701652	0.6938605116614472	96.42269418954876	0.6749257538807271	96.68905779820072	0.2731851735936494	-0.1924477107324547	0.4656328843261041	109.90022309836162	far	IPS0
6	7.0	ltm	186	diff_vonmises	0.2237036079822382	12.817272599231323	1.887272726657693	108.78992315197016	1.8655706238890288	108.80818078231216	0.3701615095544071	-0.1270152934675756	0.4971768030219827	68.31088701228455	far	LO1
0	1.0	ltm	187	diff_vonmises	-0.5096381009238866	-29.200112262001003	0.0003133503283511	2722.8634569036285	7.569968457634212e-32	2724.6469110811927	-0.1480431258812018	-0.4196266955825649	0.2715835697013631	172.6983779233576	far	V1
1	2.0	ltm	187	diff_vonmises	0.0720763653918932	4.12967153959827	0.6256554544868865	52.42028594615406	0.5890324989639029	53.34539628511477	0.1198531862558844	-0.2720353090438614	0.3918884952997459	109.38847512758768	far	V2
2	3.0	ltm	187	diff_vonmises	-0.1007873627625495	-5.77469051454808	1.1677414046876469	48.74926975229259	1.1257106589209234	49.28229600256712	0.1865977257951563	-0.1842021928350226	0.3707999186301789	81.63987845820213	far	V3
3	4.0	ltm	187	diff_vonmises	-0.2736273273796648	-15.67769101829927	1.956325416056495	0.7056238835760318	1.2655605315480166e-18	1.9205810009758515	0.0535096906119928	-0.2984904310900174	0.3520001217020102	97.92842012845122	far	V4
4	5.0	ltm	187	diff_vonmises	-0.0923363815249093	-5.290484956887053	1.359653497485286	0.8650907063114637	2.236578730247148e-15	1.8852029192840525	0.0531291281683085	-0.2767575337620852	0.3298866619303938	114.9868326750006	far	V3ab
5	6.0	ltm	187	diff_vonmises	-0.4155810672215472	-23.81104119733721	1.804702846288244	0.9606270007544684	3.446753110101468e-23	2.311599718698037	0.0977191145111572	-0.3552988610113451	0.4530179755225024	101.43807301809343	far	IPS0
6	7.0	ltm	187	diff_vonmises	0.087307911704503	5.0023748587688655	0.9248286780507224	261.33380371109536	0.9131326660836444	263.0352035494817	0.028240533121675	-0.3903358886769865	0.4185764217986616	84.09841261062272	far	LO1
0	1.0	ltm	188	diff_vonmises	0.2344792672690849	13.434672397838591	3.5445884641441667	0.3532730543536552	5.856944826937617e-22	3.201057369052959	-0.2553545314381621	-0.5092521115373497	0.2538975800991876	72.84147578858995	far	V1
1	2.0	ltm	188	diff_vonmises	0.104061698944589	5.962296158485927	1.546333541024688	1.872154950287542	0.4663526573837487	3.294155852443258	0.033895502788712	-0.32377848361443	0.357673986403142	83.19445654453563	far	V2
2	3.0	ltm	188	diff_vonmises	0.0774612660500805	4.438203620409625	0.8948912303870765	10.434616555844682	0.7297920236384013	11.245001920449514	0.0935682865997042	-0.2157242558065559	0.3092925424062602	93.63378142993152	far	V3
3	4.0	ltm	188	diff_vonmises	-0.0680193459772931	-3.8972214497390527	0.3119298331187501	2.7646071764376345	1.839783858906573e-18	4.532760754646633	-0.1347031979979357	-0.4070104411176996	0.2723072431197638	162.24723959524607	far	V4
4	5.0	ltm	188	diff_vonmises	-0.0034198732638694	-0.1959443044893473	2.0405195177760533	0.9491483946894111	0.1304360055490883	1.755756496579081	0.1785931236048038	-0.238553963525921	0.4171470871307248	89.21358135755861	far	V3ab
5	6.0	ltm	188	diff_vonmises	-0.2080698487160032	-11.921524175352518	0.2827946343215908	65.69898392298379	0.2617514069698654	66.3740892660313	0.1081192385598601	-0.2680203074926375	0.3761395460524976	146.98245647664726	far	IPS0
6	7.0	ltm	188	diff_vonmises	0.3570597647583482	20.45801755458736	0.8087351085351622	39.9717360784847	0.7660236674865792	40.885515593687416	0.0544751950801796	-0.2237737415438156	0.2782489366239953	93.21929170916766	far	LO1
0	1.0	ltm	189	diff_vonmises	-0.3601900680087868	-20.637370719433576	0.0002822663039514	2739.093448710912	1.6570850915259872e-35	2741.78536597392	-0.3053744750599776	-0.5514720373254818	0.2460975622655041	176.30855836590075	far	V1
1	2.0	ltm	189	diff_vonmises	0.1401752757123395	8.03145169039973	1.8406155950645475	1.1661344341687951	0.2088426819878391	2.4392077743453986	0.0988497360453575	-0.3099075558465322	0.4087572918918897	88.16260297048396	far	V2
2	3.0	ltm	189	diff_vonmises	-0.1519784538082155	-8.707723980134682	1.8775659674704843	0.6658468898177233	1.5744529593959397e-19	1.451695661331016	0.099548540369477	-0.2233091559674387	0.3228576963369157	99.9107478513599	far	V3
3	4.0	ltm	189	diff_vonmises	-0.4309161173687926	-24.68967484939585	1.0151250812721688	1.317892914541252	5.124942333582885e-11	2.930786541352052	-0.0123497530615065	-0.4068229243318226	0.394473171270316	126.54504360416465	far	V4
4	5.0	ltm	189	diff_vonmises	-0.130695399209661	-7.488294776491012	0.5000019922067409	26.21924885973452	0.4270712231758179	27.14596413853004	0.1390675049205549	-0.3145287395971121	0.4535962445176671	125.07810631038524	far	V3ab
5	6.0	ltm	189	diff_vonmises	-0.3607354562302218	-20.66861916271795	0.3236469561950942	72.60595283789165	0.3008814490918863	73.43641679069135	0.1221473497191603	-0.3125378111638479	0.4346851608830082	141.2102422329368	far	IPS0
6	7.0	ltm	189	diff_vonmises	0.2719632036984071	15.582343754775428	0.9740325898441132	193.61081556315784	0.9609766011202172	194.98244175252563	0.0208627138353847	-0.3160661518450816	0.3369288656804663	81.80000677834198	far	LO1
0	1.0	ltm	190	diff_vonmises	-0.0517376163326516	-2.964347057928057	0.1345681112076784	39.9110204002209	0.1126230821093023	43.36289918708869	-0.4654905596757137	-0.6196027209045898	0.154112161228876	159.90860973475284	far	V1
1	2.0	ltm	190	diff_vonmises	0.3181038202557369	18.226006347641874	0.5261186697651922	154.96631566399412	0.5138604372164489	156.54716304563783	-0.0380531506883983	-0.3526362628236192	0.3145831121352209	110.73925720416784	far	V2
2	3.0	ltm	190	diff_vonmises	0.0005107409997717	0.0292633037112145	1.2183213305180196	82.52384510219353	1.1982809516160955	83.15504786121959	0.0660030225314152	-0.1695931448865568	0.235596167417972	75.64640283438459	far	V3
3	4.0	ltm	190	diff_vonmises	-0.1089942589249619	-6.244911027556424	0.0003895756541676	912.04503355985	7.028782130715738e-30	913.8844936825192	-0.2362047522411785	-0.3493025753077745	0.1130978230665959	179.63833477680106	far	V4
4	5.0	ltm	190	diff_vonmises	-0.0309489212117126	-1.7732425659140445	2.0501490156481315	1.0836947503329342	0.2949547467787601	2.6147834330604933	0.0205133903352263	-0.3359769589925796	0.356490349327806	79.53546361925706	far	V3ab
5	6.0	ltm	190	diff_vonmises	-0.3224701389123958	-18.476177978677654	0.50336092553546	169.71914131079885	0.4909060753020484	171.30407226212387	0.0065157655853624	-0.3844952039041232	0.3910109694894856	115.77935802758095	far	IPS0
6	7.0	ltm	190	diff_vonmises	1.0375893385893615	59.44948996894098	0.0001944789507285	4490.906067497413	4.321186498925847e-31	4492.180815999213	-0.0638762351859441	-0.3418753003415986	0.2779990651556545	150.63657466708705	far	LO1
0	1.0	ltm	191	diff_vonmises	-0.3168484390102873	-18.15407830059773	0.6997128740400115	0.9961639799915925	2.537354424948436e-14	2.532467614591189	-0.1196433988341575	-0.3331258641260412	0.2134824652918837	140.9115555569698	far	V1
1	2.0	ltm	191	diff_vonmises	0.0533836270563294	3.058656525428068	2.7424487640127087	0.591480907788585	4.938192065969309e-14	1.1965506417406335	0.177491284973375	-0.1889104253011973	0.3664017102745724	83.03470891914	far	V2
2	3.0	ltm	191	diff_vonmises	0.0402086111419294	2.303783718515254	1.2858396628581743	45.18515678781991	1.2523622612621044	45.4164830483525	0.1864591943091973	-0.1156640679940652	0.3021232623032626	79.95045616083496	far	V3
3	4.0	ltm	191	diff_vonmises	-0.3845069673742348	-22.030626423918093	1.2368101919455938	3.537480413295532	0.628073510473382	4.523165204702451	0.1399577150095481	-0.2680597146930141	0.4080174297025622	88.4945069419445	far	V4
4	5.0	ltm	191	diff_vonmises	-0.0333657914018272	-1.9117190274385945	2.104598274951367	0.737541594259365	2.180791871517813e-15	0.8859401690839757	0.25136178143226	-0.1351718723311087	0.3865336537633688	94.67932884951767	far	V3ab
5	6.0	ltm	191	diff_vonmises	-0.3797370307641805	-21.75732918761705	0.6968504598531728	118.1061816658091	0.6816335807113859	118.44763213103415	0.2464069368099544	-0.1943240519774711	0.4407309887874255	108.59082334855717	far	IPS0
6	7.0	ltm	191	diff_vonmises	0.1806852136035148	10.35250015990117	1.2077237609088125	163.59095775185122	1.1922635944492563	164.17042999765278	0.2482937533812119	-0.2159430192578781	0.4642367726390901	80.39125147066682	far	LO1
0	1.0	ltm	192	diff_vonmises	0.2309746935718318	13.23387511599343	0.4858799397267781	169.1738935320754	0.4726352911498256	172.25507854450788	-0.3271410480821899	-0.5608020026681686	0.2336609545859787	101.79980211303968	far	V1
1	2.0	ltm	192	diff_vonmises	0.0872215439393423	4.997426350339181	0.518039426299269	137.32465233541225	0.5042362082459925	138.85332315574715	-0.0235127155862855	-0.3501085254851137	0.3265958098988282	112.56561737712886	far	V2
2	3.0	ltm	192	diff_vonmises	0.0505434322603515	2.8959253506235125	1.2604599404041017	165.38766804270253	1.2448991328493786	166.23100409554516	0.1448097624757025	-0.2458836751222577	0.3906934375979602	75.6045214096894	far	V3
3	4.0	ltm	192	diff_vonmises	0.2345765683804746	13.440247340863154	2.5319894736144963	0.4086588074284082	3.1051762885182866e-33	2.2952510478433834	-0.1226669322168318	-0.3637667885763553	0.2410998563595235	86.4122326369937	far	V4
4	5.0	ltm	192	diff_vonmises	0.007483451375301	0.4287701799961217	1.019062929596313	78.6596277692976	0.9801332351261178	80.0342972384243	0.1146950474398345	-0.3483634156126722	0.4630584630525067	82.99796615780679	far	V3ab
5	6.0	ltm	192	diff_vonmises	-0.1330703643995101	-7.6243702583598525	0.7207414637573563	124.150166267852	0.6985846861890547	125.6822401333839	0.0889410483262764	-0.3794552997496918	0.4683963480759683	98.40211182777172	far	IPS0
6	7.0	ltm	192	diff_vonmises	1.147653788255676	65.75571840925089	0.0001563454000542	5947.598516706302	1.3285195864852855e-32	5948.604494952299	-0.012107025641626	-0.3080942266012698	0.2959872009596438	144.7584510596549	far	LO1
0	1.0	ltm	193	diff_vonmises	0.0852988484736462	4.887264014865854	2.7515840650209067	0.4337266383461902	1.8443438795319503e-34	2.718914443242835	-0.1624122955968203	-0.4316274348647287	0.2692151392679084	82.89329363699869	far	V1
1	2.0	ltm	193	diff_vonmises	0.0572487953648962	3.280114356616663	2.1668823349898045	1.252531343503079	0.3913258630121281	2.361377513838604	0.1429520096198148	-0.2854177194360867	0.4283697290559015	77.79017770687716	far	V2
2	3.0	ltm	193	diff_vonmises	-0.0239178057362017	-1.370389323898152	1.864603295095068	0.8010782919214575	0.0429669449128669	1.5558113470756063	0.1376931198800522	-0.2275810239606172	0.3652741438406694	97.57629586822682	far	V3
3	4.0	ltm	193	diff_vonmises	-0.3120965926696096	-17.88181756038222	1.6419306328140175	0.9958192515800844	5.326003942758911e-20	2.434545380648031	0.0682233373500871	-0.3703889500842258	0.4386122874343129	105.96452996790914	far	V4
4	5.0	ltm	193	diff_vonmises	-0.0752081107657317	-4.30910733202884	1.5424614526284908	1.1118532066430895	6.72681411352808e-14	1.6883452265994845	0.2211051376789595	-0.2463065621185711	0.4674116997975306	109.13910788978134	far	V3ab
5	6.0	ltm	193	diff_vonmises	-0.2691290049519407	-15.419956128301637	0.6703677825587337	2.0194581070918507	1.4971495012843036e-10	2.520407442709423	0.1621101585225176	-0.2537550546185644	0.415865213141082	142.64522796867408	far	IPS0
6	7.0	ltm	193	diff_vonmises	0.2071943904745175	11.871364112975442	0.9921898555645056	169.86626912304433	0.977337566169822	170.97846385721562	0.1025976636362244	-0.2847753355503677	0.3873729991865922	83.91283030848498	far	LO1
0	1.0	ltm	194	diff_vonmises	0.082855730876985	4.747283687723022	2.517641134162364	0.3925934928495269	3.755526555805088e-19	1.7635177198815444	-0.0483414978465875	-0.2791613230113263	0.2308198251647387	86.68383908184555	far	V1
1	2.0	ltm	194	diff_vonmises	-0.048313175219902	-2.7681410349764213	2.7377777173390903	0.6515723809549658	0.1334791970136344	1.3213215655907065	0.1656423965647953	-0.1897595204951444	0.3554019170599398	77.93559738558795	far	V2
2	3.0	ltm	194	diff_vonmises	0.0607066899119896	3.4782371201664164	1.2641850451536245	114.99435859583308	1.2492436502484985	115.23051670565891	0.2228845328249633	-0.1291164907999551	0.3520010236249185	80.77106150002814	far	V3
3	4.0	ltm	194	diff_vonmises	-0.259896824101824	-14.890991129888448	3.305187907682064	0.5837200287543616	0.100067586344921	1.565100646953055	0.1292182605305248	-0.2359021532588232	0.365120413789348	71.64102328961604	far	V4
4	5.0	ltm	194	diff_vonmises	0.0031733003494983	0.1818167171536461	2.7950517466654823	0.5278768568093134	1.432276441987427e-12	0.7755867531734437	0.208545415794858	-0.1221985899416937	0.3307440057365518	82.24080564586706	far	V3ab
5	6.0	ltm	194	diff_vonmises	-0.3520335818546453	-20.170038487144375	0.6987355163752893	63.58354784790109	0.6710792332731745	64.12590787826595	0.1835785327253098	-0.2075150735793958	0.3910936063047057	106.36448073262795	far	IPS0
6	7.0	ltm	194	diff_vonmises	0.1787261630418067	10.24025483086256	1.1543915827415556	122.83568554272064	1.1355085880277025	123.34713376154092	0.2440040878089888	-0.1989097949477578	0.4429138827567467	82.74603418617698	far	LO1
0	1.0	ltm	195	diff_vonmises	-0.2853926597205262	-16.351794905999398	0.2567076985902508	2.4948599658949404	9.96550649090175e-16	4.975361635574831	-0.286930204890537	-0.4896801247289059	0.2027499198383689	163.65587480491052	far	V1
1	2.0	ltm	195	diff_vonmises	0.1909141604358886	10.9385756422599	0.6274966573964217	151.24972076420678	0.6148789414725084	152.43285238304492	0.0443870858141366	-0.2899607752386028	0.3343478610527395	104.62020278546868	far	V2
2	3.0	ltm	195	diff_vonmises	0.0038717063866182	0.2218324354670707	1.1703561609480817	55.18416302546021	1.138387133942525	55.76240591780474	0.1153748027116456	-0.1710655291791196	0.2864403318907653	79.43971228304673	far	V3
3	4.0	ltm	195	diff_vonmises	-0.2756332292745316	-15.792620730992434	0.4380835238909022	45.815573983716	0.4073704743393657	47.27514726080771	-0.0756864779560686	-0.3177876113045554	0.2421011333484868	120.60631602521988	far	V4
4	5.0	ltm	195	diff_vonmises	-0.0584269778591904	-3.347619241035916	2.374081214636529	0.7131634496120381	0.1015686346058178	1.8467000395192192	0.0831795844462129	-0.2670625555299751	0.3502421399761881	83.09029054185882	far	V3ab
5	6.0	ltm	195	diff_vonmises	-0.3554370263306874	-20.365041491428705	0.552067738976126	129.62553960581369	0.5358564189508366	130.8829552873693	0.0765071350534185	-0.337043331236341	0.4135504662897595	113.44276344064107	far	IPS0
6	7.0	ltm	195	diff_vonmises	0.143336258090593	8.212562639788882	0.8148609385483744	192.9839645426524	0.8026576335412579	194.57874139906957	-0.0353454648863831	-0.3416779258109841	0.306332460924601	87.55464439401482	far	LO1
0	1.0	ltm	196	diff_vonmises	0.2571902358922084	14.735915048597608	0.7656288191576226	231.84423131135085	0.7501465986554464	234.89731582038107	-0.2126723963676795	-0.6028656687825844	0.3901932724149048	86.06565738985492	far	V1
1	2.0	ltm	196	diff_vonmises	-0.0632142007643173	-3.621906909088044	0.896706414727023	151.3386673055056	0.8787246586916441	152.7869605626086	0.0570438594614586	-0.3426355820839255	0.3996794415453841	86.69807363725201	far	V2
2	3.0	ltm	196	diff_vonmises	0.0366049261206431	2.097307776101038	1.1751033472393988	167.42970481297434	1.1578423740256438	168.4653315152519	0.1518725725990464	-0.2894170308511548	0.4412896034502012	78.02622681073973	far	V3
3	4.0	ltm	196	diff_vonmises	0.1714706388272661	9.824543915214417	2.517654339945844	0.6000134883338821	6.180292891652942e-14	2.299632647600881	-0.0109131337054151	-0.3636883097932991	0.3527751760878839	86.66897046065023	far	V4
4	5.0	ltm	196	diff_vonmises	0.0306011200086148	1.7533150248669709	0.97566696596636	181.604554672567	0.9556248099559536	183.33094399423285	0.1150227898136933	-0.4265425378914464	0.5415653277051398	83.96484223284497	far	V3ab
5	6.0	ltm	196	diff_vonmises	-0.020409854313686	-1.169398512651087	1.081175682508141	7.406998074180143	0.6445197106163322	9.245030455018082	0.1112169874476869	-0.4474510506177666	0.5586680380654535	89.41512262152756	far	IPS0
6	7.0	ltm	196	diff_vonmises	-0.1007790826070736	-5.774216096585601	0.7316964496153034	149.4416063666964	0.7133235071046514	151.52265948581376	-0.0736902374823103	-0.4346537960289254	0.3609635585466151	91.8290551276432	far	LO1
0	1.0	ltm	197	diff_vonmises	0.2251107528130857	12.897896059202536	0.6875845965892844	140.93760408066294	0.6727118901751841	142.82443896960655	-0.1279689375176715	-0.3711683447887637	0.2431994072710921	91.29320285106532	far	V1
1	2.0	ltm	197	diff_vonmises	-0.0182413918897118	-1.0451547677246569	0.8766112257882599	50.8400425962165	0.8392555109343489	51.76264692625751	0.0752440197117678	-0.2323463677812558	0.3075903874930237	89.87804277735594	far	V2
2	3.0	ltm	197	diff_vonmises	0.1466201513305367	8.400715862809198	1.403546681444216	132.47128063192548	1.3879263744734625	132.86232046817946	0.2079681844694079	-0.1615854717771032	0.3695536562465111	74.88679512544832	far	V3
3	4.0	ltm	197	diff_vonmises	-0.0309577809076977	-1.7737501891017613	0.8430094443491224	96.14040794228544	0.821539774072304	97.36706429087134	0.0165073705345371	-0.2784464913478324	0.2949538618823695	88.43321321368808	far	V4
4	5.0	ltm	197	diff_vonmises	-0.0175591210555869	-1.006063528444431	1.3054418498686238	101.24908712635376	1.2817932366861229	101.83353969447612	0.2053525846573052	-0.2047032438080513	0.4100558284653566	76.62277440289682	far	V3ab
5	6.0	ltm	197	diff_vonmises	-0.1939403182871527	-11.11196171527771	0.8242047482767799	163.77868078928356	0.8098545921476673	164.63281808672502	0.1877961056294808	-0.2633644505346684	0.4511605561641492	95.55745099119018	far	IPS0
6	7.0	ltm	197	diff_vonmises	0.0928000917071037	5.317053593244033	1.0666665069666497	101.71988821546928	1.0446891576412332	102.43245875967996	0.1711245898465918	-0.2190654784516521	0.390190068298244	83.91670867583346	far	LO1
0	1.0	ltm	198	diff_vonmises	-0.0642516954130868	-3.681350973729944	0.3192868288900618	97.95178715180778	0.3075923190920603	100.09310698757491	-0.2470471125894811	-0.3949162057641633	0.1478690931746822	125.48282205329254	far	V1
1	2.0	ltm	198	diff_vonmises	0.3452651498328655	19.782235898375195	0.3327310268372312	127.50929869295832	0.3227954122979469	128.44653755780604	0.0276693460022592	-0.2695876592789279	0.2972570052811871	137.58591571147298	far	V2
2	3.0	ltm	198	diff_vonmises	0.0820401134432573	4.700552251073136	1.9027676191908	98.86617008486192	1.8821039895663616	99.16714845565907	0.1771892800119658	-0.1428645672403288	0.3200538472522947	63.8417655031364	far	V3
3	4.0	ltm	198	diff_vonmises	0.028329610814016	1.6231671348912935	0.797487130725811	84.30302829691186	0.7765369282673956	85.65113013061358	-0.0660255240486797	-0.2761166804675419	0.2100911564188621	86.59149352313514	far	V4
4	5.0	ltm	198	diff_vonmises	-0.1624665587866634	-9.308648130489894	1.5692772840779114	76.62383341149837	1.5292805423377234	77.5065113212712	0.1436999849489595	-0.2745170785692679	0.4182170635182274	67.36505451609261	far	V3ab
5	6.0	ltm	198	diff_vonmises	-0.1759356132105985	-10.080368103013388	0.9667404888308604	209.3280369269253	0.9516170975294356	210.6162812946964	0.172416996695091	-0.3480197546196883	0.5204367513147794	86.1981276791822	far	IPS0
6	7.0	ltm	198	diff_vonmises	-0.2275595948468071	-13.038204372429009	1.5518468486903003	149.35978667236574	1.5329849210739732	150.31811351482588	0.067825734172672	-0.2730206575974208	0.3408463917700928	65.70601857676809	far	LO1
0	1.0	ltm	199	diff_vonmises	0.51218999049957	29.346324764471092	0.0004996781872693	1171.289917129386	1.8111448577681664e-31	1173.997866970084	-0.3378253723450655	-0.5241185628537721	0.1862931905087066	172.11948164003175	far	V1
1	2.0	ltm	199	diff_vonmises	0.0814497835627318	4.66672884039856	0.177375975415706	59.743133503595416	0.1562742401213253	61.28248317730311	-0.0688407321531876	-0.3909309147350335	0.3220901825818458	158.61964110029527	far	V2
2	3.0	ltm	199	diff_vonmises	0.1569894369544398	8.994832165624523	1.3328377108934446	158.5496089655691	1.315898215764985	159.30430225948797	0.1839758217041947	-0.2399275306629746	0.4239033523671693	74.48642553588809	far	V3
3	4.0	ltm	199	diff_vonmises	0.45211073365574	25.904036911037167	1.699798290470187	0.4892771769952785	4.792489032388132e-35	2.630335326719716	-0.1899627862757885	-0.4109963518954328	0.2210335656196443	104.04407358223028	far	V4
4	5.0	ltm	199	diff_vonmises	-0.0107155352123232	-0.6139549428899413	1.149110748297009	116.45779570490888	1.1264246743643112	117.3553621991662	0.1642346804123917	-0.2602260217801007	0.4244607021924924	79.76682258263173	far	V3ab
5	6.0	ltm	199	diff_vonmises	-0.2007079000515234	-11.499715587885854	0.64423718293212	132.77670490696227	0.6282024141660738	133.8781004844023	0.1058465293673478	-0.299981572786141	0.4058281021534888	105.72280947764128	far	IPS0
6	7.0	ltm	199	diff_vonmises	-1.5639803535911327	-89.60947350215007	1.21691732557235	51.45024701117515	1.2381791194365268	51.66962227365568	0.0548561110274263	-0.2859246106637556	0.340780721691182	71.69752704595558	far	LO1
0	1.0	ltm	200	diff_vonmises	0.1228885270306277	7.040993949434305	2.450189856179308	0.5635295745075419	8.28929609330585e-36	3.558401151667692	-0.2381246753580003	-0.5638939962623616	0.3257693209043613	87.85794893524252	far	V1
1	2.0	ltm	200	diff_vonmises	0.0005670933229211	0.0324920539934322	2.774516815089628	1.0487260279385169	0.2071798567587539	2.584203178237971	0.1561728183577153	-0.3675511208677893	0.5237239392255046	74.24283185592867	far	V2
2	3.0	ltm	200	diff_vonmises	-0.1010035010716478	-5.787074327450506	1.1825699000800534	1.8174072398464969	2.6437909239366582e-20	3.351409505045252	0.1497884123261629	-0.46921686104153	0.619005273367693	121.29172554093816	far	V3
3	4.0	ltm	200	diff_vonmises	-0.1407883199452111	-8.06657653759811	0.3592256719409497	5.945709703862113	2.691077977370905e-12	8.093952609944852	0.0244128278876993	-0.6482883954172945	0.6727012233049939	159.36315710483427	far	V4
4	5.0	ltm	200	diff_vonmises	-0.0672790240626466	-3.8548041285487615	1.387465553603312	1.7255037758530474	8.663887556546943e-13	2.259835170539406	0.3533809102286853	-0.3152025057268925	0.6685834159555779	114.06827955029864	far	V3ab
5	6.0	ltm	200	diff_vonmises	-0.1007237028220066	-5.771043068630918	0.133785963584969	10.432601224470126	6.071718095918791e-11	10.789730554281295	0.1723773425924111	-0.2712347943958746	0.4436121369882857	172.1000212762234	far	IPS0
6	7.0	ltm	200	diff_vonmises	0.3731400474767681	21.37934988772998	1.7087352646080414	98.44966565604008	1.685085996980522	98.87283134642163	0.1932857666549168	-0.1747524076170918	0.3680381742720087	67.01547923558064	far	LO1
0	1.0	ltm	201	diff_vonmises	0.2421322361025548	13.87315521274157	5.385877752522343	0.3153903452728571	1.2862645502730596e-19	2.510361105956038	-0.1150326060600355	-0.3995304088047597	0.2844978027447241	58.782092784170544	far	V1
1	2.0	ltm	201	diff_vonmises	0.1027932929106266	5.889621846030953	1.0033599191541276	99.89905125244664	0.978159242263276	101.06047826478525	0.0845492431325993	-0.28999202671611	0.3745412698487094	83.0436332374523	far	V2
2	3.0	ltm	201	diff_vonmises	-0.0003868235427567	-0.0221633564162575	0.7783326751926485	64.26575977253862	0.7550330319883621	64.8921498614083	0.1010979268625362	-0.1804848457775429	0.2815827726400792	97.60020249670303	far	V3
3	4.0	ltm	201	diff_vonmises	-0.2920788441039344	-16.73488505221497	1.9415888618186965	0.6020280403906896	8.482247752278682e-26	1.96081361162165	-0.0070235288757207	-0.3057933771174131	0.2987698482416923	98.25750254573394	far	V4
4	5.0	ltm	201	diff_vonmises	-0.0674031240297807	-3.861914532903256	1.950672824047298	0.7007314264544927	2.417693124988354e-11	1.4948659541081484	0.1181584653470559	-0.2307173029404765	0.3488757682875324	98.16730458034048	far	V3ab
5	6.0	ltm	201	diff_vonmises	-0.3338879960827083	-19.130373005619752	0.712883421464792	1.6351389473105404	6.916669082860257e-16	2.386378380140045	0.089503690379657	-0.2670175702405097	0.3565212606201667	140.16525038451795	far	IPS0
6	7.0	ltm	201	diff_vonmises	0.1643798233297159	9.418270113898831	0.6548370742865979	129.7458135709678	0.6378288524555138	131.36826026203565	-0.0231933730993105	-0.3553698015403892	0.3321764284410786	99.22872353621617	far	LO1
0	1.0	ltm	202	diff_vonmises	-0.3485049835828022	-19.96786469857061	0.4966610191137002	1.251460563102822	1.949428733698899e-12	2.6893110711538744	-0.1200146468535272	-0.3139501465412637	0.1939354996877365	150.4332752561676	far	V1
1	2.0	ltm	202	diff_vonmises	0.1048297354846448	6.006301410742954	2.768388617262356	0.6399622119009784	0.1580100223393314	1.1804599502449724	0.1815901292977671	-0.167146462253907	0.3487365915516742	77.24606315864415	far	V2
2	3.0	ltm	202	diff_vonmises	0.1090058766526612	6.245576674321128	2.324806174710767	0.6147018566071749	0.3938160394334731	0.8012628351166525	0.1651051305523923	-0.0922324346285087	0.257337565180901	79.5990213219678	far	V3
3	4.0	ltm	202	diff_vonmises	-0.4336206757068543	-24.8446346276137	1.8220451708312615	1.57161090115	0.4469613790460854	2.495714696389638	0.1750593945450356	-0.2597084213325701	0.4347678158776057	82.69894698941762	far	V4
4	5.0	ltm	202	diff_vonmises	-0.0559216480340661	-3.204074415768046	2.0499202871851665	0.7110571290287494	7.097092748768169e-11	0.7113264942143921	0.2591091797024624	-0.1070396398170662	0.3661488195195286	95.88223271969514	far	V3ab
5	6.0	ltm	202	diff_vonmises	-0.4022480777032014	-23.047117169643837	0.6934546638290815	94.72077094536355	0.6780815983072882	94.80439191104816	0.2539120996829176	-0.143926429200218	0.3978385288831356	111.41840772445047	far	IPS0
6	7.0	ltm	202	diff_vonmises	0.1949360671157921	11.169013920613844	1.248178044350648	190.1739611283608	1.23522894879606	190.7024188655633	0.248190108265689	-0.2045832429730936	0.4527733512387826	79.25474626451091	far	LO1
0	1.0	ltm	203	diff_vonmises	0.3578209426408081	20.50162983471102	0.8620876398095603	127.14414879760582	0.8407146413749689	129.14634132898146	-0.1050342589943582	-0.4116445426836108	0.3066102836892526	82.81795705648898	far	V1
1	2.0	ltm	203	diff_vonmises	0.0394581348028866	2.260784591663675	0.7464979280151778	109.15077301256906	0.7285023007875335	110.36303116872998	0.0233176417470275	-0.2789493639368494	0.302267005683877	94.58358182367326	far	V2
2	3.0	ltm	203	diff_vonmises	0.0887830771590181	5.08689561339608	1.1601639390863587	200.0357169013884	1.1498139204890985	200.6301891551261	0.1650467356201659	-0.1911015602713384	0.3561482958915043	80.53359371388436	far	V3
3	4.0	ltm	203	diff_vonmises	0.0319266750450807	1.829263733968776	3.7267842576606927	0.3167856194050886	1.6515679894800638e-43	1.69624741535241	-0.0356768762710276	-0.269830416085253	0.2341535398142253	70.99396191036416	far	V4
4	5.0	ltm	203	diff_vonmises	0.0356297320314986	2.0414332705869507	1.0479443010069651	63.70894532681932	1.0129695005145642	64.80833538951013	0.0419659989382914	-0.2637506803585436	0.3057166792968351	80.1147941033546	far	V3ab
5	6.0	ltm	203	diff_vonmises	-0.2709498315221743	-15.5242818060013	2.020533007079428	0.7088763884599203	1.3634799367267398e-17	2.0980085615197464	0.0340286983978095	-0.3274396672356813	0.3614683656334909	96.45432529098154	far	IPS0
6	7.0	ltm	203	diff_vonmises	0.0982088738508417	5.626953982385944	0.7124642213413365	68.5582549180315	0.6825392265598096	70.14944208699761	-0.0565111615115654	-0.3324484108747212	0.2759372493631558	93.55411314908216	far	LO1
0	1.0	ltm	204	diff_vonmises	-0.0845126503512334	-4.842218180590491	0.2848061006809285	63.84199173410473	0.2659194217207417	66.05139404067938	-0.2365683286982776	-0.4273177321188903	0.1907494034206127	135.93363892476498	far	V1
1	2.0	ltm	204	diff_vonmises	0.1182204787061852	6.773534481880635	0.680330600395349	31.503955406743028	0.6250851960813144	32.42557637773868	0.0817079516811567	-0.2457888142133732	0.32749676589453	104.06124962332844	far	V2
2	3.0	ltm	204	diff_vonmises	0.109854720508076	6.294211844702005	1.4076468944272564	84.90445097756256	1.3837708698470093	85.33410811053564	0.1848278453849303	-0.1635710439123503	0.3483988892972807	74.23224666689114	far	V3
3	4.0	ltm	204	diff_vonmises	-0.2547179308335312	-14.594262403066558	0.6762460224265078	148.17007187376794	0.6616555579395452	149.5589750112223	0.0262974347703277	-0.3232882412243683	0.349585675994696	99.59605993749204	far	V4
4	5.0	ltm	204	diff_vonmises	-0.0373322145513645	-2.1389783336700683	1.0800563749311782	89.68912985936949	1.0552450252067649	90.1079137224275	0.2707086277681618	-0.1890116071072238	0.4597202348753857	86.76944234180834	far	V3ab
5	6.0	ltm	204	diff_vonmises	-0.267959362063397	-15.352940527250594	0.6955394737376189	157.81593270583437	0.6822427900542274	158.3703144367169	0.2438662843998571	-0.2389169943451214	0.4827832787449786	107.01230533537336	far	IPS0
6	7.0	ltm	204	diff_vonmises	0.1731636660412322	9.921547229175465	1.3784919251711358	145.89664462324575	1.3632852392132275	146.389932612609	0.1964621835483342	-0.1820938809339765	0.3785560644823107	74.69817260158607	far	LO1
0	1.0	ltm	205	diff_vonmises	0.2080733789319939	11.921726441829556	5.843330972517768	0.3746847144152228	4.4270364854695614e-16	3.3850089228828524	-0.1858735235903639	-0.5387379365395207	0.3528644129491567	56.38412500672084	far	V1
1	2.0	ltm	205	diff_vonmises	0.0430357756062295	2.465768310309013	2.588853163367773	1.0587838651967432	0.3133475447314819	2.6417657082376578	0.0755459339286146	-0.3625124935387329	0.4380584274673476	72.75339608956105	far	V2
2	3.0	ltm	205	diff_vonmises	-0.076130119920479	-4.361934565268284	0.5930295700069903	109.5339276275448	0.576761296512465	110.48014538562646	0.0896227229756938	-0.2644971668302442	0.3541198898059381	110.47336407123966	far	V3
3	4.0	ltm	205	diff_vonmises	-0.0949968095332264	-5.442916253462019	0.0005943284203185	1696.93398295336	3.2205896846562862e-27	1698.742611108251	-0.1273195606258923	-0.448336968340584	0.3210174077146916	179.7094768437136	far	V4
4	5.0	ltm	205	diff_vonmises	-0.0163889082235818	-0.9390152720384844	1.7101561891029036	0.9721861950115944	1.5211299710210632e-18	1.8232034733068088	0.1658725751069531	-0.2752581521524257	0.4411307272593788	104.3141537058234	far	V3ab
5	6.0	ltm	205	diff_vonmises	-0.1481885438888142	-8.490578137018225	0.0006128467232067	1839.234019007196	2.533147699617601e-23	1839.8817123244637	0.0763317519629254	-0.2824439754780883	0.3587757274410137	179.33941205370235	far	IPS0
6	7.0	ltm	205	diff_vonmises	0.3707631390217189	21.243163064966694	0.7718560044916731	27.592822239190912	0.7076104360294312	28.53987548908879	0.0674412731505125	-0.2382758644772304	0.305717137627743	96.80083053026604	far	LO1
0	1.0	ltm	206	diff_vonmises	0.1796523415279265	10.293320949193042	4.540299606932737	0.4441853990048409	3.1041912509825523e-20	2.4432324212286964	-0.0230915707206325	-0.3888108688910267	0.3657192981703941	64.15392195225346	far	V1
1	2.0	ltm	206	diff_vonmises	-0.0740844118889192	-4.244724128943891	1.1720365332392482	136.06421645616462	1.1490347114482165	137.11047813948312	0.1945996848604565	-0.3052004471949416	0.4998001320553982	78.98649321366901	far	V2
2	3.0	ltm	206	diff_vonmises	0.0537364520807796	3.0788719102356628	0.8721968365589922	76.51399375827627	0.835629947592162	77.46459470245226	0.2387010038580683	-0.3023296509646132	0.5410306548226815	93.89126774895612	far	V3
3	4.0	ltm	206	diff_vonmises	-0.1415802957074823	-8.111953406252901	1.9650679611131052	1.169781869097278	5.2158736132960915e-21	2.6013676109594126	0.1830526695173849	-0.4022933100753481	0.5853459795927332	97.8037948960535	far	V4
4	5.0	ltm	206	diff_vonmises	-0.0372911909709692	-2.1366278556529	1.836882881953596	1.2033961199575207	0.0331355680900511	1.6181375925036885	0.3234605097716382	-0.2341079382254432	0.5575684479970814	99.52095549817147	far	V3ab
5	6.0	ltm	206	diff_vonmises	-0.195554595031074	-11.204452959670522	0.9909999580795694	1.5483934997652031	1.2161211342253056e-12	2.020450145744705	0.20489707734636	-0.2490207714068255	0.4539178487531855	128.6669410476928	far	IPS0
6	7.0	ltm	206	diff_vonmises	0.1393023712609654	7.981437949417813	1.2537831600566878	152.42859487871164	1.2355472756709018	153.21560781799818	0.2064006970732776	-0.2514866538613916	0.4578873509346692	77.22597505400111	far	LO1
0	1.0	ltm	207	diff_vonmises	0.2747107668537927	15.739767527524672	0.7430198454650543	136.31919795078684	0.7229144524175665	138.73462251913838	-0.1748854841177376	-0.4733652113943236	0.298479727276586	87.22028017497715	far	V1
1	2.0	ltm	207	diff_vonmises	-0.0224860275291181	-1.2883544754334542	1.0103351653023356	125.3258334419928	0.9918700520374826	126.4325619764524	0.0612460341521696	-0.2703580766242179	0.3316041107763876	81.9937884640103	far	V2
2	3.0	ltm	207	diff_vonmises	0.2053569029149398	11.766083830903844	1.2606553156464035	127.75899022110563	1.2422054288765034	128.44769889455588	0.165479412690523	-0.2154884563735812	0.3809678690641043	76.7160976979072	far	V3
3	4.0	ltm	207	diff_vonmises	0.1108764006114515	6.352749802637914	0.7125265861039253	107.29851874739236	0.6925978511402845	108.7690955342075	-0.0087879735930869	-0.3245891259885525	0.3158011523954656	95.49883637649069	far	V4
4	5.0	ltm	207	diff_vonmises	-0.0085771872464949	-0.4914366293175965	1.244785217041655	203.75090178975364	1.2292864785277016	204.61088670829463	0.2492772851680342	-0.282160831818139	0.5314381169861733	77.81928222298146	far	V3ab
5	6.0	ltm	207	diff_vonmises	-0.0924095880224042	-5.294679380226447	0.8067131188787974	117.64615302746716	0.7853133562933997	118.5396126708966	0.2119872303326317	-0.2837538269499262	0.495741057282558	97.14802076394528	far	IPS0
6	7.0	ltm	207	diff_vonmises	-0.0026659884872136	-0.1527498885478112	0.8574974956738232	104.1843224197113	0.8348593282653962	105.38906799562312	0.0762563986107665	-0.295370343431184	0.3716267420419505	89.8811368946495	far	LO1
0	1.0	ltm	208	diff_vonmises	-0.0625225955666194	-3.582280850170647	0.3032795630814547	43.667084324792846	0.2745116578596301	46.0424643967179	-0.2642001096839692	-0.4496218176797546	0.1854217079957854	132.12779235903764	far	V1
1	2.0	ltm	208	diff_vonmises	0.2058106978657907	11.792084366351949	0.6309573379350573	119.0827040036875	0.6152755265015993	120.30252607397637	0.0267289358766831	-0.2894558113456398	0.3161847472223229	103.60817496394856	far	V2
2	3.0	ltm	208	diff_vonmises	0.0145187676067398	0.8318641075974471	1.086213420840414	89.90513933650462	1.0685112658890352	90.43268548621506	0.1116697813784526	-0.1571633843317119	0.2688331657101646	82.58576753898603	far	V3
3	4.0	ltm	208	diff_vonmises	-0.2655104559744536	-15.212628543930244	1.5153187245350583	0.5014320059569551	3.60612749150103e-17	1.9440328412045509	-0.0908663875161311	-0.2988502358472746	0.2079838483311435	109.75432565284136	far	V4
4	5.0	ltm	208	diff_vonmises	-0.0348928054186438	-1.9992104858595003	2.8602764485663648	0.5058092305357981	0.0190428395701047	1.5135571752563213	0.0768639319839498	-0.2353786228025312	0.3122425547864811	79.97771785665941	far	V3ab
5	6.0	ltm	208	diff_vonmises	-0.3957979682550422	-22.67755312086685	0.4923981015284757	124.6435612272718	0.4779865325948082	125.77081994265716	0.0614276578690748	-0.3103641228750877	0.3717917807441626	119.63358867245	far	IPS0
6	7.0	ltm	208	diff_vonmises	0.2693131889961753	15.430509096689928	0.7474857909051219	158.22013523973445	0.7348217876940908	159.56501073803332	-0.0092059588118758	-0.2954515193337812	0.2862455605219054	92.77128999802348	far	LO1
0	1.0	ltm	209	diff_vonmises	0.1431869060808273	8.204005399967507	5.4156881198338525	0.6235202670319563	0.0350820906803987	3.838110544534191	-0.0683766741010418	-0.6085155060876677	0.5401388319866258	57.20334340106001	far	V1
1	2.0	ltm	209	diff_vonmises	-0.1313748079714349	-7.527222031104868	1.2357884753100523	87.05076467022609	1.190127655898054	88.49919308686852	0.186223891131668	-0.4000182360877851	0.5862421272194531	76.05630049980698	far	V2
2	3.0	ltm	209	diff_vonmises	-0.042787837256993	-2.451562489318325	0.9453107633247672	146.03312129638485	0.9252128705224432	147.1739149928746	0.1842288639399711	-0.3196766329852849	0.5039054969252561	87.98295623222134	far	V3
3	4.0	ltm	209	diff_vonmises	-0.0930668961279859	-5.332340360516017	1.3619385086091569	1.240477772134129	1.3487068926830354e-16	2.84952000949325	0.0534098860558446	-0.4202493222189721	0.4736592082748168	114.90927620022823	far	V4
4	5.0	ltm	209	diff_vonmises	0.050229705379729	2.877950124444041	2.122938022257274	1.345507134224423	1.463562711431719e-14	2.557327375525801	0.312524399321344	-0.3967051540882202	0.7092295534095643	94.27863991967286	far	V3ab
5	6.0	ltm	209	diff_vonmises	-0.0714528775422007	-4.093948317233206	1.6271561096835208	1.3417655770348418	4.7736848637144216e-18	2.4700946901327945	0.2175052357075438	-0.3695527450322718	0.5870579807398157	106.63605444344184	far	IPS0
6	7.0	ltm	209	diff_vonmises	0.1423664279371277	8.156995465150793	1.0125005570049352	1.9777312880777624	5.2332062124777226e-12	3.2513001423833345	0.1630227882841968	-0.4276403033764915	0.5906630916606883	127.87592148210742	far	LO1
0	1.0	ltm	210	diff_vonmises	0.0383871848521118	2.1994236794145365	0.5683317862434722	51.37040476448263	0.5358000916106143	52.85617837031314	-0.0619459635208592	-0.3134861851943533	0.2515402216734941	105.4332600990878	far	V1
1	2.0	ltm	210	diff_vonmises	-0.0084323783811632	-0.4831396924980117	0.7783652627902025	109.20382151047708	0.7594378357452454	110.1054817257296	0.1278638506500655	-0.2521281513095683	0.3799920019596339	96.9911072628145	far	V2
2	3.0	ltm	210	diff_vonmises	-0.0121114208961988	-0.69393330125875	1.0653862029773906	156.82082419389994	1.050725669045229	157.40216798126738	0.2282612023957924	-0.2097859064838658	0.4380471088796582	85.54794711441772	far	V3
3	4.0	ltm	210	diff_vonmises	-0.1612960354047554	-9.24158208088519	3.9296332611115328	0.549625062767739	1.9066603363340904e-31	1.783426946221064	0.1346481996193867	-0.2836796002255485	0.4183277998449352	69.08778820313947	far	V4
4	5.0	ltm	210	diff_vonmises	-0.081508169424879	-4.67007410388283	1.945684311095703	0.6643876654248823	1.0882775593854324e-15	1.414559580429083	0.1119394923968587	-0.2182515437867772	0.3301910361836359	98.2856176097436	far	V3ab
5	6.0	ltm	210	diff_vonmises	-0.3879232582581178	-22.22636547315361	1.64649890237882	0.9237976848620386	5.160139484861521e-21	1.9999100269900123	0.1051517060561206	-0.3025673410809806	0.4077190471371012	105.68998749896431	far	IPS0
6	7.0	ltm	210	diff_vonmises	0.077166292354944	4.421302872610924	1.1394373275627097	197.57798460809448	1.124021321525056	198.98355424483384	0.0549065024794259	-0.3444538063555775	0.3993603088350035	76.3069406260565	far	LO1
0	1.0	ltm	211	diff_vonmises	-0.3601913743099784	-20.63744556497863	0.0003222103080985	2399.5282427637567	1.0931942883179074e-25	2402.220160026689	-0.3053734126382892	-0.5514706423666667	0.2460972297283774	176.30638625024764	far	V1
1	2.0	ltm	211	diff_vonmises	0.1401752894693661	8.031452478619293	1.8406163410487872	1.1661336594790446	0.2088424510180911	2.439206999285258	0.0988497452321339	-0.3099075490223627	0.4087572942544966	88.16259774989376	far	V2
2	3.0	ltm	211	diff_vonmises	-0.1519784560269647	-8.70772410725965	1.877565997735385	0.6658468821917316	1.5749692880136752e-19	1.4516956535427428	0.0995485410652692	-0.2233091552091634	0.3228576962744326	99.91074709929696	far	V3
3	4.0	ltm	211	diff_vonmises	-0.4309161173687926	-24.68967484939585	1.0151250812721688	1.317892914541252	5.124942333582885e-11	2.930786541352052	-0.0123497530615065	-0.4068229243318226	0.394473171270316	126.54504360416465	far	V4
4	5.0	ltm	211	diff_vonmises	-0.1306983475944387	-7.488463706495157	0.4980864232095993	27.662338638761597	0.4289012579711178	28.58905392026232	0.139059885689857	-0.3145236512177365	0.4535835369075935	125.07869819400042	far	V3ab
5	6.0	ltm	211	diff_vonmises	-0.3607356219973444	-20.66862866047445	0.3232612832394534	75.15036150283107	0.3012623580776959	75.98082545999901	0.1221474980327723	-0.3125378518159696	0.4346853498487419	141.21025905072423	far	IPS0
6	7.0	ltm	211	diff_vonmises	0.2719632322158406	15.582345388704011	0.9738657929805346	198.67936122190991	0.961141739170234	200.0509874435933	0.0208627283248148	-0.3160662015370548	0.3369289298618696	81.8000244451014	far	LO1
0	1.0	ltm	212	diff_vonmises	-0.1811337893852626	-10.378201658987097	0.0003192090933249	2027.8909646456405	1.8569588438956344e-31	2031.151961816905	-0.4159734691705239	-0.6220177275349101	0.2060442583643862	179.0458777654045	far	V1
1	2.0	ltm	212	diff_vonmises	0.2488062776221723	14.255549624110737	1.0959554296457064	62.09395384646882	1.0462763576493046	63.54494832191305	0.0709477717529267	-0.3553724743757565	0.4263202461286832	78.9066602747875	far	V2
2	3.0	ltm	212	diff_vonmises	-0.2398180449091217	-13.740561824371516	0.2324429060037188	48.50353594192309	0.2115100453001749	49.32592124508886	0.0173824114720968	-0.2467062946369331	0.26408870610903	151.6147633253798	far	V3
3	4.0	ltm	212	diff_vonmises	-0.6293600942161843	-36.05967719254321	0.5478708116410199	87.79234633628285	0.522889123032237	89.64120532458803	-0.0520912938625741	-0.4055036467267321	0.3534123528641579	108.60645961878063	far	V4
4	5.0	ltm	212	diff_vonmises	-0.1184209353678105	-6.785019802567048	1.1543518163581197	1.3653763259968354	0.0388980787655124	2.123662509894683	0.1548447742404547	-0.2746706965267267	0.4295154707671814	119.7607054788644	far	V3ab
5	6.0	ltm	212	diff_vonmises	-0.1069854845688856	-6.129816734959144	0.0001782987067161	6591.48766041016	3.883607977741584e-34	6591.911481336425	0.119602101241071	-0.2544918170556229	0.374093918296694	179.66238909727727	far	IPS0
6	7.0	ltm	212	diff_vonmises	0.4314780038920731	24.72186857574509	0.8862639505930056	122.8032575354317	0.8697696016341279	123.97800600601822	0.0137959628600725	-0.2665949807956167	0.2803909436556893	85.89007290306327	far	LO1
0	1.0	ltm	213	diff_vonmises	0.1737555337050303	9.955458748341364	0.0193604664731073	32.74151113666878	4.4070356628615553e-13	34.925683775704826	-0.2462499020002981	-0.4480172882203757	0.2017673862200775	177.86660518191266	far	V1
1	2.0	ltm	213	diff_vonmises	0.034349433439238	1.96807756473388	0.2926696909888158	47.8315764097592	0.2614296881396338	49.00656568280424	0.0267796506391153	-0.3426815572550055	0.3694612078941208	145.26421356064628	far	V2
2	3.0	ltm	213	diff_vonmises	0.0938773891691123	5.378778191097285	1.3265683254432123	163.51542824808308	1.309971789459599	164.14708274208988	0.2394887370966216	-0.2276038108912992	0.4670925479879209	76.11064395049476	far	V3
3	4.0	ltm	213	diff_vonmises	-0.0102456177520024	-0.5870306556940562	1.731870724407784	0.7757967127465184	5.600501152546925e-19	2.536858205110609	-0.0370433818611549	-0.3922699195636751	0.3552265377025201	103.72754512596728	far	V4
4	5.0	ltm	213	diff_vonmises	-0.0287401483160339	-1.6466892010887653	1.0170073622540357	63.36554102940467	0.981474224035507	64.00193720219528	0.2107106797834497	-0.2166905937249081	0.4274012735083579	87.52120162646537	far	V3ab
5	6.0	ltm	213	diff_vonmises	-0.2696886627291804	-15.452022156909146	0.6374638269582648	152.30876433621782	0.6234268470993803	153.22697251600565	0.1578151910331371	-0.2861418589167286	0.4439570499498657	108.32347511097844	far	IPS0
6	7.0	ltm	213	diff_vonmises	0.1730102856324343	9.912759179091353	1.8575062976650665	92.48833705723304	1.835629077572444	92.88071883914807	0.1351333604259679	-0.1545732612727821	0.28970662169875	63.23290438009772	far	LO1
0	1.0	ltm	214	diff_vonmises	-0.0497252453533626	-2.8490466940001875	0.1122334964307406	54.66799527181611	0.1007357097339058	56.61935349704682	-0.2375499755981547	-0.3745428733238967	0.1369928977257419	164.93101152859327	far	V1
1	2.0	ltm	214	diff_vonmises	0.3602664406303997	20.641746548322345	0.7004746848259712	128.44777902148337	0.6873833020363543	129.4495672679324	0.037753106990138	-0.2401071759317528	0.2778602829218908	98.65027966331158	far	V2
2	3.0	ltm	214	diff_vonmises	0.2406943960454634	13.790773045855389	1.3132054549950012	21.97217729169618	1.2439993518921053	22.351817800171407	0.1303879163419061	-0.1317433747134431	0.2621312910553492	77.02802231971921	far	V3
3	4.0	ltm	214	diff_vonmises	-0.251641950812036	-14.418021729968324	3.028289190629941	0.3233992725137073	9.447478276976046e-23	1.7581286733637989	-0.0668838205322577	-0.2793160184391496	0.2124321979068918	78.94541136820514	far	V4
4	5.0	ltm	214	diff_vonmises	-0.0691471523207413	-3.961839993326715	1.1357624564966868	54.97865060426792	1.1040754147045797	55.51086880628432	0.1330755501455272	-0.1657999126766798	0.298875462822207	81.48954744471405	far	V3ab
5	6.0	ltm	214	diff_vonmises	-0.3873155341089688	-22.19154544429919	0.5968043782381084	139.83422503579064	0.5856321463782385	140.45175049326116	0.1331198247758891	-0.212500978188773	0.3456208029646621	112.83356236281423	far	IPS0
6	7.0	ltm	214	diff_vonmises	0.1002931315406731	5.74637315143097	1.3084781096627247	123.8561592668178	1.2913070335579155	124.75985966170764	0.0288233323455955	-0.2297103139525766	0.2585336462981722	70.72013467602076	far	LO1
0	1.0	ltm	215	diff_vonmises	0.5799285291439438	33.22745713917754	0.000252721682099	1611.9188881274015	4.344501323588587e-31	1614.6921339188552	-0.376537742939945	-0.506205617020214	0.129667874080269	170.05262638431037	far	V1
1	2.0	ltm	215	diff_vonmises	0.2209158008706861	12.657543017642832	0.001009922567814	947.8955713913442	2.6546126775419877e-18	949.3896638929516	-0.0853972697117058	-0.3901102144306492	0.3047129447189434	178.32459770426576	far	V2
2	3.0	ltm	215	diff_vonmises	0.1251556716026374	7.170891764956455	1.761444097280071	103.5094322799155	1.7390711327631787	104.02432522875728	0.139185152829981	-0.1861945260176547	0.3253796788476357	64.4152878359742	far	V3
3	4.0	ltm	215	diff_vonmises	0.5936439823269001	34.0132947206702	5.385500159830104	0.1809943380491868	0.0346248420207311	2.250873808441015	-0.2074823276824646	-0.358425458810275	0.1509431311278104	56.33784393079455	far	V4
4	5.0	ltm	215	diff_vonmises	-0.1196339492142521	-6.854520376459079	1.395450770229316	139.54271762787275	1.37344992034778	140.72178493883243	0.0652923547299835	-0.3149034483875681	0.3801958031175516	69.1426795302597	far	V3ab
5	6.0	ltm	215	diff_vonmises	-0.1683452122050525	-9.645470160583749	0.8081082834222009	161.06894773302665	0.79123457100107	162.62347020814036	0.0495842843818579	-0.3635788854150092	0.4131631697968672	91.25394084599716	far	IPS0
6	7.0	ltm	215	diff_vonmises	-1.553873217771215	-89.03037727670328	1.208526233246458	44.329979808393496	1.2331560777665376	44.8162648565184	0.0410167432058252	-0.3883908879322284	0.4294076311380537	156.46157804957502	far	LO1
0	1.0	ltm	216	diff_vonmises	0.3530139736480674	20.226210799176723	0.6776426563685766	141.40092528921107	0.6569066805369062	144.27735055803632	-0.2370095425204539	-0.5505943237694062	0.3135847812489523	90.11487678005216	far	V1
1	2.0	ltm	216	diff_vonmises	-0.0054615521216636	-0.3129238861620456	0.6346908687477	133.6648417656063	0.6173655527358607	135.4453446250613	-0.0393515850920067	-0.385303277624649	0.3459516925326422	100.30864282321843	far	V2
2	3.0	ltm	216	diff_vonmises	0.0473702235100302	2.714113881716121	0.9648658299791226	230.6526082597402	0.95270050429828	231.79903639772684	0.1510622978390898	-0.3088753224300404	0.4599376202691303	86.16809891018772	far	V3
3	4.0	ltm	216	diff_vonmises	0.3580749642191228	20.516184199053704	1.4746063599631438	0.6598512016233433	2.921052084002745e-16	2.7400413577406764	-0.1532284695900592	-0.4212729598781577	0.2680444902880984	110.75460913551692	far	V4
4	5.0	ltm	216	diff_vonmises	0.0432885107291784	2.480248966188708	1.8000494323341605	1.4059049396527692	0.3322606484157568	2.7964499726978405	0.0766511721235615	-0.3268391943410612	0.4034903664646227	83.79355782143648	far	V3ab
5	6.0	ltm	216	diff_vonmises	-0.2074341871279943	-11.885103449161026	1.141805616998167	1.1332275627285735	9.478540893122378e-15	2.6408810439158894	-0.0028945563800065	-0.3777680471777711	0.3748734907977645	122.63896020414649	far	IPS0
6	7.0	ltm	216	diff_vonmises	0.3137474803179069	17.97640645507993	0.8110899528371733	43.5360629287416	0.7757940443534733	44.68455342044172	-0.049972457170881	-0.2374532335273143	0.1874807763564332	86.72415046620577	far	LO1
0	1.0	ltm	217	diff_vonmises	0.5932682482083365	33.99176674145744	0.0018566062706543	260.3914192395663	4.1353984232851154e-18	262.8167079120984	-0.3090184338605581	-0.4629035014781877	0.1538850676176295	169.54007736581437	far	V1
1	2.0	ltm	217	diff_vonmises	0.2998872246776767	17.182272303922343	0.2562308229544655	98.52079241931366	0.2441129328119168	99.80444220976024	-0.0465188725918679	-0.3214348325551608	0.2749159599632929	145.9805692456309	far	V2
2	3.0	ltm	217	diff_vonmises	0.1993789297429249	11.42357119810496	1.7032702987641188	124.39217584204616	1.6826854392001915	124.90077252569392	0.1930726623254699	-0.1977742400602586	0.3908469023857286	66.56682670423285	far	V3
3	4.0	ltm	217	diff_vonmises	0.5000124775545514	28.6486046677556	3.7296663124012137	0.3469171292355132	0.0532379929140386	2.245822070278054	-0.1200414254309416	-0.3511175286543133	0.2310761032233717	67.13984158726453	far	V4
4	5.0	ltm	217	diff_vonmises	-0.0981859392151264	-5.62563992455479	1.5116030119389832	172.0286428952794	1.492624041304131	172.95957877419923	0.1688299394301253	-0.2906946163049788	0.4595245557351042	68.78463063344691	far	V3ab
5	6.0	ltm	217	diff_vonmises	-0.09565888107981	-5.480850158816955	0.9355009959105656	158.7219004481714	0.916900827103696	159.9796739698409	0.1514962245378015	-0.3338882545415025	0.485384479079304	87.46393689893137	far	IPS0
6	7.0	ltm	217	diff_vonmises	-1.6877478462664235	-96.70082847336056	1.3212182935832866	78.82352927971482	1.3413666139656348	79.16582247231516	0.0733002047947657	-0.4256979846279272	0.4989981894226929	176.680953177008	far	LO1
0	1.0	ltm	218	diff_vonmises	0.3926340192998116	22.49627219913732	0.636812091430652	181.8028454109804	0.6232793831214296	184.58341945267705	-0.283775706008079	-0.5122192057321087	0.2284434997240296	89.10063383302375	far	V1
1	2.0	ltm	218	diff_vonmises	0.2574821050387798	14.75263791886623	0.6067059655728584	148.7016628032333	0.5946603255356877	150.14170466408328	-0.0419150145783362	-0.3086981013277547	0.2667830867494185	101.94077986910682	far	V2
2	3.0	ltm	218	diff_vonmises	0.1399004282294802	8.0157040896221	1.1892144575591612	94.18022098851488	1.1703853060319571	94.81158433846537	0.0926273332322651	-0.1768363496842955	0.2694636829165606	77.56016483973326	far	V3
3	4.0	ltm	218	diff_vonmises	0.3840418882491147	22.00397935290908	1.8637967199425367	0.2676742024721268	2.0146607755802267e-15	1.9616519866205036	-0.179895858684713	-0.3090244512757116	0.1291285925909986	99.98920537021502	far	V4
4	5.0	ltm	218	diff_vonmises	-0.0083421361022831	-0.4779691907845382	1.09252910850055	117.86807635915956	1.070055297365663	119.13739685958078	0.0464908550022613	-0.306820755682585	0.3533116106848464	78.0641383315741	far	V3ab
5	6.0	ltm	218	diff_vonmises	-0.235637746497592	-13.50104836828562	0.5722716896779917	155.39447942151082	0.5594027363056469	156.78208899269808	0.0192498191115859	-0.3313596324471781	0.3506094515587641	108.61775564610826	far	IPS0
6	7.0	ltm	218	diff_vonmises	1.024262200917485	58.685901227352666	0.0001472778133294	5997.498362518994	1.02984227113973e-36	5998.926094598503	-0.0866462411070188	-0.3678046429901087	0.2811584018830899	151.32078114749274	far	LO1
0	1.0	ltm	219	diff_vonmises	0.0260038116782076	1.4899086604143	0.0002373127407883	1606.0302951249228	5.028824050976458e-32	1607.9880083122198	-0.2509193959417928	-0.3722328693683892	0.1213134734265963	179.93441738745736	far	V1
1	2.0	ltm	219	diff_vonmises	0.4241210508933943	24.30034621884469	0.6726029319076932	118.09581959605272	0.659700924914751	118.9270063998108	0.0597508434829805	-0.2138520924492972	0.2736029359322778	102.31314726231554	far	V2
2	3.0	ltm	219	diff_vonmises	0.250607340008154	14.358742897467245	1.7550916429350214	55.60084295732992	1.7274712543920565	55.81494986988694	0.1535758264742384	-0.1068644043182134	0.2604402307924518	67.31381071480294	far	V3
3	4.0	ltm	219	diff_vonmises	-0.3500514417103926	-20.056470222475248	0.7748893515551472	117.67488890975764	0.7590101059102432	119.04291397808048	-0.0478795919034666	-0.2862478004724771	0.2383682085690104	89.01743534728004	far	V4
4	5.0	ltm	219	diff_vonmises	-0.1094965753433635	-6.273691638310964	1.3950974441845585	108.29270896436556	1.377058057764388	108.63205616388122	0.2099846844974067	-0.1495936286600034	0.3595783131574102	75.60988492765347	far	V3ab
5	6.0	ltm	219	diff_vonmises	-0.3451971245810856	-19.77833833854789	0.7336639470693204	148.0862452322058	0.7216630747887135	148.51288814977315	0.2159060363436395	-0.1923082778788263	0.4082143142224659	104.56673152146544	far	IPS0
6	7.0	ltm	219	diff_vonmises	0.091792277441936	5.259310089316848	1.6043187792397022	112.7847311101449	1.58623370864318	113.30571186423572	0.1161430468801683	-0.1732906926131825	0.2894337394933508	67.16633618843719	far	LO1
0	1.0	ltm	220	diff_vonmises	0.2595022329955568	14.868382724865942	0.6070830347247812	139.22740629931224	0.5861467839885149	142.4714767584298	-0.3014647797696739	-0.6063917776063619	0.304926997836688	93.6179145757954	far	V1
1	2.0	ltm	220	diff_vonmises	-0.0261188669420983	-1.496500841446004	1.9016229982385384	0.953579819831186	0.106741590334103	2.649494561374717	0.0092573626108108	-0.3716389875899682	0.3808963502007791	90.38541573901388	far	V2
2	3.0	ltm	220	diff_vonmises	-0.0235397597151171	-1.348728882428292	1.012953407783397	175.22219652411022	0.9983604661039566	176.22953539804217	0.1395547466891855	-0.2740918008299218	0.4136465475191073	84.19318884208027	far	V3
3	4.0	ltm	220	diff_vonmises	0.0344192889373864	1.972079989953566	0.6241181541206712	1.366661833697742	1.2723170633550416e-14	3.294926330470068	-0.1552329370540104	-0.4184478612914084	0.2632149242373979	145.80726400350073	far	V4
4	5.0	ltm	220	diff_vonmises	0.0459570906953673	2.6331473355444963	2.4752461710324463	0.86347048726902	0.0517956084549154	2.3036957383164456	0.1200254414568571	-0.3458261942366224	0.4658516356934795	84.00859178839517	far	V3ab
5	6.0	ltm	220	diff_vonmises	-0.1901199108966645	-10.893068495782147	1.1105658350695906	1.6042924478182248	0.0817657592807879	3.087397857348837	0.0492245773800158	-0.3889467908695783	0.4381713682495942	116.9253409354544	far	IPS0
6	7.0	ltm	220	diff_vonmises	0.481819376736205	27.60621677460835	1.500211166648104	0.7164687415325416	9.254722237220477e-14	1.7930207938544247	0.0249878794689993	-0.2699218367885727	0.294909716257572	109.57279539236842	far	LO1
0	1.0	ltm	221	diff_vonmises	0.2274364095774477	13.031146376396531	2.471084016691735	0.4894120896556926	7.634729487446117e-24	2.443333481110725	-0.1023946623829871	-0.3868234324720248	0.2844287700890377	87.46396995319381	far	V1
1	2.0	ltm	221	diff_vonmises	-0.0445578955742567	-2.552979360389561	0.8109890944998025	147.70263770546285	0.7935211245479926	149.01986120654163	0.0943411101518734	-0.3282543955184671	0.4225955056703405	92.75538747789513	far	V2
2	3.0	ltm	221	diff_vonmises	0.0534498310142916	3.062449732806362	0.7659031586110207	153.52355533572822	0.7458834876844603	154.7348075204225	0.2315175832526392	-0.365846838215047	0.5973644214676863	98.9544530209496	far	V3
3	4.0	ltm	221	diff_vonmises	0.0062994641551909	0.3609327092863834	1.1448844184290805	1.6267809141249463	1.2453206102840217e-19	3.4713987727820568	0.0476409536963354	-0.4917002961184025	0.539341249814738	122.78015548358417	far	V4
4	5.0	ltm	221	diff_vonmises	-0.1016149260179683	-5.822106396363687	1.674772034376834	1.0093423407046551	1.6651354552205554e-07	1.6319223927557152	0.2077529582971943	-0.2433194407385288	0.4510723990357232	105.27140614840404	far	V3ab
5	6.0	ltm	221	diff_vonmises	-0.2530231759842948	-14.49716010289598	0.6217215154222464	1.9491931564387432	7.239681810691127e-18	2.64771337789724	0.1042327602049802	-0.2698035288386754	0.3740362890436557	145.10474919789925	far	IPS0
6	7.0	ltm	221	diff_vonmises	0.2060659112187728	11.806707014353204	1.6865071283752906	191.5937456215296	1.6718039165657612	192.49098490875696	0.0587233307274743	-0.266159607393444	0.3248829381209184	62.706301018305	far	LO1
0	1.0	ltm	222	diff_vonmises	0.2106828889702683	12.071240353619698	5.744547586800542	0.4236900227219194	0.0131390568465298	3.441399205577813	-0.1594857330958882	-0.5464265987825224	0.3869408656866341	56.15819406670067	far	V1
1	2.0	ltm	222	diff_vonmises	0.0317505206711583	1.819170831800252	1.3972386863982995	5.022812842422455	0.8313025524325978	6.465444643978093	0.0825572669439709	-0.3563587996508466	0.4389160665948175	78.06856193903232	far	V2
2	3.0	ltm	222	diff_vonmises	-0.0241272082184259	-1.3823872023491617	0.7203259802056324	76.94421595381866	0.6972857505691857	77.8384892799816	0.084001465174893	-0.2357264920329251	0.3197279572078182	99.80554167431436	far	V3
3	4.0	ltm	222	diff_vonmises	-0.1789270554429084	-10.251765117581938	0.6281428011056226	1.6805642246798014	3.783141606731121e-13	3.320645159825476	-0.0732525646091709	-0.3988830370524131	0.3256304724432422	145.21724555438453	far	V4
4	5.0	ltm	222	diff_vonmises	-0.0104786042290298	-0.6003797975113456	2.053903519215962	0.9458032183641304	1.5340226863970594e-13	2.006997186740909	0.1763751422206501	-0.3112698964938271	0.4876450387144773	95.8004348858961	far	V3ab
5	6.0	ltm	222	diff_vonmises	-0.1631330445148354	-9.346834949819852	0.4001540710721482	3.2899702013124275	2.300606335702704e-17	4.128353772796321	0.0938474235724551	-0.3197478924877868	0.4135953160602419	157.03583174273376	far	IPS0
6	7.0	ltm	222	diff_vonmises	0.1768302071723569	10.13162456140003	0.9345026889542988	1.4366508769073456	2.2691675108148145e-14	3.008743644972562	-0.0057854164760859	-0.4058720723304073	0.4000866558543213	131.0469427534754	far	LO1
0	1.0	ltm	223	diff_vonmises	0.0856451578414371	4.907106080046119	0.7508176417989545	1.045141223436258	3.484346716168049e-13	3.3576339803145983	-0.2268485535301278	-0.4658755885590381	0.2390270350289103	139.55925662587396	far	V1
1	2.0	ltm	223	diff_vonmises	-0.0386578431040195	-2.2149312549392346	1.3708038078363218	1.0633626972242085	1.8144663683323192e-17	2.392002096311878	0.0555465373086857	-0.3525751398628157	0.4081216771715015	114.6392813061992	far	V2
2	3.0	ltm	223	diff_vonmises	0.0090376811298858	0.5178209853274827	1.019834262650762	109.22822610052712	0.9947457492298588	110.07736652098276	0.2287146245622935	-0.2700343629501276	0.4987489875124211	86.41901885686369	far	V3
3	4.0	ltm	223	diff_vonmises	-0.0876812098722997	-5.023763268283582	1.2227828517331516	1.1309512751309485	4.94149921907141e-17	2.9385990640097512	-0.0341556129892698	-0.4301148384177737	0.3959592254285038	119.81186998686525	far	V4
4	5.0	ltm	223	diff_vonmises	-0.0126163531806679	-0.7228637900987258	2.050789752444703	0.8719162378643689	5.22771233467455e-13	1.574145174663702	0.2061273452350773	-0.2429764840943682	0.4491038293294456	95.8677213356858	far	V3ab
5	6.0	ltm	223	diff_vonmises	-0.3037161101489682	-17.40165128166631	0.4639839635526535	96.7888068974304	0.4455168284371799	97.67464886551726	0.1219235049788522	-0.2955563002443355	0.4174798052231878	125.45779160548496	far	IPS0
6	7.0	ltm	223	diff_vonmises	0.2803448414621756	16.062576224046836	1.6434800636149551	102.080865829619	1.6234423613445002	102.52437226366	0.1460733513558878	-0.1631619947216585	0.3092353460775463	67.44037650595305	far	LO1
0	1.0	ltm	224	diff_vonmises	1.071545571263441	61.39503878932995	6.147692937361608	0.1426177773369298	1.0022377489872354e-32	2.530929335321124	-0.2648811683539225	-0.4028092834283686	0.137928115074446	54.94277408811397	far	V1
1	2.0	ltm	224	diff_vonmises	0.7786557786708456	44.6136898113122	0.5499962849976984	92.95465975709418	0.5340480515882521	94.09820790995138	-0.0107174233103464	-0.2617348025305066	0.2510173792201602	109.340632398329	far	V2
2	3.0	ltm	224	diff_vonmises	0.17953315635158	10.286492141607862	2.1403439717157577	69.06231378675108	2.11469895699528	69.30121450738443	0.1403035641530863	-0.1199691085326879	0.2602726726857742	59.88943007428796	far	V3
3	4.0	ltm	224	diff_vonmises	0.4445629037950648	25.47157811553766	4.200869506566266	0.2861974439269396	0.2555879518329423	1.8773828570211004	-0.1536224367637393	-0.3075139895984998	0.1538915528347604	56.19267795146871	far	V4
4	5.0	ltm	224	diff_vonmises	-0.2343204059645595	-13.425570315561345	1.9621113617291817	146.48446209538386	1.935192902887794	147.49743944399393	0.110115725180222	-0.3408943176232242	0.4510100428034462	58.7605753497192	far	V3ab
5	6.0	ltm	224	diff_vonmises	-0.06360017075995	-3.6440213608564833	1.096023949723117	188.560011127188	1.0779417925586392	189.98471928285556	0.1315419465685323	-0.3690937456328065	0.5006356922013389	79.66615286868512	far	IPS0
6	7.0	ltm	224	diff_vonmises	-1.8408547174747536	-105.47320600805097	6.294854313792241	12.799830735416691	6.04851932727305	13.5187399065152	-2.959136896184802e-05	-0.435383039940266	0.4353534485713042	193.16500677879324	far	LO1
0	1.0	ltm	225	diff_vonmises	-0.4224858654748255	-24.206656995639364	0.1140880239359703	61.332662435448455	0.1009546713974313	62.0438089643452	0.0098109016930436	-0.223014421980455	0.2328253236734987	163.16441339119015	far	V1
1	2.0	ltm	225	diff_vonmises	0.0861523294449892	4.936164872418533	1.6258977873266731	0.9299984353823336	0.0656830241318728	1.3009174242342856	0.2021752558060611	-0.1773023383445098	0.379477594150571	103.43899371961794	far	V2
2	3.0	ltm	225	diff_vonmises	0.0306286961784978	1.7548950230164	1.0772131113852916	28.38098870142886	1.012978225964033	28.60423625157358	0.2665480589996765	-0.1460858890775966	0.4126339480772731	89.33868733938047	far	V3
3	4.0	ltm	225	diff_vonmises	-0.2823969289306616	-16.180152175182766	5.2500539827444	0.6657327141550087	4.885254735769002e-26	1.6051575630326298	0.3369799362685384	-0.2554524475790149	0.5924323838475534	59.55378567654176	far	V4
4	5.0	ltm	225	diff_vonmises	-0.21348023108724	-12.231516250776366	1.1458258747769672	0.9607026727277888	6.606637981717785e-15	1.0430334823849536	0.1885793206648655	-0.1301551332419912	0.3187344539068568	122.4705962666345	far	V3ab
5	6.0	ltm	225	diff_vonmises	-0.4941110041511991	-28.310475148834808	1.8147708864823493	0.8337353741253929	6.708085107875165e-18	1.2183203360945651	0.2115776941099681	-0.1831444361742303	0.3947221302841984	101.02694444815394	far	IPS0
6	7.0	ltm	225	diff_vonmises	0.1605625208509674	9.199554792741717	1.663059219315447	201.5387642228634	1.645794607115759	202.4315656805931	0.1794177644116246	-0.2962090469488778	0.4756268113605024	65.57996654215984	far	LO1
0	1.0	ltm	226	diff_vonmises	0.2661471431740774	15.249108033338697	0.5276137043985387	75.64725962825952	0.4976169474607661	78.4069214236357	-0.2547693264222772	-0.5182459430316886	0.2634766166094113	101.69930872878864	far	V1
1	2.0	ltm	226	diff_vonmises	0.0212160690812748	1.2155912162150444	0.6935094829704607	157.22545361981864	0.6783353403243816	158.82501432553025	0.0058576156610925	-0.3603570989983709	0.3662147146594634	97.36066583761016	far	V2
2	3.0	ltm	226	diff_vonmises	0.115774508229264	6.633390696739445	0.9338671605184008	145.17611179681464	0.9132351644301618	146.47364890669067	0.1477258142621238	-0.3413775623924291	0.4891033766545529	87.41765839415689	far	V3
3	4.0	ltm	226	diff_vonmises	0.1829467953116311	10.48207924680022	1.0177797287819084	1.2980688815007595	5.120349082613971e-15	3.445644537555208	-0.1004811668169389	-0.4898867625359769	0.389405595719038	127.55450133943236	far	V4
4	5.0	ltm	226	diff_vonmises	-0.0126317295577375	-0.7237447916090146	0.8996937899596049	69.56364975140929	0.8597557967915815	70.70913936570486	0.1686955180405434	-0.316300551613379	0.4849960696539224	90.52611871099144	far	V3ab
5	6.0	ltm	226	diff_vonmises	-0.1751328382690723	-10.034372486965074	1.0472698395882214	1.389584551269429	5.799621005858267e-16	2.559621558064597	0.0798581170124835	-0.3473847181269506	0.4272428351394341	126.42362821298344	far	IPS0
6	7.0	ltm	226	diff_vonmises	-0.0469976145435844	-2.692764960530043	1.3664011646482763	123.4997275102755	1.3472680804838628	124.69522945833836	-0.0602315984631829	-0.2855963907505376	0.2253647922873547	65.63326480733741	far	LO1
0	1.0	ltm	227	diff_vonmises	-0.2846473971052541	-16.30909450351543	0.2840192088560648	72.78360755556544	0.2701587483382356	73.48816437395706	0.0350205907653879	-0.2198283674592769	0.2548489582246649	144.79516467046835	far	V1
1	2.0	ltm	227	diff_vonmises	-0.0438198834950472	-2.510694383021182	1.905390727109036	0.9581838177055496	0.1261566186402361	1.2838194612533875	0.2491041565602162	-0.1688477035005999	0.4179518600608162	93.9874097114267	far	V2
2	3.0	ltm	227	diff_vonmises	0.0101290568434585	0.5803522075782809	1.1612995192453266	97.04161372641325	1.138059293198228	97.26959235749176	0.3357290285577932	-0.1682789225829584	0.5040079511407516	85.55198690491682	far	V3
3	4.0	ltm	227	diff_vonmises	-0.2482847183328313	-14.225666478065657	4.332743762600366	0.7800140275308655	5.330886597080327e-20	1.6837147783865989	0.3583341225092833	-0.2678635251736105	0.6261976476828939	65.70946960429313	far	V4
4	5.0	ltm	227	diff_vonmises	-0.1325736371686966	-7.595909884465019	1.3172500586483562	0.997749918992528	1.968230987633405e-12	1.0077426265410043	0.2392943611151509	-0.1317062575352192	0.3710006186503702	116.40018303602848	far	V3ab
5	6.0	ltm	227	diff_vonmises	-0.4197732445357282	-24.05123526441027	1.836418870249632	0.9099316762933988	1.2151574133690037e-18	1.3544399726520353	0.2301846718330556	-0.2042418313360544	0.4344265031691101	100.6357882247573	far	IPS0
6	7.0	ltm	227	diff_vonmises	0.1546541850489511	8.861032087340137	1.71513708265362	183.7733691006106	1.6969049865542407	184.38534917011592	0.2744092037641792	-0.2516759982021419	0.5260852019663211	66.76514932274071	far	LO1
0	1.0	ltm	228	diff_vonmises	-0.1139269674713638	-6.527534408833364	0.1456848063479032	19.959076381312848	0.0978101678518473	22.55835269525387	-0.2943856730619916	-0.5165356997429003	0.2221500266809086	162.91867176377264	far	V1
1	2.0	ltm	228	diff_vonmises	0.0379508268876066	2.174422209691466	0.4106039683898388	7.306998312507179	0.1959188828355884	8.721379214555599	0.0093906908165455	-0.390404743398245	0.3997954342147906	142.01967685766107	far	V2
2	3.0	ltm	228	diff_vonmises	-0.0488231764616207	-2.797361953673332	1.6161207791463257	2.4966786328338246	0.7180533738847086	3.316130866943841	0.176483375715804	-0.242259245956863	0.4187426216726672	80.21560778296555	far	V3
3	4.0	ltm	228	diff_vonmises	-0.1506858660242924	-8.633664155465722	0.6851222711870412	1.4233664736585676	2.9561801729389104e-17	3.2422136205478536	-0.1150243320655178	-0.4141420377927391	0.2991177057272213	142.5555081280338	far	V4
4	5.0	ltm	228	diff_vonmises	-0.0297912411911298	-1.706912386708029	2.1354960683215407	0.7438951800375708	5.983153144160022e-12	1.91210735352379	0.0948934561177223	-0.2987448258612594	0.3936382819789817	94.01688728846642	far	V3ab
5	6.0	ltm	228	diff_vonmises	-0.3627799524874092	-20.78576016948508	0.4657656603062708	109.40041192984476	0.4468955270130231	110.80305800645544	0.050782867905653	-0.3776453423814487	0.4284282102871017	122.29544730860106	far	IPS0
6	7.0	ltm	228	diff_vonmises	0.1883807804292489	10.79342365997662	1.2672088861293251	130.86558300419557	1.250132050389067	131.83905595372536	0.0309845506994221	-0.2444824679270461	0.2754670186264683	71.9185253509693	far	LO1
0	1.0	ltm	229	diff_vonmises	0.1680764845411975	9.63007319960644	1.3366612711429011	1.1576264410563517	0.1536944778426276	3.8538806195034527	-0.2432646002778714	-0.5016926335895707	0.2584280333116993	94.59517658647071	far	V1
1	2.0	ltm	229	diff_vonmises	-0.0198883305078428	-1.1395173996606722	1.694671645505025	1.6196418083040285	0.4650637618982219	2.774591202866336	0.089030154994348	-0.282819107740509	0.3718492627348571	82.24877317112788	far	V2
2	3.0	ltm	229	diff_vonmises	0.1509390823939534	8.64817238475092	1.2047024844722185	96.78395631551656	1.1790109243711833	97.53010252595917	0.1798501240569052	-0.2317567083953271	0.4116068324522324	78.73610542447028	far	V3
3	4.0	ltm	229	diff_vonmises	-0.0699928279214998	-4.010293636087365	0.5774943954021078	103.97399322746838	0.5562351693246159	105.58486909815107	0.0024237355634433	-0.3739488354569431	0.3763725710203864	107.6838060303517	far	V4
4	5.0	ltm	229	diff_vonmises	0.0058761437299339	0.3366782355374763	1.1011465562981853	135.13619937182787	1.0794362750204538	135.72240113198026	0.3408062076837836	-0.2501883588737907	0.5909945665575744	85.51465586669443	far	V3ab
5	6.0	ltm	229	diff_vonmises	-0.1313321858534972	-7.524779963633125	0.6917265560718743	102.15225637489117	0.6699043420009051	102.73205446378694	0.2627990213021149	-0.2551889362095441	0.517987957511659	107.76352914130972	far	IPS0
6	7.0	ltm	229	diff_vonmises	0.1901778935594594	10.896390657645227	1.087911118255153	91.47625907125042	1.065878235386727	91.95084490397986	0.210293417986044	-0.1795092254374637	0.3898026434235078	85.1767712996936	far	LO1
0	1.0	ltm	230	diff_vonmises	0.3466563043493444	19.86194318082	0.6693555233266835	159.57883901364755	0.6517338717189687	162.45858208866775	-0.2581561267403316	-0.5438495514512809	0.2856934247109493	89.37512500622208	far	V1
1	2.0	ltm	230	diff_vonmises	0.0885723905942409	5.0748241624342345	0.7376152430137674	142.72597292937928	0.7213284317984605	144.3274816447	-0.0186955938149893	-0.3490273715746426	0.3303317777596533	93.2202509349807	far	V2
2	3.0	ltm	230	diff_vonmises	0.0695627763640502	3.985653496872475	0.9364731406855272	135.55819284702014	0.9205654251314692	136.48967285183588	0.1058216355506331	-0.2449685193897686	0.3507901549404018	87.16196697403117	far	V3
3	4.0	ltm	230	diff_vonmises	0.1728786601174111	9.90521759260429	0.5270618913274129	1.3445551335562915	1.8677050785278326e-16	3.2199589818513057	-0.1739047578164402	-0.3944821935655065	0.2205774357490662	150.23441034973123	far	V4
4	5.0	ltm	230	diff_vonmises	0.0177800584539988	1.0187223089100323	1.7496983569665283	1.3963626436486174	0.3454738193988229	2.6575989069088872	0.0841278499250316	-0.3020958180128491	0.3862236679378807	84.59290285923976	far	V3ab
5	6.0	ltm	230	diff_vonmises	-0.2435325856252149	-13.953389330233158	0.3851755651247047	47.98449308677687	0.350932121639501	49.26381846688083	0.0187491246190383	-0.3457198385534443	0.3644689631724827	132.65998127720417	far	IPS0
6	7.0	ltm	230	diff_vonmises	0.81389206199856	46.63258013171743	0.0004026982901903	1709.8228322015252	3.60840730687261e-29	1711.2035126573226	-0.1101483633597126	-0.3293138123547123	0.2191654489949996	161.2155480854647	far	LO1
0	1.0	ltm	231	diff_vonmises	0.3509216779411635	20.10633108567779	0.6726074994770975	171.7285416823278	0.6578266905985262	174.34738334362925	-0.2412686366082539	-0.4926855698480885	0.2514169332398346	88.60673494178684	far	V1
1	2.0	ltm	231	diff_vonmises	0.1265007379638983	7.24795839062172	0.7470110501906948	109.81823780948665	0.7291821812047681	111.15069962014148	-0.0129097288519517	-0.2912930969844947	0.2783833681325429	92.77975672866827	far	V2
2	3.0	ltm	231	diff_vonmises	0.1676393972747459	9.605029943959858	1.170976582334271	100.27182913122064	1.1526723392855789	100.87937641383876	0.1158652115038734	-0.1781790883201388	0.2940442998240122	79.0237185961274	far	V3
3	4.0	ltm	231	diff_vonmises	0.2020507471435856	11.57665505879243	1.596302072098721	0.392670624625868	3.0173037738407976e-11	1.9924930289048337	-0.140488383850584	-0.3098613423674811	0.1693729585168971	107.4136361659338	far	V4
4	5.0	ltm	231	diff_vonmises	0.0067050067715941	0.3841685896189819	1.1300123123722503	119.89989106239734	1.108466924003524	120.89684988442605	0.1214694307958623	-0.2688369066743821	0.3903063374702444	79.19864566155118	far	V3ab
5	6.0	ltm	231	diff_vonmises	-0.2000865244693611	-11.464113389535468	0.5966166038710122	131.9899715491701	0.5820478362923798	133.04238475179775	0.087645436568259	-0.286934507404176	0.3745799439724351	109.62085828554176	far	IPS0
6	7.0	ltm	231	diff_vonmises	0.7931892431464723	45.446395987468925	0.0002315625456015	4146.9152162745695	5.3287345436254706e-33	4148.006451671384	-0.0208395441836728	-0.3264937778691319	0.3056542336854591	162.10182538585	far	LO1
0	1.0	ltm	232	diff_vonmises	0.3063940741328276	17.55508731562949	0.0795517106775418	33.77079774305963	0.0653680562877421	35.541791305205386	-0.2216919683746629	-0.3371198159772381	0.1154278476025751	167.79497970353506	far	V1
1	2.0	ltm	232	diff_vonmises	0.4740342703731615	27.160163036945512	0.2789593603554688	91.21147973877451	0.2668075008601009	92.07722073174811	0.0199800926545918	-0.2532970644211367	0.2732771570757286	142.83588348854823	far	V2
2	3.0	ltm	232	diff_vonmises	0.2116564236965017	12.127019784642298	2.0428165670137024	78.86431462813397	2.019423867427846	79.00553869541845	0.2122007461994002	-0.1112318480485132	0.3234325942479135	63.48014016911827	far	V3
3	4.0	ltm	232	diff_vonmises	0.1175916910051986	6.737507600404366	0.9059489278933238	93.0560926183917	0.8857001502195464	94.44865249605532	-0.0866776809551161	-0.2849618328906782	0.198284151935562	79.78113869184938	far	V4
4	5.0	ltm	232	diff_vonmises	-0.1948898015672331	-11.166363099944558	1.9183634823545208	111.0662222863326	1.8919086705656536	111.65017472512378	0.1773961594859727	-0.2266239574974626	0.4040201169834354	61.83224163505906	far	V3ab
5	6.0	ltm	232	diff_vonmises	-0.1913120293430673	-10.96137185144072	0.9838084482052232	189.1892371385428	0.9693123565857308	190.2016842913034	0.1797314586583596	-0.2891298737423433	0.4688613324007029	86.33059587346563	far	IPS0
6	7.0	ltm	232	diff_vonmises	-0.3557549081118268	-20.383254775872093	2.3283987198692238	20.198571784398915	2.207685018820784	20.71780846071193	0.0721752488815976	-0.1977697776718696	0.2699450265534673	54.61412505758753	far	LO1
0	1.0	ltm	233	diff_vonmises	-0.0753909259362144	-4.319581869728461	0.2653724577121715	71.23560744911829	0.2481976494584551	73.56544943274723	-0.2519420170432163	-0.4519375267384848	0.1999955096952685	139.27510796759532	far	V1
1	2.0	ltm	233	diff_vonmises	0.1540240852493578	8.8249300281514	0.6181264539965889	110.5949263938478	0.6008736266885057	111.80676117222998	0.0394537773364582	-0.2954110811444526	0.3348648584809108	105.4286196948302	far	V2
2	3.0	ltm	233	diff_vonmises	0.0392634535691204	2.2496301786184723	1.08298664262318	86.34806866440624	1.060347537344191	87.00053483604445	0.1368018696748087	-0.1938808348720737	0.3306827045468825	82.78453403054343	far	V3
3	4.0	ltm	233	diff_vonmises	-0.1770985028057904	-10.146996768857562	1.3144549683338411	0.7422448958402749	7.323023170905698e-16	2.303811583048972	-0.0696999882297527	-0.3452348335366776	0.2755348453069248	116.43065669419327	far	V4
4	5.0	ltm	233	diff_vonmises	-0.0488831953454391	-2.800800782407212	2.0102279327280064	0.876255520889477	0.1639932257473405	1.8196166837770376	0.1145107581065193	-0.2427943688344426	0.3573051269409619	87.43082105219176	far	V3ab
5	6.0	ltm	233	diff_vonmises	-0.3531537060291163	-20.23421687487214	0.5016731985111178	117.338076064455	0.4857247511414783	118.40861885983163	0.0881220028428408	-0.3111267286272703	0.3992487314701112	119.72894979988082	far	IPS0
6	7.0	ltm	233	diff_vonmises	0.1436073101916286	8.228092781206373	1.0566028339068854	167.12641721246533	1.042633308655848	168.3780812361083	0.0017910519726314	-0.2876886247473642	0.2894796767199956	77.7336077312215	far	LO1
0	1.0	ltm	234	diff_vonmises	0.1500844727078165	8.59920685660428	7.387254959179063	0.4554094903524611	2.0681707731091143e-20	3.532051766384422	-0.0773718166883566	-0.5621433120079113	0.4847714953195546	50.04809413873218	far	V1
1	2.0	ltm	234	diff_vonmises	-0.0658670005494294	-3.773901140668184	2.9555712365184426	1.2662290149978754	0.4545635401246859	2.7243102641936563	0.173134827128674	-0.3744325576032677	0.5475673847319418	67.34215423764329	far	V2
2	3.0	ltm	234	diff_vonmises	-0.0606560158267138	-3.475333708949428	0.7542503207961976	123.47915677032864	0.7375544754869866	124.36421983247776	0.1353111240254492	-0.2534364360166048	0.388747560042054	98.81298338733656	far	V3
3	4.0	ltm	234	diff_vonmises	-0.2346271184627198	-13.443143647229842	1.25214488509588	1.0799770493854366	3.270391038605622e-16	2.6526189555899844	-0.0023725127190896	-0.3878626711272429	0.3854901584081533	118.50696684680774	far	V4
4	5.0	ltm	234	diff_vonmises	0.0498623556868714	2.8569025374378705	1.8837860063803047	1.183141784829281	8.879675815201915e-16	1.9760678412633677	0.2741207761892373	-0.3008988741133809	0.5750196503026181	99.78653958104812	far	V3ab
5	6.0	ltm	234	diff_vonmises	-0.1493080499194281	-8.554721107711844	0.5789640035791829	2.42475916753636	1.90533940348322e-17	3.03430820200983	0.1513291817750779	-0.2836758127255762	0.4350049945006541	147.80696377146973	far	IPS0
6	7.0	ltm	234	diff_vonmises	0.2330117489195953	13.350589790054832	1.1946249737902606	1.3876526786043055	3.140176697792688e-17	2.141417361062252	0.1839033325223627	-0.2926989573133479	0.4766022898357107	120.5471423308355	far	LO1
0	1.0	ltm	235	diff_vonmises	0.04082067209017	2.338852227654214	1.9675041000608928	0.515387254526612	7.457246283668226e-16	2.6926879103324644	-0.1653043750614597	-0.4234088696586835	0.2581044945972238	97.77475595273282	far	V1
1	2.0	ltm	235	diff_vonmises	-0.0035519644631328	-0.2035125727179613	1.805065316656974	1.3950559200803097	0.3948310979471294	2.3642970421430287	0.1389566284328257	-0.2571898962222796	0.3961465246551053	83.70134565407338	far	V2
2	3.0	ltm	235	diff_vonmises	0.0783017314635827	4.486358741430018	1.2446469414799708	8.442147415972606	0.9841793558541378	9.080906178933043	0.1942370928180921	-0.2103078910835518	0.4045449839016439	82.46717196530221	far	V3
3	4.0	ltm	235	diff_vonmises	-0.1975959474900752	-11.321413840069944	1.961508934531463	0.8913691401270417	1.0814798192447891e-13	2.2602080332566064	0.0947327781446395	-0.3507329910813827	0.4454657692260222	97.8622037723786	far	V4
4	5.0	ltm	235	diff_vonmises	-0.0213122134437736	-1.2210998824102055	1.5511271573073284	1.886982329308405	0.4092951335736424	2.3697824575420814	0.2892746612597802	-0.2135658344037418	0.502840495663522	92.19777850388814	far	V3ab
5	6.0	ltm	235	diff_vonmises	-0.2375086529936823	-13.608243414375204	0.611787356612234	124.38442036545948	0.5955694902482306	124.95595208397437	0.2306306757920069	-0.2529488187379147	0.4835794945299216	114.00809360327642	far	IPS0
6	7.0	ltm	235	diff_vonmises	0.1335381159507744	7.651170448107994	1.176556509864626	199.5120089561376	1.1636462642104215	200.2844091660153	0.1901905612141661	-0.2406415054379067	0.4308320666520728	79.57817541766877	far	LO1
0	1.0	ltm	236	diff_vonmises	-0.3358740083774628	-19.244163128170275	0.0006077685326528	867.0141814031782	1.1667623867229477e-22	868.341358087379	-0.1273490191744599	-0.2950789555697781	0.1677299363953182	176.76556428298755	far	V1
1	2.0	ltm	236	diff_vonmises	0.2631925460861385	15.07982209003815	0.7856941178081326	69.96665874000787	0.762318973848367	70.66397783375336	0.1055923735233648	-0.1975428560831531	0.3031352296065179	96.88668237382834	far	V2
2	3.0	ltm	236	diff_vonmises	0.1684445881921669	9.651163985230347	1.160794200262828	26.351896693576595	1.1085420727345845	26.61115499938354	0.1627749453000095	-0.1144384483020228	0.2772133936020324	84.00553384275742	far	V3
3	4.0	ltm	236	diff_vonmises	-0.3150162538532091	-18.04910182381064	6.07224527870954	0.4016886478589364	2.011858434508223e-40	1.519012146785169	0.1442675359458805	-0.2417562390416511	0.3860237749875316	55.29073382221367	far	V4
4	5.0	ltm	236	diff_vonmises	-0.1113728294625224	-6.381193080632805	2.3350804803685885	0.5051756664447555	0.0727651153125293	0.765495132454856	0.1551005923751394	-0.1105780158807663	0.2656786082559057	87.03555165299178	far	V3ab
5	6.0	ltm	236	diff_vonmises	-0.4763773909539359	-27.29441395711413	0.6660261086170198	70.80788393851464	0.645898548848019	71.18356714951194	0.1679421863423371	-0.1674168649856202	0.3353590513279574	109.72714008783642	far	IPS0
6	7.0	ltm	236	diff_vonmises	0.1618377316205948	9.272618987830992	1.3864471686510684	167.01006359751636	1.370883304484369	167.90766385173995	0.0975460190494033	-0.2525612719378856	0.3501072909872889	70.63404514899361	far	LO1
0	1.0	ltm	237	diff_vonmises	0.0773143849061626	4.429787950773074	2.102703920868092	0.43367585677332	3.838642665265097e-35	3.390888436173685	-0.3091041411624026	-0.5362373288433839	0.2271331876809812	94.71441827195494	far	V1
1	2.0	ltm	237	diff_vonmises	0.118278811859574	6.776876725375503	2.288343306167027	1.138541048339662	0.3933234827977817	2.3607945390064127	0.100926499919304	-0.297072764933295	0.397999264852599	75.23696427760478	far	V2
2	3.0	ltm	237	diff_vonmises	0.105903377713278	6.067816579150652	2.649156453046895	0.4945045029808654	1.6787231856060506e-23	1.2557036632456489	0.1016357720231926	-0.1983439966601586	0.2999797686833512	84.493012538568	far	V3
3	4.0	ltm	237	diff_vonmises	-0.3894887194783372	-22.31605979406358	0.519113578549507	53.30046328379651	0.4791124805733091	54.97760444440454	-0.008862258168639	-0.3968746309440876	0.3880123727754485	114.8552270776339	far	V4
4	5.0	ltm	237	diff_vonmises	-0.0272300093119413	-1.5601646096761714	1.811464702300933	1.1794691908516115	0.0854990045291061	1.6900289492286964	0.2805227072079664	-0.2311824039835171	0.5117051111914837	97.62079364459188	far	V3ab
5	6.0	ltm	237	diff_vonmises	-0.1408079263646822	-8.067699902685167	0.2247837419051839	23.022851337333314	0.1641146137205529	23.287933144423278	0.1921988704358561	-0.2343996886410031	0.4265985590768593	157.31390390770872	far	IPS0
6	7.0	ltm	237	diff_vonmises	0.3054747152784581	17.502411933416134	0.9815455920157204	87.661024883992	0.9592202211322752	88.35937817696811	0.1378454376044295	-0.2044393607298431	0.3422847983342727	86.99609558254139	far	LO1
0	1.0	ltm	238	diff_vonmises	0.2692944741959618	15.429436817623264	0.5483932882208961	173.20376536022238	0.5327161660875761	176.61656548879986	-0.3525419157645757	-0.623766224950522	0.2712243091859463	96.1954374912307	far	V1
1	2.0	ltm	238	diff_vonmises	0.0608666691421007	3.487403254861534	0.5253114143617584	101.73948501011868	0.5041173490265711	103.55837420468356	-0.0463005384769452	-0.4053474734088489	0.3590469349319036	111.236602578129	far	V2
2	3.0	ltm	238	diff_vonmises	-0.0518225141058286	-2.969211342021159	1.030511862896416	151.24030149688917	1.013996775774117	152.27550684074643	0.1150780893184943	-0.2724006579959166	0.387478747314411	82.79905572698664	far	V3
3	4.0	ltm	238	diff_vonmises	0.0254621518825791	1.4588738401928707	0.0007718977457347	869.1079362796233	1.5263458319298684e-24	871.1426231456018	-0.2170422243141274	-0.4305775175284054	0.213535293214278	179.90490151705575	far	V4
4	5.0	ltm	238	diff_vonmises	0.0327541263823638	1.876673203347549	2.51485618161154	0.7693427705486163	0.0599626636353587	2.540173043861131	0.0261198388521062	-0.3815863682890141	0.4077062071411204	82.19250470026492	far	V3ab
5	6.0	ltm	238	diff_vonmises	-0.2501318071555189	-14.331496871991442	0.4586211320709952	44.60758393219071	0.4112100091250925	46.47766720011236	-0.0398522781363404	-0.4413168593664682	0.4014645812301278	121.92998285399784	far	IPS0
6	7.0	ltm	238	diff_vonmises	0.9657933526795	55.33588299032518	0.0002037431469074	3932.9660760690417	6.017698808302613e-34	3934.370543902355	-0.0959904694502711	-0.351052535603344	0.2550620661530729	154.24134594068016	far	LO1
0	1.0	ltm	239	diff_vonmises	0.1135974923980194	6.508656877675966	2.593929407705274	0.5433614106501996	1.826610371863118e-21	2.9736577834892377	-0.1460731104905839	-0.4714449225408924	0.3253718120503084	85.39773496743766	far	V1
1	2.0	ltm	239	diff_vonmises	-0.0795715602424454	-4.559114571163099	2.038148497302212	1.141204808255076	0.1721214239320876	2.4959924414240806	0.1270677200469752	-0.3339302727108562	0.4609979927578314	86.16917289933755	far	V2
2	3.0	ltm	239	diff_vonmises	-0.0660114034854791	-3.782174819453125	1.248422812050924	3.9520011950452254	0.5912535881715479	4.982854462304915	0.2185796272708238	-0.3076940169961834	0.5262736442670073	90.61893761516076	far	V3
3	4.0	ltm	239	diff_vonmises	-0.1279375946142442	-7.330284212451844	1.245526292641167	1.2829488809464349	4.449041909700096e-20	2.970148443240378	0.0244412648133999	-0.4315363556724494	0.4559776204858493	118.9412466929086	far	V4
4	5.0	ltm	239	diff_vonmises	-0.0341995550724052	-1.959490166874046	1.5885743775001435	1.183718535817114	4.77280615249936e-17	2.128713516368883	0.1921059716601472	-0.3166543454174186	0.5087603170775659	107.77059213487824	far	V3ab
5	6.0	ltm	239	diff_vonmises	-0.2730230036483552	-15.643065819035632	1.007556617479323	1.538807784190216	3.471650548004336e-14	2.6135669937281767	0.112053358256062	-0.3455720898680594	0.4576254481241214	127.70907063428264	far	IPS0
6	7.0	ltm	239	diff_vonmises	0.2129632324412511	12.201894410347228	1.1589400945377697	146.32116150440356	1.1417948304630874	147.2865971496327	0.1110712325640221	-0.259580324197131	0.3706515567611532	77.89508278803572	far	LO1
0	1.0	ltm	240	diff_vonmises	0.2468901381483017	14.145762919299534	0.7763677164211924	49.76301766311357	0.7449484248699115	50.91644691603335	-0.0395837137791517	-0.2415509442042216	0.2019672304250699	89.46445840517694	far	V1
1	2.0	ltm	240	diff_vonmises	0.1444668920442675	8.277343193508617	0.814913606492869	104.99937514158624	0.8001738486740084	105.66601476888928	0.0930915313753288	-0.1841114374559715	0.2772029688313004	94.47985668611148	far	V2
2	3.0	ltm	240	diff_vonmises	0.1967087034389565	11.270578500542747	1.290838704534096	94.81182536690426	1.2738551651824894	95.07150935485345	0.191593337813984	-0.1239079753381737	0.3155013131521578	79.27671729086231	far	V3
3	4.0	ltm	240	diff_vonmises	-0.2222870989984554	-12.736112612818207	11.764617241594951	0.2937869512292476	6.2988168543901106e-21	1.2774193783095047	0.1942010186621756	-0.2033076084352988	0.3975086270974745	39.53840373142225	far	V4
4	5.0	ltm	240	diff_vonmises	-0.0601081074763717	-3.443940872914848	1.7213315740536803	1.5672110856098338	0.8179737606399288	2.007214175313025	0.1216959952714991	-0.1400815796365933	0.2617775749080924	77.37542892068822	far	V3ab
5	6.0	ltm	240	diff_vonmises	-0.4025942673752251	-23.06695237676181	2.144449814178294	0.6764730640988695	4.4851503361519656e-14	1.377860226796874	0.1446617764569012	-0.2142997830452605	0.3589615595021618	93.63971214876923	far	IPS0
6	7.0	ltm	240	diff_vonmises	-0.0276010761715033	-1.5814251746462469	1.152294198982344	180.8264978458454	1.1355719597560836	182.22945444859727	0.0478253872963705	-0.3427780626736876	0.3906034499700581	75.6962854092173	far	LO1
0	1.0	ltm	241	diff_vonmises	0.1604845662737274	9.195088324472136	0.5193279423533028	159.14420606680787	0.5043057956040212	162.30478043447093	-0.3347524158722024	-0.5745180781793131	0.2397656623071107	98.31425727920752	far	V1
1	2.0	ltm	241	diff_vonmises	0.1655946079674954	9.487872146660925	0.8371468536032427	163.8882548764921	0.822626668388788	165.25207570066206	0.0342539285540439	-0.3153146971004332	0.3495686256544772	89.16642907701643	far	V2
2	3.0	ltm	241	diff_vonmises	0.0928514765070346	5.319997725411198	2.762793386759616	0.5993279515841485	0.252196434347302	1.456028246084235	0.080871080281087	-0.2046518358940809	0.285522916175168	73.1116629888393	far	V3
3	4.0	ltm	241	diff_vonmises	-0.1574658402719297	-9.022128065062724	0.4612714167549666	1.9193826864201493	1.5490147104662262e-11	3.638805865836941	-0.1193983717907458	-0.3963858392092166	0.2769874674184708	153.82759471413556	far	V4
4	5.0	ltm	241	diff_vonmises	-0.0360585707668564	-2.066003920214681	0.9043038322369708	46.79493700938945	0.841152425637043	48.24071353995083	0.1130877057135464	-0.3620794402345018	0.4751671459480482	88.96912152130446	far	V3ab
5	6.0	ltm	241	diff_vonmises	-0.2037268194978675	-11.672686930851338	0.5147920898483481	74.69316184735388	0.485837825472446	76.0036693873895	0.0843300788104279	-0.3649050185127107	0.4492350973231387	118.5471869172069	far	IPS0
6	7.0	ltm	241	diff_vonmises	0.0928506515776942	5.319950460441598	0.5698584994610342	130.69713631211766	0.5536418218194804	132.89443686293825	-0.1647808729726279	-0.4275691075914363	0.2627882346188084	99.9987691684583	far	LO1
0	1.0	ltm	242	diff_vonmises	0.1664274636173984	9.53559126034399	5.27687793474394	0.4264598473196953	8.586799078184667e-21	3.350458023389609	-0.1527549840360204	-0.5332320236852045	0.3804770396491841	59.40584160917274	far	V1
1	2.0	ltm	242	diff_vonmises	0.0034290037321511	0.1964674417868702	2.3528932381402785	1.454633838990379	0.4473815882833206	2.8894948964897944	0.1424944311053343	-0.3592034933324872	0.5016979244378215	73.53048171192597	far	V2
2	3.0	ltm	242	diff_vonmises	-0.0256977927670013	-1.4723750683509929	1.6303975107481723	1.120911056554189	0.0097087584653464	2.3194487053382824	0.1379695410323452	-0.345984493561121	0.4839540345934662	105.84987909608968	far	V3
3	4.0	ltm	242	diff_vonmises	-0.1685894864759219	-9.659466045348196	0.7192168785791201	2.3333506766535894	8.007740877873597e-21	4.176785871424391	0.0077592204929159	-0.5051647545768639	0.5129239750697799	140.8528755497993	far	V4
4	5.0	ltm	242	diff_vonmises	-0.0311968650061147	-1.787448698889747	1.6745030850092049	1.3380201904361886	8.26196807293869e-17	2.0012357966168186	0.3011408651984515	-0.2967445212892645	0.597885386487716	105.30200690472624	far	V3ab
5	6.0	ltm	242	diff_vonmises	-0.1132544487909699	-6.489001926803088	0.275837883692294	5.009396305054101	3.88884009566331e-17	5.466227173985907	0.1608219408532599	-0.2762416254798228	0.4370635663330827	164.07565275873824	far	IPS0
6	7.0	ltm	242	diff_vonmises	0.2740922608103586	15.70432974163256	1.0323961947202642	84.93790938105113	1.00667756799412	85.71833151109225	0.1448434799935718	-0.2250819286773122	0.3699254086708841	84.55693621956425	far	LO1
0	1.0	ltm	243	diff_vonmises	0.3180184786144143	18.22111663177737	0.7853928218186247	132.47044642606028	0.7686825469202363	134.23329841757482	-0.1020171397397717	-0.3555593449460268	0.253542205206255	86.27766391402523	far	V1
1	2.0	ltm	243	diff_vonmises	0.0548391463381062	3.1420516372737928	0.7453602618235785	89.28172638420978	0.7266304975775181	90.25107870142676	0.0383673960845492	-0.2311891936044858	0.269556589689035	95.71124605770086	far	V2
2	3.0	ltm	243	diff_vonmises	0.1853327309897526	10.618783291346269	1.3984536230204585	137.28563680020383	1.3832983438669335	137.69985498554067	0.2011087022258308	-0.1648969142206144	0.3660056164464453	74.74673974770252	far	V3
3	4.0	ltm	243	diff_vonmises	0.102012800959101	5.844902951264605	0.8666284262574715	105.45956862003816	0.8476519667076744	106.71379912929358	-0.010459365024694	-0.2756524576905033	0.2651930926658092	85.83397696069318	far	V4
4	5.0	ltm	243	diff_vonmises	-0.0366969442354138	-2.1025800257161467	1.3747087421486806	109.16791762173182	1.351739671461348	109.93784721014028	0.1374280231578097	-0.2314312935631743	0.3688593167209841	72.39232504695863	far	V3ab
5	6.0	ltm	243	diff_vonmises	-0.1822634085345063	-10.44292406869592	0.8465832846235343	146.0636719828295	0.8298822160865266	147.1566395515131	0.1274799045066146	-0.2903747916654691	0.4178546961720837	92.05771264052632	far	IPS0
6	7.0	ltm	243	diff_vonmises	-0.0921504744588476	-5.279833266620056	1.16890715194711	131.71058097006323	1.1492528213652513	132.82721126178026	0.0681290190364265	-0.2824967416954962	0.3506257607319227	76.09620320497575	far	LO1
0	1.0	ltm	244	diff_vonmises	0.0723888534893206	4.147575788728934	0.3694769392065573	101.01420500899016	0.3540324351143204	103.34120502898205	-0.2278200042180032	-0.449178203165582	0.2213581989475788	122.10622371079278	far	V1
1	2.0	ltm	244	diff_vonmises	0.05432261525885	3.1124565864450764	0.4576894532799433	98.6502274522046	0.4392653850807628	100.0026514746049	0.0183021755300529	-0.3465042896032617	0.3648064651333147	122.55637166629224	far	V2
2	3.0	ltm	244	diff_vonmises	0.0161405142453281	0.924783345428088	1.106331908993026	170.2541550024918	1.091287094712296	171.0634744864562	0.1891647703546155	-0.2473928809952568	0.4365576513498723	82.07228598313759	far	V3
3	4.0	ltm	244	diff_vonmises	-0.0019000279333475	-0.1088635815377793	1.43977830817478	0.7608680363620597	3.582402066929747e-20	2.5026862722235754	-0.0768089697095347	-0.3802591349180381	0.3034501652085034	112.36920570023688	far	V4
4	5.0	ltm	244	diff_vonmises	-0.0221110740436761	-1.2668712232039088	2.0234716656183807	0.8997763669589375	0.1565129498113127	1.958240053184711	0.1052096815780755	-0.2639801911049269	0.3691898726830024	87.18955404107146	far	V3ab
5	6.0	ltm	244	diff_vonmises	-0.322107310355633	-18.455389433688328	0.5399067364092824	20.7683349801201	0.4460342423733106	22.076504753924915	0.0542474592618251	-0.3481244186207204	0.4023718778825456	118.41686236136192	far	IPS0
6	7.0	ltm	244	diff_vonmises	0.1087356772090048	6.230095386572834	1.297066033666069	130.6116083277866	1.2792613960650518	131.6392859873661	0.0189773575934779	-0.2566731259721386	0.2756504835656166	70.57345434014678	far	LO1
0	1.0	ltm	245	diff_vonmises	-0.0402160159428748	-2.304207982357559	0.2785025172655118	68.71406055989029	0.2639766895359821	70.68886054188314	-0.2251309725838854	-0.3721298677448814	0.1469988951609959	134.81270495577732	far	V1
1	2.0	ltm	245	diff_vonmises	0.2696634794195502	15.450579259553164	0.7751657963506237	97.8371177449862	0.7581418812930991	98.71956662776842	0.05712452946414	-0.2185381131023547	0.2756626425664947	94.73617955690584	far	V2
2	3.0	ltm	245	diff_vonmises	0.2167159664555645	12.416910231002571	1.3639323761298765	25.87790500458625	1.3104860125193158	26.186197428084697	0.1266144646821771	-0.1144803163489478	0.241094781031125	75.79746512434463	far	V3
3	4.0	ltm	245	diff_vonmises	-0.3319668023425054	-19.02029671267917	0.7699797271638354	73.77540633952019	0.74566953177166	75.0226703537795	-0.0233617545217619	-0.2682601625902823	0.2448984080685203	90.86047341263856	far	V4
4	5.0	ltm	245	diff_vonmises	-0.0616063399652196	-3.529783271255215	1.19425496887343	55.38786511997296	1.1606832360039585	55.83635433492275	0.1778056965217302	-0.162166799862919	0.3399724963846493	80.93679058856515	far	V3ab
5	6.0	ltm	245	diff_vonmises	-0.3432500140168365	-19.666777120971084	0.6540172342566355	144.68586821010732	0.642541910103912	145.17458392362096	0.1817923296990073	-0.2003162743445532	0.3821086040435606	109.74857604483604	far	IPS0
6	7.0	ltm	245	diff_vonmises	0.1597057639452231	9.15046623797388	1.0556691202630737	127.51485814919408	1.0391041599545965	128.38932864861331	0.0925209372918445	-0.2291282171155906	0.3216491544074351	81.60604216271236	far	LO1
0	1.0	ltm	246	diff_vonmises	0.3585472422042212	20.543243734356786	0.0003008292358869	1494.0265166418951	3.150169123300483e-30	1496.90417061915	-0.3864580607625782	-0.5295168911697772	0.1430588304071989	175.98215101211264	far	V1
1	2.0	ltm	246	diff_vonmises	0.3386417405672743	19.40274250146898	0.430346705866737	111.09421017255414	0.4158200132270224	112.58106517800984	-0.0461391256759213	-0.3438659057987987	0.2977267801228773	122.50772286710747	far	V2
2	3.0	ltm	246	diff_vonmises	0.1621167130692785	9.288603447403016	1.388491672931119	81.21293529046724	1.3627194906505875	81.8599167341508	0.1108012708799037	-0.1936593639034143	0.3044606347833181	71.92674082821398	far	V3
3	4.0	ltm	246	diff_vonmises	0.5680402408615883	32.54630839496374	0.0003115808810365	1309.5645556215968	2.2159037205927617e-29	1311.613848311972	-0.2612112085679712	-0.3910887985706779	0.1298775900027067	170.4321645536815	far	V4
4	5.0	ltm	246	diff_vonmises	-0.0564699832056202	-3.2354917068566804	1.136898769537856	114.1944705647463	1.1143144714753086	115.24325527714063	0.1003813908055519	-0.2745227855734065	0.3749041763789584	78.30128733812222	far	V3ab
5	6.0	ltm	246	diff_vonmises	-0.2815509036900471	-16.13167849953402	0.5822787406443252	161.0249758861712	0.5697275873692339	162.22856061570437	0.0688377254886489	-0.3137835124828427	0.3826212379714917	109.87974814265492	far	IPS0
6	7.0	ltm	246	diff_vonmises	-1.5345938958443917	-87.92575349842228	2.295476002522049	0.8428899301305597	2.295460461265362	1.4734260348404684	-0.0035840656940589	-0.3533197107784405	0.3497356450843816	144.047202059213	far	LO1
0	1.0	ltm	247	diff_vonmises	0.1485637690114707	8.512076952913718	4.216103690147616	0.4311033748258149	4.0400266654487065e-24	2.58463409992577	-0.0703253538999424	-0.4112830139748385	0.340957660074896	66.64236640576505	far	V1
1	2.0	ltm	247	diff_vonmises	-0.0503182278298594	-2.8830220872286683	2.322497798671968	1.3286866679523694	0.405124923883967	2.4649392037030022	0.1848851733245414	-0.303708492706691	0.4885936660312325	75.84370335876713	far	V2
2	3.0	ltm	247	diff_vonmises	-0.0099280697313958	-0.5688364943205637	1.0928339475027022	3.880561280272444	0.500717923501637	4.7773957985116855	0.2144373228404661	-0.2867583036667455	0.5011956265072116	98.13936787180248	far	V3
3	4.0	ltm	247	diff_vonmises	-0.2085840439684775	-11.95098539316496	1.7914470252653183	1.1327952417514682	7.743700353794073e-22	2.630566302158826	0.1279529587803182	-0.4034742137492375	0.5314271725295558	102.05058304345344	far	V4
4	5.0	ltm	247	diff_vonmises	-0.0355051299170901	-2.034294095312939	1.6254449344015165	1.202812534758759	1.8144500003853516e-14	1.6251938638051069	0.2883889920241689	-0.2374651917605648	0.5258541837847337	106.69565083035872	far	V3ab
5	6.0	ltm	247	diff_vonmises	-0.2296268187643644	-13.15664757821354	0.7675971707970639	1.7966492407898371	2.44240067640778e-11	2.2481324291788702	0.1766222232177579	-0.2426784947852213	0.4193007180029792	138.3121765578871	far	IPS0
6	7.0	ltm	247	diff_vonmises	0.2396060954422362	13.728418014448929	1.2858954798787066	131.8038006050777	1.2674462846484034	132.39643272789638	0.2117216342094821	-0.2082722319146892	0.4199938661241713	77.2156800689691	far	LO1
0	1.0	ltm	248	diff_vonmises	0.0926034811797906	5.305788639821153	3.032089483606941	0.3905522361871725	1.2280129191218236e-17	2.8168719360558505	-0.1909802772404895	-0.4477208142537467	0.2567405370132573	78.90505426631188	far	V1
1	2.0	ltm	248	diff_vonmises	-0.0423219268362635	-2.424867788579357	3.2773431463864275	0.5635623432943135	2.0754539876326808e-15	1.7712154982872834	0.1061159544011762	-0.2813452922704042	0.3874612466715804	75.83529744086331	far	V2
2	3.0	ltm	248	diff_vonmises	-0.0368969804080133	-2.1140412541560503	1.0923511537998505	120.86293214091712	1.0772189221278812	121.3678894823668	0.1631324813009271	-0.1697158655264807	0.3328483468274079	83.7644329177673	far	V3
3	4.0	ltm	248	diff_vonmises	-0.3346425056519872	-19.173603219541665	0.6510113411549829	85.66310673799175	0.6299104354620801	87.0420728229929	-0.0307007133032932	-0.2974825816810647	0.2667818683777714	99.07638801380268	far	V4
4	5.0	ltm	248	diff_vonmises	0.0637007717628821	3.649785373739273	2.339961923444616	0.7002655633323801	1.988695442165705e-19	1.4309626609779895	0.1691358444126197	-0.2240615175926966	0.3931973620053164	89.90026174990672	far	V3ab
5	6.0	ltm	248	diff_vonmises	-0.3219291088008307	-18.445179236695488	0.5158254315101973	140.71586668646103	0.5029484746879854	141.57770148847928	0.1260145968203261	-0.2806226925501871	0.4066372893705132	119.73390773695728	far	IPS0
6	7.0	ltm	248	diff_vonmises	0.3277956762727775	18.78130879306677	0.8459234479907848	61.20019795713681	0.8159826022728943	61.77895328904532	0.1722903102512809	-0.1962561492867101	0.368546459537991	95.86649879288449	far	LO1
0	1.0	ltm	249	diff_vonmises	0.0182215083010585	1.0440155220132512	1.3339547682530728	0.7590203775480518	0.0857170503256389	2.100571952482276	-0.0572140598811473	-0.2850305888406342	0.2278165289594868	105.9083506652799	far	V1
1	2.0	ltm	249	diff_vonmises	-0.054285350156364	-3.1103214533495045	2.297310520046494	0.8024432061455914	0.1762788370342087	1.4553260318431245	0.1757260653237362	-0.1962225319972955	0.3719485973210318	83.22268838081976	far	V2
2	3.0	ltm	249	diff_vonmises	0.0787247195701587	4.510594174721053	1.2587585701033193	158.70415696079064	1.2456243700941154	158.9970042100332	0.2684079204342566	-0.1574294793225679	0.4258373997568245	80.84869142579026	far	V3
3	4.0	ltm	249	diff_vonmises	-0.2211244956060177	-12.669500345183934	3.647813182684155	0.6122677449144787	1.8768431087350799e-16	1.6713800834195742	0.1814734154225876	-0.2657047488818725	0.4471781643044601	71.77780393948905	far	V4
4	5.0	ltm	249	diff_vonmises	-0.0142523709090675	-0.8166007011446014	2.288448662001346	0.7388522412759789	0.1248214440181343	0.9147878209690784	0.2489512254574036	-0.1245413251340007	0.3734925505914044	86.81752694997539	far	V3ab
5	6.0	ltm	249	diff_vonmises	-0.3225073192415711	-18.47830825462031	0.7001022620053045	71.9454908580163	0.6749729532023889	72.44236200626949	0.2053505450588346	-0.2078912476956311	0.4132417927544658	106.8985350461338	far	IPS0
6	7.0	ltm	249	diff_vonmises	0.1634687001942266	9.366066603618568	1.4627167919909776	141.46409491734812	1.4451813933677555	141.8647824713685	0.2683400965636124	-0.1846248400600636	0.4529649366236761	73.94299815664692	far	LO1
0	1.0	ltm	250	diff_vonmises	0.36139151114557	20.70620834049621	0.538118331637277	96.49998193065916	0.5172348122606846	99.0228976903518	-0.2524505128348515	-0.4645683850194633	0.2121178721846117	98.27732107154657	far	V1
1	2.0	ltm	250	diff_vonmises	0.1631192332051815	9.34604362006714	0.5932482432635804	128.7387476859118	0.5789232563338015	130.2121670525302	-0.0368535248202235	-0.3199534348303228	0.2830999100100992	103.67874943861956	far	V2
2	3.0	ltm	250	diff_vonmises	0.2089829585677922	11.97384151609184	1.1217737093142814	162.50379617570263	1.10686194032516	163.36631428896038	0.1408177317245034	-0.2438775804501958	0.3846953121746992	80.2729234719715	far	V3
3	4.0	ltm	250	diff_vonmises	0.4076236774491776	23.35511634743987	1.4480483178988155	0.5795746324750903	1.6786315314589737e-18	2.531948720339343	-0.1572300916948965	-0.3893969972296399	0.2321669055347433	111.4202184761526	far	V4
4	5.0	ltm	250	diff_vonmises	-0.0004383070947343	-0.0251131466589178	1.090229824729689	132.14191612207156	1.0709376237945	133.15385570372578	0.1190515269346477	-0.270079100198842	0.3891306271334898	80.5759983883791	far	V3ab
5	6.0	ltm	250	diff_vonmises	-0.2141751261170776	-12.271330803190676	0.5296528622295108	100.10965622584372	0.5115222613218215	101.23380247761112	0.06048215030318	-0.3016028626603457	0.3620850129635258	115.78300734076902	far	IPS0
6	7.0	ltm	250	diff_vonmises	-0.2071327175490402	-11.867830514635369	1.4405973076110643	80.49514062895686	1.4151611714889805	81.51509907577152	-0.0630741492324133	-0.247641134825276	0.1845669855928626	63.37449397214809	far	LO1
0	1.0	ltm	251	diff_vonmises	0.1546940684707812	8.86331723908354	0.4948317823946297	94.95810243956348	0.4789797137316111	96.78136041885894	-0.1619610947537495	-0.3468860999958529	0.1849250052421034	105.3978248762208	far	V1
1	2.0	ltm	251	diff_vonmises	0.1360898143564605	7.79737199734407	0.7102556993265983	96.01396705775952	0.6930010860076685	96.93157075426014	0.0558991900760617	-0.2288907726624653	0.2847899627385271	99.11201373389022	far	V2
2	3.0	ltm	251	diff_vonmises	0.2170465374683235	12.435850554863023	1.367635179865225	115.81973033488204	1.3494982028498068	116.26322386736862	0.19758161318709	-0.1701128976332686	0.3676945108203586	75.41684911449101	far	V3
3	4.0	ltm	251	diff_vonmises	-0.0302114316300943	-1.7309875254524445	1.3519946325690193	1.5443757713017114	0.3276690324966123	2.896052600124612	0.0055538565052944	-0.2990029427034349	0.3045567992087294	91.60298216332136	far	V4
4	5.0	ltm	251	diff_vonmises	-0.0470999452924321	-2.6986280805534344	1.2645247100627413	120.1364451274513	1.245806852597766	120.67317570140784	0.2037984517001305	-0.1921020874014196	0.3959005391015502	78.11588696189062	far	V3ab
5	6.0	ltm	251	diff_vonmises	-0.248497059885673	-14.237832752858736	0.7293179840434322	158.70817282931307	0.7165662330761223	159.4289370927525	0.1786980147181509	-0.2392307004121985	0.4179287151303494	102.27293727006573	far	IPS0
6	7.0	ltm	251	diff_vonmises	-0.0249033111975101	-1.4268546275182157	1.4206204281177095	147.8643225568976	1.4030075225633547	148.74824969101883	0.0959969985077791	-0.2510015045636642	0.3469985030714433	69.75075990358022	far	LO1
0	1.0	ltm	252	diff_vonmises	-0.0193729327047428	-1.109987280772727	0.467480788724823	66.96665752195669	0.4469617570458306	68.27891777519766	-0.0558553278193159	-0.2879242320547677	0.2320689042354518	116.87714366855202	far	V1
1	2.0	ltm	252	diff_vonmises	-0.0683674337170996	-3.917165408130213	1.782802964349191	1.1746056459521153	0.2959951559536998	1.809879298124409	0.1862005525511659	-0.2041267149200407	0.3903272674712066	88.94122071904528	far	V2
2	3.0	ltm	252	diff_vonmises	0.0961894091806624	5.51124717990889	1.2551824158798166	161.13383655699806	1.2399098413279317	161.48725754669	0.3146166549936637	-0.1868623513031657	0.5014790062968295	80.93010932781337	far	V3
3	4.0	ltm	252	diff_vonmises	-0.188509856907823	-10.800819197433324	3.3080279127566854	0.7745199883919013	9.924890459559478e-19	1.9056984334555749	0.2327919351250657	-0.3025836286574055	0.5353755637824713	75.46485218533584	far	V4
4	5.0	ltm	252	diff_vonmises	-0.0292629876485296	-1.676645688204207	1.7393311496277997	1.2699945509088653	0.3918819846543798	1.3713350465113696	0.2909837724446998	-0.1288536789057272	0.4198374513504271	91.05723728154992	far	V3ab
5	6.0	ltm	252	diff_vonmises	-0.2959493859116006	-16.95665076222318	0.7025642203984102	84.61144826101403	0.6805836847046008	85.06320004101673	0.2274656112111728	-0.2083186393151948	0.4357842505263676	107.27050640335696	far	IPS0
6	7.0	ltm	252	diff_vonmises	0.1628219233311361	9.32900901907677	1.7710527237923757	133.02456295955292	1.7513163674602392	133.32563326415965	0.2900079248939562	-0.1745354697122678	0.464543394606224	67.62020984448904	far	LO1
0	1.0	ltm	253	diff_vonmises	0.1980465504856409	11.347231489951808	0.0004876121910543	842.9534167613593	4.789025856504696e-26	846.0349229688663	-0.425012023053597	-0.5558459189607561	0.1308338959071591	178.64842431563233	far	V1
1	2.0	ltm	253	diff_vonmises	0.4240819959241095	24.298108533935658	0.5121882753713467	140.19700944289022	0.4996825321016525	141.65044232860544	-0.0305462231152802	-0.3290443728369983	0.298498149721718	112.6997654972132	far	V2
2	3.0	ltm	253	diff_vonmises	0.1062763274071774	6.089185022581788	1.4997386356214144	67.83444319746451	1.4711536417418716	68.41506776011859	0.0916708417321778	-0.1765279261984602	0.2681987679306381	68.81211842892614	far	V3
3	4.0	ltm	253	diff_vonmises	0.4138959721442238	23.71449236132831	0.0003300834290665	908.6922954484284	1.302684398503093e-25	910.6182534205628	-0.2587847723732466	-0.3542588122255381	0.0954740398522915	174.7333647315885	far	V4
4	5.0	ltm	253	diff_vonmises	-0.0840123860315067	-4.813555146429169	1.1545154558348256	103.115220337488	1.127077902902069	104.36734071769985	0.0692037349430023	-0.3133933130378352	0.3825970479808376	76.54740737227326	far	V3ab
5	6.0	ltm	253	diff_vonmises	-0.2681130227643125	-15.361744636890071	0.6379396755902593	184.98750419132216	0.6254623679745818	186.39793991966536	0.056723476046244	-0.3461343508688976	0.4028578269151417	103.82634798479404	far	IPS0
6	7.0	ltm	253	diff_vonmises	-1.6506119788296718	-94.5731000006774	1.6788348305100154	1.3162672630452297	1.6789132586746418	2.178711862027709	-0.01392397627334	-0.400048183282253	0.3861242070089129	150.08919267284992	far	LO1
0	1.0	ltm	254	diff_vonmises	0.2354778993544153	13.491889801614368	0.7897338964309473	1.8488183921458916	0.159649817427104	4.758650766546589	-0.325080122374293	-0.5277163189498648	0.2026361965755717	109.96753342730408	far	V1
1	2.0	ltm	254	diff_vonmises	0.0614358334050174	3.520013964976336	2.3158942864122984	0.6194086912941817	0.03072012253753	2.0092094271779564	0.0192191504677841	-0.3067021604836212	0.3259213109514053	87.6238540005896	far	V2
2	3.0	ltm	254	diff_vonmises	0.1008485975950563	5.778199012009913	1.094250432370909	101.11959807570302	1.0749203540914076	101.78927585232464	0.1283212285309147	-0.1950798184464872	0.323401046977402	81.95804394787626	far	V3
3	4.0	ltm	254	diff_vonmises	-0.1122810080969642	-6.433227883430275	0.3615802494714808	63.13899634030506	0.3401622004398295	64.89817106512949	-0.1370324618933764	-0.3659815880884141	0.2289491261950376	128.23949889573652	far	V4
4	5.0	ltm	254	diff_vonmises	0.0215291015018087	1.233526652762402	2.013981928014449	1.2061209077009705	0.3071063462373138	1.9661923040520783	0.2092692916245676	-0.2333245637208874	0.442593855345455	84.12835357497372	far	V3ab
5	6.0	ltm	254	diff_vonmises	-0.2266530715505791	-12.986264413524855	0.5079936212489617	119.14867227071022	0.4932414260786799	119.887626493898	0.1471570321630793	-0.2657695185641202	0.4129265507271995	121.74294909580767	far	IPS0
6	7.0	ltm	254	diff_vonmises	0.4479799027113964	25.66735773204424	2.502435380045053	0.4996591689578724	0.0181718049579933	0.9557195806065946	0.1397518849311226	-0.1473803444684373	0.2871322293995599	85.98446676224455	far	LO1
0	1.0	ltm	255	diff_vonmises	0.0579892439838158	3.322538937427048	5.427447085247617	0.4172430311436099	1.3087029996472807e-32	3.6562486783889994	-0.2040197111497522	-0.5819027520701735	0.3778830409204212	58.5536249450748	far	V1
1	2.0	ltm	255	diff_vonmises	0.0400053231586871	2.292136175049744	3.029371952735463	1.1410799889083696	0.4182434227468235	2.344488608853752	0.2085908839394157	-0.3234711676406494	0.5320620515800651	67.952725607953	far	V2
2	3.0	ltm	255	diff_vonmises	-0.0904051887748749	-5.179835762883821	1.4495882780414544	0.9809101848056144	2.0550639424578719e-25	1.997258921310423	0.0983120099616491	-0.2949545640840715	0.3932665740457207	112.02515209486155	far	V3
3	4.0	ltm	255	diff_vonmises	-0.3633875192260182	-20.8205711793799	1.1867846801248167	1.7888879039777168	2.696164104625561e-16	3.427684102802468	0.1283256876986745	-0.4827637936898811	0.6110894813885557	120.43054472489166	far	V4
4	5.0	ltm	255	diff_vonmises	-0.0415967338483073	-2.383317291036984	1.4632370574783091	1.8292158228626116	6.618973935061011e-12	2.2941010886492217	0.4153783531406524	-0.3232914159569559	0.7386697690976083	111.61499912081815	far	V3ab
5	6.0	ltm	255	diff_vonmises	-0.0732797661075545	-4.198621321668687	0.2309616097301177	7.307200672597649	1.1993095806491906e-11	7.4369874112273555	0.2621507771491345	-0.2726845670594003	0.5348353442085348	166.7351823315271	far	IPS0
6	7.0	ltm	255	diff_vonmises	0.2004945527929628	11.487491690399642	0.8822569862945593	118.54983173414836	0.8615290520955033	119.37459894563573	0.2084082214803828	-0.2617618292534249	0.4701700507338078	92.90973355490306	far	LO1
0	1.0	ltm	256	diff_vonmises	0.2131852269894119	12.214613761031751	4.84666063813213	0.4716243011601461	0.0721410362404567	1.6934244502776286	0.1129032255305824	-0.266113562269599	0.3790167878001814	60.04866871179951	far	V1
1	2.0	ltm	256	diff_vonmises	-0.1501158566789646	-8.601005025695427	1.4147049906847011	160.2067614726387	1.396634139340044	160.85285183234367	0.2480620907174113	-0.2369171378712202	0.4849792285886316	73.59594398420256	far	V2
2	3.0	ltm	256	diff_vonmises	0.0690904248102055	3.958589746390731	1.0989406679837876	170.66532561330396	1.0855886922270306	171.11110486485435	0.2675085896850575	-0.1931759275415299	0.4606845172265874	85.53088925246243	far	V3
3	4.0	ltm	256	diff_vonmises	-0.1913163599689833	-10.961619978028356	4.228448186143113	0.6320897723268909	2.403970783291029e-19	1.543346673096595	0.255264078577721	-0.2455248463538186	0.5007889249315397	66.53552763089587	far	V4
4	5.0	ltm	256	diff_vonmises	-0.0087899457975214	-0.5036267963467329	2.22199745869361	0.8095663965454274	0.1159069022067965	1.0977212411465993	0.2493714071270114	-0.1505513833857318	0.3999227905127432	87.9400531071619	far	V3ab
5	6.0	ltm	256	diff_vonmises	-0.2831286562091435	-16.222077059994373	1.8449514887519516	0.9091581265060732	8.491865806572873e-16	1.4896387262219206	0.2095389215636087	-0.2259289226915301	0.4354678442551388	100.61635983389785	far	IPS0
6	7.0	ltm	256	diff_vonmises	0.0132102826913484	0.7568934443889885	0.9484431313251618	178.76442182321267	0.9313452779312956	179.79521158615975	0.2420124032164281	-0.3165554021399828	0.5585678053564109	89.08381031765623	far	LO1
0	1.0	ltm	257	diff_vonmises	0.1838782141310367	10.53544561411122	4.279360713145375	0.4226563998229084	2.084630826202308e-14	2.793257752170007	-0.1074974485671065	-0.4444960899214534	0.3369986413543468	66.1356114551844	far	V1
1	2.0	ltm	257	diff_vonmises	-0.0688630118372567	-3.9455599428342425	2.927467548022777	0.7439175663793766	0.0858308854334487	2.149659631728245	0.1083640177479389	-0.3221728770819888	0.4305368948299277	75.9545851993733	far	V2
2	3.0	ltm	257	diff_vonmises	-0.0787287059317825	-4.510822576417708	0.8631680728118815	158.26331233781656	0.8486779044896733	159.07147272616692	0.1845840149931916	-0.2495930451110179	0.4341770601042096	93.42538011040575	far	V3
3	4.0	ltm	257	diff_vonmises	-0.1740217806448238	-9.9707135742998	1.4953697985126466	0.7858267016637432	1.0274310465695067e-20	2.346155097709048	-0.0336559296003561	-0.3563298375881877	0.3226739079878316	110.5029540534588	far	V4
4	5.0	ltm	257	diff_vonmises	0.0149086592142111	0.8542032511731228	1.7337890779192704	0.8696866679667759	1.3060418622157086e-20	1.7739118073024962	0.1290573782482882	-0.2694945938413297	0.3985519720896179	103.66926599854988	far	V3ab
5	6.0	ltm	257	diff_vonmises	-0.3348348177909182	-19.184621893451546	0.7402987852243499	1.6688579324633317	1.0278942527320062e-20	2.662404822396659	0.0639785787435731	-0.312778392599302	0.3767569713428752	138.8987443271311	far	IPS0
6	7.0	ltm	257	diff_vonmises	0.3084159166992579	17.670930361525844	0.8986257667709249	88.3875574517146	0.8756978275971449	89.25566805013602	0.110044138274663	-0.232859068949379	0.3429032072240421	89.62472406020129	far	LO1
0	1.0	ltm	258	diff_vonmises	0.0677238955642054	3.8802933880137274	1.8310011232718324	0.6658755395573017	1.4714081135153338e-17	4.268205884629585	-0.3536983621058912	-0.6709440529379431	0.3172456908320519	101.10668713146832	far	V1
1	2.0	ltm	258	diff_vonmises	0.0077520170319505	0.444157858644297	0.7318978505454117	70.71636400692816	0.6917618643268636	72.48550938646639	0.0405546158050036	-0.4112844035298897	0.4518390193348933	96.58614341751291	far	V2
2	3.0	ltm	258	diff_vonmises	-0.1053558633010334	-6.036446314106453	2.6445099741656386	0.7899305571828215	9.309709344769965e-18	2.2522412481515204	0.1226546123201663	-0.356027305685841	0.4786819180060074	84.56967895413501	far	V3
3	4.0	ltm	258	diff_vonmises	-0.1885083282919956	-10.800731614197923	0.000335403193252	4241.295676101091	5.240865574417419e-32	4243.473679642299	-0.120217489870015	-0.5730246018912339	0.4528071120212189	178.96642009984507	far	V4
4	5.0	ltm	258	diff_vonmises	-0.0701728444876319	-4.020607825569175	1.4105963569042828	1.6755907376146135	0.049487256333113	3.390837387440578	0.1326405701469561	-0.4716623804967468	0.604302950643703	109.41092756110098	far	V3ab
5	6.0	ltm	258	diff_vonmises	-0.2113452932517255	-12.109193323278593	0.7590869354360663	2.184496964153783	3.9324664882048876e-14	3.766281940186388	0.0468200034496343	-0.457822762102901	0.5046427655525354	138.7949772533536	far	IPS0
6	7.0	ltm	258	diff_vonmises	0.1579549983876817	9.050154760609884	0.8651575905358384	169.08630783618773	0.8509389943415697	170.85745010682754	-0.096371352077746	-0.3635539719206022	0.2671826198428562	82.30202077743789	far	LO1
0	1.0	ltm	259	diff_vonmises	0.0611537620819026	3.503852468640186	1.7087854184756488	0.6335053270669668	1.129223710278805e-19	3.930799938277857	-0.328597984789459	-0.6158654991053911	0.287267514315932	104.34417896690246	far	V1
1	2.0	ltm	259	diff_vonmises	-0.0163903939211952	-0.939100396241369	2.574856945003184	0.7893652438913139	0.0477186395137956	2.2631319244541688	0.0957576215770165	-0.3422341890977451	0.4379918106747616	82.48726138264149	far	V2
2	3.0	ltm	259	diff_vonmises	-5.957839369530102e-05	-0.0034135905089095	3.182270600036833	0.7098975830733621	0.0501801425662893	1.8399667168944156	0.1730569976132949	-0.2813638669153027	0.4544208645285976	74.68710468717836	far	V3
3	4.0	ltm	259	diff_vonmises	-0.1681535341712134	-9.634487818219396	0.661079680037287	2.2754789151349537	1.323280199698236e-17	4.237380556245424	-0.043766203638257	-0.5062943558820041	0.4625281522437471	143.65268374257417	far	V4
4	5.0	ltm	259	diff_vonmises	-0.0056373168920709	-0.3229944656934691	1.7418854890009412	1.6086299074288029	0.1169428966575492	2.570195456038358	0.3048315231819377	-0.3392720320528496	0.6441035552347874	97.15611771289022	far	V3ab
5	6.0	ltm	259	diff_vonmises	-0.1720958580314172	-9.8603663368828	0.6471086552815689	6.172949761986123	0.3116300281339216	7.03930413957785	0.2009060327620242	-0.3363497396014782	0.5372557723635024	125.17778044515202	far	IPS0
6	7.0	ltm	259	diff_vonmises	0.2532726796469634	14.511455609739947	1.1415471950438667	107.02020775864403	1.1211739891157362	107.75180957408566	0.1399206557887282	-0.2139282922185987	0.353848948007327	80.15343207727923	far	LO1
0	1.0	ltm	260	diff_vonmises	0.1133587359873329	6.494977143011937	3.9391662379506514	0.5304887390149555	1.2912726492346034e-32	3.55823431218448	-0.1619012884132707	-0.5661573181720817	0.404256029758811	69.00552260092743	far	V1
1	2.0	ltm	260	diff_vonmises	-0.0737920070820715	-4.227970567602178	2.729764805754536	1.2218361028325688	0.2504539367506252	2.7727834209773303	0.1998729316181206	-0.3861011816068291	0.5859741132249496	73.98705351153359	far	V2
2	3.0	ltm	260	diff_vonmises	-0.0648231871427785	-3.714095037867912	1.7308054769054424	1.5666711248989107	2.2297858556546242e-18	3.18021184908602	0.2341408921525855	-0.482915832147987	0.7170567243005725	103.74500777829718	far	V3
3	4.0	ltm	260	diff_vonmises	-0.1249446559730797	-7.158801459971501	0.7083556560661213	3.385955079825559	2.6736178570337866e-15	5.493614310290666	0.0945560740239714	-0.6393683685934844	0.7339244426174559	141.52109842707864	far	V4
4	5.0	ltm	260	diff_vonmises	-0.0301629671574269	-1.7282107157122764	1.4725674469003671	1.888784821651673	1.3589729839548197e-13	2.400841234459086	0.4269235741197933	-0.3395534714073028	0.7664770455270962	111.3197677209072	far	V3ab
5	6.0	ltm	260	diff_vonmises	-0.1183580115410375	-6.78141453286214	0.523382951557164	2.999018565873988	2.3057196353772617e-18	3.412820741230741	0.2099326981458124	-0.2787734743101815	0.4887061724559939	150.76579620146356	far	IPS0
6	7.0	ltm	260	diff_vonmises	0.3597269509107644	20.610836064296542	1.8030958096505223	79.90780255491647	1.7746428427133187	80.12292309426692	0.269585441656119	-0.1454567759447496	0.4150422176008685	67.6226998297459	far	LO1
0	1.0	ltm	261	diff_vonmises	0.1288675977286113	7.383569465839106	5.549086424534416	0.4309543387105917	9.760477360656298e-21	2.6062539487154543	-0.0199007932563957	-0.4147922186722445	0.3948914254158488	57.89742246707573	far	V1
1	2.0	ltm	261	diff_vonmises	-0.0689211505908194	-3.948891048039536	2.404676130354159	1.6247252645080883	0.602663380051327	2.6303539626286403	0.2360303851457005	-0.2995650872527315	0.5355954723984321	71.8622588754832	far	V2
2	3.0	ltm	261	diff_vonmises	-0.005649167285753	-0.3236734432370224	1.2742581423259487	2.6459514963082507	0.4691037228583584	3.424952926628265	0.2139117508001665	-0.2547316195410051	0.4686433703411716	94.703752132127	far	V3
3	4.0	ltm	261	diff_vonmises	-0.251041291534587	-14.38360648844512	2.06123960337723	1.069583578998713	4.677965720508939e-16	2.3761554322341887	0.1837171384359253	-0.3690709471575755	0.5527880855935009	95.55640252543796	far	V4
4	5.0	ltm	261	diff_vonmises	-0.0077183981788229	-0.4422316402480142	1.6934489325829043	1.2933649899956656	1.5016544376455518e-14	1.591576225654361	0.3497537233791845	-0.232913620403305	0.5826673437824896	104.77870586166244	far	V3ab
5	6.0	ltm	261	diff_vonmises	-0.2047927310861608	-11.73375916619463	0.9202991391795248	1.6766323011586952	1.2207723777046451e-09	2.00632455036928	0.2282443699133537	-0.2324045509959873	0.460648920909341	131.61938768857271	far	IPS0
6	7.0	ltm	261	diff_vonmises	0.180669832445464	10.351618884460832	1.0434566707779374	132.6033813413155	1.0247268598571315	133.1595602876899	0.2756864844370525	-0.2218233537455916	0.4975098381826441	87.36389407996089	far	LO1
0	1.0	ltm	262	diff_vonmises	0.2555081459154246	14.639538392166632	0.6272062022952006	108.0158549436163	0.6107977145858636	109.85772544145628	-0.1568483354482808	-0.3498579484271893	0.1930096129789085	93.26454993864093	far	V1
1	2.0	ltm	262	diff_vonmises	0.2512509661960773	14.395619961619348	0.6383672126999502	109.34582328677864	0.6246063930847364	110.28176400454092	0.0326695075045755	-0.2273041450193531	0.2599736525239287	103.57795722254332	far	V2
2	3.0	ltm	262	diff_vonmises	0.2098108352031764	12.021275353256843	1.452271741014929	102.98995535184318	1.4336828199417824	103.41495952219104	0.1597013109432197	-0.1557903219611329	0.3154916329043526	72.50211179589795	far	V3
3	4.0	ltm	262	diff_vonmises	0.0855498262446147	4.901643981893951	0.7870716549492106	65.22882065014137	0.7591200971240039	66.51931008731464	-0.033612312159569	-0.2741963080176601	0.2405839958580911	89.36433004134989	far	V4
4	5.0	ltm	262	diff_vonmises	-0.0842103063596211	-4.824895145909965	1.3572734770989756	94.409681509519	1.3299032968257989	95.27543098135958	0.1172841080145801	-0.2480305496241843	0.3653146576387645	72.17148980070061	far	V3ab
5	6.0	ltm	262	diff_vonmises	-0.2341440581980886	-13.415466332816004	0.8119791635850676	136.4770646103708	0.7944423000376406	137.5996285469199	0.1173614448534863	-0.2943776721311142	0.4117391169846005	93.78767715470296	far	IPS0
6	7.0	ltm	262	diff_vonmises	-0.2973475719717448	-17.036760922443467	1.3323989582424016	213.8838665577673	1.316234880257025	215.55342107149005	-0.0427481407919714	-0.4035049702211211	0.3607568294291496	67.72342779001002	far	LO1
0	1.0	ltm	263	diff_vonmises	0.100212157187391	5.741733662739107	4.120442980324047	0.5267904310290844	2.3981211592866557e-23	2.802947246653356	-0.0344929444714384	-0.4459943792462514	0.4115014347748129	67.42667306429186	far	V1
1	2.0	ltm	263	diff_vonmises	-0.1311976426479235	-7.517071205791596	1.7336875353218	3.03897463133377	0.7199610239894628	4.130565081016341	0.2463044809777226	-0.3264628862215606	0.5727673671992832	78.44313789126505	far	V2
2	3.0	ltm	263	diff_vonmises	-0.0241668784319157	-1.384660138154508	1.833848035795418	1.8450078351533956	0.318253233808605	2.862754133498853	0.2922271775859705	-0.3219130311939893	0.6141402087799598	87.18636755594738	far	V3
3	4.0	ltm	263	diff_vonmises	-0.1557568425356114	-8.924209707574272	1.7762175653463816	1.3815440426806458	8.285093760294119e-18	2.8515442991494804	0.2093599091049012	-0.4348335417647848	0.644193450869686	102.48944882028906	far	V4
4	5.0	ltm	263	diff_vonmises	-0.0057903467622553	-0.3317624313944747	1.684800742268135	1.5140507742746805	1.714935931761935e-13	1.945589567587643	0.3941288049473649	-0.2854364774447061	0.679565282392071	105.01740950477212	far	V3ab
5	6.0	ltm	263	diff_vonmises	-0.1779475174427242	-10.1956417242987	1.2584359058637842	1.5095068447308817	1.304266645930456e-13	2.0981174290885405	0.2546012887131094	-0.2864240482053171	0.5410253369184266	118.39822454079824	far	IPS0
6	7.0	ltm	263	diff_vonmises	0.1755204574364318	10.056581429313152	1.287731170575063	153.39784730590702	1.2701881467732223	153.87992747081233	0.3019266596147005	-0.2120665447016136	0.5139932043163142	78.91617027774888	far	LO1
0	1.0	ltm	264	diff_vonmises	0.2077148798866336	11.901185959570942	0.4291742036066645	103.80591261054629	0.4090799028924042	106.95853476370088	-0.3404967881205145	-0.5760794460053855	0.2355826578848709	109.06045961604084	far	V1
1	2.0	ltm	264	diff_vonmises	0.0791842797308289	4.536925032359812	0.6237885662376467	132.39079900171313	0.6065612406210779	134.0639766811597	-0.0141347052220055	-0.3736517407182269	0.3595170354962214	102.34094154238628	far	V2
2	3.0	ltm	264	diff_vonmises	0.0211251839424913	1.2103838813422925	1.1257014342916254	5.523486193134771	0.7171424315535122	6.640173518959931	0.1067247155574786	-0.2857579263560365	0.3924826419135151	87.39295436946963	far	V3
3	4.0	ltm	264	diff_vonmises	0.0046037646577646	0.2637762847614048	0.0005537404395423	1677.518148740981	4.8821952523690315e-26	1679.6136821759735	-0.1856550492090036	-0.4813330290663202	0.2956779798573166	179.95495213503898	far	V4
4	5.0	ltm	264	diff_vonmises	-0.0160253572002155	-0.9181853327619344	1.705792199522139	1.3991865963487282	0.2247351673675162	2.727353384149554	0.1186695391904905	-0.3323585134566738	0.4510280526471643	90.5764473758343	far	V3ab
5	6.0	ltm	264	diff_vonmises	-0.246468298882064	-14.121593309711214	0.376806977146626	71.80352387865926	0.3513390209124791	73.12093254361088	0.0437774546172491	-0.3738409264768201	0.4176183810940692	133.78152258015564	far	IPS0
6	7.0	ltm	264	diff_vonmises	0.2242419226756039	12.848115759211058	0.9766422583194893	98.23124229170632	0.9571790707263388	99.45002294217332	-0.0439393393065756	-0.2622225650235599	0.2182832257169842	78.84496928574916	far	LO1
0	1.0	ltm	265	diff_vonmises	0.1960759839210119	11.234326342548972	2.801076334427825	0.4919836597066279	0.0260660678968464	2.993661186083421	-0.1791633395743092	-0.4655761406830596	0.2864128011087504	78.88891119664143	far	V1
1	2.0	ltm	265	diff_vonmises	-0.011163098511954	-0.6395984310237356	2.267915408427564	0.7218027008871134	1.7829677116637603e-14	2.245906718796481	0.0441013019808793	-0.3531429739047685	0.3972442758856478	91.2995532782778	far	V2
2	3.0	ltm	265	diff_vonmises	-0.1086041999777403	-6.222562296119313	0.8751081236710161	141.20755637555823	0.8593554694276545	142.0447400570927	0.1605290015621321	-0.2459076460413385	0.4064366476034706	92.14120573307126	far	V3
3	4.0	ltm	265	diff_vonmises	-0.1445034481781068	-8.279437705692928	0.7121000079086841	1.215596949988867	3.717754457488127e-18	2.876389534732432	-0.109082307935276	-0.3738555324579005	0.2647732245226245	141.28021905065708	far	V4
4	5.0	ltm	265	diff_vonmises	-0.0139511815000796	-0.7993438191755572	1.6010869457356718	0.8065096668376488	8.09350564210941e-25	1.98958495750922	0.0467961029397205	-0.3018692043759973	0.3486653073157179	107.40694362640284	far	V3ab
5	6.0	ltm	265	diff_vonmises	-0.4148944111935044	-23.771698704953145	0.5883776001395428	2.002194635342678	2.79636276532636e-12	3.314573426218504	-0.0002402481505555	-0.3649774746731012	0.3647372265225457	145.2052350894927	far	IPS0
6	7.0	ltm	265	diff_vonmises	0.3435359847217583	19.68316203542748	0.8350399029842211	116.26735431531588	0.8177216588400034	117.43255314595731	0.0266568053791047	-0.2684376184603056	0.2950944238394104	89.25151717963178	far	LO1
0	1.0	ltm	266	diff_vonmises	0.3482153341429905	19.95126900813107	0.7758332818865704	136.50213358431003	0.7527069384366186	139.27842991175913	-0.2151688539024903	-0.5420410729113954	0.326872219008905	84.70482713393685	far	V1
1	2.0	ltm	266	diff_vonmises	0.0182175838485275	1.0437906674463218	1.2573254993323606	3.611838899019976	0.641915219883036	5.099122265469501	0.0128291437376604	-0.3353380845627787	0.3481672283004391	83.22367217074762	far	V2
2	3.0	ltm	266	diff_vonmises	0.0736786047432865	4.221473092202886	0.9333851363215556	116.134091262097	0.9176679407689196	116.86886337430424	0.1075673950442848	-0.2019538695360836	0.3095212645803684	88.1279976435273	far	V3
3	4.0	ltm	266	diff_vonmises	0.0894451825152534	5.124831455901369	0.7552895819632843	0.8572055798382331	2.589327294756848e-14	2.493801683503732	-0.1439342851753771	-0.341050179161016	0.1971158939856389	139.34023681987804	far	V4
4	5.0	ltm	266	diff_vonmises	0.0437651842831293	2.507560349035595	2.190364674930168	0.9424788669675592	0.2346903703007743	1.9875625788797568	0.1189604662165146	-0.2610570226590338	0.3800174888755485	81.58975425278877	far	V3ab
5	6.0	ltm	266	diff_vonmises	-0.2231421457676713	-12.785103183980576	0.390772777324663	81.1634864291993	0.3717729779109197	82.17532874129603	0.0560306053353301	-0.2992740963422005	0.3553047016775306	132.36022436191936	far	IPS0
6	7.0	ltm	266	diff_vonmises	0.4168169661067747	23.881852987365672	0.8611823357288263	1.2875904577101986	7.584288918789643e-18	2.434105297197489	0.0186069149675059	-0.3148692632791794	0.3334761782466853	132.7783734888067	far	LO1
0	1.0	ltm	267	diff_vonmises	-0.3131750114324786	-17.94360640404233	0.2151254136104786	54.479284120926025	0.20158240746746	55.11251393459794	0.0061994256574102	-0.1856388068152261	0.1918382324726364	152.54241280553993	far	V1
1	2.0	ltm	267	diff_vonmises	0.1731796387443469	9.92246239765135	0.4880295213839071	46.17384922955969	0.4620328923521665	46.45003419765311	0.157247456202823	-0.1646108609294794	0.3218583171323024	127.09912451371936	far	V2
2	3.0	ltm	267	diff_vonmises	0.1006372805431232	5.766091436795001	1.4646501450637872	104.6636001207714	1.4495702834140778	104.64535951867587	0.2862732677714064	-0.0911311550041471	0.3774044227755535	78.33327926017375	far	V3
3	4.0	ltm	267	diff_vonmises	-0.2552688153500772	-14.62582576086375	6.131051152349686	0.4859338104213158	3.823246214013658e-16	1.2970045538576558	0.2628712298486643	-0.2064224667564763	0.4692936966051406	55.02319293086308	far	V4
4	5.0	ltm	267	diff_vonmises	-0.0904314587388063	-5.1813409209450505	2.995494766311701	0.394159376584161	5.562789261340379e-16	0.3984105247374964	0.1945237304860863	-0.0627638468187938	0.2572875773048801	79.39445651897634	far	V3ab
5	6.0	ltm	267	diff_vonmises	-0.4535209374553617	-25.984835637008807	2.1846851364646143	0.7245374400029199	2.3824643127282287e-14	1.1533327216607374	0.2106250189915846	-0.1785685496974784	0.3891935686890631	92.75907812561124	far	IPS0
6	7.0	ltm	267	diff_vonmises	0.1329764696597485	7.618990486053035	1.7017327592306757	167.47685021204066	1.6850155126610291	167.93386400254735	0.2569149479332395	-0.203589946757642	0.4605048946908816	67.67732838983065	far	LO1
0	1.0	ltm	268	diff_vonmises	0.2377711817798038	13.62328520582066	2.532309757259094	1.198561428580336	0.3273794586407693	3.123998214700616	0.0400340535757437	-0.4279334215870948	0.4679674751628385	72.39113577840757	far	V1
1	2.0	ltm	268	diff_vonmises	-0.1580109980331922	-9.053363303951867	1.3354072147157194	199.1600895304285	1.318326163194322	200.15589901565517	0.2163477420433395	-0.3086068415790599	0.5249545836223994	74.04644111203382	far	V2
2	3.0	ltm	268	diff_vonmises	0.0722706208978795	4.140801560238463	1.067980199987665	205.6732318435701	1.0538386044160457	206.5313427235706	0.2450300201254975	-0.2773013949419081	0.5223314150674057	84.30719913057331	far	V3
3	4.0	ltm	268	diff_vonmises	-0.0377558462501037	-2.163250642075778	2.6310841046583646	0.8319174493123759	1.2102191811178565e-13	2.033977321490189	0.1814596605054403	-0.3210986238018978	0.5025582843073382	84.79164234284823	far	V4
4	5.0	ltm	268	diff_vonmises	0.033000163539138	1.8907700940341092	0.9896875400355126	104.34907723779722	0.962780777340465	105.15565148135568	0.2622467378002042	-0.2735757755327022	0.5358225133329064	88.51707169493883	far	V3ab
5	6.0	ltm	268	diff_vonmises	-0.1256703463834512	-7.2003804577189054	1.5830815833979788	1.5366401316008582	0.1835900934853038	2.526544667647399	0.2086306788805503	-0.3044786028124561	0.5131092816930064	97.20747481593712	far	IPS0
6	7.0	ltm	268	diff_vonmises	-0.1134558477775872	-6.500541238734472	0.7542553870580647	236.8975608671105	0.7404409926934604	238.5684188886117	0.1363247586599669	-0.4270119763542936	0.5633367350142606	96.64701883935032	far	LO1
0	1.0	ltm	269	diff_vonmises	-0.102993194108331	-5.901075340979024	0.799306102226201	0.9706700600817	8.676452124125198e-41	3.419431583182787	-0.2496097924556998	-0.4846560309901528	0.2350462385344529	137.3002854024574	far	V1
1	2.0	ltm	269	diff_vonmises	0.0694433610651266	3.978811504234864	3.099692173986626	0.7131083097799279	0.1087241211034562	1.9155280737550024	0.1369379174966226	-0.2859465975180302	0.4228845150146529	73.46297764110525	far	V2
2	3.0	ltm	269	diff_vonmises	-0.1189981782570391	-6.818093383873779	1.3007774535010388	1.1013504299962047	0.1203082311179316	1.800431215707835	0.1158865941075373	-0.2206754542407094	0.3365620483482468	108.9964363274194	far	V3
3	4.0	ltm	269	diff_vonmises	-0.4246872161565709	-24.33278509893162	1.7134276264010293	0.8943946464493195	1.8836725227997552e-13	2.3911420916237134	0.0394677368686767	-0.3669149669414349	0.4063827038101117	103.79031568849553	far	V4
4	5.0	ltm	269	diff_vonmises	-0.0766757749235067	-4.3931982940119685	1.221894016970128	1.2557648295917627	3.5253695304274176e-14	1.8281848355360293	0.1901988390296289	-0.249182193850046	0.439381032879675	119.85819481484064	far	V3ab
5	6.0	ltm	269	diff_vonmises	-0.297605247175947	-17.051524624129428	0.2594689528993455	50.65124063543648	0.2328510983343636	51.1309098396471	0.1422601818214737	-0.2450987797757822	0.3873589615972559	149.9182484037602	far	IPS0
6	7.0	ltm	269	diff_vonmises	0.3137632955294989	17.977312599956257	1.0432111632118035	135.9493779367123	1.0269345180781655	136.79923987480583	0.1225135557937875	-0.233236685359758	0.3557502411535456	83.05012497514005	far	LO1
0	1.0	ltm	270	diff_vonmises	0.1578076371065176	9.04171158113554	0.6962099425369764	64.38917799333645	0.658782557704642	66.45290053460404	-0.1122406629165411	-0.4162792437599201	0.304038580843379	93.10717772295864	far	V1
1	2.0	ltm	270	diff_vonmises	-0.0971932645297238	-5.568763854651742	1.0054749283559998	127.99067995531628	0.9854514874616964	129.00343235878898	0.141696251640397	-0.2759356384702247	0.4176318901106217	84.67963432918481	far	V2
2	3.0	ltm	270	diff_vonmises	0.0793140644895643	4.544361151280469	1.1944571987574557	184.46847284164224	1.1795455466655895	185.177876785218	0.2427713845674475	-0.2437870569994871	0.4865584415669346	80.09982686837492	far	V3
3	4.0	ltm	270	diff_vonmises	-0.0571643225221585	-3.275274419244321	2.360818028505817	0.7947714576143584	1.5684825436812905e-15	2.1668647246751966	0.107959294274155	-0.3408365823810367	0.4487958766551917	89.50705127814305	far	V4
4	5.0	ltm	270	diff_vonmises	0.0089898378725381	0.5150797686033056	1.012917739336954	101.5316716044134	0.98762473466913	102.1840811370934	0.2643435267238772	-0.2398041052349562	0.5041476319588334	88.19086628613465	far	V3ab
5	6.0	ltm	270	diff_vonmises	-0.1747646998558673	-10.013279709611783	0.73897983450202	93.04309369227154	0.7128719037562677	93.92402658830298	0.2106096372073729	-0.2884008490485934	0.4990104862559663	101.91490264926888	far	IPS0
6	7.0	ltm	270	diff_vonmises	0.0531068867153484	3.0428004718688464	1.1612522424892386	161.57586263375933	1.144540057865601	162.44506888153035	0.1815438099862163	-0.2597328513177999	0.4412766613040162	79.64357706785543	far	LO1
0	1.0	ltm	271	diff_vonmises	0.1127142038413383	6.458048171285939	0.9610184193559796	0.7891887609407302	5.28070374412821e-22	3.91198999357398	-0.3587755772480204	-0.5840085429498384	0.2252329657018179	130.09528946419914	far	V1
1	2.0	ltm	271	diff_vonmises	0.1053156592086729	6.034142789295041	1.987977206654643	1.0165292481225088	0.1857607946707142	2.5073930502958826	0.0460963026629182	-0.3350624595854827	0.3811587622484009	85.22434862875807	far	V2
2	3.0	ltm	271	diff_vonmises	0.0424722139554749	2.433478606225352	2.6310164889911696	0.5984091595013435	1.287729908485703e-15	1.5854916718188732	0.1110128479523538	-0.2504546641527726	0.3614675121051264	84.79442825324523	far	V3
3	4.0	ltm	271	diff_vonmises	-0.1440994629402264	-8.25629105657679	0.1650812545481442	6.868750323908087	2.4899673050487416e-10	8.846188296523897	-0.1272446485837557	-0.4873571451557605	0.3601124965720048	170.07577912929332	far	V4
4	5.0	ltm	271	diff_vonmises	-0.0292554347874051	-1.6762129411385236	1.796561481235191	1.1736614178919376	0.0802452597354107	2.0212539908281806	0.2192974791384661	-0.2808010464019361	0.5000985255404022	97.43254401816114	far	V3ab
5	6.0	ltm	271	diff_vonmises	-0.2125544112165258	-12.1784706795951	0.2870929814652463	70.48901259736954	0.2649542036368957	71.17996499103818	0.1364111710081381	-0.2931117070476556	0.4295228780557938	146.7431775534332	far	IPS0
6	7.0	ltm	271	diff_vonmises	0.3394472564812606	19.44889516367101	1.1185162619925646	99.41671264822055	1.099240070407221	100.19661840726936	0.077309199833806	-0.2044059276342427	0.2817151274680487	79.01805755496662	far	LO1
0	1.0	ltm	272	diff_vonmises	0.0468222447938769	2.6827170140175425	1.331498501177428	0.5295655635728818	1.3022291786366789e-17	2.583317319536402	-0.19764448305914	-0.3962576319336321	0.1986131488744921	115.96743484201556	far	V1
1	2.0	ltm	272	diff_vonmises	0.1254039351792348	7.185116220102308	1.2100586677116276	3.4790713463329754	0.6538629104900717	4.4839595681834	0.0889373919402436	-0.2540462535755245	0.3429836455157681	86.99293211267181	far	V2
2	3.0	ltm	272	diff_vonmises	0.1358959570451169	7.786264791576325	1.8389456821264285	1.0235757664573533	0.394602244421054	1.5691933836654874	0.1452813697415338	-0.1675166761658925	0.3127980459074264	84.70818139300505	far	V3
3	4.0	ltm	272	diff_vonmises	-0.2890383786812645	-16.560679215740528	2.307732231568199	0.6346650382089072	2.1107251137547448e-18	2.0223427893420003	0.0348755110029621	-0.3183344944065388	0.3532100054095009	90.4550674980448	far	V4
4	5.0	ltm	272	diff_vonmises	-0.0457070105693329	-2.6188187997826247	1.7901771037262095	1.056437214075935	0.2566065724637287	1.5018979772381489	0.2055998113251823	-0.1725358871194412	0.3781356984446234	91.10121753396508	far	V3ab
5	6.0	ltm	272	diff_vonmises	-0.3083585129640489	-17.667641369770084	0.4758782451366696	95.5986773473863	0.4605243524642179	96.03818663982278	0.1676852373140427	-0.2120365618517183	0.3797217991657611	126.61207206124152	far	IPS0
6	7.0	ltm	272	diff_vonmises	0.2061777836308728	11.813116831410486	1.1456383709405211	143.8864332481639	1.1299190398668852	144.73473907787235	0.1108667329155324	-0.2317613911536078	0.3426281240691402	78.71418070977276	far	LO1
0	1.0	ltm	273	diff_vonmises	0.2278946818875027	13.05740344563039	0.3023287682561617	110.18916141428454	0.2903358228045846	112.913648796435	-0.3314711838816855	-0.4930512740268646	0.1615800901451791	126.0499440301922	far	V1
1	2.0	ltm	273	diff_vonmises	0.259645927847964	14.876615833446628	0.5292701457409841	123.38956116669458	0.5163296949041284	124.63634674303476	-0.0119969625147327	-0.2878960738454701	0.2758991113307374	111.66113720630466	far	V2
2	3.0	ltm	273	diff_vonmises	0.1723973620100797	9.877641242366565	1.4945813955617229	109.01148705278696	1.4741218688981406	109.60644442233496	0.1364203029575321	-0.1932974448176647	0.3297177477751969	69.89795276634669	far	V3
3	4.0	ltm	273	diff_vonmises	0.2433359418158239	13.942122469887678	2.3718976049668736	0.3590092149000905	1.6407346906120157e-17	2.124270467433398	-0.1329666525893135	-0.3363024468447358	0.2033357942554223	89.25182111507354	far	V4
4	5.0	ltm	273	diff_vonmises	-0.0643182869458568	-3.685166387508977	1.2736463555123527	160.99182221830768	1.254569510916748	161.97929622811168	0.177330168643806	-0.2909336492438434	0.4682638178876495	75.38139318180828	far	V3ab
5	6.0	ltm	273	diff_vonmises	-0.1632852785290071	-9.355557316330229	0.7746000762203797	171.4476638726218	0.759753657472139	172.55553526394235	0.1581393876089052	-0.3103681739190698	0.468507561527975	97.12538711343352	far	IPS0
6	7.0	ltm	273	diff_vonmises	-0.278390606079713	-15.95060678445659	1.5598783795946305	112.15922975144558	1.5395995722193203	113.04958115321308	0.0019179321873039	-0.2387711320321415	0.2406890642194454	63.57946403873578	far	LO1
0	1.0	ltm	274	diff_vonmises	0.0930465479884551	5.331174497999959	3.987606120660905	0.4132414835899062	1.3341638032313587e-24	1.941693879620526	0.0081345252269172	-0.3089210971770656	0.3170556224039828	68.57178199640384	far	V1
1	2.0	ltm	274	diff_vonmises	-0.0896436350978518	-5.13620195131773	2.8743358171301514	0.9168092204347638	0.3078379068515047	1.675728343876717	0.2315506132458769	-0.2278902516068299	0.4594408648527068	72.54631892152105	far	V2
2	3.0	ltm	274	diff_vonmises	-0.0420959924694437	-2.4119227029136203	1.0418924862790235	121.42378594901795	1.0256323711020594	121.84841818798462	0.2251524441353893	-0.1747062846502736	0.399858728785663	87.59940266512191	far	V3
3	4.0	ltm	274	diff_vonmises	-0.2760070286640492	-15.814037858396356	3.0884854325669755	0.6557127910185077	9.715603547190349e-16	1.6795362651022552	0.1693086698037093	-0.2663997465564727	0.435708416360182	78.15206849602026	far	V4
4	5.0	ltm	274	diff_vonmises	2.1285970281549737e-05	0.0012195962599736	1.6016492686809916	0.9285829279056784	6.990839511312512e-15	1.2900276026848352	0.2132391292870879	-0.1883092948116725	0.4015484240987604	107.38974242185604	far	V3ab
5	6.0	ltm	274	diff_vonmises	-0.3528867294102756	-20.2189202413839	1.4242675144607484	1.0877841256035052	5.062460570345328e-19	1.698066823846944	0.1863928837336011	-0.2438019249219014	0.4301948086555026	112.38953108675372	far	IPS0
6	7.0	ltm	274	diff_vonmises	0.1624639228471396	9.308497102280128	0.979787300965398	149.23422020740563	0.9622342167921996	150.00078215809583	0.2402380286132057	-0.256859197845463	0.4970972264586688	88.63217901371047	far	LO1
0	1.0	ltm	275	diff_vonmises	-0.2227287444351011	-12.76141703237922	0.1420203375325497	51.9786148691442	0.1293671166003343	53.341142957199125	-0.1345139086645463	-0.2868751255753645	0.1523612169108181	160.70614558842993	far	V1
1	2.0	ltm	275	diff_vonmises	0.3366716290998938	19.28986342921775	0.2374012068689806	101.70748508966156	0.2258721052947869	102.464835503531	0.0562609523964603	-0.2578259608526725	0.3140869132491328	149.97809054782584	far	V2
2	3.0	ltm	275	diff_vonmises	0.1209627875188282	6.930657202966608	1.61506135807121	105.19090417976425	1.5988004960021769	105.36585172693242	0.2136526783211536	-0.1135378157472519	0.3271904940684056	71.54684835708872	far	V3
3	4.0	ltm	275	diff_vonmises	-0.1317722410881013	-7.549993271328582	8.801177905178687	0.248670669859447	2.1708978638849897e-22	1.4537272061085302	0.0584447011802432	-0.2313678641865947	0.2898125653668379	45.79631712158445	far	V4
4	5.0	ltm	275	diff_vonmises	-0.1209271169623595	-6.928613430628072	2.737224647619078	0.675279649989818	0.5605461156943901	1.211851915182225	0.1068077161163685	-0.1532905217220224	0.260098237838391	68.66891468777803	far	V3ab
5	6.0	ltm	275	diff_vonmises	-0.3945537070336884	-22.60626220427149	0.7496155435313391	129.6113384922351	0.733547741685364	130.58289267979842	0.1147978189699969	-0.2638766537322823	0.3786744727022793	98.20473749469448	far	IPS0
6	7.0	ltm	275	diff_vonmises	-0.0062511000999599	-0.3581616530415099	1.627854883137984	138.9863336909088	1.6092264467946822	139.77351420306874	0.0856287185137887	-0.2379686984560827	0.3235974169698714	64.86306545851346	far	LO1
0	1.0	ltm	276	diff_vonmises	-0.0867695635883064	-4.971529783801979	1.3643524103517453	0.6480194228252107	3.670263577168208e-33	2.1757783645878392	-0.0811835751721211	-0.3289736839587407	0.2477901087866196	114.83134413997752	far	V1
1	2.0	ltm	276	diff_vonmises	-0.0172062332563216	-0.9858445469048716	3.777791503684351	0.6249223135685829	0.0544157217822817	1.3754323284726306	0.2346838473208182	-0.2117902692425858	0.4464741165634039	68.86556428806614	far	V2
2	3.0	ltm	276	diff_vonmises	-0.055373292911272	-3.172655981557569	0.8464152000583492	29.695814323556945	0.7873774193567975	30.11478590344712	0.2085213912960846	-0.1781604642240526	0.3866818555201372	98.57277735262107	far	V3
3	4.0	ltm	276	diff_vonmises	-0.3670791383750857	-21.03208537619115	3.0407606825055717	0.7582332409588326	5.71077333566255e-17	1.85263463207112	0.2055852871930789	-0.29371260115786	0.4992978883509389	78.76083250669119	far	V4
4	5.0	ltm	276	diff_vonmises	-0.0536897317261948	-3.076195031100599	1.2029869948393213	1.1779332592158775	6.35273606266285e-16	1.3045319910937765	0.2396247590376453	-0.1672909159207897	0.4069156749584351	120.56955623081086	far	V3ab
5	6.0	ltm	276	diff_vonmises	-0.3719913418222443	-21.31353390182295	1.0357828373933784	1.2286228715178251	2.4262670409137697e-10	1.491846357443138	0.1906952694502867	-0.1834936490710621	0.3741889185213489	126.09735033107827	far	IPS0
6	7.0	ltm	276	diff_vonmises	0.2596478262590592	14.876724604390166	1.3229597523547183	137.95765322236448	1.3060833714010578	138.38459100574357	0.2519728286782623	-0.1830686210590535	0.4350414497373158	77.61148655123256	far	LO1
0	1.0	ltm	277	diff_vonmises	0.1578076371065176	9.04171158113554	0.6962099425369764	64.38917799333645	0.658782557704642	66.45290053460404	-0.1122406629165411	-0.4162792437599201	0.304038580843379	93.10717772295864	far	V1
1	2.0	ltm	277	diff_vonmises	-0.0971933733209559	-5.568770087930187	1.0059096479231344	122.68358546502236	0.9850235410015172	123.69633781542936	0.1416963410158658	-0.2759354982692237	0.4176318392850895	84.67954964335269	far	V2
2	3.0	ltm	277	diff_vonmises	0.0793137249330109	4.544341696123055	1.194802059253845	176.31329298646983	1.1792020637547431	177.0226969991291	0.2427713463676042	-0.2437869544346043	0.4865583008022085	80.09982333094948	far	V3
3	4.0	ltm	277	diff_vonmises	-0.0571643238046903	-3.2752744927279807	2.360818048287323	0.7947714563148535	1.5674635018190302e-15	2.166864724192693	0.107959295852476	-0.3408365824502241	0.4487958783027002	89.50705090723599	far	V4
4	5.0	ltm	277	diff_vonmises	0.0089894368857354	0.5150567937518659	1.01422989208062	92.0171788406962	0.9863307024217433	92.66958841005474	0.2643438225358459	-0.239803598117831	0.5041474206536769	88.19064816814446	far	V3ab
5	6.0	ltm	277	diff_vonmises	-0.1747646747816037	-10.013278272962308	0.7400013522637333	86.30813746819213	0.7118662964760101	87.18907035393278	0.2106100542911129	-0.2884007200877896	0.4990107743789025	101.9147170032488	far	IPS0
6	7.0	ltm	277	diff_vonmises	0.053106909149925	3.0428017572753974	1.1610329850711725	165.9079727880264	1.1447560557963543	166.77717920122376	0.181543705009183	-0.2597329042711891	0.4412766092803721	79.64361652345946	far	LO1
0	1.0	ltm	278	diff_vonmises	0.1102383140794499	6.316190137390086	5.9687456188287005	0.3625326505975251	6.528367904944837e-31	2.4985197781233275	-0.052420452318983	-0.3976495146923732	0.3452290623733902	55.78099227659595	far	V1
1	2.0	ltm	278	diff_vonmises	0.0298997148290486	1.7131274683492077	2.276785074682125	1.995021235006452	0.8680415960032493	2.761890244463727	0.2379664448987843	-0.2575208943605666	0.4954873392593509	69.87147938092346	far	V2
2	3.0	ltm	278	diff_vonmises	0.0516160919818751	2.9573842255204967	2.1776281085020197	0.6284211405797061	9.734886001042567e-21	1.2216218947542263	0.14680241299724	-0.1900460603011443	0.3368484732983843	93.12425763218536	far	V3
3	4.0	ltm	278	diff_vonmises	-0.3698218362497417	-21.18923038888844	2.30323839166552	1.048133591339559	2.222084605355156e-14	2.1457260961991254	0.2469966694781419	-0.3356254555292173	0.5826221250073593	90.48997347135808	far	V4
4	5.0	ltm	278	diff_vonmises	-0.051997886316356	-2.979259429528254	1.647130669906909	1.3337595947593102	6.704528820952579e-18	1.4107672842348973	0.3869842138617507	-0.2018461738807328	0.5888303877424836	106.0683394116808	far	V3ab
5	6.0	ltm	278	diff_vonmises	-0.1737085716612184	-9.95276802143363	0.3444961220457386	43.894916154405806	0.3104876278783529	43.82198379182004	0.2845666931044892	-0.1853676371303025	0.4699343302347918	143.91601949333608	far	IPS0
6	7.0	ltm	278	diff_vonmises	0.0854360715053978	4.895126315437208	0.8416365997383666	177.85639316082566	0.8259439692119487	178.73928359283633	0.2603182696531618	-0.2980850390664393	0.5584033087196012	95.6600910651602	far	LO1
0	1.0	ltm	279	diff_vonmises	0.1762960337582633	10.101018679244374	3.9555084524976314	0.3787246323134339	1.5884042022006438e-25	3.2018747258199323	-0.2201846155794389	-0.5094880673305153	0.2893034517510764	68.85412692353285	far	V1
1	2.0	ltm	279	diff_vonmises	0.0418761572382163	2.39932707197601	1.9824123309551396	1.439918936753582	0.4544032337445879	2.72248686885671	0.0902208339235678	-0.3103471790127869	0.4005680129363547	77.70867135789024	far	V2
2	3.0	ltm	279	diff_vonmises	0.1099191465412927	6.297903184496096	2.153821876439286	0.8187345524300818	0.173667996866478	1.669299347566925	0.1279410497130022	-0.2244213063775834	0.3523623560905857	84.77047833463948	far	V3
3	4.0	ltm	279	diff_vonmises	-0.1773001642171865	-10.158551116621211	1.0770048973695776	1.1911346816783543	5.124897043109093e-16	2.8719193488116264	-0.0327706075563927	-0.4078522022777813	0.3750815947213886	125.23131542008252	far	V4
4	5.0	ltm	279	diff_vonmises	-0.004741211159308	-0.271651389208682	1.7465093082095038	1.4812899602633278	0.2550601092062918	2.1481406185561696	0.2696754909334816	-0.2456306977472052	0.5153061886806869	91.81820448455164	far	V3ab
5	6.0	ltm	279	diff_vonmises	-0.1661654085676857	-9.520576611995365	0.3792266327653035	43.070489486960575	0.3421047239774997	43.578438909046525	0.1800920060606969	-0.2580423343205833	0.4381343403812803	138.17197871096278	far	IPS0
6	7.0	ltm	279	diff_vonmises	0.2548242655438525	14.600354933183718	0.8858669895774918	51.19562187803134	0.8472285820875043	52.00603001232742	0.1238578530377303	-0.2258513962839803	0.3497092493217106	91.37452727640786	far	LO1
0	1.0	ltm	280	diff_vonmises	0.2144947934983684	12.289646394986642	4.3233641120694335	0.6866239000316983	0.0989162962199877	3.5443383533264194	-0.0705680586631651	-0.5572015330309068	0.4866334743677416	61.70128977199784	far	V1
1	2.0	ltm	280	diff_vonmises	-0.0801514282352512	-4.592338559825599	1.2231593981857607	187.20781557062955	1.2039776220826202	188.57539959491868	0.1424345483521278	-0.3676951697851471	0.510129718137275	75.46569433315588	far	V2
2	3.0	ltm	280	diff_vonmises	0.0288731418792163	1.6543091709615254	0.8746646914197822	134.24034218328887	0.8559735469992071	135.29763444178337	0.1462013499614869	-0.2887914912549831	0.4349928412164701	91.09346114083544	far	V3
3	4.0	ltm	280	diff_vonmises	-0.0526381960848907	-3.015946476846296	1.425429371445599	1.0640048547587269	4.604418662434851e-17	2.626973565437612	0.0287945124282771	-0.3922679462274014	0.4210624586556785	112.8257897325146	far	V4
4	5.0	ltm	280	diff_vonmises	0.0243418534036798	1.394685465557013	1.735316529220628	1.735954625604353	0.2466130632827	2.839001943074918	0.2520441481410783	-0.3328157394122065	0.5848598875532849	91.066802302514	far	V3ab
5	6.0	ltm	280	diff_vonmises	-0.0985340965784694	-5.645587872080744	1.188915911358872	1.4449165379427609	1.5189561806931102e-16	2.406304435821615	0.1618729144779336	-0.3324374835934808	0.4943103980714144	121.05778418021328	far	IPS0
6	7.0	ltm	280	diff_vonmises	0.0838054281782516	4.80169733490056	0.899440874604958	1.9011445501185944	1.241993293251548e-15	3.536072335977272	0.0505535782652408	-0.4612849425931601	0.5118385208584011	132.80267398454947	far	LO1
0	1.0	ltm	281	diff_vonmises	-0.0231553738679351	-1.3267051956802007	0.0004968049517657	832.2867813392983	1.540056719186451e-26	834.4361291171052	-0.2762641681283924	-0.407878132574865	0.1316139644464726	179.9571163860318	far	V1
1	2.0	ltm	281	diff_vonmises	0.3799078599670533	21.76711697995924	0.4728549934619792	106.38638562295812	0.4584557023414806	107.61974114340738	-0.0100843574803768	-0.2958011497883213	0.2857167923079444	118.70943556870957	far	V2
2	3.0	ltm	281	diff_vonmises	0.1243051389794627	7.122159835310352	1.1888779080236052	70.93137168799842	1.1691168733652713	71.30054626209423	0.1218550321849818	-0.1253024965952818	0.2471575287802636	80.25585032431565	far	V3
3	4.0	ltm	281	diff_vonmises	-0.5676304465391909	-32.522828909821946	0.7175159165781757	103.823025898268	0.7029887208342211	105.3687645072939	-0.1531450085709735	-0.2894845689001482	0.1363395603291746	84.45426294149259	far	V4
4	5.0	ltm	281	diff_vonmises	-0.0223699246410778	-1.281702269959462	2.655111189378804	0.4955713792699736	0.2135706483885079	1.1477525750147852	0.0789185099902258	-0.1606324867913871	0.2395509967816129	75.76059387283155	far	V3ab
5	6.0	ltm	281	diff_vonmises	-0.4601798878923434	-26.36636539303465	0.5176297868863821	160.9931742484173	0.5085781619741352	161.80491687110137	0.0713079483134819	-0.2353658746894762	0.3066738230029582	117.5995553142815	far	IPS0
6	7.0	ltm	281	diff_vonmises	0.3791641383183353	21.724504868355183	1.117256092698118	68.32964017875311	1.0965325665034995	68.90084782434539	0.0593177558170694	-0.1505025596248446	0.209820315441914	79.21406821962589	far	LO1
0	1.0	ltm	282	diff_vonmises	0.2287639174369541	13.107206974016693	5.392282044243103	0.2841330281227766	1.714771432758713e-36	2.437069292148476	-0.131401707530389	-0.3878663111586201	0.2564646036282311	58.74627667093827	far	V1
1	2.0	ltm	282	diff_vonmises	0.1559503115733718	8.935294666904404	1.1064112323383246	131.9042844560562	1.0870379534351982	132.92649398419616	0.1125624658396802	-0.2709478113082735	0.3835102771479537	79.76061575901417	far	V2
2	3.0	ltm	282	diff_vonmises	0.061949929462241	3.549469499319565	2.095932750866456	0.5021867828029049	1.0453097904121826e-15	1.1040824531657742	0.0907584605637012	-0.1716910189338397	0.2624494794975409	94.86459527241962	far	V3
3	4.0	ltm	282	diff_vonmises	-0.3505613468910007	-20.085685637275944	2.0154200328393945	0.6964437342137404	4.4083372769520304e-21	2.0010187008539537	0.0424836075887878	-0.312061631570654	0.3545452391594418	96.49309213864136	far	V4
4	5.0	ltm	282	diff_vonmises	-0.107749098639991	-6.173568598410285	1.8401017125659829	0.7965122462507019	7.703798311428917e-13	1.4387996227014197	0.1616697938052284	-0.2191402555756161	0.3808100493808445	100.86765794341592	far	V3ab
5	6.0	ltm	282	diff_vonmises	-0.2859076956892852	-16.381304293306727	0.6139260417422945	1.9856836098689448	3.253948980280607e-08	2.487299920861428	0.1366742187578277	-0.2398695445102227	0.3765437632680504	145.24261586167614	far	IPS0
6	7.0	ltm	282	diff_vonmises	0.0960338847259719	5.502336285044056	0.7053989446572902	161.9864339761925	0.690179009800276	163.77053514827782	-0.0344974083493809	-0.3842494101755171	0.3497520018261362	94.87806351040982	far	LO1
0	1.0	ltm	283	diff_vonmises	0.1492012028691931	8.548599222679956	0.1635203877278833	62.67680566349618	0.1457759058404635	65.83544448153039	-0.3889882392817974	-0.5945820461324693	0.2055938068506719	155.6603020200342	far	V1
1	2.0	ltm	283	diff_vonmises	0.1024009703780472	5.86714342070627	0.5286587860116694	81.13280261417694	0.504855970190141	82.59580648004838	-0.0004561224981962	-0.3468009095396089	0.3463447870414127	113.0972857513228	far	V2
2	3.0	ltm	283	diff_vonmises	0.0789301724578331	4.522365758073571	2.5533599005564827	0.9923247597391436	0.4577792430951358	1.899710705245948	0.1382899236504777	-0.2413941910069467	0.3796841146574245	71.83162587334553	far	V3
3	4.0	ltm	283	diff_vonmises	-0.0503454512297581	-2.8845818731468604	0.5049467755285063	1.908839236045348	1.53539956644411e-09	3.926015556405187	-0.1520958731795833	-0.4526419731759298	0.3005460999963464	151.90157768315052	far	V4
4	5.0	ltm	283	diff_vonmises	-0.024669667281013	-1.4134678171940245	0.9431118914388692	93.26714310101698	0.9120169762097216	94.35020496894928	0.1994952120506106	-0.3126793329954456	0.5121745450460562	88.82529912252724	far	V3ab
5	6.0	ltm	283	diff_vonmises	-0.2082274445965977	-11.930553754179227	0.5742599554452706	137.6456675178314	0.5576457997735457	138.7453182369998	0.1480416029209337	-0.3359151562184816	0.4839567591394154	113.64809437926128	far	IPS0
6	7.0	ltm	283	diff_vonmises	0.1592330165585029	9.123379807938973	1.2699316565066987	102.62967326550373	1.2507739689347344	103.42524995669253	0.0507154911892655	-0.2069123789065763	0.2576278700958418	72.89482476650133	far	LO1
0	1.0	ltm	284	diff_vonmises	0.1403119659497666	8.039283464104944	5.4932591437986975	0.4275272682056902	3.0457590273513603e-19	3.55324936527102	-0.1758015281690163	-0.5655106032439332	0.3897090750749168	58.189691697431954	far	V1
1	2.0	ltm	284	diff_vonmises	0.0093171495392442	0.5338333456909536	2.42980457019955	1.3716073348563589	0.4340457888649854	2.773303539631628	0.1445920806425017	-0.351538155825757	0.4961302364682587	72.96517639428004	far	V2
2	3.0	ltm	284	diff_vonmises	-0.0399020230205826	-2.286217513113238	1.907768354925799	0.8470550173294431	6.219140800468753e-14	1.9203227663831088	0.1190272801709719	-0.2962749859550954	0.4153022661260674	99.20522038217148	far	V3
3	4.0	ltm	284	diff_vonmises	-0.2341893471250216	-13.418061197187942	0.8141974034775034	1.920218133962036	3.1462879703676112e-15	3.657939823392669	0.0060777016345463	-0.4667321169487054	0.4728098185832518	136.16905876527463	far	V4
4	5.0	ltm	284	diff_vonmises	-0.0234303126488751	-1.3424580274525326	1.6928193314633788	1.3786874349291596	1.7376916057099898e-15	2.202579421712899	0.2921605326931409	-0.3287904230106791	0.62095095570382	104.79368040724631	far	V3ab
5	6.0	ltm	284	diff_vonmises	-0.1330603615404975	-7.623797136755367	0.4484183723516745	3.408516130282488	1.0206330115385591e-16	3.982540710641178	0.1744419294274865	-0.3041701696855092	0.4786120991129957	154.62658081851862	far	IPS0
6	7.0	ltm	284	diff_vonmises	0.2129875318628649	12.203286664650305	0.7513000316265395	76.68868898471064	0.7223421929515579	77.75748244386806	0.1151203750099831	-0.2858327456160543	0.4009531206260375	98.2267561426462	far	LO1
0	1.0	ltm	285	diff_vonmises	3.0121826801588214	172.5853546955052	15.709644066215487	0.1315922886542055	1.130433667606134	0.713361091424846	-0.0272386439822348	-0.2013446394972411	0.1741059955150063	211.16639205486445	far	V1
1	2.0	ltm	285	diff_vonmises	0.4470328780244273	25.61309721438621	0.4197952197699008	71.20221462658421	0.4049473248219846	71.41729714348162	0.1451782514893835	-0.1503027296330872	0.2954809811224708	132.2106306663695	far	V2
2	3.0	ltm	285	diff_vonmises	0.2473930180628034	14.17457581600238	2.029664461797613	57.63885999117644	2.0114428282484536	57.48439751090424	0.2428976969352518	-0.0402418560270714	0.2831395529623233	69.6221384689068	far	V3
3	4.0	ltm	285	diff_vonmises	-0.251123514248077	-14.388317502908206	13.667500813261858	0.3143735491783976	4.609670266499163e-24	1.1199260895240408	0.2808869346797679	-0.1782417730447099	0.4591287077244778	36.66230705745608	far	V4
4	5.0	ltm	285	diff_vonmises	-0.2218352460130563	-12.710223343794452	4.016771963895617	0.3978128435613631	0.8302362466358889	0.405939096414406	0.1809413463115009	-0.0523696386679996	0.2333109849795006	60.8496850134994	far	V3ab
5	6.0	ltm	285	diff_vonmises	-0.4928121200716732	-28.23605457300124	0.9471927257937216	75.56905445595523	0.9237562805859698	75.9398639167336	0.215301082895376	-0.1630225822323039	0.37832366512768	92.49511580161084	far	IPS0
6	7.0	ltm	285	diff_vonmises	0.0222836193214869	1.2767573393973757	1.91640398219786	172.56905916440954	1.898338404737739	173.2153862599055	0.1739418120588283	-0.2443063683741719	0.4182481804330002	61.47550016762003	far	LO1
0	1.0	ltm	286	diff_vonmises	-0.4703968453416866	-26.95175393434676	0.4393415222411764	2.0233094455225817	2.1111099246879847e-15	2.865020301240341	0.0204230822268722	-0.2581169268059844	0.2785400090328567	151.59421894096636	far	V1
1	2.0	ltm	286	diff_vonmises	-0.0453259621876541	-2.596986335722137	3.1634501457611326	0.6654475007477001	9.369274125984541e-14	0.9374565326268748	0.2999259807548707	-0.1483978715428959	0.4483238522977667	77.21763896906242	far	V2
2	3.0	ltm	286	diff_vonmises	-0.0707076263830358	-4.051248571135826	1.4540837076464683	4.306227348031594	1.0530316653076937	4.459603444680445	0.2619777727847465	-0.1235923639281199	0.3855701367128665	82.20556425307308	far	V3
3	4.0	ltm	286	diff_vonmises	-0.3427078610615457	-19.63571404478237	2.964143035800659	0.8374950025353951	0.0686893054577293	1.5973387028062274	0.2727611547626407	-0.2390063645054982	0.511767519268139	77.26168174152333	far	V4
4	5.0	ltm	286	diff_vonmises	-0.0453590189521817	-2.598880348813928	0.995840362126668	1.3165097716765637	7.487275173086615e-12	1.285729496726084	0.244187896826787	-0.1433788621903242	0.3875667590171113	128.745899451824	far	V3ab
5	6.0	ltm	286	diff_vonmises	-0.4335131643350192	-24.838474679757883	1.9193026712386945	0.98818376332764	7.04253873477607e-16	1.3804398473320032	0.2775272013816426	-0.2090014611265127	0.4865286625081553	98.60553812438091	far	IPS0
6	7.0	ltm	286	diff_vonmises	0.1512625795900799	8.666707408773286	1.265268972157565	205.42623481509625	1.250212861344858	206.04904724077065	0.3242984776479574	-0.2518804510025063	0.5761789286504637	79.05007829665203	far	LO1
0	1.0	ltm	287	diff_vonmises	-0.0942424302764786	-5.3996935058981546	0.2013580313172073	85.6264161836738	0.190506122823017	87.01841449678972	-0.1048147071063461	-0.3136190502041636	0.2088043430978174	153.41379091720876	far	V1
1	2.0	ltm	287	diff_vonmises	0.0526584296310849	3.017105773647803	0.3674084000839679	90.5627002485991	0.3506851313289739	91.42079122905665	0.0871245253541985	-0.2851209282350044	0.372245453589203	136.38105501409797	far	V2
2	3.0	ltm	287	diff_vonmises	0.0833736450712253	4.776957985202909	1.2199969354285798	175.12724875355298	1.205613749523816	175.6058347503205	0.2824440941714101	-0.2044572127582142	0.4869013069296244	80.95886578084736	far	V3
3	4.0	ltm	287	diff_vonmises	-0.127371013353554	-7.297821497463094	3.543035748432598	0.6234183521859504	4.5146895553494856e-35	2.0469570307695437	0.1225571769595773	-0.3254081772796982	0.4479653542392756	72.86012494334261	far	V4
4	5.0	ltm	287	diff_vonmises	-0.0792069493219014	-4.53822390425155	1.877103299285224	0.8709144102055539	0.2185791746822188	1.3386334126513508	0.1703689039470234	-0.1631980076959006	0.333566911642924	90.0792543159487	far	V3ab
5	6.0	ltm	287	diff_vonmises	-0.3773595587090455	-21.621110072947516	1.550425562248572	0.9588325940868268	7.693352105727044e-18	1.7973878225964803	0.1376569936177796	-0.2669898482545382	0.4046468418723178	108.46616672536577	far	IPS0
6	7.0	ltm	287	diff_vonmises	0.102140036049022	5.852192984923046	1.8496537408486813	140.09923208077578	1.8296217055716797	140.80042263005168	0.1119952970890096	-0.2376312462385712	0.3496265433275809	61.388121856949766	far	LO1
0	1.0	ltm	288	diff_vonmises	-0.2501613820477167	-14.33319138849393	0.0601476378672941	12.01641871872513	0.0109902693685775	13.47325576642742	-0.1387709785049171	-0.3216267936572592	0.182855815152342	174.17593490008977	far	V1
1	2.0	ltm	288	diff_vonmises	0.1388612652489739	7.956164436612851	1.798079802558681	0.707042498498052	1.571597432451005e-14	1.4641821540964006	0.1089134404860442	-0.2236526493145656	0.3325660898006099	101.91715783672464	far	V2
2	3.0	ltm	288	diff_vonmises	0.0597568520409134	3.4238154189320573	1.110365201909946	75.21329281777962	1.0906013327713888	75.46909917976353	0.1864965064257617	-0.1224807727559378	0.3089772791816996	85.78285987496722	far	V3
3	4.0	ltm	288	diff_vonmises	-0.3674721340629635	-21.054602370473383	3.107693810028128	0.5833850915440468	0.0754786995101638	1.7283515872232684	0.0936089445094648	-0.2616816571832359	0.3552906016927007	74.23934215504282	far	V4
4	5.0	ltm	288	diff_vonmises	-0.043035346387434	-2.4657437178835435	2.100272034644037	0.5629247291600494	3.2232715247173146e-15	0.8013751985807382	0.1715361328891181	-0.1230597799552296	0.2945959128443478	94.77601212221312	far	V3ab
5	6.0	ltm	288	diff_vonmises	-0.4479603186251581	-25.666235646557165	0.6063193780912133	82.43021444101954	0.5888201491198468	82.84484102922312	0.1637130353150269	-0.1825019143747548	0.3462149496897817	114.2902355415699	far	IPS0
6	7.0	ltm	288	diff_vonmises	0.2564224663715001	14.691925095422238	1.4128355693625292	121.4268493350916	1.3955257700507808	121.90021990233062	0.1785273055485987	-0.1725220019113429	0.3510493074599417	73.57827293156575	far	LO1
0	1.0	ltm	289	diff_vonmises	-0.5222230917375886	-29.92117912083704	0.0002442177008472	3245.533930197352	2.2309338107479092e-30	3247.2199304624	-0.1421788071324954	-0.3944763415037187	0.2522975343712232	172.3452069419775	far	V1
1	2.0	ltm	289	diff_vonmises	0.1174961605770269	6.73203411005505	0.7768363589081074	41.1241825781865	0.7290272007857057	41.96661966337624	0.1309443918224406	-0.2416140539327096	0.3725584457551503	98.39493165631634	far	V2
2	3.0	ltm	289	diff_vonmises	-0.0665566850663252	-3.813417152681828	1.549696741129563	1.5618531395502904	0.5921159892524023	2.02691395362584	0.1547891027791624	-0.1559142505666459	0.3107033533458084	85.64971207203885	far	V3
3	4.0	ltm	289	diff_vonmises	-0.3361790499928743	-19.261640725309206	2.227390702046058	0.6746655121583731	2.511465205357255e-21	1.8233390807436376	0.0811237180707257	-0.2858774598583306	0.3670011779290563	92.00033237105237	far	V4
4	5.0	ltm	289	diff_vonmises	-0.1252342188017918	-7.175392187960576	1.3739932238638308	0.8883906776976326	1.8826855820580807e-16	1.6203432114071294	0.1070869751694184	-0.2345063850696851	0.3415933602391036	114.4731314315963	far	V3ab
5	6.0	ltm	289	diff_vonmises	-0.4547007496947181	-26.052433898941803	1.4915669797098778	1.049463012952234	8.798751972380927e-18	1.961000393006384	0.140925219796366	-0.2891642963182829	0.430089516114649	109.98724596771412	far	IPS0
6	7.0	ltm	289	diff_vonmises	0.1150879349812688	6.594052947302734	0.947195971329708	257.2670267010137	0.9355451296116776	258.8657132204531	0.0427748414186623	-0.3730045975546403	0.4157794389733027	83.51991301131196	far	LO1
0	1.0	ltm	290	diff_vonmises	0.2555081161536032	14.639536686939875	0.6266503280360708	115.87773238981534	0.6113463912517333	117.71960288250284	-0.1568484052834051	-0.3498580686542585	0.1930096633708533	93.2645363803348	far	V1
1	2.0	ltm	290	diff_vonmises	0.2512509798084032	14.39562074154817	0.6386336963455022	105.27285858941612	0.624342814538085	106.20879926907855	0.032669528729194	-0.227304119320955	0.2599736480501491	103.57792921337546	far	V2
2	3.0	ltm	290	diff_vonmises	0.2098108352031764	12.021275353256843	1.452271741014929	102.98995535184318	1.4336828199417824	103.41495952219104	0.1597013109432197	-0.1557903219611329	0.3154916329043526	72.50211179589795	far	V3
3	4.0	ltm	290	diff_vonmises	0.0855500108413302	4.901654558506662	0.7862382056411782	69.35263775339934	0.759933599280393	70.64312719439029	-0.0336122979519224	-0.2741966397232458	0.2405843417713233	89.36455382763373	far	V4
4	5.0	ltm	290	diff_vonmises	-0.0842084657321552	-4.824789685724515	1.3553305479119546	109.94107447588064	1.3318120213457336	110.80682410034036	0.1172835641220544	-0.2480310147706674	0.3653145788927219	72.17178470129579	far	V3ab
5	6.0	ltm	290	diff_vonmises	-0.2341440581980886	-13.415466332816004	0.8119791635850676	136.4770646103708	0.7944423000376406	137.5996285469199	0.1173614448534863	-0.2943776721311142	0.4117391169846005	93.78767715470296	far	IPS0
6	7.0	ltm	290	diff_vonmises	-0.2973464414884419	-17.0366961505214	1.3321179390609583	221.56517986391543	1.3165121585296742	223.2347344877146	-0.0427481676160539	-0.403505029342611	0.3607568617265571	67.72345715028175	far	LO1
0	1.0	ltm	291	diff_vonmises	0.2329142782374568	13.345005131342036	0.842365925968656	41.252001284356986	0.7799949771993874	43.06729093429342	-0.0530064051187135	-0.3846153196151034	0.3316089144963898	86.91205171675432	far	V1
1	2.0	ltm	291	diff_vonmises	-0.1349232196984285	-7.7305310470363295	1.1401661017338078	143.09882837025037	1.1212640277474988	144.0632257797175	0.1529357509688935	-0.2717720723347483	0.4247078233036419	79.56548465000932	far	V2
2	3.0	ltm	291	diff_vonmises	0.1372462514698828	7.863630963215458	1.1808345743765505	193.93629982103928	1.1662373520871234	194.63395416481592	0.2647961979032942	-0.2482608969853785	0.5130570948886728	80.92810521556922	far	V3
3	4.0	ltm	291	diff_vonmises	0.0074723312379035	0.4281330430556365	1.7282490139380935	1.4207811127173198	0.2471182608350677	2.72387292827894	0.1240646630047503	-0.327305039173068	0.4513697021778184	89.27984367632695	far	V4
4	5.0	ltm	291	diff_vonmises	0.0158647977575182	0.9089859543344068	1.1241720536682327	117.6589209994248	1.102490438784942	118.2353301286939	0.2687532039653817	-0.2222402551668612	0.4909934591322429	83.8840656513539	far	V3ab
5	6.0	ltm	291	diff_vonmises	-0.1526294954308529	-8.745025917399154	0.7674739871450964	79.04543302216278	0.7381146224086983	79.8599173291874	0.2053481604314946	-0.2682080833610198	0.4735562437925145	100.22687692982402	far	IPS0
6	7.0	ltm	291	diff_vonmises	-0.0047322876133732	-0.2711401076883244	1.1796821596946647	163.0012751682766	1.162548034342388	163.90445189394387	0.1818897288479846	-0.2682899191870582	0.4501796480350428	78.86818751912233	far	LO1
0	1.0	ltm	292	diff_vonmises	-0.6596785972059588	-37.79679945501206	0.2810183335303887	46.517272608185536	0.2646347822118605	46.540841840705895	0.1304708788852391	-0.1057172949114635	0.2361881737967026	143.27366488884144	far	V1
1	2.0	ltm	292	diff_vonmises	0.111113886918793	6.366356765740729	1.987302742207596	0.7303486662732736	2.353965203832239e-15	0.5746289419696672	0.2838578694583426	-0.0844035682901186	0.3682614377484613	97.29289681747396	far	V2
2	3.0	ltm	292	diff_vonmises	0.0107654941390792	0.6168173785420663	1.2136311916252371	37.10637008052976	1.1824535829641534	36.935208037082695	0.2780840242339675	-0.0626489266530101	0.3407329508869776	89.22841365998295	far	V3
3	4.0	ltm	292	diff_vonmises	-0.3533550823356248	-20.24575488732901	5.534983525826376	0.6647261834413171	9.855639623011657e-14	1.192932893359195	0.4184746615034341	-0.1898516921303614	0.6083263536337956	57.96858876158021	far	V4
4	5.0	ltm	292	diff_vonmises	-0.1926030309648446	-11.035340795713108	0.8675065281447084	0.9946814322463892	1.5329015587907163e-16	0.6707289416079291	0.2080963973271862	-0.0512115963808871	0.2593079937080734	133.96056776929328	far	V3ab
5	6.0	ltm	292	diff_vonmises	-0.5751733978379647	-32.95500818431441	2.373632909243708	0.640834440660275	8.753978033986012e-15	0.6711923839117977	0.2594787748131983	-0.1036457677882386	0.363124542601437	88.99449835506094	far	IPS0
6	7.0	ltm	292	diff_vonmises	0.1956790298266391	11.211582548280974	1.7596762678401785	159.37984144254352	1.7404424679957449	159.77436232849453	0.3202047783444612	-0.2091005513644432	0.5293053297089045	67.44012510616366	far	LO1
0	1.0	ltm	293	diff_vonmises	0.1249171594960041	7.15722602788359	3.515863713650173	0.3472463968632657	9.347722827246636e-48	2.4839276392022973	-0.1466589770756594	-0.3951096797222259	0.2484507026465665	73.14699796975262	far	V1
1	2.0	ltm	293	diff_vonmises	0.1116404399706779	6.396526033303465	2.00080883955999	1.6895717525803773	0.611633682272778	2.695330358681523	0.1501078795590358	-0.2736201193891804	0.4237279989482162	75.57797089179232	far	V2
2	3.0	ltm	293	diff_vonmises	-0.0019237037877054	-0.1102201080688538	1.526069556374798	0.7872207670041201	7.410668593257217e-18	1.4575224134645082	0.1125944518843039	-0.215688382514446	0.32828283439875	109.65385062117718	far	V3
3	4.0	ltm	293	diff_vonmises	-0.3794908285861927	-21.74322284191141	2.194093301947278	0.8545331995649024	4.654167247648309e-22	2.2206352826237072	0.1126699261652494	-0.3476344180797855	0.460304344245035	92.63911402777764	far	V4
4	5.0	ltm	293	diff_vonmises	-0.0955100748438012	-5.472324189528427	1.5172484320451736	1.0325780301623206	3.961650237686796e-12	1.3979630741544258	0.2278583076611301	-0.2008291295984257	0.4286874372595558	109.90176488653316	far	V3ab
5	6.0	ltm	293	diff_vonmises	-0.203437529758606	-11.656111849735217	0.3164515002166545	3.734094661264593	1.170207515669542e-16	3.96154393726402	0.164983314231726	-0.2080550895430655	0.3730384037747916	161.26025736467494	far	IPS0
6	7.0	ltm	293	diff_vonmises	0.227889245215394	13.057091947263968	1.0445672900097671	148.268167435385	1.0277632909883478	149.297008395136	0.112782846820437	-0.27054444421778	0.383327291038217	82.17022804484967	far	LO1
0	1.0	ltm	294	diff_vonmises	0.0556620592373406	3.189201073306796	0.4182166422650388	96.01624485359906	0.4032869628234453	97.966724711385	-0.1827087289425826	-0.3739146587401141	0.1912059297975314	114.74929264884958	far	V1
1	2.0	ltm	294	diff_vonmises	0.0781428625552958	4.477256223489329	0.793150334708863	51.54916485673206	0.7582065361681579	52.42156376291815	0.0860235720335556	-0.2278079046871388	0.3138314767206944	95.34057896756426	far	V2
2	3.0	ltm	294	diff_vonmises	0.1756304433667448	10.062883158925905	1.3661359546954293	109.3189933906324	1.347129505151028	109.73719782360862	0.204092477788393	-0.1660855345346963	0.3701780123230893	75.75436503046973	far	V3
3	4.0	ltm	294	diff_vonmises	-0.154788376455411	-8.868720688577215	0.9239749578727582	5.806373254218503	0.5736359479656742	7.12602651289403	0.0434959802663628	-0.3105724562625884	0.3540684365289512	95.05950155532	far	V4
4	5.0	ltm	294	diff_vonmises	-0.0336244636719011	-1.926539856790893	1.1968649488785508	107.97616383885588	1.1766004775237564	108.33409272066471	0.2708177386302992	-0.1733964627677338	0.444214201398033	82.60758871575635	far	V3ab
5	6.0	ltm	294	diff_vonmises	-0.2444936186546419	-14.008452466791994	0.717976044274148	159.93608334531874	0.705574138531126	160.4423172887011	0.2336541394394231	-0.2199394277431814	0.4535935671826046	105.42119893370212	far	IPS0
6	7.0	ltm	294	diff_vonmises	0.120822697966019	6.922630662836767	1.4059637548128794	137.25024332323986	1.3892009833114245	137.76630478841088	0.1974012759006029	-0.1887288261108075	0.3861301020114105	73.80544626105154	far	LO1
0	1.0	ltm	295	diff_vonmises	0.3478252906056681	19.928921159616145	0.7371539361071411	58.99108115146905	0.6920226027566448	61.49134983545248	-0.1999431534819251	-0.4828388542891044	0.2828957008071793	87.34038437327135	far	V1
1	2.0	ltm	295	diff_vonmises	0.1042980411344535	5.975837568486038	0.9184567549223904	164.97104350139918	0.9037880178100758	166.3328520687084	0.0201661876757981	-0.3113689304437592	0.3315351181195574	84.39110602629484	far	V2
2	3.0	ltm	295	diff_vonmises	0.1917374975100618	10.985749381726674	0.943485919346082	70.71695789472328	0.9136588902553734	71.6155804071937	0.1087644496092608	-0.2387093013720802	0.347473750981341	87.35639144256535	far	V3
3	4.0	ltm	295	diff_vonmises	0.1454104973170703	8.33140779316651	0.9876338572113604	0.9244404707378252	1.7487390072621638e-17	2.6649277063300087	-0.1104143285573994	-0.3806141433588482	0.2701998148014488	128.89881358821776	far	V4
4	5.0	ltm	295	diff_vonmises	8.362487150780514e-05	0.004791352199721	0.9944669599062216	80.72667364094005	0.9642708278898436	81.69917657268063	0.1361873506442457	-0.2648859263701073	0.401073277014353	85.40722822281731	far	V3ab
5	6.0	ltm	295	diff_vonmises	-0.1834086349088558	-10.50854070653322	0.8620292698860965	1.4195478937062884	2.3911026502233704e-12	2.342302633299925	0.0750429214704445	-0.29291723308201	0.3679601545524545	134.2407531128686	far	IPS0
6	7.0	ltm	295	diff_vonmises	0.0954253292999058	5.467468627530682	0.7385714523720357	49.63950726837624	0.7011773390183805	51.24495267747194	-0.1031527336008544	-0.3185822252456596	0.2154294916448051	89.0657077962527	far	LO1
0	1.0	ltm	296	diff_vonmises	0.1677190649349605	9.609594564653838	4.822858888888567	0.5174866933074256	3.4385288778791464e-17	3.69704882118714	-0.1482811077990696	-0.5883751115426542	0.4400940037435846	62.20260661491065	far	V1
1	2.0	ltm	296	diff_vonmises	-0.1090843431049646	-6.250072470871475	2.430675174249474	1.2940622273095042	0.2826144848327066	3.037884562361762	0.121348032049091	-0.4090551343157778	0.530403166364869	75.94509553425519	far	V2
2	3.0	ltm	296	diff_vonmises	-0.0743108876702982	-4.257700235378836	0.7934707146464998	161.80530316511783	0.7742699170729432	163.15329129702812	0.1906102524552793	-0.3752376169833784	0.5658478694386577	96.00575851455912	far	V3
3	4.0	ltm	296	diff_vonmises	-0.0468247017922596	-2.682857789655137	0.6273599403147527	2.321968355480141	5.112073068728263e-14	4.318593272434688	-0.0586794536669877	-0.5080600177916177	0.4493805641246299	145.65402526302205	far	V4
4	5.0	ltm	296	diff_vonmises	0.0303390866271139	1.7383016180154247	1.835528684510778	1.2776474218403489	2.1799154830804554e-19	2.400015010097832	0.2437141014046854	-0.3660501579486799	0.6097642593533654	101.00137517967708	far	V3ab
5	6.0	ltm	296	diff_vonmises	-0.1671257808195166	-9.57560188878675	0.7693479782290058	1.9736620741589848	1.075611166095353e-16	3.016113001833181	0.1076969199823864	-0.3538621614997923	0.4615590814821788	138.5045642689645	far	IPS0
6	7.0	ltm	296	diff_vonmises	0.3252819196785303	18.637281149493223	1.5702390580684114	1.474768931159366	0.4216317844043274	2.2165511956493305	0.142112904557024	-0.2124372612540773	0.3545501658111014	88.22472597043267	far	LO1
0	1.0	ltm	297	diff_vonmises	0.2636563715117029	15.106397329353852	0.7303117720733582	124.95139770467829	0.7069408250724328	127.62291350238564	-0.2067316492326369	-0.5183886483450539	0.3116569991124169	87.44404881296009	far	V1
1	2.0	ltm	297	diff_vonmises	0.0502974152113591	2.8818296120279854	1.0384601391881778	161.47921249449257	1.0225551311607963	162.67587559102367	0.0704853132731173	-0.2948563707500611	0.3653416840231784	80.87838734281115	far	V2
2	3.0	ltm	297	diff_vonmises	0.1622789086425911	9.297896569209533	1.2702370257198845	4.098335466522896	0.7991096290270965	4.932144778731392	0.1099252285887928	-0.2242849118537787	0.3342101404425716	83.16640125845396	far	V3
3	4.0	ltm	297	diff_vonmises	-0.0221409154440482	-1.2685810094999868	1.4386093963208162	0.8312769541109589	1.4872772167708041e-16	2.3800107024520485	-0.0277098921750446	-0.359027130470906	0.3313172382958614	112.40738675289477	far	V4
4	5.0	ltm	297	diff_vonmises	-0.0086913024894245	-0.4979749511155701	1.0151107137922657	125.81301069002836	0.9917323764138218	126.8368678048238	0.2079413015720632	-0.3015447487421454	0.5094860503142087	85.5857938423618	far	V3ab
5	6.0	ltm	297	diff_vonmises	-0.1344257188023722	-7.702026345388327	1.131381837179099	1.6749797457412852	0.1066593220641546	2.5669298281507547	0.1604704170851402	-0.3023013823448084	0.4627717994299486	116.10063769300972	far	IPS0
6	7.0	ltm	297	diff_vonmises	0.0132865613177718	0.7612638877501048	0.6205760550718593	117.1379036051578	0.6007358332213057	118.99624389732116	-0.0534441089066426	-0.3977733202353946	0.3443292113287519	101.07427017538168	far	LO1
0	1.0	ltm	298	diff_vonmises	0.1548030614048617	8.869562074203104	0.0002178555600676	2331.454534474179	2.275105031028792e-33	2333.511107945121	-0.2464716090720458	-0.4081472529759935	0.1616756439039477	179.13986293797896	far	V1
1	2.0	ltm	298	diff_vonmises	0.1403300044763989	8.04031699554961	0.2964853350398652	46.483875809430806	0.267121221071224	47.70079858709882	-0.0056033476900481	-0.3287687176308314	0.3231653699407832	143.67419415404385	far	V2
2	3.0	ltm	298	diff_vonmises	0.1715849806320274	9.831095218049144	1.185338725810417	106.26538256033642	1.1658605917109814	106.81457243427094	0.1789530246169519	-0.1855935307101681	0.3645465553271201	80.33404888512669	far	V3
3	4.0	ltm	298	diff_vonmises	0.0307702973524075	1.7630081726555225	0.7904351412751536	1.0030592513224506	1.815834968403725e-33	2.7868996722588544	-0.1408096939672633	-0.3812455313628832	0.2404358373956199	137.79716478795	far	V4
4	5.0	ltm	298	diff_vonmises	-0.0494466669233427	-2.833085325696667	1.0214433375939151	19.537300776004173	0.9338465273870789	20.093002284731465	0.1413934835972581	-0.1740499068009555	0.3154433903982137	87.57447764739905	far	V3ab
5	6.0	ltm	298	diff_vonmises	-0.3757781207925086	-21.53050035476799	0.5101091996800687	144.2581615545558	0.4994732049823743	144.98188954342024	0.1084686694640879	-0.2380537095243671	0.346522378988455	120.18226988608312	far	IPS0
6	7.0	ltm	298	diff_vonmises	-1.344809651656836	-77.05191728839512	487.0554337270943	0.0145841872670644	9.379099480588792	0.3412318516406174	-2.9330616320207367e-09	-0.3816186428588271	0.3816186399257654	143.25872727708884	far	LO1
0	1.0	ltm	299	diff_vonmises	0.2578715827531796	14.774953348115742	3.9254289733117584	0.6884439324439315	0.1274569468425943	3.3310545213468927	-0.075898968805378	-0.5196077955640684	0.4437088267586904	63.59470166412822	far	V1
1	2.0	ltm	299	diff_vonmises	-0.0164955819160403	-0.9451272244014354	1.207824528641961	192.32491497063504	1.191194365777515	193.57550841106575	0.1187446325112091	-0.3317970353467601	0.4505416678579692	75.69559233194391	far	V2
2	3.0	ltm	299	diff_vonmises	0.1067315994274925	6.115270187876238	0.8731372259738449	64.660325610502	0.8371598500955321	65.70943877366861	0.1178236805090229	-0.2764407470607057	0.3942644275697287	90.97651269067433	far	V3
3	4.0	ltm	299	diff_vonmises	-0.0232303849565669	-1.3310030144754823	1.4477089911477683	1.0426359553117803	9.914890133494168e-15	2.575560405148878	0.0321078892127087	-0.3854788702670608	0.4175867594797696	112.11529426280808	far	V4
4	5.0	ltm	299	diff_vonmises	0.0006665872131187	0.038192633989094	0.9204086552062832	67.87991271961685	0.8759621366644647	68.9826546570702	0.2238212400941179	-0.3271396097764869	0.5509608498706049	90.68162150141322	far	V3ab
5	6.0	ltm	299	diff_vonmises	-0.0927254806106186	-5.3127786923105935	1.0441357692870297	1.5396569561452	2.1502187014993378e-17	2.449120128710172	0.1491481495971192	-0.3230125151082804	0.4721606647053996	126.708328467636	far	IPS0
6	7.0	ltm	299	diff_vonmises	-0.0980179040466699	-5.616012218592458	0.4667653379203796	53.06026062948742	0.4208034137222426	55.37465535818887	-0.0856427583061822	-0.520053051832849	0.4344102935266667	119.40643238121402	far	LO1
0	1.0	ltm	300	diff_vonmises	0.135624982069999	7.770739069148407	1.443774936473424	0.8571925093601498	0.0562871018178513	4.44504649131502	-0.3850095467925455	-0.6487937960895803	0.2637842492970347	100.32614983391416	far	V1
1	2.0	ltm	300	diff_vonmises	-0.0044413258158464	-0.2544692246905013	1.846224898134938	0.8465260584452927	1.1173489531144655e-14	2.6162386864176725	-0.000360320684144	-0.4060233346213454	0.4056630139372014	100.73394211854546	far	V2
2	3.0	ltm	300	diff_vonmises	-0.0856708353393016	-4.90857729230221	1.022918844758016	84.81216707986371	0.9935734651560386	85.82033187761039	0.1272028378687366	-0.270099201830849	0.3973020396995856	83.7848754941854	far	V3
3	4.0	ltm	300	diff_vonmises	-0.1202833466848741	-6.89172811075219	0.066219101579817	12.692450194777432	0.0002022443072891	14.699014648457776	-0.1838968743167033	-0.4503863739059914	0.2664894995892881	175.8079512495598	far	V4
4	5.0	ltm	300	diff_vonmises	0.0490917356345671	2.812749260832686	2.2938097032652704	0.888317395815644	1.3156548445239665e-15	2.459607430511888	0.1060928012406884	-0.3863949467852655	0.4924877480259539	90.78674217620544	far	V3ab
5	6.0	ltm	300	diff_vonmises	-0.2395963453687116	-13.727859376386029	0.4534085923735212	117.80399064748516	0.4346120894447456	119.38858413567536	0.0381579358988339	-0.4178317978536441	0.4559897337524781	123.49263316952116	far	IPS0
6	7.0	ltm	300	diff_vonmises	0.5081138071497888	29.11277666200713	1.8000297947540551	0.6390585013028504	6.948303833012412e-12	1.6548211317511177	0.045896310282796	-0.2549230198741796	0.3008193301569756	101.31841330610254	far	LO1
0	1.0	ltm	301	diff_vonmises	-0.3813277924929876	-21.848473120888627	0.2809107220924124	63.212280996465225	0.2673954871760091	63.87757376103047	0.0157988529766957	-0.1948405214287163	0.210639374405412	143.90613850523897	far	V1
1	2.0	ltm	301	diff_vonmises	0.1441571198992162	8.259594556986467	0.5096468466588113	64.58014137655138	0.4900418232827067	64.81706483327746	0.1786092379898516	-0.1645843069520429	0.3431935449418946	125.29344421266272	far	V2
2	3.0	ltm	301	diff_vonmises	0.0758801290823718	4.347611145327801	1.5861664128588564	115.9927225226542	1.571122237395697	116.00036880793944	0.2967567480570636	-0.099626498400239	0.3963832464573027	74.82487869029436	far	V3
3	4.0	ltm	301	diff_vonmises	-0.2396625678460234	-13.731653644844894	5.106990419340184	0.5662735371909461	1.4327823769780434e-14	1.3778472617724251	0.2772858768263502	-0.2192729988310518	0.496558875657402	60.40290361207653	far	V4
4	5.0	ltm	301	diff_vonmises	-0.1220727598087796	-6.994253930557294	3.068903804686748	0.4522736939981585	8.773371366199307e-15	0.4611432470256661	0.2266789295300357	-0.072745175413383	0.2994241049434187	78.41783781360738	far	V3ab
5	6.0	ltm	301	diff_vonmises	-0.4209376392579417	-24.117950167680416	2.377060186408932	0.7971771242741943	7.992388681268537e-14	1.2884526216223324	0.2509920641543122	-0.2011341335732795	0.4521261977275918	89.07032224512125	far	IPS0
6	7.0	ltm	301	diff_vonmises	0.0839392393706407	4.80936415147607	1.6864093100146775	187.43067025654148	1.6693037922969165	188.03481883982408	0.2601775591910638	-0.2435050389146553	0.5036825981057191	67.25132795233819	far	LO1
0	1.0	ltm	302	diff_vonmises	0.2839864451827669	16.271224747895854	0.8237860509404541	89.24999188495867	0.7964014150081924	91.0891601776058	-0.090491812932214	-0.3775946473728577	0.2871028344406436	85.27732716210934	far	V1
1	2.0	ltm	302	diff_vonmises	-0.0088652314011919	-0.5079403436951465	1.0367251608118606	117.89995491336992	1.0174941511689377	118.87334238881472	0.0919914348921864	-0.2509089007382332	0.3429003356304196	82.14519967510259	far	V2
2	3.0	ltm	302	diff_vonmises	0.1629303389808323	9.335220778237533	1.1376570770413943	121.52317878965611	1.121355184993438	122.06244818257645	0.1729489962003185	-0.1809110998701086	0.3538600960704272	81.98809401289728	far	V3
3	4.0	ltm	302	diff_vonmises	-0.1037409581945766	-5.943919067192351	3.1770582841900343	0.4774171961044759	1.3838261136079596e-25	1.712079646953626	0.0505416286835031	-0.2719240075798906	0.3224656362633938	77.04447082591605	far	V4
4	5.0	ltm	302	diff_vonmises	-0.000465241624934	-0.0266563815625279	1.1070279018427478	75.72766756413654	1.0783436412596894	76.39034047444943	0.1708111536676995	-0.2078911718003526	0.3787023254680521	82.65678068194924	far	V3ab
5	6.0	ltm	302	diff_vonmises	-0.2442134913361922	-13.992402353718512	0.6397956088486216	66.9200104189215	0.6121764229468551	67.70603154750835	0.1400943599401927	-0.2482288015707006	0.3883231615108933	108.86475306299933	far	IPS0
6	7.0	ltm	302	diff_vonmises	0.0254394600031017	1.4575736912695918	0.8557922656075215	123.10158066502018	0.8356069162878835	124.45219332881176	0.0548878206907872	-0.3198782755830009	0.3747660962737882	88.99629184425501	far	LO1
0	1.0	ltm	303	diff_vonmises	0.2843357589847759	16.291238954476636	0.6743010913118963	111.0527830089568	0.6475664640713918	113.904020074915	-0.2182019774737007	-0.5514442186811603	0.3332422412074596	91.46923882893472	far	V1
1	2.0	ltm	303	diff_vonmises	-0.0716961935427487	-4.107889297152608	0.7953959754365406	139.76592044787577	0.7762408584616107	141.38715785441912	0.0263508474819786	-0.3697870963502048	0.3961379438321835	91.30348051379256	far	V2
2	3.0	ltm	303	diff_vonmises	0.0604048509835117	3.4609430234718848	1.0028184940406009	245.6879821830402	0.990246326259004	246.87325691963895	0.1816271766441559	-0.3284083291710544	0.5100355058152104	84.92741485095263	far	V3
3	4.0	ltm	303	diff_vonmises	0.1909211637886644	10.938976904816396	1.5738688739544917	0.852443762114479	1.5461411147717243e-16	2.837837531283653	-0.0714877460156511	-0.4353279328353724	0.3638401868197213	108.0813816203232	far	V4
4	5.0	ltm	303	diff_vonmises	0.0344138552630596	1.971768663347393	1.4208468309490807	2.8421667422470023	0.5176300361499508	4.08903763462147	0.1690035848058912	-0.3337911681685628	0.5027947529744541	87.47597510320455	far	V3ab
5	6.0	ltm	303	diff_vonmises	-0.1239838141194061	-7.10374927697648	1.5538922849581422	1.071748800878858	1.4390662090691124e-13	2.3979674535185245	0.0926285417212536	-0.3604481466732971	0.4530766883945507	108.76322727052276	far	IPS0
6	7.0	ltm	303	diff_vonmises	0.1631380124605795	9.347119592143844	0.996019148798675	86.3794251589202	0.9733470453649428	87.40501402301571	0.0256616388979189	-0.2400918236777975	0.2657534625757165	81.49526906985187	far	LO1
0	1.0	ltm	304	diff_vonmises	-0.6051573115503946	-34.67295989332108	0.1228769196588469	10.130157039983969	0.0324623310708756	11.029599868882752	0.0033381556732785	-0.2784203735311803	0.2817585292044589	162.21442973272158	far	V1
1	2.0	ltm	304	diff_vonmises	0.0523798165688695	3.001142421065645	1.685264730774276	0.9205009145612882	4.715140767976812e-17	1.285674494239029	0.2233405099112752	-0.189911784588985	0.4132522945002603	104.99185008536568	far	V2
2	3.0	ltm	304	diff_vonmises	-0.0973951814937495	-5.580332844502512	1.8315897981295428	1.6560573423235	0.8258997356320575	1.846598520083877	0.2400909978088324	-0.1218738755983762	0.3619648734072087	79.64503837286131	far	V3
3	4.0	ltm	304	diff_vonmises	-0.3481056398947207	-19.944983990668355	2.900900850360821	0.7253960323810886	0.0213232350663479	1.572606023911105	0.2104137764993074	-0.2436217655864849	0.4540355420857924	79.64887045907808	far	V4
4	5.0	ltm	304	diff_vonmises	-0.084853771659486	-4.861762991855347	0.8470295596744211	1.3082673380683505	1.0346315809506962e-15	1.5431815426461344	0.1633887865294052	-0.1704429766607549	0.3338317631901601	135.16015928555407	far	V3ab
5	6.0	ltm	304	diff_vonmises	-0.4766929523809498	-27.31249429505915	2.0707131504195755	0.9315386462549786	4.535123019707916e-16	1.5937748421054534	0.237078184905032	-0.2458538949178013	0.4829320798228335	95.12063926709308	far	IPS0
6	7.0	ltm	304	diff_vonmises	0.1443161532729441	8.268706498102803	1.2145327368523426	225.0223739029773	1.2002424025297125	225.97883056026456	0.2306568787799108	-0.2976808965696094	0.5283377753495202	78.19923113395089	far	LO1
0	1.0	ltm	305	diff_vonmises	0.3180482023171762	18.222819674497128	0.5085987121578193	113.05092282632188	0.4905598829089848	115.79539137197736	-0.2912022478074512	-0.4988984216356247	0.2076961738281735	99.55082008597856	far	V1
1	2.0	ltm	305	diff_vonmises	0.1498739626419239	8.587145518283613	0.6508905710346993	94.49605213658737	0.6304918963644152	95.92825136395729	-0.0225052027470837	-0.3131364631686821	0.2906312604215983	99.58667610818851	far	V2
2	3.0	ltm	305	diff_vonmises	0.143585258577114	8.22682931676324	1.1093927001352022	107.37445699388208	1.0909698017079297	108.06772558528702	0.1215676095081903	-0.1984725185682077	0.320040128076398	81.04976388895511	far	V3
3	4.0	ltm	305	diff_vonmises	0.2076874793921759	11.89961602688194	0.4838137451820558	1.2242180428198417	3.700433149723948e-18	3.011560142277071	-0.1809422132497521	-0.365931703915478	0.1849894906657258	152.22745493100493	far	V4
4	5.0	ltm	305	diff_vonmises	0.0088770883161505	0.5086196948803192	1.3195802573929083	4.080862250929546	0.7791174485436692	4.997610037358346	0.1388973884052808	-0.2525089191365024	0.3914063075417833	83.09057638032675	far	V3ab
5	6.0	ltm	305	diff_vonmises	-0.2364770709736569	-13.549138118406164	0.5089125738991066	129.979310903048	0.4954845971268706	130.93114588169755	0.0922587724961658	-0.2833489615874338	0.3756077340835997	119.3979460743352	far	IPS0
6	7.0	ltm	305	diff_vonmises	0.5666953599923837	32.46925239721043	1.5410224314228296	0.5592716316453963	1.1407818655064684e-32	1.310671458143068	0.037633833774274	-0.1973050747271384	0.2349389085014124	108.04197013285818	far	LO1
0	1.0	ltm	306	diff_vonmises	-0.0753902020156538	-4.319540392135635	0.2652030892668236	72.66136937971524	0.2483600661264398	74.99121136154642	-0.2519418665866517	-0.4519377589859275	0.1999958923992757	139.27528026144728	far	V1
1	2.0	ltm	306	diff_vonmises	0.1540241042263528	8.824931115453122	0.6180580593580595	111.47831604655036	0.6009412166679114	112.6901508266902	0.0394537622474508	-0.2954110756999917	0.3348648379474426	105.42862230647276	far	V2
2	3.0	ltm	306	diff_vonmises	0.0392637202304983	2.249645457189984	1.0845485516646456	75.90563536547131	1.058808109606773	76.55810156785782	0.1368020660434865	-0.1938803964097903	0.3306824624532769	82.78429633808312	far	V3
3	4.0	ltm	306	diff_vonmises	-0.1770985052719912	-10.146996910160455	1.3144550307980425	0.7422448704817673	7.32321774042026e-16	2.3038115580367227	-0.0696999859906011	-0.3452348323581508	0.2755348463675496	116.43065452552425	far	V4
4	5.0	ltm	306	diff_vonmises	-0.0488831913261859	-2.800800552120968	2.0102278531628515	0.8762555756006317	0.163993251766409	1.8196167380140211	0.114510757362801	-0.2427943691706894	0.3573051265334905	87.43082148390243	far	V3ab
5	6.0	ltm	306	diff_vonmises	-0.3531539538261473	-20.23423107259619	0.5009267096213131	129.44827468017587	0.4864641798154418	130.51881748216763	0.0881219578505287	-0.3111265253612263	0.3992484832117551	119.72895176507964	far	IPS0
6	7.0	ltm	306	diff_vonmises	0.143607111899043	8.228081419878112	1.056619081836868	166.73769291293672	1.0426171099620491	167.98935695331653	0.0017910536715319	-0.2876886212390168	0.2894796749105488	77.73360832478903	far	LO1
0	1.0	ltm	307	diff_vonmises	0.1701549088242803	9.749158139064592	4.023529670624019	0.5542947061347587	8.410541597500819e-22	3.67319028434054	-0.1570831047988568	-0.5844695548498582	0.4273864500510014	68.25504908681307	far	V1
1	2.0	ltm	307	diff_vonmises	-0.1237020815600308	-7.087607190372854	1.8612872864465355	1.939624055562706	0.3894777143432391	3.679360297650498	0.1253891407347052	-0.4193452662887502	0.5447344070234554	81.39421690212089	far	V2
2	3.0	ltm	307	diff_vonmises	-0.0580497915285627	-3.326008056200925	1.214293324751909	3.89629105855279	0.4236877351549006	5.456305895218728	0.2185230765807788	-0.4315638643499919	0.6500869409307708	95.7682168349898	far	V3
3	4.0	ltm	307	diff_vonmises	-0.0216829717627609	-1.2423427693075435	0.699449485020608	2.5637403587020637	3.6104116075969576e-19	4.687564264320972	-0.0167893960490059	-0.5660154500286392	0.5492260539796332	142.1315007527432	far	V4
4	5.0	ltm	307	diff_vonmises	0.0055297178196266	0.3168294929628895	1.7560949141019595	1.4475251315887776	3.4866024006837963e-16	2.4974967367823715	0.2925624760808402	-0.3769025647586458	0.669465040839486	103.07356554775131	far	V3ab
5	6.0	ltm	307	diff_vonmises	-0.14526978884522	-8.32334579158775	0.8394231476446289	1.9316570545602727	5.2505333787727996e-14	2.923064161158216	0.1358485677719638	-0.3530642357722713	0.4889128035442351	135.36846807389625	far	IPS0
6	7.0	ltm	307	diff_vonmises	0.2934495598457414	16.81342127913266	1.2172905744171627	82.26563743184447	1.1910329441730283	82.9052718794901	0.1573141904468471	-0.1999769335154528	0.3572911239623	78.37448717301376	far	LO1
0	1.0	ltm	308	diff_vonmises	-0.8243633795525027	-47.2325424334996	10.472436466820952	0.1910570892988715	0.0278945049113265	2.4261508928435065	-0.1534230934889552	-0.3902114133114615	0.2367883198225062	41.26198238364864	far	V1
1	2.0	ltm	308	diff_vonmises	0.4728681015056815	27.09334648263936	0.5183715075610615	113.71198843312044	0.5045583547786389	114.73069440081385	0.0418621623332278	-0.2673165903139427	0.3091787526471705	115.98596529948338	far	V2
2	3.0	ltm	308	diff_vonmises	0.1183117483317689	6.778763846224317	1.8888149304430253	74.08100664632049	1.8638986600749647	74.38920332207944	0.1441116492187788	-0.1340606024686863	0.2781722516874652	63.52088148829458	far	V3
3	4.0	ltm	308	diff_vonmises	-0.1748003945904918	-10.01532486725661	0.5529311221143314	97.42030964529904	0.5391207521950611	98.95966729984588	-0.1380010816694614	-0.2900222463369566	0.1520211646674951	98.83060542235545	far	V4
4	5.0	ltm	308	diff_vonmises	-0.1536595508725641	-8.804043746873694	1.358672711020314	75.450099044187	1.325923417049382	76.26003058630107	0.1200623504524855	-0.2350003860907854	0.355062736543271	72.4569454295085	far	V3ab
5	6.0	ltm	308	diff_vonmises	-0.3342016705171857	-19.148345226856456	0.7520845076778616	198.6968634636495	0.7401996856506349	199.7811147016957	0.1339257512280411	-0.2966032115178372	0.4305289627458784	98.03651129299818	far	IPS0
6	7.0	ltm	308	diff_vonmises	-0.3237854895477349	-18.55154201866244	1.8482252512471655	112.93040333581632	1.8250618651602328	113.82912755784804	-0.0145048054032201	-0.2630773229556951	0.2485725175524749	57.74262389159358	far	LO1
0	1.0	ltm	309	diff_vonmises	0.2911801057316602	16.683391136597205	0.8440446076184206	92.75412722138664	0.8070372388620087	95.31887758837752	-0.1269059693212249	-0.5274520739848132	0.4005461046635883	84.4235069305503	far	V1
1	2.0	ltm	309	diff_vonmises	-0.1345559842765722	-7.709490007276254	1.0872745588430706	168.60637777337618	1.0685994269644177	170.01273088863823	0.0922649455208244	-0.3520876524204333	0.4443525979412577	79.21028460076104	far	V2
2	3.0	ltm	309	diff_vonmises	0.1094466609646337	6.270831755072731	1.0452648515237604	225.762116623636	1.0319379141850855	226.8014877562489	0.2056767378141728	-0.3043012494896331	0.509977987303806	83.95752123669888	far	V3
3	4.0	ltm	309	diff_vonmises	0.1555517998630766	8.912461627817946	1.3586538649412068	1.504914124650574	0.1915874368547586	3.1929778058224216	0.0042310074379722	-0.3793846854389907	0.3836156928769629	98.5338688198572	far	V4
4	5.0	ltm	309	diff_vonmises	0.052834153916765	3.027174033575226	1.0361752222613891	128.79110028810555	1.0120931283678003	129.82664114311487	0.2292241803759935	-0.3115511195934459	0.5407752999694395	84.97025898177833	far	V3ab
5	6.0	ltm	309	diff_vonmises	-0.0732816870646747	-4.198731384404303	1.5978103366764955	1.26189803316663	0.0957816372081966	2.365121806796252	0.1546488503830069	-0.3180032341700897	0.4726520845530966	101.01840430663805	far	IPS0
6	7.0	ltm	309	diff_vonmises	0.2076885031294331	11.899674682706108	1.9990774946202272	0.7187294304510556	2.3369118529869373e-13	1.761494962743741	0.0903268746231139	-0.2735488558326781	0.3638757304557919	96.9709019263972	far	LO1
0	1.0	ltm	310	diff_vonmises	0.2024278598633015	11.59826202603285	1.4933027072597629	0.5313347115140274	9.449383308235442e-14	3.4846068521697404	-0.3250745894991857	-0.5430104459418075	0.2179358564426217	110.5084831371687	far	V1
1	2.0	ltm	310	diff_vonmises	0.1594371350286279	9.1350749347978	0.7717132906383853	112.86047267546	0.750391049898072	114.39386365707912	0.0083908361178828	-0.3438185965147049	0.3522094326325877	92.24737666405906	far	V2
2	3.0	ltm	310	diff_vonmises	0.0933733020780087	5.3498961282700215	2.244175465429486	0.7422806802131523	0.1186375658529039	1.7549027701903066	0.0969800424955114	-0.2481295640583062	0.3451096065538176	84.78199501706305	far	V3
3	4.0	ltm	310	diff_vonmises	-0.0164163004680838	-0.9405847320398436	0.0003882601833683	2445.9717564111256	5.0103898253266935e-25	2447.9820613759343	-0.1687901618291789	-0.4710804409415914	0.3022902791124124	179.9700669715127	far	V4
4	5.0	ltm	310	diff_vonmises	-0.038494696512005	-2.2055836437748626	1.5661648393238607	1.4991064089048185	0.2787477004418463	2.501116175581457	0.1506063044650729	-0.2761266136289566	0.4267329180940295	92.65068105138536	far	V3ab
5	6.0	ltm	310	diff_vonmises	-0.2320791861744307	-13.297157880625768	0.2824028090462603	63.21211470020781	0.2587925183900755	64.11515467103429	0.0816285875402513	-0.3109191991939166	0.392547786734168	146.46217020973137	far	IPS0
6	7.0	ltm	310	diff_vonmises	0.2685672213668186	15.387768299874413	1.0210956512721046	104.7305208433008	1.002827143513801	105.8594271066498	-0.0248207568734244	-0.249829118813313	0.2250083619398886	77.92848659054329	far	LO1
0	1.0	ltm	311	diff_vonmises	0.2636563388226885	15.106395456411288	0.7303701274381363	124.33372958355048	0.7068842937667809	127.00524536784684	-0.2067317361500258	-0.518388596956525	0.3116568608064991	87.44401665627089	far	V1
1	2.0	ltm	311	diff_vonmises	0.0502974114163896	2.881829394592249	1.0388226215888594	154.46021735527088	1.022197615482184	155.6568803829156	0.070485448200074	-0.2948563111362112	0.3653417593362853	80.87833221514751	far	V2
2	3.0	ltm	311	diff_vonmises	0.1622689043125476	9.297323363321183	1.269783290098968	4.105816022482723	0.7994393997744151	4.939625252005668	0.1099363875386458	-0.2242912950037608	0.3342276825424067	83.16807716946323	far	V3
3	4.0	ltm	311	diff_vonmises	-0.0221409182268609	-1.2685811689434128	1.438609421088846	0.8312769449023946	1.4989917782437258e-16	2.380010692729878	-0.0277098908764916	-0.3590271299158243	0.3313172390393327	112.40738595592563	far	V4
4	5.0	ltm	311	diff_vonmises	-0.0086915502254519	-0.4979891453443739	1.0156775699445824	120.00814737067596	0.991173150287284	121.03200450908916	0.2079414536819399	-0.301544522466818	0.509485976148758	85.58571585697081	far	V3ab
5	6.0	ltm	311	diff_vonmises	-0.134425796874821	-7.702030818610138	1.131379772245332	1.6749855966487877	0.1066604504156652	2.566935678991736	0.1604703988545669	-0.3023013620851769	0.4627717609397438	116.10064343902287	far	IPS0
6	7.0	ltm	311	diff_vonmises	0.0132865613177718	0.7612638877501048	0.6205760550718593	117.1379036051578	0.6007358332213057	118.99624389732116	-0.0534441089066426	-0.3977733202353946	0.3443292113287519	101.07427017538168	far	LO1
0	1.0	ltm	312	diff_vonmises	-0.9002649985460458	-51.58138486003962	1.7459497833793465	0.4669857934599853	1.3394130517633233e-22	0.4708636779274923	0.1468889060563933	-0.0681865089782662	0.2150754150346595	101.04441629829992	far	V1
1	2.0	ltm	312	diff_vonmises	0.363986777681432	20.854906159712645	0.4546118889744616	47.18835294037179	0.434693818698486	46.9727788294954	0.2245764218166872	-0.0899408231600746	0.3145172449767619	133.38553371960506	far	V2
2	3.0	ltm	312	diff_vonmises	0.1147494793313834	6.574660867011945	2.032806648660461	21.326564087076093	2.0041612716164203	21.053831344614974	0.2356791895175032	-0.0126655043683103	0.2483446938858136	75.40426552622085	far	V3
3	4.0	ltm	312	diff_vonmises	-0.375826839313556	-21.533291720408123	3.977893319627252	0.761188726295302	0.3912064392493538	1.2252006161243636	0.30577378968488	-0.1792511119144576	0.4850249015993376	62.87800878489375	far	V4
4	5.0	ltm	312	diff_vonmises	-0.1804071955294498	-10.336570897628889	2.6783394854148463	1.216044620844904	2.6782194738630265	0.8902110050307054	0.1999277209025852	0.0009424365994692	0.1989852843031159	84.01881788421258	far	V3ab
5	6.0	ltm	312	diff_vonmises	-0.5775309645706748	-33.09008680801914	2.300138520423069	0.7890478588773333	0.2199924936255092	0.8276943977597965	0.2805009817352368	-0.1028978704215558	0.3833988521567926	85.01325420962728	far	IPS0
6	7.0	ltm	312	diff_vonmises	0.1475098604272918	8.45169243904766	1.7208144621394208	164.59890267673327	1.7029557692896051	164.9829768934052	0.3109894751021045	-0.2018785743981475	0.512868049500252	68.24374024226273	far	LO1
0	1.0	ltm	313	diff_vonmises	0.1120528677493277	6.420156404374056	0.170735635481516	54.03255322283683	0.1521832576476487	57.05203156339294	-0.3850441105186366	-0.5560696508673537	0.1710255403487171	153.5786209279236	far	V1
1	2.0	ltm	313	diff_vonmises	0.2364672042022928	13.548572794049583	0.7226180912444968	110.93012719828968	0.7040231426296789	112.2660712556566	0.0121775239912551	-0.3027970401967685	0.3149745641880237	95.69213064421264	far	V2
2	3.0	ltm	313	diff_vonmises	0.1558237211758406	8.928041571398982	3.551801014966816	0.4372993903968968	0.1772593642960561	1.1094788253922094	0.1057575833506305	-0.1661724681151335	0.271930051465764	67.59792275514508	far	V3
3	4.0	ltm	313	diff_vonmises	-0.2070055020472701	-11.860541603295305	0.2783799076845637	74.76940475556931	0.2621432035100454	76.5719704152692	-0.1512295574571016	-0.3811794819393395	0.2299499244822378	140.49929864229406	far	V4
4	5.0	ltm	313	diff_vonmises	-0.030414952136846	-1.7426483915336852	1.1985493679841923	4.772247115852816	0.7240162341412474	5.624566079947446	0.1817715438309164	-0.2538602206439088	0.4356317644748252	88.11363562909395	far	V3ab
5	6.0	ltm	313	diff_vonmises	-0.2580587412806948	-14.785676741842249	0.4794951329286741	138.52220249009264	0.4666755346567727	139.2807654006085	0.1479885108233603	-0.2767452512550772	0.4247337620784375	124.5259583870362	far	IPS0
6	7.0	ltm	313	diff_vonmises	0.3347290690122749	19.17856293474662	0.9423663059774424	74.00353183209496	0.9196550071342318	74.81380590120145	0.0550374313321562	-0.2000938803733731	0.2551313117055294	85.63870973878568	far	LO1
0	1.0	ltm	314	diff_vonmises	0.0023495183771883	0.1346174869013215	2.060522587488667	0.4441877575929832	7.600563389072314e-23	2.827471983220609	-0.2166964473532722	-0.4462200559515799	0.2295236085983077	95.64803746690409	far	V1
1	2.0	ltm	314	diff_vonmises	0.0188069229555652	1.0775573109815946	3.33686398262692	0.5477394036349869	1.1022047849052765e-17	1.6147803865301895	0.1239797699386547	-0.2565188410884654	0.3804986110271202	75.13455134418066	far	V2
2	3.0	ltm	314	diff_vonmises	0.0014678012332159	0.0840988158273687	1.0551784556831407	54.614471703920536	1.0252763509266003	55.09666676255698	0.1406992803618436	-0.1569487802727129	0.2976480606345566	85.25871074681496	far	V3
3	4.0	ltm	314	diff_vonmises	-0.3895243027750773	-22.318098566787956	0.6841259561212714	129.33594640032322	0.6684552437349998	130.6603563551033	0.0169298734865321	-0.3041569779193533	0.3210868514058855	98.66079461926309	far	V4
4	5.0	ltm	314	diff_vonmises	0.0152331571988079	0.8727956161510206	2.148747056413285	0.8063323287760459	1.3150976527068264e-15	1.3690682197073012	0.2164475782943528	-0.2119857363427238	0.4284333146370767	93.73252127953336	far	V3ab
5	6.0	ltm	314	diff_vonmises	-0.3135815241719886	-17.966897868334556	0.5253426708108861	136.51854594263088	0.5124751262195811	137.11989936631568	0.1794753801468047	-0.2485849545779803	0.4280603347247851	120.9581019488642	far	IPS0
6	7.0	ltm	314	diff_vonmises	0.2708029114018623	15.515863903181872	0.9050031535985806	113.04129795991072	0.8868090676447603	113.7164710833268	0.1755610204803517	-0.2151823284891154	0.3907433489694671	91.71682772013564	far	LO1
0	1.0	ltm	315	diff_vonmises	-0.1432068537195176	-8.205148315475716	0.2567787219413067	78.23558816737216	0.2412352960149781	79.78833348381116	-0.0957671350156825	-0.3582843481565394	0.2625172131408568	145.9577044864886	far	V1
1	2.0	ltm	315	diff_vonmises	-0.0480684417341745	-2.7541188391387093	0.5959233452642827	47.00647065925221	0.5531449776626248	47.964380336904114	0.1336622576178694	-0.2933871037931723	0.4270493614110418	112.9112646596466	far	V2
2	3.0	ltm	315	diff_vonmises	-0.0350965457595083	-2.010883947507596	1.715555020740247	1.935076041924284	0.4250051228963801	2.6951231663622823	0.2820190339328381	-0.2638066451828392	0.5458256791156773	87.07859136094285	far	V3
3	4.0	ltm	315	diff_vonmises	-0.1525087183020138	-8.73810589765497	2.318604626164843	0.940782305094624	1.9799868358406907e-32	2.41440903662865	0.1460453819328825	-0.3791289924240715	0.5251743743569541	90.2928848289913	far	V4
4	5.0	ltm	315	diff_vonmises	-0.1463097316148306	-8.382930123221586	1.2461496662062703	1.1734369032200165	1.3887896075299224e-13	1.7778491014293083	0.1718955712223248	-0.2453264708989957	0.4172220421213205	118.8932886966808	far	V3ab
5	6.0	ltm	315	diff_vonmises	-0.3795240543542011	-21.74512653818938	1.2147806015143792	1.2384874736434195	4.2417234704742095e-17	2.162238869904347	0.1287975198503655	-0.3024766003270616	0.4312741201774271	119.3548541857624	far	IPS0
6	7.0	ltm	315	diff_vonmises	0.1657189174482258	9.49499455526024	1.627071390349469	174.3702211268434	1.6091789581978169	175.31093940238628	0.1067599482939982	-0.2855680846929402	0.3923280329869385	64.9658871459439	far	LO1
0	1.0	ltm	316	diff_vonmises	0.4132731694629704	23.67880839622306	0.7841899064197907	185.55778547113655	0.7679136051523952	188.20976564131584	-0.2122714697422907	-0.5168319775913446	0.3045605078490538	83.71116563356784	far	V1
1	2.0	ltm	316	diff_vonmises	0.1691851800520498	9.693596773143383	0.5580856853983083	123.50547526455736	0.5441172975229055	125.01082578208494	-0.0591297318941244	-0.319551949793734	0.2604222178996096	105.78662997442925	far	V2
2	3.0	ltm	316	diff_vonmises	0.1280172067817093	7.334845653645487	1.2422440986515708	150.93639784831066	1.227763564295118	151.6531162570093	0.1261591787703295	-0.2092431591090431	0.3354023378793727	76.25694945412829	far	V3
3	4.0	ltm	316	diff_vonmises	0.4894720926861617	28.04468510035332	1.688342866943335	0.7782855829075755	0.2424345312978685	2.475949588895872	-0.1326258982729142	-0.3225263616471524	0.1899004633742381	82.41368795174105	far	V4
4	5.0	ltm	316	diff_vonmises	0.0113607643536384	0.6509238495061543	1.1648544004855377	152.87291436394855	1.145012948443136	154.37034917681535	0.0114246402632645	-0.3557997564188859	0.3672243966821504	74.24698441296772	far	V3ab
5	6.0	ltm	316	diff_vonmises	-0.087069704495907	-4.988726591066721	0.7803575219040283	79.25315021308023	0.7466146291542071	81.02334849843645	-0.0088527939110818	-0.3897988343780074	0.3809460404669256	91.44560952031398	far	IPS0
6	7.0	ltm	316	diff_vonmises	-0.5530755732315596	-31.688896097947055	1.1432805206146115	83.19386570401775	1.1156172688482102	84.80454551185768	-0.1561191633982162	-0.3408443999708179	0.1847252365726017	67.95651271802299	far	LO1
0	1.0	ltm	317	diff_vonmises	0.2999453872681236	17.185604774880503	0.6225438744924466	164.53681603871004	0.605212253127069	167.5520751766145	-0.2632586989129208	-0.5702341444515326	0.3069754455386118	93.2881795120932	far	V1
1	2.0	ltm	317	diff_vonmises	-0.0087626646468718	-0.5020637015542484	0.6200896165234058	151.36244072911373	0.6046694924900857	153.10408804799422	-0.0217917997500833	-0.3858864849200394	0.364094685169956	102.28379574735597	far	V2
2	3.0	ltm	317	diff_vonmises	0.035147384452351	2.0137967900434424	1.0163819471715811	213.03577138519395	1.0022619227781122	214.25776647637355	0.1504894587470175	-0.3261606211635239	0.4766500799105415	83.66224944429425	far	V3
3	4.0	ltm	317	diff_vonmises	0.2874281386448811	16.468419257652766	1.8103634539932243	0.6631899399470692	1.4676129004307714e-15	2.7628425349476564	-0.1176713594673072	-0.4310999451894212	0.3134285857221139	101.46838353118574	far	V4
4	5.0	ltm	317	diff_vonmises	0.0272307178084622	1.560205203536617	1.3463465943997692	2.991098593771627	0.511419470945015	4.55148202596385	0.0811745592809285	-0.3721375835136513	0.4533121427945799	86.97249568608714	far	V3ab
5	6.0	ltm	317	diff_vonmises	-0.1439424226340611	-8.24729330982008	1.6337875805847948	0.9779907449769064	2.0682842511502308e-15	2.6703993225610336	0.0211702096403136	-0.4080079543128102	0.4291781639531239	106.40453223105716	far	IPS0
6	7.0	ltm	317	diff_vonmises	-0.0386996368053541	-2.217325857635938	1.0524677193322538	105.38433395864052	1.032605633174454	106.76549536877992	-0.0860790331726661	-0.2936827618707713	0.2076037286981051	73.91843355535354	far	LO1
0	1.0	ltm	318	diff_vonmises	-0.0975043437057754	-5.586587378533909	1.7794629426384143	0.6168345810726934	1.6824217497250654e-23	1.2646021888143004	0.0951538257403532	-0.1928279685230636	0.2879817942634168	102.43839151294398	far	V1
1	2.0	ltm	318	diff_vonmises	-0.127391573971336	-7.298999534086187	1.5320803334508002	60.05459735351804	1.4923973444489054	60.18661827830645	0.3587992323256372	-0.1498140213957155	0.5086132537213528	75.21052756037258	far	V2
2	3.0	ltm	318	diff_vonmises	0.0303810149613555	1.740703934609482	1.2036674517521313	113.2251132778901	1.18430232142196	113.35155771947232	0.3577984447823326	-0.152652695867971	0.5104511406503036	84.92649211671855	far	V3
3	4.0	ltm	318	diff_vonmises	-0.2770253598799435	-15.872383939213526	3.929588145553392	0.9050620003013936	3.476915152114049e-19	1.5638824581377826	0.4402356628281515	-0.2486334800078299	0.6888691428359814	69.08529429368048	far	V4
4	5.0	ltm	318	diff_vonmises	-0.0494724009106373	-2.8345597745586915	1.5362673139400695	1.099286716320954	2.567575305556597e-19	0.7216692018358752	0.368246849595447	-0.092487455582441	0.4607343051778881	109.3362844990173	far	V3ab
5	6.0	ltm	318	diff_vonmises	-0.3484571718875163	-19.965125290219365	1.795805457274461	0.9952982688957142	9.662630866314096e-16	1.0942060431522715	0.3068350132113812	-0.1608953218976339	0.467730335109015	101.77471799845196	far	IPS0
6	7.0	ltm	318	diff_vonmises	0.1366067021787425	7.826987488042537	1.5983433408960483	191.3381036468085	1.5817738826069243	191.53468058662108	0.456076700872444	-0.1978676522478224	0.6539443531202664	73.06111747387556	far	LO1
0	1.0	ltm	319	diff_vonmises	0.2022393256334352	11.58745981036776	5.617173319863873	0.3783372813926186	1.3932163664025116e-13	1.5747961243097868	0.0982800240443227	-0.2506319761397992	0.348912000184122	57.53819036123366	far	V1
1	2.0	ltm	319	diff_vonmises	-0.0834192317168049	-4.779569907596778	1.432364530365366	144.28002053048607	1.4137129206309125	144.8257269775885	0.2500796484214902	-0.2135085742032068	0.463588222624697	73.6636114056611	far	V2
2	3.0	ltm	319	diff_vonmises	0.1089202957720294	6.240673251053911	1.08350702036737	120.90163236328338	1.066113142407133	121.32628040940632	0.2444644117728671	-0.1806918999590916	0.4251563117319588	86.11602795526107	far	V3
3	4.0	ltm	319	diff_vonmises	-0.2300684671709696	-13.181952167940697	4.109378104428652	0.7076999787268731	5.377894115956236e-24	1.5618905079212797	0.3035852196502384	-0.2484337518347216	0.55201897148496	67.51771841251133	far	V4
4	5.0	ltm	319	diff_vonmises	-0.048628910160578	-2.7862313145219693	2.0608950067927703	0.9411652061906868	0.1487891688813518	1.0761789025381383	0.2967352246926168	-0.1391785422499174	0.4359137669425342	90.72052169157736	far	V3ab
5	6.0	ltm	319	diff_vonmises	-0.2832976453856135	-16.231759426589495	1.6605746202590248	1.0183749421259751	2.141959820985681e-13	1.3482239716651283	0.254647585003656	-0.197631753626915	0.452279338630571	105.48960363947036	far	IPS0
6	7.0	ltm	319	diff_vonmises	-0.0246652088112028	-1.4132123656908135	0.9881897380147414	243.81298654611476	0.9743555266520262	244.9737769504921	0.2480161422687814	-0.3464396595882952	0.5944558018570767	86.76877978366105	far	LO1
0	1.0	ltm	320	diff_vonmises	0.0367715186149207	2.1068528229216987	4.283612834051662	0.5406455051435262	5.420757353261644e-22	3.1132078510239327	-0.0640348302419617	-0.4954003386776066	0.4313655084356448	66.09410737150105	far	V1
1	2.0	ltm	320	diff_vonmises	-0.1087067692855636	-6.228439084565166	2.4096811953668174	1.519435451127507	0.4773468643663048	2.55761839274416	0.2560235559428893	-0.30614058158245	0.5621641375253393	74.196537538857	far	V2
2	3.0	ltm	320	diff_vonmises	-0.0685135738697909	-3.9255386220968234	2.4081057907240475	1.1273438252461934	0.300479852849745	1.972294888633266	0.2353958107759045	-0.2528985278155342	0.4882943385914386	78.24878035566616	far	V3
3	4.0	ltm	320	diff_vonmises	-0.2231945397913778	-12.78810514041066	1.6444033471971478	1.2316225391588278	4.23887498795194e-13	2.5345845499868718	0.1607187860430792	-0.3823508083763891	0.5430695944194683	106.0248280422945	far	V4
4	5.0	ltm	320	diff_vonmises	0.0156930734918571	0.8991468786720456	1.6773403004733685	1.525507855089473	5.962929968935514e-19	2.264838865786806	0.346748984425293	-0.3357640550783946	0.6825130395036877	105.22199261886124	far	V3ab
5	6.0	ltm	320	diff_vonmises	-0.169150024283069	-9.691582495955249	1.4521049200749625	1.7770809868332318	0.115281322024907	2.636655054091087	0.2854186401843497	-0.3313489325145085	0.6167675726988582	105.46858746823725	far	IPS0
6	7.0	ltm	320	diff_vonmises	0.0744729064488923	4.26698322759414	0.7855765627741405	229.37667163318105	0.7722630338147823	230.4716938185319	0.2564708467824914	-0.3483848293931686	0.60485567617566	98.19454044799424	far	LO1
0	1.0	ltm	321	diff_vonmises	0.220153385019406	12.61385980713061	4.495848190256877	0.4550399353785504	0.0157939766774904	2.469499795617722	-0.0265609009207721	-0.3901086783595638	0.3635477774387917	63.55782070740924	far	V1
1	2.0	ltm	321	diff_vonmises	-0.0543784504872395	-3.115655709379943	1.1168735280899984	177.0104934159986	1.100557094085875	178.07959638210133	0.1546034742202522	-0.2956428309800571	0.4502463052003094	80.1045645980557	far	V2
2	3.0	ltm	321	diff_vonmises	0.0700039763495543	4.010932393963097	0.9443961476340432	124.74008640854856	0.9237033052950576	125.63372326545034	0.198266925974444	-0.2703056158245989	0.4685725417990429	89.16664905825886	far	V3
3	4.0	ltm	321	diff_vonmises	-0.0921185931927869	-5.278006604629248	2.109826334325194	0.9129201581104148	2.6271620378333383e-20	2.295388247726066	0.1210547891086118	-0.3581704619757452	0.479225251084357	94.55829420687748	far	V4
4	5.0	ltm	321	diff_vonmises	-0.0331104404891344	-1.8970884978464804	1.6703837153348284	1.4811174471654087	0.2607830402539041	2.2289110864249886	0.2321886940301945	-0.250967255339703	0.4831559493698976	92.7177888850805	far	V3ab
5	6.0	ltm	321	diff_vonmises	-0.2101444352075266	-12.040389225551662	1.2766884115137156	1.2557915834081297	3.71873436949525e-19	2.0696793356800174	0.1644015758564516	-0.2909728264556148	0.4553744023120664	117.6876071676838	far	IPS0
6	7.0	ltm	321	diff_vonmises	-0.0141311844754275	-0.8096572299627888	0.9374837702599402	207.0601366439716	0.9231411148132772	208.61385524546137	0.0564234534590042	-0.3669990288891469	0.4234224823481511	84.45538200491961	far	LO1
0	1.0	ltm	322	diff_vonmises	-0.39589204152839	-22.682943122394665	0.0001886319234916	3597.75068799814	6.937490921293578e-32	3599.395899631607	-0.1538295218998655	-0.3698474193972743	0.2160178974974087	175.55800812402617	far	V1
1	2.0	ltm	322	diff_vonmises	0.1166014024862037	6.6807682477657	1.99266455958304	0.728211099151254	4.81585007025507e-18	1.7231483364043456	0.1005807255429503	-0.2672804633863664	0.3678611889293167	97.16631011499553	far	V2
2	3.0	ltm	322	diff_vonmises	-0.1172465963450826	-6.717735132847221	0.7793752336826649	83.07873494883727	0.761289061873833	83.51749646736604	0.15693428032883	-0.1637702890737049	0.320704569402535	100.3649441402279	far	V3
3	4.0	ltm	322	diff_vonmises	-0.4164622357920847	-23.861528437468586	2.858850904361562	0.5269202934317859	2.922430719026375e-17	1.803416403354752	0.0486958699175882	-0.2859190236223839	0.3346148935399722	81.24937476004568	far	V4
4	5.0	ltm	322	diff_vonmises	-0.1316208646072428	-7.541320037857844	0.8532875277224377	1.1088974803898834	2.603555515250704e-15	1.6088828608403445	0.0919201030675772	-0.1929042803639412	0.2848243834315184	134.78411910522692	far	V3ab
5	6.0	ltm	322	diff_vonmises	-0.5246350196170535	-30.05937240882032	1.096322369906992	1.0366736930995284	1.8025698350457684e-14	1.6634690179625844	0.108294216046573	-0.2231097200959322	0.3314039361425053	122.79928835389984	far	IPS0
6	7.0	ltm	322	diff_vonmises	0.3284042724483956	18.81617878535749	1.1949269627635373	145.63668000388077	1.1801485284792306	146.40968710135462	0.1080600538053673	-0.2151356148754857	0.323195668680853	77.14909239691036	far	LO1
0	1.0	ltm	323	diff_vonmises	-0.1816077296283224	-10.405356434655827	0.0361581733268375	19.01777113509615	0.0080906678154435	21.05099540070083	-0.240341499682188	-0.4049854823874592	0.1646439827052712	176.50114421026802	far	V1
1	2.0	ltm	323	diff_vonmises	0.2721667036226809	15.59400344156755	0.9489147471752712	123.85864638403469	0.9316248551800748	124.86016665769804	0.0776845151356013	-0.2507633255710022	0.3284478407066036	85.52124178488631	far	V2
2	3.0	ltm	323	diff_vonmises	0.2305105882617831	13.20728384047803	3.732524984162691	0.3567626792932061	7.528140416395897e-28	0.8605643538891109	0.1271143739033152	-0.1368118113201133	0.2639261852234286	70.93458297724965	far	V3
3	4.0	ltm	323	diff_vonmises	-0.3848876949264144	-22.05244050580233	2.596154445891772	0.5232071647782054	2.39822471891647e-16	1.9378396761137016	0.00683358569915	-0.3066642335361417	0.3134978192352917	85.28842182387618	far	V4
4	5.0	ltm	323	diff_vonmises	-0.0876026056176927	-5.0192595762428285	1.6823395262707497	0.9697805141775656	0.2740674799573549	1.417269410585432	0.1592032779605369	-0.1572986703622172	0.3165019483227541	92.29314403858356	far	V3ab
5	6.0	ltm	323	diff_vonmises	-0.3587463201656327	-20.55465006133973	0.4409201296952506	94.98009556166876	0.4273393300353233	95.3606437047066	0.1495474391697087	-0.1916280549861913	0.3411754941559	129.87279550425782	far	IPS0
6	7.0	ltm	323	diff_vonmises	0.2197016909453836	12.587979643058056	1.1252363335978717	204.14131409723151	1.114148991484724	205.21772728141573	0.0317809261344734	-0.2601045777891251	0.2918855039235986	76.37263506300954	far	LO1
0	1.0	ltm	324	diff_vonmises	-0.0608640750797972	-3.487254626039749	0.1451625245852582	59.98128670518013	0.1343820216344639	61.24585749790162	-0.1196128306233745	-0.2704239891476483	0.1508111585242737	161.1648201884587	far	V1
1	2.0	ltm	324	diff_vonmises	0.2794565158793718	16.011678917318676	0.1893751793905393	98.92563035158256	0.1779481077154784	99.70551905054684	0.0476392183259939	-0.2651211069032442	0.3127603252292381	156.22693132980996	far	V2
2	3.0	ltm	324	diff_vonmises	0.1716072121060407	9.83236898768246	1.497887331546197	126.10267444089888	1.4831800930487378	126.28068853914718	0.2484904523265854	-0.1244605845025894	0.3729510368291748	74.72093852607469	far	V3
3	4.0	ltm	324	diff_vonmises	-0.158750454781625	-9.095731054769535	9.216093564305154	0.2772929479534601	1.3236414815659523e-27	1.564745948576673	0.0819892671033314	-0.2490370491265176	0.331026316229849	44.73141854628631	far	V4
4	5.0	ltm	324	diff_vonmises	-0.0700117841292365	-4.011379746786255	1.2877935025272995	25.65614949456345	1.228920875672823	26.06332207506937	0.1199323628745467	-0.1345496810839401	0.2544820439584869	77.16834424975073	far	V3ab
5	6.0	ltm	324	diff_vonmises	-0.4040043991311909	-23.147746974936023	0.6982076458960541	127.91147759723005	0.6841626175794886	128.71593468413647	0.1157932681419851	-0.2319117398221468	0.3477050079641319	102.59253945004924	far	IPS0
6	7.0	ltm	324	diff_vonmises	0.0419112542612654	2.401337983270199	1.8923179092495408	110.26471032089172	1.870740581847596	110.81847945933131	0.1072858447187314	-0.1955407423182471	0.3028265870369786	61.1022428076937	far	LO1
0	1.0	ltm	325	diff_vonmises	-0.1707037133851587	-9.780602324180451	0.4245552571142598	87.74848802178904	0.4109944693291138	89.09881135425454	-0.0917606420507546	-0.2805157351302743	0.1887550930795196	119.13400654285896	far	V1
1	2.0	ltm	325	diff_vonmises	0.1554350694851037	8.905773469819136	0.5691240244688821	64.8257519858631	0.5484721450661215	65.34016888155136	0.1206518336361561	-0.1871778859900601	0.3078297196262163	116.40045136971388	far	V2
2	3.0	ltm	325	diff_vonmises	0.0992495826086751	5.686582201912098	1.753265343091853	103.15622831962789	1.735697878399738	103.279082685547	0.2420986571656271	-0.1111607513239825	0.3532594084896097	69.34246793001702	far	V3
3	4.0	ltm	325	diff_vonmises	-0.1957086025737946	-11.213276941881592	1.0004824178527334	77.9235007128436	0.9709905798029244	78.87739170265706	0.1145380617656748	-0.2532839468693151	0.3678220086349899	84.63321147170254	far	V4
4	5.0	ltm	325	diff_vonmises	-0.0900965285795463	-5.162150836387805	1.4923906610954567	40.66740802417638	1.4455601375355465	40.87151698605142	0.2488338097602138	-0.1306992351632558	0.3795330449234697	75.01762115261846	far	V3ab
5	6.0	ltm	325	diff_vonmises	-0.2822706074689	-16.1729144885619	0.9187075926282336	150.60850778221996	0.9025268271745724	151.22876701566287	0.2634166697509457	-0.2367440914146552	0.5001607611656009	92.721921530726	far	IPS0
6	7.0	ltm	325	diff_vonmises	0.0488815376220917	2.800705801855809	1.43492754497689	158.74197263864468	1.4176124172570062	159.28669453713883	0.2600363490664676	-0.2165380008947259	0.4765743499611936	73.6995671947308	far	LO1
0	1.0	ltm	326	diff_vonmises	0.0852988521098811	4.887264223206764	2.751584194895113	0.433726628167109	2.385104698339562e-34	2.718914433063246	-0.1624122929359663	-0.4316274335264448	0.2692151405904784	82.89329165589444	far	V1
1	2.0	ltm	326	diff_vonmises	0.0572487939542968	3.2801142757952704	2.1668822996663835	1.2525313661917514	0.3913258668941684	2.361377536883126	0.1429520083848222	-0.2854177194843761	0.4283697278691983	77.79017809215256	far	V2
2	3.0	ltm	326	diff_vonmises	-0.0239178031524464	-1.3703891758598763	1.8646034511066016	0.8010782112775537	0.0429669088300193	1.5558112671672355	0.1376931225409148	-0.2275810239636003	0.3652741465045152	97.57629425853676	far	V3
3	4.0	ltm	326	diff_vonmises	-0.3120965915397715	-17.881817495647265	1.6419306185340632	0.9958192573008026	5.325588479534143e-20	2.4345453867991416	0.0682233365750378	-0.3703889505676004	0.4386122871426383	105.96453037243693	far	V4
4	5.0	ltm	326	diff_vonmises	-0.0752081103786361	-4.309107309849896	1.5424614286126404	1.1118532196168642	6.72248871724807e-14	1.6883452399645764	0.221105136639654	-0.246306563120097	0.4674116997597511	109.13910861750854	far	V3ab
5	6.0	ltm	326	diff_vonmises	-0.2691289713979247	-15.419954205798131	0.6703673787873963	2.019459233228246	6.331242793791828e-11	2.5204085696402228	0.1621101382108807	-0.2537550734386563	0.4158652116495371	142.6452474201635	far	IPS0
6	7.0	ltm	326	diff_vonmises	0.2071943096229895	11.871359480524116	0.9924579675446314	163.94106429375614	0.9770706924515146	165.05325907930808	0.1025975560866001	-0.2847752219355293	0.3873727780221294	83.91283194752384	far	LO1
0	1.0	ltm	327	diff_vonmises	0.0607719371110958	3.4819755093002533	0.2332005761615114	103.66525089127356	0.2215726237017549	106.65797428491308	-0.3763363290293853	-0.5449167286143446	0.1685803995849593	139.9006664988038	far	V1
1	2.0	ltm	327	diff_vonmises	0.2874393519642416	16.469061733526452	0.7052224866009852	143.46757778236818	0.6910610301579387	144.81067987130362	0.007295159824622	-0.3030099248222928	0.3103050846469148	96.56583203435976	far	V2
2	3.0	ltm	327	diff_vonmises	0.1693592214131158	9.703568608593178	3.3378108484610105	0.540432230066927	0.32833287013387	1.294280436968429	0.0974493570048175	-0.1886883327724927	0.2861376897773102	66.29970566339736	far	V3
3	4.0	ltm	327	diff_vonmises	-0.0471652504541199	-2.7023697906985613	0.3659156064301338	1.9095222267023395	1.3479899357278489e-08	3.759828091305272	-0.174517769328133	-0.3944965638935773	0.2199787945654442	159.3346072357884	far	V4
4	5.0	ltm	327	diff_vonmises	-0.0545456450238065	-3.1252352506828736	1.0143374387477195	115.33602439284986	0.990245918875407	116.48262142239726	0.1358443607839632	-0.3040897440890351	0.4399341048729983	83.85380661282173	far	V3ab
5	6.0	ltm	327	diff_vonmises	-0.2473428090561651	-14.171699051828462	0.5460659632352202	137.12014258383243	0.5310227306439766	138.2268721020263	0.1081661616883877	-0.3214380430122148	0.4296042047006025	115.4422179420744	far	IPS0
6	7.0	ltm	327	diff_vonmises	-0.1358831999724052	-7.7855338651510015	1.1536970756326193	136.16440291346035	1.1366884067998693	137.5723017247842	-0.0861206130168241	-0.3094932911290868	0.2233726781122627	70.64256224130767	far	LO1
0	1.0	ltm	328	diff_vonmises	0.0556185246625229	3.1867067259068467	4.344405030622831	0.440783435554733	6.389872647793363e-32	3.908726037331745	-0.267651331662791	-0.6220333578943051	0.3543820262315141	65.61901651926996	far	V1
1	2.0	ltm	328	diff_vonmises	0.0203300161545297	1.1648241230873402	3.2576890432006045	0.8725862165493262	0.1843738429210641	2.3423523557569417	0.154305598897417	-0.3467149695649267	0.5010205684623439	69.70368539388139	far	V2
2	3.0	ltm	328	diff_vonmises	-0.1223065192713812	-7.007647361185613	1.799782743757107	0.8454519204789764	1.6813270146242756e-17	1.9175300216641245	0.1039352476971102	-0.2940008515935109	0.3979360992906212	101.89197187314085	far	V3
3	4.0	ltm	328	diff_vonmises	-0.3255430611097344	-18.65224345135723	0.7314541037751119	2.182089352450594	9.582216637656036e-17	3.996109704776116	-0.0019877268298843	-0.4891834505909627	0.4871957237610784	139.37586887382662	far	V4
4	5.0	ltm	328	diff_vonmises	-0.0314000448054145	-1.7990900438719364	1.413804919458042	1.6862906184408466	1.7514867455102648e-14	2.6050393427036487	0.2901589209078418	-0.3729145140703657	0.6630734349782075	113.21280526497536	far	V3ab
5	6.0	ltm	328	diff_vonmises	-0.1559664152307968	-8.936217338509579	0.4231109146561903	3.8482813408466554	2.972785258570807e-12	4.475433278189308	0.1822895354038478	-0.3284842811610733	0.5107738165649212	155.85168420007804	far	IPS0
6	7.0	ltm	328	diff_vonmises	0.2672658553949988	15.313205522087198	0.8068161957069416	112.0107721697791	0.7866893692394697	113.0206661345419	0.1264345152722938	-0.2735788553255087	0.4000133705978026	94.77300796684348	far	LO1
0	1.0	ltm	329	diff_vonmises	0.0765315904573583	4.384937132630321	2.75903672516328	0.4502301865827449	2.1486760136713722e-22	3.3102371498530005	-0.2458153105855336	-0.5257125492407146	0.279897238655181	82.78233968636243	far	V1
1	2.0	ltm	329	diff_vonmises	-0.0415290093786274	-2.3794369647545683	2.9140423988928874	0.7851753627708508	0.2006524778924039	1.8996929504712727	0.1399183899808203	-0.2728739765113965	0.4127923664922168	73.08833609423624	far	V2
2	3.0	ltm	329	diff_vonmises	0.1142476950393172	6.54591074485059	1.733847941073855	2.310671558916213	0.7692122069901538	3.030473435213473	0.1906293555098145	-0.2253681092499007	0.4159974647597153	77.96891039251852	far	V3
3	4.0	ltm	329	diff_vonmises	-0.1868755712203947	-10.707181525025046	0.5967458358047361	162.6885966074326	0.5817061938225193	164.26649162683836	0.0490336284364616	-0.3868654599932686	0.4358990884297302	107.2737385380264	far	V4
4	5.0	ltm	329	diff_vonmises	0.0164014882965307	0.9397360571244256	1.0532753341386536	60.38284082461087	1.0050256502875616	60.76222050132027	0.4196633601383652	-0.2369916043010613	0.6566549644394266	89.85802530361883	far	V3ab
5	6.0	ltm	329	diff_vonmises	-0.1346485118542497	-7.714791446965747	0.6757832386901763	96.39715278910738	0.6530614397163537	96.76245791400191	0.3159944526657767	-0.2391453690668656	0.5551398217326424	111.09315902267356	far	IPS0
6	7.0	ltm	329	diff_vonmises	0.2422272268647246	13.878597782506631	1.1773850480352532	54.47440639389277	1.141764908091461	54.64937342933214	0.2960575828719491	-0.1424593835868526	0.4385169664588018	85.43294978502115	far	LO1
0	1.0	ltm	330	diff_vonmises	0.0487720587473403	2.7944331243867087	0.2473248426620121	72.7826734732374	0.2324716799176812	75.05876649069184	-0.2610329257967319	-0.4325907523969992	0.1715578266002673	140.9817571573281	far	V1
1	2.0	ltm	330	diff_vonmises	0.1933113297422639	11.075923326293507	0.3387273796649146	88.57489214829982	0.3225416265345165	89.77071817787458	0.0026043443554186	-0.319900037895696	0.3225043822511146	137.17299785218154	far	V2
2	3.0	ltm	330	diff_vonmises	0.0534930954777102	3.0649286039631463	1.3380155365487485	142.67922503233115	1.3243872746681429	143.1245490900365	0.1725469721688028	-0.1619200606086721	0.334467032777475	75.78278550860102	far	V3
3	4.0	ltm	330	diff_vonmises	-0.1749039418766838	-10.02125768973544	0.5705379485907074	77.96090566813609	0.5510453984897983	79.49854701381437	-0.1077125349109664	-0.3026892003447283	0.1949766654337619	100.87312891560713	far	V4
4	5.0	ltm	330	diff_vonmises	-0.0071171030840112	-0.4077799690733883	2.336188597112273	0.8019837045797462	0.289189022789019	1.5745562912842956	0.1263435514973073	-0.2041539699247962	0.3304975214221035	78.48103761355605	far	V3ab
5	6.0	ltm	330	diff_vonmises	-0.3324712555156014	-19.04919975045956	0.6075064203772146	161.71263577658948	0.5952550427510472	162.73633378773133	0.1041040950168721	-0.2870619736437341	0.3911660686606062	109.09535266147684	far	IPS0
6	7.0	ltm	330	diff_vonmises	0.2818214446955288	16.14717935733334	1.194619980589804	77.34464177784214	1.1726543480984746	77.87878697013493	0.114766572146312	-0.1612319692087549	0.2759985413550669	78.63726693801829	far	LO1
0	1.0	ltm	331	diff_vonmises	-0.3977482086669625	-22.789293665505745	0.1888293144575722	30.993192698024007	0.1614769724278819	32.398570860064545	-0.1155626631649031	-0.3112678962338044	0.1957052330689013	153.71590725651214	far	V1
1	2.0	ltm	331	diff_vonmises	0.1754812044656489	10.054332399753935	0.9279167635212252	81.52626789557809	0.9067035768252072	82.08161837585084	0.1491559406442562	-0.1781446505975568	0.327300591241813	90.71389018861404	far	V2
2	3.0	ltm	331	diff_vonmises	0.1377479142234713	7.892374121734988	2.045911697810989	1.0076420196867495	0.7398028225734354	1.242817351664744	0.1639100809654738	-0.1054944338127717	0.2694045147782455	76.77735626261506	far	V3
3	4.0	ltm	331	diff_vonmises	-0.3385539530793428	-19.39771264891645	3.4097402105624344	0.5855842680433287	1.807143576673245e-14	1.5452116790142427	0.166293806774734	-0.2454777377155168	0.4117715444902509	74.29845605161083	far	V4
4	5.0	ltm	331	diff_vonmises	-0.1045377017989458	-5.98956911307675	2.21274223259074	0.7473097446068765	0.1792559387318295	0.9371340858300542	0.2326824810191045	-0.1210473065899939	0.3537297876090984	86.57191922072593	far	V3ab
5	6.0	ltm	331	diff_vonmises	-0.4029380311272468	-23.08664858890224	0.7408705070706795	96.26076152912609	0.7227910300145315	96.54946751944505	0.2486826450382082	-0.1777818035668321	0.4264644486050404	105.87875862401776	far	IPS0
6	7.0	ltm	331	diff_vonmises	0.0835428549570171	4.786652997510669	1.1972881774126014	249.4403922363996	1.185204132666914	250.49762026238133	0.1595657975240954	-0.2980871328108279	0.4576529303349232	77.25038874388628	far	LO1
0	1.0	ltm	332	diff_vonmises	0.1963267449363676	11.24869389039527	0.6880860277299921	137.50580070683174	0.6702235025331851	139.73858697158084	-0.1550225276532444	-0.4379077952082504	0.282885267555006	91.1545367899887	far	V1
1	2.0	ltm	332	diff_vonmises	-0.0063000869372387	-0.3609683920692819	0.8115462748723696	120.55220562058128	0.793446378656079	121.6779524909394	0.0762518132255607	-0.2788101951188526	0.3550620083444133	92.5946375203379	far	V2
2	3.0	ltm	332	diff_vonmises	0.0353663122432324	2.026340428479072	1.2225206370814272	170.1338191016047	1.20924169297955	170.75744354386643	0.1788234375093367	-0.2034676941508948	0.3822911316602315	78.48870160179686	far	V3
3	4.0	ltm	332	diff_vonmises	-0.0484300076507831	-2.77483504017616	2.511707676031409	0.5231648697822079	3.1384836373549823e-16	1.891715574543218	0.0080984879191196	-0.2990408173553658	0.3071393052744855	86.79039496588777	far	V4
4	5.0	ltm	332	diff_vonmises	0.0066489703113011	0.3809579369453414	1.5623009801864338	1.9844188191293917	0.5183628265612511	3.0185362735518715	0.1258580565053182	-0.270266334033313	0.3961243905386312	84.29746675511282	far	V3ab
5	6.0	ltm	332	diff_vonmises	-0.215688551232304	-12.358043674902252	0.7202196452319386	54.4683947412582	0.6749973897581873	55.74178462655495	0.1131171772603476	-0.3339575171596207	0.4470746944199684	100.47810308234988	far	IPS0
6	7.0	ltm	332	diff_vonmises	0.0788921362930992	4.520186446365456	0.8309905349484097	156.48967778259626	0.8151860903125596	157.86865851929832	0.0494548914151522	-0.3242938184476358	0.3737487098627881	90.06267371271187	far	LO1
0	1.0	ltm	333	diff_vonmises	0.195848297438887	11.22128086807104	1.2597472405546215	0.5392568068158273	4.028265546976238e-19	3.292814023557686	-0.3136930060060786	-0.5071320920091046	0.1934390860030259	118.28197773902468	far	V1
1	2.0	ltm	333	diff_vonmises	0.2285411471389319	13.09444317613915	0.9219455808886196	109.33352011791948	0.8987951112664265	110.73044276594143	0.0313205297469068	-0.3228968506481671	0.3542173803950739	84.79811092839623	far	V2
2	3.0	ltm	333	diff_vonmises	0.1823826257410008	10.449754711473396	2.8366437678635763	0.5075489693468476	2.9627417415680524e-31	1.4205587148897547	0.0958151055159873	-0.2249825090532071	0.3207976145691945	81.62029506604983	far	V3
3	4.0	ltm	333	diff_vonmises	-0.0359961218560448	-2.0624258611899897	0.0002936769430224	3302.7257900075715	5.376037204411119e-32	3304.652412205723	-0.1522503489441078	-0.4609898762892044	0.3087395273450966	179.94610084857578	far	V4
4	5.0	ltm	333	diff_vonmises	-0.058158691964665	-3.3322475915767216	1.4392085256103022	1.5800664981430173	0.3422407373983711	2.3014185609774795	0.1665045113792695	-0.2230464227953276	0.3895509341745972	94.45452701731176	far	V3ab
5	6.0	ltm	333	diff_vonmises	-0.1551291119816009	-8.888243396158064	0.1872389165065726	6.072116386622891	1.8650386120822758e-07	6.633141031111476	0.0995600803502394	-0.2612856468427947	0.3608457271930342	168.75546735507749	far	IPS0
6	7.0	ltm	333	diff_vonmises	0.3030320025607196	17.36245480412679	1.077815275923212	111.15774735790204	1.0605497719577424	112.19933626412706	-0.007236510457659	-0.2380286400167595	0.2307921295591004	76.57224229199616	far	LO1
0	1.0	ltm	334	diff_vonmises	-0.4694219311817268	-26.89589546759353	0.393135237999992	58.56374083134455	0.3769680869825083	59.25148175895326	0.0190699187042984	-0.1900005369924784	0.2090704556967768	129.9130383787654	far	V1
1	2.0	ltm	334	diff_vonmises	0.0769602798089691	4.409499223199819	2.1920798987305674	0.6666827717572003	2.1271206169241883e-12	0.8089592149980963	0.2346722492107558	-0.124216254026262	0.3588885032370178	92.82294190649584	far	V2
2	3.0	ltm	334	diff_vonmises	0.1045571614256032	5.99068406755512	1.5159654259205844	62.3495751529801	1.4929025116440908	62.29357944342753	0.2755036821655316	-0.078466268599608	0.3539699507651397	77.72686548815824	far	V3
3	4.0	ltm	334	diff_vonmises	-0.3397675113956684	-19.467244418634905	3.810416152082317	0.7846531885320264	0.0848993223934835	1.5010770008445984	0.3277776454584155	-0.2284509172611116	0.5562285627195271	68.13020183692255	far	V4
4	5.0	ltm	334	diff_vonmises	-0.088637651610823	-5.078563343251122	2.045546470173466	0.6751271251454326	1.5236873347507663e-16	0.3798563577799287	0.2925995892145951	-0.0545525696676658	0.347152158882261	95.97251079477378	far	V3ab
5	6.0	ltm	334	diff_vonmises	-0.4307400086040269	-24.679584560439512	0.8529403438215951	67.98368758963218	0.8299430555874783	68.02462748147043	0.2857167049188156	-0.1300570902195312	0.4157737951383469	101.69407733347305	far	IPS0
6	7.0	ltm	334	diff_vonmises	0.1706267101554134	9.776190364107173	1.782920179513947	201.0523342938547	1.7690011632070533	201.29278349506652	0.3451355038359622	-0.176448505379156	0.5215840092151183	68.14608733324036	far	LO1
0	1.0	ltm	335	diff_vonmises	0.2172677513296489	12.448525175486768	5.415783773872088	0.321943647296494	9.158800986910602e-20	1.6545520542848224	0.0278937973188628	-0.2633243799159908	0.2912181772348536	58.62145257047118	far	V1
1	2.0	ltm	335	diff_vonmises	-0.0194781949610315	-1.116018363800096	1.5715564178026722	2.910651643706329	0.8272120373866785	3.647684616557501	0.1703628335070477	-0.2236058029508538	0.3939686364579015	78.95078950638805	far	V2
2	3.0	ltm	335	diff_vonmises	0.0405091805460243	2.3210050768206547	0.9569678240868515	111.7046633703698	0.9422031617476672	112.08802010568569	0.1864100703662217	-0.1539740036434995	0.3403840740097212	91.2119399901376	far	V3
3	4.0	ltm	335	diff_vonmises	-0.2803291736395514	-16.061678523936305	4.869062636998887	0.4885329659122543	1.0853893348321156e-21	1.4786137958642092	0.1823374482281747	-0.2353040558435002	0.417641504071675	61.89180730191504	far	V4
4	5.0	ltm	335	diff_vonmises	-0.0485881802226204	-2.783897660977171	2.006168608447408	0.629654952189488	4.929161010913118e-17	0.9709158594587448	0.1709042354569255	-0.1486385103729368	0.3195427458298624	96.8761383348808	far	V3ab
5	6.0	ltm	335	diff_vonmises	-0.3964538760077123	-22.715133866844763	1.3554873417407405	0.9426114443885872	1.3031075650534878e-18	1.433221023083973	0.156005448780409	-0.2025708229642097	0.3585762717446188	114.47286030678444	far	IPS0
6	7.0	ltm	335	diff_vonmises	0.1294092334663202	7.414602907643279	0.9472931744186466	132.6600346570481	0.927402876443146	133.7310560603803	0.1502533009047653	-0.2918807557248506	0.4421340566296159	87.40480050943248	far	LO1
0	1.0	ltm	336	diff_vonmises	0.0274716410218827	1.5740090868523424	1.835233861058425	0.6234892023983799	9.218231490970781e-20	3.0111779796053155	-0.1739487386228718	-0.4714688662975648	0.297520127674693	101.0106866686497	far	V1
1	2.0	ltm	336	diff_vonmises	-0.0172059458703889	-0.9858280809038352	1.7641650790465628	1.5513946322241263	0.3369120635644824	2.7571513821074345	0.14412083438616	-0.3107720374949538	0.4548928718811139	85.7913584633751	far	V2
2	3.0	ltm	336	diff_vonmises	-0.0408020814033647	-2.3377870597620216	2.425430923066494	0.8748655387393321	0.0231851370801978	1.8773176784186696	0.2007259583737837	-0.2879357941865211	0.4886617525603048	86.99859453007355	far	V3
3	4.0	ltm	336	diff_vonmises	-0.1961944307665234	-11.24111284689342	1.2115825630756087	1.4834408454657726	4.705257901306655e-19	3.1012810758564298	0.0720082792038231	-0.443448671502046	0.5154569507058693	120.05861856501063	far	V4
4	5.0	ltm	336	diff_vonmises	-0.0735153822127108	-4.212121130079456	1.532656932747824	1.317367239015743	3.5109610891667274e-16	2.076091217762289	0.2476954653478991	-0.303456761355546	0.5511522267034452	109.43708929731451	far	V3ab
5	6.0	ltm	336	diff_vonmises	-0.2572828070510605	-14.741218985304464	0.933791714998876	1.7261109486141806	8.668155392360064e-17	2.519348799581464	0.1671824350770414	-0.3131880364768851	0.4803704715539265	130.8350235910925	far	IPS0
6	7.0	ltm	336	diff_vonmises	0.171348992215311	9.817574077757325	1.2012498688560225	222.11029779894423	1.1886197368636982	223.20210447090116	0.1069321204216038	-0.2903623409656681	0.397294461387272	75.9252840904121	far	LO1
0	1.0	ltm	337	diff_vonmises	-0.4029023006657105	-23.084601384256157	0.0003164728761826	2403.3536021662085	4.340002704279084e-21	2405.921482750949	-0.2876287946589855	-0.5297338271471972	0.2421050324882117	175.39411290566204	far	V1
1	2.0	ltm	337	diff_vonmises	0.143369382039235	8.214460502246878	0.9039786137807444	74.71069808284798	0.8708187603776815	75.89500945632402	0.0964797747378796	-0.2979151553730004	0.39439493011088	88.29309090771994	far	V2
2	3.0	ltm	337	diff_vonmises	-0.0745201469797363	-4.269689910633459	2.120611066979906	0.5853117464653762	0.0739440808884932	1.2710829257842795	0.0952673351606769	-0.1835441421647112	0.2788114773253881	89.69477322808629	far	V3
3	4.0	ltm	337	diff_vonmises	-0.3895092699510049	-22.31723724941444	1.1243413111562404	1.0657866922197434	2.950259467724517e-19	2.5069604135252197	-0.0098979835586697	-0.3579291257515359	0.3480311421928661	122.60921586482982	far	V4
4	5.0	ltm	337	diff_vonmises	-0.1018277428347236	-5.834299901773177	1.486416143931845	1.045638909390081	6.168853280238645e-16	2.0543485694420487	0.1234707592594404	-0.3039162255673894	0.4273869848268298	110.85075581883646	far	V3ab
5	6.0	ltm	337	diff_vonmises	-0.3559101596617697	-20.392150034446686	0.3960901433942224	36.12104190517	0.34859314615026	37.04017442579675	0.1116153094685739	-0.315243487377713	0.4268587968462869	134.16336433602422	far	IPS0
6	7.0	ltm	337	diff_vonmises	0.1578513788688575	9.044217799506082	0.7179377562636933	254.24924744417652	0.7079542495645899	256.0589658291467	-0.0336527630289396	-0.389857737733486	0.3562049747045464	93.85104668923262	far	LO1
0	1.0	ltm	338	diff_vonmises	-0.0830834108752063	-4.760328790700647	0.3473083627734055	75.53100042488656	0.3278630675742303	77.88843212115995	-0.2415831885564223	-0.4523068486930199	0.2107236601365976	125.27545200564764	far	V1
1	2.0	ltm	338	diff_vonmises	0.0731187946973466	4.189398339241507	0.5293141146311251	45.68363889910916	0.4919485026427085	46.69818788269705	0.0707458745278746	-0.2837426115756671	0.3544884861035418	117.62288241770092	far	V2
2	3.0	ltm	338	diff_vonmises	0.0383077171249256	2.194870514039267	1.5057736403361053	115.04436693866316	1.4844854610627791	115.54271019550042	0.2143543994472594	-0.1930005958736149	0.4073549953208744	71.55217161066278	far	V3
3	4.0	ltm	338	diff_vonmises	-0.1663579856780267	-9.531610467648726	0.6394850402845562	123.69548752830912	0.6224623249992076	125.1578655336478	0.0050434938588779	-0.3333303365933666	0.3383738304522445	101.78874537094684	far	V4
4	5.0	ltm	338	diff_vonmises	-0.0230825346825571	-1.3225318177748715	1.067531119692983	44.64390326212971	1.0118090602076732	45.30303440571208	0.2421168515961316	-0.2322194169198859	0.4743362685160175	86.1018643459939	far	V3ab
5	6.0	ltm	338	diff_vonmises	-0.2197259680947494	-12.589370621255329	0.776551151045747	195.53349425052477	0.7630465717271363	196.46552676931412	0.2277814709654109	-0.3016488366981278	0.5294303076635387	98.95872669937874	far	IPS0
6	7.0	ltm	338	diff_vonmises	0.1476102774276232	8.457445909358013	1.3458748622665204	132.31914734364491	1.328763801733995	132.8602614192886	0.1909205675903393	-0.1909611642112167	0.3818817318015561	75.30269842439401	far	LO1
0	1.0	ltm	339	diff_vonmises	-0.0511292720359125	-2.9294914972340518	1.9274429245263256	0.5915201536033049	0.0356595021527086	2.0079209551818566	-0.0326609259052225	-0.3019585433987816	0.269297617493559	94.86091813044963	far	V1
1	2.0	ltm	339	diff_vonmises	-0.0949166390754944	-5.438322824592341	2.22071312091163	1.2249955232211611	0.5161471158146471	1.7284839464452542	0.2412672674811952	-0.1862198825937677	0.4274871500749629	77.48264353297776	far	V2
2	3.0	ltm	339	diff_vonmises	0.0505275846810196	2.8950173512122976	1.4134739711138635	119.39280205655682	1.395619086104516	119.66148575672362	0.2687169204590702	-0.1521547382161827	0.420871658675253	76.3519647444929	far	V3
3	4.0	ltm	339	diff_vonmises	-0.2331627993852727	-13.359244344231632	2.2553424908184527	1.1188707048444824	0.2181929447875029	2.021734208389124	0.2248814349559185	-0.2650769229379656	0.4899583578938841	82.48575555167247	far	V4
4	5.0	ltm	339	diff_vonmises	-0.0100648363045168	-0.5766726417388633	1.8705927027516436	1.2779223511837512	0.3744177335287616	1.3180872311220844	0.3384090966802348	-0.1301146673281776	0.4685237640084124	89.40604171908222	far	V3ab
5	6.0	ltm	339	diff_vonmises	-0.2617141888594912	-14.995118460338595	0.8350045378873684	113.59165638850016	0.8149878296853763	114.00099146369728	0.3086342211578099	-0.2180235475455028	0.5266577687033127	99.3751125726459	far	IPS0
6	7.0	ltm	339	diff_vonmises	0.0878039556823438	5.030796085152023	1.2351935880434646	176.49234799924525	1.218686866423839	176.9631636533374	0.3558259101787939	-0.2275456236706041	0.5833715338493981	81.18859225892768	far	LO1
0	1.0	ltm	340	diff_vonmises	0.242918485355829	13.918203976599496	0.6787503953590257	101.39034320508372	0.6579414777057037	103.307562190846	-0.1287330787945464	-0.3774766973695715	0.2487436185750251	92.2283516099931	far	V1
1	2.0	ltm	340	diff_vonmises	0.0686666698992786	3.934310378446677	0.8130502943686542	130.97934815582613	0.7975968166563739	132.04321831270283	0.0639745528844528	-0.2602558636128549	0.3242304164973077	92.12957266860953	far	V2
2	3.0	ltm	340	diff_vonmises	0.1598499739468724	9.158728862431955	1.1495233052541962	143.8327049676985	1.1334088463581182	144.5241017768938	0.1780891945561435	-0.2174455305910925	0.3955347251472361	80.77748388027524	far	V3
3	4.0	ltm	340	diff_vonmises	0.0020096330193194	0.1151434903771374	2.4116522209046494	0.5942046833886305	1.3883800524713438e-17	2.0278279147698424	0.0201157502049075	-0.3199821986837894	0.340097948888697	88.56751003843874	far	V4
4	5.0	ltm	340	diff_vonmises	-0.0233205117768039	-1.336166900895999	1.0547364189157145	93.11177248593874	1.0295792714203065	93.97105410739104	0.1429289390729948	-0.2423603566988461	0.385289295771841	83.22023872782725	far	V3ab
5	6.0	ltm	340	diff_vonmises	-0.2498020410764475	-14.312602667434073	1.282170542295363	1.4757022689582766	0.1669349685167791	2.511691577793817	0.1126408081283633	-0.2911669008348518	0.4038077089632151	105.78874456763414	far	IPS0
6	7.0	ltm	340	diff_vonmises	-0.1303715041289234	-7.469736955359698	1.1910949762573364	222.1183557962711	1.177177549107905	223.74379872540615	-0.0370779238286473	-0.3765008314831668	0.3394229076545194	71.84399893624948	far	LO1
0	1.0	ltm	341	diff_vonmises	0.0996251428609554	5.708100219320631	0.5027280589728873	112.49062054878344	0.4885373017885227	114.45859866758482	-0.183212055691218	-0.3696829485010315	0.1864708928098135	103.40240459462524	far	V1
1	2.0	ltm	341	diff_vonmises	0.1720012587485342	9.854946197228635	0.704703502977346	104.30572466622188	0.6890903615546461	105.1986002585084	0.0581404133249989	-0.2246811026634567	0.2828215159884557	99.6370105217033	far	V2
2	3.0	ltm	341	diff_vonmises	0.1695784297468428	9.716128320949826	1.456752072443115	96.68242084805075	1.4371390663681558	97.08453944128529	0.1655935635297609	-0.1520535782178154	0.3176471417475763	72.68321225607488	far	V3
3	4.0	ltm	341	diff_vonmises	-0.0702971899716279	-4.027732297003658	0.7565531191397545	60.34052261081822	0.7252835467718962	61.603501650953305	-0.005358736296138	-0.2787347002583997	0.2733759639622617	92.958744991861	far	V4
4	5.0	ltm	341	diff_vonmises	-0.0676312268283147	-3.87498386055438	1.2861554276689904	106.46384169070828	1.2629453198184046	107.14648510929534	0.1843947860692267	-0.220792707755324	0.4051874938245507	76.35720460046423	far	V3ab
5	6.0	ltm	341	diff_vonmises	-0.2393116857265886	-13.71154958029467	0.7935941786081121	157.7391575559407	0.7788484769053502	158.60748394854843	0.1840315093060311	-0.2673224525118112	0.4513539618178424	97.34216879272653	far	IPS0
6	7.0	ltm	341	diff_vonmises	-0.0720056253261681	-4.1256184323897465	1.184000929369928	180.37985858699707	1.1685137169279776	181.5821706647288	0.068984277002059	-0.304080126859688	0.373064403861747	75.39305081813978	far	LO1
0	1.0	ltm	342	diff_vonmises	0.163717178216538	9.380303345598763	0.5380102804389334	126.9160051348368	0.5241731475173099	128.88141891836392	-0.1641226136757865	-0.3762722334489652	0.2121496197731787	101.56331046244291	far	V1
1	2.0	ltm	342	diff_vonmises	0.0995144467868362	5.701757801464932	0.5778479689067579	126.02468728393131	0.5649395109890474	127.03656341120218	0.0449639896461846	-0.2575140753348073	0.3024780649809919	109.75116878547894	far	V2
2	3.0	ltm	342	diff_vonmises	0.1355303968684261	7.765319736293887	1.4299637153031326	153.9510433299335	1.4141014473998204	154.46736423958396	0.2181600641319931	-0.1961395268678742	0.4142995909998674	73.43953489532427	far	V3
3	4.0	ltm	342	diff_vonmises	0.0729632571008375	4.180486691405925	0.7934197954235952	32.972766273831326	0.7282232277581026	34.396653605997926	-0.0024237493941523	-0.3153428938590519	0.3129191444648995	91.8396573852659	far	V4
4	5.0	ltm	342	diff_vonmises	-0.037946671898889	-2.174184146374023	1.245044013770129	112.45723876867486	1.2219826699635714	113.24413756104006	0.1750735354568817	-0.2411145378558483	0.4161880733127301	77.05213470454581	far	V3ab
5	6.0	ltm	342	diff_vonmises	-0.1854591397632942	-10.626025980563629	0.828712674603844	153.53250516172204	0.8116333939396865	154.6477523832188	0.1595327920852796	-0.3087836091157765	0.4683164012010561	93.80278387238448	far	IPS0
6	7.0	ltm	342	diff_vonmises	-0.0988130572150194	-5.661571139205341	1.444914064893457	164.1565592301007	1.4281796911875215	165.11445691121298	0.0839906898024196	-0.2683626149064224	0.3523533047088421	68.6383050856474	far	LO1
0	1.0	ltm	343	diff_vonmises	0.1320792138714032	7.567581516237164	2.73785501792008	0.4133170191435562	1.5497049536814397e-21	2.486899250646769	-0.1389691835542232	-0.3947267153598494	0.2557575318056262	83.1013828177918	far	V1
1	2.0	ltm	343	diff_vonmises	-0.008198313127369	-0.4697287413249453	2.181496455392101	1.0294602118533989	0.3096223956307985	2.033923849689221	0.1287506103583562	-0.2563040965737636	0.3850547069321198	79.70435758057704	far	V2
2	3.0	ltm	343	diff_vonmises	0.0914817934260711	5.241520665601518	1.0533174309736926	100.01582236318296	1.032391995178844	100.60243838403107	0.190273802648349	-0.1976688000807414	0.3879426027290904	85.521978125824	far	V3
3	4.0	ltm	343	diff_vonmises	-0.211976993402677	-12.145387075845887	2.2384791738254064	0.7346976901391195	5.874856052656769e-17	2.094133469827005	0.0722729502493915	-0.328681193069395	0.4009541433187865	91.84266573021776	far	V4
4	5.0	ltm	343	diff_vonmises	-0.0072319256710601	-0.4143588187040605	1.927547548330481	1.1050300808798372	0.2167747541597063	1.5292728845472414	0.2586628643735524	-0.1857705467578256	0.444433411131378	90.04103072419741	far	V3ab
5	6.0	ltm	343	diff_vonmises	-0.2592653431301754	-14.854809935370168	0.5461076764703178	111.1773275597153	0.5308100931409611	111.6798490305579	0.1927439465152431	-0.2292555566167422	0.4219995031319854	119.8898637519412	far	IPS0
6	7.0	ltm	343	diff_vonmises	0.1978602459612755	11.336557027001485	1.1660237895908263	133.3500843251815	1.1491280884595791	133.95966309343962	0.193331785326869	-0.20402030054451	0.397352085871379	80.89978230281343	far	LO1
0	1.0	ltm	344	diff_vonmises	0.1516491869434882	8.688858378452302	4.681681619124934	0.4872508376174879	3.5740211811033773e-22	3.609558761846646	-0.1665964981189716	-0.5744441136762855	0.4078476155573138	63.15339803203119	far	V1
1	2.0	ltm	344	diff_vonmises	-0.0515270369125532	-2.952281745904106	2.304697545731761	1.41514127616172	0.3584147449746247	2.982936316309082	0.1367846225096869	-0.3810091928141987	0.5177938153238857	75.9652955910698	far	V2
2	3.0	ltm	344	diff_vonmises	-0.0520429302918669	-2.981840259217519	1.5614454538240847	1.6205243433745604	0.1806849850632837	2.9333322437738745	0.1644695215491947	-0.3575903896568258	0.5220599112060205	96.8144310795618	far	V3
3	4.0	ltm	344	diff_vonmises	-0.1241770803603295	-7.114822616903746	0.6488019539005201	2.539108283556636	1.5536880240027991e-16	4.466145140464817	-0.0130306432188221	-0.5201855680922193	0.5071549248733971	144.41671291665608	far	V4
4	5.0	ltm	344	diff_vonmises	-0.0094445578015065	-0.5411333013936833	1.7178970310940305	1.4172256269835597	1.429080452213541e-14	2.3510064155663177	0.2924289485687251	-0.3527074151077488	0.645136363676474	104.10838752144112	far	V3ab
5	6.0	ltm	344	diff_vonmises	-0.1482624425213308	-8.49481221677321	0.6419190228483367	2.443022383518904	5.3339914619869437e-20	3.224482007006334	0.1549705822657827	-0.3281208432173361	0.4830914254831189	144.67337980646806	far	IPS0
6	7.0	ltm	344	diff_vonmises	0.2610874635352876	14.95920974434776	0.969141136839404	78.83061569062154	0.9412642844678594	79.6796452346031	0.1365080201087707	-0.2375059734306628	0.3740139935394335	86.99643339853782	far	LO1
0	1.0	ltm	345	diff_vonmises	0.0556624430055738	3.189223061606869	0.4182588628576966	95.4759288639546	0.4032455368942708	97.42640872121298	-0.1827086946029297	-0.3739146879699735	0.1912059933670438	114.74930095180407	far	V1
1	2.0	ltm	345	diff_vonmises	0.0781429310998943	4.47726015080553	0.7933330722640961	51.01870818813865	0.7580289773780109	51.89110707149752	0.0860235200818131	-0.2278077777918135	0.3138312978736266	95.34049916214298	far	V2
2	3.0	ltm	345	diff_vonmises	0.1756304495045973	10.06288351059895	1.366033610867682	110.51768150295712	1.3472329115127404	110.9358858218924	0.2040925881801527	-0.1660855864753436	0.3701781746554964	75.75434627243686	far	V3
3	4.0	ltm	345	diff_vonmises	-0.1547879355020419	-8.868695423810204	0.9234904803009324	5.821775580641136	0.5740006700788673	7.141428771439533	0.0434953845576477	-0.3105747509424249	0.3540701355000727	95.060952163311	far	V4
4	5.0	ltm	345	diff_vonmises	-0.0336244701676848	-1.926540228971884	1.1969037765247117	107.56627894667945	1.1765622148699046	107.92420782239526	0.2708176985392683	-0.1733964351979668	0.4442141337372352	82.60758054278006	far	V3ab
5	6.0	ltm	345	diff_vonmises	-0.2444936310376724	-14.00845317628738	0.7181046373965578	156.6747862184929	0.7054449954066982	157.1810201838932	0.2336540461395913	-0.2199394798089287	0.45359352594852	105.42123753680916	far	IPS0
6	7.0	ltm	345	diff_vonmises	0.120822438189903	6.922615778761702	1.4053242508167745	148.50889941894482	1.3898301180979655	149.02496147370286	0.1974009962800309	-0.1887289444873339	0.3861299407673648	73.80555435398506	far	LO1
0	1.0	ltm	346	diff_vonmises	0.1342009935524166	7.689150537015844	4.433195162449109	0.4039990728714836	5.606505780240029e-25	3.2026010200200665	-0.1812924701503993	-0.5096634535118153	0.3283709833614159	64.94380670155817	far	V1
1	2.0	ltm	346	diff_vonmises	0.0013702113958368	0.0785073300221792	2.056396444351287	1.6827737365701407	0.5771455058710472	2.831877685996473	0.1430270408026638	-0.3025453216121618	0.4455723624148257	75.0787148364414	far	V2
2	3.0	ltm	346	diff_vonmises	0.1186394076607181	6.797537342891199	2.5991408706295287	0.7490790420292612	0.1104854739607574	1.6372885745173669	0.1615046431598076	-0.2367640306251512	0.3982686737849588	80.2275253930149	far	V3
3	4.0	ltm	346	diff_vonmises	-0.1971587014932046	-11.296361489840269	1.3623497113989242	1.2714820203862869	6.7002918108888575e-12	2.8594178751623023	0.0646009933963713	-0.4210152035953373	0.4856161969917087	114.76721315028044	far	V4
4	5.0	ltm	346	diff_vonmises	-0.0044230934648286	-0.2534245879265799	1.4552792014631666	2.601219520364804	0.4473638702897199	3.089928036135919	0.3741315186924084	-0.2501041022632159	0.6242356209556243	93.86652951946482	far	V3ab
5	6.0	ltm	346	diff_vonmises	-0.1239773451477676	-7.1033786322038	0.9611316407530558	1.7907190175255454	6.3991509627497625e-12	2.1159402400219505	0.2619562743397912	-0.2491841938662891	0.5111404682060804	130.0987956963644	far	IPS0
6	7.0	ltm	346	diff_vonmises	0.1823273744891766	10.446589047931054	0.9531123586238672	89.50006536664323	0.927874168103908	90.1740262729672	0.2081233986788362	-0.2256527804168104	0.4337761790956467	90.06099780571927	far	LO1
0	1.0	ltm	347	diff_vonmises	-0.4891928907915821	-28.02868801016185	0.1876481055960398	3.225707647445141	2.991731487009621e-16	4.75603716804914	-0.1430081831370301	-0.3351183275365206	0.1921101443994904	163.74729223545205	far	V1
1	2.0	ltm	347	diff_vonmises	0.2256624266682031	12.929504642768476	0.8429296167437743	51.041385177335286	0.8094094729061762	51.66881316523394	0.1349922863192407	-0.1917811978768719	0.3267734841961127	94.92868999720604	far	V2
2	3.0	ltm	347	diff_vonmises	0.0872546114598028	4.999320979700528	2.6363804818687235	0.4867107075451992	0.3281317401445554	0.702668198498615	0.1447326075782722	-0.089459500759672	0.2341921083379442	76.26315404800758	far	V3
3	4.0	ltm	347	diff_vonmises	-0.4668803599103747	-26.75027416041335	0.9298353743974344	46.60036726575513	0.8810058785672789	47.61236762771229	0.1103102927533186	-0.264576486203917	0.3748867789572356	88.20076690339936	far	V4
4	5.0	ltm	347	diff_vonmises	-0.0862607649380487	-4.942377768520263	2.1147928548258634	0.6281341494380294	1.5486364465603973e-17	0.8340528545044898	0.2023892296987303	-0.1278646189253576	0.3302538486240879	94.45109495423192	far	V3ab
5	6.0	ltm	347	diff_vonmises	-0.4566862079487221	-26.166192277295647	0.7009070305952905	105.162488444546	0.6855195159941312	105.44794016100872	0.2278930253958329	-0.1726527007421765	0.4005457261380094	108.55185728280398	far	IPS0
6	7.0	ltm	347	diff_vonmises	0.1897058998211492	10.86934740848345	1.1878667948314978	191.38731765966796	1.174552051085326	192.2056461069346	0.1656074208879516	-0.2436618844264551	0.4092693053144067	78.52577969291625	far	LO1
0	1.0	ltm	348	diff_vonmises	-0.3094399569141869	-17.729603543892946	0.0183945173670501	39.14962336967296	2.102621392650157e-20	41.510568874988	-0.2606200492012851	-0.4898382140076718	0.2292181648063866	176.27423045180518	far	V1
1	2.0	ltm	348	diff_vonmises	0.1897852727810576	10.873895144093664	1.715477981985508	2.760440833569318	0.8084636712506615	3.68727335694352	0.1717699706523938	-0.2681638347917568	0.4399338054441506	76.41138503303901	far	V2
2	3.0	ltm	348	diff_vonmises	-0.2026978460925794	-11.613731097497125	0.4895373679857263	1.8589428967584083	9.656179531841458e-15	2.5087894415077465	0.0557490198154543	-0.2283445642925612	0.2840935841080155	152.08977516948482	far	V3
3	4.0	ltm	348	diff_vonmises	-0.4850762297301358	-27.79282070565513	1.9295151002106885	1.0916476412152385	7.04845837929764e-12	2.4643169209860374	0.1588507588737088	-0.3805869512879412	0.5394377101616501	98.27783955708182	far	V4
4	5.0	ltm	348	diff_vonmises	-0.1320791158366602	-7.567575899260144	1.108007315446785	1.7649203428453473	0.1175711883693488	2.057383584699018	0.2719165669294452	-0.2204431105206149	0.4923596774500602	118.26549486896718	far	V3ab
5	6.0	ltm	348	diff_vonmises	-0.1220715909413971	-6.994186959389468	0.0008314149508071	1602.4665769703197	1.0659754044632111e-24	1602.5081698920228	0.2054688073627346	-0.21862009707732	0.4240889044400546	179.52633022923806	far	IPS0
6	7.0	ltm	348	diff_vonmises	0.2409256867679408	13.804025028093871	1.1133393943446086	189.2404444630656	1.098853008275935	190.33559999798427	0.1182677146808686	-0.2899480271588075	0.4082157418396761	79.3490139854816	far	LO1
0	1.0	ltm	349	diff_vonmises	-0.2198391799030642	-12.595857180062804	0.000281626620303	1931.844440388408	2.893613836237284e-28	1933.2913100791047	-0.1436828713931959	-0.3168578634135315	0.1731749920203356	178.6066381942095	far	V1
1	2.0	ltm	349	diff_vonmises	0.191012062522473	10.944185018626712	1.096812009659072	1.036868485410803	1.1044053628583478e-10	1.9169725235071564	0.0681130924072022	-0.2634783954123369	0.3315914878195392	124.37103741135974	far	V2
2	3.0	ltm	349	diff_vonmises	0.0655307202789491	3.75463370043614	1.0401916488841416	78.9533572846697	1.019983635596032	79.27155444973836	0.1910518162335286	-0.1391616395536274	0.3302134557871561	88.15259697213838	far	V3
3	4.0	ltm	349	diff_vonmises	-0.3214713649822531	-18.418952447792787	4.298178391847021	0.4208742971417398	2.475255069695048e-22	1.745245484644533	0.0586845314950275	-0.2777022632150989	0.3363867947101265	65.98426354033427	far	V4
4	5.0	ltm	349	diff_vonmises	-0.0780983580257158	-4.474706301775176	2.0009651132609143	0.50507376645014	1.1322940790713255e-13	0.8355244821456451	0.1276404293736479	-0.1282130115016335	0.2558534408752815	96.99292503052612	far	V3ab
5	6.0	ltm	349	diff_vonmises	-0.4953238040714804	-28.379963465660733	0.5604371906449728	56.96094396516239	0.5366824202086005	57.478869832384405	0.1232689854308368	-0.1910334453530708	0.3143024307839077	117.01400497536332	far	IPS0
6	7.0	ltm	349	diff_vonmises	0.2654884110268151	15.21136546147097	1.600508356419291	115.9528940708674	1.5829888039735294	116.4625123793633	0.1203738861545105	-0.1713364358897049	0.2917103220442154	67.41151668195099	far	LO1
0	1.0	ltm	350	diff_vonmises	0.2024278598633015	11.59826202603285	1.4933027072597629	0.5313347115140274	9.449383308235442e-14	3.4846068521697404	-0.3250745894991857	-0.5430104459418075	0.2179358564426217	110.5084831371687	far	V1
1	2.0	ltm	350	diff_vonmises	0.1594371298758488	9.135074639565309	0.7707079632832302	124.58247219573292	0.7513798066949112	126.11586317086312	0.0083906602771293	-0.3438189117523134	0.3522095720294427	92.2475547222588	far	V2
2	3.0	ltm	350	diff_vonmises	0.0933732983746483	5.3498959160830974	2.244175328821333	0.7422807504428162	0.1186376062420506	1.754902840185015	0.0969800420273307	-0.2481295648210543	0.345109606848385	84.78199559932466	far	V3
3	4.0	ltm	350	diff_vonmises	-0.016421644705464	-0.9408909342864424	0.0004012342019638	2366.879679905866	5.4183135570226075e-27	2368.889984870576	-0.1687897286699353	-0.4710798936022229	0.3022901649322875	179.96931835119332	far	V4
4	5.0	ltm	350	diff_vonmises	-0.0384946950061903	-2.2055835574980334	1.56616448699986	1.4991070515478642	0.2787478490905017	2.501116817644053	0.1506063005515437	-0.2761266161167104	0.4267329166682542	92.65068337841616	far	V3ab
5	6.0	ltm	350	diff_vonmises	-0.2320796953284153	-13.297187053000208	0.2820934739643679	64.91242527394023	0.2590974042178752	65.81546524721935	0.0816285809273171	-0.3109191287046071	0.3925477096319243	146.46216405823782	far	IPS0
6	7.0	ltm	350	diff_vonmises	0.2685694108440928	15.38789374768156	1.021680894128623	98.42420690888778	1.0022485044575409	99.55311310817162	-0.0248208933430547	-0.2498288659937682	0.2250079726507134	77.92844394048907	far	LO1
0	1.0	ltm	351	diff_vonmises	-0.4598290934765162	-26.346266353531	0.1064264807736108	6.8393795776386535	3.028704050548721e-06	8.307336728683579	-0.1148234388821189	-0.3462878288242929	0.2314643899421739	168.55899350963375	far	V1
1	2.0	ltm	351	diff_vonmises	0.1357754319767188	7.7793592138315875	1.3661904964192315	8.311113302659606	1.0987407299254326	8.878765710457506	0.2037648009694801	-0.1985477936438058	0.4023125946132859	78.74906071414009	far	V2
2	3.0	ltm	351	diff_vonmises	0.0574745458649932	3.2930489074951925	2.461379385295805	0.4658228985508703	6.516700034576915e-19	0.8238362821005456	0.1409089244682942	-0.1291374019257593	0.2700463263940535	87.67086624622439	far	V3
3	4.0	ltm	351	diff_vonmises	-0.4013701597441295	-22.99681617583028	3.043902124997815	0.7716345453311358	2.645455007066008e-15	1.7103544490188238	0.2373742734611605	-0.2710544075391159	0.5084286810002765	78.71284866524013	far	V4
4	5.0	ltm	351	diff_vonmises	-0.13507172026981	-7.739039503031766	1.4986160313012704	1.002692519585373	2.5813992630073687e-19	1.1244276032973917	0.2551114479822668	-0.1572865807837504	0.4123980287660173	110.44364741779576	far	V3ab
5	6.0	ltm	351	diff_vonmises	-0.3978764148219978	-22.796639337096867	0.6158489592787864	43.12278725926303	0.5817657799918279	43.1917248572024	0.2600719357896146	-0.1571437275757934	0.417215663365408	118.18195232529555	far	IPS0
6	7.0	ltm	351	diff_vonmises	0.1071881993824495	6.141431438221137	1.0491581645535015	243.78157399910123	1.0360316711343804	245.06138435100232	0.1569005678956756	-0.3422333048781816	0.4991338727738572	82.23155200753982	far	LO1
0	1.0	ltm	352	diff_vonmises	0.2144481069988464	12.286971455603794	2.739787250802601	0.5879085213393208	0.0870931740850878	2.5505491898961	-0.0765440177930889	-0.3845583667211815	0.3080143489280925	76.38725204716332	far	V1
1	2.0	ltm	352	diff_vonmises	-0.1065415872099439	-6.104383289754781	1.0528836309683227	63.06971357106125	1.0117840224889385	64.11840078179206	0.1282101283814505	-0.2800490662108856	0.4082591945923361	82.65586291593365	far	V2
2	3.0	ltm	352	diff_vonmises	0.0954546698792382	5.469149718894895	1.1306099445796618	203.82080142193857	1.118099170554964	204.47483023051555	0.2379252028375305	-0.228986167631394	0.4669113704689245	82.6230626836431	far	V3
3	4.0	ltm	352	diff_vonmises	-0.0658130450846232	-3.770809720253118	2.521614715677405	0.6831365944199247	1.0638639240668327e-16	2.0458255939225274	0.0790429758218258	-0.3229920188587064	0.4020349946805323	86.61830053877819	far	V4
4	5.0	ltm	352	diff_vonmises	0.0234107560772258	1.3413375184352847	1.3782895784551976	3.1583583929471524	0.6995597944504269	3.7373499411414426	0.2367736998856957	-0.2115436889212731	0.4483173888069689	87.09811969484701	far	V3ab
5	6.0	ltm	352	diff_vonmises	-0.2057108074360708	-11.78636106631525	0.6603330580765142	71.23687021743545	0.631910451603786	72.01727365011809	0.1727495219782469	-0.260352132693189	0.4331016546714359	107.93054628086313	far	IPS0
6	7.0	ltm	352	diff_vonmises	0.1300691603402425	7.45241393230629	1.1222510776053165	138.85025230455432	1.1053963680851293	139.54529126407735	0.1860981798526637	-0.2205993075329413	0.406697487385605	81.96604079865384	far	LO1
0	1.0	ltm	353	diff_vonmises	-0.2301394751256131	-13.186020624053626	0.576170268460375	1.2783750247548409	3.715875084370887e-32	3.5349954059830013	-0.2288916970691413	-0.457190267056747	0.2282985699876056	147.50530396664897	far	V1
1	2.0	ltm	353	diff_vonmises	0.1582532025243757	9.067240599075795	1.0898098793440445	144.16904106124767	1.0721230829603698	145.15978158861927	0.1264461234172174	-0.2676268950714657	0.3940730184886831	80.80007650918364	far	V2
2	3.0	ltm	353	diff_vonmises	0.0666918318740391	3.821160494378504	2.6019309599237506	0.4565902672109181	1.9928540723555384e-22	1.116098540851185	0.097832815888938	-0.1761187960122046	0.2739516119011426	85.26556461510623	far	V3
3	4.0	ltm	353	diff_vonmises	-0.3331585237426961	-19.08857731926552	1.5281244452221128	0.9426946720142652	5.871244486275326e-16	2.260311481653901	0.053214857729599	-0.3403044174737978	0.3935192752033968	109.23119149254026	far	V4
4	5.0	ltm	353	diff_vonmises	-0.1224548862127779	-7.0161481607469085	1.8450682203057427	0.9179831308715006	1.0844708635137956e-10	1.6555162054941337	0.1874975249697326	-0.2522232210084531	0.4397207459781858	100.7354158037498	far	V3ab
5	6.0	ltm	353	diff_vonmises	-0.2901528441884984	-16.62453338571794	0.5564098648709187	4.125449644467729	0.192812893996945	4.693230783077377	0.164136501962373	-0.2614079586865049	0.4255444606488779	136.52248192137606	far	IPS0
6	7.0	ltm	353	diff_vonmises	0.0161301137091805	0.9241874386021576	0.737048632659023	270.3619601831912	0.7265959672637621	272.4354317041156	-0.0612813316108002	-0.4376155339329095	0.3763342023221092	91.70296705082058	far	LO1
0	1.0	ltm	354	diff_vonmises	0.1985715125428561	11.377309600234746	3.0808295983097898	0.4591982412028046	1.2592055730193775e-09	2.378170226977049	-0.0731799520868012	-0.377853621688196	0.3046736696013947	78.26096289501444	far	V1
1	2.0	ltm	354	diff_vonmises	-0.1142420534213431	-6.545587503951047	0.9982116236152128	131.7439161369514	0.9784666816354516	132.78332031599	0.1416064020629335	-0.2818109983029817	0.4234174003659152	84.91346948152633	far	V2
2	3.0	ltm	354	diff_vonmises	0.1135404161235823	6.50538664804039	1.126660136147143	229.220542869959	1.113629297100797	229.9917407644656	0.2777819690345211	-0.2690580590523446	0.5468400280868657	82.7518858593682	far	V3
3	4.0	ltm	354	diff_vonmises	-0.0316927419401881	-1.8158603543700371	2.2990098361339024	0.8883629490666582	1.0649547458701777e-13	2.345911694035034	0.124884567694238	-0.368345087926732	0.49322965562097	90.68822532860295	far	V4
4	5.0	ltm	354	diff_vonmises	0.0084933879765651	0.4866352848243417	1.0264679770464384	73.3223778679928	0.9934683310198806	73.82824767565636	0.2850427984431896	-0.2151710447096642	0.5002138431528538	88.85317227226105	far	V3ab
5	6.0	ltm	354	diff_vonmises	-0.184563617808087	-10.57471635206895	0.6821834915770896	46.23863095001872	0.6368689088705212	46.96895817130964	0.1994068148390635	-0.2604300222153957	0.4598368370544592	107.61888023620983	far	IPS0
6	7.0	ltm	354	diff_vonmises	0.1073865152614658	6.152794101099195	1.4474999888836215	177.57753459080763	1.4332047019484646	178.15184961895508	0.2074964979001379	-0.2078287519532295	0.4153252498533675	72.44964005095093	far	LO1
0	1.0	ltm	355	diff_vonmises	-0.3813274773880105	-21.848455066703337	0.2808523343169516	63.76189146460592	0.2674529975843672	64.42718423019942	0.0157988521242913	-0.194840531959481	0.2106393840837723	143.9061580072791	far	V1
1	2.0	ltm	355	diff_vonmises	0.144157174369462	8.259597677901658	0.5096808880989416	64.35585290872832	0.4900076942496139	64.59277636704567	0.1786088583677489	-0.1645841038756934	0.3431929622434424	125.29345283707272	far	V2
2	3.0	ltm	355	diff_vonmises	0.0758799779475567	4.347602485940758	1.586700871154567	108.28060965695263	1.5705852446671356	108.28825612592142	0.29675656894171	-0.0996264137683002	0.3963829827100102	74.8249133161163	far	V3
3	4.0	ltm	355	diff_vonmises	-0.2396625676664982	-13.731653634558857	5.106990482958259	0.5662735345467363	1.4328572860058296e-14	1.3778472590195407	0.2772858782348505	-0.2192729983951971	0.4965588766300476	60.4029032285803	far	V4
4	5.0	ltm	355	diff_vonmises	-0.122072762468489	-6.9942540829474185	3.068903818331701	0.4522736928039686	8.772954769829827e-15	0.4611432456349583	0.2266789297169746	-0.0727451752098056	0.2994241049267803	78.41783763488493	far	V3ab
5	6.0	ltm	355	diff_vonmises	-0.4209376374083351	-24.117950061705763	2.377060215422925	0.7971771175428698	7.994861857218616e-14	1.288452614128087	0.2509920647958663	-0.2011341326133724	0.4521261974092387	89.0703217136702	far	IPS0
6	7.0	ltm	355	diff_vonmises	0.0839392208829201	4.809363092207706	1.6866308694916048	182.7067664031753	1.6690838166209407	183.3109148736423	0.260177469685189	-0.24350491282906	0.5036823825142491	67.25131779772613	far	LO1
0	1.0	ltm	356	diff_vonmises	0.1662074043044895	9.522982790471763	0.7534882075121395	31.266399787298788	0.690904693042159	32.781516561467825	-0.0552796383452687	-0.3158286761834135	0.2605490378381447	91.77822035391868	far	V1
1	2.0	ltm	356	diff_vonmises	0.0192772703865429	1.104506233681438	0.8107969474224639	46.54785843611707	0.7676353059956647	47.46512619638837	0.110813311496873	-0.2472198664866303	0.3580331779835033	95.12882609651108	far	V2
2	3.0	ltm	356	diff_vonmises	-0.032784123616512	-1.878391918261312	1.0741820731137628	139.50944126436983	1.0604385047334912	139.987705265003	0.1914428322946406	-0.1737733946779318	0.3652162269725725	85.2257838005439	far	V3
3	4.0	ltm	356	diff_vonmises	-0.1838233387843824	-10.532301488348612	4.781854573914571	0.4074221290989541	3.2789476161072685e-29	1.5483521543707424	0.0984889372670577	-0.2464036671600748	0.3448926044271326	62.47684840980656	far	V4
4	5.0	ltm	356	diff_vonmises	-0.0494693046921198	-2.834382374305189	2.1892808252985088	0.5163064932035638	3.844634046781141e-18	1.33745491863452	0.0683844036974118	-0.209334707284797	0.2777191109822089	92.88535898858518	far	V3ab
5	6.0	ltm	356	diff_vonmises	-0.4288847558552327	-24.57328640800356	1.6923401233820894	0.8475209478657947	9.374000324318664e-26	1.9795952371811836	0.0799574374310667	-0.3016744913012695	0.3816319287323362	104.3470291646968	far	IPS0
6	7.0	ltm	356	diff_vonmises	0.1072957961924821	6.147596281325075	0.8786415587294765	184.8690165628676	0.8639655918061503	186.3883930718304	0.0374586886939312	-0.3513898657140757	0.3888485544080069	86.88277772170181	far	LO1
0	1.0	ltm	357	diff_vonmises	-0.0130685779299311	-0.74877435962287	1.7499223515441664	0.5942218508951164	1.854861869697974e-24	1.967282571348523	-0.0304342300121163	-0.3045652832203372	0.2741310532082209	103.23868920292507	far	V1
1	2.0	ltm	357	diff_vonmises	-0.0468369039044353	-2.683556919183952	2.074579347485885	1.4971716194114129	0.5327339399925596	2.150559958624405	0.2457866902558502	-0.2221241763034798	0.46791086655933	78.59996176211305	far	V2
2	3.0	ltm	357	diff_vonmises	0.031179135703023	1.7864328846488835	1.60335106511417	1.7603859839710556	0.3796360201601944	2.300381388577689	0.2775910360754781	-0.2205836449546829	0.498174681030161	91.54143837212196	far	V3
3	4.0	ltm	357	diff_vonmises	-0.2649821791074052	-15.18236050903398	3.0230745451827765	0.9722269306132522	9.943792870396353e-22	2.076646920614236	0.3090345811672318	-0.3289948032996931	0.6380293844669249	79.01100642160846	far	V4
4	5.0	ltm	357	diff_vonmises	-0.0770151812392106	-4.412644843441886	1.5203224977278686	1.1662038528607743	1.0500750165172817e-17	1.2014304308571353	0.3180481564753479	-0.1668668998929246	0.4849150563682725	109.8163216342146	far	V3ab
5	6.0	ltm	357	diff_vonmises	-0.3047909369321837	-17.463234320052177	1.1528925790431894	1.2772185291042304	1.9168289421915808e-16	1.509466224604925	0.2328320976804707	-0.1930794902483754	0.4259115879288461	121.91872097040144	far	IPS0
6	7.0	ltm	357	diff_vonmises	0.1899803915836059	10.885074627983329	1.5693948460291374	163.7075119287028	1.5513664497974768	164.2005716137201	0.2917482751913951	-0.218484785338429	0.5102330605298242	70.8638249917432	far	LO1
0	1.0	ltm	358	diff_vonmises	0.2039252414835312	11.684055673192477	3.188838331543008	0.4031562655916529	0.0128387818010942	1.821605418813244	-0.0203123623264621	-0.2861040089778065	0.2657916466513444	75.74639626879596	far	V1
1	2.0	ltm	358	diff_vonmises	-0.0132089660560883	-0.756818006745428	0.9000030262897427	9.99770977267096	0.7013799421537575	10.939580439253811	0.1106642301758324	-0.2520193173537144	0.3626835475295469	94.44068556940849	far	V2
2	3.0	ltm	358	diff_vonmises	-0.0030559774906734	-0.1750946125025694	1.002101318999566	160.8396329833489	0.988839832266239	161.37122358114084	0.2231275459679977	-0.1983714185218463	0.4214989644898441	88.52675043863727	far	V3
3	4.0	ltm	358	diff_vonmises	-0.1849348209902162	-10.59598472774678	5.351329890210148	0.4372151198522482	1.322260310877466e-27	1.6620402814395985	0.1284862714833858	-0.2645130872471958	0.3929993587305816	58.978954667112816	far	V4
4	5.0	ltm	358	diff_vonmises	-0.0562425561107555	-3.222461094174011	2.010103926280803	0.5686783610053261	1.2073136839345897e-19	1.2293769250122033	0.098601768636147	-0.1903794558227576	0.2889812244589047	96.78469798780765	far	V3ab
5	6.0	ltm	358	diff_vonmises	-0.4275981993807952	-24.499572151913057	1.3535863952451368	0.9382353055130198	3.2536291222700097e-21	1.8865997738928264	0.0817304121327571	-0.2747705631165448	0.3565009752493019	114.420851290963	far	IPS0
6	7.0	ltm	358	diff_vonmises	0.1535516858381909	8.797863535647073	1.1195094903114209	160.35823663338127	1.102920320054813	161.53539822166644	0.0723190516914158	-0.2950011922757944	0.3673202439672103	77.8168083108051	far	LO1
0	1.0	ltm	359	diff_vonmises	-0.0476655256306872	-2.731033446911031	1.0734864772620163	0.6709827132133691	1.891617113294933e-20	2.858589554747837	-0.2163843003131688	-0.42708361593931	0.2106993156261412	125.5689003235986	far	V1
1	2.0	ltm	359	diff_vonmises	0.0725920258130767	4.159216705394026	2.7610226276802914	0.7234703072495476	0.1649535506883679	1.6840629629967656	0.137832909243798	-0.2411657032884446	0.3789986125322427	76.03559871934519	far	V2
2	3.0	ltm	359	diff_vonmises	0.0911026740894035	5.219798727678662	2.650536673043607	0.5631197298600759	0.0658143063292994	1.0879395128007767	0.1586883203524851	-0.1613958066825899	0.320084127035075	81.5637724427599	far	V3
3	4.0	ltm	359	diff_vonmises	-0.3733479769178424	-21.39126336714005	1.8400665738242492	1.0151417185214606	0.0972599888262588	2.371324889707157	0.0828929224230444	-0.3301913606751296	0.413084283098174	93.5525434788768	far	V4
4	5.0	ltm	359	diff_vonmises	-0.029869886337486	-1.7114184216734325	2.0047567232035584	0.8881626977577555	2.2701766770725928e-17	1.175867250297642	0.2716917438205014	-0.1788203431283912	0.4505120869488926	96.91105633612668	far	V3ab
5	6.0	ltm	359	diff_vonmises	-0.2864973482351025	-16.4150888955612	0.4701041243011967	99.98878755119776	0.455315413972003	100.2498427539448	0.2124113822032001	-0.1972534552556588	0.4096648374588589	128.6517061702781	far	IPS0
6	7.0	ltm	359	diff_vonmises	0.25575543292027	14.653706893872704	1.2292225483591457	132.37744122211288	1.2129005841726623	132.9039310506396	0.1969668287018038	-0.1869219237129709	0.3838887524147747	79.20956807631427	far	LO1
0	1.0	ltm	360	diff_vonmises	-0.0642354280926022	-3.680418924922194	0.2922460394569495	42.945546554418	0.2646919224422367	44.42830614882912	-0.0917941009101834	-0.3370903250078445	0.245296224097661	141.64377982012334	far	V1
1	2.0	ltm	360	diff_vonmises	-0.0391270565297377	-2.241815203923765	1.5182396009623538	1.0428317815961612	0.0282174854423366	2.043633253991755	0.1205243422968329	-0.2942986815468658	0.4148230238436987	107.84573430800174	far	V2
2	3.0	ltm	360	diff_vonmises	-0.0257100254785332	-1.4730759510937708	0.9126660337978474	136.67072031075293	0.8934816451282708	137.37286865395052	0.2735301928522844	-0.2588733018331677	0.5324034946854521	92.81686260653152	far	V3
3	4.0	ltm	360	diff_vonmises	-0.1726873650950415	-9.894257195180646	3.030760861791721	0.7371457767915128	4.375530465058204e-36	2.2055239393909742	0.134590103343251	-0.3498881403615732	0.4844782437048243	78.91765487891757	far	V4
4	5.0	ltm	360	diff_vonmises	-0.1369842585306061	-7.848619873532676	1.2174325935813646	1.0444807278149202	3.286415175044877e-17	1.5751016361430836	0.1486734736730824	-0.2156972763947769	0.3643707500678594	119.9498705246369	far	V3ab
5	6.0	ltm	360	diff_vonmises	-0.4080947576393474	-23.382107254148817	1.030142925984339	1.237479586209809	3.5565508817257274e-14	2.043493491954262	0.1046646911237631	-0.2704531894294274	0.3751178805531905	126.10680000510835	far	IPS0
6	7.0	ltm	360	diff_vonmises	0.2218329319268766	12.710090756422924	1.644473643451926	157.11051269537288	1.6270479021465238	157.86557637935695	0.1214188809254608	-0.2404677180767329	0.3618865990021938	65.40022612192973	far	LO1
0	1.0	ltm	361	diff_vonmises	0.220321044707111	12.623465999630586	0.5820911277758364	113.21765501551234	0.5671467460132145	115.08472099434256	-0.1648351309779521	-0.3523609408527139	0.1875258098747618	96.43296336840314	far	V1
1	2.0	ltm	361	diff_vonmises	0.1799493768520928	10.310339819634072	0.7063119183222206	120.97383633710685	0.6931089575009235	121.89939144217988	0.0422634930243717	-0.2247673467731257	0.2670308397974974	98.59267038546454	far	V2
2	3.0	ltm	361	diff_vonmises	0.2002395341302437	11.47288019732877	1.3758913104404171	93.42341348781576	1.3575130597576723	93.78272536852008	0.1617988942108112	-0.1385281384971151	0.3003270327079264	75.21329862750122	far	V3
3	4.0	ltm	361	diff_vonmises	-0.0887544890541029	-5.085257635640161	0.7820719334834848	33.2804269464832	0.7295917028327596	34.5306062924131	-0.0293661946985981	-0.2666743444520576	0.2373081497534594	90.64049697262168	far	V4
4	5.0	ltm	361	diff_vonmises	-0.0464547617459785	-2.6616617863303564	1.2847099887742708	88.15034259474156	1.2602197138032951	88.74967182460001	0.1603692482654892	-0.1933132761463483	0.3536825244118375	76.39619706419163	far	V3ab
5	6.0	ltm	361	diff_vonmises	-0.2764862665943486	-15.841496169185096	0.721898567470313	153.88652924325245	0.7091772538670463	154.65894935580874	0.1522105363367885	-0.2391866044943782	0.3913971408311667	101.92951084259651	far	IPS0
6	7.0	ltm	361	diff_vonmises	0.0543425799433433	3.113600478605849	1.0738890255712628	118.10393000633955	1.0546103276041412	119.09676580531234	0.0785383429976604	-0.2521979923339028	0.3307363353315633	80.16789478159461	far	LO1
0	1.0	ltm	362	diff_vonmises	0.0740520707045658	4.242871115575985	3.3456242899863238	0.4116399786776591	1.424845915239377e-20	3.831795827794852	-0.3231200853556027	-0.6094931849041599	0.2863730995485571	75.0337603071589	far	V1
1	2.0	ltm	362	diff_vonmises	0.0005621373845787	0.0322080996428822	3.4361984873049405	0.589979098123764	0.0171454594869488	2.069192771546701	0.0821522259524201	-0.3242215177893352	0.4063737437417554	72.94302284087908	far	V2
2	3.0	ltm	362	diff_vonmises	-0.0453855311171971	-2.600399383975063	1.3490738401636977	2.3413210834212803	0.6339259954379084	3.115898554566095	0.1038863623591579	-0.207598609193657	0.3114849715528149	85.7088488686324	far	V3
3	4.0	ltm	362	diff_vonmises	-0.3106010343746569	-17.79612838206565	0.3619471742386959	118.81269274074111	0.3488360802408579	120.51669674023876	-0.0901342679428225	-0.3835176938136886	0.2933834258708661	130.13421114180613	far	V4
4	5.0	ltm	362	diff_vonmises	0.0398783049694524	2.284858568885205	2.1815555373470192	0.9923517828610742	1.4244677140332633e-20	2.107586377574442	0.2039770402855535	-0.3285610421874338	0.5325380824729875	93.04520433525744	far	V3ab
5	6.0	ltm	362	diff_vonmises	-0.2188943182296937	-12.541720593955008	0.4477708756092972	131.54581017140407	0.4325428703430096	132.52613765978404	0.1409208945692803	-0.3344234766311693	0.4753443712004497	127.39184613762284	far	IPS0
6	7.0	ltm	362	diff_vonmises	0.3664186112042117	20.99423995704635	1.388645287162059	1.113974173214319	0.0620057754352044	2.041818938467662	0.1151532814560017	-0.2764835950209285	0.3916368764769303	109.2403919161589	far	LO1
0	1.0	ltm	363	diff_vonmises	0.1093235655520535	6.26377890745446	0.2542769475968521	82.75301750213264	0.2376408765885604	85.97306254795672	-0.3985624863921337	-0.5878105508710458	0.189248064478912	136.48281477476263	far	V1
1	2.0	ltm	363	diff_vonmises	0.1639935247265888	9.396136834307846	0.5594958409448647	130.97013441708427	0.5447325064834463	132.4355665097153	-0.0098524224730596	-0.3359711134613228	0.3261186909882632	108.62417209246344	far	V2
2	3.0	ltm	363	diff_vonmises	0.0581820317297848	3.333584861612914	1.8098579633487757	1.688872099729347	0.7337744292387911	2.4453232982161395	0.1084309777506093	-0.207522443940909	0.3159534216915184	75.73777902459284	far	V3
3	4.0	ltm	363	diff_vonmises	-0.1008011526294038	-5.775480615718882	0.2024707852340032	57.327527497265486	0.1840564072414295	59.21020346817156	-0.1746415134080567	-0.3975647137230442	0.2229232003149874	152.69666867364424	far	V4
4	5.0	ltm	363	diff_vonmises	-0.014418054629628	-0.826093679066745	1.46392608086821	2.5174236480699523	0.5258317559622998	3.6712734060491448	0.1508750281260549	-0.3062833640942638	0.4571583922203187	86.23132507185969	far	V3ab
5	6.0	ltm	363	diff_vonmises	-0.235691770078097	-13.50414369144274	0.5563566779149802	155.76297892985062	0.5423136541574226	156.92221495176662	0.1164268541803394	-0.3358573517946386	0.4522842059749781	114.38045774569788	far	IPS0
6	7.0	ltm	363	diff_vonmises	0.365259291006943	20.92781580263858	0.8378674056252917	53.478538439460976	0.8075509969653237	54.35993111661049	0.0406389054895406	-0.2106439350809683	0.251282840570509	90.53193180653976	far	LO1
0	1.0	ltm	364	diff_vonmises	0.2318006165108279	13.281197014600949	3.826594050686497	0.4695018716151998	8.244044476162806e-18	2.488069123629446	-0.0436781682079325	-0.3958213029470972	0.3521431347391647	70.03546332542348	far	V1
1	2.0	ltm	364	diff_vonmises	-0.1249417545271533	-7.158635219365431	0.9467822336907096	133.8236991172875	0.9247116775295072	135.14882642012086	0.1275321713470631	-0.3403479370344371	0.4678801083815003	86.31726037886907	far	V2
2	3.0	ltm	364	diff_vonmises	0.0237908910763134	1.3631176495282116	0.856765325968948	217.8502936722297	0.8419907152430255	218.9586749817686	0.2687190096009999	-0.3490545715931255	0.6177735811941254	94.01997261039448	far	V3
3	4.0	ltm	364	diff_vonmises	-0.0071355114682273	-0.4088346917966227	1.6696080401958338	1.1375054098489572	4.494482872996825e-21	2.843144251302889	0.0733326404460945	-0.4338503375350012	0.5071829779810957	105.44390799603836	far	V4
4	5.0	ltm	364	diff_vonmises	-0.0257458746646798	-1.4751299581589512	1.9440632032797656	0.9520064836072984	1.9849076174357542e-10	1.6376710245479271	0.2220915942739701	-0.2507539227516273	0.4728455170255974	98.3361791970284	far	V3ab
5	6.0	ltm	364	diff_vonmises	-0.2410553226619235	-13.811452617692488	0.910686554616666	1.45058280239348	2.719322153951073e-19	2.271047710508658	0.1096370438657677	-0.2852244681494474	0.3948615120152152	131.88969708454044	far	IPS0
6	7.0	ltm	364	diff_vonmises	0.2121238435336344	12.153800968570692	1.4554516739341896	119.96001448939428	1.434728286719662	120.68413170673962	0.1344556407834787	-0.2236324195909951	0.3580880603744738	70.28643651566614	far	LO1
0	1.0	ltm	365	diff_vonmises	0.23166399307934	13.273369068594096	2.5946805819641288	0.950750089354189	0.1558020739354318	3.911174189586712	-0.150380910465483	-0.5763695452533747	0.4259886347878916	74.5665363984414	far	V1
1	2.0	ltm	365	diff_vonmises	-0.0531074642910626	-3.042833564519618	1.05088905156875	200.67373031455375	1.0344554842460492	202.149343745477	0.1075216195336281	-0.3707593986185671	0.4782810181521952	80.84306836427726	far	V2
2	3.0	ltm	365	diff_vonmises	0.0242625776411948	1.3901432989489413	0.8780979557298774	100.83912684000347	0.8496226784101965	102.13075701820914	0.143225841251116	-0.3393890694167378	0.4826149106678539	90.4559429083333	far	V3
3	4.0	ltm	365	diff_vonmises	0.0021076398414677	0.1207588676497219	1.2082657960244887	1.318499732884856	2.5447044208055627e-17	3.107283463481357	0.0073631871910015	-0.4497542178395606	0.4571174050305621	120.38697704230054	far	V4
4	5.0	ltm	365	diff_vonmises	-0.0030769852593605	-0.1762982689853287	1.4153728175176117	2.577815358787109	0.3562764303451753	3.923005141582259	0.214127202058609	-0.3772942877722511	0.5914214898308601	93.44585889338391	far	V3ab
5	6.0	ltm	365	diff_vonmises	-0.1014490652644326	-5.812603275199229	1.2860931949206598	1.389606071665087	2.5720521439161454e-14	2.6259163556988185	0.1308716580642899	-0.376016077283669	0.5068877353479591	117.52082659287858	far	IPS0
6	7.0	ltm	365	diff_vonmises	-0.0055833641102892	-0.3199031990043876	0.6561511164906222	154.27812545242264	0.6400311332275963	156.19597534663905	-0.0512505671468872	-0.4094783733305576	0.3582278061836703	98.07448593457433	far	LO1
0	1.0	ltm	366	diff_vonmises	-0.4684732713725433	-26.841541264333625	0.2636003657457872	2.50709201692648	2.8001490456040523e-16	4.136864647592001	-0.1479463433394093	-0.3571026063412644	0.209156263001855	160.3492542980753	far	V1
1	2.0	ltm	366	diff_vonmises	0.1826822234950532	10.4669203983322	0.6505387125910239	52.40847250044188	0.619464234461213	53.10631416900153	0.1212740563014254	-0.2175391965370652	0.3388132528384906	107.96497673117032	far	V2
2	3.0	ltm	366	diff_vonmises	0.0134272206806962	0.7693230755946734	1.3244887241698096	31.770571152444344	1.2781687541544655	32.03329556804635	0.1640487299941799	-0.1155244295995658	0.2795731595937458	78.19355625775276	far	V3
3	4.0	ltm	366	diff_vonmises	-0.4093916206958388	-23.456412033892214	0.8230437994374264	81.46735261120726	0.7970117791990862	82.5427231656699	0.0790277927651246	-0.2685380471801277	0.3475658399452523	92.3549016119336	far	V4
4	5.0	ltm	366	diff_vonmises	-0.064864864257674	-3.7164829606537055	2.211317143917167	0.6270682439229701	3.177317311290273e-14	1.0226240018984156	0.1808732707709772	-0.1586310103320563	0.3395042811030336	92.43177735393876	far	V3ab
5	6.0	ltm	366	diff_vonmises	-0.4276877747473813	-24.504704442366776	0.6807780538214036	122.14777172748111	0.6649079184555151	122.74528945511749	0.202912879816175	-0.2308321547325906	0.4337450345487657	107.34981842032154	far	IPS0
6	7.0	ltm	366	diff_vonmises	0.1702052539974705	9.752042705007248	1.1510340553830856	200.2057175054896	1.138000130829914	201.09270516632452	0.159713492794026	-0.2565290091440246	0.4162425019380507	79.46168202130838	far	LO1
0	1.0	ltm	367	diff_vonmises	-0.5302495813918131	-30.381063102329524	0.000689294355174	633.7362216298243	1.0585206667418595e-20	635.2242966137821	-0.1673002690862262	-0.3063447506367964	0.1390444815505702	172.0926507101184	far	V1
1	2.0	ltm	367	diff_vonmises	0.4894204761607906	28.041727691296423	0.4977216564406511	119.19929369992876	0.4861837714314426	119.9407063937956	0.0757016725795836	-0.2246625866966258	0.3003642592762094	120.06428827563832	far	V2
2	3.0	ltm	367	diff_vonmises	0.1191301995414709	6.825657646277619	1.6300426232847218	53.92046095547792	1.6097468966199902	54.02699880335864	0.138380372101647	-0.0719290354737856	0.2103094075754326	71.36986708825413	far	V3
3	4.0	ltm	367	diff_vonmises	-0.4798800433097066	-27.495101154201347	0.935009758342218	110.41309320291263	0.9191002571575564	111.52179305453517	-0.027776754005842	-0.2401342333963363	0.2123574793904943	81.34729353359486	far	V4
4	5.0	ltm	367	diff_vonmises	-0.1341173461021276	-7.684357891147256	4.47808098563743	0.3007229864743491	0.1721706649634353	0.750833494368906	0.104889196437534	-0.1163185913001779	0.2212077877377119	61.16358810489388	far	V3ab
5	6.0	ltm	367	diff_vonmises	-0.5216241473710724	-29.886862136472526	0.728354202874688	129.9000748882306	0.714562285641608	130.61874984986366	0.1352585343984174	-0.2190647959184133	0.3543233303168307	101.31937574797986	far	IPS0
6	7.0	ltm	367	diff_vonmises	0.1813059502291649	10.388065748740114	1.2572617235390788	124.1283745551383	1.240649658651732	124.88403791580492	0.0858490609535849	-0.2068930823084205	0.2927421432620054	74.55000591294765	far	LO1
0	1.0	ltm	368	diff_vonmises	0.2198507153573285	12.59651811290692	5.515851227941723	0.422312891354871	0.0065033508003157	3.490382169260821	-0.1733831522341747	-0.5542855767988937	0.3809024245647189	57.63921159745408	far	V1
1	2.0	ltm	368	diff_vonmises	-0.0185290463409037	-1.0616361537361048	3.0143629256959565	0.8338290161340438	0.1837395074268441	2.597703304999839	0.0549482405068382	-0.3831612276951419	0.4381094682019801	71.16044343048509	far	V2
2	3.0	ltm	368	diff_vonmises	-0.0882524876933175	-5.056495076357334	0.6757312330453055	137.2879151528684	0.660977613612705	138.2664215471608	0.1142583552825371	-0.2723140231304573	0.3865723784129944	103.65973149505491	far	V3
3	4.0	ltm	368	diff_vonmises	0.0016006282197097	0.0917092415589096	0.0002317015935122	3694.391449881726	2.2877499376092043e-30	3696.2590115522494	-0.1609878989340813	-0.4334596608770198	0.2724717619429384	179.97639938107682	far	V4
4	5.0	ltm	368	diff_vonmises	0.0320271176653961	1.8350186721960835	1.8975110696284372	0.8525255961178037	4.24032225891314e-22	1.8601965511553225	0.1299503577206889	-0.2864815986246007	0.4164319563452897	99.45324640978636	far	V3ab
5	6.0	ltm	368	diff_vonmises	-0.216396351512963	-12.398597643722187	0.1054350543548905	10.141323607917135	1.0609159656801728e-07	11.004987044123174	0.0370365510521617	-0.3029932567028284	0.3400298077549901	172.7702452666872	far	IPS0
6	7.0	ltm	368	diff_vonmises	0.4298838043561563	24.63052767063535	1.0904131679728144	2.0452073594672497	0.4020705130890653	2.8751287432812807	0.0764569926638761	-0.2172297227641214	0.2936867154279975	99.08680215155944	far	LO1
0	1.0	ltm	369	diff_vonmises	-0.4125988498638626	-23.640172729151228	0.3856774225413605	1.6658626655742732	4.179442911693197e-13	4.094422738443721	-0.2758523574266648	-0.4778824390064889	0.2020300815798241	155.16284403948086	far	V1
1	2.0	ltm	369	diff_vonmises	0.2328716970512288	13.34256540908451	0.9740709568985948	118.8571880021834	0.9554395230361992	119.75951212914607	0.1193748827085059	-0.2432878976308519	0.3626627803393578	85.90252164253977	far	V2
2	3.0	ltm	369	diff_vonmises	0.1179318696790493	6.75699840269637	4.685955563154259	0.2782025380790638	1.855098044231677e-19	0.7443967519486265	0.1145320101569417	-0.1184545966883074	0.2329866068452492	63.12328295757385	far	V3
3	4.0	ltm	369	diff_vonmises	-0.4976001938200885	-28.51039099078282	0.6676928704412006	132.2000539804325	0.6510163124508328	133.5060149739152	0.0598149056381061	-0.3208614635020641	0.3806763691401702	101.75721340371187	far	V4
4	5.0	ltm	369	diff_vonmises	-0.0868357034104167	-4.975319316466648	1.4789618344159114	1.525320961442265	0.2755597871031532	2.0204740377574804	0.2394076487027561	-0.2074250022034318	0.446832650906188	97.94294776214512	far	V3ab
5	6.0	ltm	369	diff_vonmises	-0.3395761997361112	-19.456283067970634	0.5379025273296282	122.16628771307806	0.5236950497140354	122.49304115695378	0.2437758930796292	-0.2192745697207563	0.4630504628003855	122.04837362114316	far	IPS0
6	7.0	ltm	369	diff_vonmises	0.1709884516836598	9.796916626950306	0.9637838472463824	217.94814549785025	0.9518858686952232	219.1654523411909	0.0873152586247272	-0.3026734858297821	0.3899887444545094	84.49607585116925	far	LO1
0	1.0	ltm	370	diff_vonmises	0.1216475245172775	6.96988974305421	3.550906681866453	0.4397502329352035	6.904151543320217e-12	3.659927165986485	-0.2658378790480525	-0.582234697160059	0.3163968181120065	72.77547764070815	far	V1
1	2.0	ltm	370	diff_vonmises	-0.0038925377428299	-0.2230259842595375	2.116336537069202	1.1697278063454957	0.3085599567667095	2.546355733267679	0.0855078048306245	-0.323127287718623	0.4086350925492475	79.4627788564496	far	V2
2	3.0	ltm	370	diff_vonmises	0.012265445208077	0.7027582442717767	1.436408728511262	2.53698629996856	0.6842144807724222	3.3772609311688675	0.1196143423443061	-0.2277102395308363	0.3473245818751425	82.88765992232769	far	V3
3	4.0	ltm	370	diff_vonmises	-0.1853814774550271	-10.62157625807268	0.3910981965453746	64.41410763895425	0.3649003536690647	66.06430527056563	-0.0579620538616421	-0.3870381431591116	0.3290760892974695	128.74603306847354	far	V4
4	5.0	ltm	370	diff_vonmises	0.0188047123912399	1.07743065497541	1.9173010868904383	1.4119584389388278	0.183740138636763	2.539709168472074	0.2283560188368028	-0.3259722164408732	0.5543282352776762	89.37465984901206	far	V3ab
5	6.0	ltm	370	diff_vonmises	-0.1646994276071537	-9.436582090110342	0.5598098985131448	74.61688468050103	0.5294597738632721	75.63372504756406	0.169426478279238	-0.334410648883976	0.503837127163214	116.6381660358353	far	IPS0
6	7.0	ltm	370	diff_vonmises	0.2832418556357525	16.22856290938237	1.3616238483601106	1.1289294453396814	0.0147310856479344	2.3196925955115897	0.086633216739867	-0.3334831526218941	0.4201163693617611	113.42096416316548	far	LO1
0	1.0	ltm	371	diff_vonmises	-0.0303099419983072	-1.736631753789325	0.1788038195644276	16.648628453864642	0.1211618496322241	19.14007482499392	-0.2827178986957159	-0.4904865982529141	0.2077686995571981	158.42904004817865	far	V1
1	2.0	ltm	371	diff_vonmises	0.0590713123481805	3.3845368878497677	0.741525090287541	1.6767336849051206	3.3374725884332296e-12	3.13277612083131	-0.0081955502049833	-0.3872992643076647	0.3791037141026813	140.05458346085155	far	V2
2	3.0	ltm	371	diff_vonmises	-0.0418331150543865	-2.396860936501537	1.0431590607185297	126.40820647116568	1.0249615833561396	127.16839586300551	0.1704154965008157	-0.2294634893927494	0.3998789858935652	84.58890226442267	far	V3
3	4.0	ltm	371	diff_vonmises	-0.100549329754502	-5.761052227802159	0.610538954836704	1.3307650110971003	2.532056289347792e-15	3.134428902173264	-0.1428132485670665	-0.3938562841118669	0.2510430355448004	146.38728690179326	far	V4
4	5.0	ltm	371	diff_vonmises	-0.0060476500172156	-0.3465048219586789	2.2246625074794584	0.6423923831925837	2.7255848625736002e-15	1.6826257344643911	0.0854917563628626	-0.2636691607437162	0.3491609171065789	92.1659478752639	far	V3ab
5	6.0	ltm	371	diff_vonmises	-0.4020598654343195	-23.03633340098432	0.4003893296111122	125.09592169337816	0.3864385846515153	126.34432435229472	0.037904802325908	-0.3452791403028161	0.3831839426287242	129.3967645753536	far	IPS0
6	7.0	ltm	371	diff_vonmises	0.2941433919148467	16.85317492838322	1.240255780387618	98.91767336493024	1.220862099113846	99.69841023023476	0.0537057965084244	-0.2026291997515397	0.2563349962599641	73.96621162249315	far	LO1
0	1.0	ltm	372	diff_vonmises	0.3424351918255601	19.62009124835734	0.6946652972969424	198.42637002625477	0.6803519654992791	201.2387250501639	-0.2487443422954456	-0.5337875980722764	0.2850432557768307	87.75798292611026	far	V1
1	2.0	ltm	372	diff_vonmises	0.0850608638586349	4.873628500836658	0.6402442749588332	111.44083632972472	0.6229578480452114	112.90324812485927	-0.029080867745467	-0.3175722364561686	0.2884913687107016	100.01347203801748	far	V2
2	3.0	ltm	372	diff_vonmises	0.0919177604221273	5.266499734482536	1.2407760605503229	154.94069231011306	1.2267313033829603	155.63348000545582	0.1338191351596336	-0.2059043395360333	0.339723474695667	76.58763367820086	far	V3
3	4.0	ltm	372	diff_vonmises	0.3068562886183855	17.58157025488177	2.992210361404429	0.2911187219397749	2.382911230926116e-16	1.9653346982308149	-0.1224199254541663	-0.3123133593266548	0.1898934338724884	79.41898504534947	far	V4
4	5.0	ltm	372	diff_vonmises	0.0183049479405223	1.0487962611986168	1.1099745038519977	125.80835239348326	1.0865077972130242	127.12966855319397	0.0798172173286957	-0.3298934583860546	0.4097106757147504	78.26514280803585	far	V3ab
5	6.0	ltm	372	diff_vonmises	-0.122506654319509	-7.019114254775983	0.7369380862492965	119.7735365022828	0.7155168197642227	121.26902539355324	0.0595264255100502	-0.3574053555881953	0.4169317810982456	96.40096462295114	far	IPS0
6	7.0	ltm	372	diff_vonmises	0.8961259552875215	51.3442351501041	0.0001388931577599	7772.895350617606	2.497739860928924e-31	7774.070147897863	-0.0151479380920136	-0.3587897187489943	0.3436417806569807	157.5592437381836	far	LO1
0	1.0	ltm	373	diff_vonmises	-0.1132665078632498	-6.489692860749568	1.0094164583280654	0.8624623429473072	1.2987770176763222e-21	2.35920083871114	-0.0792412521536926	-0.3361321973444709	0.2568909451907783	128.10286064181753	far	V1
1	2.0	ltm	373	diff_vonmises	-0.0236860397407046	-1.35711011052152	3.416761513089627	0.6794504769292768	0.0419182924869134	1.41343635263408	0.2443737733032117	-0.2173491566111839	0.4617229299143957	72.75311281134216	far	V2
2	3.0	ltm	373	diff_vonmises	-0.0374167907010622	-2.143824190095211	1.931961129534694	1.012585374700242	0.0605047206076286	1.5217457594122823	0.2544804644165744	-0.217030402102591	0.4715108665191654	95.77194179484158	far	V3
3	4.0	ltm	373	diff_vonmises	-0.3268464529008164	-18.726922300038225	2.837587720772959	0.9308173612673666	5.198227399185873e-16	2.1009692112086	0.2561205859586586	-0.3323540492778719	0.5884746352365305	81.58044938319738	far	V4
4	5.0	ltm	373	diff_vonmises	-0.0768731433025364	-4.404506669139707	1.218193860010493	1.3059774584119614	5.5007686643897216e-14	1.3657193732816209	0.2821514552363414	-0.1736628503751528	0.4558143056114942	119.99425441672452	far	V3ab
5	6.0	ltm	373	diff_vonmises	-0.3403305453195795	-19.4995038861977	0.9980932169949884	1.3281281836442358	3.841707960386455e-10	1.5544409049337229	0.2059420673213928	-0.1858050972621862	0.391747164583579	127.77383255179976	far	IPS0
6	7.0	ltm	373	diff_vonmises	0.2625831423482051	15.04490582783507	1.598881891068749	143.76503494302273	1.5814774444285744	144.1088007483644	0.2755859443975623	-0.1761275508403592	0.4517134952379216	70.96513913154283	far	LO1
0	1.0	ltm	374	diff_vonmises	0.1732054843812165	9.923943243562803	0.5972939778991991	130.13592482057703	0.5810273405459387	132.17867089893315	-0.1349088014789572	-0.4043426994802868	0.2694338980013295	98.79679473083024	far	V1
1	2.0	ltm	374	diff_vonmises	-0.0561296790370689	-3.215993714247979	0.7899804983180981	114.2369675454395	0.7701928600959754	115.38110112035746	0.0907771693970644	-0.2895127983972276	0.3802899677942921	94.408650862791	far	V2
2	3.0	ltm	374	diff_vonmises	0.0907925772641159	5.20203148834928	1.143708008859635	219.5253936260057	1.1304522001526656	220.3414569042227	0.2434194783088656	-0.2676765942857955	0.5110960725946612	81.44838964712395	far	V3
3	4.0	ltm	374	diff_vonmises	0.0128697991634569	0.7373851752470832	2.1958796017635884	0.7978624582090345	1.9336373629710012e-16	2.365729570618468	0.0588786354568048	-0.3711275662694394	0.4300062017262442	92.7511371908735	far	V4
4	5.0	ltm	374	diff_vonmises	-0.0024016253617005	-0.1376029971970225	0.982292655728134	65.32035205503634	0.9447161657534556	66.10095419016652	0.2071131387899072	-0.2479302313846894	0.4550433701745966	88.38408830623425	far	V3ab
5	6.0	ltm	374	diff_vonmises	-0.2064586928236615	-11.8292117425837	1.1559820009264894	2.1324715007303987	0.2610459975910941	3.1602425195681314	0.149087899049979	-0.3029909123025998	0.4520788113525787	105.18938310477373	far	IPS0
6	7.0	ltm	374	diff_vonmises	0.0371904437261617	2.130855463727858	1.3950381533093723	157.73575315520733	1.3780068745674936	158.66295666577776	0.0991236568574862	-0.2609872082111231	0.3601108650686093	70.38123631712912	far	LO1
0	1.0	ltm	375	diff_vonmises	0.0648878267254431	3.717798613144079	1.2344313452046376	0.7864408203682769	0.0605522837920688	2.9872930939052726	-0.2015047578213271	-0.4214259107881989	0.2199211529668718	109.08766025871104	far	V1
1	2.0	ltm	375	diff_vonmises	0.0671899456775013	3.849700313034095	1.2346220304607716	2.1926773455795816	0.4260552590887324	3.2987204038612545	0.076692822494672	-0.2733058964760959	0.3499987189707679	93.22039747456006	far	V2
2	3.0	ltm	375	diff_vonmises	0.0664054195322867	3.80475027599563	1.0674690663791206	88.81617428564212	1.0447264560115446	89.43647150583446	0.1628501548884919	-0.1954993301021836	0.3583494849906756	84.21189902460881	far	V3
3	4.0	ltm	375	diff_vonmises	-0.1934638029030773	-11.084659394897132	1.856768842558188	0.7005036866231038	1.007013500945142e-16	2.160864758888632	0.0015506248430057	-0.3354860586855238	0.3370366835285295	100.39990098560212	far	V4
4	5.0	ltm	375	diff_vonmises	-0.0252786594350877	-1.4483604973790871	1.939298891243536	1.0143479295498732	0.1973943646752019	1.688998172641058	0.1892812832314058	-0.2134305427074503	0.4027118259388561	89.04690212036567	far	V3ab
5	6.0	ltm	375	diff_vonmises	-0.3006096173170243	-17.223662353308278	0.5287150589525245	121.74102914691056	0.5139043954929087	122.50733474918876	0.1469952983809541	-0.2679251207036675	0.4149204190846216	119.38247553820322	far	IPS0
6	7.0	ltm	375	diff_vonmises	0.1829389232131775	10.481628208782915	1.1023977989051648	149.6725532880413	1.087057904791687	150.59169309772196	0.1009433507301835	-0.2434756518097991	0.3444190025399827	79.83500003145136	far	LO1
0	1.0	ltm	376	diff_vonmises	-0.0070655243216221	-0.4048247236759836	1.152412920053708	0.6782532399828883	1.0072436196623032e-14	3.190546218954967	-0.2566301091689019	-0.4827298667392684	0.2260997575703665	122.49528256137276	far	V1
1	2.0	ltm	376	diff_vonmises	0.0397723830702749	2.2787896911043206	1.5390405260107392	0.9021351351294176	9.466253289978706e-14	2.211120095845853	0.0449805810154212	-0.3336341623398795	0.3786147433553007	109.25002614049411	far	V2
2	3.0	ltm	376	diff_vonmises	-0.043518150606046	-2.493406361941126	1.1040627154339857	123.4100419581086	1.086497710231195	124.06364673013164	0.1720441187847114	-0.2062948558441739	0.3783389746288854	82.63278707971634	far	V3
3	4.0	ltm	376	diff_vonmises	-0.2225552617757102	-12.751477208177407	1.3520309300211375	0.7422881965788952	1.151637412853483e-09	2.3344662203995385	-0.0695236404343015	-0.3513263134513778	0.2818026730170763	115.06802579998929	far	V4
4	5.0	ltm	376	diff_vonmises	0.0207969535799334	1.191577666859674	2.248321194187158	0.7194321857053274	4.5395901175020404e-17	1.6601199609574984	0.1339606411020737	-0.2597779632725065	0.3937386043745803	91.68578190807892	far	V3ab
5	6.0	ltm	376	diff_vonmises	-0.3398401756373568	-19.47140777300517	0.4939653842435996	135.88023308216262	0.4795965220684308	136.99751013120957	0.0927121446768239	-0.3267570661984003	0.4194692108752242	120.5409025046573	far	IPS0
6	7.0	ltm	376	diff_vonmises	0.3005161712636885	17.218308288839985	1.0387433573180678	107.3894598922081	1.0203056281131548	108.14861738557262	0.1112228618940776	-0.2088743948156555	0.3200972567097331	83.33742494035619	far	LO1
0	1.0	ltm	377	diff_vonmises	0.3060642471566897	17.536189621927228	0.6287289217684016	167.62686042695236	0.613278523915579	170.37967244872522	-0.24683252588936	-0.5183618272723152	0.2715293013829551	92.2957302996009	far	V1
1	2.0	ltm	377	diff_vonmises	0.0442678078117488	2.536358555909465	0.6365756290307844	143.30619605360872	0.6226370866014275	144.76657162244442	-0.0150303212171181	-0.3236683394833317	0.3086380182662136	100.9369185037214	far	V2
2	3.0	ltm	377	diff_vonmises	0.1125809605364724	6.45041389226875	1.234201698197489	186.49147357098863	1.2201285213241044	187.3294822224052	0.1619410738804703	-0.2488214013879002	0.4107624752683705	76.81150218525696	far	V3
3	4.0	ltm	377	diff_vonmises	0.295929489550809	16.955510784722154	2.586495055175873	0.4389612805902115	3.3447378940826695e-19	2.249155394543928	-0.0940501051842264	-0.3564684378399327	0.2624183326557063	85.47392577490513	far	V4
4	5.0	ltm	377	diff_vonmises	0.0146265510771426	0.838039645552801	1.1054378301925691	153.42466611587693	1.0853203138259762	154.6794834140914	0.1292305118030441	-0.3297035572130937	0.4589340690161378	79.62728541494681	far	V3ab
5	6.0	ltm	377	diff_vonmises	-0.1044409030212413	-5.984022951652259	0.7611960695501807	78.5959685415452	0.7272293400683874	80.02997242484932	0.0940652744314576	-0.3570514003724314	0.451116674803889	96.26390206608802	far	IPS0
6	7.0	ltm	377	diff_vonmises	0.0664755324113325	3.8087674480544687	0.977208804855322	80.23772913806694	0.95355458129421	81.29824835098766	0.0069813869582517	-0.241441708640524	0.2484230955987758	81.46445067224735	far	LO1
0	1.0	ltm	378	diff_vonmises	0.2159923088198983	12.375447702666484	4.13912723364772	0.5117276475851326	0.006981986032339	3.7180928306579935	-0.1950849568230395	-0.5888974853456601	0.3938125285226206	66.58547844918778	far	V1
1	2.0	ltm	378	diff_vonmises	-0.0875561916516795	-5.01660025187981	2.6658740449325133	0.9087538599091272	0.1188622425031173	2.818942109942581	0.0525823847803158	-0.414128282442887	0.4667106672232028	77.38659877110194	far	V2
2	3.0	ltm	378	diff_vonmises	-0.0958085252130649	-5.489424136081359	0.7609468254301899	208.85705291252305	0.7472999699504133	210.1552317779232	0.1629990461080126	-0.355475052269206	0.5184740983772187	97.55380838453152	far	V3
3	4.0	ltm	378	diff_vonmises	0.0251107805602116	1.438741746379282	0.0005635262277101	1931.3831803818728	1.5039490516346513e-22	1933.4762584043897	-0.1598825306973026	-0.5063160946177732	0.3464335639204705	179.9175300874639	far	V4
4	5.0	ltm	378	diff_vonmises	0.0341513259209302	1.956726840045034	1.8835053839086773	1.0234409622479796	2.506362418547281e-20	2.301261868296401	0.142868874947997	-0.3544856471695178	0.4973545221175148	99.79599452919928	far	V3ab
5	6.0	ltm	378	diff_vonmises	-0.2391378432273271	-13.70158913878698	0.4208716338744853	2.9931693699701487	4.20362930259853e-18	4.199577559088594	0.0261736852818685	-0.3690547117117517	0.3952283969936203	155.3923950888145	far	IPS0
6	7.0	ltm	378	diff_vonmises	0.4194136184710003	24.030630208698465	1.2050218624396118	2.3501198406948705	0.5512511394428157	3.191431501202425	0.0750633010100298	-0.2131681347213632	0.2882314357313931	90.20768964531166	far	LO1
0	1.0	ltm	379	diff_vonmises	-0.3171313578256752	-18.170288354664304	0.1795466716095581	3.524520262903305	8.537792744539294e-12	5.996490175021431	-0.2884804805883179	-0.4893728251776597	0.2008923445893418	167.38681859423633	far	V1
1	2.0	ltm	379	diff_vonmises	0.1882277288271494	10.784654449128602	0.8350658666372643	63.314669416627375	0.8017687070019922	64.34681746675791	0.0887680317605479	-0.2625358211394824	0.3513038529000303	92.28475790771913	far	V2
2	3.0	ltm	379	diff_vonmises	0.04452278035569	2.550967406569012	3.21161022359139	0.3931128576360395	0.0951320815885736	0.8795064780237625	0.1139881534261554	-0.1316182631807014	0.2456064166068568	73.25881829931097	far	V3
3	4.0	ltm	379	diff_vonmises	-0.4671310121776806	-26.76463547745536	0.6263348376119252	155.92379661205217	0.6136927804382503	157.28622617725932	0.0084363794522417	-0.3133122801927808	0.3217486596450225	102.924507730484	far	V4
4	5.0	ltm	379	diff_vonmises	-0.0491747865668902	-2.817507728739425	2.0686716163194414	0.8157536270802784	0.0077193893328428	1.4741168500234991	0.1930655572193318	-0.225948335903839	0.4190138931231708	95.04846919837844	far	V3ab
5	6.0	ltm	379	diff_vonmises	-0.3533969771006687	-20.24815528054972	0.5252294555389309	149.82158557689888	0.5132283153520488	150.42529995022218	0.1865671809566791	-0.2532769959915519	0.4398441769482311	120.94090939657848	far	IPS0
6	7.0	ltm	379	diff_vonmises	0.2280212649702749	13.064656122030994	0.9078638418041304	183.5498725577709	0.8952601673286703	184.6352804876243	0.091267431991433	-0.2740229133928231	0.3652903453842562	87.6426467061629	far	LO1
0	1.0	ltm	380	diff_vonmises	0.0855814760392012	4.903457381546214	1.1194338691660983	0.7002826596897559	7.253760726801786e-16	3.059141278965072	-0.2318561081894339	-0.4596974210901521	0.2278413129007181	123.70048228950267	far	V1
1	2.0	ltm	380	diff_vonmises	0.0049154500209914	0.281634540610303	1.5424803482100622	0.9097116538497628	1.7786846597738963e-14	2.2489694901146304	0.04283248068718	-0.339606115113119	0.3824385958002991	109.15422845508022	far	V2
2	3.0	ltm	380	diff_vonmises	-0.0126578695724731	-0.7252425041297725	1.0247096127297828	142.72861961153376	1.0081644573412154	143.4515347762174	0.1979159152055984	-0.2309192795037358	0.4288351947093343	86.06578030755432	far	V3
3	4.0	ltm	380	diff_vonmises	-0.1455668045034511	-8.340363535253696	1.3508351613561471	0.8212121822235482	1.6919960804356001e-18	2.516117812457769	-0.0665028065755876	-0.3780457091186979	0.3115429025431103	115.23173949394626	far	V4
4	5.0	ltm	380	diff_vonmises	0.013548934568525	0.776296767675388	2.1870730740868813	0.7396326039898695	4.202502491078272e-18	1.5080765251045896	0.1626349306151109	-0.2349446844027924	0.3975796150179034	92.93277590406947	far	V3ab
5	6.0	ltm	380	diff_vonmises	-0.3361845056753304	-19.261953312888306	0.4479743303027531	117.77492625949746	0.4334119263784859	118.70970925598664	0.0981932792447999	-0.2955514785604265	0.3937447578052264	126.25001562856256	far	IPS0
6	7.0	ltm	380	diff_vonmises	0.3119160322220568	17.87147220879045	1.331052912169832	93.1670440608356	1.3109314747691545	93.6843360896296	0.1328787924838934	-0.1664582847065432	0.2993370771904367	74.75679001087215	far	LO1
0	1.0	ltm	381	diff_vonmises	-0.0610337404223329	-3.496975734096688	0.1294632574792527	58.528123926569535	0.1160865795012111	60.76110208598953	-0.2660466239782106	-0.431893189492456	0.1658465655142453	162.36709626215034	far	V1
1	2.0	ltm	381	diff_vonmises	0.218574457100641	12.52339390123	0.5248785968964923	90.34299015254794	0.5071592145854602	91.3991125166552	0.0379059434481234	-0.2730271502261621	0.3109330936742855	115.44739297835002	far	V2
2	3.0	ltm	381	diff_vonmises	0.1073289469022649	6.14949567708349	1.3405733377985103	95.84829353087154	1.321960950847366	96.27017496239756	0.1531312149561259	-0.1501022139717331	0.3032334289278591	75.57110433540669	far	V3
3	4.0	ltm	381	diff_vonmises	-0.2828356472893149	-16.205288885528503	0.6099677688304705	121.88299403397136	0.5956539723679353	123.36133339890088	-0.0610760102829317	-0.3083945998545676	0.2473185895716358	100.55575165495152	far	V4
4	5.0	ltm	381	diff_vonmises	-0.0442227143933548	-2.533774893351671	1.4425458836689995	2.432821252672755	0.6876465773121483	3.041215198577332	0.1709136401771446	-0.1938249200057504	0.364738560182895	84.86941654744294	far	V3ab
5	6.0	ltm	381	diff_vonmises	-0.3362511581716552	-19.265772219621727	0.6194203708654309	178.97123084346327	0.6087765551594767	179.72360660332592	0.1599693399481552	-0.2531837668062415	0.4131531067543967	110.64663021162822	far	IPS0
6	7.0	ltm	381	diff_vonmises	0.2076756035671622	11.89893559223042	1.286078785894962	113.88998281263852	1.2686865401266345	114.5223135774666	0.113722448026607	-0.1868318919576825	0.3005543399842896	74.9669824536077	far	LO1
0	1.0	ltm	382	diff_vonmises	0.1796523404799865	10.2933208891505	4.540299576709335	0.4441854002617898	3.103196518660591e-20	2.443232422943748	-0.0230915712594347	-0.3888108691615003	0.3657192979020656	64.1539221693998	far	V1
1	2.0	ltm	382	diff_vonmises	-0.0740843304867205	-4.244719464941463	1.1721275824222217	135.00131463576878	1.1489453483844068	136.04757629077454	0.1945997345512111	-0.3052004216443276	0.4998001561955387	78.98647401809367	far	V2
2	3.0	ltm	382	diff_vonmises	0.0537364183806187	3.0788699793586733	0.8721685485287575	76.63174494940631	0.835657512675882	77.58234589829036	0.2387009436091745	-0.3023296525467236	0.5410305961558981	93.89127799897592	far	V3
3	4.0	ltm	382	diff_vonmises	-0.1415802951794613	-8.111953375999526	1.9650679553252317	1.1697818715044843	5.2160168604956e-21	2.601367612805406	0.1830526693889338	-0.4022933102301962	0.58534597961913	97.80379503198058	far	V4
4	5.0	ltm	382	diff_vonmises	-0.0372911911415679	-2.136627865427485	1.836883155836622	1.2033958574622254	0.0331354312913226	1.618137329378581	0.323460513679868	-0.2341079424659349	0.557568456145803	99.52095456001246	far	V3ab
5	6.0	ltm	382	diff_vonmises	-0.1955545926924852	-11.204452825679253	0.9909999507316286	1.5483935122581327	1.302963773077594e-12	2.0204501584577854	0.2048970774210586	-0.2490207720761531	0.4539178494972118	128.66694135906445	far	IPS0
6	7.0	ltm	382	diff_vonmises	0.1393023712609654	7.981437949417813	1.2537831600566878	152.42859487871164	1.2355472756709018	153.21560781799818	0.2064006970732776	-0.2514866538613916	0.4578873509346692	77.22597505400111	far	LO1
0	1.0	ltm	383	diff_vonmises	0.1266421849428301	7.25606270553939	6.351521494219215	0.3838341883619386	2.899397514929013e-20	2.561955001022105	-0.0300965453824511	-0.4077466534855152	0.3776501081030641	54.04012787649785	far	V1
1	2.0	ltm	383	diff_vonmises	-0.016332089356646	-0.9357597907663494	2.5762372025386404	1.497819050361915	0.6686199943061093	2.384462138073073	0.2341678280004203	-0.2757734405411911	0.5099412685416114	69.2512460791203	far	V2
2	3.0	ltm	383	diff_vonmises	0.013816459003993	0.7916247887443272	1.9503018155513283	0.7953790772481357	0.0794632213144477	1.4115064329234457	0.1612748090946094	-0.1989897638754676	0.3602645729700771	93.77950508698368	far	V3
3	4.0	ltm	383	diff_vonmises	-0.3370740731185676	-19.31292177297804	2.2723747007238595	0.9464774093849264	7.50594950249828e-14	2.1031631817767744	0.1924316549765471	-0.329128498511798	0.5215601534883452	91.1101361126238	far	V4
4	5.0	ltm	383	diff_vonmises	-0.021441973262211	-1.2285345723570482	1.6770772497831588	1.249983918339571	2.213919461868372e-17	1.4700240495764711	0.3454561554971419	-0.213716835848833	0.559172991345975	105.23137786374892	far	V3ab
5	6.0	ltm	383	diff_vonmises	-0.205975573798869	-11.801531061460617	0.4045302309860485	38.59744404812841	0.3649660820185895	38.74472179640452	0.2465237291901214	-0.2053277371177126	0.4518514663078341	137.23235703531884	far	IPS0
6	7.0	ltm	383	diff_vonmises	0.1256383897637605	7.198549478283121	0.8119624000000677	118.16360300941474	0.7903584395796999	118.93575817673194	0.2544554571510531	-0.2750010617479361	0.5294565188989893	98.06607469499588	far	LO1
0	1.0	ltm	384	diff_vonmises	0.2199802564089667	12.603940268439471	2.146501808093838	1.0743481944793931	0.2332035989875303	3.431504773466373	-0.1019717104059108	-0.4718965051246294	0.3699247947187186	77.86942828806923	far	V1
1	2.0	ltm	384	diff_vonmises	-0.0807469598293095	-4.6264600067318336	1.6727080285785636	2.1116444911146743	0.5347341317569967	3.385575251689217	0.1198796493585901	-0.3209539168046369	0.4408335661632271	81.21577042991527	far	V2
2	3.0	ltm	384	diff_vonmises	-0.0474710681375107	-2.719891853257322	0.9803255160224544	162.58178425106695	0.9662334246444784	163.35602128039434	0.1747417469183645	-0.2345221037255989	0.4092638506439634	87.33472996785792	far	V3
3	4.0	ltm	384	diff_vonmises	-0.1259836237209286	-7.218329926973457	1.9016275192721932	0.6873392725600889	1.994303252994668e-22	2.0929692828543374	0.0108091600487233	-0.3254375410963548	0.3362467011450781	99.33086775399542	far	V4
4	5.0	ltm	384	diff_vonmises	0.0181570787131228	1.040323978548766	2.20593754173696	0.7766584254092889	1.58309521803359e-16	1.8822486359010295	0.125425881107299	-0.2944129556076059	0.419838836714905	92.54309275783493	far	V3ab
5	6.0	ltm	384	diff_vonmises	-0.2711587329549244	-15.536250976432116	1.308909816239965	1.155085055465524	1.6512940744264438e-17	2.393519236714757	0.0800151579281551	-0.3473053977805818	0.4273205557087369	116.42915604894324	far	IPS0
6	7.0	ltm	384	diff_vonmises	0.152321382034345	8.72737232016781	0.6190558256881568	128.27756685162345	0.6009499983215272	129.74177016678317	0.0509103732062286	-0.3584799717279594	0.409390344934188	105.4993670939772	far	LO1
0	1.0	ltm	385	diff_vonmises	0.1916728707026163	10.982046538416643	0.6593070646619145	80.31338991180361	0.6323490900659445	82.40291604969359	-0.1563241657704921	-0.4052294369588693	0.2489052711883772	92.84277939895507	far	V1
1	2.0	ltm	385	diff_vonmises	0.0468125018743369	2.682158785847764	0.90450313191377	106.53616950995908	0.8842362090499108	107.56110558793674	0.0836334556936648	-0.2578564138449053	0.3414898695385702	87.93484535050774	far	V2
2	3.0	ltm	385	diff_vonmises	0.098040839964056	5.617326349857944	1.1376934728057515	106.43848345957308	1.119947109912566	106.98479669342892	0.1533606032749475	-0.1759025814803454	0.3292631847552929	81.5528910627842	far	V3
3	4.0	ltm	385	diff_vonmises	-0.1503563372995469	-8.614783550309479	2.43671678864597	0.5370917856702091	7.056663830947947e-19	1.8363617709641624	0.0195161436333262	-0.2898815723096664	0.3093977159429926	88.10303791068543	far	V4
4	5.0	ltm	385	diff_vonmises	-0.0151291041663252	-0.8668338165442282	1.5518819383110911	1.9177096828913291	0.5476392123223843	2.664725957741621	0.1666701236158552	-0.2217186382162548	0.38838876183211	85.48246139541018	far	V3ab
5	6.0	ltm	385	diff_vonmises	-0.2731151487940109	-15.648345346984325	0.6085708779893912	127.40076483904254	0.5932713253528117	128.2530626331835	0.1436953442559883	-0.2694424243839677	0.413137768639956	110.99051359762656	far	IPS0
6	7.0	ltm	385	diff_vonmises	0.0970008282846026	5.557738069980951	0.8470551077308012	156.23435465871344	0.8315782515961285	157.5257027121951	0.061598743753862	-0.3092163325571242	0.3708150763109863	89.65277094950835	far	LO1
0	1.0	ltm	386	diff_vonmises	0.214812729092039	12.307862762660951	0.2419765928045541	64.59252653053963	0.2239081039810929	67.46925313958927	-0.3610750547911916	-0.523418954977048	0.1623439001858564	138.3533722335444	far	V1
1	2.0	ltm	386	diff_vonmises	0.2485351030585241	14.240012466102389	0.72535953708103	120.68418009969456	0.7084865841058814	122.05302656673584	-0.0033529932282334	-0.3036429417584081	0.3002899485301746	94.7108622110512	far	V2
2	3.0	ltm	386	diff_vonmises	0.1825226211592605	10.457775858090848	3.015473058068346	0.460423985536182	0.1726738533135426	1.07596980551578	0.1004020303435435	-0.1561987037237858	0.2566007340673294	73.00841755837777	far	V3
3	4.0	ltm	386	diff_vonmises	0.0432150973331073	2.4760426884341085	0.0003355780156002	1760.9027249235974	2.0132818903436544e-26	1762.6862335929052	-0.1898017012457558	-0.3778909622682818	0.188089261022526	179.8773756613511	far	V4
4	5.0	ltm	386	diff_vonmises	-0.0131038261663688	-0.7507939348060302	1.718684199480084	1.391769961594915	0.4197204178360606	2.132022842759998	0.1605589888999539	-0.2163084769662275	0.3768674658661815	85.67569326790078	far	V3ab
5	6.0	ltm	386	diff_vonmises	-0.2742946902600155	-15.715928094747058	0.4224219029758858	108.7306271446368	0.4086794340839593	109.39430256463272	0.1225139998408479	-0.2483299244900187	0.3708439243308667	130.54793846430826	far	IPS0
6	7.0	ltm	386	diff_vonmises	0.4280171125848909	24.52357411049005	0.9094186070424782	55.22194418332028	0.883323351837224	55.860937443766375	0.0702955646558081	-0.1673557145109576	0.2376512791667657	88.69592206487297	far	LO1
0	1.0	ltm	387	diff_vonmises	0.2725161254441574	15.614023837207924	4.445236528034375	0.3727149773881277	5.1929179577618806e-17	2.4163294329016445	-0.0811520724428004	-0.3845289858678771	0.3033769134250766	64.85341463027243	far	V1
1	2.0	ltm	387	diff_vonmises	0.0054268190848091	0.3109338297406137	0.96114284364264	14.072630944181826	0.786503510862928	15.40565254884663	0.0670093232454727	-0.3202075320649353	0.387216855310408	87.95824377091091	far	V2
2	3.0	ltm	387	diff_vonmises	0.0168266394553887	0.9640954241820834	0.7732686487501714	150.43979749717647	0.7579648492030382	151.33517789621578	0.1749261296342439	-0.2711625180552399	0.4460886476894838	98.3812752129115	far	V3
3	4.0	ltm	387	diff_vonmises	-0.0638765439759524	-3.659856379703876	1.2629813751912424	0.97416072090023	9.597369613330327e-33	2.60462923674573	-0.0339289520196258	-0.384096537056644	0.3501675850370181	118.37544053307472	far	V4
4	5.0	ltm	387	diff_vonmises	-0.053182860306204	-3.047153437979324	1.8983409927595911	0.7314065613278623	1.8929776094198225e-13	1.46053555692381	0.1331344352949201	-0.224245823138281	0.3573802584332011	99.43203465768042	far	V3ab
5	6.0	ltm	387	diff_vonmises	-0.3109359088903836	-17.815315278483276	0.5640430765072347	1.900061716556543	1.4658491765411937e-18	2.6837212350303554	0.0645368995294602	-0.2679983598888344	0.3325352594182947	147.47232798497134	far	IPS0
6	7.0	ltm	387	diff_vonmises	0.2527790375850426	14.483172003001751	1.127762874137472	106.85537783224096	1.1067529804924057	107.91537330747124	0.0358977624000118	-0.2573302789231917	0.2932280413232035	76.63161727149415	far	LO1
0	1.0	ltm	388	diff_vonmises	0.1357176047050263	7.776045955222851	3.910233193516944	0.4066146589171518	7.547305366971652e-32	1.68992244937289	0.039804560662466	-0.2688355553299043	0.3086401159923704	69.26327068617044	far	V1
1	2.0	ltm	388	diff_vonmises	-0.0648910773157383	-3.717984858248923	1.3034608866955952	102.777626242171	1.2778048124377512	103.37337462537296	0.245684385033968	-0.2203343935143156	0.4660187785482836	77.24250482587519	far	V2
2	3.0	ltm	388	diff_vonmises	0.0744270299488184	4.264354697761074	1.009741657361359	96.99088693120208	0.986673206353012	97.47140736661548	0.2603286671074727	-0.2009682463307225	0.4612969134381952	89.25818525930848	far	V3
3	4.0	ltm	388	diff_vonmises	-0.2451374498928424	-14.045341279459564	3.5219979161335098	0.8291091931779312	2.4028555285421603e-23	1.8048534887579408	0.3070736594591464	-0.2867327257115641	0.5938063851707106	73.07775270421533	far	V4
4	5.0	ltm	388	diff_vonmises	-0.0611428333077768	-3.5032262960075307	1.8884415372543584	0.951727445204327	2.8041620769647567e-10	1.0352546452808926	0.309404627764932	-0.153908721889249	0.463313349654181	99.67934304220738	far	V3ab
5	6.0	ltm	388	diff_vonmises	-0.2945489478412935	-16.87641157132514	1.3746545132033874	1.1434498755261724	4.511079076286446e-16	1.4223805744466067	0.2435154008103091	-0.1963186059519176	0.4398340067622268	114.15160432287064	far	IPS0
6	7.0	ltm	388	diff_vonmises	0.0905521142625733	5.1882539732318405	1.2626357563995132	218.2820857783507	1.2481127308488662	219.07331830004347	0.2735670110213988	-0.2744515238750296	0.5480185348964284	77.7969314850533	far	LO1
0	1.0	ltm	389	diff_vonmises	0.0664229212597361	3.805753051112671	3.561588506048499	0.5671390918806464	6.880597674214752e-28	4.232947757734867	-0.2646331405398018	-0.673364760117827	0.4087316195780252	72.66479628830496	far	V1
1	2.0	ltm	389	diff_vonmises	-0.0942896113384855	-5.402396781624093	3.3778385490358125	0.7897114487833525	2.4533355720911346e-12	2.5665909233513142	0.1445186304302843	-0.4078416891597583	0.5523603195900426	74.66830908117225	far	V2
2	3.0	ltm	389	diff_vonmises	-0.135902501178948	-7.786639742825415	2.610044020488046	0.9664207506114072	0.0043613232447551	2.402507601341396	0.2000679237288716	-0.3775468474040928	0.5776147711329644	84.85751233102155	far	V3
3	4.0	ltm	389	diff_vonmises	-0.1804472426832033	-10.338865430520476	0.3479390208392333	4.654481569693023	2.1930194466645366e-16	6.749281602479098	-0.056174342480294	-0.5665598797824584	0.5103855373021643	159.73042866614205	far	V4
4	5.0	ltm	389	diff_vonmises	0.0057063626594558	0.3269504967578695	1.436949345210835	1.7994342443312226	6.34075270250466e-16	3.1664770372750204	0.2554755871329002	-0.4610668040037743	0.7165423911366745	112.46167922471038	far	V3ab
5	6.0	ltm	389	diff_vonmises	-0.1684011226161785	-9.648673591172107	0.9409981666550702	1.97891578394163	2.841633198691765e-16	3.2433890872383726	0.1378636493941712	-0.4165930685794046	0.554456717973576	130.8499550264474	far	IPS0
6	7.0	ltm	389	diff_vonmises	0.3016870682580111	17.285395744859223	0.9463902085467456	88.51427775630445	0.9212786713473218	89.38702936094758	0.1373464026870863	-0.2432709122213108	0.3806173149083971	87.96244370422266	far	LO1
0	1.0	ltm	390	diff_vonmises	-0.8547344574224065	-48.97267701470825	7.243627802685851	0.1816208526485034	2.8983550511340064e-32	1.6387944194732589	-0.0694214988598722	-0.2608221347997871	0.1914006359399149	50.5423898597971	far	V1
1	2.0	ltm	390	diff_vonmises	0.3839554964268534	21.99902946610906	0.4333156854826976	130.74130325836617	0.4230154413848761	131.4675711477414	0.0796958340667828	-0.2338743993273073	0.3135702333940902	127.47891436974088	far	V2
2	3.0	ltm	390	diff_vonmises	0.1348690869334728	7.72742946807099	1.6251524696640771	74.40253025660674	1.606474662419231	74.54259250923448	0.1738522935466449	-0.0919020584262453	0.2657543519728902	71.37312042861421	far	V3
3	4.0	ltm	390	diff_vonmises	-0.3763470253232686	-21.563096183326408	0.8677384094835431	53.01471134152017	0.8319202436180573	54.21702013239941	-0.0100846132176144	-0.2640510999635266	0.2539664867459121	86.22604245893234	far	V4
4	5.0	ltm	390	diff_vonmises	-0.1253262799524738	-7.180666903351769	2.324940098241694	0.6879981788820607	0.4736195482230328	1.079019164054699	0.127526645267066	-0.1249112202559064	0.2524378655229725	75.99606999879549	far	V3ab
5	6.0	ltm	390	diff_vonmises	-0.4784761888822035	-27.414666220454663	0.7178187919336055	143.8406565870416	0.7051898311008602	144.51029812600785	0.1551731845272925	-0.2184975087707688	0.3736706932980613	102.85741019947844	far	IPS0
6	7.0	ltm	390	diff_vonmises	0.1113683310207183	6.380935338903047	1.564485893369309	136.77489341388377	1.5475939150052571	137.4586573888065	0.0975342415145874	-0.2091619803222606	0.3066962218368481	66.87026051895538	far	LO1
0	1.0	ltm	391	diff_vonmises	-0.2454271771861717	-14.061941430577084	0.1879770268086979	3.258911528341672	3.0790877070109157e-12	5.533684926139903	-0.2602701634530645	-0.4546959308043237	0.1944257673512591	167.86973619593664	far	V1
1	2.0	ltm	391	diff_vonmises	0.2163341886362729	12.395035973245452	0.9874746777477456	51.330985034786885	0.9438798374307718	52.25780350231338	0.1176196662578448	-0.2481350391953691	0.365754705453214	85.7309675381168	far	V2
2	3.0	ltm	391	diff_vonmises	0.1359494366680139	7.789328948258278	3.868311628962554	0.3679293114876628	8.177714682985549e-22	0.9017448982235312	0.1342269814429143	-0.1433959043083931	0.2776228857513074	69.64674365958538	far	V3
3	4.0	ltm	391	diff_vonmises	-0.4384721931593396	-25.122606101875167	1.38775745717549	1.4770586642552772	0.1782375101262022	2.8722807181103227	0.0684397804535804	-0.343048123992136	0.4114879044457165	100.20101187178918	far	V4
4	5.0	ltm	391	diff_vonmises	-0.0871542516645162	-4.99357078699781	1.3746022093499344	1.677577358660979	0.3280473424305264	2.046821453047166	0.2490631956628275	-0.1858984044066942	0.4349616000695217	99.56763562907186	far	V3ab
5	6.0	ltm	391	diff_vonmises	-0.3159664341047913	-18.103543142002977	0.4717838112455348	98.79832683463604	0.4562266541453665	99.04276295042251	0.2272409345662538	-0.2022297187288604	0.4294706532951142	128.6097868755675	far	IPS0
6	7.0	ltm	391	diff_vonmises	0.2127079449847333	12.187267516526129	1.2022452983888188	191.44858141214533	1.1892260256794558	192.36504380293584	0.1150686627008923	-0.2514299116663316	0.366498574367224	76.55966102715044	far	LO1
0	1.0	ltm	392	diff_vonmises	0.3211395898535589	18.3999431331712	1.068488579341355	5.229928763577873	0.5939310095204131	7.4641543597210065	-0.1189361136866393	-0.4543203210322696	0.3353842073456302	84.6221588662537	far	V1
1	2.0	ltm	392	diff_vonmises	-0.0429446714327866	-2.460548425674708	1.5412318363456472	1.6568780663590588	0.350050819982775	3.1157125934415992	0.0469008112660391	-0.3346951635504147	0.3815959748164538	87.52191565897127	far	V2
2	3.0	ltm	392	diff_vonmises	-0.0396537120242289	-2.2719903410154845	0.8824191771400518	176.58684955448803	0.8694015643258859	177.42001415282303	0.1742365034907251	-0.2500000911249991	0.4242365946157242	91.98250934803576	far	V3
3	4.0	ltm	392	diff_vonmises	-0.0259252079354034	-1.4854049976976909	1.4800388818211418	0.658738247382172	2.526891479064922e-31	2.2476342151338504	-0.074707754368984	-0.3430561814629954	0.2683484270940113	111.08684025470689	far	V4
4	5.0	ltm	392	diff_vonmises	0.0172566039952485	0.9887305776563377	2.315927733840546	0.5919203277949948	1.2175697259099747e-18	1.6601361311733245	0.0692203918000722	-0.260972281037413	0.3301926728374853	90.35973842129692	far	V3ab
5	6.0	ltm	392	diff_vonmises	-0.375619204525959	-21.52139512339872	0.672951699101865	1.6418491728587308	1.389665040983405e-17	2.856594879529305	0.0040905789425337	-0.3352256693057016	0.3393162482482354	141.65511577030486	far	IPS0
6	7.0	ltm	392	diff_vonmises	0.2878773352008812	16.494156324483384	0.7900162924216895	99.37654046095643	0.7700901036918857	100.61334489594896	0.0096473555659422	-0.2782125629214285	0.2878599184873707	91.19360610258076	far	LO1
0	1.0	ltm	393	diff_vonmises	-0.0158205358685869	-0.9064499349053684	2.6021163421832747	0.5212850454869034	3.046095467833777e-31	3.095604808608293	-0.1781684174392152	-0.4909530956102067	0.3127846781709915	85.26535345083846	far	V1
1	2.0	ltm	393	diff_vonmises	-0.0254182833128956	-1.4563603562967289	3.5758943146379543	0.7096570371630297	0.048668393017875	1.874279477516447	0.1999550812801991	-0.2889818692827268	0.4889369505629259	70.62880551033487	far	V2
2	3.0	ltm	393	diff_vonmises	-0.0949001249615869	-5.437376635563048	2.404374575578416	0.7525175920024407	7.312752394842029e-16	1.572156855880381	0.1831812103717687	-0.2466803556502572	0.429861566022026	88.69842764639486	far	V3
3	4.0	ltm	393	diff_vonmises	-0.3272791245695349	-18.751712560570677	1.4209224739387032	1.253232629878999	9.316801929493428e-14	2.7335871345892544	0.090293035285572	-0.4044253354597616	0.4947183707453337	112.56635054088362	far	V4
4	5.0	ltm	393	diff_vonmises	-0.0337514048727931	-1.9338130518483292	1.315993789387993	1.5513846543235037	1.1028521005090037e-13	2.184276983982314	0.273486294632365	-0.302957577040286	0.576443871672651	116.51520575938406	far	V3ab
5	6.0	ltm	393	diff_vonmises	-0.2684096646941507	-15.378740967496414	0.4189185420973529	43.48250897809294	0.376709412952286	44.103365657945	0.1974844191742217	-0.2909533269035869	0.4884377460778086	133.61833709383558	far	IPS0
6	7.0	ltm	393	diff_vonmises	0.2315876255045858	13.26899352886903	1.0263059312401397	176.48230111172956	1.012081402433756	177.3032893431458	0.1916518709520431	-0.2504998653432722	0.4421517362953153	85.3741581483635	far	LO1
0	1.0	ltm	394	diff_vonmises	0.1295958149879556	7.425293241368116	0.2882833247246789	88.52139465769514	0.2753814633411953	90.61717957449156	-0.2278275157781664	-0.4017305840595391	0.1739030682813727	134.1432519013815	far	V1
1	2.0	ltm	394	diff_vonmises	0.1824684684551974	10.454673136698808	0.2824783606992917	114.06240623694258	0.2704498558445581	115.29968053726614	-0.0096293219428496	-0.332291539681556	0.3226622177387064	144.11639583303125	far	V2
2	3.0	ltm	394	diff_vonmises	0.1139615778068313	6.529517434983182	1.3285204971684104	163.2210094125663	1.3143004654901542	163.78637027230778	0.1941017257679789	-0.1973313759739099	0.3914331017418888	75.69309436289214	far	V3
3	4.0	ltm	394	diff_vonmises	0.1226636583217006	7.0281099214682285	2.331138953031211	0.4088807140999731	3.4701054842662256e-21	2.094090180883444	-0.1020576601901225	-0.3311008797242634	0.2290432195341409	90.05284563165966	far	V4
4	5.0	ltm	394	diff_vonmises	-0.0280974426658817	-1.6098648798658313	1.089744865934675	59.387513154315926	1.053285620144095	60.26751829398283	0.0971358316554926	-0.2325442983486807	0.3296801300041734	80.7566804938644	far	V3ab
5	6.0	ltm	394	diff_vonmises	-0.3059617469651112	-17.530316793550494	0.6231298185110731	151.880555035204	0.6095241582874392	153.0859565158414	0.0694125499518847	-0.3080887401761103	0.377501290127995	106.01402974736617	far	IPS0
6	7.0	ltm	394	diff_vonmises	-0.0496814020672663	-2.846534658746887	1.6227686989398	107.60820429317144	1.6022062633626102	108.39611836995655	0.0225870723336996	-0.2211472925607758	0.2437343648944754	63.10660606026934	far	LO1
0	1.0	ltm	395	diff_vonmises	0.1689404670388765	9.679575750296625	2.7693850186284275	0.4712237648048207	1.5345704561216398e-29	2.6023127479446733	-0.1193991834458469	-0.4130119832558935	0.2936127998100465	82.61581691450934	far	V1
1	2.0	ltm	395	diff_vonmises	-0.0321444467737721	-1.8417411349200583	2.049871298088666	1.2205466443536968	0.2661359750276033	2.4943932922070275	0.130100336096279	-0.3157031717122276	0.4458035078085066	82.66293658560781	far	V2
2	3.0	ltm	395	diff_vonmises	-0.0167685284214529	-0.960765907194422	0.8107236406204765	13.634494135913831	0.6234189511882544	14.655987250968684	0.2109403645406882	-0.32079546165494	0.5317358261956282	102.12583769551696	far	V3
3	4.0	ltm	395	diff_vonmises	-0.1409929803633709	-8.078302715792049	1.2976801646649512	1.3715644111860663	1.02871135610483e-26	3.0735843998899037	0.0553937434524253	-0.4485407996775692	0.5039345431299945	117.06820660957332	far	V4
4	5.0	ltm	395	diff_vonmises	-0.0704498600018361	-4.036479645392721	1.5131004638077077	1.1387636050031	2.2515813669696187e-14	1.6654281203069907	0.2308037060903016	-0.2410118861894588	0.4718155922797604	110.03654344462244	far	V3ab
5	6.0	ltm	395	diff_vonmises	-0.2564207434567747	-14.691826379680007	0.5995819211076326	2.0546076001356166	1.2082061360770009e-15	2.614384572226079	0.1293538672906157	-0.2516667431973138	0.3810206104879296	146.16511724960426	far	IPS0
6	7.0	ltm	395	diff_vonmises	0.2843869071575848	16.294169528908395	1.50792642219783	127.84848127590168	1.4891068521684578	128.4806466819718	0.1483999218426888	-0.2071481860352797	0.3555481078779685	69.61637758982496	far	LO1
0	1.0	ltm	396	diff_vonmises	0.1992778304944878	11.417778637857566	4.484741978623545	0.3584864159148069	3.318365407522459e-14	2.323777673736952	-0.0766155559008784	-0.3698033863653735	0.2931878304644951	64.56229954517607	far	V1
1	2.0	ltm	396	diff_vonmises	-0.031976768755024	-1.832133892128676	1.1259460040427904	56.80694251893442	1.0826773303484731	57.73410609205657	0.1286725959263464	-0.254500661961381	0.3831732578877274	80.14910052851312	far	V2
2	3.0	ltm	396	diff_vonmises	0.122167732285517	6.999695452644255	1.1219144546562343	111.4984094971663	1.1043758398324397	112.01528801340656	0.1787598825116489	-0.1777649765526678	0.3565248590643168	82.87726280311546	far	V3
3	4.0	ltm	396	diff_vonmises	-0.1792072555812416	-10.267819402927415	2.6835362917614143	0.6022220774652768	6.449481368831827e-15	1.8089002592896808	0.0820173110888605	-0.2861686468788896	0.3681859579677501	83.94074235590755	far	V4
4	5.0	ltm	396	diff_vonmises	0.0014878972196147	0.0852502310331737	1.375526175696591	3.104228724927985	0.7226985927885696	3.591007144689112	0.2387599153248001	-0.1919789901783926	0.4307389055031927	87.18186419269503	far	V3ab
5	6.0	ltm	396	diff_vonmises	-0.2374834505300062	-13.606799419573228	0.6251569013965438	118.56641388789474	0.6096510034365827	119.13736845143823	0.1958515692353728	-0.2312811047298471	0.4271326739652199	112.19385966191864	far	IPS0
6	7.0	ltm	396	diff_vonmises	0.1126409135236914	6.453848945405597	0.8789368320928874	157.84160627769114	0.8636403503009944	158.77512615937428	0.1655757765047738	-0.2688255542414062	0.43440133074618	91.63936896107418	far	LO1
0	1.0	ltm	397	diff_vonmises	-0.5513133225991808	-31.587926574267485	0.2064956945923649	33.084584441816645	0.1842235621626452	33.756272472458605	4.84255786545873e-05	-0.1930031272975245	0.1930515528761791	150.58344818283905	far	V1
1	2.0	ltm	397	diff_vonmises	0.2665838402049614	15.274128930134244	0.517825327528863	66.73327821648368	0.4994329600137389	67.01533598444077	0.16013482037879	-0.1630011410765472	0.3231359614553373	123.66021925378573	far	V2
2	3.0	ltm	397	diff_vonmises	0.1264043886107773	7.242437979329075	1.5573217409296962	78.55913408103473	1.5394418181548166	78.57131909724369	0.2378486018416552	-0.0813887653478584	0.3192373671895137	75.46425681929276	far	V3
3	4.0	ltm	397	diff_vonmises	-0.2688722736669194	-15.405246509200948	6.798777597276781	0.4649222768228062	2.5002574970876296e-26	1.3079080369775755	0.2657960929088502	-0.2081594396147137	0.4739555325235639	52.20484203483193	far	V4
4	5.0	ltm	397	diff_vonmises	-0.1827797083258214	-10.472505867701765	3.2695295311721937	0.3744391679001699	1.1749796517032652e-16	0.456370608927036	0.184817384113647	-0.0722613203878452	0.2570787045014923	75.92499488481965	far	V3ab
5	6.0	ltm	397	diff_vonmises	-0.5009524689975774	-28.7024622102194	2.279495692397008	0.7428635978089606	4.38464847628305e-20	1.1703581591847378	0.2282583864447135	-0.1819268404987071	0.4101852269434206	90.8351728631934	far	IPS0
6	7.0	ltm	397	diff_vonmises	0.0733291560790652	4.20145115858652	1.6390414041764514	229.101163802094	1.6243736450955917	229.9950493910308	0.1649404056761056	-0.290392175697157	0.4553325813732627	65.84014813041705	far	LO1
0	1.0	ltm	398	diff_vonmises	0.0494662402479546	2.834206794587968	1.2993101379450926	0.5127176356989196	4.540046971128785e-13	3.567700763031919	-0.3640952323985656	-0.5526649954497506	0.1885697630511849	117.08340523551848	far	V1
1	2.0	ltm	398	diff_vonmises	0.169955265171436	9.73771940035004	0.8267715852113882	99.59048896439192	0.8053745254634855	100.79137536513628	0.041005200156345	-0.2816956044153205	0.3227008045716655	90.38640119877752	far	V2
2	3.0	ltm	398	diff_vonmises	0.1351363596598876	7.742743067273517	3.260193615971521	0.4535715371663756	0.2646336282094725	1.0180965240264932	0.1039077890066141	-0.1473244691375118	0.251232258144126	68.680147828841	far	V3
3	4.0	ltm	398	diff_vonmises	-0.3666995900704976	-21.010338860216905	0.5161336417887271	148.84585790270145	0.504764849199761	150.43649971090454	-0.0771080978089315	-0.3346453852733155	0.257537287464384	109.24504785316458	far	V4
4	5.0	ltm	398	diff_vonmises	-0.0169948582880251	-0.9737336533267664	1.357269480067922	3.4037239095274243	0.6620557954417092	4.159658734873828	0.2345063368842617	-0.2500740022407487	0.4845803391250104	87.54348068712116	far	V3ab
5	6.0	ltm	398	diff_vonmises	-0.2252056774434198	-12.903334839892524	0.546615087312486	143.30909527776646	0.5332609782103029	143.92138553906295	0.2048510676582822	-0.2616170861386298	0.466468153796912	119.3855777156807	far	IPS0
6	7.0	ltm	398	diff_vonmises	0.3367524612800922	19.29449477199196	0.7649790499813058	18.35140251417489	0.6701522857324149	19.146292408050293	0.1101751359119695	-0.224849261338647	0.3350243972506166	100.50565827656862	far	LO1
0	1.0	ltm	399	diff_vonmises	-0.845817740610695	-48.46178677428384	8.734466733280538	0.2154655848423215	3.6656814870070536e-21	1.7435484746054932	-0.0273681058186045	-0.2774943517712721	0.2501262459526675	45.97376296987551	far	V1
1	2.0	ltm	399	diff_vonmises	0.3382988780889803	19.383097928509333	0.4187906651676101	100.65419464102	0.4051640310000647	101.34344379407476	0.0943154014097373	-0.2368480101193721	0.3311634115291095	129.95372073387588	far	V2
2	3.0	ltm	399	diff_vonmises	0.099636361385881	5.708742993451227	1.7796008569948651	84.18332410365961	1.7606066427624956	84.35346062271216	0.1821158095053903	-0.1046526754331438	0.2867684849385341	67.67222466746483	far	V3
3	4.0	ltm	399	diff_vonmises	-0.3338330438146166	-19.127224472583425	0.7891277398635473	67.31656733194731	0.7605751854361716	68.52794900063911	0.0083272684510049	-0.2721060634374339	0.2804333318884389	91.458746802555	far	V4
4	5.0	ltm	399	diff_vonmises	-0.1559980916847541	-8.938032265631271	2.4778938388764566	0.7425105592911121	0.4507969738969601	1.1928198097107157	0.1519379818539741	-0.1442538059284241	0.2961917877823983	74.59469717555297	far	V3ab
5	6.0	ltm	399	diff_vonmises	-0.4392115719970484	-25.16496938873717	0.7533117407880585	154.0087431236074	0.7396601942523681	154.76597629051966	0.1801255808224553	-0.2452157152925913	0.4253412961150467	100.43607875251207	far	IPS0
6	7.0	ltm	399	diff_vonmises	0.0239966216122705	1.3749051409555175	1.5916211073622537	163.3969192149632	1.5748650101784158	164.260960609948	0.0849952754027185	-0.2558671367645928	0.3408624121673114	65.41972553368427	far	LO1
0	1.0	ltm	400	diff_vonmises	-0.3168484455097651	-18.154078672990384	0.6997129003663961	0.996163941354105	2.5522535471852827e-14	2.532467575134594	-0.1196433985518312	-0.3331258630063481	0.2134824644545169	140.91155427887287	far	V1
1	2.0	ltm	400	diff_vonmises	0.0533836262362948	3.058656478443549	2.742448775172909	0.5914809073275358	4.9373902704899643e-14	1.1965506413128584	0.1774912856219762	-0.1889104252647859	0.3664017108867621	83.03470874825791	far	V2
2	3.0	ltm	400	diff_vonmises	0.0402086327413003	2.303784956068047	1.2860115322043653	44.72820137129773	1.252192978657641	44.95952763971055	0.1864592059094221	-0.1156640183917021	0.3021232243011242	79.95042897008693	far	V3
3	4.0	ltm	400	diff_vonmises	-0.3845069662429124	-22.030626359098097	1.236791855317183	3.537673992650456	0.628085756389328	4.523358775008138	0.1399575611054917	-0.268059816926347	0.4080173780318387	88.49457575781928	far	V4
4	5.0	ltm	400	diff_vonmises	-0.0333657945377299	-1.911719207112582	2.1045982761335984	0.7375415932318156	2.1709187418054447e-15	0.8859401668852295	0.2513617813721073	-0.1351718720011639	0.3865336533732712	94.6793288231992	far	V3ab
5	6.0	ltm	400	diff_vonmises	-0.3797370118223111	-21.75732810232787	0.6969563290697549	116.48948802569244	0.6815285698077012	116.83093847808122	0.2464069246911435	-0.1943240286735292	0.4407309533646728	108.59080784150132	far	IPS0
6	7.0	ltm	400	diff_vonmises	0.1806852268137081	10.352500916789491	1.207085768332725	178.28345450403478	1.192897631714772	178.86292682834278	0.2482938089531359	-0.215943216696278	0.4642370256494139	80.39128641313303	far	LO1
0	1.0	ltm	401	diff_vonmises	0.3509220356032171	20.106351578203952	0.6730990239269292	161.03230111450827	0.657344263465023	163.6511427447452	-0.2412685449881024	-0.4926854522380104	0.2514169072499079	88.60663218604466	far	V1
1	2.0	ltm	401	diff_vonmises	0.1265009693455529	7.247971647813987	0.7471505132197346	108.13368233526312	0.729045578465721	109.46614411661666	-0.0129097329319378	-0.2912930455691729	0.278383312637235	92.77970831846662	far	V2
2	3.0	ltm	401	diff_vonmises	0.1676395186928495	9.60503690070475	1.1708807332239792	101.33385410363836	1.1527677549791366	101.941401372424	0.1158652388063288	-0.1781791218375339	0.2940443606438627	79.02371865136524	far	V3
3	4.0	ltm	401	diff_vonmises	0.2020507308255132	11.576654123835752	1.5963018117441203	0.3926706660318476	3.0279728920152375e-11	1.9924930689947435	-0.14048838915715	-0.3098613449240521	0.169372955766902	107.41364381281934	far	V4
4	5.0	ltm	401	diff_vonmises	0.0067055561601742	0.384200067265936	1.1292038557135031	129.61066082481327	1.1092665740994998	130.6076194828785	0.1214694402300722	-0.2688371980325836	0.3903066382626559	79.19871644257992	far	V3ab
5	6.0	ltm	401	diff_vonmises	-0.2000866732242424	-11.46412191256235	0.5963613786858387	136.77249315467682	0.5823001090680509	137.82490637596968	0.087645192314433	-0.2869344172494319	0.3745796095638649	109.62088963310252	far	IPS0
6	7.0	ltm	401	diff_vonmises	0.7931733772142235	45.44548693651303	0.0002316409533527	4145.511491730659	3.5345050410567057e-29	4146.602727128857	-0.0208395240908885	-0.3264937924028572	0.3056542683119687	162.10248215206076	far	LO1
0	1.0	ltm	402	diff_vonmises	0.1108622950267736	6.351941612168306	0.3200178714042616	104.36792856673414	0.3034660838765978	107.78815703592936	-0.4105638105449003	-0.6195298874495077	0.2089660769046073	123.61178384512336	far	V1
1	2.0	ltm	402	diff_vonmises	0.0967270729260563	5.54205304331716	0.4102443016444176	99.7665230639596	0.3920956296059962	101.36489303339596	-0.0302065516558762	-0.387319705134832	0.3571131534789558	126.79682252677463	far	V2
2	3.0	ltm	402	diff_vonmises	-0.0078284269913657	-0.4485358268315528	1.2930652028320628	115.69923280194082	1.2710780428904502	116.54603056481908	0.1316824810503618	-0.2441797277633863	0.3758622088137482	74.38983495579001	far	V3
3	4.0	ltm	402	diff_vonmises	-0.0256407662307277	-1.4691076885022614	0.2399174017607519	23.58246149457735	0.1944098507859325	25.54681995903211	-0.189072710220624	-0.4054994738644106	0.2164267636437866	148.563110102613	far	V4
4	5.0	ltm	402	diff_vonmises	0.0026484897233943	0.151747283234268	1.679215832010674	1.9078781407752707	0.4053369442610507	3.408736584654608	0.1038212127252102	-0.3623694722473011	0.4661906849725114	84.0663290368523	far	V3ab
5	6.0	ltm	402	diff_vonmises	-0.166313125526768	-9.529040170313284	0.6790186709489988	163.91827565144672	0.6618701914128349	165.5502437498764	0.0823904303011531	-0.403077513965643	0.4854679442667962	101.07390054937568	far	IPS0
6	7.0	ltm	402	diff_vonmises	1.1476621809932197	65.75619927769068	0.0001236457184059	7486.760426673743	6.856224735362459e-32	7487.715277344528	-0.0046353188138255	-0.2992939814530473	0.2946586626392218	144.75893954852964	far	LO1
0	1.0	ltm	403	diff_vonmises	-0.157502031132623	-9.024201648637398	0.0004278960321693	1291.1785407602515	1.044427879285302e-25	1293.5649490539442	-0.2918677367091788	-0.4677308028723246	0.1758630661631457	179.26655846504894	far	V1
1	2.0	ltm	403	diff_vonmises	0.2103974354426689	12.054885071241127	0.5507370141622473	44.24462646239856	0.5101692106228446	45.59245361315544	0.0018347063751988	-0.3183660654052023	0.3202007717804012	111.63086543965996	far	V2
2	3.0	ltm	403	diff_vonmises	-0.019431429574893	-1.1133389045470574	0.9320286922097732	80.28560350971004	0.9125606035495022	80.83931155897703	0.1173185113249815	-0.1656358240552267	0.2829543353802082	89.58908972798375	far	V3
3	4.0	ltm	403	diff_vonmises	-0.435290610890967	-24.94031486572376	0.5242064503974814	61.43376873381993	0.5004042423431974	63.034386694445054	-0.1212457613567714	-0.3134820653603452	0.1922363040035737	105.02693794295114	far	V4
4	5.0	ltm	403	diff_vonmises	-0.0086779050123996	-0.4972073322259224	2.2729244387162644	0.5309266620299875	9.632875758465224e-17	1.3392933106241318	0.0825829386049905	-0.2100164888838658	0.2925994274888564	91.20339016068334	far	V3ab
5	6.0	ltm	403	diff_vonmises	-0.4434465827852692	-25.4076176330946	0.3992819669434261	130.31048273025144	0.3881668783444348	131.20730725932535	0.0626261305077697	-0.2718113573456175	0.3344374878533873	130.24486249336923	far	IPS0
6	7.0	ltm	403	diff_vonmises	0.3973515360984945	22.766566001483916	1.0152349576745086	102.966590724567	0.9987210552527608	103.74124935023237	0.0569433896552382	-0.1939330804370502	0.2508764700922885	82.35937550021558	far	LO1
0	1.0	ltm	404	diff_vonmises	-0.2176381535723178	-12.469747660713873	0.0007675627408609	809.5868642495416	1.0352695491279968e-31	811.7465002309569	-0.2448008267254806	-0.4425947057425787	0.1977938790170981	178.6073065505633	far	V1
1	2.0	ltm	404	diff_vonmises	0.1793433548486825	10.2756173165466	1.6025439049811403	2.30337040419914	0.6398428891112525	3.441310835058072	0.0987126223037794	-0.287011611142455	0.3857242334462344	79.66418563677931	far	V2
2	3.0	ltm	404	diff_vonmises	-0.0557921211131792	-3.196653069867901	0.5264846780004665	33.665833558671274	0.4883830377841878	34.30278144420891	0.0842312706990426	-0.2023813775100325	0.2866126482090751	119.87452116085971	far	V3
3	4.0	ltm	404	diff_vonmises	-0.4244979553705563	-24.321941254665656	2.3397379375608027	0.6395749579228162	1.3761757338133364e-18	2.09289386074784	0.0293712441458621	-0.3297290676731304	0.3591003118189925	89.76161770543763	far	V4
4	5.0	ltm	404	diff_vonmises	-0.1205833912546438	-6.908919398265814	1.40621702561753	0.8618030139623103	2.390273670776655e-16	1.3509365772162325	0.1440090362921357	-0.1934460725600569	0.3374551088521926	113.4087694165579	far	V3ab
5	6.0	ltm	404	diff_vonmises	-0.2163601825080784	-12.396525312393116	0.066913469077748	15.081720384784486	9.124560711383628e-05	15.455953875686822	0.1034499383295752	-0.2172025547364495	0.3206524930660248	174.91650692949116	far	IPS0
6	7.0	ltm	404	diff_vonmises	0.3104260068825388	17.78610004546852	1.0100265620799764	132.27769044712457	0.9931301605801044	133.39038374391802	0.0439701042968039	-0.2662180268330747	0.3101881311298786	81.37295133380647	far	LO1
0	1.0	ltm	405	diff_vonmises	0.3070393323108202	17.592057885924767	0.7749542560221037	102.3959350047438	0.751927145607588	104.35674327295251	-0.1271891147322712	-0.3904374869220532	0.263248372189782	86.30946455363502	far	V1
1	2.0	ltm	405	diff_vonmises	0.0941731340988735	5.395723127384993	0.8263063113929485	134.9839171899113	0.8116417097052817	136.05497375351425	0.0503385482187468	-0.2563846814401476	0.3067232296588944	90.78798645993984	far	V2
2	3.0	ltm	405	diff_vonmises	0.139522942603228	7.994075756410992	1.1515266294735218	118.58883295510851	1.1354199537345926	119.15762486662616	0.1468182465639813	-0.1790119460892238	0.3258301926532052	80.70967850186852	far	V3
3	4.0	ltm	405	diff_vonmises	-0.0539136849124658	-3.089026603482436	3.102809007607583	0.4013093346304102	1.0487367578963977e-33	1.7274266615240912	-0.0070058624646052	-0.2743878036883923	0.267381941223787	77.98060194502244	far	V4
4	5.0	ltm	405	diff_vonmises	-0.0107414878526437	-0.6154419196475261	1.0574539108355991	89.80554410988464	1.0327295305239683	90.72817950296157	0.0972547348038368	-0.2415763358218186	0.3388310706256554	81.69478007458218	far	V3ab
5	6.0	ltm	405	diff_vonmises	-0.2826341986190412	-16.193746726933306	1.1908456561106768	1.5826148600970376	0.1996938431214806	2.675128945360585	0.0826254553408174	-0.2901259029920893	0.3727513583329067	106.0676561617742	far	IPS0
6	7.0	ltm	405	diff_vonmises	-0.0476799714917726	-2.731861133782654	0.8701047335684269	143.38449571260315	0.8521484973148263	145.13290624512624	-0.0571854879426751	-0.3706054710852378	0.3134199831425626	83.96540445190061	far	LO1
0	1.0	ltm	406	diff_vonmises	0.2640645118412563	15.12978204768634	4.167666120815298	0.5083106845663491	0.1175863097017431	1.611376908398921	0.1121862596926409	-0.2494667149579429	0.3616529746505837	63.60071869732949	far	V1
1	2.0	ltm	406	diff_vonmises	-0.1523630639134041	-8.729760515920072	1.2811230504911173	164.4484139029891	1.2649571187299005	165.13420613548732	0.217239897362603	-0.2319711795244714	0.4492110768870745	76.93450691757243	far	V2
2	3.0	ltm	406	diff_vonmises	0.1230118234235393	7.048058312377323	1.109135387610761	217.05859390167527	1.0966023565828698	217.62204423377088	0.3063649664194372	-0.2326834967743778	0.539048463193815	84.79614503723107	far	V3
3	4.0	ltm	406	diff_vonmises	-0.1426184388893997	-8.171434629107054	4.749911191021392	0.6595288096340847	9.323976798065448e-36	1.6729202847080966	0.2901693122133987	-0.2662118742720881	0.5563811864854868	62.6855749195652	far	V4
4	5.0	ltm	406	diff_vonmises	-0.0058193622716468	-0.3334248976230272	1.0575916517400925	41.58664133156024	1.0119326874899717	41.99290357387376	0.2182844505374745	-0.1681651420011749	0.3864495925386495	87.5990605838789	far	V3ab
5	6.0	ltm	406	diff_vonmises	-0.2719041217212661	-15.57895860683996	2.1020603610397752	0.818573944421697	1.1444854352379392e-16	1.5612700313065146	0.1866484195157568	-0.2419848786688333	0.4286332981845902	94.65124348656288	far	IPS0
6	7.0	ltm	406	diff_vonmises	-0.0603179937877968	-3.455966472737078	1.203593429839894	211.5186303734377	1.1867524297564456	212.8548824391844	0.1550846424038212	-0.3627021407482296	0.5177867831520508	76.36672294850993	far	LO1
0	1.0	ltm	407	diff_vonmises	0.167343610210821	9.588082593562396	1.0461407861612972	0.7466270220666273	3.7008560823908756e-15	2.9518210846000152	-0.2081704522185199	-0.4375090900295851	0.2293386378110652	126.44745463333297	far	V1
1	2.0	ltm	407	diff_vonmises	-0.030314987010987	-1.7369208117234685	1.5170938121038045	0.9311864619798926	5.331390551286941e-19	2.3010489562405856	0.0398959117944573	-0.3466827784441078	0.3865786902385651	109.92930615099516	far	V2
2	3.0	ltm	407	diff_vonmises	0.0183304806580228	1.050259178150896	0.9535507940009658	163.16107184403776	0.9378410339245766	163.95003416347578	0.226614468029723	-0.2575486261350619	0.484163094164785	89.53459459854358	far	V3
3	4.0	ltm	407	diff_vonmises	-0.0647451025014823	-3.709621117476849	1.1947464768157705	1.0008695213219616	2.67835135460307e-29	2.7974396783107416	-0.0667370971379521	-0.4105268478783132	0.3437897507403611	120.87029631334715	far	V4
4	5.0	ltm	407	diff_vonmises	0.0061004816266498	0.349531850204139	2.1292840866342395	0.7433716839276777	2.9440891667197825e-16	1.3569737828881951	0.1822627772249738	-0.210336629797031	0.3925994070220049	94.15088433195535	far	V3ab
5	6.0	ltm	407	diff_vonmises	-0.3277832622156501	-18.78059751998673	0.4034799817045981	98.42823630520164	0.3884358057080351	99.19238434361807	0.0986469193922126	-0.261651894935488	0.3602988143277006	131.74416097858938	far	IPS0
6	7.0	ltm	407	diff_vonmises	0.3353426352244615	19.21371768915674	1.6580870590030512	78.84321795737297	1.63603344081895	79.16286497762515	0.1486487501629554	-0.1313141523769871	0.2799629025399426	68.15216077000878	far	LO1
0	1.0	ltm	408	diff_vonmises	0.1429869803184492	8.192550497567307	0.3470846555441685	113.30577404046846	0.3326731356634202	116.45336850390903	-0.3844154912024962	-0.5598406132975544	0.1754251220950582	116.34211689403595	far	V1
1	2.0	ltm	408	diff_vonmises	0.2059513176359157	11.800141285696212	0.4173190612802726	112.8196042174842	0.4035717453632405	114.14898645814014	-0.019079781758986	-0.3243680160532118	0.3052882342942258	125.69517696375448	far	V2
2	3.0	ltm	408	diff_vonmises	0.0415954439316672	2.383243384257586	1.6036105299577907	110.8250827319505	1.5836952373928794	111.3604693089894	0.1387316086381389	-0.1837346181171746	0.3224662267553135	67.64025567770801	far	V3
3	4.0	ltm	408	diff_vonmises	0.0045184745010721	0.2588895187489171	0.5090040942501628	69.20842644461396	0.4890650741227293	70.89181111966727	-0.1540435922585104	-0.3173559352765407	0.1633123430180303	103.38341529721824	far	V4
4	5.0	ltm	408	diff_vonmises	-0.0512969169301525	-2.9390968421309176	1.2193260324352886	103.95791225485628	1.1879577507694346	105.13263544616495	0.1592766641969731	-0.3263623096649173	0.4856389738618905	76.51189249721989	far	V3ab
5	6.0	ltm	408	diff_vonmises	-0.1170892600746758	-6.708720428588579	0.8724466962720856	161.248001336761	0.8530147332207101	162.60145048678635	0.1729910313719145	-0.3643722588949742	0.5373632902668888	90.9731205825751	far	IPS0
6	7.0	ltm	408	diff_vonmises	1.056688152768045	60.54377141508415	0.0001077330697466	10869.74412043822	1.8663657565415693e-29	10870.420484425253	0.0787277950125826	-0.2940111006225834	0.372738895635166	149.6487661803672	far	LO1
0	1.0	ltm	409	diff_vonmises	0.1461169534230898	8.371884746452675	0.7364382732054814	66.36988773207352	0.7125077351542176	67.50443958344744	-0.0225561261494249	-0.243693157739707	0.221137031590282	92.96516837941576	far	V1
1	2.0	ltm	409	diff_vonmises	0.0142339864225023	0.8155473476559026	1.0720272628407743	100.83175467426774	1.0540112568779054	101.37867742522832	0.1490786723020036	-0.1742772543056094	0.3233559266076131	84.05656182616448	far	V2
2	3.0	ltm	409	diff_vonmises	0.1952950083960851	11.189579741067655	1.337236554873602	110.61582107583888	1.3208225572294936	110.87657809539552	0.2237248427453835	-0.1349973208595134	0.3587221636048969	78.20812119309645	far	V3
3	4.0	ltm	409	diff_vonmises	-0.2161491802150717	-12.384435771536246	6.193229488522414	0.4561246989664734	7.534198305427226e-28	1.3599571731984046	0.2263993307230306	-0.2164420572378207	0.4428413879608514	54.74106550073088	far	V4
4	5.0	ltm	409	diff_vonmises	-0.0591524497338851	-3.3891857176113684	1.2895338651176322	43.725035758508	1.2502736130776937	43.99295844839815	0.20955231954688	-0.1318097503146038	0.3413620698614839	79.84562673908965	far	V3ab
5	6.0	ltm	409	diff_vonmises	-0.3204037277320305	-18.35778133930408	1.3993069323737388	1.6243033900342574	0.3350692756431453	2.1400525375286943	0.2115676171025189	-0.1994708407923021	0.4110384578948211	97.39249453213358	far	IPS0
6	7.0	ltm	409	diff_vonmises	-0.0479412870953527	-2.746833414988709	1.2089797103138913	234.77220505119303	1.1947553761858667	235.99984317471316	0.1524358498028419	-0.3366837990679734	0.4891196488708154	76.32178430204564	far	LO1
0	1.0	ltm	410	diff_vonmises	0.1181278686469036	6.76822831634334	3.5338712529570846	0.5040026231708284	4.4799972474143365e-17	3.996846628442832	-0.2741709693950884	-0.6358094450941661	0.3616384756990777	72.95629628082733	far	V1
1	2.0	ltm	410	diff_vonmises	-0.0102838880863694	-0.5892233843338401	2.10559099956577	1.2801994551668745	0.2590173815633287	2.930501348235224	0.0869237752443879	-0.3810798565898854	0.4680036318342734	80.97471352002233	far	V2
2	3.0	ltm	410	diff_vonmises	-0.0981257779579083	-5.622192938425991	1.923493145390078	1.069780628176151	0.1485188583731878	2.280427837740889	0.1202425951657933	-0.3053521714447386	0.4255947666105319	89.53904583473337	far	V3
3	4.0	ltm	410	diff_vonmises	-0.1980914947224722	-11.349806605035678	0.2463592622797045	5.2846915504218845	1.3160871597700358e-10	7.211820052602261	-0.0878954908511469	-0.5002301446932083	0.4123346538420613	165.13390915718998	far	V4
4	5.0	ltm	410	diff_vonmises	-0.0189669429899468	-1.0867257835891957	1.678668386970818	1.3440961575221162	2.0849510095104825e-15	2.792650289186648	0.1789454072542021	-0.422751976622993	0.6016973838771952	105.1866696425354	far	V3ab
5	6.0	ltm	410	diff_vonmises	-0.1914389613037583	-10.968644517073637	0.7687751414857701	2.1313408663762456	1.6734577768036616e-16	3.4053142905335427	0.0924881144582477	-0.4056225733761578	0.4981106878344056	138.43343140995722	far	IPS0
6	7.0	ltm	410	diff_vonmises	0.2455530246785385	14.069151960752006	0.6479912109293082	118.24638650328724	0.6296209566335944	119.74649797691708	0.0057326518780627	-0.341462725942117	0.3471953778201797	101.13899465948845	far	LO1
0	1.0	ltm	411	diff_vonmises	0.0638015268292354	3.655558213805882	0.4675367472546217	118.9503440962818	0.4533517694104051	121.04540585844865	-0.1854579020720663	-0.4014352848456184	0.215977382773552	108.7991067638439	far	V1
1	2.0	ltm	411	diff_vonmises	0.0328452912943877	1.8818965680462023	0.6741492112384012	56.08772931548042	0.6421249036321592	57.05082571300739	0.0781160082685694	-0.2527657134359211	0.3308817217044906	103.32366864206764	far	V2
2	3.0	ltm	411	diff_vonmises	0.0988397505010378	5.663100551835532	1.4418018253341185	173.71329428500815	1.4277013073361569	174.2011980055912	0.2290770965522739	-0.1929955276539097	0.4220726242061836	73.4189208244359	far	V3
3	4.0	ltm	411	diff_vonmises	-0.0640768154874432	-3.671331092069006	0.7460731172652886	54.1606355736429	0.7048280548013732	55.55245325953375	0.0288267401083697	-0.3216021761787768	0.3504289162871465	95.50056269722066	far	V4
4	5.0	ltm	411	diff_vonmises	-0.0214497131677233	-1.2289780362767364	1.1732675529909251	106.69105839025626	1.1498121278287885	107.2734470257322	0.2494209558300752	-0.2167636287544514	0.4661845845845267	81.7716425880057	far	V3ab
5	6.0	ltm	411	diff_vonmises	-0.1960353704900708	-11.231999364364505	0.8072712952984469	165.225923973921	0.7919214434033378	166.0910619034189	0.2229669652289558	-0.2819015725477278	0.5048685377766837	97.2357974500412	far	IPS0
6	7.0	ltm	411	diff_vonmises	0.0886580710608433	5.079733291557267	1.3815382011175064	136.94433058791972	1.3643374147715766	137.5102130580281	0.1910860853566092	-0.1981275127785124	0.3892135981351217	74.10920769560425	far	LO1
0	1.0	ltm	412	diff_vonmises	0.2925404469910582	16.76133294945822	2.308605509556351	0.4397488252204379	2.2176389124888748e-18	3.00353214694102	-0.2307794171151479	-0.4755840065069319	0.244804589391784	90.42355670154348	far	V1
1	2.0	ltm	412	diff_vonmises	0.0996140582730348	5.707465119215136	0.819274535532074	132.12092753695433	0.8007240987836499	133.58432728422036	0.0234462853481076	-0.3334802012778812	0.3569264866259889	89.8446152474371	far	V2
2	3.0	ltm	412	diff_vonmises	0.1809530689490815	10.367847140722162	1.4997416138176305	2.03554132928166	0.4201351550142978	3.2224461072078547	0.1342606225841122	-0.307449576659519	0.4417101992436312	88.31446107200333	far	V3
3	4.0	ltm	412	diff_vonmises	0.109582481229221	6.278613683005929	0.511306046606306	2.424437051919542	1.6301902230912705e-15	4.483848672470403	-0.1103010793303622	-0.4966354332399245	0.3863343539095623	151.35795999649224	far	V4
4	5.0	ltm	412	diff_vonmises	-0.0332102617373297	-1.9028078340737988	0.9106223904052596	57.46006036426793	0.8687750113593533	58.30475466231126	0.1905952047414558	-0.2582568962411642	0.4488521009826201	91.51913085998272	far	V3ab
5	6.0	ltm	412	diff_vonmises	-0.1763796656256286	-10.105810432277206	0.6583645662858838	1.933752207763916	2.0432492445402656e-15	2.716086585094398	0.102656021809493	-0.2889101887237618	0.3915662105332548	143.74650321370598	far	IPS0
6	7.0	ltm	412	diff_vonmises	0.0732316075736982	4.195862040931184	1.3597165616265696	120.85945809349091	1.3407713540698185	121.96781454043222	-0.0362189119170039	-0.2684616929639141	0.2322427810469101	66.71914115267035	far	LO1
0	1.0	ltm	413	diff_vonmises	0.2084104003511789	11.941036346754364	0.6115977113264285	150.3689462459254	0.5930538891586077	153.36146583789392	-0.2628666636099481	-0.5651916591518891	0.3023249955419409	94.13061198963116	far	V1
1	2.0	ltm	413	diff_vonmises	0.0145056409760793	0.8311120070613722	0.856390658562203	143.91903671998807	0.83841665851625	145.33731991878022	0.0525776393547516	-0.3340585534898626	0.3866361928446142	88.74080730454091	far	V2
2	3.0	ltm	413	diff_vonmises	0.0705041065402905	4.03958774309935	1.045428380697703	62.96993976996637	1.0042666351804788	64.013005716988	0.1319449856963679	-0.2798634983032952	0.4118084839996632	83.07794428458192	far	V3
3	4.0	ltm	413	diff_vonmises	0.0087833136948231	0.5032468048528254	1.172261450558333	1.073558762581904	9.537367444237922e-15	2.8804258505683933	-0.0569377835141959	-0.419929965194742	0.362992181680546	121.738502540034	far	V4
4	5.0	ltm	413	diff_vonmises	9.832637044889895e-05	0.0056336860415617	0.9188609022283132	86.49310390899173	0.8827594879301042	87.74997211587417	0.1931849603520596	-0.3493897327513178	0.5425746931033775	89.5537669011564	far	V3ab
5	6.0	ltm	413	diff_vonmises	-0.126193097873483	-7.230331911831902	1.5586242187601411	1.1863161132323532	8.467777976561134e-12	2.4061290354648515	0.142993709777157	-0.3596586855795682	0.5026523953567253	108.61976218576478	far	IPS0
6	7.0	ltm	413	diff_vonmises	0.0563273142861956	3.227317379905956	0.8416291460899461	140.3966954529225	0.8250034570604382	141.8996482904448	-0.0179684474357202	-0.3278318937163149	0.3098634462805947	86.88395715248049	far	LO1
0	1.0	ltm	414	diff_vonmises	0.1808576540819964	10.36238027153538	2.7391384697626764	0.4532224047356732	1.246725404763092e-27	3.465250590006512	-0.2697986838626761	-0.5503350512554084	0.2805363673927322	83.0745920092399	far	V1
1	2.0	ltm	414	diff_vonmises	-0.0167035912977169	-0.9570452840706288	3.1946601870842644	0.6350429509501323	0.0284167120967844	2.1824840637421947	0.0737285526371379	-0.3388491608453377	0.4125777134824756	75.02875699701644	far	V2
2	3.0	ltm	414	diff_vonmises	0.0105822710748795	0.6063194702539666	0.8394940932459279	62.04242279550565	0.801983066834939	63.02797833774411	0.144689083902108	-0.2743337217018871	0.4190228056039951	93.86299243498578	far	V3
3	4.0	ltm	414	diff_vonmises	-0.086033694238594	-4.929367575790427	0.495267083797419	2.310699030874311	3.905252433008899e-20	4.24232633209976	-0.107092631985865	-0.4642090728828529	0.3571164408969879	152.33037924847855	far	V4
4	5.0	ltm	414	diff_vonmises	0.0252722820084317	1.4479950977475438	2.130783615716214	0.974231846800383	5.717638042091935e-17	1.7300640893291588	0.2467651888363705	-0.2679853955419819	0.5147505843783524	94.11952781909328	far	V3ab
5	6.0	ltm	414	diff_vonmises	-0.2024525850831139	-11.599678676775634	0.336969054168608	56.05697861790014	0.3095607712096624	56.72499634465281	0.1351703025431394	-0.2761411775849849	0.4113114801281243	141.37184222210078	far	IPS0
6	7.0	ltm	414	diff_vonmises	0.377430647576727	21.625183165036034	1.1550803158175973	48.393204519159696	1.1206453584243483	48.82828318280813	0.15195270151764	-0.1502006331055598	0.3021533346231999	81.96731377943831	far	LO1
0	1.0	ltm	415	diff_vonmises	-0.0810049597599303	-4.641242313871073	0.2612136228510333	77.35435932406104	0.2492680574303439	79.35144233873734	-0.2384344702891034	-0.3702098204112385	0.131775350122135	136.2700970587859	far	V1
1	2.0	ltm	415	diff_vonmises	0.3848963298091549	22.05293524813996	0.5095087595265347	126.83085476527114	0.4989651993840281	127.67807061324484	0.0412231785505454	-0.2272585412790295	0.268481719829575	117.25380737633908	far	V2
2	3.0	ltm	415	diff_vonmises	0.1729747507553156	9.910723180606936	1.837182309938271	74.96583017042965	1.8147412702596692	75.20513937267154	0.1570748516198534	-0.1169372289147023	0.2740120805345558	65.37750823783372	far	V3
3	4.0	ltm	415	diff_vonmises	-0.1210864775252485	-6.937744118302441	0.7721931446614815	100.75015988180697	0.7555598307863451	102.03008976791229	-0.0577990439404345	-0.2632397059676421	0.2054406620272075	88.30772372191964	far	V4
4	5.0	ltm	415	diff_vonmises	-0.1452498137414968	-8.322201302449077	1.5614999694977558	94.93645681113264	1.5339724418448113	95.55401494822924	0.1814028878944853	-0.215845331117773	0.3972482190122584	69.08544749322033	far	V3ab
5	6.0	ltm	415	diff_vonmises	-0.261017262406977	-14.955187515978508	0.8629468881941232	178.73641366854596	0.8493782093688083	179.58890102824267	0.1958022836287583	-0.2636950077071915	0.4594972913359498	93.4279589496891	far	IPS0
6	7.0	ltm	415	diff_vonmises	-0.1068525618131907	-6.122200822056578	1.454449382421357	155.25799595516065	1.43794493742148	156.13462876775594	0.0830762689939064	-0.2480055839866182	0.3310818529805246	68.55463661914044	far	LO1
0	1.0	ltm	416	diff_vonmises	0.3020487812648748	17.306120373547497	1.8924096079000376	0.8551827373762528	0.1391299796379827	3.760392609889516	-0.2578732702400281	-0.5352424941071238	0.2773692238670956	83.35869916241674	far	V1
1	2.0	ltm	416	diff_vonmises	0.0330749674114421	1.8950560402083731	2.171824879015964	0.8759879086457276	0.1762770197486709	2.4694965125001778	0.0097197207379664	-0.3417576973600798	0.3514774180980463	81.76617247991092	far	V2
2	3.0	ltm	416	diff_vonmises	0.0353952236350584	2.02799692921055	0.8640103866836243	136.72272948100667	0.8495602446246404	137.5624267424435	0.1140027493328119	-0.2287706117148182	0.3427733610476302	91.50232321239366	far	V3
3	4.0	ltm	416	diff_vonmises	0.1091949022814443	6.256407045070206	0.0005037250160917	1411.0136671887878	1.2054638436190451e-24	1412.8411260984378	-0.1777145828744437	-0.4039551647579458	0.226240581883502	179.51304240792985	far	V4
4	5.0	ltm	416	diff_vonmises	0.0406291539487068	2.3278790464481856	2.687644027778473	0.6515781778740903	4.4595374774265095e-22	1.6159877166817287	0.1433868783272406	-0.2553377538978932	0.3987246322251339	83.88885278106221	far	V3ab
5	6.0	ltm	416	diff_vonmises	-0.2437384967452753	-13.965187168367429	0.3110046321246082	83.61887688360221	0.294060242704331	84.52971453631528	0.0633018904093063	-0.2929797414006092	0.3562816318099155	142.22514939880153	far	IPS0
6	7.0	ltm	416	diff_vonmises	0.453364173136855	25.975853703180128	1.535189491286372	0.8573535063519806	0.1743855344421629	1.6590523303215992	0.0646487799246887	-0.2042745644591798	0.2689233443838685	97.0202199386138	far	LO1
0	1.0	ltm	417	diff_vonmises	0.2913066892231705	16.690643836416772	0.676408369166812	94.723973519519	0.6538550525643575	96.83679269106622	-0.1762259106977453	-0.4036264371919138	0.2274005264941685	90.1063671330628	far	V1
1	2.0	ltm	417	diff_vonmises	0.1578866035146179	9.046236023043	0.7235516128499063	113.4791043389588	0.7068680553007414	114.6407804210948	0.0289891407067202	-0.2708970676322675	0.2998862083389877	96.44149179144634	far	V2
2	3.0	ltm	417	diff_vonmises	0.0877087046701952	5.02533860416156	1.0869917152540765	105.965805480531	1.0712896375055343	106.4892160010318	0.126388470104807	-0.1612324261871904	0.2876208962919975	82.97115696446079	far	V3
3	4.0	ltm	417	diff_vonmises	-0.1358582344591798	-7.784103446609809	2.8018494972274253	0.3449401758112633	8.186781784328258e-34	1.721044250624458	-0.0566755645279194	-0.2731123205687599	0.2164367560408404	82.1344848067574	far	V4
4	5.0	ltm	417	diff_vonmises	-0.0197431912020207	-1.1312015299956086	2.111708849483177	0.8355591143656999	0.2982701223855765	1.739722557255499	0.0804610177816672	-0.2198151667831646	0.3002761845648319	80.41504707112784	far	V3ab
5	6.0	ltm	417	diff_vonmises	-0.3585342372762194	-20.54249860686941	0.5181706831532737	74.07077648007832	0.4952032605481613	75.11616724821982	0.0612708548864446	-0.2861996989684066	0.3474705538548512	117.45469350622577	far	IPS0
6	7.0	ltm	417	diff_vonmises	0.198985327702716	11.401019462393249	0.731654559727304	106.22681423900453	0.7128072917828866	107.64568081204423	-0.0253024288288372	-0.3059250533159598	0.2806226244871226	93.27075140506108	far	LO1
0	1.0	ltm	418	diff_vonmises	0.2253358649774211	12.91079403613601	4.368227273230216	0.5342603181735449	0.0376045112919282	3.5486205918459146	-0.1553286554616718	-0.5591526596004616	0.4038240041387897	63.1456711569723	far	V1
1	2.0	ltm	418	diff_vonmises	-0.0338215317399116	-1.9378310253646944	1.454381400373966	3.5053315198817363	0.6599644334079137	5.120303187456611	0.072247294829024	-0.3855063964287128	0.4577536912577368	80.46943661889352	far	V2
2	3.0	ltm	418	diff_vonmises	-0.0297927281913451	-1.7069975855445036	0.7686303331911064	149.07811648319853	0.7524506795041142	150.21055165052206	0.1269533216233256	-0.3030877915876662	0.4300411132109918	96.73760508507698	far	V3
3	4.0	ltm	418	diff_vonmises	-0.0453681335487413	-2.5994025767287554	0.5269842912335161	2.1683571797071943	3.9325946101434846e-15	3.9998046731711927	-0.0906206140196629	-0.4462856592081514	0.3556650451884885	150.76391389873368	far	V4
4	5.0	ltm	418	diff_vonmises	0.0089775709681026	0.5143769267514592	2.108364847169569	0.9677876731491112	1.3454728787069053e-12	2.148776738018984	0.1733795204350158	-0.3343872640355911	0.5077667844706069	94.60283066013082	far	V3ab
5	6.0	ltm	418	diff_vonmises	-0.1808950457134902	-10.36452265420908	0.59026525223654	2.283957600570376	7.185112431643347e-19	3.3383209372548763	0.0709950114510808	-0.3463284068490628	0.4173234183001437	147.08985310468466	far	IPS0
6	7.0	ltm	418	diff_vonmises	0.2685874815040568	15.388929120230516	1.532538910326838	0.8720301914025209	0.0359760520382945	2.2027944318328423	0.0193457514826104	-0.3202357580603754	0.3395815095429859	105.93224715829425	far	LO1
0	1.0	ltm	419	diff_vonmises	-0.0994882957282141	-5.700259456176089	0.1239619266659738	70.61781938252213	0.1134363302406086	71.91261714747498	-0.1052121816212192	-0.2942744359879672	0.1890622543667479	164.55591803243135	far	V1
1	2.0	ltm	419	diff_vonmises	0.1036073041000692	5.936261251662435	0.5473502955999915	37.0271876188336	0.5054808322722609	37.80680646886473	0.0977162587610784	-0.2410931197794306	0.3388093785405091	117.618224008063	far	V2
2	3.0	ltm	419	diff_vonmises	0.1526566839193253	8.746583703039967	1.1392625693130152	126.25298729209126	1.1221170371950615	126.66253925460992	0.2543715201156544	-0.1798710967712828	0.4342426168869373	84.12137051805757	far	V3
3	4.0	ltm	419	diff_vonmises	-0.221361106892252	-12.68305717327032	4.709034674855979	0.5690491950208872	6.573082924035611e-38	1.916412255931636	0.1728392249117148	-0.304967656454298	0.4778068813660128	62.9651379068317	far	V4
4	5.0	ltm	419	diff_vonmises	-0.099373485200023	-5.6936812974670685	1.7513751731562417	0.8899787576554777	0.2634288336756528	1.1629935780944105	0.1868139446150813	-0.1297558993789117	0.316569843993993	92.4867059217258	far	V3ab
5	6.0	ltm	419	diff_vonmises	-0.4008713772873579	-22.9682380461621	0.6397291434692904	10.960282077317212	0.5045771270511963	11.468000455068765	0.1537232556143677	-0.2023883553382048	0.3561116109525726	115.86742250745633	far	IPS0
6	7.0	ltm	419	diff_vonmises	0.1486518936806921	8.51712612453109	1.8745063155595385	222.14482546543704	1.8621431985633088	222.7896853070024	0.123321934071285	-0.2263109834617083	0.3496329175329933	61.30481652887681	far	LO1
0	1.0	ltm	420	diff_vonmises	-0.3716442965311772	-21.29364967134492	0.0004211784426432	1583.439024357807	1.8591165013296715e-31	1584.865486739944	-0.1208766753012469	-0.3331580519983674	0.2122813766971205	176.0658467379656	far	V1
1	2.0	ltm	420	diff_vonmises	0.0746660317497187	4.278048492248689	2.5437271332191105	0.9089268918709342	0.378177814262201	1.6143220380558745	0.1791902268759427	-0.2059189757828291	0.3851092026587718	74.59899696625618	far	V2
2	3.0	ltm	420	diff_vonmises	0.0018493841635964	0.105961907272411	0.8168726099768169	38.60668485765993	0.7838461275404776	38.94088604477933	0.1430406658390044	-0.1331803717605408	0.2762210375995453	99.0719012321147	far	V3
3	4.0	ltm	420	diff_vonmises	-0.3826214569566472	-21.922594634762376	3.889542180600436	0.5580850178780177	1.413621604606009e-17	1.5453970621918287	0.1766074210374578	-0.2457807811067587	0.4223882021442167	69.44491503651031	far	V4
4	5.0	ltm	420	diff_vonmises	-0.0907168899658409	-5.19769492559537	1.4705711412615308	0.7998697730056065	2.2569650277831483e-14	1.0191973093247118	0.1801222245812739	-0.1441329762679145	0.3242552008491886	111.35702761204108	far	V3ab
5	6.0	ltm	420	diff_vonmises	-0.4296102821853826	-24.61485600464676	1.2102352496566535	1.0018167463024448	5.030897596296488e-18	1.2632747201242012	0.1806516680644784	-0.1671284266146539	0.3477800946791324	119.28461882972894	far	IPS0
6	7.0	ltm	420	diff_vonmises	0.1950077695032457	11.173122164795943	1.020887234048831	150.03710505714596	1.0038868321684755	150.97316318292278	0.1614398809543615	-0.2656782728627345	0.427118153817096	84.61766355859851	far	LO1
0	1.0	ltm	421	diff_vonmises	0.2771313850918139	15.87845873637568	0.3480759185427978	135.6184718150842	0.3364573606694316	138.46720821104662	-0.3319950379197536	-0.5170874618232144	0.1850924239034608	118.84890193671797	far	V1
1	2.0	ltm	421	diff_vonmises	0.1829239607474103	10.48077092264335	0.5138908143919056	151.01421672984728	0.5018128868743547	152.55742016363666	-0.0399952466382913	-0.3446558461263151	0.3046605994880238	112.01180455309762	far	V2
2	3.0	ltm	421	diff_vonmises	0.1402170383930872	8.033844515747726	1.1229589787324346	109.897136658505	1.101982811143475	110.76738706868692	0.1168584531087546	-0.2378799236614348	0.3547383767701895	79.73614975761953	far	V3
3	4.0	ltm	421	diff_vonmises	0.2768966934297807	15.865011894654268	0.5698525226265811	1.1804687988335183	6.6657058191957705e-15	3.2126143692524614	-0.2045487505901395	-0.4131682154333557	0.2086194648432162	147.3323141197129	far	V4
4	5.0	ltm	421	diff_vonmises	-0.0138781087261518	-0.795157057632182	1.0011976584789053	96.15725265023288	0.9743400248243758	97.28211765817248	0.1101335094047328	-0.2902259289950617	0.4003594383997946	83.94456604380628	far	V3ab
5	6.0	ltm	421	diff_vonmises	-0.2487795754438803	-14.254019701990796	0.4996092825457056	128.72535534549874	0.4848602622123545	129.9393665655159	0.0582988774627892	-0.3278622263976594	0.3861611038604486	118.77607334690926	far	IPS0
6	7.0	ltm	421	diff_vonmises	-0.0570276333168295	-3.267442704673971	1.3213436619050811	88.9673337078361	1.3003319146157568	89.93275086428595	-0.044625482806154	-0.2277562107577004	0.1831307279515464	66.99784243908007	far	LO1
0	1.0	ltm	422	diff_vonmises	-0.2313330151221189	-13.254405428533468	0.3046360223914072	46.34103434906284	0.280407776336403	47.86936233174241	-0.115283898938518	-0.3296615354318239	0.2143776364933058	137.7595901151069	far	V1
1	2.0	ltm	422	diff_vonmises	0.1113330450694081	6.378913602816869	0.6109814062362576	64.64363208342334	0.5861409885114232	65.3717783963008	0.1124148972155083	-0.2250169940205184	0.3374318912360268	110.88273131772172	far	V2
2	3.0	ltm	422	diff_vonmises	0.0169132599410225	0.9690584124282744	1.3871795021946105	122.7385199225326	1.3720372054869354	123.04488181923249	0.2072507875071494	-0.1407161882557179	0.3479669757628674	76.0498691443731	far	V3
3	4.0	ltm	422	diff_vonmises	-0.2159064991102635	-12.370531168463163	3.321355193008191	0.4939790692157414	1.1939720525157553e-15	1.5719937553550305	0.0924778415066888	-0.2497438499437246	0.3422216914504135	75.31053667005307	far	V4
4	5.0	ltm	422	diff_vonmises	-0.0595018907440857	-3.4092072126846524	3.157624967369262	0.48348351806528	6.086737355020541e-13	1.037929108168723	0.1607828631962833	-0.1646019239972976	0.325384787193581	77.29068775262016	far	V3ab
5	6.0	ltm	422	diff_vonmises	-0.357359479496478	-20.475189944140062	1.4020012605048455	1.6279198630935263	0.2450888449220091	2.540309121603216	0.1680012605546036	-0.2732073848452814	0.4412086453998851	98.89945907026052	far	IPS0
6	7.0	ltm	422	diff_vonmises	0.0966513714743846	5.537715669633358	1.1284867840550368	198.166525816076	1.1145873286974897	199.16987413135016	0.1498078506690348	-0.2794372900600805	0.4292451407291153	79.72476704827972	far	LO1
0	1.0	ltm	423	diff_vonmises	0.038655305445177	2.214785857797715	2.380865466828631	0.4867110233434909	2.279938410024803e-42	2.756423190271849	-0.1599961971146283	-0.4363151708505329	0.2763189737359046	89.1330415626559	far	V1
1	2.0	ltm	423	diff_vonmises	0.0229631350020428	1.3156907200061885	3.2220563018359925	0.8314232490803751	0.2005866697655431	1.9210730150747115	0.1970772090657676	-0.2804391739447011	0.4775163830104686	70.32935918670185	far	V2
2	3.0	ltm	423	diff_vonmises	-0.0650431590668532	-3.7266985007287623	1.5521159899002297	1.055789121429342	4.9177058716583536e-17	1.8729882891960312	0.1687875287548989	-0.2771507257600227	0.4459382545149217	108.8513186961648	far	V3
3	4.0	ltm	423	diff_vonmises	-0.3421702619361035	-19.604911883824613	1.8143790895965144	1.1682880810174787	1.2668083549082925e-21	2.662668286387883	0.1443251833923289	-0.4086929025762569	0.5530180859685859	101.31437131472836	far	V4
4	5.0	ltm	423	diff_vonmises	-0.0678304043901928	-3.8863958942237	1.3227639550203618	1.3981985560316443	8.171373053030741e-17	1.6846804440858814	0.2933826346935275	-0.2282759913683123	0.5216586260618399	116.26417372591136	far	V3ab
5	6.0	ltm	423	diff_vonmises	-0.221008939152707	-12.662879448113728	0.4878393950366785	2.636036454748776	2.436227619512133e-08	2.866300994609689	0.1882342522328174	-0.2132764107779402	0.4015106630107576	152.05160981837577	far	IPS0
6	7.0	ltm	423	diff_vonmises	0.2949973265826832	16.902101780830158	1.3638128501505862	133.72533351421083	1.3463434891028183	134.23514702504252	0.2135762269829229	-0.1911169475847884	0.4046931745677113	75.32150664708303	far	LO1
0	1.0	ltm	424	diff_vonmises	0.093459258796215	5.354821085444038	2.291484953009816	0.5296916331637458	1.2720602461567168e-19	1.8975657761802	-0.0055121329540959	-0.298975199536808	0.2934630665827121	90.82678245922835	far	V1
1	2.0	ltm	424	diff_vonmises	-0.0993258325180676	-5.690950999908544	0.9875945107180296	113.5202445498294	0.9662007795307704	114.302704854352	0.1979240290654118	-0.2446895139164553	0.4426135429818671	87.57829592739341	far	V2
2	3.0	ltm	424	diff_vonmises	0.0322995818122619	1.8506297178801223	1.0444553003983394	155.79618467649206	1.026713809377803	156.4383789035787	0.2984733949033469	-0.2488714592835244	0.5473448541868713	87.08277082885687	far	V3
3	4.0	ltm	424	diff_vonmises	-0.1551536717530349	-8.889650567407038	3.2017819324088266	0.8336046893812579	3.538266488801463e-26	2.0476157646798683	0.2406113466044256	-0.3249502365630273	0.565561583167453	76.73754284830329	far	V4
4	5.0	ltm	424	diff_vonmises	-0.070850172617445	-4.059415868752952	1.8605957889787303	0.9041481748865038	5.948469656903652e-13	1.3105786203310965	0.2378664722270454	-0.1977786362508228	0.4356451084778683	100.36227293262787	far	V3ab
5	6.0	ltm	424	diff_vonmises	-0.30921737866402	-17.71685074954698	1.5390095150913117	1.0600116376612474	6.84976261565744e-16	1.7833468463751732	0.1825140658253344	-0.2623524028401296	0.444866468665464	108.95708485964995	far	IPS0
6	7.0	ltm	424	diff_vonmises	0.1020543688702475	5.847284617136478	1.4517488060949153	187.2781363122903	1.434542827005712	188.19199556380104	0.1849621308934814	-0.2866117162775694	0.4715738471710509	70.5894610675106	far	LO1
0	1.0	ltm	425	diff_vonmises	0.0727172072192813	4.166389071643059	2.2575488067185967	0.4643521495003391	2.8790491025954984e-26	3.6225294028461215	-0.3189136670138758	-0.5737242837491842	0.2548106167353083	91.49618899618928	far	V1
1	2.0	ltm	425	diff_vonmises	0.0590230280338745	3.381770400423351	2.6398857262657964	0.8381867554723209	0.1867012461713608	2.186163465248568	0.0942242551030133	-0.3109181028536676	0.4051423579566809	76.04623691111328	far	V2
2	3.0	ltm	425	diff_vonmises	0.0460077249584318	2.636048465116843	2.907137230028315	0.5257294204338114	1.558555390614536e-14	1.3792477722565115	0.1186637195029052	-0.2185046415509536	0.3371683610538589	80.61701739711003	far	V3
3	4.0	ltm	425	diff_vonmises	-0.2956270376420569	-16.938181566844978	0.3870054618170447	69.89499759546726	0.3601153267751834	71.65067236870776	-0.0451314036253851	-0.4241549095278651	0.37902350590248	129.74579500691885	far	V4
4	5.0	ltm	425	diff_vonmises	-0.0059869893440766	-0.3430292214053869	2.002538890334631	1.1219152246588582	0.0143645100483913	1.874338057564396	0.2765923993592219	-0.2834851271711063	0.5600775265303282	96.22879607469048	far	V3ab
5	6.0	ltm	425	diff_vonmises	-0.1907095542305708	-10.926852570233002	0.3623221372147651	75.3498619555176	0.3395787735122515	75.90780274330163	0.1896211599688015	-0.279872270291408	0.4694934302602096	139.07934522790043	far	IPS0
6	7.0	ltm	425	diff_vonmises	0.3021067857681698	17.309443786779052	0.9174155083056632	82.45513662121397	0.8933519722837021	83.21996000749043	0.1319292885112126	-0.2179042022215007	0.3498334907327134	89.72026079884239	far	LO1
0	1.0	ltm	426	diff_vonmises	0.1955565076470827	11.20456254449565	0.5018926916592472	76.96476330546342	0.4761780932107153	79.68828740028424	-0.2906395782054787	-0.4946630311802309	0.2040234529747522	100.53074987265212	far	V1
1	2.0	ltm	426	diff_vonmises	0.1245488964387255	7.136126108950942	0.9094671571103914	111.97818706836472	0.8902489959196255	113.11727458495156	0.0443751676986465	-0.2694761880074896	0.3138513557061362	86.06028838532018	far	V2
2	3.0	ltm	426	diff_vonmises	0.1905037546056142	10.915061120297612	2.1286035157194307	0.9031649155528264	0.5394234952396678	1.4641918743471989	0.1116676073848845	-0.1594689531789342	0.2711365605638188	76.03587199367257	far	V3
3	4.0	ltm	426	diff_vonmises	-0.2067312196645813	-11.844826380372442	0.5243864305377303	98.75596256891502	0.5078401403522366	100.2762168699748	-0.0711861538353275	-0.3205275468785888	0.2493413930432613	108.78559927151578	far	V4
4	5.0	ltm	426	diff_vonmises	-0.0131299219240297	-0.7522891115831938	1.0873676807170276	112.69046602418356	1.06504678072609	113.36121649535248	0.2347956010906742	-0.2317721761271105	0.4665677772177847	84.39583759622559	far	V3ab
5	6.0	ltm	426	diff_vonmises	-0.1996676705135304	-11.440114825634009	0.5639587566847174	116.30212868684926	0.5484401930908526	116.8628107843142	0.1965150347311137	-0.241456640052819	0.4379716747839328	117.99220886005372	far	IPS0
6	7.0	ltm	426	diff_vonmises	0.3264163496434361	18.7022791986355	1.86848363853055	0.7165261191194144	1.4532693424313227e-10	1.5576382153171255	0.1068031785019997	-0.2394540090420205	0.3462571875440202	99.96155551424124	far	LO1
0	1.0	ltm	427	diff_vonmises	0.0712453158980582	4.082055911035045	2.115016811931416	0.4870297682481019	6.546652919995945e-20	2.86736369674904	-0.1964904066139989	-0.4525735641323287	0.2560831575183297	94.4458117572297	far	V1
1	2.0	ltm	427	diff_vonmises	-0.0469010557179748	-2.687232547347878	2.807676822043249	0.6442868615609698	4.669362225200195e-15	1.8418258771942435	0.1131020222528549	-0.2916562454560719	0.4047582677089268	82.05523765420392	far	V2
2	3.0	ltm	427	diff_vonmises	-0.0157374210457009	-0.9016878063390208	1.0833044713844384	129.6928244329361	1.0661833812908452	130.3134348517407	0.1971307779563602	-0.2074422528024673	0.4045730307588275	84.11255855328002	far	V3
3	4.0	ltm	427	diff_vonmises	-0.2317186391346537	-13.27650005693061	1.5447838647977847	0.923730614014014	0.0659461638165238	2.4143461483410675	-0.0026911669669568	-0.3407997541808027	0.3381085872138459	102.59248416626636	far	V4
4	5.0	ltm	427	diff_vonmises	0.0361435942164662	2.0708754050369693	2.1922044671869028	0.8274609419453491	3.278702452355144e-14	1.4868685767271823	0.2144628602366666	-0.2310170654074897	0.4454799256441564	92.82425740035444	far	V3ab
5	6.0	ltm	427	diff_vonmises	-0.2905885758090754	-16.64949896857739	0.5290345317120907	125.85251459326255	0.5140613698290848	126.66376561256452	0.1510223094456648	-0.2808792695883113	0.4319015790339762	119.27807280153964	far	IPS0
6	7.0	ltm	427	diff_vonmises	0.2904452535268371	16.641287206694958	1.119165371783715	93.10818257769024	1.0981463911492482	93.5953039347374	0.1905470946965977	-0.175149756809203	0.3656968515058008	83.47955854002637	far	LO1
0	1.0	ltm	428	diff_vonmises	0.1407406744318567	8.063846650770168	1.209281910213842	0.6659103562255414	5.860715594434717e-34	2.9804559088277003	-0.220742223892407	-0.4517702500607649	0.2310280261683578	120.21494344276836	far	V1
1	2.0	ltm	428	diff_vonmises	0.0280450349699654	1.6068621400758245	2.235126980280306	0.7366471846934464	1.0141772570501485e-15	2.2697929673032355	0.0450098765336927	-0.3565988911159816	0.4016087676496743	91.95392390775754	far	V2
2	3.0	ltm	428	diff_vonmises	-0.1233593323915652	-7.067969109588159	0.5935508321257231	108.9164941013502	0.5738100638349014	109.85287642086315	0.1622460558053973	-0.3022519196200814	0.4644979754254787	112.79678273593272	far	V3
3	4.0	ltm	428	diff_vonmises	-0.0525266205340066	-3.009553668683785	0.0003196658024124	3357.682357159928	2.1822312186297003e-28	3359.556324069876	-0.1274106830704795	-0.46906420701157	0.3416535239410905	179.90268322106976	far	V4
4	5.0	ltm	428	diff_vonmises	-0.1151483877060713	-6.597516633293985	1.019619321535991	1.163158339531233	5.517695088966549e-15	1.8053441555173209	0.1144371233533203	-0.2350458373466136	0.3494829606999339	127.67767973614323	far	V3ab
5	6.0	ltm	428	diff_vonmises	-0.3355377255716109	-19.224895542672144	0.2444836214516874	3.90451240651884	2.6155619008161818e-12	4.549067499270001	0.0577983498762303	-0.2445555394881372	0.3023538893643676	163.6352003471183	far	IPS0
6	7.0	ltm	428	diff_vonmises	0.4241697308232711	24.303135373373618	1.443188997215536	85.67268920180904	1.4226384667384426	86.19636266640717	0.0925239569463514	-0.1598477344760791	0.2523716914224305	70.4646018040246	far	LO1
0	1.0	ltm	429	diff_vonmises	0.0326465862416807	1.870511607158167	2.673985959543523	0.4874292210273223	3.999727681287844e-18	2.842959087875664	-0.1536821447351088	-0.4510493977179901	0.2973672529828813	84.10146417016648	far	V1
1	2.0	ltm	429	diff_vonmises	-0.0843741339751136	-4.834281776845382	3.4396163331945595	0.6622628340281631	0.0293194770157909	1.7141285996814652	0.1876375908098135	-0.2661241284509323	0.4537617192607458	72.67395612059514	far	V2
2	3.0	ltm	429	diff_vonmises	0.0003198272020277	0.0183247488496695	1.1370592107764783	97.37258268366357	1.111670554167552	98.01032233577192	0.2301345317825109	-0.2226285070063181	0.452763038788829	82.59023331629908	far	V3
3	4.0	ltm	429	diff_vonmises	-0.2297394335553116	-13.163099930445563	1.294155669985861	1.7942035800644387	0.2178405179036487	3.193459985010174	0.0866958528768202	-0.3527403269754797	0.4394361798523	101.06117092796896	far	V4
4	5.0	ltm	429	diff_vonmises	0.0325418794914109	1.8645123522811755	2.084065322505012	1.063597368003779	5.384351107932306e-16	1.5122338485133322	0.3218116891697029	-0.2319713673886335	0.5537830565583365	95.1261655955573	far	V3ab
5	6.0	ltm	429	diff_vonmises	-0.2285088330171158	-13.092591713340417	0.6195193847529508	121.38764577735868	0.6020826304490628	122.01049898170712	0.2353698043522598	-0.2653867186174956	0.5007565229697555	113.13917629616304	far	IPS0
6	7.0	ltm	429	diff_vonmises	0.2338720163239673	13.39987948157802	1.201678634378121	99.05246856465872	1.179552990343377	99.39837982663552	0.2755275703157736	-0.1722961872677029	0.4478237575834765	82.61201354007392	far	LO1
0	1.0	ltm	430	diff_vonmises	0.1786567136412143	10.236275673318906	6.155221849667255	0.4384601232129993	1.3225875870390681e-16	3.4805978286031256	-0.1295976833854283	-0.5539524376415987	0.4243547542561703	54.91111366404468	far	V1
1	2.0	ltm	430	diff_vonmises	-0.0467289099758637	-2.6773693228637625	2.8884981208968377	1.0739633693839348	0.3110890384284567	2.6809493524010093	0.1197505431327129	-0.3788318472404185	0.4985823903731314	70.07039376026327	far	V2
2	3.0	ltm	430	diff_vonmises	-0.065911060789746	-3.776425606482657	0.7050674491095363	151.81005920112275	0.6902793638578236	152.84064304253192	0.1364972782867042	-0.2908075738819793	0.4273048521686835	101.79329263234769	far	V3
3	4.0	ltm	430	diff_vonmises	-0.1288374002995056	-7.381839280599199	0.6136235828217638	1.924050141844164	7.631938702761711e-22	3.70792786850038	-0.0742345165682815	-0.4389213489786442	0.3646868324103627	146.14642021592812	far	V4
4	5.0	ltm	430	diff_vonmises	0.0282969725019536	1.6212970973596883	1.8463576353271935	1.0806187347965488	1.6968580759005892e-19	1.966025025647084	0.2181811867448584	-0.2996752704334614	0.51785645717832	100.72816226940506	far	V3ab
5	6.0	ltm	430	diff_vonmises	-0.1727498161497095	-9.897835377039264	0.3801774721653917	3.3120877754184703	3.1247368024650035e-20	4.034078342935805	0.1017930681867737	-0.2942991460278749	0.3960922142146486	158.04470723617857	far	IPS0
6	7.0	ltm	430	diff_vonmises	0.3336630653288575	19.117485422741403	1.9844718127596697	0.7328840679265012	2.329157581635749e-15	1.495419764538659	0.1383015024980086	-0.2308937153771621	0.3691952178751708	97.19725243499414	far	LO1
0	1.0	ltm	431	diff_vonmises	0.2031946177168172	11.642194014947812	0.836578496142649	0.801413588410881	2.0033140561620882e-15	3.029938426935113	-0.2332917755036513	-0.4355140333205332	0.2022222578168819	135.22526255774	far	V1
1	2.0	ltm	431	diff_vonmises	0.0297031597448675	1.7018656915837942	0.6896915459786275	1.6958001692836988	2.520269491408595e-18	3.2261378709211	-0.0342376852680222	-0.3928181413160582	0.3585804560480359	142.5837150876977	far	V2
2	3.0	ltm	431	diff_vonmises	-0.0010547785686988	-0.0604343603072954	0.9063907367725372	161.62481489072613	0.8920290645539488	162.3968350395692	0.194132336419166	-0.2433359177562017	0.4374682541753678	91.41177731970942	far	V3
3	4.0	ltm	431	diff_vonmises	0.1809751121258296	10.369110121716888	0.0002641029778538	2856.757607630291	2.259908173595723e-31	2858.655351895488	-0.1819510117396703	-0.4221038940355015	0.2401528822958312	178.86203236408397	far	V4
4	5.0	ltm	431	diff_vonmises	0.0117167909912985	0.6713226732383133	2.2720456129814117	0.5523441119672244	8.257302390850274e-21	1.2935234977888457	0.1017413740222855	-0.2026005510577752	0.3043419250800608	91.21712081304722	far	V3ab
5	6.0	ltm	431	diff_vonmises	-0.411020928936288	-23.54976451959584	0.3185473988461265	82.0044882188513	0.3030609004491573	82.89906428683719	0.0394750291967405	-0.2695949281863736	0.3090699573831141	139.593857450254	far	IPS0
6	7.0	ltm	431	diff_vonmises	0.3778539328909741	21.649435627072258	1.5277580712653716	69.16870366899045	1.5058581230072483	69.57716443625111	0.0867009845430999	-0.1317492931692179	0.2184502777123178	68.87025036957542	far	LO1
0	1.0	ltm	432	diff_vonmises	-0.3716184843385758	-21.292170741648874	0.0005545811348998	1202.544787924151	8.41360547219209e-28	1203.9712503060211	-0.1208733978930638	-0.3331542499350348	0.212280852041971	176.0592422278552	far	V1
1	2.0	ltm	432	diff_vonmises	0.0746660317497187	4.278048492248689	2.5437271332191105	0.9089268918709342	0.378177814262201	1.6143220380558745	0.1791902268759427	-0.2059189757828291	0.3851092026587718	74.59899696625618	far	V2
2	3.0	ltm	432	diff_vonmises	0.0018492825341242	0.1059560843325743	0.8166589316288079	39.11099082294015	0.7840565102132929	39.44519200833084	0.1430407393947881	-0.1331804452938714	0.2762211846886595	99.071943663578	far	V3
3	4.0	ltm	432	diff_vonmises	-0.3826214558184575	-21.922594569548917	3.8895421308859306	0.5580850207120643	1.413085817099359e-17	1.5453970652126388	0.1766074197408313	-0.2457807815702957	0.4223882013111271	69.44491549048756	far	V4
4	5.0	ltm	432	diff_vonmises	-0.0907168880734983	-5.197694817172131	1.4705711527242769	0.7998697681277216	2.2570958820065027e-14	1.0191973044468965	0.1801222248868844	-0.144132975931219	0.3242552008181034	111.35702725056296	far	V3ab
5	6.0	ltm	432	diff_vonmises	-0.429610286055947	-24.614856226413764	1.210235218414199	1.0018167683537944	5.2339092253129285e-18	1.2632747428458473	0.1806516670897758	-0.1671284278783192	0.3477800949680951	119.28461991474784	far	IPS0
6	7.0	ltm	432	diff_vonmises	0.1950078168079929	11.173124875158312	1.0209002157052938	149.8109571596204	1.0038742271862937	150.74701527168895	0.1614399395769155	-0.2656782868283791	0.4271182264052946	84.6176580275006	far	LO1
0	1.0	ltm	433	diff_vonmises	2.886677921022617	165.39446168819475	13.130138450174968	0.1529506025278022	0.9799611671336156	0.8070329971976903	-0.038417338334699	-0.2083563001114204	0.1699389617767214	201.98731533262443	far	V1
1	2.0	ltm	433	diff_vonmises	0.5371450655840729	30.776145244245185	0.2494117859304263	39.40525209077756	0.220765788236902	39.61930148067774	0.1560149601487275	-0.1834135934898029	0.3394285536385304	148.22653602131157	far	V2
2	3.0	ltm	433	diff_vonmises	0.1725245595466948	9.884929124379068	2.724114396224157	6.241124196491595	2.585767420076701	6.029652495674209	0.2426397748317845	-0.0206990627566447	0.2633388375884293	63.5010267947201	far	V3
3	4.0	ltm	433	diff_vonmises	-0.2691726660973798	-15.422457727664003	1.2389083682276023	49.13425470654568	1.195194384850645	50.021827301993326	0.0599827435778514	-0.2292801838960541	0.2892629274739056	74.36852164474749	far	V4
4	5.0	ltm	433	diff_vonmises	-0.3001926740092746	-17.199773261477997	2.692447670611169	39.09871821376339	2.6469163579801256	39.21767168089813	0.1648949537998376	-0.1005332246936019	0.2654281784934396	54.59106752903139	far	V3ab
5	6.0	ltm	433	diff_vonmises	-0.4494049409979878	-25.74900641151048	0.980945326878702	131.41344844229695	0.963643936563517	132.08994508262373	0.2045672368696571	-0.2238961071748804	0.4284633440445375	88.44087304245468	far	IPS0
6	7.0	ltm	433	diff_vonmises	-0.0531155727466307	-3.043298144802037	2.209150234828497	24.63949562860322	2.096513666259748	25.11890990608906	0.1626222946670079	-0.2047847378636826	0.3674070325306906	58.13134339637261	far	LO1
0	1.0	ltm	434	diff_vonmises	0.1113411152267934	6.379375988775047	5.924965474803896	0.4278734127016846	9.037926723400659e-17	2.806302092626703	-0.0407740833975426	-0.4466339516236369	0.4058598682260943	55.99290874794031	far	V1
1	2.0	ltm	434	diff_vonmises	-0.1004808529377241	-5.757128795206295	3.815347450821904	0.8351094042819166	0.1888548296098542	2.073329157632457	0.2306131590372814	-0.3134821367846974	0.5440952958219789	65.36927730368657	far	V2
2	3.0	ltm	434	diff_vonmises	-0.0881696728552455	-5.05175013565475	0.8333239080484662	127.0645627385564	0.8147391795554891	127.81760572944746	0.2200773695936035	-0.2542261225746074	0.474303492168211	96.2087862060789	far	V3
3	4.0	ltm	434	diff_vonmises	-0.2837183888608019	-16.25586625197546	1.956561742998221	0.900162378605196	1.138651712521992e-13	2.3294136706174924	0.0875055179788711	-0.3615825588134913	0.4490880767923624	97.91280549751248	far	V4
4	5.0	ltm	434	diff_vonmises	0.0367326634865629	2.1046265880543613	1.4460457717760085	1.2961834789396318	1.4949095363344345e-19	1.762857133079697	0.2685747234985314	-0.2501118045608838	0.5186865280594153	112.15691346401742	far	V3ab
5	6.0	ltm	434	diff_vonmises	-0.2584232234476027	-14.806560031713854	0.7997645384037761	1.689815548363322	1.6056082340212556e-09	2.2206355226361607	0.1595997528236687	-0.2497974506216192	0.4093972034452879	136.6943518271347	far	IPS0
6	7.0	ltm	434	diff_vonmises	0.3012556523204021	17.260677432419545	1.074297884535473	41.955686912431474	1.0285454162329537	42.27634334244102	0.2500354892227232	-0.1606841024259671	0.4107195916486903	88.00102882745387	far	LO1
0	1.0	ltm	435	diff_vonmises	0.0929511083731916	5.325706210847009	2.844875624655728	0.3654683642769066	5.486729252113336e-30	2.4418073107764653	-0.1564374403946061	-0.3878407343859033	0.2314032939912971	81.50576634162056	far	V1
1	2.0	ltm	435	diff_vonmises	0.0598598005832607	3.429713935915584	2.03313721241075	1.278029047306776	0.4981708041017296	2.1623624820282226	0.1330640118400429	-0.2370472947356896	0.3701113065757325	77.55159220983157	far	V2
2	3.0	ltm	435	diff_vonmises	0.125892733296305	7.21312228924437	1.922478387733633	0.920444104311493	0.4300754816090267	1.3755613648336942	0.1420764749579477	-0.1458952612117753	0.2879717361697231	82.7606555810903	far	V3
3	4.0	ltm	435	diff_vonmises	-0.3274763560403118	-18.76301309143335	2.364656040682452	0.6958951797896042	0.0277033449962559	1.899497508838003	0.0861287721145468	-0.2904923364733447	0.3766211085878915	87.37832315518038	far	V4
4	5.0	ltm	435	diff_vonmises	-0.0263683041912896	-1.5107925430780154	1.8674269271246304	1.1158353608588083	0.2550260933915055	1.458677027374884	0.2573891037042198	-0.1682120051895712	0.425601108893791	90.43621307371976	far	V3ab
5	6.0	ltm	435	diff_vonmises	-0.2772174128145211	-15.883387761807924	0.537578184672051	103.98178555475884	0.5224436874678169	104.29218388215834	0.2175337017478007	-0.2002248979533565	0.4177585997011572	122.1360945041917	far	IPS0
6	7.0	ltm	435	diff_vonmises	0.1725395684519917	9.885789071307697	0.934318216601926	143.00858933256882	0.9180152805034172	143.83132361160568	0.1750873948436719	-0.2462953062127262	0.4213827010563982	89.41000219645909	far	LO1
0	1.0	ltm	436	diff_vonmises	-0.0653888640715518	-3.746505938454546	0.0002726970573428	1992.6913529788935	5.383080991801525e-35	1994.8787599565824	-0.261646618141242	-0.4346148563284941	0.1729682381872521	179.86252151716684	far	V1
1	2.0	ltm	436	diff_vonmises	0.2253505428073476	12.911635013843208	1.4212258778483138	1.310736574079673	0.2453983791705392	2.5375222964712663	0.0410395582347616	-0.2869062597100147	0.3279458179447764	94.95787033059622	far	V2
2	3.0	ltm	436	diff_vonmises	0.0631513362317025	3.6183050366881577	1.547941647151638	1.044230603132781	0.2808203094678091	1.6439294362500685	0.1212753529464789	-0.1780436822421388	0.2993190351886177	93.76540804932272	far	V3
3	4.0	ltm	436	diff_vonmises	-0.3793328820635291	-21.734173172774028	1.9598663393267692	0.563051053721494	1.9882489902223716e-16	2.2085819751968643	-0.064583290081284	-0.3458121009854816	0.2812288109041976	97.732955540597	far	V4
4	5.0	ltm	436	diff_vonmises	-0.0639450521337789	-3.663781608009552	1.9674997499158715	0.623258991123959	1.2972250795659428e-16	1.1391331141762295	0.1370501688265154	-0.1750758906620821	0.3121260594885976	97.77379369367767	far	V3ab
5	6.0	ltm	436	diff_vonmises	-0.3865301735292216	-22.14654759768373	0.3788538681307434	86.22141889709172	0.3645150887007138	86.74513857749278	0.1092339737092835	-0.2110859632805795	0.320319936989863	134.99235405613962	far	IPS0
6	7.0	ltm	436	diff_vonmises	0.3398163952942694	19.470045259710883	1.3447164324754404	113.6983680275418	1.3284990709039366	114.34425175520096	0.0729289664074315	-0.1804932126343352	0.2534221790417668	71.90370665060803	far	LO1
0	1.0	ltm	437	diff_vonmises	2.4664575326128144	141.31760696696486	0.917441025182805	49.14445120193314	0.8971158853658459	50.41500754157726	-0.1425571204794966	-0.2438222902584605	0.1012651697789639	137.07656811559872	far	V1
1	2.0	ltm	437	diff_vonmises	0.6701833733826562	38.3986787946664	0.8478777608792164	78.18630958873301	0.8281064636119838	78.72824596007817	0.1275799619130815	-0.1696139140258958	0.2971938759389774	94.56950780018778	far	V2
2	3.0	ltm	437	diff_vonmises	0.2901803711008776	16.62611056162029	2.312051101340093	35.98378831954089	2.281600910720884	35.95516435513591	0.1750585055330376	-0.0510798629658602	0.2261383684988978	62.36379944010636	far	V3
3	4.0	ltm	437	diff_vonmises	-0.4216573238447365	-24.15918505708437	1.03583315528234	92.07393463447625	1.0137730285124498	93.1745497646574	0.0044159630884905	-0.252455042203378	0.2568710052918685	78.83774924869655	far	V4
4	5.0	ltm	437	diff_vonmises	-0.1987423504331623	-11.387097890330212	1.7439156819257362	58.02636939865096	1.718501531054323	58.194788622234455	0.1658412681565266	-0.0982878148619015	0.2641290830184282	68.29893544114933	far	V3ab
5	6.0	ltm	437	diff_vonmises	-0.4840699158050908	-27.735163164884806	0.8625569565306489	137.7123918998251	0.8502215246904216	138.07555878223053	0.2103270926911165	-0.1640408766866681	0.3743679693777846	96.7299478770198	far	IPS0
6	7.0	ltm	437	diff_vonmises	-0.0042878369174688	-0.2456749586113524	1.8886315983537847	126.1108344873286	1.8692569689417449	126.69869967596536	0.1010856755716389	-0.203746563336022	0.304832238907661	60.86289606936205	far	LO1
0	1.0	ltm	438	diff_vonmises	-0.0204234711484243	-1.1701786998119208	1.6848849175272993	0.5874746353400897	2.562836027604993e-19	3.073990557079774	-0.2161498880974721	-0.4798469935535664	0.2636971054560942	105.0134716087801	far	V1
1	2.0	ltm	438	diff_vonmises	-0.0418213129273484	-2.396184724432978	2.492914624739659	0.7191265308741326	1.276475764216072e-13	1.877536053001019	0.1242747677427957	-0.2959273293061331	0.4202020970489288	87.11868191629932	far	V2
2	3.0	ltm	438	diff_vonmises	-0.0248033572967094	-1.4211276908564645	1.1767226178955017	40.61614176811188	1.1173990125040172	41.28978232759914	0.2033183690816589	-0.2218645011602893	0.4251828702419482	81.12271873500646	far	V3
3	4.0	ltm	438	diff_vonmises	-0.227208044798947	-13.018062038399	1.1581454537930298	1.5781998127399064	0.1513160506563991	3.0810906682753805	0.0188868244758276	-0.3612948216034448	0.3801816460792724	108.76805084205988	far	V4
4	5.0	ltm	438	diff_vonmises	0.0185225229693733	1.0612623920792177	2.1147070526517195	0.9497653507722535	7.374652264733332e-16	1.6901567879550736	0.237725801606048	-0.2616184425908794	0.4993442441969274	94.4598884765406	far	V3ab
5	6.0	ltm	438	diff_vonmises	-0.2596358311440319	-14.876037334924323	0.5981466997762362	133.61505419520606	0.5814356413528691	134.53088468281294	0.1821898162185249	-0.3071366158367308	0.4893264320552557	112.71453494097668	far	IPS0
6	7.0	ltm	438	diff_vonmises	0.2311438037323181	13.243564414462076	1.1257643410356946	130.12568847602472	1.1085036269129591	130.75874591286788	0.1903795855588086	-0.2080059557779758	0.3983855413367845	82.23766279945133	far	LO1
0	1.0	ltm	439	diff_vonmises	-0.5377893863662682	-30.813062105717545	0.0457198750070837	24.33162085922169	0.0185494917848015	24.97410681057279	0.0027175209700596	-0.203864890819005	0.2065824117890646	168.67645027938005	far	V1
1	2.0	ltm	439	diff_vonmises	0.29631358890337	16.977518056537605	0.3756452091544213	93.83803840076436	0.3633611785260834	94.11821635051494	0.1479464823982894	-0.1748389317463612	0.3227854141446507	137.13638124805317	far	V2
2	3.0	ltm	439	diff_vonmises	0.0763804080802148	4.376275020483243	1.6886278169876168	102.7135580314364	1.6730882636195046	102.76041871484	0.246659397094767	-0.0926866657555844	0.3393460628503515	71.79396578606594	far	V3
3	4.0	ltm	439	diff_vonmises	-0.1940008786276687	-11.115431567195152	7.5342265992254225	0.3971213187679442	8.704071720396358e-19	1.184345977210231	0.2386516126968013	-0.1884943945804523	0.4271460072772537	49.54238734015428	far	V4
4	5.0	ltm	439	diff_vonmises	-0.2283250288921271	-13.082060512721467	8.72575989943108	0.2355309429342944	1.8986520915995368e-15	0.5447290107541031	0.1866574122366097	-0.0866963075020729	0.2733537197386826	45.984583356711056	far	V3ab
5	6.0	ltm	439	diff_vonmises	-0.4230119752833761	-24.236800867229743	3.933795504893636	0.622710998906191	2.1910501079613283e-21	1.4731398939543927	0.2399555316712451	-0.2342758045653409	0.474231336236586	69.04311306214112	far	IPS0
6	7.0	ltm	439	diff_vonmises	-0.0586565320468471	-3.360771727158199	1.4334162877327632	273.8967416734341	1.4192759253885847	275.2188547754373	0.1338312456066717	-0.3742492576736111	0.5080805032802829	69.2095561571956	far	LO1
0	1.0	ltm	440	diff_vonmises	-0.0883732575717503	-5.06341468068384	0.2430029161192305	52.16923459582252	0.2223027171023126	54.59738162809548	-0.2874887570098163	-0.4555322454229555	0.1680434884131392	141.38934208384964	far	V1
1	2.0	ltm	440	diff_vonmises	0.2442028085770148	13.991790276704087	0.3616307946200631	117.30400619190996	0.3491778874139709	118.47135231364662	0.009649743814613	-0.3126787513218492	0.3223284951364622	133.96531209231227	far	V2
2	3.0	ltm	440	diff_vonmises	0.0127057011214419	0.7279830500132581	1.4404938773431233	116.37755424486495	1.4252529738138209	116.77661841598191	0.1469375323237685	-0.1450706264159986	0.2920081587397671	72.71280489325724	far	V3
3	4.0	ltm	440	diff_vonmises	-0.2732195933344635	-15.65432957834544	0.5877240270758014	118.92148726992116	0.5756920966412258	120.35689094603144	-0.1042770961256494	-0.2802141603534718	0.1759370642278224	98.50032041812122	far	V4
4	5.0	ltm	440	diff_vonmises	-0.029021857187021	-1.662829930447721	2.7005583611779294	0.6896182989001852	0.2441069168038326	1.6349536439537524	0.0978863104695552	-0.2284114074389262	0.3262977179084814	74.17052370787889	far	V3ab
5	6.0	ltm	440	diff_vonmises	-0.3214997296993673	-18.42057762637052	0.6613895198350825	170.15741799127667	0.6480897596380113	171.36838123844865	0.0976185100742128	-0.3179716693484486	0.4155901794226615	103.58665469908212	far	IPS0
6	7.0	ltm	440	diff_vonmises	0.3298316896717425	18.897963767859547	0.8536704956179494	84.46482388073639	0.8330902010757089	85.24871705191097	0.088775344942757	-0.2070963857693826	0.2958717307121397	91.66326930417684	far	LO1
0	1.0	ltm	441	diff_vonmises	0.3500232624275523	20.05485566849879	0.619698823446242	83.4828692019726	0.5994016737512442	85.37117249859395	-0.1802358320255841	-0.3514354146052909	0.1711995825797068	92.05719498754736	far	V1
1	2.0	ltm	441	diff_vonmises	0.3470623979874222	19.88521063236897	0.5541076674568219	108.99769737945284	0.5408968752572683	110.0529289871252	0.0024840273071653	-0.2476326680884231	0.2501166953955884	109.7851971085089	far	V2
2	3.0	ltm	441	diff_vonmises	0.2035635335304589	11.663331334065118	1.3298688250606354	79.15549514397676	1.3108156507858346	79.50311488034976	0.1343078147445204	-0.1260951628777089	0.2604029776222294	76.1071857944413	far	V3
3	4.0	ltm	441	diff_vonmises	-0.1811616967819261	-10.379800635033115	24.269220051023737	0.1224597282388034	7.821185653767785e-39	1.4464695560736645	0.0090717606109157	-0.2302127798810631	0.2392845404919789	27.46879312596528	far	V4
4	5.0	ltm	441	diff_vonmises	-0.0462693294546421	-2.651037298651341	1.2453186269863128	55.70681096101668	1.2103861010423032	56.44635259579238	0.0761208443961152	-0.1991825310912638	0.275303375487379	74.9693128654626	far	V3ab
5	6.0	ltm	441	diff_vonmises	-0.3587437450982298	-20.554502520845585	0.6366170236055254	137.14598041264043	0.6238904431950353	138.10080488415545	0.0733451417010258	-0.2516331371716092	0.324978278872635	105.55026071297723	far	IPS0
6	7.0	ltm	441	diff_vonmises	0.1148394155398479	6.579813832182367	0.951899118810306	79.54960253705026	0.9279061037698718	80.6766291878729	-0.0070192960186155	-0.2510856859573493	0.2440663899387338	81.92140967389295	far	LO1
0	1.0	ltm	442	diff_vonmises	0.1605960243597527	9.20147440239399	3.9511690887102606	0.3456723161730175	6.58787076198497e-21	2.4641120419563403	-0.1281868886658995	-0.3920779635001853	0.2638910748342858	68.89370955042216	far	V1
1	2.0	ltm	442	diff_vonmises	-0.0030868972338629	-0.1768661832909534	2.54655081536647	0.8343073917043548	0.2663546006574107	1.847375435236903	0.120017787954212	-0.2511000475797785	0.3711178355339906	75.68531457577467	far	V2
2	3.0	ltm	442	diff_vonmises	0.0709147558510595	4.063116215466372	1.0547298410483996	98.25624241815966	1.0373196883699805	98.73252969091467	0.1560962773507626	-0.1610307173211929	0.3171269946719555	85.42187734399326	far	V3
3	4.0	ltm	442	diff_vonmises	-0.2731690226620141	-15.651432092246951	2.1720074249235117	0.6692026580026037	0.065379707056438	1.9281817585072103	0.0355335511393747	-0.2838031482957174	0.3193366994350922	88.01627078179656	far	V4
4	5.0	ltm	442	diff_vonmises	0.0111873539602297	0.6409881658401296	2.424663480979813	0.7290422328431425	0.0474771049353008	1.2196985187501448	0.2185314266739287	-0.1817250740917072	0.4002565007656359	86.23610774240936	far	V3ab
5	6.0	ltm	442	diff_vonmises	-0.2866506726183223	-16.423873735616137	0.5406000005734508	125.056794849778	0.527461452045499	125.6051165729018	0.1704887691710723	-0.2278867806968207	0.3983755498678931	119.65699662043126	far	IPS0
6	7.0	ltm	442	diff_vonmises	0.2271537024333894	13.014948450203793	0.8754238793542625	80.56259306926725	0.8496259338639636	81.27853344624566	0.1722593279263016	-0.2242512252193531	0.3965105531456547	93.24428272436704	far	LO1
0	1.0	ltm	443	diff_vonmises	-0.4694218311301495	-26.89588973506041	0.3932862364232117	57.49487970450511	0.3768202931238389	58.18262062018011	0.0190699498347441	-0.1900004912061197	0.2090704410408639	129.9129572936521	far	V1
1	2.0	ltm	443	diff_vonmises	0.0769602805955049	4.409499268264997	2.1920799326600164	0.6666827642818953	2.1287024488649687e-12	0.8089592049807476	0.2346722500925437	-0.1242162527483655	0.3588885028409093	92.82294120650698	far	V2
2	3.0	ltm	443	diff_vonmises	0.1045573049518997	5.99069229100616	1.5135009779139226	79.22079839758851	1.4953514249354465	79.1648029252546	0.2755035930900149	-0.0784666960418745	0.3539702891318894	77.72703748770891	far	V3
3	4.0	ltm	443	diff_vonmises	-0.3397675116064353	-19.46724443071096	3.810416225915192	0.7846531752714268	0.084899310372008	1.5010769876384165	0.3277776470517574	-0.2284509165002277	0.5562285635519851	68.13020142717346	far	V4
4	5.0	ltm	443	diff_vonmises	-0.0886376506473279	-5.078563288046918	2.0455464359705102	0.67512712976199	1.5170865658114911e-16	0.3798563623952166	0.2925995873343229	-0.054552570017571	0.3471521573518939	95.97251156194004	far	V3ab
5	6.0	ltm	443	diff_vonmises	-0.4307401049606977	-24.679590081270074	0.8527041124184338	69.4066192385279	0.8301781739275167	69.44755913037208	0.2857166636497261	-0.1300570731809003	0.4157737368306264	101.69409112748131	far	IPS0
6	7.0	ltm	443	diff_vonmises	0.1706267471051035	9.77619248116847	1.783975935381005	174.62009740006965	1.767951447209663	174.86054617163506	0.3451353525177012	-0.1764481235407977	0.521583476058499	68.14604794722925	far	LO1
0	1.0	ltm	444	diff_vonmises	0.1536238545148419	8.801998496232219	5.633978609576563	0.4567822637798509	2.495718044580931e-16	3.639785148918447	-0.1573159336154792	-0.5792844068232622	0.421968473207783	57.44526300295337	far	V1
1	2.0	ltm	444	diff_vonmises	-0.0443877838258803	-2.543232675162001	2.7075616312270525	1.1440811117443086	0.3110957711553511	2.714280145806176	0.1307363840552265	-0.3746288302276176	0.5053652142828442	72.1475218591064	far	V2
2	3.0	ltm	444	diff_vonmises	-0.0728688570842647	-4.175077968870338	0.7459988436531616	88.28373209408963	0.7190087250073334	89.38978042694531	0.1359397868973282	-0.3035195966093198	0.439459383506648	98.97407609857784	far	V3
3	4.0	ltm	444	diff_vonmises	-0.1635543724368379	-9.370975261541616	0.6810677399936875	1.9821396785897964	9.334202362520446e-17	3.783535551138377	-0.0452918199978392	-0.4595408362017312	0.4142490162038919	142.70142936808878	far	V4
4	5.0	ltm	444	diff_vonmises	0.0134273511973623	0.7693305536487979	1.779335239728438	1.2570924124572933	2.078650504846297e-15	2.260677427190201	0.2442940376005148	-0.3425949680318596	0.5868890056323744	102.45597646952794	far	V3ab
5	6.0	ltm	444	diff_vonmises	-0.1669694072190825	-9.566642341454608	0.5896153650280336	2.500793985018983	3.922689306209202e-13	3.3321360650000704	0.1288510160103053	-0.3276121528253769	0.4564631688356823	147.19116258877096	far	IPS0
6	7.0	ltm	444	diff_vonmises	0.2833584163443006	16.23524134603923	1.5832550301847863	1.1098798352118957	0.1302988634928275	2.0581082383577485	0.1251991569809335	-0.2655584800275616	0.3907576370084952	99.14397301548	far	LO1
0	1.0	ltm	445	diff_vonmises	-0.9202901644509544	-52.72874235044015	8.147596495744663	0.2165667495070189	0.1315309831610619	2.1165388606755533	-0.1399828304580785	-0.3543777215704292	0.2143948911123507	44.68001311620581	far	V1
1	2.0	ltm	445	diff_vonmises	0.8585854435914673	49.19332226915869	0.9784000047331616	99.53976134085364	0.9587984859664164	100.37672908566222	0.0905682347017773	-0.2186666213335719	0.3092348560353493	85.10258874529018	far	V2
2	3.0	ltm	445	diff_vonmises	0.2826493684541972	16.19461589446365	2.4392838021310284	25.78625106346345	2.396698399683211	25.854762225054124	0.1155954027064094	-0.0622692622664207	0.1778646649728301	57.94276599510136	far	V3
3	4.0	ltm	445	diff_vonmises	-0.7136738797125975	-40.89050125625902	0.9870967533789335	88.88723850535527	0.969892718740096	90.19075314597966	-0.1481900366339168	-0.2584113316606959	0.1102212950267791	70.28770110715939	far	V4
4	5.0	ltm	445	diff_vonmises	-0.2257184175486739	-12.932712683910674	1.8273549535278952	77.5138041702626	1.7992675528208084	78.00425398405339	0.1176730445716884	-0.1761714319551597	0.2938444765268482	62.87543069916831	far	V3ab
5	6.0	ltm	445	diff_vonmises	-0.4319405294760754	-24.748369339625253	0.8102025954934449	172.147759545289	0.7994434548307197	172.81774199765474	0.1503240620262644	-0.2085645143297334	0.3588885763559979	96.38351699880694	far	IPS0
6	7.0	ltm	445	diff_vonmises	-0.286353686363186	-16.40685767662343	1.886473705901475	85.59914085180736	1.8618008821505747	86.27771140065313	0.0041696255968162	-0.2048819318440085	0.2090515574408247	57.793424774309045	far	LO1
0	1.0	ltm	446	diff_vonmises	0.1569818540769938	8.994397698750301	6.162367101144129	0.3471767375661811	1.0820775193646056e-21	2.54882323371393	-0.0694260222594141	-0.4056563236616757	0.3362303014022615	54.87743079765213	far	V1
1	2.0	ltm	446	diff_vonmises	0.0136769806900607	0.7836332700224053	2.7433994870268656	1.112481863443307	0.4661423430484022	2.128231956886282	0.1804570930864681	-0.277780260669409	0.4582373537558772	69.95404227612914	far	V2
2	3.0	ltm	446	diff_vonmises	-0.0226620936145595	-1.2984423190446326	0.7472509551035186	36.67652364860834	0.7051034236747143	37.26152391933728	0.1278729829178431	-0.1860382038709511	0.3139111867887942	101.55754925761792	far	V3
3	4.0	ltm	446	diff_vonmises	-0.3643273358084358	-20.87441870306884	2.350723358381288	0.7486677123301121	1.3419998272496508e-17	1.9886621917624647	0.108980166882673	-0.3126410596371906	0.4216212265198636	89.59418453054164	far	V4
4	5.0	ltm	446	diff_vonmises	-0.0282860929835549	-1.6206737468723085	1.653216156129529	1.0238924237595683	2.605254957983883e-16	1.4284894399608556	0.2431307855013183	-0.2101083027581256	0.453239088259444	105.90521667580822	far	V3ab
5	6.0	ltm	446	diff_vonmises	-0.2476003333950055	-14.186454109565911	0.3281112917670144	41.46935211572478	0.2954375443781068	41.78652875469874	0.1768465236946532	-0.2146150842505614	0.3914616079452147	143.64739312123726	far	IPS0
6	7.0	ltm	446	diff_vonmises	0.1859593548869167	10.654686195995811	0.7824458557483157	108.13460484617048	0.761362678224406	109.03020387873832	0.1699989830826282	-0.2685269674851529	0.4385259505677812	97.85932505399376	far	LO1
0	1.0	ltm	447	diff_vonmises	-0.0433819232442279	-2.485601109054745	0.4436485677773802	40.03816368048425	0.410514428098149	41.4296242925925	-0.0754884377962223	-0.3000681320079761	0.2245796942117537	119.79042776814288	far	V1
1	2.0	ltm	447	diff_vonmises	0.0476440090688363	2.7298006387273435	0.8974699321638884	72.86712587269471	0.8690777443711409	73.68716373175337	0.1345003267285669	-0.2315646319661519	0.3660649586947189	90.70807818469837	far	V2
2	3.0	ltm	447	diff_vonmises	0.0340829326660223	1.9528081951916496	0.9614279199567368	106.66167644204104	0.9433627234230092	107.17105537656568	0.1972721723852615	-0.1852787932961934	0.3825509656814549	90.28545482682448	far	V3
3	4.0	ltm	447	diff_vonmises	-0.2365424220892401	-13.552882461515557	4.696962235415035	0.5252486328593339	7.783676477243331e-32	1.6907260182584338	0.1713399877099158	-0.269050736760024	0.4403907244699398	63.04981871115388	far	V4
4	5.0	ltm	447	diff_vonmises	-0.1101815810901362	-6.312939576543249	1.819409909334511	0.6872139814114924	8.557744931328297e-12	1.193469410439282	0.1447926615716352	-0.181148012294809	0.3259406738664443	101.39437168634828	far	V3ab
5	6.0	ltm	447	diff_vonmises	-0.4149438549090211	-23.774531621175694	1.3641246367753497	0.9845497414188548	3.7497319285670996e-16	1.6808374013141325	0.1352175296724295	-0.2412011635967715	0.3764186932692011	114.12180072987576	far	IPS0
6	7.0	ltm	447	diff_vonmises	0.1158061503119781	6.635203654533967	1.1663478620339582	192.89615009257813	1.1508405685013972	194.2124909067888	0.0687356029369397	-0.3296071263805764	0.3983427293175161	75.82929843707723	far	LO1
0	1.0	ltm	448	diff_vonmises	0.2448640628987463	14.02967735852409	0.4306151720129033	164.28975642667905	0.419451524505903	167.26969842320165	-0.3524673704055985	-0.5279953160471038	0.1755279456415053	104.20027494713436	far	V1
1	2.0	ltm	448	diff_vonmises	0.2855544701571293	16.361065961097932	0.3879610147191152	133.49050645907434	0.3769787378596101	134.86294050148916	-0.0395261066996859	-0.3269770958686262	0.2874509891689403	128.29488205914345	far	V2
2	3.0	ltm	448	diff_vonmises	0.0707195662385363	4.051932674463998	1.581052957665018	112.64171995105085	1.5616400529185257	113.20265799838276	0.1277836870274384	-0.1861554289403102	0.3139391159677487	67.7735994595225	far	V3
3	4.0	ltm	448	diff_vonmises	0.2967367591792996	17.001763927363758	9.042439622354005	0.1675834338259864	1.3240784569759493e-26	1.8759783822616576	-0.1004635107515436	-0.2985712298988315	0.1981077191472879	45.1642327222751	far	V4
4	5.0	ltm	448	diff_vonmises	-0.0808102605190549	-4.630086869094514	1.2877484382272617	128.15350315701218	1.261125526030837	129.53757572791392	0.0825338799949904	-0.3597173742505646	0.442251254245555	72.34993955937736	far	V3ab
5	6.0	ltm	448	diff_vonmises	-0.0876241887135549	-5.0204961965445625	0.9088412128686694	164.4183501523194	0.888794509197128	166.062427173579	0.1007212648272499	-0.4017075891725135	0.5024288539997634	86.99756859363865	far	IPS0
6	7.0	ltm	448	diff_vonmises	-1.916405508152708	-109.80194745277404	1.9938378085735555	16.901978964149706	1.993841849580559	17.875736107038133	-0.0092964838512956	-0.5014161593625772	0.4921196755112815	181.06445533454936	far	LO1
0	1.0	ltm	449	diff_vonmises	0.1045869091582744	5.992388487087265	0.1193479044815192	47.413870910738105	0.107560054420929	49.28459436992839	-0.2368936346297125	-0.3502413139048252	0.1133476792751126	163.00541264031057	far	V1
1	2.0	ltm	449	diff_vonmises	0.4999091879041011	28.64268660671742	0.5065110137478581	96.42936008875762	0.4919951048070992	97.42918621271969	0.0163821463388664	-0.2496304365239403	0.2660125828628068	116.06406517975644	far	V2
2	3.0	ltm	449	diff_vonmises	0.2464967243898465	14.123221971337664	1.652842540588097	87.29196017015065	1.6342745645531402	87.54771175432441	0.1581380651851347	-0.1172648307059525	0.2754028958910872	69.03583547179679	far	V3
3	4.0	ltm	449	diff_vonmises	-0.0318059192695374	-1.8223449376783163	0.6680253095912141	54.89307379015566	0.643092850307357	56.34771096802292	-0.1379567082124229	-0.2720953889838178	0.1341386807713949	88.77300886936823	far	V4
4	5.0	ltm	449	diff_vonmises	-0.1149933597526283	-6.588634185855145	1.4505636407674316	80.03298690163659	1.424278780392809	80.65996882559212	0.1094866150306401	-0.1912275713118614	0.3007141863425016	70.31780607084781	far	V3ab
5	6.0	ltm	449	diff_vonmises	-0.3491818137672077	-20.00664421158411	0.7207269821748509	179.549763434706	0.7100779498369103	180.44312927486723	0.1087322517923894	-0.2460650782940447	0.3547973300864342	100.16793510348086	far	IPS0
6	7.0	ltm	449	diff_vonmises	-0.1842586221414607	-10.55724138760148	1.766448537159617	99.75447578169688	1.7438861741048084	100.50699942264694	0.0147419958661529	-0.2202923943271848	0.2350343901933378	60.1499170096404	far	LO1
0	1.0	ltm	450	diff_vonmises	0.1004335189284911	5.754416756249808	1.9220865306363104	0.5161489779777957	1.5938485097402683e-16	2.5448732980843376	-0.1450892961632562	-0.3994651910436801	0.2543758948804238	98.83825267033168	far	V1
1	2.0	ltm	450	diff_vonmises	-0.0199205402837539	-1.1413628838794412	1.7667177176328364	1.4592914081399202	0.4009030306108784	2.454423723003913	0.1377010985780001	-0.26287762992497	0.4005787285029702	84.12824956003053	far	V2
2	3.0	ltm	450	diff_vonmises	0.1114205169488512	6.383925372335034	1.055917155459474	83.66041025714664	1.0262164930667017	84.36130722827713	0.2252433784269101	-0.2354598937557295	0.4607032721826396	85.56906993963943	far	V3
3	4.0	ltm	450	diff_vonmises	-0.1625158746006936	-9.31147371849708	2.0135170964040894	0.9591451232804404	3.443783413514361e-19	2.4133546517196134	0.1127149800288734	-0.3752400609829167	0.4879550410117901	96.67534763747722	far	V4
4	5.0	ltm	450	diff_vonmises	-0.0228526173570731	-1.3093585253876991	1.4886445103278594	1.990317796783354	0.4500648602231758	2.3453242931098166	0.3012561505710117	-0.1918221236253646	0.4930782741963763	93.24183569892791	far	V3ab
5	6.0	ltm	450	diff_vonmises	-0.235109801264376	-13.47079933460829	0.5531654239487952	105.43864335757225	0.5364663946943484	105.89575129177123	0.2152550114397726	-0.2304412056529177	0.4456962170926903	119.89836567152176	far	IPS0
6	7.0	ltm	450	diff_vonmises	0.1838887907188708	10.53605160795576	1.477166240361181	131.36705949955663	1.4586397356534015	131.8711162305467	0.2138616738344581	-0.193313991105942	0.4071756649404001	72.22384492396768	far	LO1
0	1.0	ltm	451	diff_vonmises	-0.2087046994310625	-11.95789844194628	0.2029667592931599	48.74891596250904	0.1896158837183905	49.930135239635305	-0.1125691508493762	-0.246680465439268	0.1341113145898917	151.48052505183506	far	V1
1	2.0	ltm	451	diff_vonmises	0.4265493510422619	24.43947756876579	0.5002204377626323	83.20537695711535	0.4860697448142984	83.82805074760338	0.067797935080005	-0.1910915274815527	0.2588894625615578	120.31618613936284	far	V2
2	3.0	ltm	451	diff_vonmises	0.2406908190562484	13.790568099470006	1.6262626076109303	69.24742812582656	1.6070756807827633	69.35160572439423	0.1795940142611485	-0.0847233506818092	0.2643173649429577	71.97055636699	far	V3
3	4.0	ltm	451	diff_vonmises	-0.2158997575703589	-12.370144906679217	19.214217792788453	0.1991148609527703	1.108010762058267e-19	1.1983431097681725	0.1550162735638433	-0.1907222294397184	0.3457385030035617	30.885090781050906	far	V4
4	5.0	ltm	451	diff_vonmises	-0.1466188906338116	-8.400643630207604	2.610876804478817	0.8623303228240355	0.8822264513925228	1.2479474886028818	0.1227625088384035	-0.1322365648463717	0.2549990736847752	66.42927422759726	far	V3ab
5	6.0	ltm	451	diff_vonmises	-0.4187597055163159	-23.993163756226124	0.8135635406778586	103.2889944085544	0.7957026507250615	103.9772583117758	0.1438728356542853	-0.2098663534228873	0.3537391890771726	96.12706618133072	far	IPS0
6	7.0	ltm	451	diff_vonmises	-0.0389433364043617	-2.231288816128103	1.4118627961182624	170.6324124855802	1.395351509809911	171.67316199957466	0.0709373376302693	-0.2831815664003194	0.3541189040305887	68.99319241390816	far	LO1
0	1.0	ltm	452	diff_vonmises	0.36187232334887	20.733756850483687	0.9469783904934272	77.52910310608861	0.8986510890815528	80.0587050739673	-0.1030009052622595	-0.5358019731079526	0.432801067845693	80.41904932100536	far	V1
1	2.0	ltm	452	diff_vonmises	-0.0528365818832847	-3.0273131458096003	1.0475112202865966	200.99202913120848	1.031778827345014	202.5816087238899	0.0432530889379023	-0.3766665818932928	0.4199196708311952	79.29911470478757	far	V2
2	3.0	ltm	452	diff_vonmises	0.082844120440686	4.746618458724782	0.8172730711850115	187.23983647576748	0.8035332829696007	188.400194843982	0.1381292832281673	-0.3106556969115814	0.4487849801397487	93.7647404347695	far	V3
3	4.0	ltm	452	diff_vonmises	0.2211282183291965	12.669713641510372	1.3200392411988762	0.8606081104058527	2.1478126340772704e-10	2.645321421302642	-0.0758324321276315	-0.3963840966428245	0.3205516645151929	116.1229841659378	far	V4
4	5.0	ltm	452	diff_vonmises	0.0455571949048158	2.6102349945008463	1.3814015610876085	2.533021546608421	0.5177439662312011	3.749965264880418	0.1062617571442119	-0.305235124976696	0.4114968821209079	87.1347014294339	far	V3ab
5	6.0	ltm	452	diff_vonmises	-0.1623301027246543	-9.3008297740478	0.6806176021695028	1.6852245322540402	3.2433635765926112e-18	2.8783733462053536	0.0152096093328105	-0.3367731343605497	0.3519827436933602	142.72760386175128	far	IPS0
6	7.0	ltm	452	diff_vonmises	0.190181260469195	10.896583567363075	0.9937408011133666	0.8918419244509461	3.747227903296789e-15	2.747855589495317	-0.1336398471972958	-0.3957162746628517	0.2620764274655558	128.5152055035245	far	LO1
0	1.0	ltm	453	diff_vonmises	0.3530755895019598	20.22974112755585	0.6173039734119293	172.77401250682172	0.6021886483763903	175.7761608811265	-0.3037440017561579	-0.5527833050594815	0.2490393033033235	90.8076771730995	far	V1
1	2.0	ltm	453	diff_vonmises	0.1607737873543635	9.211659471738798	0.5192847821129803	114.96466247776192	0.5038155131359164	116.53240026850038	-0.0549664858915583	-0.3413711157179886	0.2864046298264302	110.64517727114251	far	V2
2	3.0	ltm	453	diff_vonmises	0.0472592820416526	2.7077574038050995	1.1964878867850643	127.16394079748866	1.1813775929105652	127.8015497337496	0.115962128693468	-0.1858965532356151	0.3018586819290831	77.91176708193089	far	V3
3	4.0	ltm	453	diff_vonmises	0.1588718232630821	9.102684956522936	35.097601837689034	0.1023059266679486	1.4684385014742723e-40	1.8238428821505128	-0.049363157695702	-0.2902736101172232	0.2409104524215211	22.820927176414813	far	V4
4	5.0	ltm	453	diff_vonmises	0.030832803132943	1.7665894900753778	2.12406283084442	1.1670872856407382	0.3992211800665636	2.459191605113695	0.0634512202634225	-0.3017445859510918	0.3651958062145143	76.5159411903617	far	V3ab
5	6.0	ltm	453	diff_vonmises	-0.2146698354310318	-12.299675558966063	0.5927448495649322	138.19305798099316	0.577278801786378	139.6243008545837	0.0299785906776151	-0.3440706465485945	0.3740492372262096	107.11347357155134	far	IPS0
6	7.0	ltm	453	diff_vonmises	0.853079098675712	48.87783194494259	0.0002499713793403	3986.245395936861	9.525501383881933e-35	3987.15889175904	0.0132116806535123	-0.3039666106022878	0.3171782912558001	159.50760139096775	far	LO1
0	1.0	ltm	454	diff_vonmises	0.1224935020584778	7.018360685727841	5.281345058203447	0.4503500070776078	4.9233528146796985e-21	3.2808019594816176	-0.1201040589412552	-0.5221454508125148	0.4020413918712596	59.37328741347866	far	V1
1	2.0	ltm	454	diff_vonmises	-0.0780589842703157	-4.472450351767172	2.0639161068010106	2.055195569395502	0.6646575762728606	3.219119700035439	0.186152959021314	-0.3235521698449919	0.5097051288663059	73.89936197623717	far	V2
2	3.0	ltm	454	diff_vonmises	0.0794628595082468	4.55288647786355	1.7112802105461278	1.926160613893503	0.4816339611919374	2.8774538830092573	0.2037562129515903	-0.2770143973534489	0.4807706103050392	84.09780198556206	far	V3
3	4.0	ltm	454	diff_vonmises	-0.1483916330667471	-8.50221428977856	1.377797291374267	1.5505296414704528	0.0605781234358765	3.1077195753209703	0.1130093962803866	-0.4245460223189262	0.5375554185993129	109.56063705860842	far	V4
4	5.0	ltm	454	diff_vonmises	0.0239385691667987	1.3715789808395742	1.628657866471122	2.325715104086723	0.3603893879161324	2.77150636020563	0.4465518016046197	-0.2659000312942501	0.7124518328988698	92.96096300295012	far	V3ab
5	6.0	ltm	454	diff_vonmises	-0.095560393279595	-5.475207223531111	1.3088576967561854	1.5390815366648267	7.260648898042431e-16	1.923279063541662	0.3080804053929283	-0.2612790179830939	0.5693594233760222	116.73079696211148	far	IPS0
6	7.0	ltm	454	diff_vonmises	0.1753040700684076	10.044183346385418	0.9613293762870648	88.31850241281346	0.9354513138763796	88.73296727885952	0.2975231489373975	-0.2035124475536731	0.5010355964910707	92.49621463231269	far	LO1
0	1.0	ltm	455	diff_vonmises	0.2527593753127617	14.48204543778442	4.943471641289917	0.3946693568208215	0.0030209059533715	3.37803056178545	-0.1991519513245445	-0.5366440025571432	0.3374920512325986	61.136083991355775	far	V1
1	2.0	ltm	455	diff_vonmises	0.0772482729912867	4.42600001707516	0.9642860424438542	101.09566950726791	0.9350557363748804	102.68560189099648	0.0374486778217004	-0.3696749669387529	0.4071236447604534	82.99345016635158	far	V2
2	3.0	ltm	455	diff_vonmises	-0.0303869866970772	-1.7410460898627047	0.6664588068452055	88.26864123509594	0.6446587418337063	89.31348515664128	0.0795469114867586	-0.2720207247707229	0.3515676362574815	103.34906474164416	far	V3
3	4.0	ltm	455	diff_vonmises	-0.0663478292040785	-3.8014505932485303	0.0004321586677994	2269.94395319506	2.1392162842177907e-25	2271.8003540967293	-0.1393122799417483	-0.4515647447358901	0.3122524647941418	179.84957217450227	far	V4
4	5.0	ltm	455	diff_vonmises	-0.0372794672818861	-2.1359561377481127	1.974275547915722	0.8691291986300486	1.541609109387366e-12	2.000194637842988	0.1265310090494045	-0.3097624730316184	0.436293482081023	97.6158303730655	far	V3ab
5	6.0	ltm	455	diff_vonmises	-0.1841293811629126	-10.549836424990536	0.1528324238847423	7.763822232782332	7.040180515553123e-18	8.727920248160832	0.0422245979178508	-0.3347262594312163	0.3769508573490672	170.44616595301574	far	IPS0
6	7.0	ltm	455	diff_vonmises	0.2986468233787975	17.111202544594025	0.5977815693857387	45.40494863481505	0.558215670513322	46.97283755666027	-0.0647512046344971	-0.3288155135392507	0.2640643089047536	102.88076585601875	far	LO1
0	1.0	ltm	456	diff_vonmises	0.1368808708291832	7.842696194587584	6.539405543976726	0.3735035379933449	2.943601422119552e-23	3.5026416334233548	-0.1843091147418697	-0.557461950271567	0.3731528355296972	53.24256581896648	far	V1
1	2.0	ltm	456	diff_vonmises	0.0612064238770285	3.5068697672424864	2.2723389580539424	1.6305390724965267	0.5957973323917608	2.8719999490847146	0.1477327877200749	-0.3273122858905783	0.4750450736106533	71.921427300083	far	V2
2	3.0	ltm	456	diff_vonmises	-0.035874872076681	-2.055478760565552	1.708391664957788	0.6807547492364634	1.535160818005401e-19	1.5222044603611122	0.0768693914067672	-0.2317930046803362	0.3086623960871034	104.36036040126888	far	V3
3	4.0	ltm	456	diff_vonmises	-0.3557161436934437	-20.38103373830346	1.1524346363783655	1.3394373524472345	6.1623341069546886e-18	2.895315753830175	0.0352046118134815	-0.4113136170482695	0.4465182288617511	121.72642195867914	far	V4
4	5.0	ltm	456	diff_vonmises	-0.0366803627869166	-2.1016299786990458	1.678724984530454	1.333030673889732	1.3396313449643708e-13	2.05333587215285	0.2914908822059759	-0.3052671610103937	0.5967580432163697	105.18272973373824	far	V3ab
5	6.0	ltm	456	diff_vonmises	-0.0882806765503848	-5.058110178896587	0.1815736589846058	8.252180059831348	8.57356675949092e-11	8.621282036905464	0.1898515077157283	-0.2857935477930255	0.4756450555087539	169.45562844652926	far	IPS0
6	7.0	ltm	456	diff_vonmises	0.1380781299565791	7.911294089570887	0.5442478088239461	62.159289305186135	0.5087601943275429	63.45680103115453	0.091617688149757	-0.359515605499487	0.451133293649244	115.8379682126955	far	LO1
0	1.0	ltm	457	diff_vonmises	0.1417346274101043	8.120795961458212	4.657637178092917	0.4548406953260299	1.3224800851310378e-16	2.80059494770387	-0.066004824287427	-0.4456943391040856	0.3796895148166586	63.318382445798704	far	V1
1	2.0	ltm	457	diff_vonmises	-0.0995008700186727	-5.700979909949737	2.6683032819792785	1.0753890116018017	0.2819954128096516	2.326858256363071	0.1770121531626636	-0.3180897358466238	0.4951018890092875	74.09978846258548	far	V2
2	3.0	ltm	457	diff_vonmises	-0.0575117581164539	-3.2951810124500662	0.9007915725869358	146.1957490414503	0.8834862024297493	147.03498732484394	0.2138152554941541	-0.2659425941611797	0.4797578496553338	91.83792907487432	far	V3
3	4.0	ltm	457	diff_vonmises	-0.1864201731766956	-10.681089139122578	1.7562295907583392	0.9300937294306252	1.148483505716506e-19	2.402584913465386	0.0610233631713628	-0.3691586156858683	0.4301819788572311	102.9965666756242	far	V4
4	5.0	ltm	457	diff_vonmises	0.0161112378965097	0.9231059342012388	1.7285219390981887	1.0986654395623108	1.5088542454432121e-18	1.8285638539650253	0.2277123891040264	-0.2746728659687812	0.5023852550728076	103.81097047850665	far	V3ab
5	6.0	ltm	457	diff_vonmises	-0.2566696136237731	-14.706085589895736	1.0092261070935191	1.480945598622641	1.402089931820899e-16	2.305054104997793	0.1417708493824019	-0.2992816839434916	0.4410525333258935	127.70651979674956	far	IPS0
6	7.0	ltm	457	diff_vonmises	0.2301356764888594	13.185802978199732	0.9494533974531372	105.30202509679052	0.9277989236774482	106.05716028641956	0.185657572573163	-0.2350488672585022	0.4207064398316653	89.31492604885412	far	LO1
0	1.0	ltm	458	diff_vonmises	0.2406917730095925	13.790622756970471	0.7536265051915858	48.62057204052611	0.7081596751469216	50.41661002600893	-0.0920708945663175	-0.3647875214872149	0.2727166269208974	89.78427942073893	far	V1
1	2.0	ltm	458	diff_vonmises	-0.0161002486212123	-0.9224762951067886	1.0033969426263467	130.7440943482915	0.9859296872114538	131.71026512321325	0.1046420810867374	-0.2527921194618816	0.3574342005486191	83.92390087315354	far	V2
2	3.0	ltm	458	diff_vonmises	0.1814164299650571	10.394395771328451	1.1353154043285438	175.86484093088737	1.121671039690893	176.5194145255127	0.2089944278122715	-0.2192716455024452	0.4282660733147168	82.01198826343918	far	V3
3	4.0	ltm	458	diff_vonmises	-0.0517144783193351	-2.963021347418704	2.588788005867551	0.6679932559409528	1.8354145107187694e-18	2.0009079057644006	0.0833673314615651	-0.3161874378481222	0.3995547693096874	85.4839290600014	far	V4
4	5.0	ltm	458	diff_vonmises	-0.0129461310971313	-0.7417586728886972	1.0983985424260652	110.97042091367338	1.0777652758495828	111.56884245347727	0.2160185613286032	-0.2089931663546735	0.4250117276832768	84.02091600205429	far	V3ab
5	6.0	ltm	458	diff_vonmises	-0.2178826540222181	-12.483756504582212	0.6542542644977087	51.55222330804235	0.6170607061202199	52.28713036741178	0.1664761001067312	-0.2488615327122678	0.415337632818999	108.94310960645394	far	IPS0
6	7.0	ltm	458	diff_vonmises	-0.030581536736492	-1.752192986025274	1.1715431954289834	189.98687723741003	1.1565037332580146	191.2075056461653	0.0775829676683628	-0.3100584439258824	0.3876414115942452	76.00600362078566	far	LO1
0	1.0	ltm	459	diff_vonmises	0.2727428524849758	15.627014339748312	0.7607626803730502	28.804573099630712	0.6837435818006262	30.792141341837425	-0.1362725198872159	-0.3915402570440816	0.2552677371568657	88.41046261353497	far	V1
1	2.0	ltm	459	diff_vonmises	0.0394415795488935	2.259836045481101	0.937774300417125	59.960681349511056	0.901720688875914	61.019650023529294	0.0691937531264201	-0.2604283870560993	0.3296221401825194	86.10012625806283	far	V2
2	3.0	ltm	459	diff_vonmises	0.1140798450144394	6.536293646833925	1.0725272242547552	130.48643790095596	1.0592623046422815	130.98342536616792	0.1499262138541297	-0.1633918088180959	0.3133180226722256	84.30127830018426	far	V3
3	4.0	ltm	459	diff_vonmises	-0.1794923920289519	-10.284156517966563	3.09693089401359	0.4124953936883372	1.3308852153333886e-21	1.6980648071581697	0.0048299190252558	-0.2696936610742989	0.2745235800995547	78.05413059196542	far	V4
4	5.0	ltm	459	diff_vonmises	0.0004586157350159	0.0262767460347037	1.921089314504134	1.0633745662386147	0.383483029236987	1.717910331329972	0.1485210274049943	-0.1910356194996177	0.339556646904612	83.15324884648507	far	V3ab
5	6.0	ltm	459	diff_vonmises	-0.3034863633515524	-17.388487759817735	0.5419640244807679	105.8218851410239	0.5265227809368266	106.57287407136896	0.1178855597091192	-0.2447169307526433	0.3626024904617626	117.4031336442314	far	IPS0
6	7.0	ltm	459	diff_vonmises	0.1891499015256458	10.83749105273464	0.787046094072032	109.86583702624552	0.7682006431765096	110.94176921201368	0.0752194644564596	-0.268254840620207	0.3434743050766666	94.22302718093596	far	LO1
0	1.0	ltm	460	diff_vonmises	0.3378423361334516	19.35694000128689	0.4940408080502793	132.8348832735569	0.4801607786663465	135.23594374871217	-0.2396541053806231	-0.4438135362343178	0.2041594308536947	102.7055175611646	far	V1
1	2.0	ltm	460	diff_vonmises	0.145869367213288	8.357699101565393	0.4474175352155772	106.36680787575312	0.4332202940601334	107.70363546219616	-0.0339233433692101	-0.3109213306509684	0.2769979872817583	120.920739378527	far	V2
2	3.0	ltm	460	diff_vonmises	0.2082250491533137	11.930416505388994	1.4150823122147926	178.8546201611359	1.3991799538317764	179.58354212311843	0.2041911089512922	-0.2437965431092053	0.4479876520604975	72.55140068917731	far	V3
3	4.0	ltm	460	diff_vonmises	0.3996942030425434	22.90079093018273	1.6470023362968664	1.1606058356055358	0.2575525248107599	3.0408849561010904	-0.0837880899802869	-0.3784862452041428	0.2946981552238559	85.30205954060116	far	V4
4	5.0	ltm	460	diff_vonmises	-0.0328261026115244	-1.8807971375037185	1.3256923246534988	194.33824599590687	1.3093278442948906	195.33953030917175	0.1766451758450529	-0.2972751528564785	0.4739203287015314	73.685530425188	far	V3ab
5	6.0	ltm	460	diff_vonmises	-0.0838919358776602	-4.806653860972061	0.8680407991562381	159.3181860804337	0.8503303456998665	160.5869417501357	0.1408169580972327	-0.3335572333912218	0.4743741914884545	90.71221897573938	far	IPS0
6	7.0	ltm	460	diff_vonmises	-1.877074287116239	-107.5484344842882	6.670638631510597	62.2802446681424	6.588069580109758	62.9690255475616	-1.8678908472082172e-05	-0.4139703064675544	0.4139516275590823	198.06607086613317	far	LO1
0	1.0	ltm	461	diff_vonmises	-0.4740228566113737	-27.159509076566707	0.0005700092315125	1162.6040343563336	6.615405801125206e-18	1164.2240690418598	-0.152350719972901	-0.3632922770821096	0.2109415571092086	173.6502180808617	far	V1
1	2.0	ltm	461	diff_vonmises	0.222573981779297	12.752549785375404	0.4012805656436827	125.74816497310432	0.3896676615922609	126.5758757954624	0.0803085857676002	-0.2656847898460697	0.3459933756136699	131.5723258430682	far	V2
2	3.0	ltm	461	diff_vonmises	-0.0104660228727731	-0.5996589388972848	1.4242470995302057	128.70249747619658	1.4100135977990071	129.042871367582	0.1838209384682017	-0.141939735076729	0.3257606735449307	74.32986171266839	far	V3
3	4.0	ltm	461	diff_vonmises	-0.1861982137761391	-10.668371802247435	3.4692243412317194	0.4041002519545484	1.3044157054221077e-30	1.571963331851725	0.0370440705112503	-0.249907154579532	0.2869512250907824	73.65037807782949	far	V4
4	5.0	ltm	461	diff_vonmises	-0.1310834324320765	-7.510527442446282	5.07856313089687	0.3266801700346158	1.3782201669068174e-33	1.1699180053679006	0.0993876696679345	-0.1861871491242653	0.2855748187921998	60.58169498056023	far	V3ab
5	6.0	ltm	461	diff_vonmises	-0.4017042791855856	-23.01595980967898	2.2378237011354387	0.7955698232225765	4.897787198609287e-17	2.0437608099884303	0.1138187261794176	-0.3202765004684426	0.4340952266478602	91.740099463568	far	IPS0
6	7.0	ltm	461	diff_vonmises	0.046719415434292	2.6768253257032915	1.1068622457581458	227.3300873331673	1.0942555214925165	228.69945164378385	0.04428061561984	-0.330600798710595	0.3748814143304351	77.17344768021374	far	LO1
0	1.0	ltm	462	diff_vonmises	0.1367321367443585	7.834174359257386	0.3936724228517692	164.8605507752756	0.3824185641859812	167.8847226688609	-0.3409438123218891	-0.5484391496679031	0.207495337346014	112.10824509275508	far	V1
1	2.0	ltm	462	diff_vonmises	0.1293874623758102	7.413355516041659	0.6363068612129205	133.11909367798447	0.6213653984198696	134.48280339057646	0.0097525102877895	-0.3134005524984875	0.3231530627862771	102.2139458440278	far	V2
2	3.0	ltm	462	diff_vonmises	0.1007101995463939	5.770269387928711	1.259355639424297	57.36103738710207	1.2181041221902689	58.17326609474316	0.1238306802023423	-0.231386054023182	0.3552167342255243	75.69818640263028	far	V3
3	4.0	ltm	462	diff_vonmises	0.0201132087581476	1.1524019743074232	1.1261501189884413	0.8280692681340461	7.820797147221198e-15	2.652353361518128	-0.1195402528473967	-0.3903149052353635	0.2707746523879668	123.4974385865958	far	V4
4	5.0	ltm	462	diff_vonmises	-0.0233294815498333	-1.336680831033775	1.029094897452494	144.72071629515963	1.0078452969071128	145.8927850015505	0.1785240223090696	-0.324614546482044	0.5031385687911136	83.94111302311481	far	V3ab
5	6.0	ltm	462	diff_vonmises	-0.1673259103069576	-9.587068463773234	0.6711191569351495	127.69383145346848	0.6514568776384708	128.8971545980229	0.1462416315636971	-0.3387331756365661	0.4849748072002633	104.38418889999696	far	IPS0
6	7.0	ltm	462	diff_vonmises	0.0421144965721029	2.412982909899673	1.060377202376716	137.30210153821736	1.0445507427829213	138.44168929273732	0.0100041939783608	-0.2645070139540912	0.2745112079324521	77.98078537793384	far	LO1
0	1.0	ltm	463	diff_vonmises	0.0852988521098811	4.887264223206764	2.751584194895113	0.433726628167109	2.385104698339562e-34	2.718914433063246	-0.1624122929359663	-0.4316274335264448	0.2692151405904784	82.89329165589444	far	V1
1	2.0	ltm	463	diff_vonmises	0.0572487947529571	3.280114321555137	2.1668828914835085	1.252530783066678	0.3913256820812265	2.3613769532990947	0.142952015863533	-0.2854177118573212	0.4283697277208542	77.79017433449107	far	V2
2	3.0	ltm	463	diff_vonmises	-0.023917794699845	-1.3703886915614902	1.8646025096347263	0.801078781146256	0.0429672083281369	1.5558118368221352	0.1376931125494387	-0.227581016484961	0.3652741290343997	97.57629892477598	far	V3
3	4.0	ltm	463	diff_vonmises	-0.3120965919201378	-17.88181751744065	1.6419306564798135	0.9958192415457447	5.32638224878122e-20	2.4345453705593254	0.0682233383604345	-0.3703889493092547	0.4386122876696892	105.96452930386724	far	V4
4	5.0	ltm	463	diff_vonmises	-0.075208111898174	-4.309107396913002	1.5424614531437066	1.111853205383022	6.730004927512801e-14	1.6883452248964326	0.2211051374895961	-0.2463065618912403	0.4674116993808365	109.1391078740882	far	V3ab
5	6.0	ltm	463	diff_vonmises	-0.2691290040027766	-15.41995607391854	0.6703677883560861	2.0194580882084585	1.4124140416576948e-10	2.520407423620439	0.1621101585278622	-0.2537550540884659	0.4158652126163282	142.645227698633	far	IPS0
6	7.0	ltm	463	diff_vonmises	0.2071944923010158	11.871369947204036	0.9923730677984302	165.76882091256954	0.977154888174778	166.88101569622273	0.1025975581750557	-0.2847752474136129	0.3873728055886687	83.91283741819416	far	LO1
0	1.0	ltm	464	diff_vonmises	0.0785230485440971	4.499039276077651	2.703689777933981	0.4188390456190535	1.9396742246156076e-17	2.64096254270272	-0.1619510854737509	-0.4191636312379206	0.2572125457641697	83.63861920197024	far	V1
1	2.0	ltm	464	diff_vonmises	0.0048485012482957	0.2777986584912573	2.218740685128979	0.9951711559261568	0.3048330309337771	1.9735150004215096	0.1301324666692632	-0.2506773083670504	0.3808097750363137	79.34963982320193	far	V2
2	3.0	ltm	464	diff_vonmises	0.0578492032677321	3.314515195435465	1.1261432693963385	75.15346838241724	1.101237521675479	75.67746981299572	0.1607963443227831	-0.17324860958374	0.3340449539065231	82.44288421437142	far	V3
3	4.0	ltm	464	diff_vonmises	-0.252696925214607	-14.478467310729975	1.7193315241238172	0.939942465876166	0.1044663636462862	2.211179419847865	0.0527241631758625	-0.302795952039757	0.3555201152156196	95.6514604196332	far	V4
4	5.0	ltm	464	diff_vonmises	-0.0062759517935731	-0.3595855501993031	2.011533252478635	1.0701353807661025	0.1900730662024392	1.6289701460162265	0.2432494924375466	-0.2070776682465478	0.4503271606840945	88.67042599461902	far	V3ab
5	6.0	ltm	464	diff_vonmises	-0.2629538178073221	-15.066143967211548	0.603477876634137	134.75759372121243	0.589028571633762	135.3812799973374	0.2040739116830963	-0.2517842117861093	0.4558581234692056	113.94877194265251	far	IPS0
6	7.0	ltm	464	diff_vonmises	0.1653393774705825	9.473248516384787	0.8947219599318486	149.2755917542051	0.8787931283772132	150.16600408821105	0.1693513083905031	-0.2602334118498053	0.4295847202403084	91.05245479411604	far	LO1
0	1.0	ltm	465	diff_vonmises	-0.537129677171022	-30.775263553123963	0.0005727367041579	1208.658076063194	3.6296388130667324e-20	1209.3331499362348	0.002747450564243	-0.2175985889201115	0.2203460394843546	171.8967815514648	far	V1
1	2.0	ltm	465	diff_vonmises	0.0988667583175918	5.664647985737938	2.4143140781772647	0.8783209725844976	0.4561598326105732	1.1242964894203624	0.2388751717782328	-0.1272137238083319	0.3660888955865648	77.3905399842632	far	V2
2	3.0	ltm	465	diff_vonmises	0.0570380615697979	3.268040199556759	1.0994927324286103	5.984290509414341	0.9075248605428758	6.079008277940448	0.1864292567728775	-0.0905859412846512	0.2770151980575288	92.14802436816797	far	V3
3	4.0	ltm	465	diff_vonmises	-0.3619593091821477	-20.73874077160793	5.188653792949553	0.5905601596760767	5.830720254545502e-20	1.268610998603026	0.3203571064043636	-0.2018894509889857	0.5222465573933494	59.914891423493145	far	V4
4	5.0	ltm	465	diff_vonmises	-0.1472285335928055	-8.435573598767823	1.39268228285449	0.7554503397472312	6.981750006372238e-12	0.6588537815444011	0.2080149681470682	-0.0855518452203658	0.293566813367434	113.83061274713506	far	V3ab
5	6.0	ltm	465	diff_vonmises	-0.5185646908369838	-29.711568189465524	1.9552842619569413	0.7398460560093698	1.210556127181164e-12	0.7989600927944955	0.2493220618748804	-0.1196175046045271	0.3689395664794076	97.62060593859766	far	IPS0
6	7.0	ltm	465	diff_vonmises	0.1471055721455	8.428528426794397	1.2764203537368994	189.3406349223961	1.2597173222570497	190.2059451246588	0.2403639861562538	-0.2817189448355464	0.5220829309918003	76.6604279987697	far	LO1
0	1.0	ltm	466	diff_vonmises	0.2108665921573118	12.081765770920397	3.068862269807864	0.4806517458935354	1.1924338138051796e-14	3.798437123464185	-0.2856432104490194	-0.6038512761264778	0.3182080656774583	78.41083517300012	far	V1
1	2.0	ltm	466	diff_vonmises	0.0154156012741789	0.8832488916669482	1.8648245180585905	1.2004583820456471	0.1802629554334125	3.0481353823321315	0.0173176208676691	-0.4041179651960889	0.4214355860637581	87.19519122786858	far	V2
2	3.0	ltm	466	diff_vonmises	-0.113079687972356	-6.4789888694722615	0.6950256615206172	80.71609362214588	0.664878417876414	82.00760095737724	0.1044468988638875	-0.3360419134170849	0.4404888122809725	101.55673282415368	far	V3
3	4.0	ltm	466	diff_vonmises	-0.0736162135381944	-4.217898339472376	0.0001755032644653	6262.103022475325	6.8645952518265895e-31	6264.243432068751	-0.1657359684803623	-0.5155622170102561	0.3498262485298937	179.8351996919967	far	V4
4	5.0	ltm	466	diff_vonmises	-0.0401850818888631	-2.3024355916194605	1.6048720177886877	1.1203243687842952	5.677165890494671e-17	2.5022374857218703	0.1073427327010684	-0.3778335820773489	0.4851763147784174	107.29305659665964	far	V3ab
5	6.0	ltm	466	diff_vonmises	-0.2505547074032835	-14.355727271343389	0.2722199330864668	4.715122695988309	1.238663098648472e-13	5.982370943179236	0.0150970985294708	-0.3909686352601704	0.4060657337896413	163.2162840752439	far	IPS0
6	7.0	ltm	466	diff_vonmises	0.3936451581267257	22.554206186421304	0.8367493607568597	117.06502756887444	0.8203537019030529	118.32330050244366	-0.020554888058001	-0.2724850150085824	0.2519301269505813	86.8580076426039	far	LO1
0	1.0	ltm	467	diff_vonmises	0.2071736857037767	11.870177816996206	0.362162546339122	152.3003795071725	0.351191161335208	155.35046915626037	-0.3654192766338298	-0.5444824126482608	0.179063136014431	114.35220505349912	far	V1
1	2.0	ltm	467	diff_vonmises	0.2294796418511342	13.148214962243689	0.5393608798455839	160.145617331475	0.5277905751532935	161.65449995334143	-0.0321413370815619	-0.3368161576003547	0.3046748205187928	109.43893885416628	far	V2
2	3.0	ltm	467	diff_vonmises	0.0942552114576567	5.40042581363685	1.199255105507184	85.77500179875024	1.1747440210718554	86.55642644908784	0.0964696116762695	-0.2135259516538354	0.309995563330105	76.81276201388206	far	V3
3	4.0	ltm	467	diff_vonmises	0.150035563878853	8.596404587123743	0.5335633925753972	1.0517423442312144	2.762826272739244e-15	2.9629244219702406	-0.2054482031879905	-0.3800189917851564	0.1745707885971659	150.02922440099434	far	V4
4	5.0	ltm	467	diff_vonmises	-0.0244833977653702	-1.4027953600957486	1.0003808175117692	84.63492344825278	0.9676197532642364	85.9704564026885	0.0770236155052899	-0.3266010721806278	0.4036246876859177	82.82790517728506	far	V3ab
5	6.0	ltm	467	diff_vonmises	-0.2402866258043242	-13.767409532027076	0.5601412554689326	141.9879322754784	0.5448471211830627	143.41117496326743	0.0457198496594344	-0.3564267937652872	0.4021466434247216	111.10187145698367	far	IPS0
6	7.0	ltm	467	diff_vonmises	0.0189944181613701	1.0882999949531529	1.00363317924602	98.9657811419243	0.984544477248082	100.2290464828148	-0.0704226290049732	-0.2669834020948904	0.1965607730899172	76.25004670075248	far	LO1
0	1.0	ltm	468	diff_vonmises	0.0008960360174252	0.0513390820901798	1.980465398975761	0.6082382570498661	1.570318620327457e-23	2.077160659362798	-0.0186662779825362	-0.3246496643333257	0.3059833863507894	97.47289498030048	far	V1
1	2.0	ltm	468	diff_vonmises	-0.107962124313662	-6.185774070439563	1.8584249771541	1.7200031490894634	0.4949491703324334	2.4438129649381564	0.2480212465877745	-0.2404760721702007	0.4884973187579753	82.52868197773122	far	V2
2	3.0	ltm	468	diff_vonmises	-0.0060053005541082	-0.3440783764579749	1.2476594425104173	5.970970816123684	0.8048517955288751	6.583575569070261	0.3110032056839249	-0.2468345095935098	0.5578377152774348	88.0233389426788	far	V3
3	4.0	ltm	468	diff_vonmises	-0.207634866143538	-11.896601509788518	2.6770704384633137	1.014900907571509	3.996100314938495e-18	2.19037507946887	0.2739327135149539	-0.345665288100809	0.619598001615763	84.03540082493738	far	V4
4	5.0	ltm	468	diff_vonmises	-0.0544013987497422	-3.116970547968505	1.5402085494716522	1.2235910078867789	2.0154391822616166e-13	1.4262356109814598	0.3115782548007784	-0.2022503015532019	0.5138285563539803	109.21483757599606	far	V3ab
5	6.0	ltm	468	diff_vonmises	-0.294115541304524	-16.851579205954863	1.3943420024768285	1.2308286215213655	1.0884067646263361e-16	1.7450021153969462	0.2324133710127067	-0.2463507953533452	0.4787641663660519	113.50775799055482	far	IPS0
6	7.0	ltm	468	diff_vonmises	0.1678171013216941	9.615211635852384	1.5213237212904376	171.37511291198044	1.5038612199654422	171.9129099745552	0.2887923442519877	-0.2270651503395448	0.5158574945915326	71.77493125658691	far	LO1
0	1.0	ltm	469	diff_vonmises	-0.0690392709823255	-3.955658847947264	0.2019703492508297	42.52863296506968	0.1803405078263516	44.589608040044695	-0.2307397993293722	-0.4029081701554498	0.1721683708260775	151.00413573181726	far	V1
1	2.0	ltm	469	diff_vonmises	0.1714068275171206	9.820887796457876	0.837441635822981	33.97812223360103	0.7843324842169368	34.81013894634212	0.0944178890750979	-0.22088045443108	0.315298343506178	93.58617939285298	far	V2
2	3.0	ltm	469	diff_vonmises	0.1897166207436249	10.869961672093794	2.3379318424175746	0.925941200380166	0.6532973068253192	1.2937299339645176	0.1678951507859012	-0.1349572438732836	0.3028523946591849	73.47082995506375	far	V3
3	4.0	ltm	469	diff_vonmises	-0.3401913439623036	-19.491528235923298	0.7547793675993859	131.63676888918798	0.7373148597129634	132.95362157445862	0.0547210091080998	-0.3146546048512775	0.3693756139593773	95.12279544872383	far	V4
4	5.0	ltm	469	diff_vonmises	-0.0505886529692092	-2.89851630638765	1.1055676360118425	77.24118533099153	1.080553407862299	77.46513192517155	0.2821125260347408	-0.1501167802086991	0.4322293062434399	87.44575900898178	far	V3ab
5	6.0	ltm	469	diff_vonmises	-0.29346532050228	-16.814324298234673	0.6408218820462206	129.2325891045864	0.6277668919721647	129.48165618952933	0.2528318338629773	-0.1873099146659385	0.4401417485289158	113.87284579550736	far	IPS0
6	7.0	ltm	469	diff_vonmises	0.1955069557524107	11.20172343006407	1.4204115278612808	125.18434418262775	1.403056650529218	125.63232592727164	0.2005012788936255	-0.1734441275429574	0.373945406436583	73.90451573047224	far	LO1
0	1.0	ltm	470	diff_vonmises	0.3435323229434904	19.682952230987222	0.9303704343126084	58.997113912798326	0.8978839369607776	60.17682493966695	-0.0154870637203927	-0.2592495503583425	0.2437624866379497	82.70744000993724	far	V1
1	2.0	ltm	470	diff_vonmises	0.1317722680398516	7.549994815550123	0.6651543600617983	79.74417241102421	0.6468529546487316	80.52059614010663	0.064398392158349	-0.2046338042300961	0.2690321963884452	103.5684773625142	far	V2
2	3.0	ltm	470	diff_vonmises	0.1434331637822564	8.218114926931987	1.2744285423376969	118.90983403644384	1.2598750975355522	119.18826890402288	0.207680382666652	-0.1335846301523648	0.3412650128190169	79.8016153073751	far	V3
3	4.0	ltm	470	diff_vonmises	-0.1746473480195808	-10.006555944674458	11.4549125943604	0.2554346703993427	4.51830195208111e-17	1.2909837475074553	0.1355047986013239	-0.2054664448288189	0.3409712434301428	40.06887752703864	far	V4
4	5.0	ltm	470	diff_vonmises	-0.0061216261115678	-0.3507433399499179	1.2391977790958484	14.839093080331384	1.1346045847607438	15.423103798451695	0.072875710545583	-0.1597660323540952	0.2326417428996783	76.85902927393076	far	V3ab
5	6.0	ltm	470	diff_vonmises	-0.393428807941539	-22.541810233913232	2.4214640213126826	0.5961218741781381	5.535471559919403e-20	1.553529602040283	0.0975096565019124	-0.244533416395115	0.3420430728970275	88.28656734530081	far	IPS0
6	7.0	ltm	470	diff_vonmises	0.0156021801487575	0.8939390737266036	1.0917781463681953	118.44218046875982	1.0694726539699004	119.70302052264311	0.0483897915600479	-0.3053756635104907	0.3537654550705387	78.14794678421103	far	LO1
0	1.0	ltm	471	diff_vonmises	-0.0189028329912808	-1.0830525512410432	0.2066614359733187	76.23562475070668	0.1948993689045755	78.33411477438686	-0.2465787563989963	-0.3993798011816771	0.1528010447826808	148.17201764004872	far	V1
1	2.0	ltm	471	diff_vonmises	0.297332904485826	17.035920537404255	0.5064227663705161	113.66343970269804	0.4928689982329373	114.76667419677	0.0171810483212873	-0.2748323093624893	0.2920133576837767	116.20499966570908	far	V2
2	3.0	ltm	471	diff_vonmises	0.1505364576551136	8.625103686487844	1.3441114886304617	91.75791966973992	1.324551315695062	92.20359181797478	0.1451351482388503	-0.1533652207950169	0.2985003690338672	75.12827037586078	far	V3
3	4.0	ltm	471	diff_vonmises	-0.0797093719478049	-4.567010600247701	2.22858441567177	0.3620560797826057	1.7405603813271204e-17	1.869538989554124	-0.0982250361345991	-0.2952349176041593	0.1970098814695602	92.08279511997752	far	V4
4	5.0	ltm	471	diff_vonmises	-0.0585775902670348	-3.3562486963477065	1.119446513919832	50.28507472619301	1.078776172140666	51.06040072203689	0.1064646074300839	-0.2123214277141274	0.3187860351442113	80.31881981337722	far	V3ab
5	6.0	ltm	471	diff_vonmises	-0.3534950508221908	-20.253774490874072	0.6177783574738726	160.33533883749172	0.605896150076785	161.31494876434357	0.0997480614233268	-0.2731068855965759	0.3728549470199027	108.11278523320604	far	IPS0
6	7.0	ltm	471	diff_vonmises	0.0226034186969599	1.295080493902899	1.3191268532312652	137.00318303922106	1.3028674036982846	137.98408393179383	0.0137475078741502	-0.2455781990196968	0.259325706893847	69.7670065295855	far	LO1
0	1.0	ltm	472	diff_vonmises	-0.0827545667618927	-4.741487410890056	0.3751593567891996	66.16430406824412	0.3560689376162184	67.52643495601785	-0.0700238870453802	-0.3063262631043182	0.236302376058938	129.24988097338397	far	V1
1	2.0	ltm	472	diff_vonmises	0.022559507819993	1.292564585977977	0.8632724151931933	107.94154685499274	0.8438058051504416	108.74678430868552	0.1496638479313574	-0.235235649866226	0.3848994977975835	92.79563033120156	far	V2
2	3.0	ltm	472	diff_vonmises	0.0547925633713004	3.1393826298786203	0.960920870734141	97.1661933506766	0.9374136590319846	97.77638326747838	0.2325188734150742	-0.220646677209487	0.4531655506245613	90.38698149690832	far	V3
3	4.0	ltm	472	diff_vonmises	-0.2074466880287452	-11.885819698014158	3.850454539080397	0.6901264725147093	6.770240647090587e-36	1.938401776583555	0.211148804747696	-0.3082711207449358	0.5194199254926318	69.80987376629909	far	V4
4	5.0	ltm	472	diff_vonmises	-0.131953229712375	-7.560363155639341	1.7075368042188546	0.8281301381548389	7.47628922114003e-18	1.2700911856152637	0.1859461052089805	-0.1893820277759612	0.3753281329849417	104.35111000819006	far	V3ab
5	6.0	ltm	472	diff_vonmises	-0.3757893317938273	-21.53114269782767	1.3043375335491043	1.0806335151301998	1.347069313598999e-17	1.7292321547298823	0.155131215328109	-0.243525746879072	0.3986569622071811	116.2589446508125	far	IPS0
6	7.0	ltm	472	diff_vonmises	0.1069774769122381	6.129357930029453	1.423470346821273	199.20346448982664	1.4068078663067332	200.41551275755572	0.0856245771114601	-0.3317499971367077	0.4173745742481678	68.75889594432388	far	LO1
0	1.0	ltm	473	diff_vonmises	0.294853565968535	16.89386490437926	0.5890070468868018	134.92229453403078	0.5729524486646247	137.48483770327925	-0.2582146602810553	-0.4713004680115418	0.2130858077304864	93.2145526241685	far	V1
1	2.0	ltm	473	diff_vonmises	0.1724162498660946	9.87872343680027	0.8529864446389058	120.17289057669272	0.8362817034780001	121.34898162591094	0.0178470954162293	-0.2677853926146216	0.2856324880308509	87.83784111628862	far	V2
2	3.0	ltm	473	diff_vonmises	0.2237931093623519	12.822400650572437	1.196431306960317	26.238336831775037	1.1315503186395677	26.819345672536997	0.1031787718558643	-0.1679806670885217	0.2711594389443861	78.71721511024717	far	V3
3	4.0	ltm	473	diff_vonmises	0.0004795979794333	0.027478940084535	0.4667422746043614	24.27364338192336	0.4126647790226477	25.81961020187388	-0.1136358554054624	-0.3121823118717106	0.1985464564662482	114.85546848352188	far	V4
4	5.0	ltm	473	diff_vonmises	-0.0219802558941649	-1.2593758953532035	1.144791562419338	117.85646404421487	1.12322225689847	118.68903590841671	0.1701212422533728	-0.2470675840159426	0.4171888262693155	80.26911292689232	far	V3ab
5	6.0	ltm	473	diff_vonmises	-0.2070970002195283	-11.865784062398856	0.5723803361156822	122.85824919009892	0.5576931655055881	123.6368904526346	0.1396984297007897	-0.2576929449009064	0.3973913746016961	114.79328575009924	far	IPS0
6	7.0	ltm	473	diff_vonmises	0.7330471818908328	42.00050970630351	0.0002046437584306	4336.687102767691	7.788216526881537e-30	4337.907064971768	-0.0529096054000319	-0.3354019723533383	0.2824923669533064	164.55135368423126	far	LO1
0	1.0	ltm	474	diff_vonmises	-0.3481274024190401	-19.946230891463408	0.2671579710246011	51.09363343861994	0.2503123945500124	52.43770147589993	-0.118391079330685	-0.281318418947535	0.16292733961685	141.09048360767605	far	V1
1	2.0	ltm	474	diff_vonmises	0.2941288111208215	16.852339510423626	0.559092651624974	88.55200756913273	0.5445427454542074	89.09235270616453	0.1047237507409306	-0.1851184067155662	0.2898421574564969	116.3283187485632	far	V2
2	3.0	ltm	474	diff_vonmises	0.1546539775639984	8.861020199328037	1.7505188319179064	76.67111187500507	1.7312444082832077	76.7849506743058	0.1912630300397992	-0.0921792836512178	0.2834423136910171	69.15832103902312	far	V3
3	4.0	ltm	474	diff_vonmises	-0.2638683907322309	-15.118545135865755	1.8756246849281808	1.1479437422212388	0.4074069197157292	2.128180146240735	0.0810397706794291	-0.2399213579287757	0.3209611286082049	80.90600421002371	far	V4
4	5.0	ltm	474	diff_vonmises	-0.1306835388649249	-7.487615228794062	1.874398252780917	2.1688634751832128	1.0900426267151322	2.434197825850577	0.2026510856330582	-0.1286865206105145	0.3313376062435727	73.86834849650177	far	V3ab
5	6.0	ltm	474	diff_vonmises	-0.3665113613238934	-20.99955414745345	0.8536447519100838	146.08446946177338	0.8392595168967029	146.63207068203386	0.2306505705962678	-0.2125383916536485	0.4431889622499163	96.22419328555048	far	IPS0
6	7.0	ltm	474	diff_vonmises	0.0187306407279189	1.073186661285603	1.4139216812223303	200.1810509131997	1.3995689666027986	201.0208587998642	0.1632729716868368	-0.2590670183145889	0.4223399900014257	71.43978684444707	far	LO1
0	1.0	ltm	475	diff_vonmises	-0.3168484307848403	-18.154077829314332	0.6997130767003588	0.9961637042948224	2.5629500619144164e-14	2.532467337941171	-0.1196433947572324	-0.3331258582995657	0.2134824635423332	140.91154615778845	far	V1
1	2.0	ltm	475	diff_vonmises	0.0533836272483039	3.058656536427394	2.742448734198189	0.5914809118810102	4.9357085462167905e-14	1.1965506459325497	0.1774912845369233	-0.1889104258763775	0.3664017104133008	83.03470937556244	far	V2
2	3.0	ltm	475	diff_vonmises	0.0402086258821208	2.3037845630660128	1.2860855337015469	44.53393445640414	1.2521198325149063	44.76526074009804	0.1864591943776155	-0.1156639939859109	0.3021231883635265	79.95042120189257	far	V3
3	4.0	ltm	475	diff_vonmises	-0.3845070111487054	-22.03062893201051	1.236804577571622	3.537539826025497	0.6280772624241475	4.523224614556369	0.1399576823531805	-0.2680597512853377	0.4080174336385183	88.49452827108695	far	V4
4	5.0	ltm	475	diff_vonmises	-0.0333657944399228	-1.911719201508647	2.1045983586742283	0.7375415770470142	2.183164732930145e-15	0.8859401515627561	0.2513617844555609	-0.1351718705153355	0.3865336549708965	94.67932702937264	far	V3ab
5	6.0	ltm	475	diff_vonmises	-0.3797372094915807	-21.75733942794276	0.6969294159911676	116.8960239215127	0.6815552354664327	117.2374743780465	0.2464068759866151	-0.1943240113424753	0.4407308873290905	108.59081221756058	far	IPS0
6	7.0	ltm	475	diff_vonmises	0.1806851166053072	10.352494602313254	1.2074541908657583	169.47334082413354	1.1925297406622557	170.05281322217397	0.2482936332132936	-0.2159430758698377	0.4642367090831314	80.39129413624673	far	LO1
0	1.0	ltm	476	diff_vonmises	0.3697841786015459	21.187072764580428	0.3979430136429878	80.12226301624005	0.3799550054936009	82.48937077127228	-0.2677566864821088	-0.4286548552904001	0.1608981688082913	111.80931980823355	far	V1
1	2.0	ltm	476	diff_vonmises	0.2957771332740917	16.946781413083926	0.4978766598360658	117.40747507897996	0.4848880155977727	118.72555177314833	-0.0368679644379739	-0.2953266407449639	0.25845867630699	113.8554819421186	far	V2
2	3.0	ltm	476	diff_vonmises	0.2695230259087429	15.442531866166108	1.3937509491766422	130.4372706567674	1.374955476129212	131.11985650286243	0.158298188749697	-0.2171679261276828	0.3754661148773799	72.59646792867923	far	V3
3	4.0	ltm	476	diff_vonmises	0.4988678174078402	28.583020472372223	2.049506745277998	0.5229151384565957	0.0673945371899318	2.431874094844355	-0.1397963916418146	-0.3611447348656931	0.2213483432238784	87.24856951857231	far	V4
4	5.0	ltm	476	diff_vonmises	-0.0536700598309437	-3.075067914527687	1.307748568361369	155.3591290356784	1.2893981853686316	156.32892735755783	0.1347532069882859	-0.2758491375029344	0.4106023444912203	73.55962853541985	far	V3ab
5	6.0	ltm	476	diff_vonmises	-0.1704493003331204	-9.766025530045615	0.7247247536843313	156.76714553541916	0.7103196137114332	157.9369422047145	0.0955436314272333	-0.3012121294498495	0.3967557608770828	98.73971173619287	far	IPS0
6	7.0	ltm	476	diff_vonmises	-0.5870532387022186	-33.6356729271232	2.2258656832084345	69.42005987169088	2.183650073047972	70.40671346110548	-0.0405176259931875	-0.3095147467796586	0.268997120786471	47.23206345061499	far	LO1
0	1.0	ltm	477	diff_vonmises	-0.4747494853028681	-27.201141833862447	0.2420426447289998	24.057352334357752	0.2058682872186445	25.45678831042133	-0.1186917963037172	-0.3008856883895165	0.1821938920857992	145.50023477195248	far	V1
1	2.0	ltm	477	diff_vonmises	0.2422064886409127	13.877409569807613	1.0591313762353871	22.134089263775525	0.9760618653758252	22.68076601025533	0.1629179020226967	-0.1793231881635208	0.3422410901862176	86.32634272764335	far	V2
2	3.0	ltm	477	diff_vonmises	0.1842011958158608	10.553951101511664	3.7225004977101928	0.3597875360012653	6.377741622262787e-14	0.5873227959279768	0.1724232394898507	-0.0933199118096393	0.2657431512994901	71.03645095259847	far	V3
3	4.0	ltm	477	diff_vonmises	-0.42641728899139	-24.431910970616983	3.37988075116361	0.6893142587488988	0.0043144442724557	1.7149706635181383	0.2087321163798733	-0.2712097701212401	0.4799418865011134	74.42042485986589	far	V4
4	5.0	ltm	477	diff_vonmises	-0.1181700160960348	-6.770643187295804	1.61285696214653	0.9561927891362436	0.2389381587863877	0.960798258238408	0.2413796251136997	-0.1015251328851683	0.3429047579988681	98.96647564014488	far	V3ab
5	6.0	ltm	477	diff_vonmises	-0.4363177271365852	-24.999164291667004	0.6939064804354069	82.25019749085271	0.6777514751090098	82.25882672654026	0.2506742236636157	-0.12643824964728	0.3771124733108957	112.25138473006326	far	IPS0
6	7.0	ltm	477	diff_vonmises	0.1986904487883228	11.38412414513112	1.480970811982813	192.65935313413024	1.4669767496221642	193.32844171649572	0.188210943091903	-0.2273152676899066	0.4155262107818096	70.78651595068766	far	LO1
0	1.0	ltm	478	diff_vonmises	0.1823676269902079	10.448895346354997	2.812356907475111	0.7838661033865082	0.1008015324010943	3.643890575742372	-0.145123682201321	-0.550326207216027	0.405202525014706	74.41630600508063	far	V1
1	2.0	ltm	478	diff_vonmises	-0.1298453070360714	-7.439588082747225	1.1123535063642047	123.2343817694149	1.0855837618413426	124.55976805574768	0.1434093233064288	-0.3506244308285797	0.4940337541350086	79.63171009841886	far	V2
2	3.0	ltm	478	diff_vonmises	0.0618422445155437	3.543299606356717	1.0876210215845232	183.07449610870324	1.0701133725246768	184.15494696493317	0.2180438386498053	-0.3183247461400356	0.536368584789841	82.36651171911797	far	V3
3	4.0	ltm	478	diff_vonmises	0.0153422485957237	0.8790460927754834	1.768381970854188	1.044397763943122	1.066998683533114e-12	2.713909581957465	0.0680728722309586	-0.417378180928483	0.4854510531594416	102.74482994450128	far	V4
4	5.0	ltm	478	diff_vonmises	0.0389224854346605	2.230094143565471	0.9760882408629432	91.2991018466947	0.9387160506270136	92.23199570366022	0.3396742941413002	-0.3308714727806787	0.670545766921979	89.82515968695321	far	V3ab
5	6.0	ltm	478	diff_vonmises	-0.0603498488195494	-3.457791631612759	1.563902281729644	1.7083557435785923	0.1689251137606462	2.683860157469788	0.2567435355279143	-0.3254221914201123	0.5821657269480267	98.92435467126052	far	IPS0
6	7.0	ltm	478	diff_vonmises	0.1209594437989908	6.930465621932055	0.8555374163335487	126.16546765971178	0.83683593296783	126.9912594855863	0.1937170136712893	-0.2576440010074616	0.451361014678751	94.07611669228824	far	LO1
0	1.0	ltm	479	diff_vonmises	-0.0725426046251209	-4.156385079905638	0.8727209003194214	0.8560000374621954	1.0519268546433216e-16	2.289216875166895	-0.0925403994357574	-0.316892370036308	0.2243519706005505	134.02747536321598	far	V1
1	2.0	ltm	479	diff_vonmises	-0.0366748206376806	-2.101312436938389	2.200123872159008	0.7311709376701793	1.291260894965511e-13	1.4471797006366096	0.169145755678473	-0.2254225359613196	0.3945682916397925	92.66258377203948	far	V2
2	3.0	ltm	479	diff_vonmises	0.0481687414946225	2.7598655920985555	1.191312627000794	128.85465038762845	1.1741180581091109	129.18562959372676	0.2863936114301282	-0.1728211655568223	0.4592147769869505	83.11614856419123	far	V3
3	4.0	ltm	479	diff_vonmises	-0.2496710432866233	-14.3050970469516	3.1024083098660333	0.7214191746511681	2.3687605303830087e-16	1.9173370250359247	0.176426450136103	-0.3041809422270962	0.4806073923631993	77.97833148173588	far	V4
4	5.0	ltm	479	diff_vonmises	-0.0161874526042845	-0.9274727152935568	2.040906005370512	0.7774577761854985	7.014044916918896e-19	0.901769342603042	0.2624915032192806	-0.1366688102689106	0.3991603134881912	96.08643932123768	far	V3ab
5	6.0	ltm	479	diff_vonmises	-0.3455015386953137	-19.795779982517377	0.622452368287787	97.58606738165396	0.605381090464691	98.01921906803456	0.2002480652526408	-0.20367394135378	0.4039220066064208	113.47415319132254	far	IPS0
6	7.0	ltm	479	diff_vonmises	0.2431820942925427	13.933307656115126	1.7775497895451522	113.16998887515328	1.7581524426154709	113.35459594378293	0.2736833207543938	-0.1381345086303813	0.4118178293847752	68.37278096190778	far	LO1
0	1.0	ltm	480	diff_vonmises	-0.1313286960407912	-7.524580012093785	1.3077242777323927	0.5145201280894146	4.966279771757509e-13	2.598512620058408	-0.2083496135811685	-0.3985562718607467	0.1902066582795782	116.73288142607416	far	V1
1	2.0	ltm	480	diff_vonmises	0.0899172581404476	5.151879396835995	2.2384823035435195	0.8376821978612399	0.2967503935049032	1.558556389923896	0.1358934097048878	-0.1972121956846391	0.333105605389527	79.97954447598033	far	V2
2	3.0	ltm	480	diff_vonmises	0.169784324642115	9.727925229472213	2.285242887234738	0.9585674322551766	0.765717128368601	1.2571646492078066	0.1621998993439479	-0.1193538299184574	0.2815537292624053	72.76782967155856	far	V3
3	4.0	ltm	480	diff_vonmises	-0.3689570676804595	-21.139682799613	0.8411769029092907	203.05597457621704	0.829292562361389	204.19499181104936	0.1084093409598523	-0.293242621214592	0.4016519621744443	91.59423275499874	far	V4
4	5.0	ltm	480	diff_vonmises	-0.0368008621995184	-2.108534086474933	1.1567714030900658	69.73156948559092	1.1279185566184684	69.8259105335619	0.3401680223664094	-0.1414693895470815	0.4816374119134909	87.09422053811139	far	V3ab
5	6.0	ltm	480	diff_vonmises	-0.2638754340662488	-15.118948689178689	0.700069725661128	128.48527184515248	0.686270214341685	128.58786997383095	0.3089116688735771	-0.1739760725357566	0.4828877414093337	110.9499388352	far	IPS0
6	7.0	ltm	480	diff_vonmises	0.1785404429176702	10.229613851578897	1.1946963760833147	124.50341725268432	1.1765194937921608	124.90240086746928	0.2693780860870589	-0.1821164891345894	0.4514945752216484	82.3237587841862	far	LO1
0	1.0	ltm	481	diff_vonmises	0.2631404971392379	15.076839905052646	0.92231206693428	42.41037131544729	0.8355562268150225	45.00928009519652	-0.1054706515727819	-0.545993941197028	0.4405232896242461	82.49277691108148	far	V1
1	2.0	ltm	481	diff_vonmises	-0.1524078836615326	-8.732328498326677	1.2507240172563736	187.3322366281544	1.232369027909027	188.6008424875147	0.1425565686743368	-0.3462832498888275	0.4888398185631644	74.75458030089686	far	V2
2	3.0	ltm	481	diff_vonmises	0.0984529570006796	5.640938916721913	1.0850513079368695	200.70392327041787	1.0711004332699867	201.61114803684495	0.2033744440663412	-0.2741263455611147	0.4775007896274559	82.75750683283763	far	V3
3	4.0	ltm	481	diff_vonmises	0.0634012179715051	3.63262220575623	1.0799737198425294	2.908241210869931	0.3886078006001296	4.391890792483965	0.0444812228163894	-0.3492055212251832	0.3936867440415726	97.71306330440684	far	V4
4	5.0	ltm	481	diff_vonmises	0.057626505639165	3.3017555612109937	1.0606855497114016	141.2435584171252	1.0377992866276935	142.16354774013325	0.2876949582177062	-0.3061368956682369	0.5938318538859431	85.12147861322978	far	V3ab
5	6.0	ltm	481	diff_vonmises	-0.0565845645590153	-3.242056734817113	1.2337501528441048	2.6109393303523167	0.3636132159029416	3.5722766231162804	0.2146471524157758	-0.3030613710217186	0.5177085234374944	99.08777608674164	far	IPS0
6	7.0	ltm	481	diff_vonmises	0.1870570019484482	10.717576740016504	1.1244817058336347	1.5713373767975274	3.840462454443246e-15	2.5805744139684323	0.1629955391791284	-0.3501785643023071	0.5131741034814357	123.31033920386976	far	LO1
0	1.0	ltm	482	diff_vonmises	0.2793383232781132	16.004906980096887	3.103588210608915	0.5871438355790508	0.1287680332494636	2.824175444742968	-0.1170923635855341	-0.4300534769913781	0.3129611134058439	69.93938419265262	far	V1
1	2.0	ltm	482	diff_vonmises	0.0413065872422948	2.366693115072425	1.3534870896966222	2.68228285553391	0.5660792766281163	3.9919065506821294	0.0575608591685024	-0.3093094835437648	0.3668703427122672	84.8777546964314	far	V2
2	3.0	ltm	482	diff_vonmises	-0.0303331815537663	-1.7379632822348947	0.8381146330947435	110.61797919483352	0.8228228692121868	111.27005597535674	0.1220704087867758	-0.1917278483771003	0.3137982571638762	94.15507674165868	far	V3
3	4.0	ltm	482	diff_vonmises	-0.21098738409139	-12.088686638942296	1.9061007220263249	0.5037748045620779	7.821074314831602e-33	1.915442158489192	-0.0524219614665814	-0.2992734890874773	0.2468515276208959	99.17391335611391	far	V4
4	5.0	ltm	482	diff_vonmises	-0.0129633921711611	-0.7427476595804667	2.189274797064014	0.5878332888371537	1.0973694532075858e-16	1.542558488486516	0.0746991899430068	-0.2414891274077066	0.3161883173507134	92.8882077591033	far	V3ab
5	6.0	ltm	482	diff_vonmises	-0.3747465862264384	-21.471397777710308	0.7172592468216097	1.532914225619796	5.243207174246867e-19	2.5390100124453774	0.0371410903499995	-0.2989749595987259	0.3361160499487255	139.6217896084899	far	IPS0
6	7.0	ltm	482	diff_vonmises	0.2422594566470036	13.880444413005849	0.6046977758342887	78.56472898177717	0.5795542764499105	80.0327107584412	-0.0105698289810192	-0.3310223616101	0.3204525326290808	104.55803396956036	far	LO1
0	1.0	ltm	483	diff_vonmises	0.2125406838604593	12.177684160028614	5.442476435349374	0.3630177480630657	3.204588692730929e-16	3.0583527233998944	-0.1574711472851915	-0.4867457832353992	0.3292746359502077	58.468411902931706	far	V1
1	2.0	ltm	483	diff_vonmises	0.0222209738997714	1.2731680211272594	1.12542660232959	87.19230913994939	1.093706470634706	88.38053103085012	0.0902028154221632	-0.3029049440548981	0.3931077594770613	78.33358966734335	far	V2
2	3.0	ltm	483	diff_vonmises	0.136570292281058	7.824901354572709	1.462319553761137	1.80735198229088	0.5512629820651684	2.554542425258448	0.116025699017803	-0.2048452935818132	0.3208709925996162	86.05372830906072	far	V3
3	4.0	ltm	483	diff_vonmises	-0.1423663597161278	-8.156991556375429	1.4075697242815537	0.8630079194921291	2.0488800022399878e-15	2.3679609727671043	-0.0171466558539894	-0.3553261838476581	0.3381795279936687	113.34224334595486	far	V4
4	5.0	ltm	483	diff_vonmises	0.0047020328953743	0.26940664003663	1.329346553074277	3.490371666924537	0.6398011770409124	4.227855005158232	0.2512212953092749	-0.2531378631163253	0.5043591584256003	89.03383385862367	far	V3ab
5	6.0	ltm	483	diff_vonmises	-0.1530677561306094	-8.770136405821653	0.4624513857736705	47.27358433895389	0.4261722882744565	47.850266309667866	0.1830925062332671	-0.2601605268196438	0.4432530330529109	129.0242591588535	far	IPS0
6	7.0	ltm	483	diff_vonmises	0.1998633832520772	11.451328339549688	1.5286848627586167	0.9903248643386406	9.426366372251975e-15	2.1553893289856205	0.0908552307773705	-0.322640961371153	0.4134961921485235	109.42800464305634	far	LO1
0	1.0	ltm	484	diff_vonmises	-0.2788612858837358	-15.977574750729143	0.5287234985662134	1.3341430260092062	2.172150630312999e-17	3.9564414499312672	-0.2933251550660333	-0.5128547214800445	0.2195295664140112	149.51324634548172	far	V1
1	2.0	ltm	484	diff_vonmises	0.1339599021398224	7.67533701659735	0.6955106298447281	33.421132000096705	0.6355099570005971	34.55526813285597	0.072669770862598	-0.2877403161690832	0.3604100870316813	102.0715029439956	far	V2
2	3.0	ltm	484	diff_vonmises	-0.0274501153664673	-1.5727757576457864	2.3211012602555736	0.8082810905596098	0.4512374755689589	1.3660329460926248	0.1312450974017321	-0.1622918137488173	0.2935369111505494	75.72124384881138	far	V3
3	4.0	ltm	484	diff_vonmises	-0.3924155069677612	-22.483752364739267	0.5198334265474156	135.69811354620012	0.5067776119862908	137.1310489002094	-0.0235968043579717	-0.3269156623289699	0.3033188579709982	112.21638687985948	far	V4
4	5.0	ltm	484	diff_vonmises	-0.024593408044013	-1.4090984847650354	2.1607175193993333	0.8026138405812947	4.3097850132397835e-14	1.7343783563374675	0.1577251841585396	-0.270273568284733	0.4279987524432727	93.48513662462209	far	V3ab
5	6.0	ltm	484	diff_vonmises	-0.3347696624666723	-19.18088876835945	0.55926769812483	160.2488002146011	0.5459085605453736	161.23891134214358	0.1502433546217645	-0.3151990297694027	0.4654423843911672	115.38410257401372	far	IPS0
6	7.0	ltm	484	diff_vonmises	0.2208389989883176	12.653142593924455	0.863500845694267	168.81444682694772	0.8496303529071239	169.98441469258373	0.0803676922172798	-0.2890753320907357	0.3694430243080155	89.50573773655859	far	LO1
0	1.0	ltm	485	diff_vonmises	0.0239353440614886	1.3713941959168154	0.4132343190144908	107.07606913776422	0.400485289906087	109.09266814126018	-0.2095838446329025	-0.3744058026798953	0.1648219580469927	112.31378896891113	far	V1
1	2.0	ltm	485	diff_vonmises	0.2587859132745835	14.827340628072184	0.4174468946466208	103.153167892215	0.4050420249870178	103.99541571930418	0.0423267317755389	-0.2413733099861605	0.2837000417616995	128.4079266402449	far	V2
2	3.0	ltm	485	diff_vonmises	0.116346353328568	6.666155007464805	1.8292064481837425	111.81131065356566	1.811097371431448	112.07417535133116	0.2018787533973949	-0.1376045774850567	0.3394833308824516	65.89169512092957	far	V3
3	4.0	ltm	485	diff_vonmises	-0.0411208070384218	-2.35604869347342	0.8524123084041777	120.86486507869648	0.8360262802085735	122.12079448491204	-0.0120391601540319	-0.2751962049940957	0.2631570448400637	86.44647666132741	far	V4
4	5.0	ltm	485	diff_vonmises	-0.1180123993173797	-6.76161241109842	1.5850603265901475	106.73044915008045	1.5584582200428287	107.32158177217904	0.2270819568859039	-0.2241226547833132	0.4512046116692172	69.3200479945688	far	V3ab
5	6.0	ltm	485	diff_vonmises	-0.1741164349048682	-9.97613686391328	0.9683830329591212	204.10274923853476	0.9541098102979936	205.0425622237587	0.2398294489573089	-0.295057758361068	0.534887207318377	88.34763828764608	far	IPS0
6	7.0	ltm	485	diff_vonmises	0.000999699817918	0.0572785803467018	1.403652676200618	120.67903117266783	1.3841577381784629	121.26461804840744	0.1787475982289166	-0.1998730875744758	0.3786206858033925	73.19151856792931	far	LO1
0	1.0	ltm	486	diff_vonmises	-0.2180400015730824	-12.492771855163454	0.0003533486815462	2122.8940599760303	3.09621093979047e-32	2125.429881610012	-0.2841968246998476	-0.5229591817446817	0.238762357044834	178.6257026566277	far	V1
1	2.0	ltm	486	diff_vonmises	0.1135566479899675	6.506316665477886	2.227446370259528	0.8647115212652571	0.0891324845512102	2.168051649617077	0.0994171876374211	-0.3129625055004921	0.4123796931379133	86.25298747933536	far	V2
2	3.0	ltm	486	diff_vonmises	-0.1460881277827077	-8.370233158917015	1.511895723897816	0.918185081021159	9.304443823560453e-19	1.8007396441195904	0.1130136901543171	-0.2671677181281789	0.3801814082824961	110.02487299112266	far	V3
3	4.0	ltm	486	diff_vonmises	-0.3545248108373188	-20.312775393652235	0.9182999604555232	1.5447123859444536	3.4040643609328094e-18	3.2595310039302023	-0.0148819897362112	-0.4384694435294116	0.4235874537932004	130.96800068750034	far	V4
4	5.0	ltm	486	diff_vonmises	-0.1420745873498564	-8.140274231209528	0.4942254374122962	35.47376392520402	0.4425853137746494	36.229513759879694	0.1621808117971586	-0.2859339227258162	0.4481147345229748	125.4979763288296	far	V3ab
5	6.0	ltm	486	diff_vonmises	-0.3265370022827515	-18.709192085655392	0.2735262003092952	24.23406632079402	0.2137512456716657	24.91836145820822	0.1214267675327152	-0.2865199666074738	0.407946734140189	149.54204932219608	far	IPS0
6	7.0	ltm	486	diff_vonmises	0.3117013596316275	17.85917237538171	1.2091514897105715	196.00482254682095	1.1965539796819609	197.06878682661977	0.0532028683822289	-0.2685603861588106	0.3217632545410396	74.27314325772642	far	LO1
0	1.0	ltm	487	diff_vonmises	-0.374127823363509	-21.435945277145024	0.1151985346356758	46.679042088135546	0.0981142556844954	47.42614846151345	0.0024553983794071	-0.227347727340911	0.2298031257203181	164.07834504138856	far	V1
1	2.0	ltm	487	diff_vonmises	0.0432612361936722	2.478686250416022	2.3641978833630883	0.7093621709017646	6.1437289033727586e-21	1.060635644091264	0.2356790107431934	-0.1652289134620609	0.4009079242052543	89.44759207933222	far	V2
2	3.0	ltm	487	diff_vonmises	-0.0183466147207037	-1.0511835918489096	1.6218714088998631	1.2833603191035643	0.3264441374693633	1.4493406322629492	0.2715342327421055	-0.1417745940569653	0.4133088267990708	94.82368067835732	far	V3
3	4.0	ltm	487	diff_vonmises	-0.3418594479241185	-19.587103552724344	4.397818137897649	0.7380737222158273	1.1817282941926544e-19	1.6405437814701231	0.3362736998799431	-0.2610101936632686	0.5972838935432117	65.21094770831634	far	V4
4	5.0	ltm	487	diff_vonmises	-0.1561790085710983	-8.948398039661445	0.9739361588085956	1.1431508190362285	7.019223962008754e-15	1.0583267570119328	0.2165459831428375	-0.1135479978203541	0.3300939809631917	129.4868708239009	far	V3ab
5	6.0	ltm	487	diff_vonmises	-0.487361736713909	-27.92377060987301	1.5341366193844037	0.8422120560280251	2.7114101976700965e-15	1.0206490881677692	0.2073762611722549	-0.1452442708195668	0.3526205319918217	108.61469591112603	far	IPS0
6	7.0	ltm	487	diff_vonmises	0.2418004011962862	13.854142473117264	1.77109226832764	141.9176346738425	1.7518399007847654	142.31626614417556	0.2611668386644084	-0.1919217285890511	0.4530885672534595	66.6569828595477	far	LO1
0	1.0	ltm	488	diff_vonmises	0.1677190649349605	9.609594564653838	4.822858888888567	0.5174866933074256	3.4385288778791464e-17	3.69704882118714	-0.1482811077990696	-0.5883751115426542	0.4400940037435846	62.20260661491065	far	V1
1	2.0	ltm	488	diff_vonmises	-0.1090843454077557	-6.250072602811686	2.43067515172131	1.294062250003567	0.2826144925699295	3.03788458551084	0.1213480321097031	-0.4090551350778061	0.5304031671875094	75.94509561770633	far	V2
2	3.0	ltm	488	diff_vonmises	-0.0743108078941855	-4.257695664544271	0.7932561649200834	165.4944606032784	0.7744816682147863	166.84244874686837	0.1906102253936836	-0.3752377026389801	0.5658479280326638	96.0057952280557	far	V3
3	4.0	ltm	488	diff_vonmises	-0.0468247064753971	-2.6828580579791503	0.6273599388188991	2.3219683656391137	5.0897811244083023e-14	4.318593282047042	-0.0586794530951895	-0.5080600181916908	0.4493805650965012	145.654025328939	far	V4
4	5.0	ltm	488	diff_vonmises	0.0303390866271139	1.7383016180154247	1.835528684510778	1.2776474218403489	2.1799154830804554e-19	2.400015010097832	0.2437141014046854	-0.3660501579486799	0.6097642593533654	101.00137517967708	far	V3ab
5	6.0	ltm	488	diff_vonmises	-0.1671257790583491	-9.575601787879284	0.7693479633714301	1.9736621109208752	1.067614781896162e-16	3.016113038785576	0.1076969194432832	-0.3538621624826653	0.4615590819259486	138.50456496579017	far	IPS0
6	7.0	ltm	488	diff_vonmises	0.3252820517895792	18.637288718898755	1.5702412040556828	1.4747640892380238	0.4216305762872558	2.2165463589157484	0.1421129108657267	-0.2124372434118995	0.3545501542776262	88.22471825839708	far	LO1
0	1.0	ltm	489	diff_vonmises	0.0495701570300262	2.8401607876212505	0.5753983397440282	118.35008881703752	0.558319149747762	120.46628899055342	-0.1640849001775564	-0.4091753035823888	0.2450904034048324	99.0890587136292	far	V1
1	2.0	ltm	489	diff_vonmises	-0.054183816992962	-3.104504031605956	1.9735441312762247	1.0335691072588145	0.3034773662090542	1.874740359612374	0.1339063759201318	-0.2255846791404505	0.3594910550605823	83.68405933225077	far	V2
2	3.0	ltm	489	diff_vonmises	0.0838649091604261	4.805105344140454	1.5048663297868727	133.85432457425858	1.4877326419203043	134.26404503844756	0.2249110288881226	-0.1740575733614502	0.3989686022495728	72.2530880448258	far	V3
3	4.0	ltm	489	diff_vonmises	-0.132492069627071	-7.591236408584611	0.809685479657944	130.72245624102032	0.791930201875458	131.93102899959226	0.078104947774733	-0.2979061144703987	0.3760110622451318	92.58089245868555	far	V4
4	5.0	ltm	489	diff_vonmises	-0.0136696028874281	-0.7832105530694755	1.224740700852663	97.59747168539631	1.1983190252963511	98.03279337824137	0.3105936197260348	-0.2042201914084049	0.5148138111344398	81.56256457965696	far	V3ab
5	6.0	ltm	489	diff_vonmises	-0.169798413390159	-9.72873245527376	0.882020600013841	166.44338225798228	0.8658266207757648	167.14602441502262	0.2917342330409269	-0.2684354583970769	0.5601696914380039	94.6168350638424	far	IPS0
6	7.0	ltm	489	diff_vonmises	0.1073727502298477	6.152005422882617	1.136045470923728	133.22659823679612	1.117758148484329	133.72851318276184	0.2719972486475583	-0.206611048725378	0.4786082973729364	83.84379662487541	far	LO1
0	1.0	ltm	490	diff_vonmises	-0.2968929515917081	-17.010713093386734	0.0002480080153491	1961.938476365159	3.215559847768469e-28	1964.0173742956797	-0.2534210320403076	-0.4083031286115783	0.1548820965712707	177.47943420249345	far	V1
1	2.0	ltm	490	diff_vonmises	0.2943302994729321	16.863883942620607	0.9472129513564372	141.87430770897964	0.9325046799339174	142.88134365244332	0.0653222247300036	-0.2477492998635515	0.3130715245935551	85.1060768662897	far	V2
2	3.0	ltm	490	diff_vonmises	0.2425647150267401	13.897934429825751	4.108536613275898	0.2660451705837922	6.530217315955155e-34	0.6568950245189952	0.1030077995236683	-0.1044920485623055	0.2074998480859739	67.52390974203942	far	V3
3	4.0	ltm	490	diff_vonmises	-0.5064080519998577	-29.01504409103337	1.7709705326822862	0.821738406158044	0.220255954109365	2.126197645247498	-0.0229458614944793	-0.2735650002158017	0.2506191387213224	86.08644215572325	far	V4
4	5.0	ltm	490	diff_vonmises	-0.0740689976687392	-4.24384095918309	2.113919832884833	0.61151461395108	0.12534809320536	1.1045766249821571	0.1276840181828308	-0.1514480638580816	0.2791320820409124	88.21767581624903	far	V3ab
5	6.0	ltm	490	diff_vonmises	-0.4129784210947537	-23.66192055870588	0.4875349620438932	91.81425652003196	0.4736480554288608	92.23586557269988	0.1355993450411254	-0.1857787624405098	0.3213781074816353	124.60779756986196	far	IPS0
6	7.0	ltm	490	diff_vonmises	0.2744070280481721	15.722364575888268	0.8651804298418878	138.27357077908047	0.8506659907107156	139.42718107693062	0.0214220186526503	-0.264185431121696	0.2856074497743464	87.29440792106104	far	LO1
0	1.0	ltm	491	diff_vonmises	-0.1272797491603235	-7.292592444370322	0.3205836716677703	91.41031583372369	0.3067503819058791	93.63444300077298	-0.2428337036434129	-0.4202013343767046	0.1773676307332916	127.7564599532014	far	V1
1	2.0	ltm	491	diff_vonmises	0.2161331159643671	12.383515357769834	0.6139696324030699	115.79217437959424	0.5998942202109764	116.73505629858155	0.0583019629004546	-0.244103094206121	0.3024050571065757	107.06602849594204	far	V2
2	3.0	ltm	491	diff_vonmises	0.1034095457774236	5.924930534411256	1.5094431627964262	80.96205772645719	1.4864513933565853	81.37246745079293	0.1489781233278364	-0.1504575732777144	0.2994356966055509	70.95865774482641	far	V3
3	4.0	ltm	491	diff_vonmises	-0.1863546695260882	-10.677336056400074	0.6510052434755687	97.87635866349618	0.6330132817580738	99.20500509591956	-0.0266481142130814	-0.2878492926138918	0.2612011784008103	99.12898053132528	far	V4
4	5.0	ltm	491	diff_vonmises	-0.0745539012329906	-4.27162388688555	1.1770525583086444	71.54608206743194	1.1425945726516258	72.31217880813858	0.1757107457569446	-0.234203914652685	0.4099146604096297	79.70893238874103	far	V3ab
5	6.0	ltm	491	diff_vonmises	-0.2658131994802387	-15.229974469086724	0.763520547440405	179.46944666692963	0.7500336605652517	180.40414719142015	0.1872226997876751	-0.2859716317640117	0.4731943315516869	99.07168499897944	far	IPS0
6	7.0	ltm	491	diff_vonmises	0.0069656010587911	0.3990995424405897	1.1315906407013838	175.3180816532386	1.116633696617484	176.46848434023252	0.071118735421038	-0.2891709686882109	0.360289704109249	77.36044563801417	far	LO1
0	1.0	ltm	492	diff_vonmises	-0.0188763081445589	-1.0815327894716502	2.361407235306693	0.4963557919292681	9.395691885306534e-38	2.920021489477131	-0.1818848575896576	-0.4622212620052059	0.2803364044155483	89.49685060979544	far	V1
1	2.0	ltm	492	diff_vonmises	0.0279595401371623	1.6019636469860294	3.310546962179362	0.8027774980052508	0.1930601762756165	1.865094147097241	0.1991368963000834	-0.2740725781581963	0.4732094744582797	69.677815669291	far	V2
2	3.0	ltm	492	diff_vonmises	-0.0763228321982112	-4.37297616544269	1.8448429394108652	0.7941187160398558	3.3575129155728853e-19	1.5262557444807927	0.1471744484119655	-0.2331661056878786	0.3803405540998442	100.7594877528462	far	V3
3	4.0	ltm	492	diff_vonmises	-0.3819219308929339	-21.882514743652205	1.7403073029212883	1.113405675939477	1.7425376947313634e-14	2.5196933692277588	0.1268535493504635	-0.3847690594140812	0.5116226087645448	103.16237808949283	far	V4
4	5.0	ltm	492	diff_vonmises	-0.0575504317500503	-3.297396848433576	1.32598068401957	1.4544137907261092	1.4593329569674377e-13	1.8562619854723827	0.2894881405929924	-0.2541873648529131	0.5436755054459055	116.1610195027376	far	V3ab
5	6.0	ltm	492	diff_vonmises	-0.248971696374262	-14.265027420457798	0.3262635125967084	55.07168444711858	0.2984711274132932	55.38231436151577	0.2096164621442575	-0.2366949520154522	0.4463114141597097	143.745745547712	far	IPS0
6	7.0	ltm	492	diff_vonmises	0.244858598351346	14.029364263021106	1.0784502946543253	150.81674539315244	1.0621415610074496	151.57067240324696	0.1956194759748584	-0.2368371253924692	0.4324566013673276	83.58241610900646	far	LO1
0	1.0	ltm	493	diff_vonmises	0.1209999609353899	6.932787082845676	2.6151752174352705	0.470513929152465	9.69444938190661e-14	2.689788479874365	-0.1433820929723776	-0.4265694532483626	0.2831873602759849	85.04250621321955	far	V1
1	2.0	ltm	493	diff_vonmises	-0.0681300234200249	-3.903562800094883	2.230808952824434	0.9408465889468348	0.1941814084102248	2.043725164975467	0.1270185342161863	-0.2755546397812117	0.402573173997398	82.31137901595392	far	V2
2	3.0	ltm	493	diff_vonmises	0.0348761129757286	1.998254079330696	1.1413254726710944	170.61764270596788	1.1268092954073865	171.2822164090502	0.2187981036710553	-0.2248927145613031	0.4436908182323584	81.90253903693633	far	V3
3	4.0	ltm	493	diff_vonmises	-0.1270077148313551	-7.27700602543776	2.0732342458139628	0.7551567366258024	3.741448843319514e-14	2.1872649231519743	0.0499974973633232	-0.3418155204052474	0.3918130177685706	95.34854645233244	far	V4
4	5.0	ltm	493	diff_vonmises	0.0151561293337567	0.8683822445786864	2.0796115999132083	1.0575716151454682	0.1591681034772989	1.715001206785553	0.2405576661729064	-0.2265180861082706	0.4670757522811771	88.12638114351228	far	V3ab
5	6.0	ltm	493	diff_vonmises	-0.231911130285649	-13.287528987476254	0.6283098997286871	105.54495727063932	0.6081170146858089	106.39219465433877	0.1777607525309577	-0.2830035839359759	0.4607643364669336	110.21385277933835	far	IPS0
6	7.0	ltm	493	diff_vonmises	0.1825104370357471	10.45707775923646	1.1217416040163182	117.93492995274067	1.1023354007504265	118.59950830322406	0.1879391025530949	-0.214290922223121	0.402230024776216	82.22523966771254	far	LO1
0	1.0	ltm	494	diff_vonmises	0.3922537553508248	22.474484679759392	0.7038528189015947	121.6942893208185	0.6828180971277654	124.09309804586428	-0.1870131718677541	-0.4638031918783678	0.2767900200106137	89.00500152752562	far	V1
1	2.0	ltm	494	diff_vonmises	0.0652082704856683	3.736158688176287	0.5746779346225444	124.63110828377636	0.5598653711703346	126.16966460037274	-0.0487159080822365	-0.3308830258816257	0.2821671177993892	104.90327388317624	far	V2
2	3.0	ltm	494	diff_vonmises	0.1943303670226275	11.13430986162483	1.17482419059501	201.31886180554983	1.1604768843856643	202.26928590268088	0.182655919165839	-0.2793828197437129	0.4620387389095519	78.83667406418246	far	V3
3	4.0	ltm	494	diff_vonmises	0.4983283628230915	28.552112001427144	0.7107096262864809	70.32083044429694	0.6774374440230811	72.27731439033676	-0.1025125303383731	-0.3961314997514407	0.2936189694130675	92.14271651066908	far	V4
4	5.0	ltm	494	diff_vonmises	0.0258322388304398	1.4800782603581646	1.1601929445062198	162.91298724307958	1.1422945428765714	164.13036972259016	0.0937999447087776	-0.3132746711207339	0.4070746158295115	76.86262915562702	far	V3ab
5	6.0	ltm	494	diff_vonmises	-0.1044268567075355	-5.983218157159198	1.1114812744690163	2.6920575878815804	0.3852030788844997	4.158007828065568	0.0387304433868637	-0.3418408634503898	0.3805713068372535	96.73040329074836	far	IPS0
6	7.0	ltm	494	diff_vonmises	-0.4692295223096986	-26.88487125128544	1.655427966665021	77.17572330245939	1.6232732162533492	78.33816114846162	-0.090179341546845	-0.2990661504223908	0.2088868088755457	36.86792000686802	far	LO1
0	1.0	ltm	495	diff_vonmises	0.2901193640451617	16.62261511480725	2.481462931815438	0.8973528010491253	0.2435640961582302	2.784959673857622	-0.0306552678752952	-0.3927248053791368	0.3620695375038415	74.18697522561877	far	V1
1	2.0	ltm	495	diff_vonmises	-0.0407425811657102	-2.334377947264394	1.055880988262798	174.31225010116555	1.0404438636800497	175.4296179552144	0.1163547096567683	-0.2921989430097724	0.4085536526665407	81.53280612987635	far	V2
2	3.0	ltm	495	diff_vonmises	0.1117321530901606	6.401780807975803	0.9669444968444286	162.35581840641484	0.9508216343165126	163.2771056891319	0.1905466690107857	-0.2730080554125891	0.4635547244233748	87.70505133402855	far	V3
3	4.0	ltm	495	diff_vonmises	-0.004609329454822	-0.2640951241466402	2.2693703335015307	0.7787004534250266	1.4919287554043918e-21	2.193861561196693	0.0842121198698474	-0.3445322611989029	0.4287443810687503	91.26991784819504	far	V4
4	5.0	ltm	495	diff_vonmises	-0.0110894279607065	-0.6353774193628547	0.9354905330597474	45.621820835067496	0.883208514616882	46.5543841323742	0.1560554216951999	-0.2637993447885467	0.4198547664837466	89.41439442010062	far	V3ab
5	6.0	ltm	495	diff_vonmises	-0.2202740413630708	-12.620772906394082	1.4295463394675485	1.041297818512218	1.3530428804531687e-14	2.091677427771704	0.1051997725628405	-0.3077869779540603	0.4129867505169009	112.52100033204984	far	IPS0
6	7.0	ltm	495	diff_vonmises	-0.1418547713530903	-8.127679702325368	0.9440129144441308	202.3183203431633	0.9283070971963236	204.37745476758028	-0.0716402821776256	-0.4408694643989221	0.3692291822212965	80.25798668370268	far	LO1
0	1.0	ltm	496	diff_vonmises	0.2084331020962055	11.942337060931973	2.4438212100138954	0.6057171976919792	1.8240002861693517e-23	3.888263326970655	-0.266593866295362	-0.6161807041279134	0.3495868378325513	87.95166340331488	far	V1
1	2.0	ltm	496	diff_vonmises	-0.1147487227680362	-6.574617519125212	2.401144992160814	0.8881304988126306	9.4346978235286e-18	2.911771054031885	0.0476743365260441	-0.4592256222579647	0.5068999587840088	88.75430025099502	far	V2
2	3.0	ltm	496	diff_vonmises	-0.1302289397311805	-7.461568617060207	1.257304247260581	2.6842705471650583	0.2245150193107844	4.334385917841884	0.1932567927836047	-0.4607133514518998	0.6539701442355046	103.2415807077144	far	V3
3	4.0	ltm	496	diff_vonmises	0.0029677367661135	0.1700387914041097	0.000212144613093	7195.078435072586	3.835835492667869e-30	7197.520039401486	-0.1456479362191203	-0.6315130917403167	0.4858651555211963	179.97615345275233	far	V4
4	5.0	ltm	496	diff_vonmises	-0.0318112072331418	-1.8226479156750648	1.360363126922841	1.5080589823534276	3.2250447552377213e-19	2.636156776233591	0.1962985440900927	-0.3790169483792646	0.5753154924693573	114.99388182456478	far	V3ab
5	6.0	ltm	496	diff_vonmises	-0.2277673655846189	-13.050108758811945	0.3023786252774131	4.356251887333183	5.196429279609083e-19	5.40003747108126	0.0575870395625134	-0.358554499586203	0.4161415391487164	161.80851350210577	far	IPS0
6	7.0	ltm	496	diff_vonmises	0.4315491104175581	24.725942679551228	1.486718790750052	88.10854978443273	1.4655800112822386	88.5954988414369	0.1194357822081642	-0.1602151826576641	0.2796509648658283	70.31196427266954	far	LO1
0	1.0	ltm	497	diff_vonmises	0.1099445105252801	6.299356433730211	2.724143921515098	0.5054133885225006	8.7302185187004595e-16	3.665351669259111	-0.2701965037728264	-0.5820109897282058	0.3118144859553793	83.3130749131787	far	V1
1	2.0	ltm	497	diff_vonmises	-0.0118952939171685	-0.6815501375213991	1.6639421273129196	1.7827205509845732	0.4163139646775461	3.157037589842754	0.0924741663523252	-0.3312511575613399	0.4237253239136651	83.96507887411025	far	V2
2	3.0	ltm	497	diff_vonmises	0.0355923113972944	2.0392892261803515	2.2378617036554203	1.1085852217325294	0.3340392359778292	2.125260700230289	0.1523737321349097	-0.2662575738373379	0.4186313059722477	78.53224614571351	far	V3
3	4.0	ltm	497	diff_vonmises	-0.1278532005837402	-7.325448790687871	0.975510909048646	1.4471756468903796	1.738784861458006e-19	3.222050137405106	-0.0250089868043166	-0.4434731486214434	0.4184641618171267	129.48608391480397	far	V4
4	5.0	ltm	497	diff_vonmises	0.0017754611685275	0.1017264316459917	1.5024355875654556	2.410492249134558	0.3633022444138329	3.458194706293986	0.2791241662223235	-0.3344643200876836	0.6135884863100072	92.57792054144772	far	V3ab
5	6.0	ltm	497	diff_vonmises	-0.1345066190061516	-7.706661585626634	1.2540112949975455	1.6968040205511283	0.0705057634254463	2.653398598604312	0.2075818936865265	-0.3393051445968241	0.5468870382833506	114.11364738247832	far	IPS0
6	7.0	ltm	497	diff_vonmises	0.1749895725057412	10.026163963377485	0.855100764272246	122.49092562253205	0.8364881583808423	123.56395129580022	0.1017914459932711	-0.2758473494206388	0.37763879541391	90.98288229666346	far	LO1
0	1.0	ltm	498	diff_vonmises	-0.4298680960549835	-24.629627651274827	0.1313074930750168	35.480764961352826	0.1166904731441764	36.08038786439838	-0.019562910401822	-0.1617630653459967	0.1422001549441747	160.85956108289815	far	V1
1	2.0	ltm	498	diff_vonmises	0.4494072743395197	25.749140102132426	0.1564156539007249	76.49278503233795	0.1430197771591312	76.78571005454282	0.1207874903106294	-0.1902471767133882	0.3110346670240176	158.27116747707777	far	V2
2	3.0	ltm	498	diff_vonmises	0.1916993795618703	10.983565384171602	1.8881223080759817	61.00952499335933	1.8693129385511464	60.86381993939125	0.2563607446298199	-0.0478380000533515	0.3041987446831715	71.62643441586346	far	V3
3	4.0	ltm	498	diff_vonmises	-0.2162815650961887	-12.392020866495592	12.047141525655553	0.2897435847079379	0.0384073334596851	1.152563435295353	0.2062152350571676	-0.1860435369648954	0.392258772022063	38.80755548973147	far	V4
4	5.0	ltm	498	diff_vonmises	-0.1958446291385876	-11.221070689945895	4.343284590322996	0.3473108229086907	0.759084647918646	0.4729368620747276	0.1393285538249543	-0.0689318524111453	0.2082604062360997	57.83820668060932	far	V3ab
5	6.0	ltm	498	diff_vonmises	-0.4836837116118136	-27.713035294579768	1.7725370539269802	1.0768341409398596	0.2806842427704178	1.681045354673196	0.1688967253215412	-0.1918454615041626	0.3607421868257038	89.54342632492735	far	IPS0
6	7.0	ltm	498	diff_vonmises	0.0377699548240668	2.164059003818813	1.9224356689982889	143.76501604498677	1.903163903855488	144.30567900821742	0.1704669189348209	-0.2121549185292686	0.3826218374640895	61.79636017279759	far	LO1
0	1.0	ltm	499	diff_vonmises	0.2743533230644689	15.719287506983251	6.294659697183731	0.3493137547282089	0.0195930206353919	3.1959426687098644	-0.1765978959066223	-0.5084748727479973	0.3318769768413749	53.35469671475752	far	V1
1	2.0	ltm	499	diff_vonmises	0.1377880880579741	7.89467591289886	1.0823903132075925	131.2138406426001	1.0599255119417548	132.660458321701	0.0430376499992064	-0.3459909889432317	0.3890286389424382	78.17063066001234	far	V2
2	3.0	ltm	499	diff_vonmises	-0.0206722329277186	-1.1844316998696491	0.568397032933047	59.07876833639624	0.5470298095988669	59.81564915340015	0.0495061226576734	-0.1983458895214953	0.2478520121791687	112.23039714764955	far	V3
3	4.0	ltm	499	diff_vonmises	-0.1041147446940761	-5.965335456052644	0.0004751623778486	1608.6999928209625	1.1560378679542547e-21	1610.3403160982523	-0.1393940926780601	-0.3827081196191386	0.2433140269410785	179.66265797534547	far	V4
4	5.0	ltm	499	diff_vonmises	-0.0389495132825931	-2.231642725181328	1.993238447218977	0.7065423899162867	3.3694707892006555e-14	1.577209241437872	0.112722881935205	-0.2442675264312102	0.3569904083664152	97.17554029915476	far	V3ab
5	6.0	ltm	499	diff_vonmises	-0.1300072104197289	-7.448864463319686	0.0002647286168856	3895.557047175969	3.857641508109073e-31	3896.2132113199273	0.0597050472698583	-0.2685468588329058	0.3282519061027642	179.50319151311112	far	IPS0
6	7.0	ltm	499	diff_vonmises	0.2302473851127356	13.192203410883057	0.9618124197881384	1.087673844739894	2.0538909621891518e-10	2.6138153372367188	-0.0522038044815875	-0.3628587436623833	0.3106549391807958	129.69636782122998	far	LO1
