	roi	task	n_boot	func	loc	loc_deg	kappa1	scale1	kappa2	scale2	maxr	minr	amp	fwhm
0	1.0	ltm	0	diff_vonmises	-0.7147916032300139	-40.954542096469496	0.554740569459899	17.54189862651768	0.5157831868533727	17.544576993575216	0.1277079708199702	-0.07493621127493255	0.20264418209490276	121.82529852686724
1	1.0	perception	0	diff_vonmises	-0.10419501485726305	-5.969934597624081	13.971017973145365	0.8726742584259641	6.008620117250492e-18	1.3605725176985108	1.0727135280692128	-0.21654184162575862	1.2892553696949713	36.25020281363632
2	1.0	wm	0	diff_vonmises	0.08395369684783195	4.810192503901534	4.406709544329475	0.3983932709538221	1.687494489517333e-31	0.42230372258058946	0.255616416815405	-0.06716371035724358	0.3227801271726486	65.14270387760087
3	2.0	ltm	0	diff_vonmises	0.3152113199949589	18.0602782904588	0.1487005777041817	64.05958896190019	0.1321038836694779	63.864034108678226	0.21555447974251685	-0.12941553549523732	0.34497001523775417	161.93622134969792
4	2.0	perception	0	diff_vonmises	-0.0040757489723500665	-0.23352321447044128	8.440054725600898	1.2704934468567008	0.4869620083069834	1.4488453392899792	1.0953238917539192	-0.2569213539427212	1.3522452456966403	45.10247241110429
5	2.0	wm	0	diff_vonmises	-0.12186502626603067	-6.982351675294479	4.005912645705996	77.45826922770145	3.968153015862635	77.47142998606742	0.29740964610255105	-0.12214210019470784	0.4195517462972589	45.85291468705992
6	3.0	ltm	0	diff_vonmises	0.07428753894664585	4.256362452056536	1.860531734032909	59.45718214304633	1.8445790486081814	59.137210145027794	0.3103686394525802	-0.026925052722714504	0.3372936921752947	76.37666537354664
7	3.0	perception	0	diff_vonmises	0.0393430704423746	2.2541918894339616	2.0069537761593597	273.95674482597576	1.9831593190752637	273.71583977165733	1.141150408182341	-0.31405912196321495	1.4552095301455559	67.35096146704288
8	3.0	wm	0	diff_vonmises	-0.14292059528518855	-8.188746915338637	2.017298637303108	25.730348712383467	1.9595329066198752	25.591367612950112	0.3031990115238816	-0.06390344174819607	0.3671024532720777	68.89945003218844
9	4.0	ltm	0	diff_vonmises	-0.3156921381044547	-18.087827138846368	5.111910712150223	0.6440902602121396	0.19786198317681553	1.1964623426005452	0.3353026162316727	-0.1869260713122884	0.522228687543961	57.8932285302422
10	4.0	perception	0	diff_vonmises	-0.04595979610660519	-2.63330234419027	2.1055679808061556	3.5935303228305653	0.5863507568873312	4.037947490987649	0.8503044126935948	-0.37276520547238856	1.2230696181659835	80.36531722389194
11	4.0	wm	0	diff_vonmises	-0.48579745589117285	-27.834143920756976	2.28071522237288	105.98493170667179	2.2509084550011966	106.4004841320132	0.23192118232331893	-0.21198511093266603	0.44390629325598496	57.73715582874978
12	5.0	ltm	0	diff_vonmises	-0.14544883551015297	-8.333604409824304	2.45667383210954	0.3520652860266753	6.469890517534274e-10	0.05614767202487444	0.19642579697016274	-0.007427085071075041	0.20385288204123778	87.74594768896218
13	5.0	perception	0	diff_vonmises	0.03318133017295951	1.9011501775406738	1.4991499066234388	169.75179173639103	1.4796234930685226	169.4724993896496	0.7011029828840236	-0.16984522664476387	0.8709482095287875	79.15069293235521
14	5.0	wm	0	diff_vonmises	0.05182274571931089	2.9692246124961676	1.1381645360479076	46.874141945583034	1.1171147279420468	46.47447105777818	0.32947472226851104	-0.041676431245874834	0.3711511535143859	96.42005965746182
15	6.0	ltm	0	diff_vonmises	-0.5417554685345618	-31.04030187516286	2.602468621232375	0.6458858133739167	5.1340972389675086e-14	0.846528506777979	0.25499178177122706	-0.13258986120558733	0.3875816429768144	85.0995145631183
16	6.0	perception	0	diff_vonmises	0.2400102658263093	13.751575271660494	1.6464750806952684	1.5468677553312697	1.0454157777052552e-14	1.442651392382717	0.4794348271542384	-0.20326763048482546	0.6827024576390639	105.92285465095645
17	6.0	wm	0	diff_vonmises	-0.1584877237620467	-9.080677676200526	7.380306096907584	0.34900241906731144	0.24755454838581367	0.19713282111108033	0.331808003555418	-0.03145757285041166	0.3632655764058297	49.439232109236826
18	7.0	ltm	0	diff_vonmises	0.16173314055951188	9.266626361456144	1.9716055425116885	154.51912517538497	1.9537526182599139	154.7435727744996	0.31980842215867256	-0.1689851420547832	0.48879356421345577	64.57019648295037
19	7.0	perception	0	diff_vonmises	0.07984017354868757	4.57450497993183	0.3147335766428273	6.4018078027491425	1.7501152549851598e-10	6.287559130715522	0.36111510894930454	-0.2750074555665083	0.6361225645158128	161.99742938962999
20	7.0	wm	0	diff_vonmises	-0.5035876543184329	-28.85344720733925	0.0001625063500837529	6583.424805409812	8.439928088451803e-32	6583.47436420218	0.1623904843731907	-0.17815170300036698	0.3405421873735577	172.87428910992065
0	1.0	ltm	1	diff_vonmises	0.14559426468379374	8.341936887691995	5.673554134705864	0.45746757437227487	1.1030649279226375e-16	3.587364049870703	-0.1468036845405989	-0.5709417137920124	0.42413802925141353	57.24257441698043
1	1.0	perception	1	diff_vonmises	-0.075241730859768	-4.31103362152395	8.236632835069253	1.1373713727930486	0.06444205148172753	4.251706267834765	0.5601169125807398	-0.6853738650539157	1.2454907776346555	46.59795224602124
2	1.0	wm	1	diff_vonmises	0.12717587131785238	7.2866406824118	1.2079367039801516	3.017275020079544	0.3450313681082985	6.757467723349044	-0.32604147063821465	-0.7052492317936656	0.37920776115545096	86.59287281224329
3	2.0	ltm	1	diff_vonmises	-0.0027593092995767	-0.1580967772369442	1.1880354311078838	128.49754068066278	1.1619320216481854	129.76874679299286	0.14884654644409068	-0.3441035104200303	0.49295005686412097	77.07742093981906
4	2.0	perception	1	diff_vonmises	-0.04994240110742644	-2.8614888022050238	9.56121270567773	1.0681682315556056	0.12377623803023906	2.275640212657751	0.8911759814462428	-0.37497323923824233	1.266149220684485	43.25996281268172
5	2.0	wm	1	diff_vonmises	-0.0009857832099375275	-0.05648121744427912	5.4680591257569535	0.5294694558568942	0.07026249410537766	2.1826561394336617	0.10926161857348748	-0.3460139714166286	0.4552755899901161	56.555650094135615
6	3.0	ltm	1	diff_vonmises	0.01223464359295125	0.7009934417228801	2.426308475183935	0.7028293545388796	0.04383826098325685	1.7253249265097195	0.12021126894053807	-0.2598550413812325	0.3800663103217706	85.49926295182445
7	3.0	perception	1	diff_vonmises	-0.003931817542980037	-0.22527655102825325	4.235899965767673	1.7592496507381794	0.11395753018285763	2.769249574565302	0.903053912975513	-0.42121098226451503	1.324264895240028	64.59229525905548
8	3.0	wm	1	diff_vonmises	0.1240027773876482	7.104835792212522	3.3780103852346697	0.5987816766529744	3.95732194305161e-09	2.02639159045915	0.09683780623410582	-0.3220221727380515	0.4188599789721573	74.66189087496753
9	4.0	ltm	1	diff_vonmises	-0.21349803586685573	-12.232536389503508	0.99358275646877	1.614361639342678	3.987632447881111e-14	3.18911094144305	0.042116697903697875	-0.4322095866939102	0.47432628459760806	128.5029636797629
10	4.0	perception	1	diff_vonmises	0.017443978630750822	0.9994663534584187	0.8930007046097691	390.6566780446228	0.8776737372920808	392.51039874887664	0.5507862562564156	-0.6189154620794142	1.1697017183358298	92.77245360632645
11	4.0	wm	1	diff_vonmises	-0.10402486728686179	-5.960185859945684	0.7086524349850689	132.54423881653375	0.6775861146354627	134.97786954954086	0.10246007577169536	-0.5881285994229994	0.6905886751946948	98.92500276035324
12	5.0	ltm	1	diff_vonmises	-0.021466111454167377	-1.229917588881225	1.7181081207939302	1.652605359202673	0.10806537171118748	2.662460539306697	0.30668025861286685	-0.35420909443873044	0.6608893530515974	98.16789699561781
13	5.0	perception	1	diff_vonmises	-0.012247349969852205	-0.7017214634922073	0.9599658874544885	217.3477060814744	0.9376502824449174	218.3389982533267	0.5941177183444353	-0.44129444126769	1.0354121596121253	91.93155238419044
14	5.0	wm	1	diff_vonmises	0.011185280251756285	0.640869351096662	1.8643404099532785	1.6677710314747638	3.152014967022946e-21	2.6277773249361314	0.4062675633908556	-0.3984143018658368	0.8046818652566925	100.2794411782501
15	6.0	ltm	1	diff_vonmises	-0.1161086642162405	-6.652536424492227	0.901252961294408	2.023181651296126	4.576418097980253e-20	2.7478362323259313	0.2160671328852774	-0.329592360500716	0.5456594933859934	132.69530667776615
16	6.0	perception	1	diff_vonmises	0.2351809891766837	13.47487810153587	0.00024893496484687457	8787.228419121226	9.569916785083176e-33	8787.980505955156	0.22845459185236905	-0.46780793980360613	0.6962625316559752	178.16928505676094
17	6.0	wm	1	diff_vonmises	-0.37853778380990755	-21.688617398543286	0.6816449699223089	135.69415412021144	0.6608887403499529	136.26585734467852	0.3775995814317099	-0.31290972803590833	0.6905093094676182	109.7590977897752
18	7.0	ltm	1	diff_vonmises	0.04688337958691546	2.6862197796400524	0.5020477917740575	160.13992470366935	0.48614892977755686	161.8576486734746	0.056026606530402034	-0.44724774112895105	0.5032743476593531	117.91701278380422
19	7.0	perception	1	diff_vonmises	-0.07899080297535042	-4.525839630837005	2.882084511561555	1.9533301132289884	0.11881622448168022	2.719671944996045	0.7644763502556626	-0.3898704537209547	1.1543468039766174	77.74913592968394
20	7.0	wm	1	diff_vonmises	0.5953293438091756	34.10985882055851	0.29499756976044367	148.07662086468918	0.28225933744294274	149.62367511129708	0.01626831353028635	-0.43382272256173593	0.4500910360920223	139.10560000649764
0	1.0	ltm	2	diff_vonmises	0.19837420261937636	11.366004574363306	0.7634646442625269	73.8837994431481	0.7281310515290356	75.99126932167862	-0.1127074197395288	-0.42682964450751193	0.3141222247679831	88.6109030780377
1	1.0	perception	2	diff_vonmises	-0.08162983354509709	-4.677044944489494	9.777017531258696	1.0010141245871649	0.037959649883953346	3.2642136675054707	0.6923022384641266	-0.5241352774406051	1.2164375159047318	43.09692416293967
2	1.0	wm	2	diff_vonmises	0.0933005682566538	5.3457287872785235	6.876428907072833	0.29056740872919246	0.03877736831327844	2.8755637039739144	-0.17758884879669506	-0.46042802921340825	0.2828391804167132	50.42167219533826
3	2.0	ltm	2	diff_vonmises	-0.0912840670189419	-5.230191776974725	1.0729498444653989	37.1122319940248	1.0045374516474512	38.13408076661473	0.12847648787225907	-0.27419301605890656	0.40266950393116563	82.47744784955191
4	2.0	perception	2	diff_vonmises	-0.048122394195765764	-2.757210087482228	10.011124575056796	1.0686806570408593	0.14929347029738102	2.256225245610825	0.9165749853296918	-0.37650994076692046	1.2930849260966122	42.198788258282804
5	2.0	wm	2	diff_vonmises	-0.10787103243423111	-6.180554890200258	4.127430988311551	0.7299657480611508	0.31359445411916537	2.378052896152344	0.06551657330716643	-0.37403479488013375	0.4395513681873002	59.63545255583918
6	3.0	ltm	2	diff_vonmises	0.06088971890311338	3.488723908886345	1.1999244690685114	159.82708977401012	1.1854657545689167	160.41886925187995	0.2045172828957078	-0.20410298943660266	0.40862027233231046	79.93182583888381
7	3.0	perception	2	diff_vonmises	0.004972248199884083	0.2848888365448789	2.349313555603678	4.008048093096312	0.7401900247504628	4.765962865014361	0.8842880940101652	-0.44726872983783517	1.3315568238480004	74.03436280541433
8	3.0	wm	2	diff_vonmises	0.006310059569355986	0.36153978180023577	2.7108001871515555	1.0503041191559404	0.5001636744437922	2.1218501665183225	0.1253235588600955	-0.27749810930715274	0.40282166816724824	68.86789116015109
9	4.0	ltm	2	diff_vonmises	-0.0903840434548379	-5.178624225289243	2.5385927412675273	0.614601897423628	0.0020828217555786577	1.889004182862061	0.06421803347950733	-0.29773872272887114	0.36195675620837847	86.16154691937189
10	4.0	perception	2	diff_vonmises	-0.014296537681193449	-0.8191312707821331	0.9608200908964867	426.2573248142809	0.9476411374747702	427.8305535848476	0.5445265209425827	-0.5476415919865687	1.0921681129291514	89.79459216506044
11	4.0	wm	2	diff_vonmises	-0.21013028857686233	-12.039578683320265	0.9456040100017243	206.29707339253784	0.9296804917889622	207.9631341284638	0.077254494421922	-0.39938837565073726	0.47664287007265926	84.51964463606306
12	5.0	ltm	2	diff_vonmises	0.022518566955347458	1.2902188472241694	1.4431523980264127	2.754081988664944	0.6406676842818034	3.486496936584476	0.21263019416714257	-0.23587760026915663	0.4485077944362992	86.10117481271817
13	5.0	perception	2	diff_vonmises	-0.0013550701245551825	-0.07763979908127873	1.018219446282354	215.66990819369676	0.9962780499170215	216.6627877264682	0.5560361364734661	-0.4212376634298458	0.9772737999033119	88.95089023965576
14	5.0	wm	2	diff_vonmises	0.042305640288364865	2.423934638121926	1.7719262904445718	1.5789982626033803	0.16549256022993922	2.5546658511958786	0.2803400933031488	-0.3226243587504004	0.6029644520535492	93.98065442800052
15	6.0	ltm	2	diff_vonmises	-0.19549502814105815	-11.201040028273892	0.724651707959676	98.13497034926358	0.7007854378953954	99.0727165710897	0.17965210991693326	-0.28839009064152954	0.4680422005584628	102.03259544182353
16	6.0	perception	2	diff_vonmises	0.2526425954416126	14.475354444035492	0.0003321473691057946	6039.183311317519	4.2943620119040865e-31	6040.008377101488	0.1879509348038937	-0.4505245190819096	0.6384754538858033	177.90619361525995
17	6.0	wm	2	diff_vonmises	-0.3437019521041824	-19.692671265977218	0.7487152779521113	85.12074011204065	0.7209096234410939	85.85726924984247	0.2391370032993514	-0.2688462010789374	0.5079832043782888	102.45311959260412
18	7.0	ltm	2	diff_vonmises	0.10539409399523621	6.038636771532127	0.8530282882935329	141.7429651242863	0.8356566142113971	142.74639119280468	0.1584021932362205	-0.2825240288449855	0.440926222081206	92.7307755576804
19	7.0	perception	2	diff_vonmises	-0.11982474199375674	-6.865451997486263	2.9225867473829834	1.454836617508835	2.6898370699619754e-15	1.8234341359489836	0.6485146625675017	-0.2874920045005209	0.9360066670680226	80.39432415537621
20	7.0	wm	2	diff_vonmises	0.3491574234097885	20.00524674704317	0.6477418551435354	124.3043697884481	0.6323341195908964	125.40902792135996	0.06363422638580829	-0.27950288025361303	0.3431371066394213	103.90577659336697
0	1.0	ltm	3	diff_vonmises	-0.5469818141089466	-31.339749418851987	0.00030711375793387373	2293.4698573842684	4.3382590765072074e-32	2294.1218480047737	0.008340866989897222	-0.21585871440976234	0.22419958139965956	171.61862345636487
1	1.0	perception	3	diff_vonmises	-0.11295310853296714	-6.471736401822143	10.376849678010371	1.0423800731954407	1.7374306026561793e-18	1.7974434649316693	1.0361440692802364	-0.28607201108861396	1.3222160803688503	42.1362583288807
2	1.0	wm	3	diff_vonmises	0.27904831431882715	15.988290690708814	0.7780803565222737	61.47435355432829	0.7465247215499182	62.28303276774445	0.1330958273230074	-0.23442955424750345	0.36752538157051085	97.96451453708121
3	2.0	ltm	3	diff_vonmises	0.11105037888983436	6.3627180237162015	0.9215642354652533	51.644348314502544	0.8915372701136668	51.98940193555891	0.18443526880129824	-0.14679872562545881	0.33123399442675705	93.71994940170345
4	2.0	perception	3	diff_vonmises	-0.00899325792505439	-0.5152757231781966	5.976082677980699	1.7707577530589897	0.654509530591178	1.9114721861854873	1.1597750954042605	-0.310083974199986	1.4698590696042464	52.167124291318544
5	2.0	wm	3	diff_vonmises	-0.02466762722503089	-1.4133509305962766	10.160931550825751	0.33703751704362134	0.41021302742840127	0.8089723008572478	0.23683109900632315	-0.15075257023392025	0.3875836692402434	40.68883475844379
6	3.0	ltm	3	diff_vonmises	0.05566307884295007	3.1892594924049846	1.1624002910064992	83.35323378815194	1.1453556081080534	83.50524887194716	0.20806906122243518	-0.10653212035915072	0.3146011815815859	85.24578391784149
7	3.0	perception	3	diff_vonmises	0.05434638132581661	3.113818281777883	2.2879602872712375	4.784954341388961	1.108280419821007	4.729212660249337	0.9636568396259952	-0.2937627934011679	1.2574196330271632	72.6500851058851
8	3.0	wm	3	diff_vonmises	0.02358046937513265	1.3510613741325905	1.6031755939857617	38.01118510874153	1.5583212932785016	38.26435290559232	0.18091328668586115	-0.122476810223481	0.30339009690934216	70.89435658609383
9	4.0	ltm	3	diff_vonmises	-0.27317208438289786	-15.651607515931635	7.083230876442417	0.45614841134747464	9.243022549558178e-24	1.2197206390234914	0.2809524521631679	-0.1941242343413616	0.4750766865045295	51.12472538380871
10	4.0	perception	3	diff_vonmises	-0.024271988363088245	-1.390682493595604	1.1766763050547766	135.820462572563	1.1369713080355999	136.67617213163498	0.6878110516717655	-0.429527970055398	1.1173390217271635	83.87552977040016
11	4.0	wm	3	diff_vonmises	-0.36178262664576993	-20.728617607959816	1.575072832020218	99.02947175963196	1.545514165233299	99.81147326443549	0.16061675653387653	-0.2536183704191366	0.4142351269530131	67.74012459465435
12	5.0	ltm	3	diff_vonmises	-0.1635213724530742	-9.369084501747952	1.9201862213764809	0.5004428766582908	1.984557282507649e-19	0.6969736553665635	0.14094655362157194	-0.10551472164017922	0.24646127526175116	98.86431792363936
13	5.0	perception	3	diff_vonmises	0.026177279982861224	1.4998476621502401	1.3832135411537114	34.73437281250978	1.2738894800896385	34.81605103362165	0.6545702570795982	-0.24006500001421704	0.8946352570938152	81.28424806845558
14	5.0	wm	3	diff_vonmises	0.03800182308307035	2.177344076462761	0.6865648171072285	85.25809094339772	0.6674076155301918	85.42071292448499	0.26568627676077483	-0.1679431503854758	0.43362942714625063	111.4257716151073
15	6.0	ltm	3	diff_vonmises	-0.5167547319985059	-29.60786518692834	2.4920114140525595	0.6683123077081898	1.1101013320323772e-18	1.1586708732081665	0.20870620447944568	-0.181716438739744	0.3904226432191897	86.96101434565023
16	6.0	perception	3	diff_vonmises	0.2430975791375809	13.928465294430916	1.1242896013275763	2.0758035791256733	4.705725364415096e-19	2.492707835372204	0.36109947586096	-0.3167387685972635	0.6778382444582235	123.15202419937782
17	6.0	wm	3	diff_vonmises	-0.2613800614991879	-14.975974372773369	5.049105243734558	0.44974239578639125	5.911684843334259e-16	0.7014332848530286	0.28038754566996527	-0.11162044149829967	0.3920079871682649	60.754866337353235
18	7.0	ltm	3	diff_vonmises	0.07402174176010975	4.241133395061567	1.1896999736099643	214.33319660528255	1.1735721921562627	215.68675633018438	0.1336692154845025	-0.35932165564305407	0.4929908711275566	76.39784800921723
19	7.0	perception	3	diff_vonmises	-0.15501921198941732	-8.881946590437423	2.7408773596526816	1.3908634713505645	1.3719003679597863e-29	1.5438445696881817	0.6191796075503225	-0.2421107627475749	0.8612903702978975	83.0519940978364
20	7.0	wm	3	diff_vonmises	0.0538154220878331	3.0833965583479457	0.057355901150560565	14.844356096084594	2.3838429086825588e-08	15.568883451413617	0.022098977559484645	-0.248839033304475	0.27093801086395963	176.5780866029083
0	1.0	ltm	4	diff_vonmises	-0.4025920340016982	-23.066824413884643	0.0002525045472292287	2041.1778510317063	1.025362951369868e-26	2042.6270408950943	-0.1486110860000167	-0.31267001808839723	0.16405893208838052	175.4044403939424
1	1.0	perception	4	diff_vonmises	-0.030000512552195182	-1.7189027524700338	10.715443928237681	0.7977382782287165	0.02082559810019661	2.679890690984392	0.593493166065021	-0.42862973989197173	1.0221229059569927	41.28330664375639
2	1.0	wm	4	diff_vonmises	0.14915044629203153	8.545691085026066	3.5856654160567745	0.45963044914891454	1.738017689549828e-16	2.0788943458602236	0.0018621120899101617	-0.3306106185678409	0.33247273065775107	72.41762486501784
3	2.0	ltm	4	diff_vonmises	0.31797908517854584	18.218859554161586	0.7273356387631482	62.93798339694882	0.7010763819899349	63.71415447884363	0.09415783754291596	-0.2137413092267515	0.30789914676966745	100.24836187177854
4	2.0	perception	4	diff_vonmises	-0.007436046309950146	-0.426054069823973	7.7135946489432845	1.4648096191730389	0.3922582614557062	2.4372359463501163	1.0418669666282945	-0.422560153311557	1.4644271199398515	46.84049875481114
5	2.0	wm	4	diff_vonmises	-0.0022170419473159474	-0.1270271465846692	8.076656562893922	0.41047336738496587	0.05416535519278934	1.6110562785004645	0.18723591979461912	-0.2588190675013686	0.44605498729598775	47.12233955632507
6	3.0	ltm	4	diff_vonmises	0.0960176950773259	5.501408686504835	1.3829885520786613	1.5734310264907587	0.6827349142642668	1.8125367016454856	0.1391139688693369	-0.10251072410534369	0.2416246929746806	88.50124971086606
7	3.0	perception	4	diff_vonmises	0.052698821842256646	3.0194200768731436	3.2247210906625567	3.197224664502641	0.8350505789492918	3.3494580839442714	1.1420762273489744	-0.37076739660988534	1.5128436239588599	66.15748566995174
8	3.0	wm	4	diff_vonmises	-0.11099199091893104	-6.359372639409108	2.9155592505734447	0.5221218663402688	2.594955833176551e-18	1.1525997834043118	0.15297282692873604	-0.1824545320862708	0.33542735901500687	80.49663470917997
9	4.0	ltm	4	diff_vonmises	-0.4684956995240172	-26.842826302755356	2.5101486522413006	0.7180022513402312	0.2077475656910332	1.8899329682062336	0.0578841095208209	-0.26479028868345966	0.32267439820428057	76.70639302055679
10	4.0	perception	4	diff_vonmises	0.01143552055705617	0.6552070644544107	3.0587462760321875	2.3337479471809215	0.23622155632826478	3.6398157215490192	0.8218649566288588	-0.5056791846880719	1.3275441413169307	72.94981827898073
11	4.0	wm	4	diff_vonmises	-0.4404500823697893	-25.235930805978395	2.7334121744232593	0.9523570449701413	0.22958672575663414	2.5671344042013424	0.08395783837346704	-0.3651157041726937	0.4490735425461607	73.3494890810569
12	5.0	ltm	4	diff_vonmises	-0.10114900232378322	-5.795410935111735	2.0174166486427048	0.4771968182585498	1.5087529542865296e-14	0.7405660451842874	0.1296040544581536	-0.11348725046042794	0.24309130491858155	96.60759760060041
13	5.0	perception	4	diff_vonmises	-0.01655802135789498	-0.9487047408948588	2.0238449715429194	3.0186901349481325	0.528599753323339	3.324085505204359	0.7305015710816033	-0.30859972083177845	1.0391012919133817	82.87564892302123
14	5.0	wm	4	diff_vonmises	0.061898674224176706	3.5465327905005406	2.317909239153059	0.9044649627351689	1.9609363358070123e-11	1.3992538206319751	0.2870250747137645	-0.21775406380996773	0.5047791385237322	90.32346921495687
15	6.0	ltm	4	diff_vonmises	-0.5364151073849299	-30.734321720213323	0.6596146267778856	72.75912577002488	0.641319405108386	73.11732481080416	0.15507445732755087	-0.1577564085116201	0.31283086583917097	110.02576809295661
16	6.0	perception	4	diff_vonmises	0.18927975532471555	10.844931127375073	1.1792816172149674	2.536685706549624	0.06713452400620706	2.8227348283854066	0.4721174514911746	-0.3295887788917023	0.8017062303828769	118.16261820657067
17	6.0	wm	4	diff_vonmises	-0.14089169769342588	-8.072499646266378	2.888438107081845	0.6020380812287013	2.18513477061986e-16	0.9586163782140451	0.23328671804355985	-0.15137300378712415	0.384659721830684	80.87542519530379
18	7.0	ltm	4	diff_vonmises	0.26686804310442164	15.290412556798692	1.373134433352684	129.7075709330698	1.3567853601704518	130.37480447538124	0.10893482751107086	-0.19763363518059407	0.30656846269166493	72.08643511628878
19	7.0	perception	4	diff_vonmises	-0.008383984477158787	-0.4803669260443946	1.4406942063079087	1.8997398127191012	8.804740987650776e-15	2.4911674760321554	0.406525807771582	-0.3514629693278873	0.7579887770994693	112.34529306497664
20	7.0	wm	4	diff_vonmises	-0.11307769399579064	-6.478874623030613	0.00033053254460964604	2178.4181024968975	3.863959972222062e-24	2179.287106027014	-0.02370312335114022	-0.25289035493835854	0.22918723158721832	179.6172628810256
0	1.0	ltm	5	diff_vonmises	0.03845995146601334	2.2035928992805474	3.772151193551994	0.4076583638419296	7.765292003496425e-27	4.1103996737958886	-0.3506800048458089	-0.6540298262215534	0.30334982137574446	70.55386448442565
1	1.0	perception	5	diff_vonmises	-0.002890706720198678	-0.1656252948774888	9.008723869738946	0.8495360477877751	0.042643839819051385	4.9388125803715015	0.18239503684163805	-0.7947520145420169	0.977147051383655	44.59375961308007
2	1.0	wm	5	diff_vonmises	0.06348055252089892	3.6371677406060665	1.549713230518414	2.1212169016987117	0.27618354439578124	6.205168415530219	-0.3401101198064612	-0.7722368339064211	0.43212671409995984	82.89395198852398
3	2.0	ltm	5	diff_vonmises	0.06510480014125411	3.7302302741365865	2.9363333853415545	0.8214581594672977	0.14234419000475312	2.4059014641680094	0.09219480398526075	-0.3547772000267969	0.44697200401205767	73.68797127865992
4	2.0	perception	5	diff_vonmises	-0.05839163128245829	-3.3455940313689307	11.361320693351239	1.051268014473877	0.15279140730293458	2.6481852592754063	0.9089365719491893	-0.44769002725211327	1.3566265992013027	39.58029675003738
5	2.0	wm	5	diff_vonmises	0.004945955323078776	0.2833823656726774	4.973132328567351	0.6192836310237321	7.0537826735459435e-22	2.4577405400088304	0.14426876206521033	-0.3911359022023224	0.5354046642675327	61.229989195971086
6	3.0	ltm	5	diff_vonmises	-0.18739635875037772	-10.737020452516116	1.2815211160458235	1.156106924242475	0.20227351384869463	2.037670466416861	0.06263833263172897	-0.2277475880207627	0.2903859206524917	102.66354848000857
7	3.0	perception	5	diff_vonmises	0.043062798985086415	2.4673166358656964	4.407861234462327	1.910514129666183	0.1285848298209948	2.635783878248053	1.073073915967547	-0.4002909192411429	1.4733648352086899	63.38631454336266
8	3.0	wm	5	diff_vonmises	-0.006478243100141759	-0.37117598829786913	2.7712873026414226	0.7105981784015923	2.323654722292147e-15	1.813554814509434	0.15604482221433935	-0.28689444832725475	0.4429392705415941	82.60026957110566
9	4.0	ltm	5	diff_vonmises	-0.4335668740993518	-24.841552022572785	0.28806157676638067	110.50435859806096	0.2733695449187972	112.28995610157249	-0.07779174185423443	-0.4301874379526769	0.35239569609844246	140.4776861238927
10	4.0	perception	5	diff_vonmises	0.005762766080418614	0.3301821747291346	3.0427053004686435	2.2847103205776897	2.9975871010480826e-18	4.064569293128179	0.8615074235014489	-0.6434630777015666	1.5049705012030157	78.76701552229585
11	4.0	wm	5	diff_vonmises	-0.1953251009848381	-11.191303919397823	1.3117546495585546	2.070476600185134	0.0409870337328639	4.4994229462633815	0.08160283034099525	-0.6270355798230316	0.7086384101640268	112.93148268077293
12	5.0	ltm	5	diff_vonmises	-0.030877832549220944	-1.76916948558204	1.3324282955723148	1.4763274698685167	4.4185131108804e-16	2.7688564587873423	0.15478281605163846	-0.3992267202785441	0.5540095363301826	115.9481646766748
13	5.0	perception	5	diff_vonmises	-0.007700915825774158	-0.44122997520236246	2.756489231928821	1.6901043892194256	4.2229059170943545e-18	3.080796432865218	0.5640238974155886	-0.4860699681045431	1.0500938655201317	82.82515522339406
14	5.0	wm	5	diff_vonmises	-0.022784926025531702	-1.3054800977807555	1.7180034714328856	1.6237801042099256	6.268802767271192e-15	2.8483564746872343	0.31047999612963634	-0.4287394933885182	0.7392194895181545	104.1016381018321
15	6.0	ltm	5	diff_vonmises	-0.2204610851991252	-12.631489728783933	0.1830061644288237	63.638324430475734	0.15731667633457935	64.61829205037805	0.09885003153832095	-0.3688085168818951	0.46765854842021604	158.7762112026854
16	6.0	perception	5	diff_vonmises	0.33417847663390504	19.147016315233955	0.002902039981321357	976.7940155149265	4.623905536914748e-23	977.7053465471301	0.30643843992731945	-0.5958694904510651	0.9023079303783845	176.33743641672532
17	6.0	wm	5	diff_vonmises	-0.3835451190127047	-21.97551657227085	1.1871633095389817	1.897695706089889	0.029159486754276587	2.825162547876591	0.2521381229210203	-0.37007530070045846	0.6222134236214787	118.61323396171635
18	7.0	ltm	5	diff_vonmises	0.3051240584009466	17.48232077427749	0.552972369822669	145.62680836064808	0.5388008399418536	147.02840161893434	0.03219739568240243	-0.3451821032270246	0.377379498909427	111.30314088269446
19	7.0	perception	5	diff_vonmises	-0.04880100028921779	-2.7960913525888893	3.0740731006263857	1.4559922779095336	4.3547914116004115e-17	2.5505676509589597	0.5609833810264742	-0.4038686374178933	0.9648520184443674	78.35365626117263
20	7.0	wm	5	diff_vonmises	0.5178728184186628	29.671926819934225	0.35765933013308293	71.4611511107094	0.33612208600326915	72.9104001930097	-0.03502978588051775	-0.3570288514126929	0.32199906553217517	131.9263778642893
0	1.0	ltm	6	diff_vonmises	0.14789634271616414	8.4738362430566	4.366376764535925	0.5333418923409754	0.028908834926935512	2.8652443969701538	-0.039308500392153445	-0.4511173512246539	0.41180885083250046	63.884129605084695
1	1.0	perception	6	diff_vonmises	-0.10460913613341237	-5.993661998954008	10.472988534499548	1.0143336272876935	1.3539601631817052e-17	3.4135651966415295	0.7499149428791819	-0.5432857735769491	1.293200716456131	41.92535507247095
2	1.0	wm	6	diff_vonmises	0.11716417870220654	6.713012949753002	2.2951561207400193	1.008271445296446	0.2113251685081093	3.744722505402429	-0.16315643687108483	-0.5325456450326437	0.36938920816155885	75.70251962811002
3	2.0	ltm	6	diff_vonmises	-0.11479183123666016	-6.5770874524386365	1.1830166550495342	47.44110790053578	1.1156633990673193	48.56810468066511	0.184803392096061	-0.3203004402942149	0.5051038323902759	78.99589808523496
4	2.0	perception	6	diff_vonmises	-0.056584701933810586	-3.2420646058130944	10.557008439751046	1.0089076753875934	0.08872400497154682	2.11155031714973	0.9249259236891045	-0.3453066195378719	1.2702325432269763	41.36051335383479
5	2.0	wm	6	diff_vonmises	-0.08533801798248017	-4.889508262407638	5.514503950879512	0.5420732247368579	0.17018452079874838	1.9479585725693316	0.1302388349990904	-0.31349621949378287	0.44373505449287326	54.86510903259588
6	3.0	ltm	6	diff_vonmises	-0.02929918339441168	-1.6787195516795745	1.0210560982642745	140.80463534219504	1.0029936817709224	141.6116427651443	0.2043703499575571	-0.25193822457682913	0.4563085745343862	85.98219128134036
7	3.0	perception	6	diff_vonmises	0.012920497919669052	0.7402900000045969	2.9162791203449996	2.550904117638065	0.3912353798034441	3.284679259910798	0.8995610393768025	-0.41755417805293776	1.3171152174297402	72.80136264524734
8	3.0	wm	6	diff_vonmises	0.007437583786768808	0.4261421607567815	2.7616945429469584	1.0813225378100568	0.4407622264683196	2.060024048431325	0.1897221337204968	-0.27051665371067773	0.4602387874311745	70.39974449501341
9	4.0	ltm	6	diff_vonmises	-0.14278543284182202	-8.181002677785058	1.9934478908540885	0.8670953671088494	7.777313604882125e-18	2.1906735937932527	0.09777438595646315	-0.3403718449069892	0.43814623086345234	97.14395482057456
10	4.0	perception	6	diff_vonmises	-0.02782730724437873	-1.5943872603167222	0.924405165849247	413.3076017071704	0.9103810757165244	414.79662965693313	0.6194083140473765	-0.5623074130959154	1.1817157271432919	92.30049092547833
11	4.0	wm	6	diff_vonmises	-0.16845963934104244	-9.652026352537737	0.9314995881222399	186.65814312117936	0.9147502792873774	188.12107283408997	0.11847131227204954	-0.36781385586780146	0.486285168139851	86.46452097343743
12	5.0	ltm	6	diff_vonmises	0.01511321719167226	0.865923559947379	2.089139145201673	1.0158878929586364	2.2312504664412402e-12	1.915854043675207	0.23312912312484385	-0.2966720503302121	0.529801173455056	95.01668046393445
13	5.0	perception	6	diff_vonmises	0.01584360673053804	0.9077717979248946	1.6103175113279193	3.933875719785156	0.5387103260795322	4.9122898630932506	0.5313067744827698	-0.40059775437320033	0.9319045288559701	87.22843714877288
14	5.0	wm	6	diff_vonmises	-0.00897475053433896	-0.5142153278004028	0.7396093282080707	74.00369041128165	0.7005236070664189	74.86452944107938	0.30664693780320107	-0.3294444261826861	0.6360913639858872	103.87618534418188
15	6.0	ltm	6	diff_vonmises	-0.19954545901331228	-11.433112622463545	1.5907522384828354	1.1809528387595911	3.996419824918112e-16	2.207402796728808	0.1787592533434082	-0.3293065507188663	0.5080658040622745	107.60056086053838
16	6.0	perception	6	diff_vonmises	0.30217980533902056	17.313627500010657	0.00020552352796044947	10086.293310989591	1.3603267847011905e-29	10087.105973116866	0.20059632779179992	-0.45924081553903306	0.659837143330833	177.08730554154317
17	6.0	wm	6	diff_vonmises	-0.37519093490750405	-21.496857081767573	0.7544484328315387	154.3699823112513	0.7390800007593638	155.08068518596752	0.24530247203612987	-0.264408049730136	0.5097105217662659	101.84209342536165
18	7.0	ltm	6	diff_vonmises	0.0775553375228541	4.443593518772128	0.6957015204571714	189.80526355121475	0.6814141936820682	191.12383515152035	0.1460344317703317	-0.36017709852771773	0.5062115302980494	101.8771691786531
19	7.0	perception	6	diff_vonmises	-0.11365715922271248	-6.512075534907825	3.339310340787651	1.4288118553975027	1.0014181643253361e-15	1.7926765281829533	0.7087872763754671	-0.2840629353255264	0.9928502117009935	75.10922364266563
20	7.0	wm	6	diff_vonmises	0.3680185489736631	21.08590963871949	0.5881911791883112	99.6338641970911	0.5696102515409005	100.70155813730666	0.07223078576356556	-0.2839093496442171	0.35614013540778267	110.04015764498902
0	1.0	ltm	7	diff_vonmises	0.14856376843102825	8.512076919656815	4.2161036050593	0.4311033784643167	4.0409943000306425e-24	2.5846341035637277	-0.07032535533995404	-0.4112830145413818	0.34095765920142773	66.64236709375135
1	1.0	perception	7	diff_vonmises	-0.08159874713195563	-4.675263824216288	10.629328785767646	0.9053653328636754	0.020199454971348108	3.220817012768378	0.6398712591841301	-0.5150460938485686	1.1549173530326988	41.44764816889449
2	1.0	wm	7	diff_vonmises	0.031664325998578234	1.8142322408448988	3.91200566672331	0.7170210460423326	0.1357727187163139	3.308305320858376	-0.05571983529795865	-0.5153391358381868	0.45961930054022815	63.61012297744014
3	2.0	ltm	7	diff_vonmises	-0.050318229704024865	-2.8830221946104384	2.3224975569728796	1.3286869034447346	0.4051250017104811	2.464939439396858	0.18488517061991838	-0.30370849670217437	0.48859366732209275	75.84370474624598
4	2.0	perception	7	diff_vonmises	-0.03968077900396383	-2.273541164718458	8.944082188832683	1.0406799880097037	0.040899463502817555	2.336541417192189	0.8359534968788835	-0.37405888992502473	1.2100123868039083	45.1256408041248
5	2.0	wm	7	diff_vonmises	-0.07173766249196217	-4.110265292923381	4.892134075468999	0.6827745318186186	0.2079697497572943	2.249231018843248	0.14919898372352097	-0.3581427417797533	0.5073417255032743	57.4514000165282
6	3.0	ltm	7	diff_vonmises	-0.009928056016735751	-0.5688357085284219	1.0928257814810394	3.8806588970908527	0.5007236635069514	4.777493413157366	0.21443722354731776	-0.28675832098821397	0.5011955445355317	98.13939718636126
7	3.0	perception	7	diff_vonmises	0.010482081606778666	0.6005790365801261	3.4006171738470705	2.6172233304952957	0.39046587077694345	3.5400027650512627	1.037963077596078	-0.48117677036471207	1.51913984796079	68.02582461890356
8	3.0	wm	7	diff_vonmises	-0.03035982808133932	-1.7394900158035027	3.330489362265255	0.8012285713734817	0.03329359935234839	2.1002721564640154	0.21119097206868281	-0.3249246079585919	0.5361155800272748	73.67107710198104
9	4.0	ltm	7	diff_vonmises	-0.20858404483229703	-11.950985442658169	1.7914470509654357	1.132795231772876	7.746366750569374e-22	2.6305662921513124	0.1279529603298174	-0.4034742129386794	0.5314271732684968	102.05058237518588
10	4.0	perception	7	diff_vonmises	-0.016889542918105006	-0.9676995271124854	0.9423394280024866	473.37409556896165	0.9287495046788297	475.1198026693791	0.6499069952438674	-0.6271181234980929	1.2770251187419603	90.97978911253355
11	4.0	wm	7	diff_vonmises	-0.2311510622427522	-13.243980296475499	0.8452227928143201	194.707213905917	0.8268116557498445	196.6441556971282	0.086195349612737	-0.4615466494798639	0.5477419990926009	89.70065722786217
12	5.0	ltm	7	diff_vonmises	-0.035505129422657294	-2.034294066984024	1.6254449179642096	1.2028125411136787	1.814778690405455e-14	1.6251938701254454	0.2883889905426176	-0.23746519208823114	0.5258541826308487	106.69565130544022
13	5.0	perception	7	diff_vonmises	0.0010053554625872247	0.05760262491667051	1.0178873984647359	260.45897577733973	1.000739917348998	260.96087686456696	0.6726204749886762	-0.35967097426008365	1.0322914492487598	91.16264630238143
14	5.0	wm	7	diff_vonmises	-0.03477377061885799	-1.9923902942165874	2.2293572234727073	1.2574603962699171	2.318330500124e-17	1.8396883925867022	0.39965675049126653	-0.2847788173670294	0.684435567858296	92.06504298862009
15	6.0	ltm	7	diff_vonmises	-0.22962681800147644	-13.156647534503277	0.7675971843629973	1.7966492100259859	2.444763537227239e-11	2.2481323977269136	0.17662222372752068	-0.24267849387183255	0.4193007175993532	138.31217593668464
16	6.0	perception	7	diff_vonmises	0.12257180078867823	7.022846872509557	0.557916868054498	3.6526961328716734	7.424488561507338e-17	3.9032526478165033	0.319743426399668	-0.31292214869254853	0.6326655750922165	148.90995896157446
17	6.0	wm	7	diff_vonmises	-0.21665626661016726	-12.413489681823723	0.7867042263467702	86.15446072892539	0.76642426231273	86.51047665244283	0.22781703127854058	-0.17700557805221617	0.40482260933075676	101.94788779147636
18	7.0	ltm	7	diff_vonmises	0.23960507963661182	13.728359813073842	1.285812888286789	132.9812231906348	1.2675267059982165	133.57385540696546	0.2117211662968117	-0.20827211076955088	0.4199932770663626	77.21570295917297
19	7.0	perception	7	diff_vonmises	-0.00798889370635776	-0.4577298923529253	1.3512193834276511	3.409743230621072	0.3183215560381486	3.814547780860994	0.57289671377682	-0.3381276100278955	0.9110243238047155	101.95871660783808
20	7.0	wm	7	diff_vonmises	0.07627401324694974	4.370179045575153	0.22423899519740717	4.09601810572649	1.0099629942585512e-09	4.8894813360363045	0.02742212537881239	-0.2637200278627686	0.291142153241581	167.03626507612287
0	1.0	ltm	8	diff_vonmises	0.10932296604549727	6.263744558258996	0.2546729645322841	78.98644447175585	0.23725913070846014	82.2064895135178	-0.39856251058645853	-0.5878106852778906	0.18924817469143207	136.48291586527688
1	1.0	perception	8	diff_vonmises	0.006112211829664113	0.3502039413296885	9.981521965000884	0.7927155778224085	0.06370701394594633	4.6180716821821175	0.20328292573117057	-0.7515908364728207	0.9548737622039912	42.1962853979046
2	1.0	wm	8	diff_vonmises	0.031089181148610593	1.781278868333068	7.254583557388812	0.25207848037510805	0.07947362165551451	3.9731637941214677	-0.41772691917935634	-0.6498766581193303	0.23214973893997393	47.11035322378305
3	2.0	ltm	8	diff_vonmises	0.1639933410598779	9.396126310980474	0.5598213480174049	125.44346228918079	0.5444113236078189	126.90889437183863	-0.0098522733812203	-0.33597117057577286	0.32611889719455256	108.62414598279742
4	2.0	perception	8	diff_vonmises	-0.057648341750499155	-3.3030066782314176	11.059413086062248	1.1350123868997728	0.25294365644555067	3.0290824227764936	0.8768034332516682	-0.5352584713821952	1.4120619046338634	39.64882932242125
5	2.0	wm	8	diff_vonmises	-0.05358320010435249	-3.07009121878435	4.327408533151911	0.7278700552517349	0.0950252020760582	3.1975759731767224	0.0256853008728557	-0.5007424963939053	0.526427797266761	62.251249466719
6	3.0	ltm	8	diff_vonmises	0.058182056355733945	3.3335862725758623	1.8098621777379813	1.6888612375077077	0.7337723257822126	2.445312440064367	0.1084310060927679	-0.20752241404332553	0.3159534201360934	75.73776008080173
7	3.0	perception	8	diff_vonmises	-0.0009740732602668652	-0.055810286749839566	3.3975420094334705	2.855279370004889	0.467152444236388	3.969069818643713	1.0510967607148043	-0.5333533414195207	1.584450102134325	66.90180264320182
8	3.0	wm	8	diff_vonmises	-0.04512808950931831	-2.5856490663725453	3.877727117498488	0.5022961938941191	2.097070935922396e-16	2.1011229703343774	0.04524860706645312	-0.3342414307279505	0.3794900377944036	69.56559488841523
9	4.0	ltm	8	diff_vonmises	-0.10079941116753	-5.775380837303326	0.2032297728199523	52.94949860668427	0.18332079722397515	54.83217456366096	-0.17465835189979728	-0.3975510573209897	0.22289270542119244	152.69611913401798
10	4.0	perception	8	diff_vonmises	0.0036854041115817913	0.21115810139379737	2.478775498532405	2.3927059640907644	0.07004952457028618	4.450822918854004	0.6442549176167666	-0.6529717891089044	1.297226706725671	84.13189763830377
11	4.0	wm	8	diff_vonmises	-0.14672507244364613	-8.40672739977218	0.6325705213812288	194.50810746701367	0.6124204772737408	197.4811715961635	-0.05320018032710294	-0.6496029067071625	0.5964027263800595	100.96211283427061
12	5.0	ltm	8	diff_vonmises	-0.014418060909271764	-0.8260940388638262	1.4639235724715414	2.517435128618739	0.5258330975412994	3.671284884838381	0.1508750034996993	-0.30628338876419936	0.45715839226389865	86.23133779823638
13	5.0	perception	8	diff_vonmises	-0.020096817712801796	-1.1514628365872992	1.5888234316669323	4.028730540545284	0.3839655897600841	5.756275764313875	0.5103188448393043	-0.5626361091772601	1.0729549540165646	90.24292362478877
14	5.0	wm	8	diff_vonmises	0.04856653464728834	2.782657460865506	2.7545772487665503	1.0835560679442642	1.1047899883433609e-16	2.784280654135721	0.23259988024098244	-0.44039552407717186	0.6729954043181543	82.85035773570667
15	6.0	ltm	8	diff_vonmises	-0.23569157575170174	-13.504132557360442	0.5567652100607705	147.198883427385	0.5419083423776867	148.35811942837185	0.11642681566802082	-0.33585746981164455	0.45228428547966537	114.38047326318483
16	6.0	perception	8	diff_vonmises	0.23667737129000269	13.560614481167914	0.2772836247181472	9.218818802245524	7.539954567775448e-13	10.63451402755954	0.20682142526214786	-0.6016776166229785	0.8084990418851263	162.90478945197253
17	6.0	wm	8	diff_vonmises	-0.2600410538416453	-14.899254885260477	1.3966806573786292	1.6212936418820354	1.400747699756307e-11	3.0082874341815256	0.19386953711927396	-0.4376070923265633	0.6314766294458373	113.50891696664985
18	7.0	ltm	8	diff_vonmises	0.36525809901543654	20.927747506556045	0.8374734544942767	54.91268577245074	0.8079425379340457	55.79407842761441	0.04063910244529367	-0.2106441251263229	0.2512832275716166	90.53185734687972
19	7.0	perception	8	diff_vonmises	-0.04584365296825784	-2.626647832543563	2.085609070429587	1.6123314142583527	1.2011055604216749e-18	3.011022825975014	0.37382140375282363	-0.4660526428226741	0.8398740465754977	95.0942958538972
20	7.0	wm	8	diff_vonmises	0.5539688080571769	31.740074683569027	0.44540826192442023	68.3635518015611	0.42308879407882183	69.99252567354971	-0.09675782586557702	-0.3444627739774413	0.24770494811186428	117.56243558502302
0	1.0	ltm	9	diff_vonmises	0.29245418287578145	16.75639037972943	0.8302485432188138	79.6077811512456	0.7983275228049249	81.44441665775352	-0.07188384814822868	-0.383220662272171	0.3113368141239423	85.93207974155138
1	1.0	perception	9	diff_vonmises	-0.08969538110705266	-5.139166779251579	9.340612278563627	0.973667096889511	2.3230835521253286e-18	2.7670686318620605	0.7299982170051595	-0.4403926416154668	1.1703908586206264	44.42758515943311
2	1.0	wm	9	diff_vonmises	0.14546386493457067	8.334465532411949	4.392408275634995	0.38026492320214766	0.09294504550429249	2.6631453257989404	-0.1565504635892067	-0.4217135783898546	0.2651631148006479	60.49371544948238
3	2.0	ltm	9	diff_vonmises	-0.09163668132980637	-5.250395088783174	0.9727350233303316	117.9686866825043	0.9524256570263224	119.0679385939518	0.08886423935431509	-0.2768015757313158	0.3656658150856309	84.57561305037987
4	2.0	perception	9	diff_vonmises	-0.03659169440966933	-2.0965496549065006	7.358894009315831	1.3733308830776998	0.23736172072538478	2.5461986932634066	0.9525605433723896	-0.42211993038258283	1.3746804737549725	48.54963389565904
5	2.0	wm	9	diff_vonmises	-0.047783815412243795	-2.7378109521537453	5.050244660996506	0.6069044088203092	0.2882282178265325	2.402493110893336	0.029382133136646893	-0.39481230054224226	0.42419443367888915	54.651998525760774
6	3.0	ltm	9	diff_vonmises	0.13316608009646783	7.629854363828681	1.1403890025390253	202.05765379020318	1.1276922783264345	202.73876900930287	0.22916238389595378	-0.2321631384250331	0.4613255223209869	81.9818412858584
7	3.0	perception	9	diff_vonmises	-0.009733232983925798	-0.5576731709964728	1.299155495276954	208.3617069242787	1.267422599483081	209.25768661790005	0.8543863957997075	-0.4924462757821928	1.3468326715819003	79.92391334339604
8	3.0	wm	9	diff_vonmises	0.01970808999033732	1.1291903787103519	2.034148894476349	2.0687873703759134	0.8107474167026479	3.3550193926597225	0.05260443063787967	-0.3243608146941217	0.3769652453320014	69.12524536895967
9	4.0	ltm	9	diff_vonmises	0.05814224381537374	3.331305182041528	1.7529895487556695	1.0510478889266572	0.1911250973861984	2.445300972650567	0.03363270921818423	-0.3144774084066835	0.3481101176248677	89.44760324095063
10	4.0	perception	9	diff_vonmises	-0.010061929317085353	-0.5765060836279414	0.9242747593955716	486.59830739155353	0.9129708807355733	488.53504846813837	0.41672354178297155	-0.5820139875572679	0.9987375293402394	89.83594553827285
11	4.0	wm	9	diff_vonmises	-0.2913153775480913	-16.69114164076577	0.9617005227382254	186.75544319739183	0.943230499584573	188.7708054408703	-0.01204850018218906	-0.45008585848934146	0.4380373583071524	81.36695522699578
12	5.0	ltm	9	diff_vonmises	0.025796838071209475	1.478049946262706	1.090192908065905	95.673025036977	1.065910006521511	96.4355057674819	0.16601423499773205	-0.22872921825814885	0.3947434532558809	82.66073208102236
13	5.0	perception	9	diff_vonmises	0.0007056384777111723	0.04043010663488639	0.9888215833218287	256.0046436555394	0.9698625444413538	256.9864867530984	0.5898402975576147	-0.4341064487077766	1.0239467462653913	90.46277159208077
14	5.0	wm	9	diff_vonmises	0.04647660780942633	2.662913473564891	1.9066364029725869	1.317519623523503	0.14402627193564776	2.4923590993488887	0.20451777586437958	-0.3309762204964312	0.5354939963608107	91.00281980298081
15	6.0	ltm	9	diff_vonmises	-0.20433246709148728	-11.707387981838005	1.2486129456005957	1.692416140503493	0.2395597447487766	2.695370530508673	0.11942512355469803	-0.2797921441941981	0.39921726774889615	102.71671652867478
16	6.0	perception	9	diff_vonmises	0.13001518365105233	7.4493212958236	0.3541670695588782	5.2370950443394575	1.5835132056408885e-20	6.301870737609052	0.14837013383606568	-0.43596617675950533	0.584336310595571	159.60277915038068
17	6.0	wm	9	diff_vonmises	-0.23731604632312472	-13.597207865046185	1.6356044860804282	1.1612751175958118	0.1259804634418322	2.200251160589149	0.13451671123993814	-0.28770817846657937	0.4222248897065175	97.9369244066109
18	7.0	ltm	9	diff_vonmises	0.018844094069578883	1.0796870589343739	1.109806240405877	130.0700685266233	1.0905842305389442	131.1568089734328	0.07819598783347459	-0.27525354682035363	0.3534495346538282	78.56027264530906
19	7.0	perception	9	diff_vonmises	-0.11326567041562562	-6.489644878535136	2.758696286044419	1.5719381750369958	6.07845729088238e-13	2.2337294881873957	0.625557697875209	-0.35156803068941506	0.977125728564624	82.78855900789574
20	7.0	wm	9	diff_vonmises	0.6055772786326987	34.69702223467152	0.3698854260904174	92.19605425911074	0.3566470472987554	93.53683796354915	-0.07333950762341246	-0.29883642882269434	0.22549692119928189	127.08566689326187
0	1.0	ltm	10	diff_vonmises	-0.23732597031193606	-13.59777646772101	0.08564186141276511	30.21374678664094	0.06989156062141258	32.19082641941881	-0.25846789705628925	-0.3657451759215027	0.10727727886521343	167.82177481870718
1	1.0	perception	10	diff_vonmises	-0.005525384694127454	-0.3165812231596864	8.376485657527168	0.968347673965281	0.11164743094813723	3.4053027333570323	0.4961405432598004	-0.5577400312985556	1.053880574558356	45.84181519342138
2	1.0	wm	10	diff_vonmises	0.5090456206614499	29.166165643518575	0.00017241346915187396	1127.3085405220365	5.230745213178048e-31	1129.6899033524464	-0.3480706023303526	-0.4099380625175115	0.06186746018715894	172.22607687372607
3	2.0	ltm	10	diff_vonmises	0.5611587227464377	32.15202645032279	0.7382056578928329	110.09157470557666	0.7237612586122089	110.93983993565212	0.05820996841760717	-0.21289243642837974	0.2711024048459869	97.2938332485549
4	2.0	perception	10	diff_vonmises	-0.02164694372203248	-1.2402785146296746	7.897286897765786	1.6536379042762677	0.5883175689076302	2.839501500110194	1.0747697608655726	-0.5226414526833928	1.5974112135489653	45.32595593585879
5	2.0	wm	10	diff_vonmises	0.029596696312268928	1.6957657862234172	6.74998265780721	0.43709975349384905	0.13435704087401343	2.4028019931085787	0.008511747100244216	-0.3939844945513942	0.40249624165163844	49.761682779125465
6	3.0	ltm	10	diff_vonmises	0.23470666591494393	13.447701380513301	1.8933091906075792	41.71654664331937	1.8593239062487552	41.931210048407365	0.12173243131204359	-0.10004357896656746	0.22177601027861105	64.04399556250766
7	3.0	perception	10	diff_vonmises	-0.0015354019813924884	-0.08797205338981375	2.916923735593845	3.596505742777578	0.8748424439679474	4.241759919686968	0.9694794375082176	-0.44686444909169776	1.4163438865999154	67.02765246648528
8	3.0	wm	10	diff_vonmises	0.30378995255605795	17.405882139941635	0.8852186688546159	53.801069148333966	0.8588348595078662	54.95837566955191	-0.09374826496463484	-0.22987344695825573	0.1361251819936209	78.8349507817446
9	4.0	ltm	10	diff_vonmises	-0.2604319225921383	-14.92165001500728	0.7115820093373582	88.88817077848704	0.6954894831518078	90.19106404397175	-0.09694332625818092	-0.2536995160237332	0.15675618976555228	88.82350328961985
10	4.0	perception	10	diff_vonmises	0.020279315850213912	1.161919209630012	1.7335880661690808	4.195345907234158	0.5397206085648354	5.844798376379709	0.4987125776981651	-0.5296579188936656	1.0283704965918308	83.2528422227648
11	4.0	wm	10	diff_vonmises	-0.23924511307936752	-13.707735248577888	0.8535310374429034	161.60602512878475	0.8302628536307768	164.22572136630214	-0.09294138197615354	-0.5515458618424347	0.45860447986628117	84.74450535767774
12	5.0	ltm	10	diff_vonmises	-0.17082064165376873	-9.787301820477579	1.5352827445888848	77.17049571777277	1.504590733572945	77.79570774552764	0.1412870606748342	-0.204358418582121	0.3456454792569552	68.9756426223359
13	5.0	perception	10	diff_vonmises	-0.032419878564988916	-1.8575222141005088	1.046765000417288	271.9980454482914	1.0272494979887028	273.11315302132687	0.6139236906173124	-0.4668017518317136	1.080725442449026	87.57581366182956
14	5.0	wm	10	diff_vonmises	0.2353763315005163	13.486070392251754	3.9749213419737677	0.7827773303828301	0.06143972428100849	2.064092459091214	0.2506977744215535	-0.3191055122477591	0.5698032866693126	66.77106394569657
15	6.0	ltm	10	diff_vonmises	-0.36000220052488224	-20.6266067054981	0.7886979074730038	163.74827608676088	0.7760782585199051	164.51810822512238	0.1643765064824052	-0.23781776109347952	0.4021942675758847	97.61870386956485
16	6.0	perception	10	diff_vonmises	0.18303772737622714	10.487289270323982	1.0551079194427153	2.450972437449983	4.619508730590032e-18	3.7947279450290283	0.25902644204410397	-0.49933883286817415	0.7583652749122781	126.04643536564929
17	6.0	wm	10	diff_vonmises	-0.1670413059244574	-9.570761833825044	2.709375780736512	1.064327111624043	3.9708691777964153e-13	2.0232839056522556	0.33535859700674664	-0.31910126401672656	0.6544598610234732	83.5407125084891
18	7.0	ltm	10	diff_vonmises	-0.233213617112854	-13.362155985546485	1.5307123797672477	157.69352861811458	1.5128702019043818	158.8425474824624	-0.01035413343025482	-0.3021045101028683	0.2917503766726135	63.78132815278346
19	7.0	perception	10	diff_vonmises	-0.11959884752529826	-6.85250919782824	2.102105801321393	1.6194762276462937	5.473789639846911e-19	2.882398300846796	0.402176859643389	-0.44589195225222344	0.8480688118956125	94.71845792942219
20	7.0	wm	10	diff_vonmises	0.5789771215469759	33.1729454992746	3.5535839260998676	0.4488539088934788	7.333714950051876e-17	2.2123563221631812	-0.02876427487151717	-0.35184254942386994	0.3230782745523528	72.71156026007552
0	1.0	ltm	11	diff_vonmises	-0.08194110279146861	-4.6948793585988	0.3915437387144897	1.5658346196108	1.0707502941455059e-13	4.1039907293283475	-0.29825841583577267	-0.490976356703521	0.19271794086774835	157.86066864316228
1	1.0	perception	11	diff_vonmises	-0.01575461427662228	-0.9026729059070091	11.87944760084209	0.6862245867424168	2.2163639542222128e-18	3.7434633196549583	0.33743199961075376	-0.5957906915614448	0.9332226911721986	39.343209530472365
2	1.0	wm	11	diff_vonmises	0.1009958402707532	5.7866353958915555	4.577406867236896	0.4535797277358807	0.10093315680001762	3.174904966756096	-0.18239938228338148	-0.5048056313946595	0.322406249111278	59.14529767765276
3	2.0	ltm	11	diff_vonmises	0.14287249494515328	8.185990968861471	0.363085177073344	34.9086900779637	0.3169878944965953	36.374201645301035	-0.021310715620182386	-0.3725051533281074	0.351194437707925	135.38145316003943
4	2.0	perception	11	diff_vonmises	-0.0510350492403368	-2.9240929287136366	10.724401589760735	1.177739610312631	0.22849319113075128	2.886594744892099	0.9500184379224499	-0.5020720813549221	1.4520905192773719	40.401067612215655
5	2.0	wm	11	diff_vonmises	-0.06382354655739293	-3.65681985129533	6.291608586340038	0.5065777470184727	7.149076482887119e-22	2.4040859382454376	0.11330102954565868	-0.3826204597429507	0.4959214892886094	54.3038162957678
6	3.0	ltm	11	diff_vonmises	-0.06596028786099818	-3.7792461099031924	1.0545817978267422	122.91600383643431	1.0388469978862134	123.54654814522887	0.14416347881082459	-0.19131786672568651	0.3354813455365111	84.11698741086423
7	3.0	perception	11	diff_vonmises	0.05326013452804953	3.0515809247562284	2.427727193851783	4.312261628380555	0.7222840322020964	4.846683055840426	1.0981955514141408	-0.46045146036220574	1.5586470117763467	74.19501435193811
8	3.0	wm	11	diff_vonmises	-0.11130100723581868	-6.377077970167448	3.2233574083133854	0.7636593984155148	0.21184088738192194	1.6975593568972984	0.1906946917911031	-0.2466990755028755	0.4373937672939786	70.23650210970268
9	4.0	ltm	11	diff_vonmises	-0.1935767383781164	-11.091130120974178	0.7990542580031866	0.7500500332921112	1.7716894287008093e-11	2.4260333676268964	-0.15850233098260014	-0.34007385928551553	0.1815715283029154	137.03272980597694
10	4.0	perception	11	diff_vonmises	-0.01197472806841365	-0.6861013791369467	3.132469053266982	2.1411273158634776	2.325669990981122e-21	3.855009342803249	0.8235798173326903	-0.6108103691759357	1.434390186508626	77.60670994696804
11	4.0	wm	11	diff_vonmises	-0.30331679108316034	-17.37877198451641	1.0688940842274757	4.973735942936015	0.5386629559779728	6.9271088881253595	0.004785646175408997	-0.4338474409605376	0.4386330871359466	90.54377033884104
12	5.0	ltm	11	diff_vonmises	0.0274400506629309	1.5721990926110974	2.530657146288518	0.5087972176250403	1.553442817066338e-19	1.611519438588041	0.04551571805347532	-0.2545671915406093	0.3000829095940846	86.46808661073743
13	5.0	perception	11	diff_vonmises	0.00903617009515132	0.5177344094144982	3.0607131470522466	1.5143314802538113	2.9654101842599264e-24	3.0502910404344425	0.5176189622236274	-0.4832663179896011	1.0008852802132284	78.53416946667642
14	5.0	wm	11	diff_vonmises	-0.017457309893041853	-1.0002301785232768	0.7569374349878586	16.111060512943293	0.5971699698136794	17.571627033897542	0.1027088080255032	-0.3734724607790405	0.4761812688045437	101.50858602091887
15	6.0	ltm	11	diff_vonmises	-0.4504268378246263	-25.807556786774676	0.3819135570436383	118.31101311149064	0.36791335371961736	119.61419847796884	0.012398432920321056	-0.3460618966290756	0.35846032954939666	130.59481160374685
16	6.0	perception	11	diff_vonmises	0.2946484880293301	16.882114803991573	0.5466752746106455	5.011803244142635	1.6056030969863416e-16	6.355844477943785	0.26890986300483255	-0.5824866711996411	0.8513965342044737	148.31928888252807
17	6.0	wm	11	diff_vonmises	-0.19355653812952778	-11.089972731984934	1.359622740035714	0.991494874281679	1.6433093325722313e-16	2.4124088769026213	0.020826405846811336	-0.3572622463182674	0.37808865216507875	114.86406756519361
18	7.0	ltm	11	diff_vonmises	0.4023398236781531	23.052373826795876	0.9418844972184652	84.87942489297188	0.9217347725349176	85.73068292912969	0.04693269142598666	-0.20649434305529546	0.2534270344812821	85.1370050261412
19	7.0	perception	11	diff_vonmises	-0.05440087153441614	-3.1169403407554235	2.216071642224352	1.3583184710370246	1.142256107619918e-19	2.4363242113302417	0.3575689700455167	-0.3788918402667898	0.7364608103123065	92.334162197794
20	7.0	wm	11	diff_vonmises	0.35282547110103196	20.215410398804128	1.8135323255639728	0.3248253030365165	1.3150775199465142e-17	1.5570069565418998	-0.08989300219375837	-0.243605703834634	0.15371270164087564	101.29198930222091
0	1.0	ltm	12	diff_vonmises	0.24993223782525448	14.320062391647035	1.580268704729827	1.0062679235387824	0.1390891080929192	4.052311251703427	-0.28774765933188984	-0.5580592966674731	0.2703116373355833	89.0386971661666
1	1.0	perception	12	diff_vonmises	-0.013959825912350331	-0.7998391075150378	9.169397140830132	0.8418494438721897	0.03346958627228702	4.154984773871851	0.3187084088807781	-0.6663092374600662	0.9850176463408443	44.39228678715111
2	1.0	wm	12	diff_vonmises	0.09996467124595429	5.727553762805957	3.8497160783708018	0.5566740680389719	0.1303361224229865	4.1502212810538825	-0.3301863330894873	-0.6561624468579699	0.32597611376848257	61.87945619473376
3	2.0	ltm	12	diff_vonmises	0.04001100004369099	2.292461436601246	1.7133675331164935	1.266626871021582	0.26312314986038676	2.8239773342204186	0.020094882342238995	-0.34412760350841487	0.36422248585065387	86.63984821384918
4	2.0	perception	12	diff_vonmises	-0.04924680483359657	-2.821634071469546	9.832877528861296	1.1372292885036526	0.14796882722843216	2.929792571584831	0.8658838906619625	-0.489494933649406	1.3553788243113685	42.44735069839052
5	2.0	wm	12	diff_vonmises	-0.023237864371100203	-1.3314315533614687	4.537364376185593	0.6876003234823669	0.08968339502299362	3.0152235916074437	0.04213285408983736	-0.4737029123788269	0.5158357664686642	61.08705075017869
6	3.0	ltm	12	diff_vonmises	0.025185917932610685	1.443046800701448	0.9150396974880507	119.13248829746544	0.8971476905536941	120.03885668905512	0.1138057441123479	-0.242447336670768	0.3562530807831159	88.60934351084549
7	3.0	perception	12	diff_vonmises	0.021307239550975472	1.2208148993451178	3.008650246176751	2.9089671774012174	0.4225616023997601	3.9208930627438563	0.9972799781342417	-0.5035599759935675	1.5008399541278092	71.12248059482275
8	3.0	wm	12	diff_vonmises	-0.018063568406015997	-1.0349662326105724	3.311550526105999	0.6720241460385795	0.07313341571852311	2.1891757639086347	0.09108303158410752	-0.33423452297594347	0.425317554560051	71.92549347428857
9	4.0	ltm	12	diff_vonmises	-0.02573497208084043	-1.4745052861191628	0.3706684521157073	2.289027782309809	4.520053114456515e-12	4.136463966407228	-0.14824067335605928	-0.4152827989480824	0.2670421255920231	159.106483460797
10	4.0	perception	12	diff_vonmises	0.0197014543968568	1.1288101872093537	1.6984587885657085	4.588233155410458	0.4116466383788896	6.787101593318261	0.5799082737874397	-0.6804497302283758	1.2603580040158155	86.83929156756588
11	4.0	wm	12	diff_vonmises	-0.22279090570855398	-12.764978610997222	0.5661260592535241	110.82683906339142	0.5351209357761629	113.59839385532747	-0.05529632898392833	-0.6163076260014222	0.5610112970174939	107.70761914812533
12	5.0	ltm	12	diff_vonmises	0.01997863982620797	1.144691742453697	2.2398653105213175	0.9177833416645037	0.08673658864531154	2.018451829189636	0.15712167440461622	-0.2905127617237911	0.4476344361284073	86.77558746544187
13	5.0	perception	12	diff_vonmises	-0.01886183258815521	-1.0807034011836119	2.0850032189401806	2.486708109229712	0.16764590681449498	3.9420113275134354	0.578759898971659	-0.5166109531599249	1.095370852131584	87.8603914400133
14	5.0	wm	12	diff_vonmises	0.01726157078488515	0.989015153740243	2.37088658015881	1.1692305896037303	2.6196447311329794e-16	2.708462186202858	0.2368120095498054	-0.42523914205470553	0.6620511516045109	89.31921933344546
15	6.0	ltm	12	diff_vonmises	-0.22665355229876538	-12.986291958366934	0.38710264184356846	88.41684281420325	0.36767413080650974	89.45980598407438	0.08169072097099317	-0.3256413006516947	0.4073320216226879	133.37232447106908
16	6.0	perception	12	diff_vonmises	0.19577484824802663	11.217072539426084	0.27733049555745515	8.706251421591634	1.9587756564044933e-17	9.803517138365175	0.23355781178053192	-0.5301334413612451	0.763691253141777	163.3030693999472
17	6.0	wm	12	diff_vonmises	-0.32227230076826224	-18.464842687992103	0.7329000500416636	4.040362304805858	0.23380851245536186	5.2559197206336945	0.13250373251688807	-0.38183120873361526	0.5143349412505034	123.65028072190823
18	7.0	ltm	12	diff_vonmises	0.3906700256515985	22.3837436521042	1.3031845965345064	1.270958872312699	0.2692635217928258	2.2650838868801473	0.042430378583559636	-0.23835754201899606	0.2807879206025557	97.33544576709824
19	7.0	perception	12	diff_vonmises	-0.04502258614748987	-2.579604169015334	2.572929644798955	1.5661532971180525	8.020711437852643e-15	2.6737342081435527	0.5131167462629194	-0.4200710324048913	0.9331877786678107	85.7533642122342
20	7.0	wm	12	diff_vonmises	0.6554919603163814	37.55692283088549	0.1720840685011638	68.72654235546162	0.1574519863922119	70.25681528733162	-0.11127757291214735	-0.35267124839092645	0.2413936754787791	150.19975670084494
0	1.0	ltm	13	diff_vonmises	0.28809371120310245	16.506553756198574	0.34720692125605795	95.19680100868032	0.3292801278956996	98.27097776782868	-0.3534945178361646	-0.5622793699378459	0.2087848521016813	120.41124102614145
1	1.0	perception	13	diff_vonmises	0.008335367651478916	0.4775813871196148	12.251799969198684	0.6620861204151802	0.02533456963896519	4.309674063794569	0.21095354921589804	-0.6926256462861009	0.9035791955019989	38.4756107382139
2	1.0	wm	13	diff_vonmises	0.08200708643967468	4.6986599431578835	6.155239170958557	0.38133003574950514	0.17109079586624384	3.9698693462908725	-0.375210851917304	-0.6663556814091854	0.2911448294918814	48.98657703952293
3	2.0	ltm	13	diff_vonmises	0.05819836680680634	3.334520792584265	1.0127414278505182	1.1602051458556943	0.0024524402983609602	2.832121160840175	-0.05260985706522131	-0.39696744516650884	0.3443575881012875	127.74655637550163
4	2.0	perception	13	diff_vonmises	-0.06039763366765534	-3.460529501733898	11.290563959588397	1.0669911806404966	0.16713471793112566	3.2818525351705117	0.8002248981594939	-0.5598414248146949	1.360066322974189	39.52210623541998
5	2.0	wm	13	diff_vonmises	-0.10800321411073727	-6.188128342393024	3.4445791024655463	0.9855535305346814	0.18676375430770642	3.757539552299559	-0.016816009663245812	-0.5726201368056284	0.5558041271423826	66.2763464021038
6	3.0	ltm	13	diff_vonmises	0.04513672766387903	2.586143996171656	1.1311678265689236	163.48292342604097	1.1159061836824309	164.35579620783926	0.14844627619987705	-0.24899747895248936	0.3974437551523664	80.05999869927672
7	3.0	perception	13	diff_vonmises	0.0010331710353740987	0.05919633984209734	2.443019681509255	4.732051920522212	0.6889090183128105	6.001664333146275	1.0561580998972167	-0.6120881762974669	1.6682462761946835	73.05894265493524
8	3.0	wm	13	diff_vonmises	-0.10916262486770394	-6.254557685489282	3.1700941828815896	0.820712180367631	0.15045126459430805	2.5975541806286073	0.07677541654277004	-0.3881305707759032	0.4649059873186732	70.71660105937502
9	4.0	ltm	13	diff_vonmises	0.23963065417843724	13.72982512638342	0.11282008327107974	5.8063918553158285	2.3854355208833022e-09	7.872665765600541	-0.2217753456981415	-0.43006997671143876	0.20829463101329726	171.87040571499634
10	4.0	perception	13	diff_vonmises	-0.006524461663836105	-0.37382411693271167	2.085065568289432	3.0889021399600605	0.18211410782283657	5.428133976197887	0.6060598349941186	-0.71069910228087	1.3167589372749886	86.64057598228484
11	4.0	wm	13	diff_vonmises	-0.205366529836808	-11.766635412896594	0.6111981151435364	200.29299105460103	0.5932217213270089	203.29161913834918	-0.110843732754077	-0.6316064840994571	0.5207627513453801	101.05354378196331
12	5.0	ltm	13	diff_vonmises	0.030570478092806157	1.751559372414935	2.1634766469133466	1.0618403492130768	0.24410691276436522	2.202628454718836	0.1334255661972421	-0.28656182241336275	0.41998738861060486	81.75828347397811
13	5.0	perception	13	diff_vonmises	-0.013952763867118051	-0.7994344821284977	1.8182877879122405	3.023211807314489	0.22938304682320493	4.860470093088801	0.5117291010300389	-0.5851659796232695	1.0968950806533084	90.36156654424627
14	5.0	wm	13	diff_vonmises	0.01985766468473535	1.1377603774213179	2.815553623005811	1.0407709439188435	0.05718462313576803	2.9453175978551656	0.16136906532494877	-0.4455547524098833	0.6069238177348321	78.648542667143
15	6.0	ltm	13	diff_vonmises	-0.23801458630258998	-13.637231257690699	0.5146728537593429	130.72414375830778	0.49930950936657464	131.97879880924742	0.06635102756049349	-0.3391029400358043	0.4054539675962978	117.28818584877071
16	6.0	perception	13	diff_vonmises	0.18173538500422426	10.41267054892716	0.3749427944177842	6.625549761214987	1.579546679784568e-14	8.005916383705308	0.2074563312956994	-0.5742114765762876	0.781667807871987	158.14426705272612
17	6.0	wm	13	diff_vonmises	-0.18905801266983982	-10.832226209112667	1.107183687339385	1.7745765853869158	0.08266411222850635	3.3918879917783227	0.05682408843615894	-0.42601626954646604	0.482840357982625	117.02073037549243
18	7.0	ltm	13	diff_vonmises	0.4148224818853807	23.76757745917436	1.0635870374912155	33.02195460653377	1.022005162325481	33.54808739146539	0.0767315610071222	-0.14476357134209472	0.22149513234921692	82.76501227365935
19	7.0	perception	13	diff_vonmises	0.005472136133397757	0.3135303053647287	1.702001119818279	1.7320068919999214	1.5258600732319725e-17	3.0626603678620685	0.3226513049432445	-0.46050883613725835	0.7831601410805029	104.53984336975
20	7.0	wm	13	diff_vonmises	0.5231200602501653	29.972571630963813	0.2628793738554391	37.00771979239172	0.2407754808731324	38.4582846482382	-0.1452484222875272	-0.29092886895353587	0.14568044666600866	138.80039162304945
0	1.0	ltm	14	diff_vonmises	0.3230858736505932	18.511456980475963	0.9008296607351864	72.11634199349658	0.8583756975517456	74.1948949079385	-0.07071994314299701	-0.44094502865559626	0.37022508551259925	82.95508790855024
1	1.0	perception	14	diff_vonmises	-0.09332780479212995	-5.347289325809865	8.751979916256849	1.001401843474208	1.7230290825202734e-16	2.933823990366932	0.6969047699958282	-0.4669325611106719	1.1638373311065	45.92259463003006
2	1.0	wm	14	diff_vonmises	0.1924462608169452	11.026358527884828	0.8326878337335901	161.84196932674155	0.8132874778291007	164.21661094019615	-0.1276079721901482	-0.4850566377942265	0.3574486656040783	84.1551144143825
3	2.0	ltm	14	diff_vonmises	-0.08109345905035603	-4.646312949702369	0.9308418230556997	153.74379415934112	0.9132564697711169	155.10084161894358	0.0729400961522444	-0.3283526671916839	0.40129276334392827	85.55949912662072
4	2.0	perception	14	diff_vonmises	-0.040414304784238825	-2.315569096092256	6.668746287369506	1.5338408538086057	0.2743622648435329	2.7078688199834295	0.9915588398098046	-0.4453401078804872	1.4368989476902918	50.677008200374246
5	2.0	wm	14	diff_vonmises	-0.00958561793860662	-0.5492154519070517	7.555318193953732	0.428919747038533	0.09840391211767409	2.076857345299567	0.09807765342216662	-0.3380418176258561	0.43611947104802273	47.948828822447496
6	3.0	ltm	14	diff_vonmises	0.017995492388779667	1.0310657641368708	0.9368887943127698	192.23537125162215	0.9236201479630923	193.12765288763043	0.19303591957670818	-0.2681707197513994	0.46120663932810757	89.26406385219755
7	3.0	perception	14	diff_vonmises	0.02655298416033607	1.5213739258649828	1.2163001554133321	98.98906248994638	1.153301710790526	99.70974877461254	0.887357128193166	-0.4679410499751313	1.3552981781682973	83.89085658291006
8	3.0	wm	14	diff_vonmises	0.013554765562384708	0.7766308590139156	1.7224858863018713	3.4437834356401216	0.9462860841729882	4.52985295446821	0.12075257049670252	-0.296710053069599	0.41746262356630154	72.51713918626407
9	4.0	ltm	14	diff_vonmises	0.029876244096162758	1.7117826944127688	2.1583916871080833	0.6132939571781776	2.05611047391394e-24	2.146893407561546	-0.010448389035972228	-0.33726880565331546	0.32682041661734323	93.53003641494101
10	4.0	perception	14	diff_vonmises	-0.007973052171115524	-0.4568222392425374	0.9296069247112273	449.77736971905586	0.9163418830631578	451.76130727658057	0.48844889765763355	-0.6190583856050225	1.107507283262656	90.10911377749702
11	4.0	wm	14	diff_vonmises	-0.3011480577450562	-17.254512717353723	1.5808748170376274	2.0231177300524226	0.42122978482425	3.9149678878549174	-0.004033550189741386	-0.41297199276541796	0.4089384425756766	82.80651958424838
12	5.0	ltm	14	diff_vonmises	0.008711173715771348	0.4991134885189932	2.326627735742256	0.7037509063707921	0.08039302414584976	1.7968646209961154	0.08806843085804639	-0.26246686226221455	0.35053529312026094	84.9889386386566
13	5.0	perception	14	diff_vonmises	0.01619432195213568	0.9278662999334348	2.519984089315472	1.8449841746604085	0.09810334638576797	3.0110004301613884	0.5651132714924866	-0.43145052121368815	0.9965637927061748	82.87544925606261
14	5.0	wm	14	diff_vonmises	-0.019296209522103095	-1.1055913662166585	0.6571666802074264	80.05893894616925	0.6254635844292027	81.32315355295012	0.14026788861032102	-0.3527640523812936	0.4930319409916146	105.75871318049515
15	6.0	ltm	14	diff_vonmises	-0.29317902430306136	-16.79792073432881	1.1215852085967215	1.1098251939290789	8.755687335760891e-18	2.3896009945377066	0.024291012293043368	-0.3373786137043836	0.36166962599742697	123.13994952720195
16	6.0	perception	14	diff_vonmises	0.193640714688439	11.094795693544482	0.17291212495298716	169.4092623593019	0.1595986142130642	170.76438536192262	0.13470828872671703	-0.5095932700673842	0.6443015587941012	159.3103527147033
17	6.0	wm	14	diff_vonmises	-0.25526558165213975	-14.625640483619712	0.7855151652408553	4.2725701361865065	0.38257466138845336	5.554709849816179	0.0355887801896555	-0.31531359708277357	0.35090237727242907	108.98655962690566
18	7.0	ltm	14	diff_vonmises	0.1159831112127117	6.645342767284835	0.7878935186788144	129.8144038063018	0.7706388831220833	131.36481773777246	-0.034345050686624745	-0.3316657835511254	0.29732073286450067	89.28528200961765
19	7.0	perception	14	diff_vonmises	-0.10558778590918112	-6.0497345007269825	3.4363395997762325	1.43071859192928	5.478839011524408e-14	2.3734136857221855	0.6338719672087334	-0.3766927918350023	1.0105647590437357	74.00817879344797
20	7.0	wm	14	diff_vonmises	0.9041782081342239	51.80559525379235	0.20141860171333834	69.07176742509255	0.18845111903026654	70.5694954869837	-0.13031251767661622	-0.32315743311450795	0.19284491543789173	139.53692104370256
0	1.0	ltm	15	diff_vonmises	0.1485637688119442	8.512076941481691	4.216103644955488	0.43110337690502604	4.0460874860585235e-24	2.5846341020049013	-0.07032535457074324	-0.411283014299102	0.3409576597283588	66.64236677097338
1	1.0	perception	15	diff_vonmises	-0.0815987471724205	-4.675263826534755	10.629328814029817	0.9053653319924831	0.020199455264183288	3.220817013161714	0.6398712594383718	-0.5150460939794307	1.1549173534178023	41.447648111040166
2	1.0	wm	15	diff_vonmises	0.03166432400859436	1.8142321268272217	3.912005664603074	0.7170210474544039	0.1357727195205525	3.308305322767796	-0.05571983519682966	-0.5153391361107281	0.45961930091389847	63.610122972713214
3	2.0	ltm	15	diff_vonmises	-0.050318229704024865	-2.8830221946104384	2.3224975569728796	1.3286869034447346	0.4051250017104811	2.464939439396858	0.18488517061991838	-0.30370849670217437	0.48859366732209275	75.84370474624598
4	2.0	perception	15	diff_vonmises	-0.039680778959830104	-2.273541162189782	8.944082169092846	1.0406799889992135	0.04089946421350383	2.3365414182412603	0.8359534962083276	-0.37405889013442645	1.210012386342754	45.12564084944128
5	2.0	wm	15	diff_vonmises	-0.07173766191396595	-4.110265259806637	4.892134239355108	0.6827745112886144	0.20796973655630752	2.249230997756052	0.1491989858493794	-0.3581427395945583	0.5073417254439376	57.45139934153465
6	3.0	ltm	15	diff_vonmises	-0.009928070849662542	-0.5688365583925249	1.092834348793632	3.8805567592507026	0.5007176818886163	4.7773912782593415	0.21443732241746138	-0.2867582981992809	0.5011956206167423	98.13936486363613
7	3.0	perception	15	diff_vonmises	0.010482081814213503	0.6005790484652668	3.4006173348296413	2.61722317723832	0.39046582364789756	3.5400026112327203	1.037963083895379	-0.4811767635231367	1.5191398474185158	68.02582380020979
8	3.0	wm	15	diff_vonmises	-0.0303598275344725	-1.739489984470342	3.3304892106913995	0.8012286049832842	0.03329361839098004	2.100272190015237	0.21119096923133723	-0.3249246088962196	0.5361155781275568	73.67107804539319
9	4.0	ltm	15	diff_vonmises	-0.20858404438228226	-11.950985416874222	1.7914470190812641	1.1327952440306086	7.746693974953166e-22	2.6305663044830037	0.12795295836249732	-0.40347421393257926	0.5314271722950765	102.05058320331958
10	4.0	perception	15	diff_vonmises	-0.016889576141621846	-0.967701430679781	0.9431474714978008	423.1426302232632	0.927947572463039	424.8883373150164	0.6499074004834142	-0.6271177593504618	1.277025159833876	90.97971427364584
11	4.0	wm	15	diff_vonmises	-0.23115099871555547	-13.243976656635242	0.8443747151874105	214.42178883530815	0.8276488129174315	216.35873064160654	0.08619519032937717	-0.4615470040392786	0.5477421943686558	89.7007746118407
12	5.0	ltm	15	diff_vonmises	-0.03550513007232012	-2.034294104206962	1.62544491739658	1.2028125426688092	1.8142511281435728e-14	1.6251938716198695	0.2883889908954661	-0.2374651922791071	0.5258541831745732	106.69565132174854
13	5.0	perception	15	diff_vonmises	0.001005296110525977	0.05759922429405561	1.0175349737027592	271.60213686953426	1.001090371648632	272.10403793624045	0.6726204029025098	-0.3596710860769363	1.0322914889794461	91.16267107401217
14	5.0	wm	15	diff_vonmises	-0.03477377064694907	-1.9923902958260882	2.229357232075725	1.2574603932919772	2.3357012929876137e-17	1.8396883891397204	0.3996567509961488	-0.28477881695686696	0.6844355679530157	92.06504281391022
15	6.0	ltm	15	diff_vonmises	-0.22962682111731045	-13.156647713027414	0.7675971121780046	1.7966493694444943	2.5117366138014572e-11	2.248132558707533	0.1766222207583648	-0.242678497991149	0.4193007187495138	138.3121792463544
16	6.0	perception	15	diff_vonmises	0.12257180044431665	7.022846852779092	0.5579168824775326	3.6526960389330623	7.461432890906281e-17	3.903252553316239	0.31974342716626514	-0.3129221472222751	0.6326655743885403	148.90995822854967
17	6.0	wm	15	diff_vonmises	-0.21665623687106442	-12.413487977898644	0.786706392678409	86.13550473696957	0.7664219734971197	86.49152066389135	0.227817054752677	-0.17700559652772707	0.40482265128040407	101.94789248564936
18	7.0	ltm	15	diff_vonmises	0.23960534218355448	13.72837485590558	1.2863174886571842	126.04242495496969	1.2670269671558747	126.63505709917192	0.2117212122160197	-0.20827196226173683	0.4199931744777565	77.21565851832415
19	7.0	perception	15	diff_vonmises	-0.007988895193640273	-0.4577299775679362	1.3512200199588174	3.4097396848991774	0.31832110961835997	3.81454423576815	0.5728967251806789	-0.338127616888524	0.9110243420692029	101.9587145042317
20	7.0	wm	15	diff_vonmises	0.07627397454372808	4.370176828043898	0.2242404009215026	4.095992610577716	8.509630712096995e-10	4.889455839485544	0.027422175301222484	-0.26371997609090914	0.2911421513921316	167.03618651081547
0	1.0	ltm	16	diff_vonmises	0.16834333098567747	9.645362374653216	0.28317042316378105	48.4357378670957	0.25274274075609365	51.426296613741364	-0.341955253281105	-0.5634792487980045	0.2215239955168995	135.1898043573715
1	1.0	perception	16	diff_vonmises	-0.02629440620074972	-1.5065585001055806	10.52723032473532	0.8409850618289461	0.0855667803531508	4.399757946714127	0.3132188563894711	-0.7239623525899038	1.037181208979375	41.00160953336075
2	1.0	wm	16	diff_vonmises	-0.035683424346735874	-2.044509613642332	7.574651617222362	0.3286045467451573	0.12361986352222995	3.9602388950714214	-0.3560743946183854	-0.6603613117880273	0.30428691716964185	45.73765844345601
3	2.0	ltm	16	diff_vonmises	0.04060136330965249	2.3262867601203996	1.6492611850140737	1.0030346182134127	0.11700285880179356	2.355552353637055	0.040238901184351694	-0.31659532033317433	0.35683422151752603	96.322993722701
4	2.0	perception	16	diff_vonmises	-0.0567835882227104	-3.253459950770073	10.997999441344644	1.019419722736679	0.17359686802093713	2.884778519792114	0.7904893512922523	-0.49202561717140136	1.2825149684636536	40.0437356345669
5	2.0	wm	16	diff_vonmises	-0.10621452786153741	-6.085644169440787	3.0743676482274824	1.1813508360101037	0.2903712134686695	3.6555508484610897	0.02290533821324059	-0.5375963613511493	0.5605016995643899	67.39554193802047
6	3.0	ltm	16	diff_vonmises	0.10407879731146921	5.963275822744725	2.0919213085260937	1.4278729145378686	0.5633307827244892	2.2980051528018963	0.16252698557046408	-0.24496366183068136	0.40749064740114543	75.8829810662493
7	3.0	perception	16	diff_vonmises	-0.027674846079453537	-1.5856518790268606	3.581536235549721	2.898364705948274	0.460344198347795	4.348863481035694	1.0559491273182282	-0.6044763048080927	1.660425432126321	65.14096582865395
8	3.0	wm	16	diff_vonmises	-0.028586026688080166	-1.637858682275328	3.587283877757	0.5845839290565567	3.444431769459092e-24	2.563957018918047	0.015239557754839705	-0.40774221219216494	0.42298176994700465	72.40052637778214
9	4.0	ltm	16	diff_vonmises	-0.07399415124041461	-4.239552574728463	0.9077454895409234	1.37894910685562	0.014205336232929102	3.280908400419221	-0.08256794734009304	-0.4420197938300498	0.35945184648995676	130.87871808692304
10	4.0	perception	16	diff_vonmises	-0.012187942847901962	-0.6983176861314395	1.301958461477106	7.091515250400267	0.48645155798089135	9.224602230950943	0.5683894295981076	-0.6858204647349719	1.2542098943330795	93.32676723643803
11	4.0	wm	16	diff_vonmises	-0.11054716448780079	-6.333885962289478	0.6856511261412288	211.88281637406388	0.6652274348599274	214.96002907258494	-0.03148823524185218	-0.6761191920341645	0.6446309567923123	97.21932473958302
12	5.0	ltm	16	diff_vonmises	-0.008484907529183988	-0.4861493909810179	0.9815915728428003	79.50787572974184	0.9456601608530684	80.29820386495257	0.2800337813635032	-0.27713653569523533	0.5571703170587385	89.43159119640507
13	5.0	perception	16	diff_vonmises	-0.016018327129626565	-0.9177825393875085	0.9040783817089635	344.78418699593476	0.888512557490819	346.1041927664799	0.5992303093438522	-0.521151177991392	1.1203814873352442	93.70920814291915
14	5.0	wm	16	diff_vonmises	0.02026924794618671	1.1613423612207103	3.0057973231425863	1.1747480985883616	6.058084827646803e-19	2.516549877416079	0.36972680843579214	-0.39863406252674793	0.76836087096254	79.25731928806647
15	6.0	ltm	16	diff_vonmises	-0.1800002954780106	-10.313257241997764	0.5918120479951985	127.57495464932093	0.5747081745591104	128.36019873818145	0.20750642086856175	-0.29310413881518826	0.50061055968375	114.43730902210845
16	6.0	perception	16	diff_vonmises	0.1362225141141723	7.804975133403361	0.3315076594417845	6.952854284779328	1.244493504317838e-16	7.844603326665749	0.2515345051635025	-0.4755400204170227	0.7270745255805252	160.79542479148748
17	6.0	wm	16	diff_vonmises	-0.17417981165955382	-9.979768084476001	0.757775670137393	47.68926126353988	0.6966469013968773	48.591450073826856	0.30001224292284334	-0.3339601447189513	0.6339723876417946	103.09828362585682
18	7.0	ltm	16	diff_vonmises	0.2401063923298838	13.757082914614662	1.3303850569691362	93.17113971820511	1.3100196760295768	93.66922171946803	0.1448076436271819	-0.16552932909514517	0.3103369727223271	75.1835178470462
19	7.0	perception	16	diff_vonmises	0.004348358710126115	0.24914260189917695	1.1420512675382093	3.5941616043484372	0.22115641872180064	4.775502438654831	0.38735229191930465	-0.4669887113274866	0.8543410032467913	110.19340975806833
20	7.0	wm	16	diff_vonmises	0.35350446909404376	20.254314118101554	0.32617769195604307	51.06618004215487	0.301453755177658	52.3960576860239	-0.052967108819240494	-0.31855052365232694	0.26558341483308645	136.6832126252102
0	1.0	ltm	17	diff_vonmises	0.1786069486311556	10.233424348275111	0.49868551252752125	110.72239546691239	0.4836541922730757	112.88532303421901	-0.21644980994974006	-0.3993421413037108	0.18289233135397076	102.16780374520968
1	1.0	perception	17	diff_vonmises	-0.024962949239920634	-1.4302716356467586	9.597174772268238	0.865156456656227	0.055560712255789235	3.459410490974579	0.47272240806466337	-0.5591933556222074	1.0319157636868708	43.28915557994867
2	1.0	wm	17	diff_vonmises	0.21711257405329318	12.439634172475245	6.4304467392079605	0.24281130618983018	0.10683792661510086	2.807922283138644	-0.255446015739178	-0.4606095138451646	0.20516349810598655	49.573098479420395
3	2.0	ltm	17	diff_vonmises	0.23582428866304098	13.511736447067076	0.4374459949647584	117.15662441795524	0.42510557407583355	118.2678888130728	0.008216447178682529	-0.2834311773811038	0.2916476245597863	124.22679421151332
4	2.0	perception	17	diff_vonmises	-0.043997287759310076	-2.520858898631066	10.269481729623786	1.1813058757966568	0.2669358109391163	2.664799092090854	0.9463095364760683	-0.4680412676496324	1.4143508041257007	41.16573364770238
5	2.0	wm	17	diff_vonmises	-0.10246060990830015	-5.8705605140819035	4.326230377115988	0.6662975015349123	0.22399349268139807	2.638779219489943	0.015689356672113575	-0.4178906787666503	0.4335800354387639	59.417527171055525
6	3.0	ltm	17	diff_vonmises	0.07823470098637697	4.482518177987379	1.394351610585019	120.75611347198944	1.3795048039433513	121.14746917157764	0.15958806765258515	-0.14601567966765927	0.3056037473202444	74.3181753118499
7	3.0	perception	17	diff_vonmises	0.022586429102548884	1.2941070618475068	1.5171449839440525	210.582737664746	1.4839708749513805	211.1937490968296	0.9589334542395704	-0.46220258297988437	1.4211360372194548	74.68104901687107
8	3.0	wm	17	diff_vonmises	-0.045780785279430324	-2.623045779306005	2.8311183526789057	0.8371155072228174	0.45363884556004613	1.8400399578018947	0.09222356806174953	-0.2501403814305965	0.34236394949234605	68.11240571237423
9	4.0	ltm	17	diff_vonmises	-0.09767849377710267	-5.596565442622858	0.6760487175215864	57.76552400732198	0.6497095487259895	59.134016002983124	-0.08690052555648009	-0.27129723420892304	0.18439670865244295	93.10250279763605
10	4.0	perception	17	diff_vonmises	0.0014753739292913384	0.08453269935202644	1.4274942517234408	7.834213590500236	0.7055505591072153	9.476409762836626	0.5866839742194654	-0.5675237687223451	1.1542077429418105	85.53023780673826
11	4.0	wm	17	diff_vonmises	-0.286013037472457	-16.387339932888846	0.8899311124302884	180.25617313621717	0.8719494000219336	182.18409056369293	0.005953069907569386	-0.4320188618959051	0.4379719318034745	85.27678078092748
12	5.0	ltm	17	diff_vonmises	-0.02693805947285637	-1.5434371160670772	1.8091466520549542	1.6319823104763063	0.6681881224011961	2.480321285368828	0.10142457166751129	-0.22435792109227384	0.3257824927597851	76.58241682838661
13	5.0	perception	17	diff_vonmises	-0.014855435516440764	-0.8511537579208022	1.9623267488927167	2.8688361634129516	0.3571602253902984	4.22501684150702	0.5319034426273077	-0.4714858831269977	1.0033893257543054	84.49016247191724
14	5.0	wm	17	diff_vonmises	0.11886968576066122	6.810731306132227	2.627723450829458	0.9033310459628774	0.07011218677750827	2.299737013029135	0.1560168697429311	-0.3424037593217261	0.49842062906465723	80.92234612976651
15	6.0	ltm	17	diff_vonmises	-0.28596131987613344	-16.384376732892946	0.6967838710495352	171.75024031632825	0.684065979726013	172.87721240471785	0.09886638992236385	-0.2956978289836254	0.39456421890598925	100.97994785101822
16	6.0	perception	17	diff_vonmises	0.28519720220470735	16.34059601526887	0.3649379497857038	6.399394908830408	1.2650776211294122e-19	7.579308495876354	0.21311815404520007	-0.522167840002049	0.735285994047249	157.6969251416292
17	6.0	wm	17	diff_vonmises	-0.28851067381055256	-16.530443953820235	1.7722960796907343	1.011991320398747	5.966488723166488e-16	2.183575797188641	0.1375889534449165	-0.33351487522200124	0.47110382866691775	102.47111119947812
18	7.0	ltm	17	diff_vonmises	0.26428117139471635	15.142195725690787	0.8655280503660476	72.67392262726229	0.841075143941162	73.50280979524861	0.0808758714391864	-0.21380251155678565	0.29467838299597204	90.64506260941249
19	7.0	perception	17	diff_vonmises	-0.10909169701829793	-6.250493819068379	2.5431124452873006	1.3395989906971826	1.5862747622421868e-17	2.0767965471463117	0.4669159976765888	-0.3256029198691279	0.7925189175457168	86.24736454799381
20	7.0	wm	17	diff_vonmises	0.3779678947512026	21.65596516068881	0.7344738734789573	69.33677287489955	0.707846661504143	70.61304951573308	-0.012911318680874473	-0.2790830670646871	0.26617174838381263	93.90187329039966
0	1.0	ltm	18	diff_vonmises	0.0737953462193729	4.228161886076763	1.7743901758620166	0.5325581125650547	8.330739921490375e-13	3.5583151760156437	-0.3108372074223171	-0.558975536200028	0.24813832877771097	102.57126717670539
1	1.0	perception	18	diff_vonmises	-0.026772596869594396	-1.5339568072329186	9.522226262851513	0.9553407800966761	0.1360186380632402	4.60374322827665	0.32387961821626954	-0.7707991023946331	1.0946787206109025	42.64714156090835
2	1.0	wm	18	diff_vonmises	-0.011481904543891417	-0.6578646711370607	8.5335584564823	0.2970115209012568	0.11452813865969758	4.083434944072023	-0.3856599836272089	-0.6828045673539481	0.29714458372673924	43.371700318950616
3	2.0	ltm	18	diff_vonmises	-0.00031916202828981993	-0.018286637201841666	2.544577546356757	0.7248261263535111	0.09607451159372792	1.9404908021371154	0.09243786583280345	-0.28431301218188637	0.3767508780146898	80.71086524070952
4	2.0	perception	18	diff_vonmises	-0.06238532139846637	-3.5744156196993058	12.263739510925808	0.8952956931352	0.1294736270584322	2.632381446100348	0.7622581745817735	-0.4430323745787341	1.2052905491605075	38.1545913674573
5	2.0	wm	18	diff_vonmises	-0.1500151760432044	-8.59523645018767	2.30724312101462	1.8410354599648908	0.46480684471186223	4.18216101895113	0.030257949996154165	-0.5314203288751989	0.561678278871353	71.5515130984978
6	3.0	ltm	18	diff_vonmises	0.08999420075800917	5.156287884086959	2.1603790913132217	1.348038856708312	0.6090704565581332	2.10234319304116	0.16659288615440804	-0.2216493694108778	0.3882422555652858	74.53432377564764
7	3.0	perception	18	diff_vonmises	-0.023350279084866216	-1.3378724420154324	3.717731228591494	2.7240251706366663	0.49546530796988764	4.035591348103224	1.0195397933499923	-0.5659011752605104	1.5854409686105027	63.79973070088673
8	3.0	wm	18	diff_vonmises	-0.0025119549730820614	-0.14392441828450042	3.4852527129697934	0.6122830993900007	1.4621864892946732e-20	2.4145659992974773	0.05205240818698381	-0.38388030185594707	0.4359327100429309	73.47684044455616
9	4.0	ltm	18	diff_vonmises	-0.1752861212297299	-10.043154953682022	0.5001800188723671	135.52242291319715	0.4846609103534382	137.20786281161216	-0.018413108202793182	-0.3946986418663201	0.3762855336635269	115.27289765151767
10	4.0	perception	18	diff_vonmises	-0.007054618405152715	-0.4041998606905624	0.9039624170655965	210.70544312255828	0.874390249543814	212.58592429459662	0.5895646659610208	-0.6394338339026682	1.228998499863689	92.76792471200636
11	4.0	wm	18	diff_vonmises	-0.0857789796204127	-4.914773503188348	0.7091876082012003	259.72006699800835	0.6925470428761928	262.42947397871234	0.05665648663898537	-0.6287547070072605	0.6854111936462459	97.26489836154327
12	5.0	ltm	18	diff_vonmises	0.0038868135698076583	0.222698013304156	1.0158262390392439	64.38245772009144	0.9695344912087814	65.04576800055804	0.34130169045065983	-0.27098261992855743	0.6122843103792173	89.34634990954763
13	5.0	perception	18	diff_vonmises	-0.022988240164884988	-1.3171291398810334	0.9352163334308513	341.0187914674613	0.9198883299539091	342.20753302176934	0.6059118372226635	-0.49099472278831513	1.0969065600109786	92.47342893384422
14	5.0	wm	18	diff_vonmises	0.032409327587827275	1.8569176876394078	2.965212680044929	1.276362041706387	2.7693113085319096e-13	2.389134724709547	0.4501677696184838	-0.3780358681679961	0.8282036377864799	79.80667878585655
15	6.0	ltm	18	diff_vonmises	-0.15252003565883787	-8.738754334436228	0.664962444318623	146.6968153076321	0.6489767395356423	147.32850353645725	0.27229146884408095	-0.27612877120671797	0.5484202400507989	109.54383367555639
16	6.0	perception	18	diff_vonmises	0.18330984797659816	10.502880632243809	0.0005585870132608024	4029.9024623247506	7.183015101936617e-24	4030.4899098646433	0.2648072715805938	-0.45169758486622413	0.7165048564468179	178.81994702161518
17	6.0	wm	18	diff_vonmises	-0.29484260471739615	-16.893236870950815	0.7002168159546797	84.64114811570877	0.6669680024412102	85.15105592355259	0.39407196012082224	-0.3045655696786822	0.6986375297995044	109.23623606809049
18	7.0	ltm	18	diff_vonmises	0.2410830503991056	13.813041300008468	1.085676999868074	83.57203916263104	1.0619991684943093	84.0263388825921	0.21104619986550333	-0.1753285756155103	0.3863747754810136	85.46061770257768
19	7.0	perception	18	diff_vonmises	-0.027459984548537097	-1.573341220125629	1.3701485874954396	3.0312912913465424	0.24886588259126913	3.7751245533444613	0.48439193872065034	-0.38112840297001715	0.8655203416906675	102.79164631905097
20	7.0	wm	18	diff_vonmises	0.2490208952723144	14.26784630967289	0.5848246582999646	131.8016923638238	0.5699110378372345	132.95080292237532	0.07254186064260182	-0.3030279776199105	0.37556983826251233	110.00447748411307
0	1.0	ltm	19	diff_vonmises	0.06441925292645212	3.690951312071484	3.227042827092641	0.4979135346298115	1.2983846047586223e-16	1.9671511496820413	0.026777390075338303	-0.31254681417352176	0.33932420424886006	76.43396512054744
1	1.0	perception	19	diff_vonmises	-0.1288542167099414	-7.382802789943731	11.55242030943271	1.0814130254836063	1.068946080388425e-18	2.6485501311066573	1.0279167687859905	-0.42152984525830683	1.4494466140442972	39.90932761747669
2	1.0	wm	19	diff_vonmises	0.07533041883242231	4.316115068050613	4.455871898328598	0.4512182136796526	3.62150329466498e-33	2.220973125553564	0.014333242999647167	-0.3534292648716764	0.3677625078713236	64.77421785260367
3	2.0	ltm	19	diff_vonmises	-0.11231540570023656	-6.435198720923143	1.2408185962434175	96.14822117600623	1.2127386902581232	96.78944320358906	0.2520326526978991	-0.23176023479862096	0.48379288749652005	79.1816715039757
4	2.0	perception	19	diff_vonmises	-0.044832735701034285	-2.5687265396947545	9.56170334230418	1.0831978632517418	0.18925924726511217	1.7148049500744689	0.9906624192342128	-0.28776623202991675	1.2784286512641296	43.17204658430279
5	2.0	wm	19	diff_vonmises	-0.09475290951508945	-5.428941811799605	6.633330658654018	0.4678779435324588	0.30623651225044596	1.3529167269439764	0.18512913089046856	-0.22923536566781502	0.41436449655828356	49.55470202008732
6	3.0	ltm	19	diff_vonmises	2.2485472865238277e-05	0.0012883226955340877	1.1750980375190814	118.57895975585258	1.154922294158897	119.08247963277732	0.25746374499487246	-0.20166051040754063	0.4591242554024131	82.22097126127144
7	3.0	perception	19	diff_vonmises	0.0055633493530955055	0.31875643788920927	2.973498853251644	2.592738419645522	0.5315384549736146	3.0876133911594965	0.909412809398771	-0.37221273857331794	1.281625547972089	70.75354874908669
8	3.0	wm	19	diff_vonmises	0.0120369183788308	0.6896646214504579	2.580147425197141	1.2752683601044004	0.7123029896693204	1.9207420263952626	0.21453108927070463	-0.215413791608646	0.4299448808793506	69.13343699563362
9	4.0	ltm	19	diff_vonmises	-0.1986509204246005	-11.381859336718772	2.957341563066534	0.8061081449722463	7.998151514222126e-19	1.7814319772174387	0.24011074870446275	-0.2821099601611644	0.5222207088656272	79.91055940262706
10	4.0	perception	19	diff_vonmises	-0.053435108052778235	-3.0616061692497114	0.9522028338420997	384.290348934325	0.9385572359772983	385.3371744012016	0.6506362774497063	-0.475442923421447	1.1260792008711533	92.21118922028052
11	4.0	wm	19	diff_vonmises	-0.21666483119681354	-12.413980396491828	1.2506205715880452	174.96213126355013	1.233509871865573	175.94456949104733	0.17085694685106034	-0.2865468113806493	0.45740375823170965	75.99131822241685
12	5.0	ltm	19	diff_vonmises	-0.03336889170531503	-1.9118966617436517	2.004123521894068	0.9456471698202517	1.3946243812575056e-18	1.3349455589615398	0.27598890500724343	-0.203590307561891	0.47957921256913444	96.92440950380475
13	5.0	perception	19	diff_vonmises	0.037001639246100955	2.120037763867214	1.1537323492625837	176.83095920224972	1.1308495268897196	177.33418877169845	0.5692082798753546	-0.3110445466385343	0.8802528265138889	85.2743317648783
14	5.0	wm	19	diff_vonmises	0.0040056374377846204	0.22950611944465563	0.7574747706493821	132.39342981220307	0.7395290502853276	132.71918931371312	0.3583857734393021	-0.2340197565374691	0.5924055299767712	105.30657510644609
15	6.0	ltm	19	diff_vonmises	-0.2759663074734169	-15.811704706036377	2.005907004927382	1.043947324991423	1.5982253278058632e-13	1.7549861408118916	0.26019740529633006	-0.26954905192276624	0.5297464572190963	96.77813322263736
16	6.0	perception	19	diff_vonmises	0.3242918975984538	18.58055706268008	0.0003983812482390119	4827.485973649592	4.764821138572808e-31	4828.003851629378	0.223683020619319	-0.38846773897751063	0.6121507595968296	176.66612208622553
17	6.0	wm	19	diff_vonmises	-0.3221279546789021	-18.45657226628255	2.145838236461787	1.2069726756263144	0.3171169846866372	1.489330721775971	0.3321303911074512	-0.17151657657049035	0.5036469676779416	84.34768852167653
18	7.0	ltm	19	diff_vonmises	0.007415963663961028	0.4249034189673412	0.9946482796673527	272.4152268759991	0.9821381388738645	273.6052308164579	0.24267609365517728	-0.3509305457297849	0.5936066393849622	86.27658106643221
19	7.0	perception	19	diff_vonmises	-0.1473475465727034	-8.442392540223244	2.9975221852535086	1.4328396516801842	3.3621217595407455e-23	1.4765810598161302	0.7029183701570778	-0.23266832711575547	0.9355866972728333	79.36811528885966
20	7.0	wm	19	diff_vonmises	0.27487658544723703	15.749268233093826	1.3719030097202958	1.148585048421971	0.0865243139490155	1.857345821281074	0.14971365004013776	-0.24027175142615534	0.3899854014662931	108.9305162520221
0	1.0	ltm	20	diff_vonmises	0.07124531873462749	4.08205607355849	2.1150168674127654	0.48702976180603225	6.552986077224801e-20	2.867363690513825	-0.19649040496348685	-0.4525735635499307	0.25608315858644387	94.44581055761384
1	1.0	perception	20	diff_vonmises	-0.04454866210077686	-2.552450321328918	12.147534560476096	0.7866362991359332	0.04396881743337593	3.6871161628651747	0.4687698758280614	-0.5971055479452534	1.0658754237733148	38.577245110765915
2	1.0	wm	20	diff_vonmises	0.05125065427141995	2.936446187036488	6.346400029536671	0.41572141479524055	0.09969570532192368	3.184651179960337	-0.14972352642300252	-0.5171243491310228	0.36740082270802027	51.114891831948256
3	2.0	ltm	20	diff_vonmises	-0.0469010553356575	-2.687232525442705	2.8076768296618644	0.6442868598062931	4.668894526972796e-15	1.8418258741311286	0.1131020222669824	-0.291656244992811	0.4047582672597934	82.05523754183778
4	2.0	perception	20	diff_vonmises	-0.05541247799516601	-3.1749011214845577	11.976263795165547	0.9330992623410693	0.09436400640721725	2.5171700277431914	0.8349003374404862	-0.415847211873308	1.250747549313794	38.764008790592726
5	2.0	wm	20	diff_vonmises	-0.14685263907602117	-8.414036429413967	3.9855595218472026	0.8305567824612837	0.23616279081853275	2.6193686468909214	0.11660600768970142	-0.40474263107553043	0.5213486387652319	62.23315735338454
6	3.0	ltm	20	diff_vonmises	-0.01573755235231987	-0.9016953296541093	1.0833224751804937	129.43466159837402	1.066167307871075	130.0552719231202	0.19713089699045128	-0.20744226644965202	0.4045731634401033	84.11252340370584
7	3.0	perception	20	diff_vonmises	0.02603267195726084	1.4915622325996183	2.784013654593595	3.695680989417665	0.6972817118212484	4.4305098229272515	1.0603126574966932	-0.4841868375875463	1.5444994950842394	70.27143706708429
8	3.0	wm	20	diff_vonmises	-0.09603220625774136	-5.502240115898394	3.1104068911515435	0.8774341044694369	0.16829310516829116	1.9484768671432533	0.22217863533110432	-0.2838464144962621	0.5060250498273664	72.3848137813458
9	4.0	ltm	20	diff_vonmises	-0.23171862238221785	-13.276499097086736	1.5447839132984393	0.9237305623864541	0.06594614788263209	2.4143460967694117	-0.002691166844365933	-0.3407997549013314	0.3381085880569655	102.59248418597251
10	4.0	perception	20	diff_vonmises	-0.020508060064050305	-1.175025287670875	2.1325416517971747	3.2336437556892283	0.2624062526167543	4.791767812740226	0.7593245593919616	-0.5875238737766293	1.3468484331685908	84.51232901678586
11	4.0	wm	20	diff_vonmises	-0.23355544506541934	-13.381741284548077	0.8615643356116715	183.8843794380595	0.8436703603182751	185.62973677894317	0.08327694161247479	-0.4178416799553233	0.5011186215677981	88.91291121092108
12	5.0	ltm	20	diff_vonmises	0.03614359440132755	2.07087541562874	2.192204498001319	0.8274609354715003	3.278728828757687e-14	1.4868685702301259	0.21446286153678243	-0.2310170647168151	0.44547992625359756	92.82425676415795
13	5.0	perception	20	diff_vonmises	-0.003959083035304785	-0.22683874866480766	1.7038130196137609	3.573679388605956	0.459282990329171	4.592441276575711	0.5742794613747764	-0.42342697093446235	0.9977064323092387	87.4966080832015
14	5.0	wm	20	diff_vonmises	-0.0117588622029371	-0.6737331761042016	1.993137323739682	1.4318302157420078	0.14853101721049383	2.3743197320115637	0.3011172493162013	-0.3138117677194428	0.6149290170356441	90.01918298614518
15	6.0	ltm	20	diff_vonmises	-0.29058861029018	-16.649500944199158	0.52868667102034	131.97344895890686	0.5144058586547257	132.7846999955836	0.1510221690311795	-0.2808792058000442	0.4319013748312237	119.27811393636303
16	6.0	perception	20	diff_vonmises	0.24932177765640928	14.28508560041136	0.32135158135584696	7.304768643572006	1.6048944505004695e-13	7.850685496975112	0.31311653243682747	-0.4277502204357405	0.740866752872568	160.40003354158995
17	6.0	wm	20	diff_vonmises	-0.26961853826870125	-15.448004321283054	0.8120742905169387	6.684463879297924	0.5265241830725375	7.36964399105156	0.19011083737234502	-0.24507913600912146	0.4351899733814665	107.20206988631678
18	7.0	ltm	20	diff_vonmises	0.29044555411915	16.64130442936584	1.1193199310475612	91.7651181668786	1.0979941145936403	92.2522394782493	0.1905472384000788	-0.1751497513170719	0.3656969897171507	83.47953066224062
19	7.0	perception	20	diff_vonmises	-0.031370779302807274	-1.7974132540872119	1.8421480589009596	1.6109463051198238	5.547353094814873e-16	2.1195840280636995	0.4533029942129496	-0.3174848835475645	0.7707878777605142	100.8354232451701
20	7.0	wm	20	diff_vonmises	0.07970066697800804	4.56651184221755	1.737518355128988	0.6038015591695728	2.549901105286581e-21	1.4346134609246832	0.05764912669090397	-0.21947095924086968	0.2771200859317736	103.55455868123025
0	1.0	ltm	21	diff_vonmises	0.19431046599803972	11.133169616907963	2.7198526375512055	0.5142294160226248	9.879409697596858e-33	3.3411392724828195	-0.21341537084681772	-0.5303769571451185	0.31696158629830073	83.36723652528934
1	1.0	perception	21	diff_vonmises	-0.07271042449356711	-4.166000450086042	10.043476980002978	0.8438597967629035	3.9136707018655655e-15	3.6975063188021293	0.46444596833087126	-0.5884764057612102	1.0529223740920814	42.827677037325174
2	1.0	wm	21	diff_vonmises	-0.042968476742109615	-2.4619123694289184	3.3523233436768054	0.9794032875395173	0.2100404701056912	4.322463185293946	-0.15652558023018903	-0.6629268670979989	0.5064012868678098	65.26550646967462
3	2.0	ltm	21	diff_vonmises	0.012050201183232308	0.690425670082762	1.7533792068989054	1.938090994981655	0.4294174113607793	3.518809921791306	0.10096467534178954	-0.3788104892987149	0.47977516464050446	81.86734915089284
4	2.0	perception	21	diff_vonmises	-0.041752285233612574	-2.392229728912389	7.811709937478728	1.206338220285079	0.0925686866676531	2.8968440903445063	0.8172308690874873	-0.4674378199656497	1.2846686890531371	47.862662284973
5	2.0	wm	21	diff_vonmises	0.0029947927986308963	0.1715889878777226	5.065596295397188	0.7144154109513415	0.10983968105163652	2.846629747624237	0.11966588808672218	-0.4509142354654563	0.5705801235521785	57.84461642851514
6	3.0	ltm	21	diff_vonmises	-0.035433718027252696	-2.0302024954182007	1.4122349948342203	1.5268768377992723	3.0552807882759927e-16	3.0938374537598996	0.1453179794371225	-0.45455728902656656	0.599875268463689	113.26280079913747
7	3.0	perception	21	diff_vonmises	-0.02354540832305922	-1.3490525238234943	4.0799904215506695	2.331558081091934	0.13614414065448135	3.9935406398941966	1.087029952776207	-0.6037329652510339	1.690762918027241	65.29359920420515
8	3.0	wm	21	diff_vonmises	0.019443388743594293	1.1140241144401253	2.5793143074986564	0.9404237888321451	1.6571033273548723e-17	3.2308929719334833	0.050272449528683594	-0.5109670025222929	0.5612394520509765	85.64174055722572
9	4.0	ltm	21	diff_vonmises	-0.0567695866381129	-3.252657719066141	0.133861896252455	14.127176903117732	2.122825113864997e-09	16.318827670546217	-0.03824100923455731	-0.6392917242533551	0.6010507150187978	172.268011628729
10	4.0	perception	21	diff_vonmises	-0.003802126746961749	-0.2178458157747133	0.7898020856421976	508.81110355601834	0.7764630113605937	511.4224889380239	0.5149224050776411	-0.7883585266866859	1.303280931764327	97.26812051733182
11	4.0	wm	21	diff_vonmises	-0.17945330982600866	-10.281917272683842	1.878297328245374	1.386509662743165	8.856867404392617e-14	4.829283559864331	-0.0800381250421418	-0.7525165324862695	0.6724784074441277	99.87658114679208
12	5.0	ltm	21	diff_vonmises	-0.07824189873621515	-4.482930578675098	1.4522917671955162	1.5442603883313701	0.04565357622728042	2.237584431540918	0.2833523502495308	-0.30412399547000446	0.5874763457195353	109.45636781765421
13	5.0	perception	21	diff_vonmises	-0.0013697956515164524	-0.07848350962726561	0.8927878748088274	459.3069233359404	0.8818119163991422	460.08546768553197	0.7121617571970376	-0.45320688778869567	1.1653686449857332	96.32963749228693
14	5.0	wm	21	diff_vonmises	-0.0564062715188651	-3.2318412960999496	2.33766032749404	1.3205517662432789	3.70544971510786e-18	2.297398863933062	0.3823714077896576	-0.35866873351305706	0.7410401413027147	89.94429005642706
15	6.0	ltm	21	diff_vonmises	-0.11164028254161135	-6.396517013282377	0.11476442685741574	11.500622165091817	2.1180250772758126e-13	12.026002487110908	0.1322254238833107	-0.2874295711764938	0.4196549950598045	173.12035926207346
16	6.0	perception	21	diff_vonmises	-0.0034290584368593022	-0.1964705761357653	0.8677874482250945	2.5423576846073788	7.765483367353108e-21	3.138268797481979	0.3053929793746077	-0.35757297753096695	0.6629659569055746	134.2948137530293
17	6.0	wm	21	diff_vonmises	-0.07802670558961385	-4.470600919594703	0.7540511797403696	114.1898861151488	0.7346237193272837	114.92069395711478	0.21063813012194288	-0.2534111517515676	0.46404928187351047	101.32821962035568
18	7.0	ltm	21	diff_vonmises	0.32817389769455935	18.802979284256306	1.561006515187718	113.63708514980728	1.5396258124220643	114.35678774724411	0.10381309797530491	-0.22010142922723297	0.3239145272025379	67.02876053659315
19	7.0	perception	21	diff_vonmises	0.06105544108488009	3.4982190904732775	0.6920864955661487	298.82986241072035	0.6765335191928595	300.30730865691527	0.4713207472756267	-0.5515183119155402	1.022839059191167	106.19007182643654
20	7.0	wm	21	diff_vonmises	0.24315070418016455	13.931509135157413	0.00019091070825580364	3274.823050851712	3.49026858378598e-29	3276.165473753357	-0.11414508532232048	-0.313151897598118	0.19900681227579753	178.05473946197688
0	1.0	ltm	22	diff_vonmises	-0.18303973947450639	-10.487404555063348	0.9819800187515745	0.7447615115390006	2.610086146861802e-18	2.3091904726050694	-0.1155759702727987	-0.3321685150680571	0.2165925447952584	129.08117132764932
1	1.0	perception	22	diff_vonmises	-0.06258100227728354	-3.5856273081869405	12.02903656911564	0.8594390118108693	0.06491516393305416	2.981468032419696	0.6701317817982507	-0.4867894554465407	1.1569212372447915	38.73171031478145
2	1.0	wm	22	diff_vonmises	0.06887773498020118	3.9464035167861247	7.575118925830704	0.30704814170532485	3.051876009555302e-15	2.1208711944789225	-0.006350489073791432	-0.33754704708107774	0.3311965580072863	49.4066789465478
3	2.0	ltm	22	diff_vonmises	-0.0006704388067887644	-0.03841331405078304	2.5174001530293126	0.6281893926458496	1.711054679884499e-20	1.3398556727576725	0.15849661599756434	-0.21082554523277355	0.3693221612303379	86.69248809503793
4	2.0	perception	22	diff_vonmises	-0.04186112993275311	-2.3984660707955126	11.592789240065	0.9751512493143545	0.16683117025616934	2.06136292029088	0.9243725421121312	-0.35031456901815683	1.274687111130288	39.235234857048425
5	2.0	wm	22	diff_vonmises	-0.16176954472949134	-9.268712166752644	4.707848673686546	0.6657678445583619	0.32131369316269925	1.8071249206853164	0.17244169065038395	-0.2879893764176682	0.46043106706805215	57.345156287473
6	3.0	ltm	22	diff_vonmises	-0.0038874342552759657	-0.2227335759618951	1.2901813185993989	129.71005327170914	1.2772326105646739	129.95894034188242	0.2082543640983232	-0.12700922888122612	0.33526359297954933	79.57204110501172
7	3.0	perception	22	diff_vonmises	0.04373155849906226	2.5056337335257326	2.2873988767219933	6.478221366948976	1.2208214976077008	6.730068210020248	1.0448386186749197	-0.3967515549877488	1.4415901736626684	70.29723832808327
8	3.0	wm	22	diff_vonmises	-0.09845886574200681	-5.641277462662197	3.1583325002630267	0.7681711225982704	0.28162964073970587	1.2993407865857938	0.2492830896454168	-0.1811486350957512	0.430431724741168	70.7466782977234
9	4.0	ltm	22	diff_vonmises	-0.34820316968330134	-19.950572035930826	0.9205739677049531	34.32726363274302	0.8565244221450075	35.3681611996173	0.09164668255158048	-0.26430768450605013	0.3559543670576306	88.4527942353797
10	4.0	perception	22	diff_vonmises	-0.02007347897802431	-1.150125625585374	2.3044600231020067	3.0257785743477172	0.3453818400026677	4.0246886053211615	0.8210377893061971	-0.47569546919528627	1.2967332585014835	80.74241301794936
11	4.0	wm	22	diff_vonmises	-0.30924787371932827	-17.718597987512158	1.1652904201369152	155.0910745961677	1.1466537704819029	156.1417929403403	0.14928947401573822	-0.2916462829690971	0.44093575698483534	78.30565682890085
12	5.0	ltm	22	diff_vonmises	0.014969174095343226	0.8576704984597291	2.2077945677389907	0.6437162249819263	8.869500829472032e-19	0.9450346987024194	0.2020159633233178	-0.1461469981214349	0.34816296144475267	92.50543546575935
13	5.0	perception	22	diff_vonmises	0.000948419313450207	0.054340423869391974	1.5722289737298154	5.361508533485958	0.7886176015983711	5.948196022537011	0.5963752206909836	-0.3343173779858565	0.9306925986768401	84.02869843999673
14	5.0	wm	22	diff_vonmises	0.031568957696247596	1.8087680396220256	1.1934809560014454	3.5640723758489035	0.5689729649313238	3.9864638730350452	0.3117161089586835	-0.2170237662169828	0.5287398751756663	96.67025862859208
15	6.0	ltm	22	diff_vonmises	-0.3785048152665438	-21.68672844015185	0.6699458348976225	100.15577764185986	0.6512172655279991	100.75095984509957	0.19291959565679306	-0.22731256979514036	0.4202321654519334	108.18380381999609
16	6.0	perception	22	diff_vonmises	0.313745229154261	17.976277472904027	0.5462436027277211	4.351680089242511	7.457347435445393e-17	4.5888959108349745	0.3811203217089456	-0.357580598782371	0.7387009204913166	148.15583959721914
17	6.0	wm	22	diff_vonmises	-0.28815801538041363	-16.510238114163563	2.608144091854402	0.7074483991789858	1.3376153659650481e-15	0.9891214076729421	0.2699462776143796	-0.1551035962139143	0.42504987382829396	85.1305876563119
18	7.0	ltm	22	diff_vonmises	0.21962162282263134	12.583392077550814	1.1606025576331205	131.50662428937946	1.1434474058868516	131.99250361846563	0.24043617771207693	-0.1919072937800248	0.4323434714921017	82.60141154328579
19	7.0	perception	22	diff_vonmises	-0.07248704097794421	-4.153201517428055	1.860745505741051	1.4667977281943796	1.398352081990479e-20	1.6099667423482935	0.46807455891603933	-0.2387072097929274	0.7067817687089667	100.35832071893859
20	7.0	wm	22	diff_vonmises	0.08474595900222379	4.855585781616128	0.6770473090541371	14.516403233430733	0.5795833834511345	15.074445301474132	0.12236914100309937	-0.18791074825496157	0.31027988925806094	109.51052056646387
0	1.0	ltm	23	diff_vonmises	0.12191015393606665	6.984937300326799	0.04668934072274942	22.655977905579654	0.02246736816595523	25.474489194953975	-0.36989246860895175	-0.5243618624729081	0.1544693938639563	175.1775047736706
1	1.0	perception	23	diff_vonmises	0.03671444201758146	2.1035825747851926	8.940949722848107	0.8728962356536074	0.11272445289556679	4.220573058861315	0.27638900986686554	-0.6970516245770904	0.9734406344439559	44.129763262810314
2	1.0	wm	23	diff_vonmises	0.09448954357929516	5.413852055211079	5.694570339422795	0.270959943287216	0.03386853937908733	3.7991523012607633	-0.3736030592835938	-0.6061049277335231	0.23250186844992932	54.73825543225831
3	2.0	ltm	23	diff_vonmises	0.2943752690671601	16.86646051057629	0.8779812047045726	109.10083746662076	0.8580794865068362	110.31076523897812	0.03328339889544196	-0.28098339448112064	0.3142667933765626	87.18975407630799
4	2.0	perception	23	diff_vonmises	-0.02517661047382625	-1.442513522595108	8.910341953836031	1.2723091267255493	0.2709005698908579	2.974202369495397	0.882876161503438	-0.5149100412425701	1.397786202746008	43.94449942723642
5	2.0	wm	23	diff_vonmises	0.04873112128179041	2.7920875803867373	3.4467864773910306	0.8935118904639051	0.15577782326087353	3.3256649289758196	0.018046876563695746	-0.5062675475213058	0.5243144240850015	67.36794639091153
6	3.0	ltm	23	diff_vonmises	0.25791767119816955	14.777594021497986	6.5209303429704235	0.26045724534569054	5.148561527370968e-29	0.8529320051442681	0.12407363788050116	-0.13574778147801597	0.2598214193585171	53.31969307039495
7	3.0	perception	23	diff_vonmises	0.01295909165961658	0.7425012584192157	4.122961462752424	2.4558566158325155	0.4812368078662136	3.4018911207334406	1.0920717310549732	-0.4923576078819026	1.5844293389368758	61.60927778812297
8	3.0	wm	23	diff_vonmises	0.05208353633894261	2.9841668143376667	1.4057849512057776	0.8273167322027719	7.149940660188993e-17	2.474663812619372	-0.049267430643010535	-0.3731416288341512	0.32387419819114066	113.460676187815
9	4.0	ltm	23	diff_vonmises	-0.4344476286171884	-24.8920155392319	0.5196321245118521	96.48738615560866	0.5020530015211788	98.21169789363105	-0.10857524504405092	-0.3492389939773801	0.2406637489333292	107.247803207586
10	4.0	perception	23	diff_vonmises	0.04436013734813748	2.541648648668933	2.212367148022814	3.180361236958816	0.3292134630535015	5.286104067419774	0.6049823398406702	-0.6445541270224397	1.24953646686311	80.44562673526326
11	4.0	wm	23	diff_vonmises	-0.33153569263433896	-18.995595945894117	0.42406063038715064	44.63783618981845	0.3492002867787058	48.02166647941293	-0.12973189994811918	-0.7827262752381161	0.6529943752899969	127.00318045101925
12	5.0	ltm	23	diff_vonmises	-0.04478043883535293	-2.5657301500094505	0.9879657869858562	43.55458974843887	0.9402323528131563	44.15105547146759	0.19732708571783597	-0.20390908482196224	0.4012361705397982	89.16229700355973
13	5.0	perception	23	diff_vonmises	-0.047683486367760215	-2.732062521342256	0.9794774511553476	215.9241472220506	0.9540166687062442	216.90291605632345	0.7168248278975682	-0.48335405202460535	1.2001788799221735	91.66074730567783
14	5.0	wm	23	diff_vonmises	0.09392845525357182	5.38170406221307	3.3140527463984184	1.0905177873578056	9.218155131761974e-20	2.30577507826562	0.38856976098109003	-0.36597601994776335	0.7545457809288534	75.40049929313403
15	6.0	ltm	23	diff_vonmises	-0.24815090280580487	-14.217999413133718	0.4022527050584689	91.63929473994622	0.3865001345095461	92.0694686630792	0.16739390405035692	-0.22267766039896664	0.39007156444932356	134.41453678017547
16	6.0	perception	23	diff_vonmises	0.1306804038719066	7.4874356069253105	0.8344031721694954	3.2470933336666032	7.340933510154479e-14	3.83569162706298	0.39679198494330103	-0.42061737099230095	0.8174093559356019	135.5891415431958
17	6.0	wm	23	diff_vonmises	-0.2375159152190463	-13.60865950923843	1.5522865696949597	1.513288769480023	1.412213568618483e-12	2.1344169643553577	0.3295240531558136	-0.30969024863100797	0.6392143017868216	108.68666281709619
18	7.0	ltm	23	diff_vonmises	0.3315676294676711	18.99742579165506	1.0181311321341582	86.10696490846676	0.9985315265533831	86.84779312950006	0.06608391023627647	-0.1893064970074274	0.2553904072437039	82.78680252813004
19	7.0	perception	23	diff_vonmises	-0.008602574492213844	-0.49289121135075054	1.119001026891742	5.369804844269629	0.4240982921270474	6.486206339976	0.44605525771584476	-0.44255536472481666	0.8886106224406614	102.01484765085726
20	7.0	wm	23	diff_vonmises	0.4154893590877682	23.805786708324653	0.2840247769649879	111.30339482125181	0.2720228358042115	112.84559050401671	-0.07881748438800429	-0.3632615485781798	0.28444406419017554	140.45394346368528
0	1.0	ltm	24	diff_vonmises	0.06772389181230308	3.8802931730455583	1.8310011283640704	0.6658755347801285	1.462444600432822e-17	4.268205879474162	-0.3536983630755336	-0.670944052248328	0.3172456891727944	101.10668700363061
1	1.0	perception	24	diff_vonmises	-0.08784288870186685	-5.033026782854393	9.869085779704479	0.8965236348357918	1.1552558104641268e-17	4.612778876730796	0.37450421431242764	-0.7341465566525388	1.1086507709649664	43.20790004330843
2	1.0	wm	24	diff_vonmises	-0.05434444390898199	-3.113707275970102	3.7957299026467433	0.6797750059277089	0.09826228713118501	4.443548666660398	-0.27050112651210845	-0.6958896431879747	0.4253885166758663	64.354249319317
3	2.0	ltm	24	diff_vonmises	0.007752067664937589	0.444160759700759	0.7319667377929093	70.47527357816645	0.6916951135413021	72.24441896491334	0.04055464895722238	-0.4112843637212835	0.4518390126785059	96.58612131632867
4	2.0	perception	24	diff_vonmises	-0.06675898531580318	-3.8250081031713594	9.952597406406966	1.2287169143762902	0.23369933649875954	2.831214186542154	0.9644380024462968	-0.48914697607226004	1.4535849785185568	41.89339234191638
5	2.0	wm	24	diff_vonmises	0.0024127691386130923	0.1382414885819453	6.3784312996750385	0.534878806887171	6.13124971891213e-23	2.4188343614898216	0.1424840742507021	-0.3849679247256348	0.5274519989763369	53.920921374102676
6	3.0	ltm	24	diff_vonmises	-0.10535586028768654	-6.036446141454394	2.644509952679991	0.7899305595482031	9.303465785506413e-18	2.252241250636089	0.12265461109206305	-0.35602730598116406	0.4786819170732271	84.56967930107271
7	3.0	perception	24	diff_vonmises	-0.009323358973474251	-0.5341891200654982	3.9776965045929082	2.0768592464299758	0.02283470180827786	3.398199628018335	1.0384709910956715	-0.5306876831985309	1.5691586742942025	68.09805286902088
8	3.0	wm	24	diff_vonmises	0.013860452758419385	0.7941454451978908	3.1686739909659747	0.8250806113892636	0.12601689082688614	2.464691955749253	0.11423027866107777	-0.36883914859972383	0.4830694272608016	71.78766248472081
9	4.0	ltm	24	diff_vonmises	-0.18851170107495793	-10.800924860426873	0.00040516770970960186	3510.9945117715924	4.25254460437353e-32	3513.1725153132807	-0.12021393882662323	-0.5730202558421524	0.4528063170155292	178.96245655760117
10	4.0	perception	24	diff_vonmises	-0.027374353214482543	-1.568434906090228	2.037026828792265	2.798376496919679	1.4736788068613727e-16	5.012697118779166	0.6618448039746025	-0.772966650785653	1.4348114547602555	96.179265057441
11	4.0	wm	24	diff_vonmises	-0.0793501277937209	-4.546427426403938	2.2299203450641216	1.3822224070075488	0.06452833115314272	4.2546750606714	0.03968130456217733	-0.6294540516119206	0.6691353561740979	86.74813041633888
12	5.0	ltm	24	diff_vonmises	-0.07017284565891815	-4.020607892678931	1.4105965149686122	1.6755904184797723	0.04948719447455817	3.3908370676445303	0.13264057175811406	-0.471662382907405	0.604302954665519	109.41092717100648
13	5.0	perception	24	diff_vonmises	0.040101980222901665	2.297674216889362	2.411573950124358	1.822384028405895	0.018013894638437382	3.5768309035713757	0.4718908166014302	-0.5506063268477035	1.0224971434491337	87.62769170515
14	5.0	wm	24	diff_vonmises	-0.0780079084502554	-4.469523922842545	0.777730182916124	11.540545530750146	0.5032786747138372	13.04809545614387	0.22764301814852672	-0.45247212392813163	0.6801151420766584	107.3476535846012
15	6.0	ltm	24	diff_vonmises	-0.2113452964830254	-12.109193508418437	0.7590869688178902	2.1844968717218087	3.911118494206684e-14	3.7662818476529547	0.046820004752622046	-0.4578227597695131	0.5046427645221352	138.79497568892833
16	6.0	perception	24	diff_vonmises	0.25989301387347996	14.890772819885353	0.0006390694468693122	3774.8949452391253	2.1640689048421486e-31	3776.885401784958	0.06721820470590956	-0.7006775172619655	0.767895721967875	177.7751661642112
17	6.0	wm	24	diff_vonmises	-0.19031638204270132	-10.904325463246154	0.5902530584614794	171.79484149653476	0.5724816528344541	173.4874117949643	0.1360768688970495	-0.4610440783758527	0.5971209472729022	110.30114747126798
18	7.0	ltm	24	diff_vonmises	0.15795692780975007	9.050265308351301	0.8654691333629713	162.00417117626768	0.8506323101633813	163.7753133207334	-0.09637137869470536	-0.36355388481724304	0.2671825061225377	82.30195888763313
19	7.0	perception	24	diff_vonmises	-0.04796364395691946	-2.7481143687996408	2.891969373774475	1.5366975050526486	7.58814472165036e-20	3.6904340039596364	0.39820695485640245	-0.5843185033285683	0.9825254581849707	80.83086794624006
20	7.0	wm	24	diff_vonmises	1.1208331707598345	64.21901022280443	0.1124983829658583	95.15335905451981	0.10163996761139829	97.07863283566576	-0.165580793794728	-0.43128598128786244	0.26570518749313443	139.07802181156055
0	1.0	ltm	25	diff_vonmises	-0.06903917809237112	-3.955653525744919	0.20193653564780278	42.658092717624804	0.1803708818552671	44.719067794438416	-0.23073993629557954	-0.4029081837299504	0.17216824743437087	151.00430272327617
1	1.0	perception	25	diff_vonmises	-0.029526872171133523	-1.6917651576282327	9.48749037197712	0.9588401818572297	0.1454341770872216	3.5573669116735385	0.5103871900507168	-0.5955893904498779	1.1059765805005948	42.90405901196709
2	1.0	wm	25	diff_vonmises	-0.0104975741741419	-0.6014666953038615	9.741883628307145	0.20326668142467127	0.0021578359649876418	2.7772609521264062	-0.19333728540025488	-0.44210220956943047	0.2487649241691756	43.40535994978595
3	2.0	ltm	25	diff_vonmises	0.1714058674175526	9.820832786804715	0.8381801762362184	33.06425234831502	0.7836208351278459	33.896269063157874	0.09441811712986237	-0.2208800156486923	0.3152981327785547	93.58585738899868
4	2.0	perception	25	diff_vonmises	-0.027238815266284064	-1.5606691536945925	9.456523449665665	1.1392102450826804	0.2674363369679722	2.4385080473171548	0.8796163696214605	-0.4235988463518255	1.303215215973286	42.84697448456359
5	2.0	wm	25	diff_vonmises	-0.07392711258431502	-4.235711542669726	3.8192969676554234	0.8474450401942583	0.3065295234903918	2.6325100221477844	0.07913536527224652	-0.40569338530438004	0.48482875057662655	61.84833720089648
6	3.0	ltm	25	diff_vonmises	0.18971662268601053	10.86996178338429	2.3379306632501193	0.9259421466009545	0.6532978203521581	1.2937308781901955	0.16789514321685267	-0.1349572534198633	0.302852396636716	73.47083549388228
7	3.0	perception	25	diff_vonmises	-0.0030474436311531488	-0.17460565836909778	3.7645505620029596	2.8162996533702773	0.6851712077624063	3.63056627138483	1.0716372091689825	-0.4882745617200065	1.5599117708889891	62.23665130835579
8	3.0	wm	25	diff_vonmises	-0.0014483410803208215	-0.08298383119780124	2.730991844230498	0.5213719140812592	1.906919413269228e-17	1.8029292596244335	0.03658662526276346	-0.2855716627690811	0.32215828803184454	83.21230897549441
9	4.0	ltm	25	diff_vonmises	-0.34019143586442196	-19.491533501526806	0.7545287571512466	135.5204039012575	0.7375623380805815	136.83725658832248	0.05472090695063514	-0.31465463466889254	0.3693755416195277	95.12282502975121
10	4.0	perception	25	diff_vonmises	0.005919017427241012	0.33913471744529283	1.3500327717848215	9.55082029693224	0.7470150142644727	11.10492243117588	0.6229546692984518	-0.5631999826600482	1.1861546519585	86.48374966439977
11	4.0	wm	25	diff_vonmises	-0.2133782071736595	-12.225670711118795	0.8464109687631021	248.15795285406472	0.8304784143751308	250.42415127441745	0.05334575204987857	-0.5226713330970192	0.5760170851468978	88.60372730359093
12	5.0	ltm	25	diff_vonmises	-0.05058884317863523	-2.898527204584983	1.1053226591636682	78.78095699858966	1.0807966480236744	79.0049035617773	0.2821125797154309	-0.15011685550687304	0.43222943522230395	87.4457771355899
13	5.0	perception	25	diff_vonmises	-0.02274838914970632	-1.3033866889993677	1.0624547995017903	368.11946109437974	1.0494042842319697	368.64018676772565	0.7211138903887218	-0.3763394345251001	1.0974533249138219	89.18465785014814
14	5.0	wm	25	diff_vonmises	0.07731439800745181	4.42978870142165	3.056502968916274	1.0844528430845515	2.4157071262685985e-19	1.638999729328122	0.4569373283905804	-0.25926552514172757	0.716202853532308	78.58613605321642
15	6.0	ltm	25	diff_vonmises	-0.29346531904275924	-16.81432421461029	0.640700339765247	131.68601872631808	0.6278883471765891	131.93508581734937	0.25283185570580713	-0.18730988001924764	0.4401417357250548	113.87283380462254
16	6.0	perception	25	diff_vonmises	0.15019601066334665	8.605597510711672	0.8602418032047083	2.7823848325777667	3.497816851911793e-17	3.0218121683286197	0.39589795107825226	-0.32399452040388294	0.7198924714821352	134.37098908793678
17	6.0	wm	25	diff_vonmises	-0.18836450998526358	-10.792491432205455	2.381115201364197	1.0898119783013314	1.3249719059720352e-10	1.1773987585568342	0.43670257571923043	-0.18205485239709251	0.618757428116323	89.10556637495192
18	7.0	ltm	25	diff_vonmises	0.1955070123678125	11.201726673887645	1.4202329533449465	127.78435348697413	1.4032305919875931	128.23233548431142	0.20050115411851976	-0.17344414551150145	0.3739452996300212	73.90456884474821
19	7.0	perception	25	diff_vonmises	-0.008860620481074551	-0.507676157432749	0.8247145875716374	8.687063752778924	0.46030233522161723	9.254714908592135	0.46368326138686955	-0.36745230779067495	0.8311355691775445	113.16784012692693
20	7.0	wm	25	diff_vonmises	0.14089078683981868	8.072447458198932	0.9465149032657639	1.239255518928661	6.681434693428031e-16	2.1921946273960695	0.06200204656440356	-0.2870108040399474	0.34901285060435094	130.64093178895297
0	1.0	ltm	26	diff_vonmises	-0.24731205607723025	-14.169937035928037	0.0890146351654723	42.535817566565576	0.07546786874707243	43.90146564487566	-0.13873717590220025	-0.289053377978826	0.15031620207662577	168.07531099898102
1	1.0	perception	26	diff_vonmises	-0.043098195405622625	-2.4693447013722913	10.981823266057797	0.8467700855872351	0.08416598793106077	2.739425587059278	0.6323185532550668	-0.44950700065726856	1.0818255539123354	40.4335401481502
2	1.0	wm	26	diff_vonmises	0.06663413546412147	3.8178547335971635	7.75461873255676	0.21153522981488945	4.53282498650306e-30	1.8113110517200965	-0.057324848081828944	-0.2882790648978643	0.23095421681603537	48.82413983147373
3	2.0	ltm	26	diff_vonmises	0.29392626384746356	16.840734406508332	0.4708776701971399	71.37669065067892	0.4528137052177943	72.00989357567771	0.0887790805155646	-0.2111888406279565	0.2999679211435211	124.70954096100613
4	2.0	perception	26	diff_vonmises	-0.018590951818778463	-1.0651830763470675	8.913519750836494	1.2798643146394504	0.3713229830113105	2.350645600969822	0.9776931438264163	-0.4178919491862301	1.3955850930126463	43.76451123787666
5	2.0	wm	26	diff_vonmises	-0.09415993693579637	-5.394966985639125	5.399647243793003	0.5776825908161609	0.32139145873925185	1.8916733107197603	0.11708733838659596	-0.3132645014704516	0.43035183985704756	53.481817412292656
6	3.0	ltm	26	diff_vonmises	0.16388342108624274	9.389828360406991	1.5661437953980508	96.75931246857684	1.5515199261552948	96.86108848057408	0.19944480917582297	-0.0902688607654305	0.28971366994125347	73.57789678172225
7	3.0	perception	26	diff_vonmises	0.01930484422520184	1.1060860982615652	2.4910846477771647	6.0701564237354315	1.230523171951101	6.457853827095489	1.0852635203343621	-0.4434211280236624	1.5286846483580245	67.85554647300202
8	3.0	wm	26	diff_vonmises	-0.11785483143910376	-6.752584436686372	4.302574405504281	0.38659954128169094	0.010238272658310081	1.1262140450768108	0.12816138616562966	-0.177839939616246	0.30600132578187567	65.53642421237865
9	4.0	ltm	26	diff_vonmises	-0.3543746740506035	-20.304173189423796	1.5064919664144492	1.9622576098960325	0.5665388168898206	3.0701592367437476	0.05628410170542153	-0.26430026731908896	0.3205843690245105	82.10402025035908
10	4.0	perception	26	diff_vonmises	-0.008045166937764824	-0.46095411101211303	2.008584153146351	3.722941575038495	0.49443301565082987	4.9893058229496825	0.6996192404890775	-0.5045180406306075	1.204137281119685	81.341544086211
11	4.0	wm	26	diff_vonmises	-0.36699705509106206	-21.02738235044802	1.1821325203438025	181.27901277195886	1.1624233765660172	182.85424572156032	0.07637213044206703	-0.3939776707838547	0.47034980122592174	75.23515635309033
12	5.0	ltm	26	diff_vonmises	-0.08180791495437274	-4.68724825765073	1.5970536101809079	1.8506448415580974	0.8881222251716038	2.0299779488705263	0.18217318517717374	-0.10161364532180744	0.2837868304989812	81.73806876454753
13	5.0	perception	26	diff_vonmises	-0.00996469305748307	-0.5709348563370922	1.1517514612040778	235.14360903706458	1.1324287169647023	235.5879870144646	0.683191791059798	-0.33872785418697404	1.021919645246772	85.92270023283268
14	5.0	wm	26	diff_vonmises	0.10572877588318655	6.057812631191152	2.877152816628513	0.8435967251674518	0.07051724778620874	1.3342770999026248	0.3118717858212992	-0.19791982449386064	0.5097916103151598	78.7081696633119
15	6.0	ltm	26	diff_vonmises	-0.426738420535451	-24.450310452760203	0.7376324132745199	139.61659563326313	0.7257349202410418	140.03761322080132	0.19507842698851618	-0.18092062843404655	0.37599905542256273	103.97673611206687
16	6.0	perception	26	diff_vonmises	0.19676791428107096	11.273971031897323	1.1711106044849842	2.1911088139196693	1.5887082288980024e-16	2.5644345437416156	0.4108595867171041	-0.3294228380015653	0.7402824247186695	121.51582632804494
17	6.0	wm	26	diff_vonmises	-0.12581895487447775	-7.208895097054532	3.5002931488102553	0.6513338119526433	1.0391660172124399e-15	0.9681640435415327	0.31119143206256067	-0.15366404219702168	0.46485547425958235	73.31414384666616
18	7.0	ltm	26	diff_vonmises	0.17740356925643894	10.164475788950755	1.6318446953147574	124.8512771744865	1.6146241925684122	125.25876373138348	0.18165311285059005	-0.16408249062798674	0.3457356034785768	68.56481854712627
19	7.0	perception	26	diff_vonmises	0.004700324966710538	0.26930878293248295	1.1000693290953671	2.2628297814720706	8.998662954783547e-13	2.754001022514228	0.377537129529136	-0.34792445554831597	0.725461585077452	124.52461372077168
20	7.0	wm	26	diff_vonmises	-0.1527274170974871	-8.75063641562018	0.0004669392798175	1758.0283501457052	1.2998482608308265e-22	1758.7868892550673	0.009937860005550192	-0.25135785613127837	0.26129571613682856	179.30714515034822
0	1.0	ltm	27	diff_vonmises	-0.3593309946842051	-20.58814944364277	0.0013581110244709272	328.84380171964034	5.657846254975435e-16	330.2359970274248	-0.15047286624896117	-0.29262840171390536	0.1421555354649442	176.26842097211363
1	1.0	perception	27	diff_vonmises	-0.046873481466258596	-2.685652659101303	10.491627547217517	0.8299457339363387	6.135045299066524e-15	2.6307137824822457	0.6402276381214262	-0.4186911015252764	1.0589187396467026	41.89609446625175
2	1.0	wm	27	diff_vonmises	0.22623760671071233	12.962460031664408	6.49826981114337	0.18542522453163435	0.013166256801591105	1.7743757392022004	-0.10148587368349446	-0.2822289401879694	0.18074306650447494	52.75237229755166
3	2.0	ltm	27	diff_vonmises	0.4425578173426653	25.356695124256312	0.27031047854940626	106.17916600401928	0.25937134182138616	106.95220652164944	0.04884385217998144	-0.2510380260872367	0.2998818782672181	144.7577268226343
4	2.0	perception	27	diff_vonmises	-0.027339878528652755	-1.5664596520921419	8.760428942870469	1.4217719751495668	0.443612466125926	2.459091310989017	1.0721199012683056	-0.444849948013795	1.5169698492821007	43.90353672876404
5	2.0	wm	27	diff_vonmises	-0.06808221415540697	-3.90082353101065	7.764815499094535	0.38716426435702456	0.2033897441541002	1.7639322200818317	0.08247783218604265	-0.2989099954945865	0.3813878276806292	46.22976657875688
6	3.0	ltm	27	diff_vonmises	0.10563425222008209	6.05239682423115	1.6202548275348296	86.07631088516659	1.6041901943834334	86.21363775208783	0.17416337297156304	-0.09127045330540895	0.265433826276972	71.50035244738737
7	3.0	perception	27	diff_vonmises	0.03664806268958939	2.099779319444332	1.6088562828885438	332.8908841284961	1.5893475766100709	333.1282738524965	1.0056673554751399	-0.38839936764811966	1.3940667231232595	73.5087720338312
8	3.0	wm	27	diff_vonmises	-0.042720957359213885	-2.4477305534413105	2.0579826644309387	1.8324127344518868	1.04807790910116	2.431603213213157	0.10876096781875122	-0.18345922873079515	0.29222019654954634	68.25676867770693
9	4.0	ltm	27	diff_vonmises	-0.1307611672074776	-7.492063005192927	12.879570606508297	0.16773193531685135	2.5208084496498065e-14	1.2774447905025006	0.03430479169661446	-0.20331165293391243	0.2376164446305269	37.78399080830266
10	4.0	perception	27	diff_vonmises	-0.007900738941526776	-0.45267899638414155	1.93258587340704	3.8930471473776604	0.5444837072739552	5.193838600698064	0.6421742791515364	-0.49580719512195714	1.1379814742734935	81.20618012765257
11	4.0	wm	27	diff_vonmises	-0.3908911632752664	-22.396413904631927	1.2168406402827283	129.82297065786943	1.1923667788173296	131.26611770955546	0.041361356129904436	-0.3558290546286642	0.39719041075856865	73.47647342281124
12	5.0	ltm	27	diff_vonmises	-0.15166176509874488	-8.68957905366257	5.0570436136358605	0.32804258147489584	0.3412159040361744	0.9282660212986396	0.08426474482518384	-0.15104626473142505	0.23531100955660889	55.2476336384548
13	5.0	perception	27	diff_vonmises	-0.0005534325464738979	-0.03170934915813214	2.3595294542581255	2.230499015638363	0.3447446297457232	3.23662977254964	0.5644329207828306	-0.39231822243733244	0.956751143220163	79.3061062109467
14	5.0	wm	27	diff_vonmises	0.196912877966823	11.282276839273576	1.7161326483423354	1.460748943510305	0.4020357638051354	2.5167489883208014	0.11138105270821641	-0.2676796791740881	0.3790607318823045	84.37378936023694
15	6.0	ltm	27	diff_vonmises	-0.4331383087163692	-24.816997034882473	0.7435765799101723	91.3836505205537	0.7214756332633673	92.40879116855021	0.08948433811679024	-0.2654092462666231	0.35489358438341334	97.86669289422238
16	6.0	perception	27	diff_vonmises	0.29278009829001267	16.775063957443137	0.8646950468633334	2.8798558782677093	2.7303848673711102e-14	4.039170195382674	0.2671558973939737	-0.4814227742089132	0.7485786716028869	133.52379138115498
17	6.0	wm	27	diff_vonmises	-0.1960379468676009	-11.232146979923408	3.5591043182679294	0.5505780993333845	2.265997940238953e-16	1.601022848050396	0.14214859629425175	-0.2544890583691809	0.39663765466343265	72.68856982213248
18	7.0	ltm	27	diff_vonmises	0.06812491342348248	3.9032700188596743	1.2964881774458457	119.01885246919191	1.277333516328146	119.88950934250619	0.07286657226228499	-0.23295069941505275	0.30581727167733774	72.64633703596539
19	7.0	perception	27	diff_vonmises	-0.13466249074398406	-7.7155923783498	2.319348920636421	1.292503539404223	3.464933197154277e-24	1.9777307621071443	0.4139427601202491	-0.30771840880928475	0.7216611689295338	90.28309112629393
20	7.0	wm	27	diff_vonmises	0.43144238861201606	24.719827970511652	2.551466208202399	0.4645219986499491	0.12713074548332262	1.5816325055691167	-0.007643072781497118	-0.23147359052133126	0.22383051773983415	77.860970728528
0	1.0	ltm	28	diff_vonmises	0.28366634393646406	16.252884297465823	0.8982689261856867	204.81133397938805	0.8777916193433645	207.6394654288378	-0.10153398456597529	-0.599193222679677	0.4976592381137017	82.3960993052838
1	1.0	perception	28	diff_vonmises	-0.11923814690440782	-6.83184257458347	8.797442902307832	1.129780228079097	7.135538715862762e-17	3.591484092867963	0.7451159551337503	-0.571602416343731	1.3167183714774813	45.796263024031276
2	1.0	wm	28	diff_vonmises	0.11882571485145191	6.80821195861318	0.749773091479947	140.85236947269513	0.7256031818937997	144.13638921283916	-0.30081192911867305	-0.6248973651029033	0.32408543598423023	84.15556364350786
3	2.0	ltm	28	diff_vonmises	-0.13525454866416617	-7.749514798403528	1.088240915969794	222.49899736202622	1.0723074061714928	224.0416924529756	0.11707902337059295	-0.3912936412206065	0.5083726645911995	79.44299302972959
4	2.0	perception	28	diff_vonmises	-0.05852424494579943	-3.3531922345841467	7.846725972099486	1.3008221094767651	0.1761880765371924	2.586954010731492	0.9415454424071078	-0.42588918169020856	1.3674346240973163	47.37096870304475
5	2.0	wm	28	diff_vonmises	-0.011330080576317429	-0.6491657985661401	5.905218654760992	0.5124984960725453	0.14116699591679316	2.3764076315822154	0.051892359389716536	-0.3850025461513652	0.43689490554108174	53.09011600546208
6	3.0	ltm	28	diff_vonmises	0.040030403924237276	2.2935731970627242	0.9627525389623889	224.79656214460454	0.947315894575215	226.2070390901738	0.19086003620482472	-0.38178277671261185	0.5726428129174366	86.43130392074872
7	3.0	perception	28	diff_vonmises	-0.055924960247384706	-3.204264191612048	2.2666801520453284	2.9784770304647155	0.2679695694937849	4.340089401933756	0.7694576283399651	-0.5402573594655538	1.3097149878055188	82.43670255379499
8	3.0	wm	28	diff_vonmises	0.06867237414885041	3.9346372078724277	2.348338143554232	1.5917751372672335	0.5741967911737763	3.3121556162790435	0.04069490008246335	-0.4073675007042168	0.44806240078668014	69.22637084132995
9	4.0	ltm	28	diff_vonmises	0.15094620248017615	8.648580335641253	2.0159185676111973	0.9471432292217209	7.580702889959966e-10	2.739703160397086	0.05490768665667983	-0.42732643800248593	0.48223412465916576	96.61859243316445
10	4.0	perception	28	diff_vonmises	-0.016801161629025438	-0.9626356522603005	0.7514042317348714	480.99147610030684	0.740146517693306	483.32780043447457	0.3509072570435876	-0.6662601620001283	1.0171674190437159	98.75276170372663
11	4.0	wm	28	diff_vonmises	-0.11087894926408653	-6.352895829677344	0.8027777282896538	106.89296715109093	0.7671788117129703	109.36341782641482	-0.007990153089650676	-0.5454984431012075	0.5375082900115569	90.2307691422312
12	5.0	ltm	28	diff_vonmises	0.04698461932772115	2.692020389507217	0.90235432964387	126.66148454868262	0.8740778719272952	128.24531378751854	0.17916099344621728	-0.41678088934559554	0.5959418827918128	89.20568069648263
13	5.0	perception	28	diff_vonmises	0.01344492704354966	0.770337575456699	0.8834116979482727	166.44105749550593	0.8531722505441397	167.95993462857155	0.48321023183568457	-0.5219814139441485	1.005191645779833	93.9647713473
14	5.0	wm	28	diff_vonmises	-0.02284624570987759	-1.3089934568948491	0.7480929095624576	23.061832382774007	0.6071228491438384	24.60300363385169	0.20734326347748855	-0.4403869370405853	0.6477302005180738	103.51000021582321
15	6.0	ltm	28	diff_vonmises	-0.036250611632747946	-2.0770070513243035	1.997533033654984	1.0810633422832443	0.023646945594806946	2.702791228412031	0.11689360371069707	-0.4097935594988797	0.5266871632095768	95.25380818780584
16	6.0	perception	28	diff_vonmises	0.1585188904792936	9.082463397560051	0.00015497604381402083	11349.875093557666	3.7990468404763995e-29	11351.682704959136	-0.0077327558885826875	-0.567626131130055	0.5598933752414723	179.10644321924886
17	6.0	wm	28	diff_vonmises	-0.33487154710675493	-19.18672632823339	0.5881605812477392	236.4739054324772	0.5761003511136336	238.05205852501567	0.1268402803385129	-0.4296549520231139	0.5564952323616268	110.22280158618968
18	7.0	ltm	28	diff_vonmises	-0.14366864475805646	-8.231606993000954	0.7198296500765358	167.60893513036595	0.7032059664675974	169.7166021434599	-0.06972642188127054	-0.44214734280830115	0.3724209209270306	92.78041962978993
19	7.0	perception	28	diff_vonmises	-0.10716933519281997	-6.140350599771427	3.776313149884328	1.676914002669138	0.04081519577778513	3.0106376939531314	0.7503602326412451	-0.4650124256847389	1.2153726583259838	69.42298441480835
20	7.0	wm	28	diff_vonmises	1.2037710633352763	68.97100142908664	0.0005079662804802407	2311.1944346741398	2.86679761288273e-25	2313.1838254775967	-0.12974836959574532	-0.5034469340791361	0.3736985644833908	141.59903735632903
0	1.0	ltm	29	diff_vonmises	-0.08744691819574987	-5.010339344042231	1.3666505960919029	0.7122185157045666	7.762155541651348e-24	2.302437399341623	-0.07478428415728361	-0.3474851250785986	0.27270084092131497	114.75329033060788
1	1.0	perception	29	diff_vonmises	-0.1095085385476421	-6.274377079425578	11.862016760953397	0.9413635541305586	4.0160544530855886e-16	2.799013949968566	0.8336055471711785	-0.44547690585701794	1.2790824530281966	39.37444430336379
2	1.0	wm	29	diff_vonmises	0.03915146240306096	2.2432135574605128	4.868533746820847	0.4708924849068398	5.840609030845725e-19	2.241916188526358	0.04573266554424904	-0.35678826966005023	0.40252093520429927	61.89955281779737
3	2.0	ltm	29	diff_vonmises	-0.047253496041323714	-2.707425890405992	2.3368928541151535	0.8410446881755694	0.08779546485736785	1.685010088051723	0.18408018046870256	-0.2427555740752617	0.4268357545439643	85.46120929891009
4	2.0	perception	29	diff_vonmises	-0.043452868193422665	-2.4896659552213727	9.439932153336894	1.1524806768294225	0.215561509645834	2.040188577255013	0.9942835042550895	-0.34590425061329694	1.3401877548683865	43.270441759106234
5	2.0	wm	29	diff_vonmises	-0.08324166227039781	-4.769395927747176	7.505664392641002	0.44478352293889345	0.14733789845921308	1.448287301084384	0.21179785356371011	-0.23791334687547158	0.44971120043918167	48.04966676964733
6	3.0	ltm	29	diff_vonmises	-0.049430804988657	-2.832176503784261	1.0528343788617973	90.14873216879359	1.0273779207712124	90.70412549305635	0.23983980588481657	-0.20851825062178442	0.448358056506601	86.6385970490085
7	3.0	perception	29	diff_vonmises	0.027345704147794178	1.566793435481996	2.8749353022338315	3.007280891266734	0.5671567376914305	3.4495959415487873	1.0274427221389026	-0.399328694774442	1.4267714169133447	71.51818166346936
8	3.0	wm	29	diff_vonmises	-0.04838994442309596	-2.7725395863160136	2.701161189614819	1.1254136404921986	0.5233882100829405	1.7859143914643336	0.2454463441086538	-0.21945462342012956	0.46490096752878335	71.02524404537829
9	4.0	ltm	29	diff_vonmises	-0.23049303458832412	-13.206278089073876	2.67314120068461	0.7509315540788736	1.0085469511875512e-19	1.9522839183160294	0.14950794644322823	-0.3085222100022447	0.45803015644547296	84.0949250478422
10	4.0	perception	29	diff_vonmises	-0.048550622307191045	-2.7817457509357544	2.0052703865750865	3.221408390132098	0.26652398458342647	4.390186159619667	0.7683635474754138	-0.518647142958212	1.2870106904336258	87.19024187678087
11	4.0	wm	29	diff_vonmises	-0.2657914535849021	-15.228728521062203	1.1953670926865159	154.3886223028278	1.1752795628746193	155.54797051139852	0.13984884292089816	-0.3156928423296108	0.455541685250509	76.80373295747603
12	5.0	ltm	29	diff_vonmises	-0.06070883111213665	-3.478359801897934	1.4751951586884715	0.9978725707064279	8.043743045005005e-16	1.5501998397792809	0.18114629008952016	-0.22433390576264198	0.4054801958521621	111.22972528790737
13	5.0	perception	29	diff_vonmises	0.03524046721420427	2.0191300394430542	1.847202656423775	3.097315576138135	0.540728610245217	3.7435164214784793	0.5704480225514763	-0.33352655181635055	0.9039745743678269	84.02944381194058
14	5.0	wm	29	diff_vonmises	-0.03940287429729223	-2.2576183979193543	0.731810160765472	148.99349652412803	0.7163172520769827	149.53207870676155	0.28543348159190174	-0.24939850475474223	0.534831986346644	104.98494932188396
15	6.0	ltm	29	diff_vonmises	-0.3666288426406572	-21.00628533107565	1.441896354384289	1.1204935058553136	1.3473471930820178e-16	1.9600211186584464	0.1619405819116767	-0.28544618025598895	0.44738676216766565	111.79195271213369
16	6.0	perception	29	diff_vonmises	0.28415532802647486	16.280901022072484	0.45978567381213004	4.817278604678906	2.798011501952481e-15	5.478527955479992	0.28057714018398117	-0.41243485031994787	0.693011990503929	152.79655345268282
17	6.0	wm	29	diff_vonmises	-0.23521164464600777	-13.476634530547132	2.7657600047396063	0.6572958496524107	1.908939642046731e-16	1.2397196957085876	0.21352813631132173	-0.1956803112611243	0.409208447572446	82.66655281039334
18	7.0	ltm	29	diff_vonmises	0.1519246341632295	8.70464034162209	1.1860880136064758	200.09425991956542	1.1716385875363682	201.07944878269328	0.16735712296264182	-0.28306730347560816	0.45042442643825	78.04589639000184
19	7.0	perception	29	diff_vonmises	-0.09651663162134512	-5.529995644721979	2.1306649016409076	1.5517525301238804	6.96278147590384e-22	2.036953975480076	0.5073955961001043	-0.31246129757239627	0.8198568936725006	94.11436813620722
20	7.0	wm	29	diff_vonmises	0.17139842684334447	9.820406473305436	0.8790371211678433	0.976455993858253	7.608088114525494e-19	1.744974059033479	0.03350162580481414	-0.22407327425770418	0.2575749000625183	133.46730443189867
0	1.0	ltm	30	diff_vonmises	0.14751768213264813	8.45214058975317	5.205533014450898	0.40025724487694897	1.1612499299108702e-23	2.548097381815735	-0.05100113128946482	-0.4055316195074001	0.35453048821793526	59.82143992021139
1	1.0	perception	30	diff_vonmises	-0.09009399157314216	-5.1620054766282495	9.022280434532776	1.119661485613755	0.05909885775248293	3.286844736730142	0.7675499444287519	-0.5298401666166637	1.2973901110454156	44.72388053913846
2	1.0	wm	30	diff_vonmises	0.20160659033367678	11.55120674814266	0.7792957757045732	15.900991358750005	0.5976730826778304	18.534691584888908	-0.14848346285720737	-0.5290624035287632	0.38057894067155584	92.29365914588737
3	2.0	ltm	30	diff_vonmises	-0.0031377487173031675	-0.17977975867405915	1.2797314448322816	104.12796267196369	1.2511874380141825	105.02672589390421	0.19420041205637517	-0.27500734134748406	0.46920775340385923	75.91968188581436
4	2.0	perception	30	diff_vonmises	-0.03178976886431978	-1.8214195876219155	8.42818267234504	1.1545150005919618	0.17286286871894743	2.0069210910374617	0.9391977272600318	-0.3314868624297532	1.2706845896897851	45.89202660075469
5	2.0	wm	30	diff_vonmises	-0.016929094593952455	-0.9699656712112138	6.128938878281164	0.4834518482835514	0.14200760420883476	1.761118243424954	0.14543873907380683	-0.2846332243887583	0.43007196346256515	52.67456438435889
6	3.0	ltm	30	diff_vonmises	0.052967797298452926	3.0348312353057962	2.104390369131164	0.8356296574057739	0.16439262757111803	1.5298559477929659	0.15945981381293262	-0.20390791523975052	0.3633677290526831	86.70804083598753
7	3.0	perception	30	diff_vonmises	0.008012120197889015	0.4590606722905625	3.9851789035598677	1.9031535885216138	0.2934720733777703	2.5859159923137707	0.9198689410280674	-0.37581763026277	1.2956865712908374	64.59470682098112
8	3.0	wm	30	diff_vonmises	0.10315790384668139	5.910512513831203	3.5645098905845938	0.5422426408834852	0.015873072532179008	1.5933265106928576	0.1336616640055922	-0.24987536178026934	0.3835370257858616	71.81864142781848
9	4.0	ltm	30	diff_vonmises	-0.2617387267449803	-14.996524377615293	2.0538915746479534	0.9690633365619166	1.8469762249942656e-19	2.1650277376098983	0.16344055995586776	-0.3362209648974141	0.49966152485328186	95.70783407620416
10	4.0	perception	30	diff_vonmises	0.006211587805167593	0.3558977653110334	0.985879611934404	433.7991663990045	0.9727591128041797	435.26089075776247	0.5865632865812813	-0.536841623712121	1.1234049102934023	89.12230570778169
11	4.0	wm	30	diff_vonmises	-0.1652554252697823	-9.468438409598098	0.8748647948262734	186.33435901537715	0.8552554376203471	188.11138850259655	0.138533302752343	-0.445014566180717	0.58354786893306	89.368847871454
12	5.0	ltm	30	diff_vonmises	-0.04822721683659424	-2.763215982399115	1.8939730615233616	1.1482671266706619	0.018218749143361655	1.6043614407594813	0.3131235128904793	-0.23773393886940264	0.5508574517598819	98.73072074193725
13	5.0	perception	30	diff_vonmises	-0.0036281853161066204	-0.2078797059042478	1.0785061543291676	255.8620131690193	1.0614852467364075	256.3026775153798	0.66247976097074	-0.3363493243933888	0.9988290853641288	88.75170203487144
14	5.0	wm	30	diff_vonmises	0.028186022030084995	1.6149401035866309	1.8598718167508206	1.4992447588317468	7.048800993957843e-18	1.9557402512660604	0.4288280749902776	-0.2933242132607457	0.7221522882510233	100.38933294763427
15	6.0	ltm	30	diff_vonmises	-0.2115937622755906	-12.123429549685795	0.9508339894873395	1.8548060956253094	0.05302352020000332	2.226177066818336	0.24318153043162644	-0.24371511898258136	0.4868966494142078	127.42338822047903
16	6.0	perception	30	diff_vonmises	0.20355038980259538	11.662578253931466	0.23474878118998002	8.714145407342524	8.871566771903708e-11	9.017605704581685	0.2947416538626373	-0.35342905129243873	0.648170705155076	165.56082000797363
17	6.0	wm	30	diff_vonmises	-0.3295057399605974	-18.879288225077428	0.9081448548185579	38.77060412948103	0.8501088139643387	38.907751381069055	0.3859584494226844	-0.1874758187521568	0.5734342681748412	98.8324417270304
18	7.0	ltm	30	diff_vonmises	0.022683056857788323	1.2996434244065498	0.7618975309177135	251.09197872901365	0.7502783010262052	252.46423361474262	0.1533517101839692	-0.36747371480409896	0.5208254249880682	97.02496495185275
19	7.0	perception	30	diff_vonmises	-0.09794912176989655	-5.612071284428044	2.7910301843246597	1.7195880477012806	1.4866772621595703e-16	1.970388684105976	0.7669068435678976	-0.3095286964520139	1.0764355400199115	82.30186790634949
20	7.0	wm	30	diff_vonmises	0.36166887616807286	20.722100185670175	0.4306201035861864	148.8685314176698	0.41806746723940497	149.95176774092104	0.09377150677966739	-0.333408784071084	0.4271802908507514	127.502993783156
0	1.0	ltm	31	diff_vonmises	0.002542620138651662	0.14568140284970843	0.3137636374637048	56.12165779480299	0.2843772541645324	59.41917400687705	-0.3885640699991324	-0.6055496588741027	0.21698558887497033	127.5104453684423
1	1.0	perception	31	diff_vonmises	-0.03907865192088434	-2.2390418241274803	8.779444004475211	0.910749630799592	0.018802344938296644	4.451699562587811	0.33838987493321493	-0.7103216257348512	1.048711500668066	45.546411851461954
2	1.0	wm	31	diff_vonmises	0.021737497071089476	1.2454668393514154	5.4334685939250775	0.30996418568344775	3.0683014667634216e-15	3.9519385881576468	-0.3480659303664074	-0.6289652012667116	0.28089927090030425	58.51878619110954
3	2.0	ltm	31	diff_vonmises	0.17663403044304526	10.120384462771792	0.7712108256102496	135.8463691307145	0.7534471674659802	137.3111728320782	0.028999548079099213	-0.33656986927255517	0.3655694173516544	92.96965432599279
4	2.0	perception	31	diff_vonmises	-0.049070200240089665	-2.8115153736189766	9.013629923646196	1.3691377461428087	0.33850034795355205	2.877768674957109	0.9912789156569358	-0.509544483664028	1.5008233993209639	43.505854103812084
5	2.0	wm	31	diff_vonmises	0.039283747045471426	2.25079290916503	6.3651067588061	0.514392706317378	3.992103290344204e-16	2.553568809906062	0.10026177250979945	-0.406411598519649	0.5066733710294484	53.98122037694529
6	3.0	ltm	31	diff_vonmises	0.06565323030460644	3.7616530078543455	3.5830911925513926	0.4603859046494926	0.05776017349426527	1.432329642798934	0.0918541598936905	-0.22073009779943276	0.31258425769312326	69.97384081029458
7	3.0	perception	31	diff_vonmises	-0.002169631044210963	-0.1243107019338499	4.142133059929775	2.0541900015855052	0.17320389104953757	3.140904189337401	1.0196997952215199	-0.4710927223171579	1.4907925175386778	64.55774114124142
8	3.0	wm	31	diff_vonmises	0.07841954095238622	4.49310872792505	3.2214830730324757	0.5332650959010407	0.0409882072902307	2.074640019401895	0.019750006829278133	-0.32068523233182095	0.3404352391610991	73.85200038279666
9	4.0	ltm	31	diff_vonmises	-0.19222793184996628	-11.013849199531483	0.11094535400742932	8.975227587608877	1.148683171230627e-05	10.886274660218536	-0.14146685207413978	-0.4580627581686363	0.3165959060944965	172.71154571095485
10	4.0	perception	31	diff_vonmises	0.013780874006838497	0.7895859185933859	2.487569148913804	2.1855952359419986	1.4819338867798308e-13	4.277441119348664	0.6035397095017409	-0.6719041085891929	1.2754438180909338	87.2109461602158
11	4.0	wm	31	diff_vonmises	-0.12545421823200514	-7.187997226807079	2.0044236713890293	1.4287338252661352	0.04929201661735211	4.548196913841167	-0.021941190222801832	-0.6756770001686868	0.653735809945885	92.08148249562308
12	5.0	ltm	31	diff_vonmises	-0.05226611887346453	-2.9946280229785742	1.2463170569725692	2.9822220549439513	0.43529812207752255	4.331722714511007	0.1393935838435667	-0.35111228746392736	0.49050587130749407	93.5696189849721
13	5.0	perception	31	diff_vonmises	-0.0016933611762774271	-0.09702244859200519	1.8580265283559965	2.9219588582328972	0.2581279258543302	4.50461289120575	0.5287937204585574	-0.5309970441003108	1.0597907645588682	88.9526285561837
14	5.0	wm	31	diff_vonmises	0.007954144347434465	0.4557389007458352	1.9302253425541733	1.4059115277358731	7.051878202201264e-17	2.9291215599056346	0.24363779075594644	-0.45123455904094345	0.6948723497968898	98.66607470503024
15	6.0	ltm	31	diff_vonmises	-0.2346989867736388	-13.447261398126232	0.4192887796046678	117.72814733908007	0.40223559256712066	118.93100899413146	0.09414989132789131	-0.3671238952922611	0.4612737866201524	129.37290146249308
16	6.0	perception	31	diff_vonmises	0.2125250144854698	12.176786370974103	0.381196249976249	6.57348103513708	2.005933890619161e-13	8.319574269438851	0.1534082033514057	-0.6347684424427981	0.7881766457942038	157.5629894676444
17	6.0	wm	31	diff_vonmises	-0.24059519713427352	-13.785089366911912	1.586028994867616	1.6012836716590857	2.5695524946015088e-09	3.0416146530140407	0.23338488802478796	-0.45401284834231415	0.6873977363671021	107.6824091316788
18	7.0	ltm	31	diff_vonmises	0.12319085812006478	7.058316244874638	0.8213252193510725	160.440544669384	0.8075192512122266	162.1519819252993	-0.09917156916977632	-0.34692648664524484	0.24775491747546852	84.19655668925455
19	7.0	perception	31	diff_vonmises	-0.07143164397862053	-4.092731723656037	2.7363687650212674	1.6085572347009087	1.227259662302454e-17	3.5253536879208447	0.43823212910556164	-0.5568806154577686	0.9951127445633302	83.12794627693464
20	7.0	wm	31	diff_vonmises	1.0066021523220157	57.67405497683632	0.1436213349526295	132.36915960382908	0.134194308136784	134.42329025311193	-0.16083818720423082	-0.46851686717682384	0.307678679972593	141.53561426071553
0	1.0	ltm	32	diff_vonmises	-0.3832797307497357	-21.960310944870415	0.6464302958384252	1.509451441485727	2.0826937730856973e-16	3.375061148290145	-0.12302151389756882	-0.42348368738488945	0.3004621734873206	142.81448482334315
1	1.0	perception	32	diff_vonmises	-0.11703465894515218	-6.705592014310227	14.717434352432596	0.8898853783083136	3.3814208380245e-18	3.267204348918419	0.8297538766555498	-0.5199917222214816	1.3497455988770315	35.31707709896838
2	1.0	wm	32	diff_vonmises	-0.03976486507970688	-2.278358941974352	5.58962547886349	0.47308355301860067	2.0807441264312998e-17	2.417679578621257	0.050412445772516745	-0.3847795791969578	0.43519202496947457	57.679249462541776
3	2.0	ltm	32	diff_vonmises	-0.020442954465147146	-1.1712950116310525	1.856514019791169	0.9736950898716028	5.443242670711387e-17	1.8226344101145728	0.1900666676584155	-0.2783637831396189	0.4684304507980344	100.47339877172442
4	2.0	perception	32	diff_vonmises	-0.06169571133144116	-3.5349038733490272	11.873374190660014	1.0531523401787923	0.27266291255812475	1.9616652880817806	1.0287590790407992	-0.34935117675606775	1.378110255796867	38.54537231747179
5	2.0	wm	32	diff_vonmises	-0.09471342675587593	-5.426679616333139	8.096642989540731	0.4214944144565282	0.02482886750514888	1.3097766076975335	0.25684674291777854	-0.20874380351127267	0.4655905464290512	47.47363902043077
6	3.0	ltm	32	diff_vonmises	-0.12242275218989866	-7.01430701685715	3.4940671388414333	0.6737135887395522	0.0669174414409416	1.296376312487542	0.2604442098282111	-0.1970467551310383	0.4574909649592494	71.4135772148797
7	3.0	perception	32	diff_vonmises	0.009710390957188154	0.5563644192688809	3.884937129186744	2.231515949798522	0.320134166060826	2.74169380439302	1.102466325260516	-0.39068312929412563	1.4931494545546418	65.36651104358961
8	3.0	wm	32	diff_vonmises	-0.060738266134557434	-3.4800463044525176	3.126856752725807	0.8971664001644968	0.32962273765768824	1.5346742160578282	0.27095613634828936	-0.21139733301108476	0.4823534693593741	70.1120217770787
9	4.0	ltm	32	diff_vonmises	-0.30784815054116754	-17.63839975691691	1.665260783294668	1.1194415114764686	8.408976204220764e-13	2.3947749472273143	0.13552655331768482	-0.3626555774080251	0.49818213072570994	105.32231719066553
10	4.0	perception	32	diff_vonmises	-0.07148912503959022	-4.0960251458515335	2.427660472642971	2.5340889995273987	2.765667052840136e-14	3.4724140947019424	0.9152363585647806	-0.5412215880312516	1.4564579465960321	88.2726157855549
11	4.0	wm	32	diff_vonmises	-0.17942526710713044	-10.280310543246047	1.2087522199773757	184.01622290239123	1.1907478105260776	185.13077569230566	0.19134471992687452	-0.32192320250826967	0.5132679224351442	77.35607569563524
12	5.0	ltm	32	diff_vonmises	-0.07999442492203258	-4.583342932608597	1.076443095901312	1.5407567168174452	8.428316210547581e-12	2.2397960942979687	0.19220248377980864	-0.29274299869988557	0.4849454824796942	125.42485566839949
13	5.0	perception	32	diff_vonmises	0.06559918129000879	3.758556227431059	2.239512388398905	2.099459300840327	0.3580951578771596	2.944514539882701	0.5097997267340729	-0.3446993348036268	0.8544990615376997	80.90423075357214
14	5.0	wm	32	diff_vonmises	-0.06975990434965351	-3.99694809847146	0.7055366477084185	170.12556100649928	0.691142077995124	170.63260690872494	0.323301432602932	-0.26563578227934137	0.5889372148822734	107.50999392531062
15	6.0	ltm	32	diff_vonmises	-0.3602814985274703	-20.642609302272835	1.5484565744626453	1.2652781355134943	7.753401606876884e-18	2.2745824298299655	0.1967020793381013	-0.33676212098852887	0.5334642003266301	108.56506667393053
16	6.0	perception	32	diff_vonmises	0.4206028764763668	24.098769673158113	0.0007982399189129028	2982.471534252164	3.492484765574712e-30	2983.3567841963863	0.23808772933483624	-0.5197203108473332	0.7578080401821694	174.54637372163083
17	6.0	wm	32	diff_vonmises	-0.23971261926240386	-13.734521379762143	2.9546560710009464	0.800124528859237	5.2470205803688395e-15	1.4283437137831763	0.29216751357195647	-0.2259179347203096	0.5180854482922661	79.94032199282564
18	7.0	ltm	32	diff_vonmises	0.13697599286937026	7.848146286028975	1.195180624446578	256.5750675260148	1.1827415321359809	257.71523111571446	0.16186542699583129	-0.31816589732893874	0.48003132432477	77.14514575116232
19	7.0	perception	32	diff_vonmises	-0.10431724234578382	-5.9769377168568045	1.7573057078884708	1.6672353373978779	4.0382522737257815e-23	2.467653116412931	0.4024053082075871	-0.3690761894040083	0.7714814976115953	103.01815723219264
20	7.0	wm	32	diff_vonmises	0.2551056266392729	14.616475736470479	1.5204749356155072	0.6962201378467807	4.774321208935932e-18	1.4909667639658422	0.06675309502404095	-0.22276345485905713	0.28951654988309805	109.58736224675079
0	1.0	ltm	33	diff_vonmises	-0.04353612704218603	-2.494436335862632	2.23078485262469	0.5612364802134616	1.5410870042034285e-17	3.022061419579009	-0.17182447778333532	-0.477406504505149	0.30558202672181367	92.04387828526458
1	1.0	perception	33	diff_vonmises	-0.08349717324651741	-4.784035628298097	12.412159851444025	0.9191139797851477	0.08336865056377935	3.9256605578967685	0.6002673468071336	-0.6481898950076005	1.2484572418147342	37.96640125449238
2	1.0	wm	33	diff_vonmises	-0.028282958922486747	-1.620494178400365	8.365340346612296	0.3633738753267705	0.0741339403196702	3.243667711198031	-0.14264673822809942	-0.5289202439070316	0.3862735056789322	45.33464769683471
3	2.0	ltm	33	diff_vonmises	-0.08168321162919392	-4.680103283426737	3.210436831927481	0.6992620565957024	0.014127034184938797	1.7130436522129033	0.19940162467696693	-0.26812001417244985	0.4675216388494168	75.91956663496407
4	2.0	perception	33	diff_vonmises	-0.06916907627084366	-3.963096143137833	13.51342414784631	0.8339104298921862	0.09238360978157838	2.210154341393922	0.8262650217225407	-0.36654584267791035	1.192810864400451	36.53738461707124
5	2.0	wm	33	diff_vonmises	-0.18796159403223323	-10.769406048598325	3.1647887434543023	1.1411936017815456	0.4212459703495219	2.715338874286114	0.1401680867506705	-0.3887159923229555	0.528884079073626	65.62039895458256
6	3.0	ltm	33	diff_vonmises	-0.014079399821030264	-0.8066901878222807	2.309872210199975	1.3430124396786516	0.5153086111299704	2.0359934052572592	0.24716809517849092	-0.2290261455043584	0.4761942406828493	75.60772436466524
7	3.0	perception	33	diff_vonmises	-0.015919030181650962	-0.9120932433499763	3.6199837393854444	2.6392385601173385	0.47886525853626655	3.633451573076632	1.0386859232559513	-0.49944605339446824	1.5381319766504196	65.09759612457049
8	3.0	wm	33	diff_vonmises	-0.05307163255529794	-3.0407805572876727	3.3566915401600963	0.8480562086502839	0.13776056900525974	2.0475813517701336	0.2195792406916819	-0.30525549831343884	0.5248347390051207	70.4414513191874
9	4.0	ltm	33	diff_vonmises	-0.22401570115347766	-12.835154220758197	0.9880057282568045	3.369412517916413	0.3333902390912996	4.7775166380957526	0.11136151410956519	-0.37334259443930007	0.48470410854886525	105.59753169377957
10	4.0	perception	33	diff_vonmises	-0.05574569021051369	-3.1939927751061843	1.5409222766232893	4.75386338529282	0.3685720788884145	6.126028096812505	0.7301889958631986	-0.5778585677444299	1.3080475636076285	93.38289540197829
11	4.0	wm	33	diff_vonmises	-0.1293260068908808	-7.409834376127272	0.9581342480405147	227.8754445652586	0.9417419984193595	229.5200615119351	0.1655241557511573	-0.42510085701234956	0.5906250127635069	85.7685635962182
12	5.0	ltm	33	diff_vonmises	0.017808461503772847	1.0203496837873836	2.0345747381814285	1.2026534842507242	4.206569264759263e-11	1.7044866902611422	0.35560997853190857	-0.26056276947092144	0.6161727480028301	96.22827395031223
13	5.0	perception	33	diff_vonmises	0.013430009285858207	0.76948285090118	1.0091305600625027	232.36037721441014	0.9894271962258784	233.26487177630227	0.5588597722798312	-0.4038782776996044	0.9627380499794356	89.62380841443479
14	5.0	wm	33	diff_vonmises	-0.028679930792848994	-1.6432389911575362	1.4890078380150535	2.954969931760897	0.4427872368023511	3.5818094536887597	0.4285850651595542	-0.29897857886566237	0.7275636440252166	92.95045971418372
15	6.0	ltm	33	diff_vonmises	-0.20165006669137275	-11.553697759947239	0.6929594121734427	124.74889212471598	0.6729777868357812	125.44774407216977	0.2794266776369412	-0.28873795595098173	0.5681646335879229	107.13977681309004
16	6.0	perception	33	diff_vonmises	0.2677136249479671	15.338860827666737	0.0003354810483529948	6489.862740896573	2.0229665978960297e-34	6490.31777406873	0.274118491390027	-0.4189019278744581	0.6930204192644851	177.6684177977305
17	6.0	wm	33	diff_vonmises	-0.27059565041279315	-15.503988723250501	0.8611238596474997	125.00411377705544	0.8413811428355964	125.35463737503196	0.36165900344548163	-0.22495269367564497	0.5866116971211266	98.6550051394456
18	7.0	ltm	33	diff_vonmises	0.18143199396413306	10.39528752278785	1.2017219100755177	138.83358722980108	1.1837595366879412	139.30728568689048	0.2829445885781965	-0.20355474144909103	0.4864993300272875	81.7057439090681
19	7.0	perception	33	diff_vonmises	-0.05144329027551253	-2.9474834170532582	1.7181148033412696	1.8098062326086406	3.643501848058484e-17	2.2406027058753786	0.4947656170734053	-0.3292009681639033	0.8239665852373086	104.09022132808232
20	7.0	wm	33	diff_vonmises	0.1300744332289022	7.452716046572329	1.7281416568733137	0.8425754389598572	5.8666522560633486e-18	1.5643354602015542	0.14877804401404013	-0.23642263741133918	0.38520068142537933	103.78084305426836
0	1.0	ltm	34	diff_vonmises	0.1573430498156234	9.015092690151885	0.4416251585565253	86.78164080506083	0.4255888876550151	88.79872319308642	-0.21272568031008632	-0.37025821837179507	0.15753253806170875	107.83693332233017
1	1.0	perception	34	diff_vonmises	-0.00847289748582536	-0.48546126618479934	8.96572023602751	0.9006136407451547	0.08837966455877781	3.3127801658384666	0.4848057610187254	-0.5402864165540007	1.0250921775727262	44.5271728644955
2	1.0	wm	34	diff_vonmises	0.2536858499659548	14.535128525238228	5.325396733988177	0.2751264699209128	0.08877518662087498	2.762464346516301	-0.23286720861993168	-0.44490102068530885	0.21203381206537716	54.74577511299108
3	2.0	ltm	34	diff_vonmises	0.2533846749180087	14.517872466096268	0.6046419531512488	110.63646998825499	0.5907235386874229	111.6473160698587	0.02471175274757087	-0.24349497436430134	0.2682067271118722	106.09469608584007
4	2.0	perception	34	diff_vonmises	-0.02756018311798822	-1.5790821752684268	9.086448498726314	1.264078385281849	0.28264231870083345	2.651413545293938	0.9489016629001795	-0.4605801425371776	1.4094818054373572	43.61351809345152
5	2.0	wm	34	diff_vonmises	-0.04977713603096283	-2.852019810822752	4.314934727058024	0.6584228300324129	0.22111411349936402	2.6146910849552825	0.01467495893505466	-0.41377854151198806	0.4284535004470427	59.53197558276267
6	3.0	ltm	34	diff_vonmises	0.158649548625859	9.089949557917251	1.320032129242749	78.06712112853049	1.3010073521435352	78.3955547973184	0.13887640030172932	-0.12284593260208077	0.2617223329038101	76.6988270685984
7	3.0	perception	34	diff_vonmises	0.031210902299378465	1.7882529765495427	2.0776573342629847	7.699476393404062	1.1808504309477705	8.239276645149873	0.9697421549669833	-0.44335452323021474	1.413096678197198	72.01255126662528
8	3.0	wm	34	diff_vonmises	-0.028724821976755698	-1.645811066532736	3.487041079560605	0.4868468522508107	0.16943859669455477	1.5073406467825683	0.06486421825693006	-0.22761499653461387	0.29247921479154393	67.49553640285555
9	4.0	ltm	34	diff_vonmises	-0.25651960139332064	-14.697490522215464	0.7362745441788596	69.29574864929103	0.7131399814163504	70.5960285845035	-0.06742642517404462	-0.2637503218204813	0.19632389664643668	90.11887671272098
10	4.0	perception	34	diff_vonmises	0.022811977725953617	1.3070300460435835	1.1136967686510688	195.90815521815517	1.0818790763210293	197.57752343926134	0.5710945405507175	-0.5720056868817451	1.1431002274324626	83.44692898548195
11	4.0	wm	34	diff_vonmises	-0.3300459499468857	-18.910239977342567	0.8114400698200313	140.20895861484738	0.7883217510279635	142.30796288628127	-0.013669241879505023	-0.4610649809882901	0.44739573910878505	89.12822160811106
12	5.0	ltm	34	diff_vonmises	-0.03249297620041683	-1.861710400102914	1.3331783205990066	5.301492785735294	0.9931460704534395	5.892956891464044	0.13299426210048537	-0.17949634542090698	0.31249060752139235	79.65466911571156
13	5.0	perception	34	diff_vonmises	-0.03220138849089181	-1.845003654989244	1.5755460760978295	4.9600034068887595	0.6048518390926376	5.956218328725422	0.6262791704369477	-0.4377152258069323	1.06399439624388	86.71035773409164
14	5.0	wm	34	diff_vonmises	0.14213619446920828	8.143804059136349	3.3320946136316727	0.7970573327424654	1.4458244990723902e-13	1.9542766747093843	0.24291206190580739	-0.3103260604854829	0.5532381223912903	75.18685777352383
15	6.0	ltm	34	diff_vonmises	-0.3414489163773963	-19.563581827740183	0.6364029290941147	173.04386595894624	0.6263526464823327	173.78280702029483	0.13014832102096818	-0.2317528755174969	0.3619011965384651	108.33375357061958
16	6.0	perception	34	diff_vonmises	0.2224570945245082	12.745852638997135	0.6409066666619042	3.7504615467753486	6.005627377794275e-18	4.523107581017083	0.3051673924140397	-0.43538767388961813	0.7405550663036577	144.25433104181053
17	6.0	wm	34	diff_vonmises	-0.27311560163078447	-15.648371292620254	1.8342248752620145	1.0090143628340684	7.470778978132104e-17	1.811311771558458	0.2056333940444035	-0.2756756791899976	0.4813090732344011	100.8977294047661
18	7.0	ltm	34	diff_vonmises	0.25081617035689535	14.37070799508437	0.941688696793403	79.84051174065333	0.9191990874948334	80.60357995640148	0.09235531469771985	-0.20270580063488453	0.2950611153326044	87.2667704453122
19	7.0	perception	34	diff_vonmises	-0.08698893460198766	-4.984098817033423	2.3104207706344626	1.4690324836940913	2.430841117176303e-16	2.083477955665682	0.49476618202167183	-0.3234606867123286	0.8182268687340004	90.46116149143245
20	7.0	wm	34	diff_vonmises	0.33616650649909424	19.26092203605526	0.616611217592863	91.24103543488086	0.5981837943441832	92.47980400156028	-0.010090193800973424	-0.2774293849553935	0.26733919115442006	103.06286313915581
0	1.0	ltm	35	diff_vonmises	-0.19661368439539012	-11.265134310373027	0.156401140392294	55.5422666954577	0.1419913315572854	57.79027484419	-0.2741817544330605	-0.4260965925450684	0.1519148381120079	156.68230210912174
1	1.0	perception	35	diff_vonmises	-0.026650562636013002	-1.526964760692591	9.182692909011115	0.8897930547879465	0.03757542250459521	3.5445375047958323	0.47438777495676476	-0.568712619103231	1.0431003940599957	44.4051066280056
2	1.0	wm	35	diff_vonmises	0.17953156145953697	10.286400761025018	6.126658050904441	0.16478214499929278	2.743428602041056e-10	2.7128746416799596	-0.27267851226898576	-0.4317666502385938	0.15908813796960802	55.04203907054364
3	2.0	ltm	35	diff_vonmises	0.343541956180279	19.683504174798255	0.5298165881980332	138.83985993367176	0.5185280755221756	139.91570705555418	0.024793676191208647	-0.268481254744831	0.2932749309360396	113.75997500165607
4	2.0	perception	35	diff_vonmises	-0.0379292587186505	-2.1731864446384543	8.978021528926332	1.4349277166709287	0.4377770937388175	2.724190115908309	1.049333894580372	-0.49666353044970546	1.5459974250300776	43.286249186183085
5	2.0	wm	35	diff_vonmises	-0.007289491620083042	-0.4176571046267392	7.331931417094366	0.4187982556322689	0.05825824148622106	2.2579043064523203	0.06346407983956492	-0.3627752262146839	0.4262393060542488	49.096673596226054
6	3.0	ltm	35	diff_vonmises	0.10234673690243175	5.864036071445176	1.442102885827058	106.54391199072599	1.4268745287690439	106.94152394572338	0.12053377981752078	-0.13656511642355618	0.25709889624107696	72.05479471567267
7	3.0	perception	35	diff_vonmises	0.014657689987092727	0.8398237736715793	2.717807349315449	3.5348532442883327	0.7450059660394929	4.129022238141311	0.976964578954157	-0.43099433153099537	1.4079589104851524	70.50780765605322
8	3.0	wm	35	diff_vonmises	0.01557025386972257	0.8921098326823411	3.034147742233723	0.5640535487568886	0.3196561576472829	1.5663282041260225	0.037235415877210354	-0.2268092023705472	0.26404461824775755	67.76097432608157
9	4.0	ltm	35	diff_vonmises	-0.1888653392131537	-10.821186833220356	0.5561100709564872	66.7281028309584	0.5362066786971437	68.13485260918083	-0.10679082430477038	-0.2737046239906169	0.16691379968584652	101.38349401219448
10	4.0	perception	35	diff_vonmises	0.007255667468793769	0.4157191235122519	2.326256404083749	2.526321482308669	0.23530932800098184	4.1503386224427095	0.6024673340677696	-0.538262382300316	1.1407297163680856	81.61446239886112
11	4.0	wm	35	diff_vonmises	-0.23195512106912197	-13.290049473706729	0.8590111198495871	161.99633812155963	0.8374224554174613	164.21023809971385	-0.02070140419492361	-0.48543705236930634	0.46473564817438273	86.24549374024758
12	5.0	ltm	35	diff_vonmises	-0.08927484792010164	-5.1150720024941	1.7244485649200718	1.8551530731200976	0.6944930483686828	2.8036943158976353	0.07978525865351127	-0.24105378916308162	0.3208390478165929	76.46481935866947
13	5.0	perception	35	diff_vonmises	-0.008651682277494953	-0.49570488018859277	2.0464532405242797	2.696456470984208	0.3326242522972053	4.08359916657022	0.5285462795920304	-0.47383413453107653	1.002380414123107	83.62784258041438
14	5.0	wm	35	diff_vonmises	0.13560064707321082	7.769344776537979	2.431824586747028	0.9646296685127386	0.06063153310091369	2.370187931210505	0.15888625222942465	-0.3522609923948908	0.5111472446243155	84.4732243962184
15	6.0	ltm	35	diff_vonmises	-0.34746876384997766	-19.90849368123159	0.6696347548971717	166.125211389388	0.656605737137222	167.28460337410004	0.09140265307589601	-0.3024285782009457	0.3938312312768417	102.8242132477221
16	6.0	perception	35	diff_vonmises	0.2786564883944432	15.9658407189378	0.5809506765391333	4.266720393527394	2.1424717749224628e-19	5.831429931729425	0.18958335425169004	-0.5783878191878472	0.7679711734395372	146.77063998201774
17	6.0	wm	35	diff_vonmises	-0.22899807240547593	-13.12062306546501	2.1490849871568765	1.0414279168664544	3.2584385353947914e-20	2.343309641799309	0.18808281709040547	-0.3653228988469448	0.5534057159373502	93.67017049897994
18	7.0	ltm	35	diff_vonmises	0.019036351138708236	1.0907025775770407	1.0613264394947886	149.50357917703522	1.0458858998219238	150.79233656253408	-0.017092339160498682	-0.2911527776218783	0.2740604384613796	76.81611355354664
19	7.0	perception	35	diff_vonmises	-0.12426976805279359	-7.120133230494743	2.6506314074584907	1.3883167124926183	2.1283926993357738e-20	2.604221027435957	0.4322187436269253	-0.41025358438042986	0.8424723280073552	84.46929486508154
20	7.0	wm	35	diff_vonmises	0.558664932991397	32.009142822365995	2.5682473979852705	0.5092350125385783	0.03916825982314754	2.1477242145130924	-0.050438941726362485	-0.32874687818716586	0.2783079364608034	82.01928763309036
0	1.0	ltm	36	diff_vonmises	0.07238868517569236	4.1475661450684	0.36985451206637526	96.30094654821737	0.35366301825317775	98.6279465621086	-0.2278199168227708	-0.4491784071627585	0.22135849033998767	122.10629671027428
1	1.0	perception	36	diff_vonmises	-0.07538400116439757	-4.319185109529264	10.826810059313132	0.8336243135231811	2.0642815478720006e-18	3.4369347017687026	0.533895453042756	-0.5470051464440926	1.0809005994868486	41.234134357306175
2	1.0	wm	36	diff_vonmises	0.011510770242705493	0.659518553851803	5.9557090030603925	0.34851199372616554	0.05462981853075296	2.8778967435587894	-0.1518950491650406	-0.46020197467076734	0.30830692550572675	53.689701542898774
3	2.0	ltm	36	diff_vonmises	0.05432258372010809	3.1124547794082686	0.4577549322959902	97.9538469411174	0.4392007712985784	99.30627096379713	0.01830219270583555	-0.34650432733925385	0.3648065200450894	122.55637825090511
4	2.0	perception	36	diff_vonmises	-0.04954643081673514	-2.838801375735844	9.031714715191807	1.3098988517615975	0.28106335764313345	2.800517601678516	0.9686078181359378	-0.486105862452893	1.4547136805888308	43.713419859333015
5	2.0	wm	36	diff_vonmises	-0.04776314592510284	-2.736626677775869	6.852003269335649	0.494630996227998	0.07722449987486373	2.3204686276478945	0.10797834584290811	-0.37322477980293967	0.4812031256458478	50.5479596573264
6	3.0	ltm	36	diff_vonmises	0.016140258537313063	0.9247686944380339	1.10628922330827	171.2018390952953	1.0913275029160339	172.01115870283883	0.18916465067619015	-0.24739286913170133	0.4365575198078915	82.07232505138916
7	3.0	perception	36	diff_vonmises	0.000396554346269393	0.02272089038880564	2.4308481584633324	4.069653192354663	0.6052947419831459	5.007637641578446	1.0243800699877461	-0.5234200717768752	1.5478001417646214	74.95019304331447
8	3.0	wm	36	diff_vonmises	-0.05194590869171611	-2.976281331007273	2.6962920947618114	1.09308943958954	0.43067674668415407	2.3677702762142636	0.119576545299928	-0.31632757754386465	0.43590412284379265	69.91290152092793
9	4.0	ltm	36	diff_vonmises	-0.0019000276531249928	-0.10886356548220885	1.439778305678983	0.7608680374595947	3.581377848151952e-20	2.50268627355684	-0.0768089697940173	-0.3802591350329622	0.3034501652389449	112.3692057810021
10	4.0	perception	36	diff_vonmises	-0.03476822225891582	-1.992072396608682	1.9297391103391204	3.1421230425783286	0.189927447704621	5.048192616070637	0.623468974075951	-0.638180624696011	1.261649598771962	89.79809051972853
11	4.0	wm	36	diff_vonmises	-0.2415469149842038	-13.839618783000182	0.9115337644476981	178.27385437010423	0.8910641828579684	180.48950706342671	-0.016301893966016223	-0.4900630830779562	0.47376118911194	83.66516010786026
12	5.0	ltm	36	diff_vonmises	-0.02211107356019525	-1.2668711955024912	2.0234718371993283	0.899776247871637	0.15651289861912862	1.9582399342471792	0.10520968274361109	-0.26398018980727805	0.36918987255088914	87.18955300576243
13	5.0	perception	36	diff_vonmises	0.024804709113405085	1.4212051442478015	2.0457688507898677	2.4363998592358738	0.23133276488431648	3.824929335416302	0.5170874472519382	-0.47586588190780404	0.9929533291597423	86.42983227480681
14	5.0	wm	36	diff_vonmises	-0.03226567771296319	-1.8486871560821132	0.7242201779523185	152.86447599120734	0.705730944625581	154.22915515021234	0.14920624213886668	-0.36838042275854654	0.5175866648974132	99.83756441082073
15	6.0	ltm	36	diff_vonmises	-0.32210853509374865	-18.455459606013363	0.538880516190549	21.22827382979183	0.4469842398734239	22.53644360224781	0.05424677067683614	-0.3481238050666795	0.40237057574351565	118.41752671911996
16	6.0	perception	36	diff_vonmises	0.19439671719175194	11.13811144628564	0.6196018931156845	3.789046347316423	1.2818217790408776e-13	5.333125297038851	0.17147953108100655	-0.5533061711932634	0.72478570227427	145.4647059649629
17	6.0	wm	36	diff_vonmises	-0.0910483987370677	-5.216688979058234	1.6962454965825358	1.1140833175052982	0.08812420168609622	2.5746232223719234	0.0733636994408044	-0.35709945237114704	0.43046315181195144	97.57405155551638
18	7.0	ltm	36	diff_vonmises	0.10873745554880873	6.230197277938135	1.29683723324249	134.09176127063282	1.2794929064360592	135.1194386653339	0.018977541576369106	-0.2566733762871678	0.2756509178635369	70.57340596950783
19	7.0	perception	36	diff_vonmises	-0.0631023570241066	-3.6154987348090137	1.8931121617629851	1.6708285655714523	3.854297165637547e-17	3.0964594654421176	0.3408975559302548	-0.4739056777757779	0.8148032337060327	99.56149681229138
20	7.0	wm	36	diff_vonmises	0.7779476085686305	44.573114653277926	0.3380560726715595	55.07276702589437	0.32200434869606787	56.483530677880765	-0.1424809225289092	-0.27305285563278314	0.13057193310387394	123.94815507479706
0	1.0	ltm	37	diff_vonmises	0.13995736084853302	8.018966088410448	4.230349869441318	0.5523058695577773	4.4006591863044834e-20	3.8725070531124874	-0.17855050032449327	-0.6162359952846027	0.43768549496010944	66.52038978417517
1	1.0	perception	37	diff_vonmises	-0.08272884408829027	-4.740013610254843	11.262024267093327	0.8523225967829813	4.648164017594085e-17	4.328541737648422	0.4388452323268177	-0.6889088137400146	1.1277540460668323	40.41981656029574
2	1.0	wm	37	diff_vonmises	-0.02518281905882687	-1.4428692483123915	3.7001541095078085	0.8721963359741209	0.19455701580228027	4.6575611148586225	-0.24955711526825952	-0.7308529914984844	0.48129587623022485	62.25367356531166
3	2.0	ltm	37	diff_vonmises	-0.1089084374138432	-6.239993817177886	2.165568424260065	1.4996057998637475	0.31138051228138536	3.203511796170388	0.13202262000360832	-0.4077532858637869	0.5397759058673952	78.98042710765915
4	2.0	perception	37	diff_vonmises	-0.07431867721934216	-4.258146543663362	11.849298405033483	0.9055771897419328	0.012220076246795861	2.6614466344105594	0.8010275280878447	-0.42483956625478636	1.225867094342631	39.31807887766851
5	2.0	wm	37	diff_vonmises	-0.09395231654456317	-5.383071213480608	4.37834490778071	0.763994621093682	0.13579269423647358	2.8025171788479017	0.1083250452810629	-0.4382199373302613	0.5465449826113242	61.39829679644694
6	3.0	ltm	37	diff_vonmises	-0.07858145429335966	-4.502385679009691	1.5557394844144155	2.2251563239736534	0.3308257842719547	3.656740230194851	0.19688109569286338	-0.38478624966994174	0.5816673453628052	90.67732863014541
7	3.0	perception	37	diff_vonmises	-0.010539559139905758	-0.6038722566451319	3.3563548203324	2.483414747719595	0.18332238733692155	3.8873588771670566	0.995881534345585	-0.5605976021516662	1.5564791364972512	70.91536692209678
8	3.0	wm	37	diff_vonmises	-0.03178908911706641	-1.8213806409731619	2.9875265906839292	1.1362308453072645	0.18049603315108842	2.8767135421355365	0.19843652743362528	-0.4182642088703498	0.6167007363039751	72.67422544371667
9	4.0	ltm	37	diff_vonmises	-0.0811820313312199	-4.651387767577717	0.6848874004867791	2.3933878726844515	5.934718499907721e-17	4.405572098103936	-0.027010881166495304	-0.5298174870557764	0.502806605889281	142.76428618112536
10	4.0	perception	37	diff_vonmises	-0.039994983871689246	-2.2915437775415906	1.0559768433499401	12.185167415439436	0.5464068629574156	14.356380320635603	0.6252501293871826	-0.737469638014438	1.3627197674016207	98.24747031993746
11	4.0	wm	37	diff_vonmises	-0.10228193259147378	-5.86032305793303	0.6975508925597468	180.86232838822514	0.6764132217882906	183.2701446148296	0.053876292505499634	-0.5618272990436104	0.61570359154911	98.38494003177584
12	5.0	ltm	37	diff_vonmises	0.01546962147919719	0.8863440214229246	1.7697551679656909	1.4602816991698797	1.2483558996559718e-15	2.710131308350814	0.26810914266489877	-0.4110276338770902	0.6791367765419889	102.70841017898536
13	5.0	perception	37	diff_vonmises	0.011383411684153138	0.6522214459618834	1.508153176136325	3.969637496461256	0.37961554277716586	5.368386357041782	0.5199828118075769	-0.5025278995646871	1.022510711372264	92.84900170606608
14	5.0	wm	37	diff_vonmises	-0.07275216951676691	-4.168392263731066	1.6830417884491429	2.076966130732685	0.18615150838503214	3.3670933633260605	0.32486802370341106	-0.4113131980949763	0.7361812217983874	94.93675000551008
15	6.0	ltm	37	diff_vonmises	-0.13829729398143914	-7.923851263216464	1.049026031804	1.7080105211190497	3.6836216404162545e-16	2.8864535568473966	0.1400563368825251	-0.38584361703733583	0.525899953919861	126.43460124065714
16	6.0	perception	37	diff_vonmises	0.1950545780345369	11.175804096084137	0.0002028757267082081	10847.239415710881	1.5199667769429846e-29	10848.242480125919	0.19061643909185477	-0.5098662316472655	0.7004826707391203	178.6999781048125
17	6.0	wm	37	diff_vonmises	-0.2904638964945511	-16.642355370062567	0.5677723989034303	218.972162485733	0.5569084890482389	220.0641121000457	0.16732950305748773	-0.3459752012978612	0.5133047043553489	114.46171311957751
18	7.0	ltm	37	diff_vonmises	0.2524597794487743	14.464879859218364	0.9082088595579937	76.98741761870915	0.8795738500103205	77.9071071286004	0.12673539230497255	-0.2503604906856145	0.37709588299058705	89.54971895791115
19	7.0	perception	37	diff_vonmises	-0.026385334065650565	-1.5117682830045347	2.457359367460411	1.6628660922261826	2.4135091757422607e-14	2.7033813144666317	0.5398174221114603	-0.42313703859446905	0.9629544607059294	87.7497357836719
20	7.0	wm	37	diff_vonmises	0.546697750887632	31.323473795155767	0.08441076999077117	50.45580911742979	0.0664067588493413	51.70022362537231	-0.061609389569174056	-0.3240530385683371	0.26244364899916306	163.34652201549827
0	1.0	ltm	38	diff_vonmises	-0.17559767852018185	-10.06100587150145	0.00037200855483554297	864.519921696515	5.780136518126082e-21	865.8441704136852	-0.1595703671356432	-0.2619415705812571	0.1023712034456139	179.09792371211125
1	1.0	perception	38	diff_vonmises	-0.011849640381504541	-0.6789343826080009	11.360652976501635	0.734013422094004	0.051872324852396484	2.674369127104978	0.5275002733043438	-0.43351215180365094	0.9610124251079948	39.894028958672266
2	1.0	wm	38	diff_vonmises	0.28915343778206637	16.56727161661104	8.091215762277171	0.15862359827210926	0.16770785717756326	1.6702684226131013	-0.13516158204400344	-0.28502138244771597	0.14985980040371252	43.97576068342761
3	2.0	ltm	38	diff_vonmises	0.5757196084537374	32.986303747323426	0.32871721599474557	38.12874048794767	0.29676205877676815	38.877381693754344	0.06192670964493274	-0.24645385240115036	0.3083805620460831	137.95968451896613
4	2.0	perception	38	diff_vonmises	-0.02018418540132092	-1.1564686364052585	8.973709253975189	1.4160351069413313	0.45773771813399755	2.764398372430953	1.0070053842964315	-0.5080782499098025	1.515083634206234	43.161813646257826
5	2.0	wm	38	diff_vonmises	-0.12048494027889876	-6.903278572866675	5.078246356990663	0.5493339450643299	0.3365046901686839	2.1752126059852506	0.00904655146436889	-0.3624461552153828	0.3714927066797517	53.710369837113774
6	3.0	ltm	38	diff_vonmises	0.18890460769270362	10.823436751366462	1.9514560066500595	53.36720395537795	1.9289969244986827	53.362269936009405	0.19207027185220582	-0.062295136567359854	0.2543654084195657	67.44280866565825
7	3.0	perception	38	diff_vonmises	0.022950319209386207	1.31495642917585	1.71417192632891	383.5996953043487	1.694436641808303	383.9488349784489	1.1031506943019451	-0.4502997335033214	1.5534504278052665	70.82100665342341
8	3.0	wm	38	diff_vonmises	-0.13956275698113835	-7.996356952229194	3.177202734959965	0.627367095586505	0.5252370258155378	1.3625612813537	0.08186202795669106	-0.19191493855533587	0.27377696651202693	64.2009628759831
9	4.0	ltm	38	diff_vonmises	-0.3312844526681269	-18.981200956185155	1.0034089786756546	88.44089601241089	0.984208049958139	89.65450760034868	-0.08966186972368817	-0.2511629920306966	0.16150112230700842	74.64026310917257
10	4.0	perception	38	diff_vonmises	-0.004839598988585195	-0.27728859658171356	2.126965994407548	3.4335206735617745	0.47937892400469895	4.876002184041379	0.6538682214348797	-0.5232814100695871	1.1771496315044667	79.39407651092253
11	4.0	wm	38	diff_vonmises	-0.4834772757614032	-27.701207391611057	1.267775821003453	157.39758782653203	1.2445035546104746	159.14771244789202	-0.0071479249231174435	-0.42274065399514527	0.4155927290720278	70.58383859201028
12	5.0	ltm	38	diff_vonmises	-0.1742577351060484	-9.984232769085253	1.6890694792705874	28.086861492476913	1.6323473025437156	28.49844742017362	0.08142752392458874	-0.13641768521048592	0.21784520913507466	65.40551568510372
13	5.0	perception	38	diff_vonmises	-0.01973277109698985	-1.130604501955254	1.4856569027258528	6.615103512152799	0.7647584907939335	7.598127055024315	0.5927276689288781	-0.4225480218029409	1.015275690731819	84.73252270032683
14	5.0	wm	38	diff_vonmises	0.26791954332244244	15.35065908144837	3.0252907446928736	0.8837049780949402	0.4277883633243609	2.0068154177608974	0.11329608571428201	-0.2810870808357292	0.3943831665500112	66.9098971296458
15	6.0	ltm	38	diff_vonmises	-0.46228803792463147	-26.487153492465122	0.7614576664098324	150.0005261524819	0.74912727955723	150.8430541615829	0.10545061334092054	-0.2304858954627491	0.33593650880366965	97.46316179846127
16	6.0	perception	38	diff_vonmises	0.22766485701875722	13.044235450624125	1.2279255773868019	2.2267953102577813	1.3133660390363182e-11	3.2402736396089487	0.34001744303858206	-0.4422929130290459	0.7823103560676279	119.34631104177211
17	6.0	wm	38	diff_vonmises	-0.03963590297958496	-2.2709699579202227	4.738654461805039	0.4728837599077161	2.606028380903908e-16	1.5203136928440504	0.15647171867489745	-0.24193492781311873	0.39840664648801616	62.762937252556156
18	7.0	ltm	38	diff_vonmises	0.048319568670832265	2.7685073527312456	1.8717381596063585	80.20301812681411	1.8488473185185978	80.60173367111852	0.09987625010595025	-0.14646448043542826	0.2463407305413785	62.12399061639218
19	7.0	perception	38	diff_vonmises	0.04981021166105633	2.8539149048318455	0.7352957534747616	2.8095855144097244	1.9732667476857523e-18	3.5929561831315597	0.24656586500209354	-0.3837754945215085	0.630341359523602	140.3629729665788
20	7.0	wm	38	diff_vonmises	0.2898994938997944	16.610017483436774	3.293802153002559	0.2084431963189867	5.092378441611095e-17	1.211752854790578	-0.04893663448734206	-0.1926582004875794	0.14372156600023733	75.62700063492753
0	1.0	ltm	39	diff_vonmises	0.11304863043369946	6.477209403585173	5.89971613569137	0.46084878150151054	4.045472767010632e-24	3.5602024440786355	-0.13049611480645917	-0.5666205412381602	0.436124426431701	56.11824168391712
1	1.0	perception	39	diff_vonmises	-0.06946561396057543	-3.9800865012260234	8.635113080756708	1.0930127846468585	0.10186718183472272	4.349488760950314	0.49723021905318765	-0.7122008499252588	1.2094310689784464	45.15350917295655
2	1.0	wm	39	diff_vonmises	0.0035913992933226985	0.205772022053657	4.619973954317318	0.6427570957460303	0.08184753525029448	4.461967471564104	-0.2351615731585338	-0.7074032237647764	0.47224165060624257	59.63286748432873
3	2.0	ltm	39	diff_vonmises	-0.017581857136524753	-1.007366209924835	2.353350043669463	1.7224833060780775	0.5791308043784379	2.9841588510987953	0.19889552587419523	-0.345827611195882	0.5447231370700772	71.90434332846326
4	2.0	perception	39	diff_vonmises	-0.05321450206095235	-3.048966376982791	10.549442882242026	0.8910393093212118	4.252837524603949e-10	2.2582900165711797	0.7808359554880455	-0.35941801813632224	1.1402539736243678	41.77274230108384
5	2.0	wm	39	diff_vonmises	-0.05213505954069004	-2.9871188763447956	4.147846673388	0.755451712188584	0.17265506320908228	2.509394325044913	0.12130035578304049	-0.3893931039292621	0.5106934597123025	62.34790222182548
6	3.0	ltm	39	diff_vonmises	-0.013610875320047539	-0.7798457113174976	2.2022929522724266	0.8548523025084293	2.110131490450411e-15	1.9785322504016878	0.1524205035515962	-0.3091818837780208	0.461602387329617	92.61956217323885
7	3.0	perception	39	diff_vonmises	-0.011228708924214079	-0.6433576307383497	4.514380744614184	1.9256288683924425	0.18003965174622225	3.1184903077202173	0.9912798658725792	-0.4751702910812356	1.4664501569538149	61.8224030401083
8	3.0	wm	39	diff_vonmises	0.07394815375138444	4.236917112738834	2.718974826083304	0.8792091880718653	1.5139384475836439e-18	2.545877275502909	0.13899168791463895	-0.40282253331690215	0.5418142212315411	83.39535854762187
9	4.0	ltm	39	diff_vonmises	-0.24096083874505317	-13.806039088023951	1.0987142583981748	1.8280432430334317	5.595448881765403e-14	3.4704175724267983	0.10629620649350657	-0.4791669665738687	0.5854631730673753	124.20115126182637
10	4.0	perception	39	diff_vonmises	0.005260596289007809	0.30140996508233053	0.8940134667173101	445.6787525519677	0.8796951997297355	447.5487154578619	0.6198249921042134	-0.6494242681363644	1.2692492602405778	93.09575122950065
11	4.0	wm	39	diff_vonmises	-0.10034238469891968	-5.749195149526187	0.6780829851218052	209.76516644025847	0.657666221336266	212.23250341971348	0.13270415245385436	-0.6136405221229353	0.7463446745767897	101.42430511063982
12	5.0	ltm	39	diff_vonmises	-0.018172126374123153	-1.0411861460156282	1.7076120204827405	1.641776136527574	4.06548701704329e-21	2.2721975683104882	0.4078145735384978	-0.33634049799081733	0.7441550715293151	104.38403136943084
13	5.0	perception	39	diff_vonmises	-0.014104718948546422	-0.8081408669699102	0.9632652968733963	305.0892587064372	0.9478082084856684	305.79720807817847	0.6602936089795435	-0.4056827078105947	1.0659763167901382	92.86123816645849
14	5.0	wm	39	diff_vonmises	-0.01344359007026229	-0.7702609725300111	2.166722711462251	1.630282350392425	2.553241720476664e-19	2.3121096153864937	0.5145774062079004	-0.35640207680093633	0.8709794830088367	93.35679046300928
15	6.0	ltm	39	diff_vonmises	-0.10445867059929699	-5.985040958887016	0.673056913411705	2.661211020534907	1.4874387624322686e-22	3.04218061733784	0.25943357788765076	-0.2906533823344701	0.5500869602221208	143.28580664176644
16	6.0	perception	39	diff_vonmises	0.15909032990702243	9.115204465016284	0.000547774770333336	3863.6095798306333	1.56799783332109e-31	3863.8352609890685	0.3009607534843326	-0.3727050436191348	0.6736657971034674	179.07860356275154
17	6.0	wm	39	diff_vonmises	-0.34121572500317937	-19.550220946178698	0.7131184217160591	153.828295585104	0.6976023379211548	154.0308815675823	0.39745158731919616	-0.23583633641727353	0.6332879237364697	109.50825918007867
18	7.0	ltm	39	diff_vonmises	0.14170033290231443	8.118831030901372	0.7895620630760194	112.68928572942745	0.7673140200568119	113.62949256199032	0.19915259273809482	-0.2901420260234513	0.4892946187615461	97.84251401060055
19	7.0	perception	39	diff_vonmises	-0.026683727146182102	-1.5288649471548992	1.0685072711605434	22.88020655049617	0.8743768628857335	23.35491555485736	0.6907754672496491	-0.366121690344156	1.056897157593805	93.12674185224103
20	7.0	wm	39	diff_vonmises	0.31938231918749155	18.299258940543396	0.3475426183626029	116.92800754131618	0.3325355481906767	118.01888081066406	0.08181613050357228	-0.3466514205736857	0.428467551077258	137.24854990989402
0	1.0	ltm	40	diff_vonmises	0.2233499888474108	12.797011715250646	2.8739620733499684	0.5425387332438676	7.384633839775636e-14	3.6021175889687225	-0.22658028227015137	-0.5721889705029131	0.3456086882327617	81.07137581668405
1	1.0	perception	40	diff_vonmises	-0.09626828065690994	-5.51576618262184	9.023534743962198	0.9557735897697164	2.0982728318717417e-17	3.902842390209944	0.5071226832433722	-0.6211566421063457	1.1282793253497179	45.22023549797274
2	1.0	wm	40	diff_vonmises	-0.026582374114986377	-1.5230578462265263	3.174246490971264	0.837810929783276	0.17146575486827634	4.194454927289092	-0.2201048114848846	-0.6418246624594187	0.4217198509745341	67.18351815654103
3	2.0	ltm	40	diff_vonmises	-0.028501893690524138	-1.6330382165975832	0.8043489013773414	170.77286042173202	0.7869098161903574	172.50485636048737	0.0471357384759159	-0.402085292474581	0.4492210309504969	91.27184037275319
4	2.0	perception	40	diff_vonmises	-0.052836026475418234	-3.0272813232829434	7.746896734086285	1.378096961297922	0.21186493302885445	2.9773084178880644	0.9247306575494262	-0.49561471261287865	1.4203453701623048	47.35582959481036
5	2.0	wm	40	diff_vonmises	0.014150383458380614	0.8107572506569429	6.517166708313814	0.5363338463222412	0.03934646005901274	2.5820812986879957	0.1075940690505578	-0.41115751064753575	0.5187515796980935	52.40914731351185
6	3.0	ltm	40	diff_vonmises	-0.01925891303433203	-1.1034544348767152	1.6062317833185482	1.746396635028814	0.20508248797216963	3.3421702871947403	0.14235523482741363	-0.4050839757654503	0.5474392105928639	93.78355640162823
7	3.0	perception	40	diff_vonmises	-0.02923348369367217	-1.674955236111928	3.2195261516363236	2.489853376055349	0.1254065096700748	4.032088629249987	0.9726374754980078	-0.5898509425696986	1.5624884180677063	73.29157052418705
8	3.0	wm	40	diff_vonmises	0.037138817494381214	2.1278974985346704	2.895816799443067	0.9645486865870615	0.19515828895573914	2.967796149358862	0.050394011855605436	-0.43378046764276873	0.48417447949837417	71.97912477133326
9	4.0	ltm	40	diff_vonmises	-0.0034446700107878653	-0.19736505343342844	0.2902014363424763	5.274417627232693	7.296039565324096e-17	7.485696105349331	-0.09255496908605787	-0.5763977903267211	0.48384282124066325	163.54116063317633
10	4.0	perception	40	diff_vonmises	-0.01612679094879095	-0.923997058455498	0.7323298338624474	406.1796430251638	0.7167622732271949	408.75745392612896	0.464559022978122	-0.7754153913806334	1.2399744143587554	100.9306304906292
11	4.0	wm	40	diff_vonmises	-0.12910675904291552	-7.397272399771535	2.378954864744533	1.1357552460994422	0.033058313268256964	4.324379954222589	-0.06115919975660089	-0.6611267199925198	0.5999675202359189	85.86020276875445
12	5.0	ltm	40	diff_vonmises	-0.056791513029068694	-3.253914008727862	1.556892678203785	1.5772305812413874	0.11062655065912722	2.9271034315163362	0.1800055565166354	-0.3847526331602641	0.5647581896768995	101.16117191076259
13	5.0	perception	40	diff_vonmises	0.016682245774408896	0.9558222756735814	1.276275515137085	6.064892704647619	0.49046942016633005	7.490802326568934	0.5494401008888123	-0.5281448026932141	1.0775849035820264	95.04573207762871
14	5.0	wm	40	diff_vonmises	-0.0685294991487703	-3.9264510733699054	1.5510751110488818	1.9001674801914499	0.13828706693123247	3.3287124513760236	0.2344966453449554	-0.4215466234718297	0.6560432688167851	99.97773305543664
15	6.0	ltm	40	diff_vonmises	-0.17632121603897963	-10.102461517647932	0.6578606053403756	2.269129871349531	1.965279810474168e-17	3.5409720487994654	0.06392965453021993	-0.3952185854460024	0.45914823997622234	143.7712689213427
16	6.0	perception	40	diff_vonmises	0.06312005752944141	3.616512899059947	0.5576306479141605	3.9568770643783004	7.828665376457258e-18	5.557640206663742	0.13457299056176675	-0.55042677241942	0.6849997629811867	149.1184861867401
17	6.0	wm	40	diff_vonmises	-0.11678503327171728	-6.6912895167642965	0.6290747379440272	167.85757148869703	0.6129572283703474	169.3663041194717	0.10867863422590318	-0.3957214888056395	0.5044001230315427	106.18942946211338
18	7.0	ltm	40	diff_vonmises	0.10850165223615406	6.216686743327818	1.1084035318986316	146.0192384434898	1.0915672179513782	147.5021973268427	-0.07204445047538854	-0.32564530198477115	0.2536008515093826	72.98696305991024
19	7.0	perception	40	diff_vonmises	-0.02544076778228792	-1.457648621497497	2.136836772239466	2.0881557649296063	0.0596024687188482	4.174915252529054	0.41635724288351406	-0.6099455602472669	1.0263028031307808	90.5117270598393
20	7.0	wm	40	diff_vonmises	1.682010709336458	96.3721147407849	13.726461283072235	0.2318483374205448	5.0654019497879185e-22	2.1171237808329564	0.002405847222967772	-0.33695071485656175	0.3393565620795295	36.582468921450356
0	1.0	ltm	41	diff_vonmises	0.05566201505490016	3.1891985418394286	0.4182819849877727	95.17497803943256	0.40322169184267315	97.12545790411342	-0.182709044694068	-0.3739145588458932	0.19120551415182518	114.74934836387496
1	1.0	perception	41	diff_vonmises	-0.054290340347557614	-3.110607370243858	9.479193037778336	0.9769934491746182	0.11127129762668415	3.2994059464416132	0.5982328370908825	-0.5439337187420314	1.142166555832914	43.22904377259758
2	1.0	wm	41	diff_vonmises	0.023304542148268804	1.3352519085805432	9.102086644589049	0.20628692055304396	0.04590453975890134	2.6807378095692336	-0.20180804377012462	-0.4337750437362991	0.23196699996617448	43.7153237403048
3	2.0	ltm	41	diff_vonmises	0.07814275433133831	4.477250022713319	0.7933111620200364	51.08109927426106	0.7580498197227019	51.9534981727596	0.0860236563151826	-0.22780785902644407	0.3138315153416267	95.34052764390105
4	2.0	perception	41	diff_vonmises	-0.03384455379010009	-1.9391500916762294	9.328196482958855	1.1429396219218073	0.23996871926132285	2.430676889855278	0.8881848118887945	-0.41716121869823414	1.3053460305870286	43.2490677866534
5	2.0	wm	41	diff_vonmises	-0.10618807549213102	-6.08412856031568	3.190377607902658	1.0638235692246658	0.4439368177652034	2.9076299048645	0.03440137568099133	-0.4266422783510295	0.46104365403202086	63.65009135397926
6	3.0	ltm	41	diff_vonmises	0.1756305070959162	10.062886810338455	1.3658765008678126	112.38734949534377	1.3473879982417953	112.80555385617946	0.2040925141701706	-0.1660856038666818	0.3701781180368524	75.75436664314819
7	3.0	perception	41	diff_vonmises	-0.013962976203358889	-0.8000196058940662	2.9095099132719686	3.605102631148042	0.7660515209194714	4.530680777122206	0.9738404817604325	-0.5068064830879399	1.4806469648483724	67.76591572698308
8	3.0	wm	41	diff_vonmises	0.014024401715066167	0.8035390284693247	4.108485378843651	0.4428927342156665	0.09194924682612628	1.7867784361917427	0.034411158182677315	-0.2781352706061408	0.3125464287888181	64.04600633086093
9	4.0	ltm	41	diff_vonmises	-0.15478796047146356	-8.86869685445268	0.9235411638605534	5.820163565896472	0.5739625137192097	7.139816764864282	0.04349563508478149	-0.31057458824965634	0.35407022333443783	95.06080692269585
10	4.0	perception	41	diff_vonmises	-0.007314436543985927	-0.4190863434866496	0.9703750033384975	510.403870608365	0.9591655756938362	512.0630631045357	0.5311934437437174	-0.560579130473414	1.0917725742171314	89.00760077237183
11	4.0	wm	41	diff_vonmises	-0.22475326139238214	-12.877413309584085	0.9321700553925627	259.777826943814	0.9171026087828085	261.95729717085766	0.0340518917627719	-0.49964163398687944	0.5336935257496513	83.78128980420979
12	5.0	ltm	41	diff_vonmises	-0.033624524223352235	-1.9265433261334852	1.1969914901329641	106.6439041816677	1.1764742847467895	107.0018331157182	0.27081771029112645	-0.17339643199898802	0.44421414229011447	82.607589679053
13	5.0	perception	41	diff_vonmises	-0.012981841121557851	-0.743804706574644	1.030157089784001	341.8781593470727	1.015969901750145	342.60332829058024	0.6656229534771256	-0.4028825159035847	1.0685054693807103	89.67203403717915
14	5.0	wm	41	diff_vonmises	0.0790356297022525	4.52840801309788	3.0236790352679086	1.0073915159402977	1.856783746429992e-16	1.7917377271239405	0.3775287026548953	-0.2835969237218137	0.661125626376709	79.01945003507262
15	6.0	ltm	41	diff_vonmises	-0.24449373544188024	-14.008459158207852	0.7182214508943656	153.8503865555975	0.7053297771291648	154.35662048579303	0.2336541356023929	-0.21993944181656921	0.4535935774189621	105.42119715356576
16	6.0	perception	41	diff_vonmises	0.14317972968726292	8.203594222904144	0.5972317313777472	3.5297680376120373	2.2643472246982957e-16	4.071041357029681	0.28757205876308656	-0.3645931728858558	0.6521652316489424	146.83723501365947
17	6.0	wm	41	diff_vonmises	-0.19484911966294488	-11.164032198526284	2.238494431241332	1.113362674104913	0.06529964617746677	1.5219853004447066	0.35629345407750057	-0.2196909998423825	0.5759844539198831	89.3815024640983
18	7.0	ltm	41	diff_vonmises	0.12082273792186275	6.922632952137978	1.4060304931865721	136.14378482754807	1.3891317605828224	136.65984647849933	0.19740105900034877	-0.18872874129548478	0.38612980029583355	73.80547943013954
19	7.0	perception	41	diff_vonmises	-0.05366902827065714	-3.0750088104769535	1.2056696602263695	3.723966972903288	0.32465012867529774	4.282838854231094	0.49708482569781354	-0.35297980861232037	0.8500646343101339	105.39621006296478
20	7.0	wm	41	diff_vonmises	0.23643180222033577	13.546544409897047	1.0406086426058705	1.223534524270635	0.07549104788737582	2.2533285221977284	0.04126422035105054	-0.2787377925580685	0.32000201290911906	120.22999722966759
0	1.0	ltm	42	diff_vonmises	-0.03697692588494793	-2.118621792575563	0.0002914180925715728	1048.1372681075493	9.472953688465037e-30	1051.0215371910688	-0.41042897795557565	-0.5076553024110524	0.09722632445547674	179.94427020280534
1	1.0	perception	42	diff_vonmises	0.08143479001693699	4.665869773504579	8.517669921890276	0.8736780856014	0.11942881996641425	4.442232664476323	0.20742310576832468	-0.7342103948359222	0.9416335006042469	45.02684792933738
2	1.0	wm	42	diff_vonmises	-0.060792968631174726	-3.483180526637517	0.0003696682952672119	340.7023784994789	9.98233327212415e-25	344.209210549253	-0.5380834495464342	-0.578172156597077	0.040088707050642824	179.87505292594324
3	2.0	ltm	42	diff_vonmises	0.5849648096023411	33.516014753887916	0.8883245661786798	150.7590608203277	0.8744568844840717	151.92591735699511	0.027599016911537433	-0.26961203256503197	0.2972110494765694	86.31525520360415
4	2.0	perception	42	diff_vonmises	-0.025729458040275925	-1.4741893548667526	8.690797108632127	1.5191916726306114	0.45838218794648017	3.2358171762038084	0.9856880963543134	-0.5939816800481265	1.5796697764024399	43.63685891972639
5	2.0	wm	42	diff_vonmises	0.11626484251609429	6.6614847819253775	3.1428198608793347	0.8647756775358395	0.13618225930970054	3.473932149686921	-0.0491098656733262	-0.5252685721733961	0.47615870650006986	70.27889131926403
6	3.0	ltm	42	diff_vonmises	0.2720595156943437	15.587862025659078	16.78485688846014	0.13244199898286124	0.11001549903629254	0.5065880548234977	0.12498771826970195	-0.08573855738197718	0.21072627565167912	32.70311951797268
7	3.0	perception	42	diff_vonmises	0.016456359018879114	0.9428799179338214	3.9159325501319002	2.5303870217754962	0.5773556579025767	3.309666458643054	1.058310600260898	-0.4611066901907298	1.5194172904516279	62.251058058529594
8	3.0	wm	42	diff_vonmises	0.22269083936300532	12.759245231725988	0.559988245310308	31.938787649725974	0.516619250892408	33.38406084367321	-0.10079223440528118	-0.2858151314547843	0.18502289704950314	103.21363462554876
9	4.0	ltm	42	diff_vonmises	-1.2198295801226968	-69.89108666624583	712.1435583004974	890.7944297196992	0.09916045984713814	1.7856868606655139	inf	-0.3121663818358255	inf	0.0
10	4.0	perception	42	diff_vonmises	0.05109057481686102	2.9272743099035052	2.8361348323523363	2.1951387563971543	0.18748884201080968	4.216898493769106	0.5897302114566321	-0.5946668000558251	1.1843970115124571	75.48488187905568
11	4.0	wm	42	diff_vonmises	-0.4447443825226307	-25.481976080698594	0.6764870778247716	2.8635792817346806	2.0745102983421766e-13	6.4299358182425985	-0.22134678743731395	-0.8160504977796672	0.5947037103423533	140.77109518371947
12	5.0	ltm	42	diff_vonmises	-0.10854968724681367	-6.219438946707481	1.1995512388354233	105.75894965638061	1.177614521023154	106.58994571878867	0.11764712647229914	-0.23177577355293266	0.3494229000252318	77.1512653842897
13	5.0	perception	42	diff_vonmises	-0.06017090112325182	-3.4475386838613136	1.5016894481503573	5.660055933522198	0.5473536984254623	7.140623095957687	0.6279771688528883	-0.5487833562914034	1.1767605251442919	88.49284102725002
14	5.0	wm	42	diff_vonmises	0.19149475754735681	10.971841406344513	4.423466963933657	0.8489452993010708	4.368307727668037e-18	2.552323070618219	0.28313366739383866	-0.40611568944996806	0.6892493568438067	65.01491741937895
15	6.0	ltm	42	diff_vonmises	-0.35985513873282426	-20.618180685485548	0.5917044110628786	170.12782803145623	0.5814855002206227	170.87573021870088	0.13260350524146958	-0.24253270969860452	0.3751362149400741	112.5633711752162
16	6.0	perception	42	diff_vonmises	0.18843782624587083	10.796692144507933	0.8875332727334273	3.3484648855293973	8.793184285274209e-11	4.647664011030245	0.33296844097881706	-0.557909439727218	0.890877880706035	133.03388567954488
17	6.0	wm	42	diff_vonmises	-0.2443897067624278	-14.002498753926908	1.558266168367926	1.677853163115882	3.219319832453347e-15	2.822199099103634	0.2945975630160225	-0.41621031808311154	0.7108078810991341	108.49560566131677
18	7.0	ltm	42	diff_vonmises	1.278290493149393	73.24065024915689	0.00012320097624886496	5903.289592656485	8.675385521609673e-29	5904.342589150794	-0.051835088984717004	-0.28333697514483447	0.23150188616011746	137.2794314806343
19	7.0	perception	42	diff_vonmises	-0.06042602892925611	-3.4621564303817918	2.1409254191324645	1.6305889696022022	3.5332708136049505e-16	3.1259649247309	0.3788488390309917	-0.48540233737861677	0.8642511764096085	93.9018423746796
20	7.0	wm	42	diff_vonmises	0.6149049965939917	35.23146110634198	1.9721376637113956	0.5979900537886705	5.808436735852589e-15	2.6138949746193227	-0.11013136681898394	-0.41009061730538915	0.2999592504864052	96.98978683097471
0	1.0	ltm	43	diff_vonmises	-0.19661376426064384	-11.265138886314995	0.15624310366619493	56.80280370502016	0.14214693083094765	59.05081185474132	-0.2741818107795826	-0.4260963131844093	0.15191450240482673	156.68195405471195
1	1.0	perception	43	diff_vonmises	-0.026650562434881057	-1.5269647491685794	9.182692571816663	0.8897930727247653	0.037575431293092584	3.5445375228464586	0.4743877682272609	-0.5687126230639956	1.0431003912912566	44.40510735417945
2	1.0	wm	43	diff_vonmises	0.17953156145953697	10.286400761025018	6.126658050904441	0.16478214499929278	2.743428602041056e-10	2.7128746416799596	-0.27267851226898576	-0.4317666502385938	0.15908813796960802	55.04203907054364
3	2.0	ltm	43	diff_vonmises	0.34354110372123625	19.683455332492898	0.530017716503868	134.05746090714013	0.5183281043709482	135.13330801324926	0.02479348106835033	-0.26848121241511613	0.29327469348346646	113.75999592579879
4	2.0	perception	43	diff_vonmises	-0.037929258514500415	-2.1731864329415163	8.97802162957667	1.43492770442692	0.43777708540338334	2.7241901041814915	1.049333896897509	-0.496663528081022	1.5459974249785309	43.28624899496367
5	2.0	wm	43	diff_vonmises	-0.007289492130506447	-0.41765713387184605	7.331931555651635	0.4187982531455677	0.058258241870153	2.25790430423217	0.06346408178614893	-0.36277522616302854	0.42623930794917747	49.09667314170261
6	3.0	ltm	43	diff_vonmises	0.10234689088633199	5.864044894072772	1.4437766626711352	87.3835613485422	1.4252167377628144	87.78117319825566	0.12053388471174031	-0.13656487836109754	0.25709876307283785	72.05466327663174
7	3.0	perception	43	diff_vonmises	0.014657689987092727	0.8398237736715793	2.717807349315449	3.5348532442883327	0.7450059660394929	4.129022238141311	0.976964578954157	-0.43099433153099537	1.4079589104851524	70.50780765605322
8	3.0	wm	43	diff_vonmises	0.015570255036016176	0.8921098995060425	3.0341478955137893	0.5640535113612103	0.319656132641794	1.566328166553448	0.03723541698766236	-0.2268092010153383	0.26404461800300066	67.76097345441426
9	4.0	ltm	43	diff_vonmises	-0.18886474104253326	-10.821152560568375	0.5563064124494883	65.43556906558632	0.5360140017622871	66.8423188467396	-0.10679075939284743	-0.27370463365548403	0.1669138742626366	101.38350106293552
10	4.0	perception	43	diff_vonmises	0.007255666200905067	0.4157190508675804	2.3262564168557733	2.526321469148829	0.23530932606034005	4.150338610331349	0.6024673351343627	-0.538262382279197	1.1407297174135596	81.61446225386786
11	4.0	wm	43	diff_vonmises	-0.23195495413290795	-13.290039908966218	0.8593400826653466	157.21742255788675	0.8370997189343035	159.43132252641044	-0.020701269635139852	-0.48543690897886904	0.4647356393437292	86.24542531673787
12	5.0	ltm	43	diff_vonmises	-0.08927479481901879	-5.115068960026164	1.7244407186527266	1.8551764183599384	0.6944968469891394	2.8037176539192346	0.07978519633632986	-0.2410538435363327	0.32083903987266255	76.46485662603124
13	5.0	perception	43	diff_vonmises	-0.008651697890162924	-0.4957057747285744	2.0464530987761487	2.6964568066994414	0.332624315287322	4.0835995024965825	0.52854627694688	-0.4738341383202255	1.0023804152671054	83.62784334611834
14	5.0	wm	43	diff_vonmises	0.13560064630759888	7.769344732671646	2.431824424183878	0.9646297505774925	0.060631568078598826	2.370188013248484	0.15888625030688985	-0.35226099280363854	0.5111472431105284	84.47322534484701
15	6.0	ltm	43	diff_vonmises	-0.34746847930415214	-19.90847737795671	0.66971856501281	164.01522142132288	0.6565225183013165	165.174613402128	0.09140274323630138	-0.3024286192439227	0.3938313624802241	102.82421552643765
16	6.0	perception	43	diff_vonmises	0.278656485524658	15.965840554511221	0.5809506717418785	4.2667204286462885	2.0948554922345261e-19	5.8314299667344205	0.18958335401234094	-0.5783878197347525	0.7679711737470934	146.77064024232783
17	6.0	wm	43	diff_vonmises	-0.2289980730008195	-13.120623099575685	2.149085016283344	1.0414279098124217	3.2604367287649077e-20	2.3433096348210354	0.18808281896177503	-0.36532289817019575	0.5534057171319708	93.67016988797721
18	7.0	ltm	43	diff_vonmises	0.01904046495302617	1.0909382817751587	1.060932166057544	157.5559435617094	1.0462775612322492	158.84470085475365	-0.017092304266711267	-0.2911529250708078	0.27406062080409654	76.81611974828914
19	7.0	perception	43	diff_vonmises	-0.12426976833950913	-7.120133246922333	2.6506314169441727	1.3883167115662718	2.127489522980845e-20	2.604221026911359	0.43221874490752854	-0.4102535843710352	0.8424723292785637	84.46929471240281
20	7.0	wm	43	diff_vonmises	0.5586649318670716	32.00914275794689	2.5682463149353043	0.5092352606705203	0.03916838161909125	2.1477244635388515	-0.0504389520095076	-0.3287468820728759	0.2783079300633683	82.0192950261027
0	1.0	ltm	44	diff_vonmises	0.2178065555118824	12.479396381112739	3.580334967746538	0.534150233216016	3.8019227380151435e-19	3.6794694848554084	-0.19925569477040672	-0.5853056672457945	0.38604997247538775	72.47123834838331
1	1.0	perception	44	diff_vonmises	-0.06277840072102835	-3.5969374058959684	10.645620697169855	0.7872584318141347	8.420794662718479e-22	4.0295417481521465	0.3705649010233565	-0.641321487039862	1.0118863880632185	41.59165286039686
2	1.0	wm	44	diff_vonmises	-0.0026059107848179154	-0.1493076897576906	2.3631646910519155	1.56552574387817	0.34981464209223334	5.118514156774419	-0.22873252164592073	-0.7131574613647782	0.4844249397188575	70.11034626462467
3	2.0	ltm	44	diff_vonmises	-0.10380668796477337	-5.947685105612991	2.0921035922820885	1.2256262554608683	0.18061779761946983	3.1326229940085994	0.05726140536416069	-0.4257101786301835	0.4829715839943442	83.57016880861133
4	2.0	perception	44	diff_vonmises	-0.06416184222026683	-3.6762027650055846	9.77507136633423	1.0476698331213707	0.03474595224549335	3.0392964666836555	0.7883283808662954	-0.4873067527157757	1.275635133582071	43.152222809029524
5	2.0	wm	44	diff_vonmises	-0.06232534851484895	-3.5709794265827983	4.763738218019877	0.7318803960094051	0.09185651342818668	3.0340695834130784	0.09012764012845398	-0.477859171581399	0.567986811709853	59.81686463384639
6	3.0	ltm	44	diff_vonmises	-0.0795166939485429	-4.5559709640849615	0.7451482915252282	172.78782503809416	0.7262598057937993	174.30057841850387	0.1847679423391142	-0.4142169471150954	0.5989848894542096	98.72870537936286
7	3.0	perception	44	diff_vonmises	0.007711312448068085	0.4418256577809961	2.7575920153619813	3.2018180359288317	0.29122036591854317	4.6293217533669475	1.0325992891305327	-0.6075611528741388	1.6401604420046714	75.57609233166599
8	3.0	wm	44	diff_vonmises	-0.06627786084348448	-3.7974417014870396	2.658278823805156	1.3432318705759996	0.2328580892480765	3.209338681113627	0.18450503601110457	-0.44826482184488425	0.6327698578559888	74.9092552343636
9	4.0	ltm	44	diff_vonmises	0.030131699634993517	1.7264192186410117	0.1249432850286025	10.961999264182818	1.123012239790971e-09	13.194383433609229	-0.13080412078998505	-0.5661996083848249	0.4353954875948398	172.79920268763303
10	4.0	perception	44	diff_vonmises	-0.025504753489678667	-1.4613147324801459	1.4273634939377975	5.628052322642269	0.34356371593544843	8.15229047617304	0.5890869362849676	-0.784326280770307	1.3734132170552744	94.7377719569902
11	4.0	wm	44	diff_vonmises	-0.1886797023355871	-10.810550623613802	0.6149167629679236	92.43604319894985	0.5767326448559384	95.19689571238587	-0.053267534067746425	-0.6055306749358085	0.552263140868062	103.26035195188364
12	5.0	ltm	44	diff_vonmises	0.003412897106730999	0.1955446001280959	1.75706718809988	1.1923006837547137	6.2152133329669365e-21	2.4082841035292684	0.18529373906618002	-0.36636119883268353	0.5516549378988636	103.0471301113513
13	5.0	perception	44	diff_vonmises	0.009050362185376755	0.5185475562868844	1.9925745593162085	2.435292291093981	0.11711401717393366	3.883752404334775	0.5608831070707785	-0.5262465650166825	1.087129672087461	91.58494761256182
14	5.0	wm	44	diff_vonmises	-0.08652418320793964	-4.95747052363165	1.9885052734203386	1.4385334870874353	0.07518242281070034	2.8978094242874026	0.2430266044320641	-0.41352113642871524	0.6565477408607794	92.62178787653534
15	6.0	ltm	44	diff_vonmises	-0.21022823631897425	-12.045190675556114	0.5037028559957498	2.6756826546851	4.3607526198489224e-14	3.8318855531836062	0.05218222878634293	-0.36810744989053934	0.4202896786768823	151.30808631936696
16	6.0	perception	44	diff_vonmises	0.12494040103695388	7.158557670089391	0.2748511456203372	8.138911880293016	1.0518842259530576e-19	9.21958458525746	0.2060151638285619	-0.5016095997524013	0.7076247635809632	163.970137798949
17	6.0	wm	44	diff_vonmises	-0.1859951920430656	-10.65673951379289	0.4966992263074792	161.32668134989794	0.48461633700223145	162.60386624865643	0.052320594449675184	-0.3398032719535298	0.39212386640320496	118.69265743697076
18	7.0	ltm	44	diff_vonmises	0.36670260471917177	21.01051158686265	1.1333492343176317	90.25972838852117	1.1119696596408601	91.01860324712507	0.0849798805077171	-0.20237689724817365	0.28735677775589075	78.82923126882929
19	7.0	perception	44	diff_vonmises	0.016135390192595415	0.9244897588324978	2.151060696126559	1.7455471671520446	1.71020390334542e-12	3.0547999804905	0.4546860518492278	-0.4734472380742134	0.9281332899234411	93.68360519517813
20	7.0	wm	44	diff_vonmises	0.5532156173289058	31.69692003367071	0.00024487055065338265	1918.6888300207922	3.8233709766303055e-25	1920.0098403549994	-0.1354659647205949	-0.28501552972164745	0.14954956500105254	170.90003078408716
0	1.0	ltm	45	diff_vonmises	-0.05454814692510659	-3.1253785990681267	0.26960653444111843	84.70112790711707	0.25923254636650406	85.94631678929962	-0.09699809568351725	-0.2697152878428444	0.17271719215932713	142.48884294420478
1	1.0	perception	45	diff_vonmises	-0.08563499214600998	-4.906523628602324	11.692119504838226	0.8600704902719536	0.015112422152408225	2.4411872886661685	0.7657497950545824	-0.3899895145387762	1.1557393095933586	39.5662510384368
2	1.0	wm	45	diff_vonmises	0.016061858114513078	0.9202766810995535	9.371067236693507	0.1952665949334971	0.029730502927566294	1.6920127470956967	-0.042239970338201704	-0.2716032093880872	0.22936323904988548	43.72488008411332
3	2.0	ltm	45	diff_vonmises	0.1795879068660136	10.28962911501108	0.3486500733027073	88.4750109333743	0.33452531612272735	89.11960185648738	0.08669409460788557	-0.23183186889356655	0.3185259635014521	138.63346761171792
4	2.0	perception	45	diff_vonmises	-0.027051665066764582	-1.549946237127095	8.279639052821155	1.3201188373421298	0.35805551705905925	2.3728186045997663	0.9674164890855143	-0.41433423233537736	1.3817507214208917	45.38508584933726
5	2.0	wm	45	diff_vonmises	-0.11645584701959547	-6.672428533843987	4.593951838286143	0.733751238178933	0.5168157622241153	2.10877808477475	0.0810724633961083	-0.34816246120433	0.4292349246004383	54.70538454718087
6	3.0	ltm	45	diff_vonmises	0.16601583952592816	9.512006937156837	1.5525369182304765	134.05451408936327	1.537060780400646	134.22086960133768	0.28633083413912175	-0.13444330586710684	0.4207741400062286	73.71773127243046
7	3.0	perception	45	diff_vonmises	-0.018027452543593912	-1.032896946120312	1.5893320733331535	295.5545657333747	1.5629453629673362	296.29743864562437	1.0124003188198003	-0.5146652669347631	1.5270655857545634	72.50785777945887
8	3.0	wm	45	diff_vonmises	-0.05803573036882097	-3.325202411092662	2.275209872408197	1.4449317875541676	0.7930635310542761	2.421070392060973	0.07345271454147217	-0.2577465806709346	0.33119929521240676	67.68940784120204
9	4.0	ltm	45	diff_vonmises	-0.14836007313140498	-8.50040603868175	4.462590607645054	0.4854700547187065	1.7259725623032106e-16	1.6765418207985012	0.12918388212451187	-0.2667772314139092	0.39596111353842106	64.72854994548484
10	4.0	perception	45	diff_vonmises	-0.05006312411050204	-2.8684057207714004	0.9592846699925606	435.7097961949737	0.9465677338005155	437.1880118346783	0.5618850912007929	-0.5336191026753525	1.0955041938761454	90.19262883968935
11	4.0	wm	45	diff_vonmises	-0.36946964074684485	-21.16905107300896	1.3336224217230759	239.73282932911235	1.3169818457004556	241.41508373411327	0.04810794852338063	-0.4294111794449478	0.4775191279683284	69.89526763415753
12	5.0	ltm	45	diff_vonmises	-0.06702521035695838	-3.8402616744302494	1.3313606026471847	68.36877001340397	1.3069546188683179	68.60449168492826	0.20830186135616557	-0.12402531868977285	0.3323271800459384	78.59061715857732
13	5.0	perception	45	diff_vonmises	0.015476859384143686	0.8867587228288757	1.0848983747105074	314.4170587207628	1.0704609718214626	314.993671947041	0.6473918623570825	-0.35920488168888554	1.006596744045968	87.81983658121985
14	5.0	wm	45	diff_vonmises	0.06059941892588468	3.4720909453983966	1.7376236115065713	1.8100783233005049	0.4904151412069229	2.4562721816068853	0.25567077496553836	-0.22846736986277805	0.4841381448283164	85.15094904978218
15	6.0	ltm	45	diff_vonmises	-0.32680625146534226	-18.724618927455186	0.7826948033233192	136.355258582689	0.7681193033569838	136.99139858013737	0.19023405050240427	-0.2205463654837061	0.41078041598611037	99.3566848257068
16	6.0	perception	45	diff_vonmises	0.13229720142012802	7.580071282765497	1.1357902669172029	1.930757143526541	4.171628878891322e-17	2.6424710578683066	0.28843173399581373	-0.34742582546248113	0.6358575594582949	122.99743167850951
17	6.0	wm	45	diff_vonmises	-0.06281690045885567	-3.599143278385834	3.884554102031496	0.6063890708379592	1.032764773274507e-18	1.2158022655100098	0.2652737041809605	-0.19330702995171464	0.4585807341326752	69.50215451553191
18	7.0	ltm	45	diff_vonmises	0.08255496993303466	4.730051354992294	1.9388106169496468	127.23470013173316	1.9192031196770003	127.6348499334503	0.19431254517218122	-0.1786625212050552	0.37297506637723643	62.67257290075284
19	7.0	perception	45	diff_vonmises	-0.008314743322189058	-0.4763997000960179	0.9537510272985051	2.7738091946792567	0.021672826766546197	3.4209045845747426	0.3671786612468936	-0.3956161838260402	0.7627948450729338	129.3098657517346
20	7.0	wm	45	diff_vonmises	-0.27350296471793206	-15.67056556265297	0.0001756000784408724	3895.354179683743	3.478623630494925e-30	3896.133319890169	-0.015135155809275602	-0.2328633168228862	0.2177281610136106	177.8614171638829
0	1.0	ltm	46	diff_vonmises	0.285521204549321	16.359159982167572	0.7521009180145984	56.97797377786341	0.7105087257064723	58.96289310416423	-0.11662170422658491	-0.3979722565321495	0.2813505523055646	88.96259245703453
1	1.0	perception	46	diff_vonmises	-0.0647967826519521	-3.712582171983365	9.70334470947486	0.8841928948176625	5.460322621039105e-20	2.989423900140048	0.608006692719143	-0.47578158666014353	1.0837882793792866	43.582221830382736
2	1.0	wm	46	diff_vonmises	0.1515559203786008	8.683514597914572	4.006855613673452	0.48205165161384683	0.14347695726565857	2.89139480224789	-0.1574992461971919	-0.45622056560761964	0.29872131941042773	61.546687201478505
3	2.0	ltm	46	diff_vonmises	-0.043368016220493376	-2.484804295289166	0.98058035239102	7.682089550874435	0.706738012236233	8.872936022057594	0.06051557117736284	-0.28622914212522077	0.3467447133025836	89.77094307949929
4	2.0	perception	46	diff_vonmises	-0.03775859310156613	-2.1634080250715244	8.353709566696967	1.2442765814685357	0.17754086164191007	2.6222551981974505	0.9173780902139994	-0.4351490651855126	1.352527155399512	45.90835900023174
5	2.0	wm	46	diff_vonmises	-0.06673532707480011	-3.82365258581118	4.79438818674143	0.6398820207590526	0.23652326238047497	2.5097351861974544	0.043529971256925926	-0.4040555091698358	0.4475854804267617	56.790010176975386
6	3.0	ltm	46	diff_vonmises	0.08694500710681034	4.981581956955181	1.0877635246715889	194.21578386160107	1.0759325235229915	194.8523315693058	0.2044880975825123	-0.21354861366949862	0.4180367112520109	83.8632912196831
7	3.0	perception	46	diff_vonmises	0.020854083503400428	1.1948509703582382	1.368215068151122	220.64098988336102	1.3370825020825867	221.40046631294192	0.9299701788478529	-0.48602512155500577	1.4159953004028587	78.33196572883853
8	3.0	wm	46	diff_vonmises	-0.025985781106057933	-1.4888755847279158	2.384515216532231	1.3253908346261782	0.5690828230227596	2.4933935050428073	0.11203035360913471	-0.2992733436321421	0.4113036972412768	70.69578767930622
9	4.0	ltm	46	diff_vonmises	-0.030328343139251604	-1.737686061503663	2.6278763084587973	0.49546136612143143	5.958956966389517e-25	1.9463879994591657	-0.009130020934296934	-0.30820858248137983	0.2990785615470829	84.84458088202916
10	4.0	perception	46	diff_vonmises	-0.0017657324101744427	-0.1011690148524583	0.9844934844555124	467.1511040278046	0.9714848185421261	469.0374612299313	0.5172962513824473	-0.6044595482898885	1.1217557996723357	87.81744279201493
11	4.0	wm	46	diff_vonmises	-0.3238885152729625	-18.557444957899254	0.8970069941006934	164.3497935012983	0.8772161552002015	166.3080102878746	-0.0036412450702201227	-0.4358811492076349	0.43223990413741475	84.68841800076876
12	5.0	ltm	46	diff_vonmises	0.02687153187631353	1.5396253655640233	1.9092679199693678	1.132420170267856	0.38182420512861526	1.884545297825314	0.1441704746656931	-0.2107325727346265	0.35490304740031964	82.9765995663266
13	5.0	perception	46	diff_vonmises	-0.006418763892490993	-0.36776808073069794	1.5815012807021258	4.298097904213875	0.5157629343744541	5.330676894631651	0.5914330970451918	-0.43649929870516657	1.0279323957503583	88.5213963219139
14	5.0	wm	46	diff_vonmises	0.03540015932811697	2.0282797235917744	2.055258754698533	1.1733284801967252	0.10741363640124053	2.3674150714735407	0.197040851344024	-0.32979913166394764	0.5268399830079716	89.5213399839295
15	6.0	ltm	46	diff_vonmises	-0.2715280795317769	-15.55741297646337	0.8426217892983348	2.880520431900618	0.3002822069324865	3.8346896139853266	0.09228178026141398	-0.2754751630774304	0.3677569433388444	114.23520620768852
16	6.0	perception	46	diff_vonmises	0.17322145014760057	9.924858014593303	0.4422352119757276	4.705477720197433	1.9462842718631228e-11	5.6215177536031495	0.21577065066425216	-0.43614540396406604	0.6519160546283183	154.63248868254473
17	6.0	wm	46	diff_vonmises	-0.24594095520412337	-14.09137874261231	1.7271811746743322	0.8596777698421249	0.004394780016225696	1.8624655969542065	0.10798207933198434	-0.28229592251543073	0.39027800184741507	103.39724713264188
18	7.0	ltm	46	diff_vonmises	0.1885713807848296	10.804344255925086	1.0279713830012513	86.66397350785904	1.004360243408138	87.51227233903117	0.0959566351505039	-0.22366412775216382	0.3196207629026677	83.11249365968465
19	7.0	perception	46	diff_vonmises	-0.0840658982787736	-4.816621172349819	2.498291706105488	1.5172147306517652	9.020785365058094e-16	2.1427828193805563	0.5527828046418117	-0.3349912179792851	0.8877740226210968	87.02031771726143
20	7.0	wm	46	diff_vonmises	0.3933454754176032	22.537035631995533	0.3951021239548996	48.838110058399614	0.37222322336122154	50.02915736605285	-0.06152594971019987	-0.26507337019527544	0.20354742048507557	125.86110466039628
0	1.0	ltm	47	diff_vonmises	-0.121907036455744	-6.984758681861597	1.9189523871701295	0.511006590983029	1.6271603041333177e-21	2.826744288827039	-0.19279023880910157	-0.44435272851349034	0.25156248970438877	98.9116711713317
1	1.0	perception	47	diff_vonmises	-0.05256559603432348	-3.0117868003563526	9.233126666821933	1.079290927468518	0.1636402866083643	3.9009229435512864	0.563315274860343	-0.6565546819288044	1.2198699567891476	43.35222779390267
2	1.0	wm	47	diff_vonmises	0.0020035702930117708	0.11479612174736416	8.087906222013737	0.32102938623244404	5.123993865741246e-22	3.1620044335593596	-0.14501120224151792	-0.503248601863714	0.3582373996221961	47.78955998778042
3	2.0	ltm	47	diff_vonmises	0.031149943170551267	1.7847602757449499	3.0215114455298466	0.7913920884586464	0.26273203799826156	1.6008257426898158	0.19474173826987495	-0.22536882364218572	0.42011056191206064	71.47046110574195
4	2.0	perception	47	diff_vonmises	-0.041584526267834744	-2.3826178481978397	10.996510697876323	0.9355224579909605	0.14627527118603723	2.054278003048011	0.84621094810158	-0.3448888539533082	1.1910998020548882	40.31097852963612
5	2.0	wm	47	diff_vonmises	-0.09413938318416105	-5.393789342417262	4.173266334130768	0.7495421233807974	0.25215393965761246	2.191944090629813	0.14783789551136384	-0.3402289595284277	0.4880668550397915	61.094197180636854
6	3.0	ltm	47	diff_vonmises	0.06829943787722698	3.9132695334810603	3.397474317066512	0.46618373913972416	0.06605668796980281	0.9495270709592684	0.1662700291462578	-0.14420541117990335	0.31047544032616115	72.31169961075798
7	3.0	perception	47	diff_vonmises	0.003333014785587008	0.19096768026883656	4.297730036558036	2.2233810239368967	0.5403480924058011	2.910899941875517	1.0371975921964474	-0.4234445579521705	1.460642150148618	60.23394487761067
8	3.0	wm	47	diff_vonmises	0.022596725793937435	1.2946970188070193	2.6908732819420886	0.6918007718607198	3.6409209600672573e-17	1.742266859984699	0.1483173021019616	-0.2753325413994328	0.4236498435013944	83.83800048696952
9	4.0	ltm	47	diff_vonmises	-0.3812077258207691	-21.841593807310325	0.7428744256265554	152.7998627204942	0.7260605535551663	153.98347080974457	0.1475903383830115	-0.32553018907221976	0.47312052745523125	98.88342242367544
10	4.0	perception	47	diff_vonmises	-0.0006986743790570074	-0.040031093173889996	1.832765016046713	4.0707112749040775	0.45428027650904346	5.321510651559344	0.7239993977681949	-0.5188259624608333	1.2428253602290282	85.28384928728934
11	4.0	wm	47	diff_vonmises	-0.1431027991117065	-8.199186425609248	0.8622720538363637	238.66659117996232	0.8461163732354289	240.4207651057255	0.18757118964684594	-0.4586743736367964	0.6462455632836424	90.87400216022205
12	5.0	ltm	47	diff_vonmises	-0.022425802749909438	-1.2849038497626863	1.8177345034591548	1.306602167176448	0.111629028985574	1.4995802872121737	0.3700654636366931	-0.19601829542320992	0.566083759059903	97.33056048894542
13	5.0	perception	47	diff_vonmises	-0.015188986898161724	-0.8702648443441703	1.0947232252967485	258.6480909802167	1.077533597976884	259.0720718500091	0.6826916628423305	-0.3386592566649007	1.0213509195072312	88.21185366276669
14	5.0	wm	47	diff_vonmises	0.03866106624656082	2.215115927403618	2.2789229861436913	1.4447106252378796	3.599672217340053e-18	1.6952950628627617	0.53624221630247	-0.26136311942873425	0.7976053357312043	91.07916266521767
15	6.0	ltm	47	diff_vonmises	-0.24743667346548504	-14.177077086328978	0.5875454558213852	115.09941767881594	0.5714910156358878	115.24360301568092	0.3114924980638918	-0.20591321305900756	0.5174057111228993	119.58273254016058
16	6.0	perception	47	diff_vonmises	0.23475529509481827	13.450487627281284	0.30561182258345526	7.433530678959054	1.955146110187684e-13	7.382409585509502	0.3941676134283827	-0.323393730141599	0.7175613435699817	161.39747924091
17	6.0	wm	47	diff_vonmises	-0.3123783945130355	-17.89796361666953	1.4565925765332368	2.464923437571499	0.4919119617238747	2.2247120758175933	0.5033244951583011	-0.14884161549656572	0.6521661106548668	97.49633711601085
18	7.0	ltm	47	diff_vonmises	0.1628890428114855	9.3328546820239	1.015392197965892	175.60469548597146	1.000741972734049	176.2464771764761	0.26691953423857484	-0.2381611938695336	0.5050807281081084	87.92371106149886
19	7.0	perception	47	diff_vonmises	-0.054857470777900486	-3.1431015503359427	1.959319122232894	1.7943495425775862	2.4559223278997023e-15	1.988477291105733	0.5977601659354609	-0.2983116035902649	0.8960717695257258	97.96504141705543
20	7.0	wm	47	diff_vonmises	0.17453124094230135	9.999903499174744	0.5810529259767366	121.41856703628689	0.5646180499247407	122.1830870025402	0.17870247876242829	-0.2747350636335728	0.4534375423960011	114.9946660185519
0	1.0	ltm	48	diff_vonmises	0.2997545815215289	17.17467241089378	0.5162132857970633	42.14906103911441	0.4640764129524189	45.16004464647125	-0.31271015948817293	-0.5507163342038837	0.23800617471571073	101.27990890703109
1	1.0	perception	48	diff_vonmises	-0.014406565887176894	-0.8254354226123806	9.584656039301214	0.7682256502468845	9.310585968306291e-20	3.995608518810307	0.2998499574564245	-0.6359208420020306	0.9357707994584551	43.85154271473451
2	1.0	wm	48	diff_vonmises	0.06435980444018231	3.6875451647097823	3.530281985920738	0.6105525048996197	0.14681459309392977	4.0471236469267104	-0.30376761000759156	-0.6337814801675657	0.3300138701599742	63.85480509121274
3	2.0	ltm	48	diff_vonmises	0.09030943466614835	5.17434945658275	0.648736724210581	51.70871409606473	0.6054224974646985	53.419369207073416	-0.03110431488802412	-0.3731658859760829	0.3420615710880588	100.55060027497117
4	2.0	perception	48	diff_vonmises	-0.04522331821684635	-2.5911052694023877	8.724273430853817	1.3061883789824498	0.20295187584798596	3.223302030733597	0.8934738491186739	-0.543812655516737	1.4372865046354109	44.68608652473071
5	2.0	wm	48	diff_vonmises	0.009494060635734974	0.5439696048689052	5.315214077429849	0.6158437898103871	0.041581410824799624	3.0780545087837337	0.041106124048544745	-0.48716913368636205	0.5282752577349068	57.76820394690483
6	3.0	ltm	48	diff_vonmises	0.029534143283104053	1.6921817616565111	0.8634755240717591	131.38621084893188	0.846149438808783	132.43005130572183	0.10815294343078108	-0.2716107261030398	0.3797636695338209	90.74298491097329
7	3.0	perception	48	diff_vonmises	0.017555100171233056	1.005833148741043	2.793995035042138	3.263919188244536	0.4209583236751202	4.395828313217654	1.0321564157275358	-0.5470849572216813	1.579241372949217	73.3054042743982
8	3.0	wm	48	diff_vonmises	-0.03663523262566334	-2.0990442109304865	3.189456858824322	0.7151504430329885	0.10319037657700253	2.3974500853745537	0.06302568168350325	-0.3623289268590376	0.42535460854254087	71.9255053194075
9	4.0	ltm	48	diff_vonmises	0.11323179701939086	6.48770407589311	0.00025482025405522386	3118.479761448831	2.735104126838505e-31	3120.5558335984965	-0.20394090867137038	-0.4568772694221934	0.25293636075082304	179.49902505757916
10	4.0	perception	48	diff_vonmises	0.015929102682791154	0.91267035515445	1.9790566926360256	3.343536786206858	0.23982004926848016	5.814659114648626	0.5544221357950909	-0.7217523611031548	1.2761744968982458	86.35581289104863
11	4.0	wm	48	diff_vonmises	-0.2820042862781152	-16.157655408335035	1.4844851540349513	1.4194157353841086	0.027678686561368245	4.567444571917887	-0.1362277420382535	-0.6755744281750691	0.5393466861368156	107.3886112385472
12	5.0	ltm	48	diff_vonmises	0.0030823548582964645	0.17660592434203234	2.1282823432356857	0.8808775906880203	0.1074203411905085	2.0535894222962727	0.10892029840557232	-0.2898950106604416	0.3988153090660139	87.36808292209531
13	5.0	perception	48	diff_vonmises	-0.009886106886066668	-0.5664322003868407	2.2985012876709576	2.159610005308339	0.05793000532063618	3.756507289073148	0.5780242754964801	-0.5516923806668227	1.1297166561633027	87.93354077100247
14	5.0	wm	48	diff_vonmises	-0.0031866199572781217	-0.18257987446419507	2.3447662393180093	1.081574487918908	1.206513023525112e-15	2.790368652213249	0.16965520769767	-0.43845980772577947	0.6081150154234495	89.81079073896578
15	6.0	ltm	48	diff_vonmises	-0.268990879253561	-15.412042108742183	0.297747416779354	75.89027855116956	0.27778000405007436	77.054470753168	0.030194464064685178	-0.34008661587881406	0.37028107994349924	143.12823227949303
16	6.0	perception	48	diff_vonmises	0.14196075333424465	8.133752022549947	0.28164677656474607	94.4310318437518	0.25153682688832446	95.84858411882	0.21811822861845798	-0.5582362986980378	0.7763545273164958	147.8534292142008
17	6.0	wm	48	diff_vonmises	-0.18822205342568246	-10.784329272577503	1.0395680202024642	1.8192264435465753	0.08998972421412794	3.3611846755201635	0.05109891930040489	-0.4084936831023827	0.4595926024027876	119.09800536957158
18	7.0	ltm	48	diff_vonmises	0.38386660607873574	21.99393642432247	0.9177073527054199	61.424919898583774	0.8911752816757202	62.42561585450813	-0.010939530658262697	-0.2202927591053001	0.2093532284470374	83.30046315316727
19	7.0	perception	48	diff_vonmises	-0.020057662182907245	-1.149219389979743	2.2960654195384267	1.6482281700351924	4.092698684533803e-16	3.230814409233646	0.40952582418820727	-0.5048414420886336	0.9143672662768408	90.74588729613376
20	7.0	wm	48	diff_vonmises	0.9641512672094144	55.241798423289524	0.0009358886459379103	538.236321031063	1.2746589123503226e-23	539.9598736817159	-0.19412288471129102	-0.3544634491256886	0.1603405644143976	154.2952856020319
0	1.0	ltm	49	diff_vonmises	-0.11460413778119065	-6.566333409598007	0.0002316725422070561	1750.9600913514778	1.4931103487693347e-30	1753.0658327678668	-0.27057616274294105	-0.39969467017988336	0.1291185074369423	179.6125974558883
1	1.0	perception	49	diff_vonmises	0.021822559970194267	1.2503405844632671	9.972983784108514	0.7742202384304482	0.06229558701052735	3.397603900194761	0.38754325769601405	-0.5516224117632464	0.9391656694592605	42.37966015769388
2	1.0	wm	49	diff_vonmises	0.16815902082467937	9.634802180306648	5.427354832563935	0.25947830557930507	0.02358352239180747	2.731497972019288	-0.21004611957014763	-0.4339237348386537	0.22387761526850608	56.98776367481662
3	2.0	ltm	49	diff_vonmises	0.4252997360937244	24.367879906198134	0.6900018685673792	113.05585849130742	0.6744050687172974	114.14630925990598	0.030811021732890964	-0.2575381463681712	0.28834916810106215	99.0677418034345
4	2.0	perception	49	diff_vonmises	-0.01700598574795153	-0.9743712098172511	8.340864916774661	1.4374065015087665	0.3635023620105592	2.9407394431959175	0.9783023869873764	-0.5180617003591915	1.496364087346568	45.00063229118862
5	2.0	wm	49	diff_vonmises	0.019203043594460713	1.1002533517683288	5.736391160218019	0.5266033390955703	0.06935321873553354	2.5350987634605966	0.059204271249049256	-0.40362426038966354	0.4628285316387128	55.09300892333496
6	3.0	ltm	49	diff_vonmises	0.2113741547086247	12.110846962949513	2.686365039183817	0.5056438259440165	0.39935322927653005	0.8550035600924701	0.11576778375517321	-0.1097215195072913	0.22548930326246452	73.06937437835859
7	3.0	perception	49	diff_vonmises	0.03588561452979726	2.056094257790727	3.0971507940066276	3.448437330503023	0.7799744884499281	3.9704286612341977	1.109459808417038	-0.448576568842354	1.558036377259392	66.92353976103124
8	3.0	wm	49	diff_vonmises	-0.09071774774758139	-5.1977440728688435	3.033486489215968	0.4436164792665492	3.074016769870514e-18	1.541802540159259	0.04700185391922884	-0.2447076646046927	0.2917095185239216	78.88652459028327
9	4.0	ltm	49	diff_vonmises	-0.5630848467845555	-32.26238522852563	0.7578341527548367	97.54333365675251	0.739932759679468	99.03298577736469	-0.10190737740692413	-0.2944023064996575	0.19249492909273336	86.7509808193848
10	4.0	perception	49	diff_vonmises	0.027896163027411696	1.5983324060795796	2.688775749765477	2.589910800459499	0.2782998208329083	4.3896199400200295	0.6873984607576524	-0.585096691760699	1.2724951525183514	75.68041305057022
11	4.0	wm	49	diff_vonmises	-0.43389967490428305	-24.860620104113902	1.9671987163923312	1.0529245243200351	0.06659184690029579	3.5812180725124865	-0.07076205772408128	-0.5244395037190874	0.45367744599500615	90.90028284655573
12	5.0	ltm	49	diff_vonmises	-0.06471405967001113	-3.707842494249411	1.6725613309043283	1.1490381736895274	0.5277726820406502	1.668859433000379	0.11129764191218339	-0.15173816806473228	0.26303580997691567	83.60944316034048
13	5.0	perception	49	diff_vonmises	-0.03476496948525247	-1.9918860264060605	1.9998847198449257	3.0325682505983877	0.36561239968334025	3.934581180036459	0.6912141545624095	-0.4282230520481451	1.1194372066105547	85.03833077571758
14	5.0	wm	49	diff_vonmises	0.1265965169501545	7.253446122300241	3.499367845680438	0.7815662230094997	1.4187276162852045e-13	1.9182600940299923	0.2529221051299421	-0.30479086402293454	0.5577129691528766	73.32396621628553
15	6.0	ltm	49	diff_vonmises	-0.4478683767114513	-25.660967762941407	0.5634802384922881	126.15655201206432	0.5520894732958153	126.74359122286741	0.12014658457396621	-0.2038062496221027	0.3239528341960689	115.75379593334497
16	6.0	perception	49	diff_vonmises	0.17268601990701557	9.894180121584109	0.5022641755300199	100.81274986868391	0.47142464213108887	101.5522432191647	0.4013372001944049	-0.42421619914309794	0.8255533993375028	125.84791378280431
17	6.0	wm	49	diff_vonmises	-0.13138429662316642	-7.527765690802349	2.125828963977035	0.8847144180644286	6.451387953806138e-15	1.7094647668275706	0.20140328188952022	-0.2653262515174298	0.46672953340695	94.20891068726154
18	7.0	ltm	49	diff_vonmises	0.28780698100563534	16.490125326024756	1.2209355197744138	93.58260418886607	1.202998469329158	94.25396453040729	0.054581401568867705	-0.1759048799985976	0.2304862815674653	74.92504892251787
19	7.0	perception	49	diff_vonmises	-0.011796284819351542	-0.6758773340830861	1.6228321528903948	1.7887967691652518	8.777934156548394e-15	2.7794011841136284	0.37038363158538856	-0.410703551255771	0.7810871828411596	106.7753492778777
20	7.0	wm	49	diff_vonmises	0.26494055310847925	15.179975514977505	0.7199758530349825	0.8532785639474469	2.1657050515857622e-16	2.164301577052012	-0.09840265929993047	-0.2861584176282006	0.18775575832827013	140.21316987537767
0	1.0	ltm	50	diff_vonmises	0.2253358613404144	12.910793827750874	4.368227592851468	0.5342602916980481	0.03760450139224596	3.548620565856266	-0.1553286498050716	-0.5591526573704128	0.40382400756534115	63.14566938610582
1	1.0	perception	50	diff_vonmises	-0.05479778591878257	-3.1396818598076535	8.741334034745076	0.920696554655274	3.877685787237034e-21	3.8965822355906163	0.4493526128238856	-0.6201602966319204	1.069512909455806	45.944420813515364
2	1.0	wm	50	diff_vonmises	0.1185154067766456	6.790432615577949	0.8106909398884729	206.82291799946526	0.7907998960709107	210.3574616619964	-0.2814162127651585	-0.6924077561521464	0.41099154338698796	82.4486436511321
3	2.0	ltm	50	diff_vonmises	-0.033821528818458506	-1.9378308579777583	1.4543839504728862	3.5053118592653485	0.6599630315297504	5.120283530270535	0.07224732378200249	-0.3855063739708187	0.4577536977528212	80.46942532188078
4	2.0	perception	50	diff_vonmises	-0.048708802860113865	-2.7908088290192774	8.775703440143861	1.171602089374597	0.09814060975345054	2.7607874779139903	0.880152341304284	-0.44914089156744696	1.329293232871731	45.19002818819288
5	2.0	wm	50	diff_vonmises	-0.00225487724813064	-0.12919494963795897	5.265270715157701	0.588438785283037	0.06362869910755636	2.6363637752594853	0.07777137480297275	-0.4172800709515274	0.49505144575450016	57.602824099176985
6	3.0	ltm	50	diff_vonmises	-0.029792713337497036	-1.7069967344816972	0.7685597943630852	150.37823642959853	0.7525195131343329	151.5106716337223	0.12695314913122502	-0.3030877803817109	0.43004092951293593	96.73764116274643
7	3.0	perception	50	diff_vonmises	0.025174647859494716	1.442401073077099	2.96593771310909	2.571799214606747	0.2678774992736091	3.587121373166878	0.940264687188036	-0.4839155592398021	1.4241802464278381	73.86895498932063
8	3.0	wm	50	diff_vonmises	0.023064953769591317	1.3215245056619411	2.877575358060125	0.8803765284627295	0.175210091860867	2.3583951202424993	0.11918901164232892	-0.3423051252497349	0.4614941368920638	73.66837940289972
9	4.0	ltm	50	diff_vonmises	-0.04536813211835262	-2.59940249477352	0.5269843370538576	2.168356994132938	3.926197352321069e-15	3.9998044875142016	-0.09062061255692566	-0.4462856568864879	0.35566504432956225	150.76391152977624
10	4.0	perception	50	diff_vonmises	0.021118120477432088	1.2099791746056576	0.9197309406182034	283.79439836830204	0.896469226807521	286.0474223865987	0.5312011349224264	-0.6955828683325613	1.2267840032549877	90.70957338843328
11	4.0	wm	50	diff_vonmises	-0.22114000486992247	-12.67038896054903	1.1017762416707915	2.8321884925669747	0.20312534457689813	5.403216268173931	-0.020815443435993064	-0.5830592041536695	0.5622437607176765	105.78536435190783
12	5.0	ltm	50	diff_vonmises	0.00897757039686485	0.5143768940219434	2.1083648471450673	0.9677876737959268	1.3454175180992368e-12	2.1487767391875234	0.17337952058461853	-0.33438726421609277	0.5077667848007112	94.60283066144487
13	5.0	perception	50	diff_vonmises	-0.009714055429485082	-0.5565743780656375	2.1951803909327534	2.2332774703208846	0.11720836415596461	3.5213675961291395	0.5904472632258045	-0.485398965556611	1.0758462287824155	87.74631911454074
14	5.0	wm	50	diff_vonmises	-0.01754190098485793	-1.0050768910687415	1.9785035103200357	1.3301758564407067	3.111962652265347e-18	2.6928337006804353	0.25317073491832215	-0.4155425882767031	0.6687133231950253	97.51857773214931
15	6.0	ltm	50	diff_vonmises	-0.18089504764716183	-10.364522765000306	0.5902652623695429	2.283957565235996	6.800494472331672e-19	3.3383209017701367	0.07099501215215032	-0.34632840646675755	0.41732341861890787	147.08985258866252
16	6.0	perception	50	diff_vonmises	0.18154957604233316	10.402024479615093	0.13691113232131968	16.34400500866887	1.2317040595237743e-08	17.374912578764828	0.2036551119245682	-0.5074924374963259	0.7111475494208941	171.19530815006567
17	6.0	wm	50	diff_vonmises	-0.34821331856134446	-19.951153523809488	0.49722910116887886	166.280749826211	0.48433874879467687	167.38898673174467	0.129824640776242	-0.34625428466863895	0.47607892544488095	121.00497631979992
18	7.0	ltm	50	diff_vonmises	0.2685874576586565	15.388927753989716	1.5325415213098257	0.8720278324671878	0.035975291787356846	2.2027920703411605	0.019345772715077758	-0.3202357803258049	0.33958155304088267	105.93223662671124
19	7.0	perception	50	diff_vonmises	-0.052215892647175584	-2.9917502721913487	2.7622690534455727	1.8112900839553188	0.0963659559977647	2.8156428766923627	0.6390964868216258	-0.4083916525368521	1.0474881393584778	79.57401975155321
20	7.0	wm	50	diff_vonmises	0.7908543506367937	45.31261650104763	0.0005023391295276572	1696.907457158359	6.17743738685005e-24	1698.4593310101666	-0.11130604365780528	-0.3826366720069245	0.27133062834911925	162.18782929506264
0	1.0	ltm	51	diff_vonmises	-0.34850517105447676	-19.96787543990634	0.49666488753158833	1.2514512805918079	9.379664602207647e-18	2.6893017892114184	-0.12001454977176162	-0.3139500629413531	0.19393551316959146	150.4330799665331
1	1.0	perception	51	diff_vonmises	-0.04977634738803886	-2.8519746249116653	9.925024291629116	0.9838483445955386	0.14058967840891037	2.8925608762330417	0.6928900786806522	-0.4830773086701474	1.1759673873507996	42.20288468925486
2	1.0	wm	51	diff_vonmises	0.1268287101105982	7.26674981042547	4.058078411958083	0.4305402591701789	1.0749690430926199e-21	2.162657866105769	-0.010575477411637946	-0.34409803645637355	0.3335225590447356	67.95724721051704
3	2.0	ltm	51	diff_vonmises	0.1048297373336781	6.006301516684755	2.768388578561014	0.6399622220258687	0.15801003052608567	1.180459961162358	0.18159012872549793	-0.16714646270509037	0.3487365914305883	77.24606344216255
4	2.0	perception	51	diff_vonmises	-0.015866197605107237	-0.909066159693219	9.274022311038095	1.1234676831643389	0.255135200539658	1.947213869889575	0.9519617796169966	-0.3339113980561858	1.2858731776731824	43.4926282961911
5	2.0	wm	51	diff_vonmises	-0.07328024481530541	-4.198648749602433	5.691252345476673	0.5427895828953198	0.24913505382422912	1.5774114587972958	0.18697244674069907	-0.2572713584370862	0.4442438051777853	53.591023631725704
6	3.0	ltm	51	diff_vonmises	0.10900587283122501	6.245576455368959	2.3248055857433636	0.6147021157838071	0.393816303054482	0.8012630941391042	0.16510512715661385	-0.09223243844067877	0.2573375655972926	79.59902455353904
7	3.0	perception	51	diff_vonmises	0.03273400715881017	1.8755204567508457	3.521736762461215	2.909488834488424	0.9108303762537447	3.1374995585618923	1.066478588747455	-0.36712687360085655	1.4336054623483117	63.03075168989341
8	3.0	wm	51	diff_vonmises	-0.04741524092246152	-2.7166931894530335	2.8062318978064744	0.5740016693665799	3.048174663873225e-20	1.1560025958431732	0.17783309790515087	-0.1826620605466908	0.36049515845184166	82.07602161944803
9	4.0	ltm	51	diff_vonmises	-0.43362067242522956	-24.84463443959045	1.8220439942736075	1.5716129712479217	0.4469618782372226	2.495716766617349	0.17505938181653447	-0.25970843487321604	0.4347678166897505	82.69895402857327
10	4.0	perception	51	diff_vonmises	0.006291134091239893	0.3604554317789164	2.1947033212932423	3.4479860083141136	0.5061820507231294	4.450538995575579	0.7776833365586417	-0.4659805327375616	1.2436638692962034	79.07569235707493
11	4.0	wm	51	diff_vonmises	-0.29313408536840624	-16.795345923037257	1.0682659735213211	168.73497270539227	1.0489622665214295	169.9881899904608	0.17286781960491737	-0.3419711838339019	0.5148390034388193	81.93437783263042
12	5.0	ltm	51	diff_vonmises	-0.05592165041882216	-3.2040745524045025	2.04992030545454	0.7110571251533223	7.034142748396881e-11	0.7113264905041717	0.25910918025840973	-0.10703963945249355	0.3661488197109033	95.88223231220348
13	5.0	perception	51	diff_vonmises	-0.015146424076457303	-0.8678261742963391	1.233452463590162	240.25340109380568	1.2163736002400478	240.3135042946953	0.7321250966202371	-0.2675937922310183	0.9997188888512554	84.82615870451033
14	5.0	wm	51	diff_vonmises	0.06880989936319096	3.9425168222307727	2.2843297737137083	1.1425260990596455	1.0285336574914084e-16	1.1547789960553239	0.4545779380109361	-0.1771677241184803	0.6317456621294164	90.96904667114381
15	6.0	ltm	51	diff_vonmises	-0.4022479550798175	-23.047110143841465	0.6939737642299988	88.73002946122406	0.677563251041591	88.81365040298013	0.2539119211721115	-0.14392647602691255	0.39783839719902403	111.41842709925184
16	6.0	perception	51	diff_vonmises	0.22208756954718423	12.724680417371804	0.9614313941109918	2.5286534222992425	6.348600787762576e-16	2.350466619905858	0.47149096472496205	-0.25047220389163294	0.721963168616595	129.74587868799998
17	6.0	wm	51	diff_vonmises	-0.25454861828143377	-14.584561508412785	2.754117757776454	0.7995241377742976	4.333836009464194e-18	0.5548609570643834	0.41021951658735345	-0.08628790980187125	0.4965074263892247	82.83706766268006
18	7.0	ltm	51	diff_vonmises	0.19493597107569546	11.16900841792164	1.2480476600771861	194.08308971415076	1.2353590233447804	194.6115474480138	0.24819018856027242	-0.20458329817564547	0.4527734867359179	79.25474687222311
19	7.0	perception	51	diff_vonmises	-0.0443630010947841	-2.54181272926538	1.6707721413159073	1.7751903546752417	1.767605584539289e-16	1.8266584214707542	0.530232481723742	-0.2616713859371281	0.7919038676608701	105.40749434909307
20	7.0	wm	51	diff_vonmises	0.04673514700154342	2.6777266781119224	0.4511569451521117	41.35934089836646	0.4154328902147424	41.92387157146475	0.1424899186275077	-0.23319636732103932	0.375686285948547	129.77452517199
0	1.0	ltm	52	diff_vonmises	0.04682223525442772	2.6827164674473605	1.3314984568040265	0.5295655778247338	1.301759720783787e-17	2.583317334056232	-0.19764448388678066	-0.3962576328175673	0.19861314893078666	115.96743638386044
1	1.0	perception	52	diff_vonmises	-0.04279061293507795	-2.451721523957875	9.2195799926126	0.9254299040347221	0.0594055423474021	3.230043451666734	0.5596114387831927	-0.5217183024771441	1.0813297412603369	44.18302150910088
2	1.0	wm	52	diff_vonmises	0.11777682227308714	6.748114840710284	4.443508414745663	0.39459460889239556	0.015333214183337942	2.886163842696563	-0.1452356365375967	-0.4563616059842368	0.3111259694466401	63.69361100521908
3	2.0	ltm	52	diff_vonmises	0.12540395378949787	7.185117286391835	1.2100929855902793	3.478678593214432	0.6538398890292528	4.483566829370965	0.0889377050838116	-0.2540461167243107	0.3429838218081223	86.99280989210894
4	2.0	perception	52	diff_vonmises	-0.022179558803132236	-1.2707951108817086	8.11870717075343	1.3004044162240176	0.2536115042555354	2.5041580544835598	0.9484379115135679	-0.42320171309669924	1.3716396246102671	46.2246612326189
5	2.0	wm	52	diff_vonmises	-0.0035023261951746577	-0.2006685094616197	5.685609394090552	0.5535466412123012	0.133567295453876	2.239545950877207	0.10827488152597342	-0.3598018391871267	0.46807672071310014	54.42960123279519
6	3.0	ltm	52	diff_vonmises	0.13589596817102026	7.78626542904363	1.8389478293996775	1.0235734430471046	0.39460130286005585	1.5691910597487784	0.1452813855987652	-0.16751665929569567	0.31279804489446084	84.70816858247969
7	3.0	perception	52	diff_vonmises	0.020731320548692173	1.1878171711728995	3.4511181958414285	2.6370027319598406	0.5380287045903797	3.3127925790226347	1.0279657834324536	-0.43457060454450286	1.4625363879769564	66.21079761795332
8	3.0	wm	52	diff_vonmises	0.01708107787321527	0.9786736716695313	3.3592774499687437	0.5017724581118905	2.229701109433853e-14	1.6712801613880743	0.08432696279102947	-0.2655692137141004	0.3498961765051299	74.87722509227552
9	4.0	ltm	52	diff_vonmises	-0.28903837717587405	-16.560679129488005	2.3077322618571277	0.6346650341850979	2.111783771937653e-18	2.02234278608212	0.034875512034066525	-0.3183344940963693	0.35321000613043585	90.45506692056082
10	4.0	perception	52	diff_vonmises	0.01637279589077726	0.9380921033706742	1.074476920061064	81.31217680419591	0.9972024007728938	83.03050038594348	0.5983455709692578	-0.5937796615594051	1.1921252325286629	86.08019034609922
11	4.0	wm	52	diff_vonmises	-0.2826056069183082	-16.1921085431522	0.7784283384144054	75.41275474366478	0.7324056464199777	77.64830996506726	0.012630516909876377	-0.5015617372413406	0.5141922541512169	92.62844572877334
12	5.0	ltm	52	diff_vonmises	-0.04570701132346544	-2.618818842991233	1.790177275308331	1.0564370537663499	0.2566065052638804	1.5018978168174577	0.20559981401055216	-0.1725358861482694	0.3781357001588216	91.1012161116706
13	5.0	perception	52	diff_vonmises	-0.01929677999691787	-1.1056240520158638	1.0527832901422018	235.05923700559367	1.0324559798629276	235.6393883299667	0.6984762592816764	-0.3820467214171366	1.080522980698813	89.46027761775821
14	5.0	wm	52	diff_vonmises	0.05135623146512952	2.9424953146488817	2.4106014418853765	1.115391246619113	2.0622939970515502e-13	1.8700690461499418	0.34578384378200494	-0.29244667116008366	0.6382305149420886	88.5837368515432
15	6.0	ltm	52	diff_vonmises	-0.3083587513629759	-17.66765502902244	0.47516728108650347	105.34806459773769	0.4612313818313611	105.7875739142028	0.16768501317645956	-0.21203632852233945	0.379721341698799	126.6120788270106
16	6.0	perception	52	diff_vonmises	0.14404906300925507	8.253403353244382	0.8419222016758969	2.823174536664593	4.045433395054373e-17	3.271293376630202	0.3591884127465892	-0.3572914193427817	0.7164798320893708	135.2072097370026
17	6.0	wm	52	diff_vonmises	-0.2133085315280373	-12.221678590689795	2.0444539981458734	0.9655335134352948	5.295387750276006e-15	1.413294984015814	0.27982039295279615	-0.21647420933713415	0.4962946022899303	95.95017436738924
18	7.0	ltm	52	diff_vonmises	0.20617793317880534	11.813125399875851	1.145614416198483	144.33664966433216	1.1299439702692486	145.1849554262475	0.1108667409826154	-0.23176140474138407	0.34262814572399947	78.7141613154302
19	7.0	perception	52	diff_vonmises	-0.04471959660462594	-2.562244146972633	1.9338445490545848	1.9010731269564545	0.033759434044838575	2.579499933222404	0.5364008671788363	-0.37670744503674125	0.9131083122155775	97.14202179327376
20	7.0	wm	52	diff_vonmises	0.27063901152141	15.506473131769255	0.26014787611021745	30.321611087093096	0.2223809923077938	31.476593083519706	-0.025540249910778634	-0.30338845085564303	0.2778482009448644	147.89713343320165
0	1.0	ltm	53	diff_vonmises	-0.40502732509088984	-23.20635631518114	0.00032703688899261846	1931.2977505417707	7.596465156859129e-27	1932.6866161599687	-0.12051410820180308	-0.32155911168825924	0.20104500348645615	175.3460038191282
1	1.0	perception	53	diff_vonmises	-0.06806473111064025	-3.8998218263324786	9.62916526678896	0.927112875451036	4.2190347143267177e-20	2.476694090674743	0.7378618764582139	-0.39417810215859295	1.132039978616807	43.74708844437541
2	1.0	wm	53	diff_vonmises	0.2204891046992075	12.633095127882715	1.3253186711001945	2.008299169235331	0.302004915114102	3.6019916618265055	0.04942370014145103	-0.37128256245033475	0.4207062625917858	94.66514310954832
3	2.0	ltm	53	diff_vonmises	0.1999613107539046	11.456939172102656	1.4671277967188856	2.95135174780311	0.7876412954782772	3.6593257707086044	0.15882829794227216	-0.21241582697478875	0.37124412491706094	81.43037206825406
4	2.0	perception	53	diff_vonmises	-0.0016819384696158326	-0.09636797570967985	6.395084480913752	1.6492187459427905	0.45209146106767834	2.253919358925168	1.0925371819788026	-0.3741793334793979	1.4667165154582005	51.07116900072893
5	2.0	wm	53	diff_vonmises	0.03913704350404363	2.242387415401595	8.834621644320896	0.3871406471311379	0.04504388970281038	1.355498855744855	0.22660366129951204	-0.21764295867543734	0.4442466199749494	45.2318577291652
6	3.0	ltm	53	diff_vonmises	0.029819857716733015	1.7085519928494213	1.652613498615339	0.6479961596544455	5.0040715201851204e-20	1.040144463480732	0.1321505796356606	-0.1546209842007359	0.28677156383639646	105.91714693252027
7	3.0	perception	53	diff_vonmises	0.04546251135238149	2.6048100265570517	4.117048883957476	2.1124239257904414	0.4633962949953998	2.31814055598741	1.0935634652317576	-0.3259199870002781	1.4194834522320356	62.758269128329886
8	3.0	wm	53	diff_vonmises	0.020479208092639648	1.1733721914784125	2.5454860567902555	0.5596324818769477	8.423688015026748e-16	1.227386102061878	0.13798480188601828	-0.1932938629971695	0.3312786648831878	86.21118900887194
9	4.0	ltm	53	diff_vonmises	-0.3908777423474767	-22.395644942112426	4.280492514549628	0.5928970191844358	8.077553025874608e-27	1.6886934866676175	0.2041502013985601	-0.26867336704027234	0.47282356843883244	66.1218962209137
10	4.0	perception	53	diff_vonmises	0.01347011754535938	0.7717808848942127	2.5327856887314795	2.7508925795080286	0.34891214062647513	4.056505403276535	0.7457430753807155	-0.5060193582177971	1.2517624335985125	76.91836323657012
11	4.0	wm	53	diff_vonmises	-0.39204763536612897	-22.46267487456302	3.1913130777060945	0.7882706307180803	0.08663441230058112	2.388623343591162	0.12086320468413042	-0.36141865187601663	0.48228185656014705	72.86793705839493
12	5.0	ltm	53	diff_vonmises	-0.17423564020327081	-9.982966824407347	1.3084968705353546	0.8333345289962675	1.986869315150721e-14	1.029818298797022	0.1686068765019799	-0.13962028491962442	0.30822716142160433	116.64189578034215
13	5.0	perception	53	diff_vonmises	-0.008184961473246846	-0.46896374789422474	1.2232062104931052	121.06523929891246	1.1892295530221668	121.05122312200905	0.7643241021417495	-0.2645722766939915	1.028896378835741	85.89163267814462
14	5.0	wm	53	diff_vonmises	0.02433514000972243	1.3943008164170443	1.8033020951045176	1.1788081032547524	6.9497233466254225e-15	1.4254770173989184	0.3442150179843311	-0.2113688879561925	0.5555839059405235	101.83202556256757
15	6.0	ltm	53	diff_vonmises	-0.4601238010899351	-26.36315185597027	1.0649958080388127	1.192057773906727	0.10244187799295065	1.3708033346280153	0.1808705158406817	-0.14626679902186832	0.32713731486255004	119.73840734718546
16	6.0	perception	53	diff_vonmises	0.13907028165354976	7.968140194444045	0.7618253303402347	8.262929873795954	0.45252277832571863	8.386371362875863	0.4536442711013269	-0.27344905712333445	0.7270933282246613	118.00469593677025
17	6.0	wm	53	diff_vonmises	-0.18421604865934063	-10.554802106756826	2.7700945288095866	0.6500687865912436	4.684276576961657e-16	0.7664236944845125	0.28471106642193317	-0.12038327045533449	0.40509433687726765	82.60827296870389
18	7.0	ltm	53	diff_vonmises	0.22437783751111287	12.855903105658935	1.2565467804023789	191.57001391609276	1.2418069380699452	192.65087703137957	0.0995261784022432	-0.28909448380776936	0.38862066221001257	74.01575514659552
19	7.0	perception	53	diff_vonmises	-0.047118132430411824	-2.6996701268010894	1.8853462907439187	1.8871765463487544	5.679989057100239e-14	2.393167437061338	0.5584529810318748	-0.3592446326629003	0.9176976136947751	99.75438947089052
20	7.0	wm	53	diff_vonmises	0.045733576002919024	2.6203408870080414	0.0002383001532458609	3738.8722647045374	8.02460190729305e-32	3739.802616566487	-0.006261874474262186	-0.289861426472271	0.2835995519980088	179.87328992742175
0	1.0	ltm	54	diff_vonmises	0.179119785819179	10.26280775472621	5.33761698704389	0.4577199943869276	3.509086087549774e-19	3.439128087201652	-0.13644211695286995	-0.5473447376528079	0.41090262069993794	59.054408301018185
1	1.0	perception	54	diff_vonmises	-0.0468690646618983	-2.6853995948525236	9.851973201930107	0.8501989436017275	0.025984223697921846	3.9533457796971687	0.4046243766194719	-0.6330980245992962	1.037722401218768	42.941804733382526
2	1.0	wm	54	diff_vonmises	0.051327998400693645	2.940877679213985	1.66856004578307	2.786775545394731	0.4616317588521753	6.401363835032898	-0.245899240931293	-0.7255329434983367	0.47963370256704374	75.81205845083227
3	2.0	ltm	54	diff_vonmises	-0.05188303978035408	-2.9726792077236466	2.532117885517277	1.2586778229131632	0.33796784633299304	2.8637665267162875	0.12620923757173597	-0.3836302357671449	0.5098394733388809	73.44629450607772
4	2.0	perception	54	diff_vonmises	-0.05226483908954378	-2.994554696761227	9.57182081701932	0.9861133240161841	1.2162201593714789e-14	2.7530907521247747	0.7622355502045179	-0.4381679961555195	1.2004035463600373	43.87826243769254
5	2.0	wm	54	diff_vonmises	-0.055651341779693685	-3.188587008216516	4.000781961578034	0.8386180701584117	0.15940586081345748	2.991101140024248	0.09004655827183328	-0.4630994500265331	0.5531460082983664	63.36691731634363
6	3.0	ltm	54	diff_vonmises	-0.0507973903112728	-2.9104760751146705	0.6913415081178602	122.28789527426767	0.6697504884007547	123.52010409870923	0.15923466985049828	-0.3483496135822648	0.5075842834327631	103.03895634385545
7	3.0	perception	54	diff_vonmises	0.018458833387326082	1.0576132478289577	3.2886102859984288	2.639689160846913	0.2890782271235827	3.8398835603411934	1.0218955643190069	-0.5326672482809723	1.554562812599979	70.1044781590752
8	3.0	wm	54	diff_vonmises	-0.0282879434084298	-1.6207797684079444	3.211427181393388	0.8735729877694114	0.002958637566767744	2.5910735372503795	0.18102733343603428	-0.41019717789245974	0.591224511328494	76.44137163232998
9	4.0	ltm	54	diff_vonmises	-0.08971884868207075	-5.1405113722555225	0.5728160809721554	2.552485781635179	1.8331144139676614e-20	4.464857947234159	-0.045892075159693624	-0.4992098609506813	0.4533177857909877	148.31940299299913
10	4.0	perception	54	diff_vonmises	0.010452624418034472	0.5988912639887636	0.9205756569907245	283.69379628773254	0.8959334453819451	285.9599694176512	0.601249103873954	-0.7252463231790784	1.3264954270530325	91.14019927227028
11	4.0	wm	54	diff_vonmises	-0.20147588693524643	-11.543717995044583	0.5663396730767443	158.77601023942768	0.5439474790097003	161.39304667204757	0.002291261272517886	-0.6098462537670013	0.6121375150395192	108.86712199353104
12	5.0	ltm	54	diff_vonmises	0.003727560309037185	0.21357347358831155	1.7642541164247514	1.2285409527830455	1.140484629433937e-18	2.053717408939407	0.2604633084954539	-0.3096217212097845	0.5700850297052384	102.85600321200369
13	5.0	perception	54	diff_vonmises	-0.015575808832706976	-0.8924281086166991	1.5063381776349423	4.3631953659161695	0.4325209160257945	5.345379080878588	0.642885090667433	-0.4568696131569024	1.0997547038243354	92.74548813026277
14	5.0	wm	54	diff_vonmises	-0.0391957960601879	-2.2457536889042666	2.3338123285558465	1.310891831380971	4.546973815791076e-16	2.405032642453773	0.35904172331753564	-0.37580351398507417	0.7348452373026098	90.01899315211034
15	6.0	ltm	54	diff_vonmises	-0.15535416241345693	-8.90113783608101	0.43042138534890545	3.0999271902636583	7.522848123964369e-13	3.778350736558076	0.12345077822019679	-0.29489584955108455	0.41834662777128134	155.46745319080014
16	6.0	perception	54	diff_vonmises	0.1181889096311024	6.771725707115255	0.280790955479555	7.623048865918655	2.9696250958779314e-11	8.10092411900958	0.2860415677368606	-0.39086987941694584	0.6769114471538065	163.68218339569103
17	6.0	wm	54	diff_vonmises	-0.3025339548817492	-17.3339187741255	0.535416156566386	160.11941646783524	0.5239374302056748	160.82326045664064	0.16818920370498347	-0.2639167659061066	0.43210596961109005	119.2381352598865
18	7.0	ltm	54	diff_vonmises	0.3210548908466094	18.395090237544043	1.1750772680303896	4.8148598834803495	0.7898442614744129	5.492179359262558	0.14624737425187084	-0.20227094107246885	0.3485183153243397	87.00902731490027
19	7.0	perception	54	diff_vonmises	0.003092424209753458	0.17718285568295197	1.292771814382587	5.397507989805975	0.5476408140310847	6.101984067750729	0.5780995742094035	-0.3793984543810927	0.9574980285904962	95.03686000054444
20	7.0	wm	54	diff_vonmises	0.33034744622051593	18.9275144413605	0.08792784007135122	60.45981019757626	0.0731957768197233	61.57204041350993	-0.04297707757515923	-0.3001320609566758	0.25715498338151654	167.4280995201886
0	1.0	ltm	55	diff_vonmises	0.08083058263315769	4.631251240463384	0.6283341863461369	82.38370845434848	0.6090535673820763	83.72269224096573	-0.056722963793685466	-0.27795534692040746	0.221232383126722	99.05281846645147
1	1.0	perception	55	diff_vonmises	-0.09663690930091541	-5.536887048130984	10.521547590466465	0.9789576626817403	4.324213906138918e-15	2.475055195785263	0.8567187030543744	-0.393917267925574	1.2506359709799484	41.842122062625606
2	1.0	wm	55	diff_vonmises	0.1584696558386934	9.079642460447817	4.779243671868058	0.30653069778476594	1.0215426951977966e-18	1.9223581179667453	-0.04648469374921982	-0.30593447837695426	0.25944978462773444	62.48711937651899
3	2.0	ltm	55	diff_vonmises	0.03024938411900458	1.7331620428890204	0.8105159049138658	80.73405503133804	0.7891564931277774	81.4201740250589	0.12238915202764034	-0.20074589121572028	0.3231350432433606	95.83627887561414
4	2.0	perception	55	diff_vonmises	-0.031508962352206585	-1.8053305596180402	8.36452760483479	1.306967720302824	0.3330012365854421	2.0740315323717295	1.0359861725730726	-0.3581304399166585	1.394116612489731	45.4402722173173
5	2.0	wm	55	diff_vonmises	-0.07607593833249437	-4.358830188949446	6.984293354875192	0.446143147227011	0.30285273776769406	1.5868692833385662	0.12707716920040718	-0.2732800107360674	0.40035717993647457	47.96240459403549
6	3.0	ltm	55	diff_vonmises	0.08068500066556648	4.622910008147198	1.3475722474292768	138.76876746462548	1.3339651157659491	139.0629586251442	0.22200149772713473	-0.1423021931001216	0.36430369082725633	77.51133165440476
7	3.0	perception	55	diff_vonmises	0.021011995541729202	1.2038986636887852	1.5185021400544925	179.26135623941536	1.484113131110613	179.64248048750053	0.9140658861099666	-0.39228792064037776	1.3063538067503444	75.33157254425902
8	3.0	wm	55	diff_vonmises	0.0026111787367307684	0.14960952116897494	1.7486584969439383	4.624999071480632	1.2615280822766484	5.274789498101484	0.13961874304270738	-0.20782242833126818	0.34744117137397557	69.3542102054985
9	4.0	ltm	55	diff_vonmises	-0.1730519930080315	-9.915148835687637	4.721032516669704	0.4339204224142052	1.0205320454044707e-15	1.4514999993184607	0.13388278097825618	-0.2309844572207235	0.3648672381989797	62.88149934192032
10	4.0	perception	55	diff_vonmises	-0.025897094207445848	-1.4837941997393387	1.038362633487639	404.48647375863163	1.0250406515733828	405.7265918104417	0.5866867459455136	-0.4845967351288678	1.0712834810743814	87.3157885468371
11	4.0	wm	55	diff_vonmises	-0.31217520460523107	-17.88632169251268	1.2498607126896024	160.99972833450246	1.2305558796938354	162.22498764875206	0.09914806250961306	-0.3230360475580447	0.42218411006765777	74.00219629341738
12	5.0	ltm	55	diff_vonmises	-0.04741356405492622	-2.7165971120204584	2.433449637070254	0.729899019716098	0.3378749976372629	1.2129977408799386	0.16029010208603928	-0.1526239730194287	0.312914075105468	77.40934584351129
13	5.0	perception	55	diff_vonmises	0.013623842372379803	0.7805886686888616	1.1416233679826946	116.12382094410788	1.1036657977905489	116.80003306578604	0.5786518312714435	-0.3531637349486534	0.9318155662200969	85.34560203211814
14	5.0	wm	55	diff_vonmises	0.06871024488300312	3.9368070411064395	0.7914688871918288	85.07894439882992	0.765122464740834	85.7500844616979	0.22873525296222397	-0.24462041980663862	0.4733556727688626	99.65827837358819
15	6.0	ltm	55	diff_vonmises	-0.33910354764314604	-19.4292020978657	2.226646097813926	0.790233627798049	1.342961894564337e-12	1.6349703133674727	0.17460508578100314	-0.25515160598511594	0.4297566917661191	92.01658441288333
16	6.0	perception	55	diff_vonmises	0.2738669321230991	15.691419358849368	0.49533983963121797	4.142306546124083	1.2718893654960197e-14	4.946654518351575	0.23116742336160012	-0.40910320792015986	0.64027063128176	151.08764892522294
17	6.0	wm	55	diff_vonmises	-0.26798056326932634	-15.35415526687093	3.131936216427873	0.6613868563051359	1.3647836250056193e-15	1.2960678268743266	0.23759850347506598	-0.2054304264194409	0.4430289298945069	77.60126797563092
18	7.0	ltm	55	diff_vonmises	0.04236309123593777	2.4272263349468806	1.1432291715100937	187.77092831115297	1.1280269308168414	188.81948309813146	0.14849157263137158	-0.29000860992751143	0.438500182558883	79.03696718662391
19	7.0	perception	55	diff_vonmises	-0.14967876213136772	-8.57596135286994	2.8139044981850763	1.3657512979939013	1.343438544051665e-24	1.6891367015615493	0.5933731356078247	-0.2657330941526413	0.8591062297604659	81.95922447158259
20	7.0	wm	55	diff_vonmises	0.3416471731427073	19.57494110365242	1.6442453776317802	0.7805231189184351	0.09660720023876163	1.7202604800114507	0.05660939443197449	-0.23471784083856895	0.29132723527054344	98.54923989986625
0	1.0	ltm	56	diff_vonmises	0.13995736084853302	8.018966088410448	4.230349869441318	0.5523058695577773	4.4006591863044834e-20	3.8725070531124874	-0.17855050032449327	-0.6162359952846027	0.43768549496010944	66.52038978417517
1	1.0	perception	56	diff_vonmises	-0.08272884329973237	-4.740013565073804	11.262023839693683	0.8523226069028718	4.636755718890486e-17	4.328541748007732	0.4388452221038506	-0.6889088153887498	1.1277540374926005	40.419817333435134
2	1.0	wm	56	diff_vonmises	-0.025182816727411312	-1.44286911473212	3.700154172348842	0.8721963112793105	0.19455700825638808	4.6575610895069595	-0.2495571164663718	-0.730852989061084	0.4812958725947122	62.25367329615088
3	2.0	ltm	56	diff_vonmises	-0.10890843869343095	-6.239993890492863	2.165568027734664	1.4996062526668723	0.31138062636425967	3.2035122485070167	0.1320226144151484	-0.40775329288584256	0.5397759073009909	78.98042963492364
4	2.0	perception	56	diff_vonmises	-0.07431867738123595	-4.258146552939193	11.849298390568656	0.9055771914258601	0.012220078632883154	2.6614466353816453	0.8010275284229271	-0.424839566733666	1.225867095156593	39.318078888926976
5	2.0	wm	56	diff_vonmises	-0.09395231648902189	-5.3830712102983265	4.378344833395577	0.7639946340410789	0.13579270122389486	2.802517192745095	0.10832504424233314	-0.4382199387768482	0.5465449830191813	61.39829713293676
6	3.0	ltm	56	diff_vonmises	-0.07858145429335966	-4.502385679009691	1.5557394844144155	2.2251563239736534	0.3308257842719547	3.656740230194851	0.19688109569286338	-0.38478624966994174	0.5816673453628052	90.67732863014541
7	3.0	perception	56	diff_vonmises	-0.010539559507991177	-0.603872277734873	3.3563547869019428	2.4834147729321385	0.18332239465728326	3.8873589018269645	0.9958815327158378	-0.5605976032807489	1.5564791359965868	70.91536712800652
8	3.0	wm	56	diff_vonmises	-0.03178908970636318	-1.8213806747373797	2.98752674729951	1.1362307759051042	0.18049600730697432	2.8767134727917316	0.19843653019843577	-0.4182642059602732	0.6167007361587089	72.67422442070023
9	4.0	ltm	56	diff_vonmises	-0.08118203596398461	-4.651388033015582	0.6848875171359547	2.3933874958416492	5.941198814465156e-17	4.405571720788476	-0.027010874075600877	-0.5298174804470122	0.5028066063714113	142.7642804957582
10	4.0	perception	56	diff_vonmises	-0.03999497871845544	-2.2915434822830427	1.0559935703031131	12.184425868106993	0.5463942798651146	14.355638786437991	0.6252506538703932	-0.7374695927168164	1.3627202465872097	98.24742080320254
11	4.0	wm	56	diff_vonmises	-0.10228200843434963	-5.860327403409723	0.6970317485751725	190.18889662859402	0.6769241889959055	192.59671285025587	0.05387615143221325	-0.5618275021041974	0.6157036535364107	98.3850188335149
12	5.0	ltm	56	diff_vonmises	0.015469620578988139	0.8863439698447453	1.769755169337802	1.460281697194999	1.248824227160416e-15	2.710131306259953	0.26810914237957945	-0.411027633617849	0.6791367759974285	102.70841014289846
13	5.0	perception	56	diff_vonmises	0.011383391353980032	0.6522202811287676	1.5081551944034144	3.96962587956391	0.37961443476862	5.368374739247159	0.5199828564750983	-0.5025278699483707	1.022510726423469	92.84899082687065
14	5.0	wm	56	diff_vonmises	-0.07275216951676691	-4.168392263731066	1.6830417884491429	2.076966130732685	0.18615150838503214	3.3670933633260605	0.32486802370341106	-0.4113131980949763	0.7361812217983874	94.93675000551008
15	6.0	ltm	56	diff_vonmises	-0.13829729473493022	-7.923851306388323	1.0490260456515526	1.7080105018298768	3.6842357867497787e-16	2.8864535372640967	0.14005633768362818	-0.3858436162418	0.5258999539254282	126.43460067893648
16	6.0	perception	56	diff_vonmises	0.19505224408553135	11.175670370656519	0.0002471372481771195	8904.520546926497	3.6367791392962836e-31	8905.523611341841	0.1906198588822008	-0.5098619005925684	0.7004817594747692	178.69752664110567
17	6.0	wm	56	diff_vonmises	-0.2904638964945511	-16.642355370062567	0.5677723989034303	218.972162485733	0.5569084890482389	220.0641121000457	0.16732950305748773	-0.3459752012978612	0.5133047043553489	114.46171311957751
18	7.0	ltm	56	diff_vonmises	0.25245942486901535	14.464859543294676	0.9080787181266834	77.68703051910764	0.8797000895269638	78.60672010895117	0.12673546842424344	-0.25036061167414125	0.3770960800983847	89.54978830877073
19	7.0	perception	56	diff_vonmises	-0.026385334066757644	-1.5117682830679657	2.4573593690678646	1.6628660923905936	2.412764572436165e-14	2.7033813150647577	0.5398174224859564	-0.4231370387091045	0.9629544611950609	87.74973575502312
20	7.0	wm	56	diff_vonmises	0.5466966593361507	31.323411253862773	0.08346412131918902	56.49616551319909	0.0673610809315695	57.740580041911585	-0.061580878034584785	-0.3240773657004059	0.2624964876658211	163.3450881154772
0	1.0	ltm	57	diff_vonmises	0.3261578644442247	18.68746908765409	0.7705808097105261	67.80073199813002	0.7366919723774505	69.61506968579513	-0.09033920930277617	-0.36997573724171495	0.2796365279389388	88.49551806143518
1	1.0	perception	57	diff_vonmises	-0.09025821381146731	-5.171414717786472	9.082614849176286	0.941870734725553	5.039257300863419e-18	2.6852578577196518	0.6885574718781158	-0.4273720471241255	1.1159295190022414	45.063882697894115
2	1.0	wm	57	diff_vonmises	0.11333458145628014	6.493593190326496	4.443025356280728	0.37725966942384437	0.09270562055897191	2.5410059369402282	-0.13572817279153104	-0.40231726892198244	0.2665890961304514	60.345769259555055
3	2.0	ltm	57	diff_vonmises	-0.024902215623233626	-1.4267918557360277	0.7414715508333432	144.41625914625783	0.7271444284651797	145.64950403420102	0.03751524286906971	-0.2895368384727899	0.3270520813418596	95.38657223384689
4	2.0	perception	57	diff_vonmises	-0.03541843944231654	-2.029327096984427	6.3221210623604485	1.638450399610418	0.33347099045937323	2.902410981952379	0.9810334825342125	-0.47855890942170554	1.4595923919559182	51.522804555638686
5	2.0	wm	57	diff_vonmises	-0.012865423052187836	-0.7371344425406808	6.35826755275688	0.5159444814379627	0.22133471658162904	2.424243457023612	0.03234128032257233	-0.40569943118897966	0.438040711511552	50.135070372733566
6	3.0	ltm	57	diff_vonmises	0.14702398184785906	8.42385364709035	1.0980961607804571	212.1689973156196	1.0851954848513414	212.95483912395355	0.23178739904065537	-0.2565227974343287	0.4883101964749841	83.17362449672208
7	3.0	perception	57	diff_vonmises	-0.018212363673994546	-1.0434915734772614	1.2353486713783244	338.3364272273126	1.2148372178280358	339.3477243844042	0.8908628543075565	-0.5319506719439424	1.422813526251499	81.66225372187222
8	3.0	wm	57	diff_vonmises	0.00900981584575243	0.5162244221517066	1.5404658070373263	6.204323383743324	1.071490548506875	7.640678819456869	0.017223683095166198	-0.35527763073577723	0.3725013138309434	70.07455225124446
9	4.0	ltm	57	diff_vonmises	0.1981903796103268	11.35547229176737	0.6741229009082991	61.434099929630044	0.6386998155234116	63.025989843415466	-0.02064571311217378	-0.348964759908422	0.32831904679624824	98.51652144733214
10	4.0	perception	57	diff_vonmises	-0.017673117426915085	-1.0125950394013394	0.8824252891267851	512.5891615069492	0.8713965480062733	514.7802358346361	0.3826142943146067	-0.6281079626873449	1.0107222570019516	91.27107496297504
11	4.0	wm	57	diff_vonmises	-0.33767097959450065	-19.34712199481303	0.9537954930345008	154.7970029769482	0.93054580484585	157.13376706121522	-0.08391129489423577	-0.5001783651924576	0.41626707029822185	79.91731458235203
12	5.0	ltm	57	diff_vonmises	0.024000263385034873	1.3751137991648608	1.0529487763938568	99.84615250582874	1.0308479933086196	100.70042430904245	0.11889509448387514	-0.233139679055693	0.35203477353956814	82.65543074068904
13	5.0	perception	57	diff_vonmises	0.007316045043379576	0.419178503713255	0.9565938173657905	223.91986472186764	0.9343052318335573	225.02350969182885	0.5846437415248431	-0.46217324857309805	1.0468169900979412	91.70357142058694
14	5.0	wm	57	diff_vonmises	0.024651975175627474	1.4124541342247305	1.5601542888525732	1.7056608235929451	0.2572786681521001	3.0576199607502295	0.13749210530342848	-0.3481304771511884	0.48562258245461687	92.78076145735693
15	6.0	ltm	57	diff_vonmises	-0.24862784066788426	-14.245325939720859	1.620399384128574	0.8390926935155992	1.7698506174134396e-12	1.9637328671855472	0.06836001929307911	-0.29763181878265343	0.36599183807573255	106.67610555004272
16	6.0	perception	57	diff_vonmises	0.07012537043956367	4.017887762978461	0.32315701799956165	168.0097245071876	0.30916908430323564	169.36627443904152	0.13515917396214405	-0.462248329066945	0.5974075030290891	141.54644604773182
17	6.0	wm	57	diff_vonmises	-0.10108648127413379	-5.791828742836095	2.191667563438767	0.7152014856608209	0.003458726393470428	2.066765139438648	0.05976835084139537	-0.3229323762190185	0.38270072706041386	92.5421510594327
18	7.0	ltm	57	diff_vonmises	-0.04060793869407476	-2.3266635018964714	1.3889182857002917	129.56773412511743	1.3688365564987257	130.69884253060687	0.002607325251005932	-0.28607767688934516	0.2886850021403511	67.52812922251289
19	7.0	perception	57	diff_vonmises	-0.09074387354091869	-5.199240970563502	2.326216045089644	1.7078513788480918	0.007607792660704623	2.896962286258669	0.5000061202909178	-0.4483640383525989	0.9483701586435167	89.80526341706368
20	7.0	wm	57	diff_vonmises	1.2241371224504063	70.13789066169754	0.5228951231871618	83.35826689902115	0.5079154698432555	84.89600726945051	-0.14777222976786675	-0.28603668743792454	0.1382644576700578	100.07881299493988
0	1.0	ltm	58	diff_vonmises	0.10959880572171217	6.279549007528366	4.5527437434892315	0.48098288668666755	1.571597091409668e-11	3.730485809973569	-0.19707803156922227	-0.5936812024605174	0.3966031708912951	64.06400484533418
1	1.0	perception	58	diff_vonmises	-0.05561262535847604	-3.186368720682894	9.30536316025292	0.9956017193650879	0.09050869410891992	4.609056339663746	0.39300064669529855	-0.7553349234817761	1.1483355701770748	43.54383314029056
2	1.0	wm	58	diff_vonmises	0.04030842297653153	2.309502515383412	7.286330252723254	0.3693200361814902	0.09687651343535145	4.288654481756474	-0.3598731170299588	-0.7045677092762536	0.3446945922462948	47.25782368124078
3	2.0	ltm	58	diff_vonmises	-0.09912248805677315	-5.679300220489011	2.540114066781374	1.1265548925058246	0.3091143270675612	2.519350839709066	0.1367675191992317	-0.3390088297714695	0.4757763489707012	74.38884315528998
4	2.0	perception	58	diff_vonmises	-0.07692300899074693	-4.4073637626166855	13.864625922330422	0.829563202987995	0.04882313015817312	2.466234295869986	0.8084667344740669	-0.4008006836709612	1.209267418145028	36.20415360768553
5	2.0	wm	58	diff_vonmises	-0.15389418915497305	-8.81748753016792	2.843893977337458	1.2115901422397803	0.3364882906399097	3.297597477453247	0.05520982515802564	-0.4682995317917093	0.5235093569497349	68.9851551280594
6	3.0	ltm	58	diff_vonmises	-0.011419235511040652	-0.6542740000485452	1.1066951179879503	113.09441702866015	1.08330325172522	114.00599025754991	0.16977088739317736	-0.26413005321188265	0.43390094060506	81.45256817937334
7	3.0	perception	58	diff_vonmises	-0.006292703037707524	-0.36054532578979365	3.2375632980823856	2.5678187606644274	0.3854853343147269	3.690410664651329	0.9235175150578206	-0.49719868002199946	1.4207161950798202	69.18698434250149
8	3.0	wm	58	diff_vonmises	-0.006486814242615233	-0.3716670785872045	3.2643275933705564	0.8479932820873983	0.1722131942852184	2.305712546543996	0.1498391122598171	-0.3422221450123458	0.49206125727216293	69.91652966349653
9	4.0	ltm	58	diff_vonmises	-0.11964687173445955	-6.855260782327636	0.5091941603987391	37.118928889062715	0.454927120222787	38.74449196757046	-0.012069330165717318	-0.3867278987082341	0.3746585685425168	116.92196771059943
10	4.0	perception	58	diff_vonmises	-0.015368241390547524	-0.8805353702166366	0.8909221338153542	269.1482682238374	0.8680330795292109	270.94649878746725	0.6049978076510314	-0.6292352292921883	1.2342330369432197	93.55028939673562
11	4.0	wm	58	diff_vonmises	-0.08561592794271215	-4.905431330213579	0.7307838574459902	248.5600627896055	0.715976855235691	250.6624925786458	0.09745224724494506	-0.5085445610446371	0.6059968082895821	96.90201809492581
12	5.0	ltm	58	diff_vonmises	0.053724198313386956	3.078169821080928	2.093322988018647	1.3925098562600227	0.12583383584274416	2.5149304107835198	0.28626440696667776	-0.3440612558918455	0.6303256628585232	88.57365316825496
13	5.0	perception	58	diff_vonmises	-0.012684104919690901	-0.7267456787994127	0.9294551620683275	116.19607001352901	0.8860778185999173	117.65219196883987	0.4934804478760313	-0.5074276308954797	1.000908078771511	92.06684785543584
14	5.0	wm	58	diff_vonmises	0.002275752471867092	0.13039101185444898	2.040903730287955	1.653699351129785	0.08843949054463364	2.9568376870641933	0.3505028499912797	-0.41589068914001626	0.7663935391312959	91.35979406529663
15	6.0	ltm	58	diff_vonmises	-0.09512488882768579	-5.4502546564775525	1.3165747507707486	2.2112742296606545	0.240329266224017	3.3212642923464086	0.22293012748483676	-0.3472518301402606	0.5701819576250974	101.90516725784897
16	6.0	perception	58	diff_vonmises	0.281503911538365	16.128986047572393	0.000187752361615276	11898.363997534234	1.549377430991706e-32	11899.250053298556	0.21453917055396232	-0.4965461033173142	0.7110852738712765	177.44816760842446
17	6.0	wm	58	diff_vonmises	-0.4299418264425467	-24.633852091304064	0.5816149799232568	203.3685579348978	0.5680315201788071	204.233661820981	0.29695417149353176	-0.36330176896623456	0.6602559404597663	115.89941720867516
18	7.0	ltm	58	diff_vonmises	0.2695104256262402	15.441809923158031	1.3382843026172482	1.3278310526038926	4.304327299554047e-12	2.2529835391885005	0.1783812637894771	-0.3216286724028061	0.5000099361922832	115.38772993320771
19	7.0	perception	58	diff_vonmises	-0.0821473249881429	-4.706695020110153	2.8956963405061398	1.4844577531575964	1.081049663607048e-18	2.0565612770038455	0.6254359550692106	-0.32440224101556936	0.9498381960847799	80.77701952111093
20	7.0	wm	58	diff_vonmises	0.30546367687271647	17.501779479354585	0.6971348170910965	137.06013105799877	0.6805490242739013	138.27401582521142	0.09211214598681039	-0.31212014496370166	0.40423229095051205	100.67563301074983
0	1.0	ltm	59	diff_vonmises	0.03992719316460363	2.2876596561353773	0.20837159731919547	71.02876723380898	0.19519499196718745	73.15465280452024	-0.2450794245252954	-0.4083190567348236	0.1632396322095282	148.40759242965277
1	1.0	perception	59	diff_vonmises	-0.037653263779334235	-2.1573730994486633	10.8614164684124	0.8736044784428955	0.12220445135942264	3.6983961605233215	0.4720863104884736	-0.6187822730483777	1.0908685835368512	40.267381854885144
2	1.0	wm	59	diff_vonmises	0.07792180836929086	4.464590751587542	10.10364060821	0.1602964143879788	0.15739177904757962	2.7418651661906357	-0.30704742044638234	-0.47478130879965114	0.1677338883532688	39.08085299254435
3	2.0	ltm	59	diff_vonmises	0.21313240412223483	12.211587233680724	0.32957401836858236	119.65785461697797	0.31863983111986466	120.5727719154766	0.04038253684438686	-0.2734209583161462	0.3138034951605331	139.13987629666855
4	2.0	perception	59	diff_vonmises	-0.051596940456585666	-2.9562869239501697	11.31967974028559	1.076052181232689	0.3077488014138954	2.6535301404769016	0.8665275701285041	-0.48085653200780726	1.3473841021363113	39.074501567641676
5	2.0	wm	59	diff_vonmises	-0.2113081788852213	-12.107066826718597	2.1431294852288367	2.2235862789059273	0.6678885446735133	4.295641060586022	-0.00020161091467674197	-0.4857047484011504	0.48550313748647367	68.95642070428204
6	3.0	ltm	59	diff_vonmises	0.09615028378314444	5.509005459759339	1.8108914364562623	107.1174987860264	1.79035471721205	107.41090646546466	0.21815587168337913	-0.1506910605168521	0.36884693220023124	66.20020695910986
7	3.0	perception	59	diff_vonmises	-0.025728315979062104	-1.474123919579255	2.3885732122761993	6.244996260940778	1.0684926215611785	7.250168391845471	1.0116428298001674	-0.5663784069833446	1.578021236783512	69.04256892145992
8	3.0	wm	59	diff_vonmises	-0.07665796894082985	-4.3921780863545	3.369276542251178	0.6158985025700111	0.28302551436073414	1.9594271699136978	0.02497635939526771	-0.29449270698102936	0.3194690663762971	65.2164877035645
9	4.0	ltm	59	diff_vonmises	-0.1010373524516071	-5.789013868652868	0.7501193471200787	140.73262352812912	0.7359076910501582	142.14463654653738	-0.029718465555170326	-0.30250235506009027	0.27278388950491994	91.63814086940491
10	4.0	perception	59	diff_vonmises	-0.03194513303026219	-1.8303212986179858	0.9416630041429663	236.09127045413337	0.9173296409112408	237.67883128379904	0.5748238080380474	-0.5648104147853026	1.13963422282335	91.18496260428577
11	4.0	wm	59	diff_vonmises	-0.21792567244448632	-12.486221278619489	0.99674080134909	270.173293988359	0.9817900087304046	272.3532238492258	0.027383793385141075	-0.502287671842538	0.529671465227679	80.72853558520795
12	5.0	ltm	59	diff_vonmises	-0.08106492848569688	-4.644678268760275	1.404681248654893	103.42845226890894	1.3801593157004777	103.94582307315751	0.2401829762348271	-0.20247754823759578	0.4426605244724229	74.56387150610024
13	5.0	perception	59	diff_vonmises	-0.010190425993241714	-0.5838684008531602	0.9941493439856103	305.6180994112482	0.9774073358467413	306.83606907670384	0.5580494732358829	-0.47263687298356416	1.030686346219447	89.27911683764503
14	5.0	wm	59	diff_vonmises	0.10061383629957457	5.764748180585784	3.0984092622377597	1.0038895434351247	0.14858239500134465	2.1287103638118063	0.27875921458211955	-0.3108182426505833	0.5895774572327028	73.19005665240135
15	6.0	ltm	59	diff_vonmises	-0.21344325158382255	-12.229397481302057	0.871768332022274	184.68845987280886	0.8575163701184008	185.53820037144948	0.23468446407622423	-0.2780516603202656	0.5127361243964899	93.64081183101338
16	6.0	perception	59	diff_vonmises	0.2230196634384204	12.778085463449562	0.43491642332013514	5.091739120229965	6.713476266465686e-17	6.052036639529678	0.2315122631814147	-0.46259321712308255	0.6941054803044973	154.646082925952
17	6.0	wm	59	diff_vonmises	-0.1462022401262312	-8.37677131459126	2.4940398594636104	1.0961082575577872	0.05873982789592866	1.8796634001891164	0.32808098296302707	-0.27795526421875877	0.6060362471817858	84.54949738681071
18	7.0	ltm	59	diff_vonmises	0.11991126957328649	6.8704096626048	1.6139645754450174	90.92314326016279	1.59232058973908	91.24167913409349	0.19364675996573055	-0.1438904805537753	0.33753724051950584	69.91870857776877
19	7.0	perception	59	diff_vonmises	-0.029577185569852543	-1.6946479030277914	1.2385809392093123	2.088104751208206	1.2071519556970134e-17	2.896632322710265	0.34548827337155535	-0.3932799658563727	0.738768239227928	119.27234487102938
20	7.0	wm	59	diff_vonmises	0.25842193883486403	14.806486428825616	1.6435010320135341	0.8773424233490382	0.16093308220620106	1.9272255428350817	0.04374662326099399	-0.24780240362266304	0.291549026883657	94.05761836268908
0	1.0	ltm	60	diff_vonmises	-0.298894497151695	-17.12539320647713	0.3999522690278575	14.527972713669723	0.33762926786279424	15.812731078217741	-0.1136859701269568	-0.25563723018746365	0.14195126006050685	123.1496234434962
1	1.0	perception	60	diff_vonmises	-0.05550836476067829	-3.180395028459572	11.310271441549242	0.8970113627756331	0.14716387065052422	2.799429972061569	0.6761598007179378	-0.47325181484772355	1.1494116155656613	39.560408310698534
2	1.0	wm	60	diff_vonmises	0.0711128876950282	4.074468333912921	11.015390618244677	0.13693233023001125	0.13083956694326107	1.716432995366823	-0.1308791866782879	-0.2923773778628575	0.1614981911845696	38.71633471037384
3	2.0	ltm	60	diff_vonmises	0.31186930125541434	17.868794721629268	0.23487205466807665	99.9774894265028	0.22402779739552198	100.4680116151669	0.09335017658649747	-0.21244151430784974	0.3057916908943472	151.16197413797047
4	2.0	perception	60	diff_vonmises	-0.031148800531610354	-1.7846948073561282	10.193797615801127	1.1357053084729094	0.3710389515409917	2.300503815523362	0.9150711981348988	-0.4194716058158801	1.334542803950779	41.00737938599306
5	2.0	wm	60	diff_vonmises	-0.231816848284971	-13.282127026753354	1.521345535761523	60.080109136445174	1.4588018038198887	61.51049061377834	0.04944847587239565	-0.38714624865049885	0.4365947245228945	65.93721718614776
6	3.0	ltm	60	diff_vonmises	0.15419416168520514	8.83467469012008	2.0685254156180526	74.79158497328912	2.047364782417347	74.75597879818424	0.2619540318953568	-0.07756022756883407	0.3395142594641909	65.90102902506328
7	3.0	perception	60	diff_vonmises	-0.014554440688851597	-0.8339080246446752	1.7968097380945722	311.4398881218994	1.7704337551912115	312.08183718434407	1.0411269167143473	-0.5105162144817612	1.5516431311961085	68.20932345981501
8	3.0	wm	60	diff_vonmises	-0.09671149445620147	-5.541160462743203	2.9618988378997746	0.7114350445461592	0.5261697807725175	1.5618850376545814	0.06950467774866897	-0.21482034229122116	0.28432502003989013	65.51146254793323
9	4.0	ltm	60	diff_vonmises	-0.2193696182911036	-12.568953281476103	1.0409960464417995	142.16955219180002	1.0246701515676715	143.21376809923117	0.07603997811332164	-0.26201095116101314	0.3380509292743348	81.250148878936
10	4.0	perception	60	diff_vonmises	-0.03695114773216071	-2.117144813217212	1.0354958007804904	310.5526300243581	1.0178981741361974	311.7788903128341	0.6081377008764264	-0.48968470440987844	1.0978224052863048	87.68675773509963
11	4.0	wm	60	diff_vonmises	-0.3557614175702938	-20.383627740369164	1.3361739614840968	244.94175741526175	1.3202203048948196	246.48720916651203	0.08683900568509273	-0.40626961024280206	0.4931086159278948	70.69297215124621
12	5.0	ltm	60	diff_vonmises	-0.13130994972441082	-7.523505927283767	1.8311415044207415	63.613640138881316	1.8033659468913812	63.67573292222975	0.25767821473922936	-0.10107283694402014	0.3587510516832495	68.73217342196219
13	5.0	perception	60	diff_vonmises	-0.0018999610952334226	-0.1088597519959286	1.122118572570723	307.97462127624163	1.1071699257246328	308.56540147042136	0.6466108344358616	-0.359206723800817	1.0058175582366786	86.26871388713278
14	5.0	wm	60	diff_vonmises	0.1312898388767858	7.522353660592423	3.1199146893341894	0.9161231720106348	0.2965879233720317	1.3792203937121734	0.3245608584775675	-0.18865082256181398	0.5132116810393814	71.43399829218257
15	6.0	ltm	60	diff_vonmises	-0.31003589342859594	-17.763748191026323	0.9173848866919538	174.8124452914681	0.9048805757688033	175.299099412183	0.25857702198368315	-0.20612450937230165	0.4647015313559848	93.45683067484556
16	6.0	perception	60	diff_vonmises	0.20520796262663157	11.757550180984321	1.0116196870918928	2.241942084159786	2.362970552903758e-16	2.708151808355004	0.33999799873444464	-0.329065497715094	0.6690634964495387	127.73203612268668
17	6.0	wm	60	diff_vonmises	-0.10560967495366075	-6.050988650593239	4.05502528191507	0.7072423540471028	4.956249481428922e-10	0.9485907987169746	0.3968620254773581	-0.15080828756923345	0.5476703130465915	67.97965455495626
18	7.0	ltm	60	diff_vonmises	0.13350518006744105	7.649283360998456	1.9923486218874562	91.25903571232104	1.9701106837343534	91.35795355011442	0.26725146598043636	-0.1163162276286176	0.38356769360905396	65.21189057402174
19	7.0	perception	60	diff_vonmises	0.03810586768470904	2.183305393017778	0.7279482195702237	3.131356429007363	7.725166273558334e-11	3.5176048274555285	0.34789534640185316	-0.3481657198829134	0.6960610662847666	140.73020936376867
20	7.0	wm	60	diff_vonmises	-0.11109722022381364	-6.365401834459977	0.3890615114170391	2.4197842119894326	2.082441897608713e-33	3.031054322746665	0.06496002666891082	-0.23101543057469548	0.2959754572436063	157.89200199709128
0	1.0	ltm	61	diff_vonmises	-0.21110968701874966	-12.095694080502097	0.13809637780675746	55.024560819245096	0.12418475644013595	56.47673873469783	-0.13141885847875123	-0.3167051203970601	0.18528626191830888	161.81026176823434
1	1.0	perception	61	diff_vonmises	-0.0718427887320751	-4.11628858279793	10.835043440313502	0.8476971804316644	8.401141324515298e-18	2.617390184094486	0.6831660384907973	-0.4165705853721569	1.0997366238629542	41.21562862760686
2	1.0	wm	61	diff_vonmises	0.11027828066499692	6.318480054063473	5.323749040282393	0.32252067639523774	4.075487089901724e-14	1.9398610764273816	-0.019606463678766006	-0.3087316082564673	0.2891251445777013	59.1336586100596
3	2.0	ltm	61	diff_vonmises	0.20643085476285755	11.827616739189807	0.3746678220779381	97.15901384312492	0.36042214137833256	98.05032519049345	0.05508311313966985	-0.2699609355263508	0.32504404866602066	134.1972375589761
4	2.0	perception	61	diff_vonmises	-0.029680812592320173	-1.700585294058694	8.260835176444377	1.384965989145988	0.34542849539173665	2.4318832664448427	1.0315692779818981	-0.4224142969176623	1.4539835748995604	45.52070439045667
5	2.0	wm	61	diff_vonmises	-0.06128389288157541	-3.5113084142460997	8.028502057145472	0.41068264276964495	0.15180812877582947	1.6819679899428774	0.1466200209423783	-0.2794590605660045	0.4260790815083828	46.23707869562688
6	3.0	ltm	61	diff_vonmises	0.04193380932596254	2.402630293283985	1.228360381936676	150.08151504502567	1.2163075600454947	150.41509949750161	0.2055154688894163	-0.14544217462605502	0.3509576435154713	80.76131683632067
7	3.0	perception	61	diff_vonmises	0.04125308201211117	2.363627491201024	1.5153369233577927	243.8378188029421	1.4878348932812122	244.1575263652881	1.034845423935181	-0.41760564564461333	1.4524510695797943	75.68928099394037
8	3.0	wm	61	diff_vonmises	-0.06766482766231179	-3.8769090465305296	2.4426133361153632	1.2208460741195886	0.7004245935950064	1.886378400235741	0.17281192243735344	-0.2071765713580319	0.37998849379538535	70.11247411038485
9	4.0	ltm	61	diff_vonmises	-0.18007096472896003	-10.317306291818518	5.9837930305804825	0.3214008222955266	1.9690538398329685e-28	1.5637702565278517	0.05758601285171988	-0.24887982079086113	0.306465833642581	55.70930224249909
10	4.0	perception	61	diff_vonmises	-0.02121584176428697	-1.2155781919110298	2.0662536529880335	3.3652274603907646	0.3882072560289576	4.74617160310984	0.6976604466636536	-0.5270517627826371	1.2247122094462908	82.56191870550288
11	4.0	wm	61	diff_vonmises	-0.37972047156036604	-21.75638041512638	1.1942924541098954	118.0980991455849	1.1673334808683462	119.51966628582774	0.05938235997382435	-0.35355248632506076	0.4129348462988851	74.72068099548255
12	5.0	ltm	61	diff_vonmises	-0.04866288742242068	-2.788178068224962	3.2606705548894257	0.36367317956391176	3.244115473389413e-15	0.9600539148392138	0.09689246910607838	-0.15242984281220623	0.2493223119182846	76.02871981944412
13	5.0	perception	61	diff_vonmises	0.014763212048755843	0.8458697424503951	2.379991964374971	2.0928134681256867	0.28423995560896187	2.9294391561618953	0.5909601237378754	-0.36549387046911763	0.9564539942069931	80.69609367467183
14	5.0	wm	61	diff_vonmises	0.029701640113120657	1.7017786230982825	0.7554566699116922	126.51532456681954	0.7382950884651646	127.40501447832585	0.1547817176166717	-0.2628902129119268	0.4176719305285985	99.22001965869899
15	6.0	ltm	61	diff_vonmises	-0.45666281988954455	-26.16485224021377	1.5898618952227126	0.8348964100866283	1.4658094167525402e-13	1.772534892607155	0.09252798272852791	-0.2665237111815814	0.3590516939101093	107.10793777642087
16	6.0	perception	61	diff_vonmises	0.24156292561049983	13.840536124314305	0.8906760104817089	2.75024791066742	8.171124943918323e-16	3.703085291518335	0.29331532786135894	-0.44071095832603224	0.7340262861873912	132.6712727178891
17	6.0	wm	61	diff_vonmises	-0.1552617268079564	-8.895841666009094	2.9528052436273255	0.5356240468621256	2.9761245678180534e-22	1.466948616395259	0.11417638911073916	-0.23252507866731723	0.3467014677780564	79.97144625160757
18	7.0	ltm	61	diff_vonmises	0.16475420503570787	9.439720605579076	1.3075163822517102	146.52883639225306	1.2915406661242623	147.3783277316842	0.08918154928515776	-0.2332320420281846	0.32241359131334235	72.80142271604569
19	7.0	perception	61	diff_vonmises	-0.08862637744347052	-5.0779173810442995	1.940845020990909	1.510573908408323	1.4333347992634e-21	2.2196499514471295	0.4119815101359111	-0.3374918510649272	0.7494733612008383	98.39627817191176
20	7.0	wm	61	diff_vonmises	0.037896249785510115	2.1712951720832807	0.0006300041715870282	804.8970592744201	2.3199742636441715e-27	805.8782167347939	-0.07543806995926161	-0.23684862759097314	0.16141055763171153	179.8764703516701
0	1.0	ltm	62	diff_vonmises	0.11437233811368867	6.553052266957608	0.5381588424458942	35.974519194824275	0.4919232894061283	37.87650545003185	-0.15486597546982495	-0.3669553394797993	0.21208936400997436	103.71235154267961
1	1.0	perception	62	diff_vonmises	-0.07065129680278207	-4.0480211239255395	8.959170338394074	1.000586695344834	0.043173471700708184	2.9823447841355777	0.6818375628227701	-0.4783948758737893	1.1602324386965595	44.99053394793614
2	1.0	wm	62	diff_vonmises	0.15158212185160116	8.685015831734518	4.010696158902249	0.36667288776734924	1.0559367899440806e-21	2.7342171384666343	-0.1528509267827547	-0.4350714607474261	0.2822205339646714	68.36853675907588
3	2.0	ltm	62	diff_vonmises	0.08606990351521833	4.931442214520218	0.9956351199785869	103.62306808290641	0.9744366212646168	104.54392235117389	0.10586058936289788	-0.24288973747677645	0.34875032683967433	84.5323416590278
4	2.0	perception	62	diff_vonmises	-0.021021858082628138	-1.2044637456575693	7.3382097384445055	1.412772051366184	0.31112430233825317	2.421033760288779	0.9854163918577163	-0.40765892380095087	1.3930753156586673	48.30488348179921
5	2.0	wm	62	diff_vonmises	0.008521168419665345	0.48822698696698574	5.99356114722582	0.5259504086661596	0.18846727053423404	2.1414878010476257	0.09399824465379569	-0.35071667628122477	0.44471492093502046	52.315460286527724
6	3.0	ltm	62	diff_vonmises	0.18686007958537207	10.706293919720494	1.177677391202648	8.367502563003617	0.9486488745081633	8.954141477649697	0.16529773666897674	-0.1886305938313073	0.35392833050028405	84.23980745294753
7	3.0	perception	62	diff_vonmises	-0.0010815636411645668	-0.06196903191353151	3.337482341255665	2.5387684484982618	0.4895888671782951	3.345593300929651	0.9470440919444353	-0.44025115982808927	1.3872952517725246	67.41682312006492
8	3.0	wm	62	diff_vonmises	0.12036768845610635	6.896560538280454	3.3424113694734277	0.48089588427646396	0.09567419141164023	1.76937047530454	0.025628340466818722	-0.26982843007877816	0.2954567705455969	70.3987196634506
9	4.0	ltm	62	diff_vonmises	-0.1935652793935148	-11.090473569519002	2.4310664203814722	0.69161721815481	4.6155853965121715e-24	2.0213183914562154	0.07925288847747636	-0.31860181501004414	0.3978547034875205	88.1897931132056
10	4.0	perception	62	diff_vonmises	0.012081700891081668	0.6922304703984254	0.9790840581910611	441.45037805746153	0.9660985277648149	443.22161106663725	0.49294896799793264	-0.5705151001376763	1.063464068135609	88.12712471109748
11	4.0	wm	62	diff_vonmises	-0.23716079292656578	-13.588312500668287	0.8543860892913724	142.5453113614348	0.8280705891705443	144.8440706844914	0.005576905706831781	-0.5130640826270039	0.5186409883338357	87.33227350903006
12	5.0	ltm	62	diff_vonmises	-0.044352433774584546	-2.5412072664171816	1.0185547016307035	43.33419452370537	0.9721282650344306	43.77921610513078	0.23098171349033514	-0.18246242743892793	0.41344414092926307	89.25503291277971
13	5.0	perception	62	diff_vonmises	-0.011081809247380316	-0.6349408992439394	1.0451377372111894	345.16929991063387	1.0314893224019983	345.7069229030932	0.7010661698117104	-0.374462671006107	1.0755288408178174	89.82074230314848
14	5.0	wm	62	diff_vonmises	0.061823203791761476	3.5422086532451207	2.350067848688199	1.1496193567591053	3.3233769473802226e-17	1.8871578728721787	0.3528520321954078	-0.2944093606626387	0.6472613928580464	89.71143398833303
15	6.0	ltm	62	diff_vonmises	-0.26581334509831145	-15.229982812387714	0.5430290958281219	96.28094350002308	0.5261771605099966	96.73795024333245	0.18977308969407858	-0.2176031018030038	0.4073761914970824	120.47109492160341
16	6.0	perception	62	diff_vonmises	0.1002621562287007	5.7445983967858485	0.821505553526739	2.6256122025707223	8.237161582069647e-21	3.2142240806036044	0.2964686825400029	-0.3552869846943627	0.6517556672343656	136.2511196058068
17	6.0	wm	62	diff_vonmises	-0.21056707053474963	-12.064604446074668	2.250930524593231	0.9910195586286914	2.3275306304269044e-12	1.446720887892659	0.3186227161311057	-0.22416664428436198	0.5427893604154677	91.59478097368296
18	7.0	ltm	62	diff_vonmises	0.07433908566369192	4.259315861391031	1.16550367618422	188.37099128984602	1.1513126783033547	189.46264392556074	0.0926921616998726	-0.2838972862644624	0.376589447964335	76.8310569801169
19	7.0	perception	62	diff_vonmises	-0.07167017921809657	-4.1063987861431555	1.6362163636025808	2.9777046810792784	0.2846127838198815	3.698302121010143	0.5929380485109268	-0.3884641609906007	0.9814022095015276	94.7640205262218
20	7.0	wm	62	diff_vonmises	0.42590989405388635	24.402839382151726	0.2521557406076676	68.40475652383608	0.2336329756797362	69.70711206734444	-0.035494300249908406	-0.3365253360412339	0.3010310357913255	145.9607431496627
0	1.0	ltm	63	diff_vonmises	0.2371050983681579	13.58512143752967	0.6210345278717542	164.7071052606613	0.60227656353703	168.15241403116016	-0.3310196056395398	-0.6405354404867474	0.30951583484720757	91.76579683735653
1	1.0	perception	63	diff_vonmises	-0.02625956010986254	-1.5045619661652159	9.334926872004196	0.8366114572807977	0.019321266606338042	4.625292526092599	0.2545764649129937	-0.7388885762438941	0.9934650411568878	44.149557094974625
2	1.0	wm	63	diff_vonmises	0.10260918410922203	5.879073188739255	4.956364875013874	0.4002702070849375	0.09362330006275592	4.2525072245186495	-0.396140907358026	-0.6840553034630756	0.28791439610504965	55.993200543916146
3	2.0	ltm	63	diff_vonmises	0.0028037835688564353	0.16064496516360138	1.6404535566240421	1.1962356538044947	0.17661613974487592	2.856313764528306	0.008897165851882494	-0.36629811456367917	0.37519528041556166	92.1019685268422
4	2.0	perception	63	diff_vonmises	-0.07189511824776973	-4.119286843191196	12.374368152329124	1.049453224644904	0.17393374862137537	2.835272667695355	0.9243393432726245	-0.4874016841614077	1.411741027434032	37.856068070448515
5	2.0	wm	63	diff_vonmises	-0.06137758419982936	-3.516676531359068	5.085348091122617	0.5914020536171564	0.0350812350000403	2.8013529161159614	0.05575225087971203	-0.4425131163048272	0.49826536718453923	59.26068434744823
6	3.0	ltm	63	diff_vonmises	-0.054377719334326495	-3.1156138174038444	1.0816841444226706	141.38319161832973	1.0652588622325203	142.2778129813373	0.11940633037954029	-0.24316272253033056	0.36256905290987085	81.23251549858074
7	3.0	perception	63	diff_vonmises	0.020701159010159738	1.18608904231137	2.8536021536910057	2.849028729797614	0.38993928798364613	3.7837160172671718	0.9567744698214438	-0.4792311877168331	1.436005657538277	73.282695302907
8	3.0	wm	63	diff_vonmises	-0.023463575796886547	-1.3443638654469063	2.958920510545579	0.8603042747142288	0.28065647111730774	2.114067756606805	0.12218511767326123	-0.30103266091518943	0.42321777858845067	70.37376435721075
9	4.0	ltm	63	diff_vonmises	-0.07572905714263656	-4.338955360778116	0.5577488955294165	1.3388044438681954	3.5595359746097915e-11	3.1456572589292495	-0.15580528679277483	-0.3876221369868432	0.2318168501940684	149.12325293256623
10	4.0	perception	63	diff_vonmises	-0.005182670402313038	-0.2969451406599055	2.2382454770711693	2.6816454158833154	0.11861677938472694	4.652994785058473	0.6493003341521905	-0.646346713096987	1.2956470472491775	86.49129923451522
11	4.0	wm	63	diff_vonmises	-0.1367308465248253	-7.8341004351234895	0.6659964585288075	178.83953459139536	0.6468653443982597	181.16043145928364	0.013600240543027553	-0.5281667644804031	0.5417670050234307	99.80975774096063
12	5.0	ltm	63	diff_vonmises	0.04834654598369116	2.7700530389006643	2.5737998736816303	0.8203363590740123	0.044047526556034174	2.4955195332915836	0.07692120565343596	-0.37875300467421563	0.4556742103276516	82.5598288196203
13	5.0	perception	63	diff_vonmises	0.010958764637751518	0.6278909624203745	2.7974290458440354	1.5978261865041514	5.0732323934699066e-14	3.612664585980004	0.43035364813944743	-0.5712362585541411	1.0015899066935885	82.20908429680492
14	5.0	wm	63	diff_vonmises	-0.0008187010739266607	-0.046908116218825666	1.2750925910680908	2.6975653938513253	0.2549936439937628	4.547539828283947	0.1409648532068859	-0.47444309590745326	0.6154079491143392	99.98262406538888
15	6.0	ltm	63	diff_vonmises	-0.1666739893773251	-9.549716145929045	1.2068566540466512	1.8163063805961197	0.15797606938995953	3.530469813468167	0.036939510157415034	-0.41498039880751497	0.45191990896493	106.7634218783793
16	6.0	perception	63	diff_vonmises	0.3496165105555531	20.031550502924187	0.00018561620085588506	13477.344880910829	1.746011498827371e-31	13479.152008283174	0.11054932276965701	-0.6857388799990076	0.7962882027686646	176.1724438989463
17	6.0	wm	63	diff_vonmises	-0.40649360592568273	-23.290368018595693	0.5092533113340524	18.84362092539308	0.3725746603865752	20.56803450629208	0.09136315902771575	-0.48818042838423614	0.5795435874119519	124.75142040651451
18	7.0	ltm	63	diff_vonmises	0.56044240614455	32.11098453223947	0.364217510997112	3.16232817005977	1.5356830029049503e-18	4.5630919902979015	-0.025236511594314726	-0.38788985942384924	0.3626533478295345	153.15397306049886
19	7.0	perception	63	diff_vonmises	-0.08699936067395515	-4.98469618695406	3.539141479705018	1.293170955139182	4.051417944151175e-15	2.5300810113328898	0.5268048155522727	-0.40189114352710376	0.9286959590793764	72.90056192612789
20	7.0	wm	63	diff_vonmises	0.6749494314066036	38.67175380435304	0.4286812702156804	31.14554414215231	0.3777444779368612	32.82194953217815	-0.08452051251548376	-0.3705945342476977	0.28607402173221397	121.95648779100301
0	1.0	ltm	64	diff_vonmises	-0.11443800736174164	-6.556814837714841	1.5397069032651256	0.569470325003837	1.162513069121318e-16	3.0590021895884174	-0.23625993543909946	-0.4753303269110498	0.23907039147195036	109.20106369022128
1	1.0	perception	64	diff_vonmises	-0.04772728808875278	-2.73457217509054	10.373447414760552	0.9195186488427846	0.08834545037459879	3.9532789219115005	0.48049651433794127	-0.6498629392088958	1.130359453546837	41.39067675236885
2	1.0	wm	64	diff_vonmises	0.023092796038790848	1.3231197501791412	7.634444845413595	0.3001861646459821	5.119593118211405e-19	3.170286576755748	-0.1794959220766683	-0.5045667036953726	0.3250707816187043	49.21448318241866
3	2.0	ltm	64	diff_vonmises	0.024122583858503893	1.3821222460426776	3.0178842748655184	0.6007619769737058	5.194127726517923e-13	1.631822101911349	0.13506936583657814	-0.25876824379335606	0.3938376096299342	79.09724266104305
4	2.0	perception	64	diff_vonmises	-0.05285003676984013	-3.028084054023054	11.709216242428159	0.9918260632774648	0.19042731758845963	2.2917973228370174	0.9016285289462999	-0.3944955452665247	1.2961240742128246	38.914768595993536
5	2.0	wm	64	diff_vonmises	-0.09403771902263106	-5.387964415033856	5.0091294261467	0.6145778566580278	0.12650814511819142	2.1721311262834013	0.1426194947154903	-0.3434831747061649	0.4861026694216552	58.08553037424326
6	3.0	ltm	64	diff_vonmises	-0.002844476907432515	-0.16297652171830765	2.1623529547414093	0.931612830758913	0.4669010235136281	1.4627344015867567	0.15184011011072251	-0.16388279628716781	0.31572290639789036	78.00702888972657
7	3.0	perception	64	diff_vonmises	0.01859617176164897	1.0654821570428472	3.6959989814771004	2.4606861895807595	0.5164560347728104	3.0827285882688744	1.0414820561667533	-0.41879537252850835	1.4602774286952616	64.61670721578162
8	3.0	wm	64	diff_vonmises	-0.04054297454301084	-2.322941330220859	3.642130764476891	0.5767896081851741	7.094745151538006e-13	1.5257016976280218	0.1783673499060329	-0.24253388952629684	0.4209012394323297	71.83841693913641
9	4.0	ltm	64	diff_vonmises	-0.362148447063454	-20.749577573952827	0.6259465640926322	138.72410047332494	0.6109663801145924	140.06165087074103	0.03601705479903217	-0.3211949249023647	0.35721197970139684	104.30717341022078
10	4.0	perception	64	diff_vonmises	-0.012114359614522919	-0.6941016774158941	2.553282994484487	2.4521521872648226	0.12731728387031285	3.7803304255788204	0.7825501655764835	-0.5307416955413665	1.31329186111785	81.69251521577306
11	4.0	wm	64	diff_vonmises	-0.16547861958348653	-9.48122650178467	0.8559300716057289	249.79504426582966	0.8419040096676979	251.51456702281973	0.1326500363279166	-0.4304384014196714	0.563088437747588	90.23167080903552
12	5.0	ltm	64	diff_vonmises	-0.002014928026145615	-0.11544687192076931	2.097593815528109	0.9242289109600003	1.9996238654399794e-12	1.5596405656186887	0.2424686227953278	-0.24083072015662946	0.48329934295195726	94.8328800572067
13	5.0	perception	64	diff_vonmises	-0.007766988502445465	-0.44501566071676085	1.3793529743983748	7.009861445559738	0.7371368584347024	7.930251169484991	0.5737174866380954	-0.40674305660231147	0.9804605432404069	87.49396668040364
14	5.0	wm	64	diff_vonmises	0.023194949873294905	1.3289727337573016	2.0318198699344547	1.371208643698437	0.030033768816988486	2.1182932420015828	0.3668019388789645	-0.3148140181360821	0.6816159570150466	94.8887500492153
15	6.0	ltm	64	diff_vonmises	-0.2893318635527931	-16.577494660230055	0.5819139771417039	165.84164690209514	0.5695155295650293	166.51981861790995	0.21198934427262373	-0.27298454861786325	0.484973892890487	115.69110457914975
16	6.0	perception	64	diff_vonmises	0.31397237882944173	17.98929219060965	0.15810259060075635	15.50789926777792	8.823745132574937e-15	16.015492807858237	0.3239945173654566	-0.4548309588154549	0.7788254761809115	168.3231129261166
17	6.0	wm	64	diff_vonmises	-0.3196449860290198	-18.314308641980997	1.8501345489441081	1.26269274817491	0.025791720874170917	1.6884628720735122	0.3456428936034854	-0.24648287948160266	0.5921257730850881	99.37204665525822
18	7.0	ltm	64	diff_vonmises	0.21374967950150794	12.246954507710411	0.9150128620688265	150.8780780793219	0.8994640556104829	151.72442109018897	0.17359350344293745	-0.2514732156119557	0.4250667190548931	90.2433031042942
19	7.0	perception	64	diff_vonmises	-0.07626455512073685	-4.369637134861052	2.2357682393545177	1.5281425767384407	7.656244034701534e-17	2.067975645449738	0.513786865937023	-0.3194933449470117	0.8332802108840347	91.93713337997045
20	7.0	wm	64	diff_vonmises	0.2510359413010356	14.383299942643214	0.6390006214685935	97.46533459412807	0.6198790141982148	98.43523352903327	0.09243986069640187	-0.264668552907807	0.35710841360420886	106.29319820533252
0	1.0	ltm	65	diff_vonmises	0.30389013999954223	17.41162245761349	0.6873609611734676	127.95024010369865	0.6695912434834609	130.06031162942344	-0.15533039779376878	-0.4106806783418975	0.2553502805481287	90.63660724055373
1	1.0	perception	65	diff_vonmises	-0.06294803652229689	-3.6066568213629755	9.304237812665983	0.891520654643195	6.075790116786173e-15	3.1154725088198014	0.5734474211766112	-0.49584284097957587	1.069290262156187	44.52188818126558
2	1.0	wm	65	diff_vonmises	0.1552787363458619	8.896816240742545	4.006127166648093	0.4256520100832651	0.10118316152997517	2.8384083407036624	-0.17103430868102715	-0.44662718160098375	0.2755928729199566	62.723841498622164
3	2.0	ltm	65	diff_vonmises	0.07812310623364152	4.476124269639832	0.6000358079816135	102.69474545926583	0.5819262627508415	103.99561038864016	0.010656038414730062	-0.3034863598950004	0.31414239830973045	105.74581889974411
4	2.0	perception	65	diff_vonmises	-0.03954530237370098	-2.2657789255817424	7.980115035560963	1.4118907856807292	0.2819970137136323	2.7896585903499287	0.9874145796776105	-0.47486944877776105	1.4622840284553715	46.41542326961729
5	2.0	wm	65	diff_vonmises	-0.027337885527234873	-1.5663454615223336	6.770361357352523	0.4673791916906628	0.11100917932629448	2.3345391627296035	0.061510330971464855	-0.3792705232133982	0.44078085418486307	50.23435863490445
6	3.0	ltm	65	diff_vonmises	0.06062487854828085	3.473549674309694	1.1033545075913413	207.60823597755706	1.0926154315810421	208.27945437255926	0.17641846763545743	-0.2117858310035423	0.38820429863899975	82.52025697832124
7	3.0	perception	65	diff_vonmises	0.02205999836761107	1.2639448025295998	1.3215995545587493	263.1827161334055	1.295949397653475	263.8965515588001	0.9419820948972415	-0.48007623091081797	1.4220583258080595	79.84235691518708
8	3.0	wm	65	diff_vonmises	-0.01710200010579034	-0.979872427294074	2.1735533814195103	1.573188384903628	0.6892638693412034	2.6851074970796662	0.09469999330490175	-0.28772805173304405	0.3824280450379458	70.7042489403041
9	4.0	ltm	65	diff_vonmises	0.044614552497832145	2.556225562990627	2.433356001637477	0.4205275160785628	1.0419252221403158e-29	1.9704616702727407	-0.06969521051726418	-0.3117306393778412	0.242035428860577	88.17672065451674
10	4.0	perception	65	diff_vonmises	-0.006967851817890916	-0.3992285014377078	0.9654077964556632	283.0880322570407	0.9437947174710958	285.01905799048086	0.5222140795552974	-0.6175895263950615	1.139803605950359	88.88343558917657
11	4.0	wm	65	diff_vonmises	-0.3151465372672926	-18.056566513578176	0.8883964669664969	67.23507179654753	0.840925796925178	69.30095702581038	-0.034699534643834795	-0.44859716985475906	0.41389763521092426	84.91216460067024
12	5.0	ltm	65	diff_vonmises	0.013922184859931947	0.7976824340750338	1.9830466715748793	0.9723515760992537	0.3309532156405098	1.9877958217160563	0.07038279424814836	-0.24200296758823256	0.3123857618363809	81.05191960235373
13	5.0	perception	65	diff_vonmises	0.006765551325818033	0.3876375370485118	2.4068658839945773	2.0132178106541168	0.14239953616898274	3.338954104011156	0.5505602414996017	-0.46109984765148226	1.0116600891510839	83.13455914760817
14	5.0	wm	65	diff_vonmises	0.02793547691690481	1.6005849260237788	1.2155464111325323	2.5652641695909915	0.3429346619259764	3.9988340227014754	0.10893549210379427	-0.36305069123534045	0.4719861833391347	97.44059440462112
15	6.0	ltm	65	diff_vonmises	-0.3204134383183777	-18.35833771491837	1.4215656187788899	0.9130780489594963	4.951641397176022e-14	2.183213361554953	0.03539328903608202	-0.325168895664059	0.360562184700141	112.56494571556402
16	6.0	perception	65	diff_vonmises	0.209227118746573	11.98783086386114	0.24354801838692658	114.70365629678957	0.22150537241079088	116.14254981414214	0.16077714613133764	-0.5322587467833202	0.6930358929146578	151.2789813293013
17	6.0	wm	65	diff_vonmises	-0.20322801831133483	-11.644107728046897	1.7318238047751626	0.8478069260835804	9.712548561585748e-19	2.2642621747926017	0.040378048617876694	-0.34781816910640284	0.38819621772427954	103.63514833278654
18	7.0	ltm	65	diff_vonmises	0.14802904069671902	8.481439277292303	0.9839505172987184	97.44050563766633	0.9627538543949093	98.61833000421463	-0.002616623449384292	-0.2653464158005896	0.2627297923512053	80.66251614066957
19	7.0	perception	65	diff_vonmises	-0.09994449977246253	-5.726398022508319	2.791574576086515	1.4127285715749827	1.7944709960161333e-17	2.4784212839719353	0.49336408711940843	-0.3911139687571578	0.8844780558765662	82.2911756177746
20	7.0	wm	65	diff_vonmises	0.7593417182178397	43.50707566209443	0.3694821146792914	67.71333981150173	0.3537798739349116	69.19186069087999	-0.13160437060846597	-0.294557146894741	0.16295277628627503	121.92631618822861
0	1.0	ltm	66	diff_vonmises	2.683931619727907	153.77795431212007	1.6157571848922123	11.190742355352507	1.5432385806150837	11.861733726537787	-0.03839211277650814	-0.1683359300712417	0.12994381729473356	172.95097413332695
1	1.0	perception	66	diff_vonmises	-0.06062954763405116	-3.473817193218517	11.783802334115009	0.8184452859590307	0.030071494559572618	1.9836078573769278	0.7827484243096843	-0.3185147870263705	1.1012632113360548	39.368647234798345
2	1.0	wm	66	diff_vonmises	0.13791721142954508	7.902074137126372	5.007807850234629	0.2561904589928433	4.9688703818741696e-21	0.9827235791767199	0.06593001392721551	-0.15639537756591	0.2223253914931255	61.01131556601274
3	2.0	ltm	66	diff_vonmises	0.4877671699567271	27.94700022356079	0.42668465632404967	92.27330896923833	0.41439465977507506	92.55267857411047	0.1444573234103963	-0.16495322929057998	0.3094105527009763	130.7448433167926
4	2.0	perception	66	diff_vonmises	-0.0025708142882448475	-0.14729680862835845	7.6508570025243	1.5646005631621136	0.6188999839987724	2.1614434474215205	1.114633044245746	-0.3899829990938279	1.5046160433395739	46.31840186623168
5	2.0	wm	66	diff_vonmises	-0.06361584975916643	-3.6449197013385706	8.087247394571845	0.4133925994657278	0.5442174368515894	1.09069408553446	0.18306577285615216	-0.20588144200584302	0.3889472148619952	44.00981313788762
6	3.0	ltm	66	diff_vonmises	0.20410427320149369	11.694313435030699	2.038913305733287	41.89515646904116	2.0176867394274933	41.74498085981173	0.21558317961814666	-0.032499131958498406	0.24808231157664506	69.99126676467912
7	3.0	perception	66	diff_vonmises	0.03102561883346744	1.7776370159392847	1.9351846671150255	194.95710696662422	1.8987876245747723	194.96553781640657	1.1244113137614136	-0.37420655738378983	1.4986178711452034	67.72622512844242
8	3.0	wm	66	diff_vonmises	-0.1563270688802035	-8.956881270486573	5.14704579119801	0.2959317380401919	0.07544194897381312	0.6054264316314616	0.15684417719221105	-0.09470753427748008	0.25155171146969113	58.968503633489746
9	4.0	ltm	66	diff_vonmises	-0.2704919996813987	-15.498049973798153	11.3642016372009	0.289057925910176	7.908207849573558e-23	1.149297906610729	0.20120471520264036	-0.18291644287050185	0.3841211580731422	40.24670626448773
10	4.0	perception	66	diff_vonmises	-0.011979601812733847	-0.6863806241169198	2.587624312748915	2.582008415708537	0.3807091972919988	3.526731865118626	0.7603222987203951	-0.43234923667825903	1.1926715353986541	76.20530427851429
11	4.0	wm	66	diff_vonmises	-0.4474478364762219	-25.636872582347323	1.6427193105909368	161.28672806061883	1.6201292673729348	162.37526498471587	0.12537488552713683	-0.3323369727453205	0.4577118582724573	64.7109748287536
12	5.0	ltm	66	diff_vonmises	-0.18712173051417974	-10.72128541364685	3.782457844146143	0.30814763792536415	0.47082839483325895	0.33734488446938243	0.148361848343612	-0.04572654579718866	0.19408839414080065	65.06643729856233
13	5.0	perception	66	diff_vonmises	0.001640740072461897	0.09400748143005556	1.3052021508818439	188.95772177998094	1.2832330578507585	189.08019577020966	0.7070233839557005	-0.2683730129670234	0.975396396922724	82.16955341734021
14	5.0	wm	66	diff_vonmises	0.17679014885235297	10.12932938872942	1.556207876312483	2.428589096516541	0.8413363388560602	2.6301471218259356	0.25629951198330614	-0.13249291071936412	0.3887924227026702	83.76280208622839
15	6.0	ltm	66	diff_vonmises	-0.5532617453284518	-31.69956297336208	0.8980611189447308	81.36424357498807	0.8780542832626843	81.72175791171787	0.19631121257505058	-0.1551488525073106	0.35146006508236116	94.79441802790475
16	6.0	perception	66	diff_vonmises	0.20444277672851568	11.713708258479352	1.6456321329526766	1.7467789209224573	2.9096382125797344e-14	2.0957193916394603	0.4668757948223346	-0.3037618296131853	0.77063762443552	105.9927379047426
17	6.0	wm	66	diff_vonmises	-0.09920593176777792	-5.684081192956493	6.012373000375849	0.4472585220230556	1.6360321863978997e-19	0.6796859667700799	0.31937254090305406	-0.10817281815660117	0.42754535905965524	55.573717270251365
18	7.0	ltm	66	diff_vonmises	0.11591601679653671	6.641498540409114	1.8660901973162016	157.7131201709156	1.8504260317430714	158.17985487397098	0.1687777515840594	-0.18689892586428414	0.3556766774483435	63.151756654167514
19	7.0	perception	66	diff_vonmises	0.056145522893465964	3.2169015003507417	0.560198486355803	3.8545027493124806	4.2542013567352876e-13	4.304755694625275	0.30948252726683323	-0.3607296078832787	0.6702121351501119	149.00195555554305
20	7.0	wm	66	diff_vonmises	-0.42651575311426926	-24.437552549291425	0.00011264727295048775	7110.062100388432	2.0561123896234644e-29	7110.672667518635	0.030296921687977374	-0.22463929657124027	0.25493621825921764	174.8610339387544
0	1.0	ltm	67	diff_vonmises	0.0773971290278099	4.434528839722979	1.5945345789942482	0.5137339868099783	2.235198686504491e-15	3.4451012679684583	-0.3173789406575268	-0.5387875155522208	0.221408574894694	107.57786600577685
1	1.0	perception	67	diff_vonmises	-0.02638416587826847	-1.5117013507978603	8.10438781446878	1.0066856743883494	0.08455124176625885	4.166174815671115	0.4039563758076863	-0.6760961066574249	1.0800524824651112	46.69084192034012
2	1.0	wm	67	diff_vonmises	0.07733472917294076	4.430953591396749	4.6169975451972105	0.3768676904209305	0.006013996798149602	3.9197191161660996	-0.31448647502016663	-0.6219385598977369	0.3074520848775703	62.92875703172882
3	2.0	ltm	67	diff_vonmises	0.16287369633128454	9.331975393478004	0.9987908011443587	123.87961080351323	0.9779281467109545	125.10854688090265	0.07456991868024687	-0.30188609727161975	0.3764560159518666	82.73987802473846
4	2.0	perception	67	diff_vonmises	-0.0318338320853455	-1.8239442242184414	8.440682381458384	1.2861592057821802	0.25811155398789193	2.692409791516203	0.9216781781773893	-0.4592361308825644	1.3809143090599536	45.265452685042476
5	2.0	wm	67	diff_vonmises	0.04753182123404887	2.723372749281309	5.2446615186242145	0.5980120415071405	0.059564904897253246	2.6238910550472485	0.08903132633530403	-0.4149865825135478	0.5040179088488519	57.837989454621976
6	3.0	ltm	67	diff_vonmises	0.16324281472209834	9.353124319412295	3.7212512750869196	0.4193867644914674	3.856161668516376e-21	1.2678010583331802	0.10812389033006545	-0.2015952344312049	0.30971912476127034	71.04792818488977
7	3.0	perception	67	diff_vonmises	0.00047200994546315055	0.027044177763238687	4.502605816818866	1.9993164297181292	0.25198565420043284	3.0463813932544204	1.0250399942504265	-0.4609502986616507	1.4859902929120772	61.242253488427366
8	3.0	wm	67	diff_vonmises	0.16764822765118614	9.605535887261393	2.115750875976871	0.6737520918833144	1.8063188369236616e-14	2.328900956242768	-0.011104137150779736	-0.36543108640440164	0.3543269492536219	94.40371539327325
9	4.0	ltm	67	diff_vonmises	-0.24449338550630806	-14.008439108376464	0.7788213776163652	1.5898122891942628	1.1288120811564859e-12	3.3133491662727956	-0.05102818951881677	-0.4270102521790129	0.3759820626601961	137.71992563441364
10	4.0	perception	67	diff_vonmises	0.03519582931546926	2.016572476239206	1.5854887532974071	4.976229875573355	0.4549063627521356	7.043817853675342	0.5503851130287607	-0.6462748546776196	1.1966599677063803	87.88611153622125
11	4.0	wm	67	diff_vonmises	-0.20162147540090783	-11.552059599672766	1.4911252366429824	1.8658872293191038	0.04066948348807627	5.050657927235776	-0.03157725685256563	-0.7306691623005169	0.6990919054479513	106.49028487692917
12	5.0	ltm	67	diff_vonmises	-0.050556496240205445	-2.8966738615327867	1.235360937600843	3.1787298748359283	0.5131138128982887	3.9366373918138273	0.2449025062621204	-0.26223846892629743	0.5071409751884178	94.79572598960681
13	5.0	perception	67	diff_vonmises	-0.02770288345505475	-1.5872583023174331	0.9613504906147815	292.2071041352685	0.9435739178682293	293.12643562603637	0.6819165248786447	-0.4593586578178197	1.1412751826964644	92.3940386645852
14	5.0	wm	67	diff_vonmises	0.0420096247490404	2.406974197048345	2.311399754988743	1.3844225509757264	3.8235848533717426e-15	2.4468774558033033	0.3894852602644173	-0.38177868530800696	0.7712639455724243	90.44959239867194
15	6.0	ltm	67	diff_vonmises	-0.1706746345577199	-9.77893623009502	0.3175753770593632	50.921991181400976	0.28601958271495836	51.43038084682815	0.1821049815372131	-0.2720297373138294	0.4541347188510425	144.66807434143522
16	6.0	perception	67	diff_vonmises	0.12268286073735211	7.029210138841511	0.6468970262385105	3.8146237672162986	3.1464819409370894e-13	4.5480261661259025	0.323085431101641	-0.4367439109651296	0.7598293420667706	144.4557265421838
17	6.0	wm	67	diff_vonmises	-0.2620507498222677	-15.014401983054547	1.626210092345314	1.5550291938534582	8.730667839659628e-11	2.1718521699895694	0.36177868165665505	-0.31829689849822446	0.6800755801548795	106.48983651022212
18	7.0	ltm	67	diff_vonmises	0.19197132731221123	10.999146842514213	0.8884954501724543	149.6139334332026	0.8736708194952033	150.86515510819802	0.025264373180199584	-0.2876086498034951	0.3128730229836947	86.15788383916947
19	7.0	perception	67	diff_vonmises	-0.03935387322136894	-2.2548108430773497	1.5556773630331742	3.6321173084433545	0.3429273348866695	4.877769710909608	0.5459884134065072	-0.4803096695833442	1.0262980829898514	93.38007027726505
20	7.0	wm	67	diff_vonmises	0.6091780497304984	34.90333122156813	0.16515716395686325	122.66939284495655	0.1542143776880264	124.35167303662088	-0.08131901624344096	-0.4234773101729097	0.3421582939294687	152.39945033752235
0	1.0	ltm	68	diff_vonmises	0.21176057483577548	12.13298720535416	3.900828288740617	0.3578219611562331	7.799391247783964e-30	2.5079530570417363	-0.1277927458520976	-0.39904212193368277	0.27124937608158517	69.34690742656721
1	1.0	perception	68	diff_vonmises	-0.07502292162665383	-4.2984967759480135	8.824581731347779	0.9803113166551396	4.2746239643135144e-18	3.1096832178158453	0.649320531879973	-0.49492143080889683	1.1442419626888698	45.72878713088636
2	1.0	wm	68	diff_vonmises	0.1891697708705498	10.838629482339325	0.7309677030933831	68.3427631513891	0.6868091234853587	70.80323988419325	-0.11855244503127693	-0.5021136403700339	0.383561195338757	91.55693526664163
3	2.0	ltm	68	diff_vonmises	0.08944996832391823	5.125105662539417	0.9819594986553675	111.46757257947847	0.9590847420352901	112.62294309285963	0.09765923442449775	-0.2925251987967439	0.39018443322124163	84.32483479202861
4	2.0	perception	68	diff_vonmises	-0.024481966425421296	-1.4027133503576228	6.829200567560666	1.5492994923100853	0.3338268512682353	2.5569286247251393	1.0303801722389077	-0.4264429607633485	1.456823133002256	49.873421585436404
5	2.0	wm	68	diff_vonmises	0.037055754641844525	2.1231383476500008	7.794791390455659	0.42178048228566634	0.029587776980660715	1.8976409349136452	0.15072545499999224	-0.3028718316047611	0.45359728660475335	48.188826348177685
6	3.0	ltm	68	diff_vonmises	0.020330033752785377	1.1648251313931126	0.8002149988009443	21.900772849165033	0.7171086418092383	22.67825524211492	0.12368456708435005	-0.22381664896451903	0.3475012160488691	98.10593905103366
7	3.0	perception	68	diff_vonmises	0.029375734637723333	1.6831056148378114	3.4564216112547816	2.223773140897065	0.2857601607143368	2.8639405545697296	0.9830073909118054	-0.3988528049551611	1.3818601958669665	69.11680310304862
8	3.0	wm	68	diff_vonmises	0.07449136754615993	4.2680409705527556	2.5901197848318724	0.7514818882212798	0.2097698639878615	1.8402300343617903	0.09486999491638187	-0.25771517464118626	0.35258516955756813	76.24499644083818
9	4.0	ltm	68	diff_vonmises	-0.21962194245139857	-12.583410390930187	1.5203479698408406	0.8930376790672588	6.843320433358345e-26	2.36301350533951	0.013893028446541389	-0.3574421902686318	0.37133521871517317	109.6781841615989
10	4.0	perception	68	diff_vonmises	0.012911709364250503	0.7397864528710971	1.2686800159549874	10.757076867911882	0.7274842518651283	12.565154783109218	0.5727536388501342	-0.6043896404350498	1.177143279285184	87.85852827676752
11	4.0	wm	68	diff_vonmises	-0.2840162796485644	-16.272934136870077	2.2838734903743068	1.0494426863715995	0.08587492926174212	3.2431924946862862	0.024854681492109454	-0.47450500444176646	0.4993596859338759	84.4307465781544
12	5.0	ltm	68	diff_vonmises	-0.09053351408312728	-5.187188261451394	1.83202766102263	0.8330014925640634	1.4320306243324035e-11	1.5709919290956529	0.15743625893134078	-0.2395882016662523	0.3970244605975931	101.07904934352813
13	5.0	perception	68	diff_vonmises	-0.0017841141632900957	-0.10222221172603667	1.8983087330348964	2.9823973537509105	0.3843654589725212	3.6967090231595825	0.6576563242169758	-0.382075826553798	1.039732150770774	86.72663577344827
14	5.0	wm	68	diff_vonmises	0.0015393482817410808	0.08819815974447909	1.7588654440792761	1.2797981487268932	5.852464134032119e-19	2.145957262439121	0.26915522836374245	-0.3234223418076078	0.5925775701713503	102.99904028600511
15	6.0	ltm	68	diff_vonmises	-0.29661920706229883	-16.995028687186785	0.6936211145434176	1.7903470581279868	1.6852560266339755e-17	2.493265677510095	0.11046581930879301	-0.2701153642626267	0.38058118357141973	141.34802443211916
16	6.0	perception	68	diff_vonmises	0.1496081525592652	8.571915722395243	0.7775133142423346	3.0324384745265296	6.528761450819203e-15	3.870409447263228	0.2917464811418098	-0.424286259769033	0.7160327409108428	138.1266857929825
17	6.0	wm	68	diff_vonmises	-0.22891558940899517	-13.11589713788507	1.9157904394039225	0.9395733538979699	6.425457837651417e-19	1.6925330775759824	0.20287332453744894	-0.25913879056002037	0.4620121150974693	98.92666225310572
18	7.0	ltm	68	diff_vonmises	0.1499746655742257	8.592915371289093	0.9154953481513288	163.07612086822152	0.8999661654128558	164.60232150080463	-0.010411752105127903	-0.3381259604729756	0.3277142083678477	83.38875864574919
19	7.0	perception	68	diff_vonmises	-0.0774858638525674	-4.439612970677417	2.674216423326719	1.6794700819404502	1.5222103862056207e-17	2.6798371571655855	0.6029652429642076	-0.42161279230552295	1.0245780352697307	84.1025378373536
20	7.0	wm	68	diff_vonmises	0.6025858990254696	34.52562880825579	0.13259162393059026	66.50099819877127	0.11807043663020898	67.95821091868909	-0.09740917791535253	-0.34887759635585525	0.2514684184405027	156.20903675587184
0	1.0	ltm	69	diff_vonmises	0.12419240170970566	7.115700465559444	2.7083031645354643	0.4814150327917091	6.855557614920467e-27	2.7637135631265033	-0.14256333786563036	-0.43853801598616904	0.2959746781205387	83.55556441389413
1	1.0	perception	69	diff_vonmises	-0.08256415535052859	-4.730577640647763	10.582876945107605	0.8877918935103634	1.7506620806740023e-16	3.3292385896717653	0.6079510226369415	-0.5298647775474067	1.1378158001843481	41.711110310141834
2	1.0	wm	69	diff_vonmises	0.03309250800415994	1.89606104214126	3.5926470239333756	0.7088928043712481	0.11739198319232853	3.3043477011330853	-0.0755987214417817	-0.510259162498682	0.43466044105690027	66.52269954259344
3	2.0	ltm	69	diff_vonmises	-0.016148273671679012	-0.925227927809433	2.1666115579293685	1.1234965960207102	0.24581563095023476	2.3677701631536006	0.13354388758788016	-0.30856144610943426	0.4421053336973144	81.50199114594238
4	2.0	perception	69	diff_vonmises	-0.04080324196434674	-2.337853555008159	8.580352000839152	1.1822249239840987	0.1471063404132099	2.4820345037094005	0.9048599342732455	-0.40884619496696745	1.313706129240213	45.49036456804021
5	2.0	wm	69	diff_vonmises	-0.03826093783747719	-2.1921902582998416	6.232624715126125	0.5399241403683568	0.08902180027268862	2.1038116344547495	0.16072232318467056	-0.33678071767611106	0.4975030408607816	52.915427849891984
6	3.0	ltm	69	diff_vonmises	-0.037026430195209625	-2.1214581806212642	1.367001260926339	2.007157074961913	0.3338241763347308	2.941410804272651	0.1862483592401456	-0.28046093274603084	0.46670929198617644	96.21941411240573
7	3.0	perception	69	diff_vonmises	0.014659428177486137	0.839923364645112	3.410513441977564	2.5311500219644585	0.3225257085939312	3.406317135987924	1.0527699440285891	-0.47022603084521497	1.5229959748738042	68.86079339847717
8	3.0	wm	69	diff_vonmises	-0.030801453530708615	-1.764793290177932	3.233736735423562	0.7974025150800282	0.09538802339608657	2.0453258889323194	0.1876361886732721	-0.3075644173801822	0.4952006060534543	72.63624653962489
9	4.0	ltm	69	diff_vonmises	-0.19328809038771022	-11.07459180935897	1.3433175243362176	1.2268133391305451	2.26984212320503e-23	2.8348028148912077	0.04606533996417034	-0.4173060375663759	0.46337137753054625	115.41499007501672
10	4.0	perception	69	diff_vonmises	-0.02024077981959191	-1.159711257716184	1.588871372210861	4.993588489084511	0.41792413663458505	6.785268654518531	0.6690544481504177	-0.6332446469964897	1.3022990951469073	89.87116057648552
11	4.0	wm	69	diff_vonmises	-0.22733970137754933	-13.025605404698045	0.8399480777367685	120.27730728004528	0.8102637781703602	122.32568740261475	0.05564505828375843	-0.4751052019143316	0.53075026019809	89.53472143486619
12	5.0	ltm	69	diff_vonmises	-0.06096548777211237	-3.493065145298467	1.5446762593527399	1.1558111886047102	9.305263721208956e-19	1.8269937460375256	0.21882970215931363	-0.2675693987841112	0.4863991009434248	109.07992594776684
13	5.0	perception	69	diff_vonmises	0.00831177402845136	0.4762295720967132	1.3325544585433418	6.877299654613979	0.6846453713497388	7.624980582311182	0.6265483731412109	-0.39411455783117105	1.020662930972382	90.52290587030541
14	5.0	wm	69	diff_vonmises	-0.04368216696249674	-2.5028038069368623	1.8851285376644997	1.369152436576287	0.04743739338199448	2.16767436337438	0.3198615891778324	-0.3131218693279269	0.6329834585057593	97.36627285256625
15	6.0	ltm	69	diff_vonmises	-0.2730960986785042	-15.64725385576655	0.7497781941579876	1.8402547600799994	1.4460327760182662e-15	2.5376354882740464	0.13725013815533127	-0.28307838770175753	0.4203285258570888	138.89224707219685
16	6.0	perception	69	diff_vonmises	0.15347048167581462	8.793210879864015	0.6215769450623295	3.626323573763433	2.624000626420818e-16	4.247550214640546	0.30179392286666606	-0.39394384294512486	0.6957377658117909	145.57858706569868
17	6.0	wm	69	diff_vonmises	-0.1808478835966053	-10.361820463958676	1.2298741264745028	1.9363299085307832	0.3213281688645089	2.6044870058451566	0.18765377543528594	-0.23104049857982173	0.41869427401510767	101.73569935383773
18	7.0	ltm	69	diff_vonmises	0.23798936269534307	13.635786051451356	1.207952656458547	188.10273908389863	1.1947166065081465	188.9959076213795	0.12203446278174113	-0.24833627907813138	0.3703707418598725	76.61414518902075
19	7.0	perception	69	diff_vonmises	-0.02782981969997371	-1.5945312134185285	1.9711301873245002	1.8301490716982414	5.556167973963866e-16	2.664543259162335	0.5117591888670281	-0.40591422239947605	0.9176734112665041	97.69464243949619
20	7.0	wm	69	diff_vonmises	0.2292993489940662	13.137884942457331	0.0004170633797525081	1765.3715012326013	1.8766251244444966e-24	1766.421856497147	-0.049976058317270144	-0.28433797066259103	0.2343619123453209	178.24144813851592
0	1.0	ltm	70	diff_vonmises	0.179652341431237	10.293320943653141	4.540299581833586	0.44418539971356297	3.104408595927563e-20	2.4432324223960538	-0.023091571409719625	-0.3888108690747842	0.36571929766506456	64.15392213368736
1	1.0	perception	70	diff_vonmises	-0.1048449078738273	-6.007170724608238	10.182104648561577	0.9872492162696237	0.0044197898963282325	2.978586826214514	0.7644410620899678	-0.4741525512628059	1.2385936133527737	42.48703619964448
2	1.0	wm	70	diff_vonmises	0.025436767487190013	1.45741942147158	4.81908804048148	0.5464971606687165	0.07435435313501372	3.0109249604561934	-0.05089647988938012	-0.4761823577167091	0.42528587782732896	59.35767315192021
3	2.0	ltm	70	diff_vonmises	-0.07408432671102008	-4.244719248609762	1.1722001718013337	134.1618813832485	1.14887344756941	135.2081430676404	0.19459974350954923	-0.3052003903250444	0.49980013383459365	78.98646990244447
4	2.0	perception	70	diff_vonmises	-0.03780232701336982	-2.165913793639473	7.979816978825445	1.1351796734663706	0.08515911664594027	2.2405349015217215	0.8703430925296338	-0.36051527153386376	1.2308583640634976	47.51810295490884
5	2.0	wm	70	diff_vonmises	-0.056125615051163695	-3.2157608650076095	5.071271540999815	0.647664949381564	0.2614092668486167	2.1438590933250605	0.13017582852554882	-0.3467459135814255	0.4769217421069743	55.7179352404103
6	3.0	ltm	70	diff_vonmises	0.053736437417264304	3.0788710700781223	0.8727743071133601	74.18064449594291	0.8350643759335578	75.13124547539499	0.23870126562450622	-0.3023293635487665	0.5410306291732727	93.89112736124835
7	3.0	perception	70	diff_vonmises	-0.014979266066683063	-0.8582487258244687	3.3448455488113904	2.4669164894144364	0.33081717705238045	3.53044632923745	0.9569126189049003	-0.4866329938930249	1.4435456127979251	69.05170194529273
8	3.0	wm	70	diff_vonmises	0.03322029818993474	1.9033828804493484	3.47574183610919	0.7624144099210256	0.1206048607827674	2.1879450821102373	0.15107854380507213	-0.3309423990879464	0.48202094289301856	69.23203562650673
9	4.0	ltm	70	diff_vonmises	-0.14158029657356663	-8.111953455875879	1.9650679684622852	1.1697818678755278	5.21350149564574e-21	2.6013676097353415	0.1830526704383163	-0.4022933100385618	0.5853459804768781	97.80379472352811
10	4.0	perception	70	diff_vonmises	-0.02506845457575704	-1.436316646106295	0.884043281383547	573.0691948652639	0.873810788132104	574.8786155816221	0.5428861022303693	-0.6071484212600993	1.1500345234904685	93.16095081472449
11	4.0	wm	70	diff_vonmises	-0.2060237084454372	-11.804288973557325	0.9161159446503712	215.2146722677038	0.8984315709579148	217.20973604400376	0.08134561924697437	-0.47342848429349615	0.5547741035404705	85.76547376771288
12	5.0	ltm	70	diff_vonmises	-0.037291191096455165	-2.1366278628427136	1.8368832044252486	1.2033958106370433	0.03313540761807402	1.618137283484088	0.3234605139624468	-0.23410794319150788	0.5575684571539546	99.52095436671016
13	5.0	perception	70	diff_vonmises	0.008277516482264956	0.4742667592837577	1.015296428457498	353.4304540447764	1.0028253590112646	353.8927920299994	0.6748403835758694	-0.3522366767620575	1.027077060337927	91.34876631938522
14	5.0	wm	70	diff_vonmises	-0.023681668842293033	-1.356859676489853	2.0792556588276456	1.3752549650485622	0.04461877895199863	1.9419770826076548	0.40326030176643757	-0.2840878007624019	0.6873481025288395	93.36491688947334
15	6.0	ltm	70	diff_vonmises	-0.19555459288784616	-11.20445283687261	0.9909999563335146	1.5483935024575992	1.3910320189737226e-12	2.0204501486625457	0.20489707728950396	-0.2490207715627643	0.45391784885226827	128.66694112615065
16	6.0	perception	70	diff_vonmises	0.07912137539292599	4.533320879284905	0.49884966082478194	3.719940756319653	1.4032300462582053e-19	4.090959767552991	0.2659406995623238	-0.3129491088325337	0.5788898083948575	152.1157111210685
17	6.0	wm	70	diff_vonmises	-0.21236483650707652	-12.167608848841232	0.8536723204512724	103.1488571585007	0.8346522721775662	103.51466957709158	0.26091735352594014	-0.18664745884457368	0.4475648123705138	98.07571763369543
18	7.0	ltm	70	diff_vonmises	0.13930231322126865	7.981434623988141	1.2539604951527394	149.52831575886677	1.2353718227808237	150.3153286472142	0.20640074964020272	-0.251486602418705	0.45788735205890774	77.22595792096851
19	7.0	perception	70	diff_vonmises	-0.035448785573377814	-2.0310658022187886	0.8737132461507635	118.83196635526815	0.8401151573236019	119.23921559649833	0.6349008846376449	-0.35038139059294515	0.9852822752305901	99.19997570022932
20	7.0	wm	70	diff_vonmises	0.20464451157666322	11.72526681385892	0.002647308828627975	368.42945358445576	1.0659513470288527e-14	369.33076523005815	0.011883876453062214	-0.29857482094450916	0.31045869739757137	178.44527766351752
0	1.0	ltm	71	diff_vonmises	-0.4986642396492015	-28.571356325999492	0.2920737058764121	3.471386998130915	0.04670206244748884	4.264955282255087	0.013503761525986313	-0.2435703659188289	0.2570741274448152	155.3846290778027
1	1.0	perception	71	diff_vonmises	-0.09857861141970428	-5.6481383846091955	12.442189165129427	0.9683812253254928	0.05715296694355995	2.237349677885588	0.9714577230673244	-0.36364404928789645	1.3351017723552208	38.218873148431015
2	1.0	wm	71	diff_vonmises	0.10277955676586281	5.888834822909204	3.043251651815174	0.6550749660160644	4.965370202249939e-19	1.5800108089841673	0.18108838552060302	-0.2504831729020751	0.43157155842267814	78.7554857758596
3	2.0	ltm	71	diff_vonmises	0.007620454465800269	0.43661987886197573	3.61592209070407	0.5883223509188635	1.8236674556119687e-17	0.8191379541846813	0.29750898553003013	-0.1300603535364548	0.4275693390664849	72.108184661188
4	2.0	perception	71	diff_vonmises	-0.02145786573451303	-1.2294451439459828	9.764604724742854	1.0546605127250357	0.22590306782227565	1.4832200511593168	1.0048328220885823	-0.25198488492731724	1.2568177070158995	42.68204283442648
5	2.0	wm	71	diff_vonmises	-0.10865088673234657	-6.225237250117411	6.968523191878863	0.46908191544533145	0.4305950933564027	0.8598974976663186	0.28336538746584383	-0.1482117863223868	0.43157717378823063	48.62913530911149
6	3.0	ltm	71	diff_vonmises	-0.034869629433140925	-1.9978825997041283	1.9719701194952377	0.9059590066780244	0.4199109265252395	1.0204633478934433	0.22678176754914756	-0.10217092813567248	0.32895269568482005	85.68074065411554
7	3.0	perception	71	diff_vonmises	0.04461158806719196	2.556055713626285	3.21332344651228	3.1837690311103204	1.0342459806083153	3.1300553565434184	1.0780317813156883	-0.311332570372004	1.3893643516876923	65.03488186204902
8	3.0	wm	71	diff_vonmises	-0.08250171039429642	-4.72699980820378	3.627364586535324	0.5773135872377606	7.491762723607232e-11	0.7424495118179593	0.30246933536887544	-0.11786717130333499	0.42033650667221045	71.98691924859901
9	4.0	ltm	71	diff_vonmises	-0.38217701263626	-21.89712985097563	3.2648640554653827	0.8224115135159639	0.0734070547535291	1.5251244320027213	0.3041989945662293	-0.2295690677937142	0.5337680623599435	73.6874879930114
10	4.0	perception	71	diff_vonmises	-0.02810179345952066	-1.6101141619788748	2.775566624480078	2.3900718870515703	0.23046398973291	2.914319020769604	0.9206299679479135	-0.3869458546207397	1.3075758225686531	77.3273266732551
11	4.0	wm	71	diff_vonmises	-0.3219208283166609	-18.444704799900233	1.49784897444368	134.1269672814004	1.4775375798877324	134.68833046932028	0.23680505879200098	-0.21565696371341758	0.45246202250541856	71.68946731254894
12	5.0	ltm	71	diff_vonmises	-0.08196240457522666	-4.696099860904236	1.089472363613631	1.1895845434705323	8.249641655580796e-17	1.021483151253037	0.2639606885847043	-0.11430556079422174	0.37826624937892606	124.90334300095572
13	5.0	perception	71	diff_vonmises	0.020588957438498555	1.1796603658004494	1.3828419079550114	157.4782784362471	1.3607218959392926	157.35124660394433	0.6769348094839671	-0.20011756012355697	0.8770523696075241	81.31486903347391
14	5.0	wm	71	diff_vonmises	0.017482564017971842	1.0016771332970613	0.8625683964499341	66.0233207150887	0.8361948889962353	65.7058108529997	0.43087015894349534	-0.12017183651436936	0.5510419954578647	105.3024861693221
15	6.0	ltm	71	diff_vonmises	-0.45968044049970747	-26.337749165347798	1.757262243351301	0.9493260182849378	2.1509756428050664e-14	1.066177607569656	0.2830483239952394	-0.15621231377347594	0.4392606377687153	102.56258027388819
16	6.0	perception	71	diff_vonmises	0.28513020877164924	16.336757574299547	0.9481810150419907	2.491178937488223	7.19146745873828e-15	2.2006720365753316	0.4765292339385057	-0.22613317283616519	0.702662406774671	130.0161159558752
17	6.0	wm	71	diff_vonmises	-0.27213858722374085	-15.592392490573177	3.988118342142585	0.5478513708340278	6.173144725353331e-13	0.25254822552952394	0.3802991714009243	-0.04004981726376948	0.4203489886646938	68.56693958212176
18	7.0	ltm	71	diff_vonmises	0.16697824337370074	9.567148615821356	1.303524563496193	190.79154523254675	1.287730201170814	191.3629720059191	0.3222813012197179	-0.23980547258609874	0.5620867738058166	78.07348136945151
19	7.0	perception	71	diff_vonmises	-0.06643384445385575	-3.806378904034526	1.5686408588951684	1.7368309886673616	1.3881288184069368e-21	1.5404997489879642	0.5278333021795005	-0.21162837815767055	0.7394616803371711	108.35382697088828
20	7.0	wm	71	diff_vonmises	-0.06442815222222678	-3.6914612041600106	0.7023159805164162	1.7419205390531578	3.8164338880689076e-13	1.9768243830605867	0.18182023144323722	-0.19276363624478324	0.37458386768802043	141.9495696079393
0	1.0	ltm	72	diff_vonmises	0.2897133606815886	16.599352835606393	0.7037411471465577	131.83633139961867	0.6854606065391043	134.09377141533017	-0.17688635645453132	-0.43622264020724444	0.2593362837527131	88.86180043784907
1	1.0	perception	72	diff_vonmises	-0.06027563143988653	-3.4535392889915517	9.130417344253244	0.9237886091925126	6.58017258542552e-19	3.325727738532996	0.5678967074998552	-0.5293059960841785	1.0972027035840337	44.94899181624757
2	1.0	wm	72	diff_vonmises	0.20539520249158805	11.768278235002926	3.8566926133458637	0.38882433727484805	0.07162616531316675	2.9248285190105374	-0.2063929400100769	-0.4591460168568122	0.2527530768467353	64.67203335564881
3	2.0	ltm	72	diff_vonmises	0.12168641715824839	6.972118127235958	0.5907573567186134	117.18824215742632	0.5751881907849221	118.45928144851177	0.013158747587514341	-0.2988759479337446	0.31203469552125895	106.65965333865188
4	2.0	perception	72	diff_vonmises	-0.04505032901182863	-2.581193718053549	8.85269025495479	1.3640248646421416	0.3088308955036234	2.643281163317111	1.0350646115815065	-0.4604960073772484	1.495560618958755	44.121449720536646
5	2.0	wm	72	diff_vonmises	-0.02504335771479588	-1.434878701894194	7.619660556911186	0.4080383950717611	0.05684267427767057	2.1614554336608856	0.07754358156912727	-0.34755755255316	0.4251011341222873	48.23587434238516
6	3.0	ltm	72	diff_vonmises	0.023076732137305878	1.3221993564215386	1.176374364737181	145.6207370388767	1.1625746683441276	146.22082925881315	0.14947076465880826	-0.18750649928221286	0.3369772639410211	79.6390826797932
7	3.0	perception	72	diff_vonmises	0.029797146587788412	1.707250741012918	1.7095061047181686	8.717674594992515	0.9984682477494524	9.292639075614222	0.9156964454959224	-0.4343677655947472	1.3500642110906695	79.04309942162118
8	3.0	wm	72	diff_vonmises	0.0018456247184803175	0.1057465069339429	2.1441251301720965	1.5205027432976586	0.7509524908489802	2.442737638228027	0.09913801483279305	-0.24748353123148578	0.34662154606427886	70.46722803844088
9	4.0	ltm	72	diff_vonmises	0.001219554640117703	0.06987533376434038	3.340251890497745	0.31476942886678094	9.563127918558302e-42	1.7608162267882772	-0.06118016106840457	-0.2799676497624899	0.21878748869408532	75.09562528461393
10	4.0	perception	72	diff_vonmises	-0.003822191654245848	-0.2189954502784135	1.5357739635464613	5.456940813129299	0.5452464365295686	7.186822022125422	0.5634494137122328	-0.5772879546176328	1.1407373683298656	87.0431245202738
11	4.0	wm	72	diff_vonmises	-0.26168867380247024	-14.993656555257257	0.8819138812199109	86.14357026848477	0.846415552223842	88.00764528960667	0.000715413966055678	-0.41539047600757684	0.4161058899736325	85.98824268823383
12	5.0	ltm	72	diff_vonmises	0.00023192758905185058	0.013288472005315596	2.268683413209843	0.7999689098324033	0.2662749345390823	2.013825560946355	0.034164300059644215	-0.2699325589070864	0.3040968589667306	77.6674392065344
13	5.0	perception	72	diff_vonmises	0.01591503958559896	0.9118645990384551	2.9653906340452276	1.5556401950357481	0.039821289327720284	3.0545882124993446	0.506449108977267	-0.46605922439372144	0.9725083333709885	78.15090854135283
14	5.0	wm	72	diff_vonmises	0.04296941126537906	2.4619659136681142	0.6731251470729959	88.48036437317879	0.6433622947643762	89.97726544826853	0.09094138922480965	-0.37840539873358914	0.4693467879583988	102.51496594072339
15	6.0	ltm	72	diff_vonmises	-0.30631117943114944	-17.550337799079337	1.784352520739786	0.8107659127274924	1.914456473302704e-15	2.2986915738552236	0.024415353696417286	-0.354844477434365	0.37925983113078227	102.13488365917189
16	6.0	perception	72	diff_vonmises	0.3162885349526234	18.12199816116134	0.21944870584643975	10.34761429569057	1.0420776105196111e-08	12.044955673537983	0.10951325691678737	-0.6104155439159651	0.7199288008327525	164.9961389395825
17	6.0	wm	72	diff_vonmises	-0.30412770541379064	-17.425233953208203	1.7280836287071322	0.9674113229416794	2.919806341135675e-14	2.498754533819312	0.058984755196346716	-0.38327949489632074	0.44226425009266745	103.61785954625506
18	7.0	ltm	72	diff_vonmises	0.2131329802161899	12.211620241432954	0.6690856368453066	107.81615011801334	0.6508984472749758	109.33364377598053	-0.04469721049974851	-0.32171369978239106	0.27701648928264255	96.88787046221123
19	7.0	perception	72	diff_vonmises	-0.12787917860426173	-7.326937221623854	3.641326998501836	1.2576282569111323	1.7469547929611626e-17	2.3071279846101573	0.5510563940764628	-0.3665595828702073	0.9176159769466701	71.84565620306964
20	7.0	wm	72	diff_vonmises	0.6454444554581015	36.981243207868864	1.1758875328261165	1.1808406337511883	0.19433047819745466	2.7662304692430477	-0.08724967972193343	-0.3208129098155561	0.23356323009362268	100.34069858772074
0	1.0	ltm	73	diff_vonmises	0.27247066955308624	15.611419406495543	0.7030940446197425	147.68016982383182	0.6894809310988971	149.40012120597495	-0.10286850914749834	-0.34355162887767676	0.24068311973017842	91.15307937847183
1	1.0	perception	73	diff_vonmises	-0.0861368009856644	-4.935275157236879	9.566959399334413	0.9617353857244993	3.744163559549825e-18	2.725091373805282	0.7367031490653315	-0.4337117567824501	1.1704149058477817	43.889763623686605
2	1.0	wm	73	diff_vonmises	0.09813310007539551	5.622612464855103	8.007095107997499	0.1705422699634195	0.05444179513716318	2.3668527391804024	-0.20818643639673243	-0.3834570276546534	0.17527059125792097	46.09200958375908
3	2.0	ltm	73	diff_vonmises	0.021137136234439628	1.2110686972264362	0.7424187736593305	114.09586997670455	0.7271736338551503	115.05655902329495	0.05358635898195274	-0.23568068952985932	0.28926704851181206	96.51145999000056
4	2.0	perception	73	diff_vonmises	-0.034520787147359004	-1.9778954090131275	7.531431479112962	1.4303845142365306	0.33278625823564767	2.596638416181811	0.9774450376384282	-0.44289242925738687	1.420337466895815	47.52041604726861
5	2.0	wm	73	diff_vonmises	-0.06351373057527206	-3.639068703094103	3.817171698695401	0.8066744478517608	0.4284261878899445	2.749725371693303	-0.03741064535251326	-0.43547817387417703	0.39806752852166377	58.54819640176754
6	3.0	ltm	73	diff_vonmises	0.20119037564815276	11.527359403290767	1.3896228347047437	170.2722461522361	1.3749511052041272	170.77412157546922	0.24107082510396083	-0.19873632135067254	0.43980714645463337	74.9624749584556
7	3.0	perception	73	diff_vonmises	-0.04199488040948386	-2.4061294086200475	1.347292073199425	312.258951004872	1.3251147226672315	313.28805806356667	0.836956852202249	-0.517663943499862	1.354620795702111	77.85314212964028
8	3.0	wm	73	diff_vonmises	0.022625593097937356	1.296350993492136	1.9781148176658214	2.269376108567286	0.9272827925614495	3.7031913158758387	-0.051375193949577236	-0.3434217427151652	0.29204654876558794	65.10761052662198
9	4.0	ltm	73	diff_vonmises	0.1333109049263451	7.638152215349349	0.856758399214432	127.86768464891973	0.8383229603063648	129.22373407999066	0.028145907373279044	-0.31147305351204757	0.3396189608853266	87.96757355054001
10	4.0	perception	73	diff_vonmises	-0.017605886900024913	-1.0087430139560918	0.8986053076017136	434.92131668445825	0.8868671133842221	436.84988991892294	0.3550870230536134	-0.5586991991600954	0.9137862222137088	90.61193369003465
11	4.0	wm	73	diff_vonmises	-0.28027955531597476	-16.058835603408852	1.0316274053519885	230.07154765176637	1.0148935215591548	232.32126729291653	-0.04830418546124804	-0.4994887475232588	0.45118456206201074	77.50956873654395
12	5.0	ltm	73	diff_vonmises	-0.033126320876096904	-1.8979983769964643	1.3508540726148193	124.78279864982777	1.3301358451460326	125.48629781695416	0.18311815339122006	-0.22793424963677822	0.4110524030279983	74.21625050506682
13	5.0	perception	73	diff_vonmises	-0.0004459059012310742	-0.025548526200517892	0.9849681762674585	328.9297975932135	0.9696992867310191	330.00778858495715	0.5897054000016198	-0.4549767746872888	1.0446821746889086	90.25957499883754
14	5.0	wm	73	diff_vonmises	0.11589557460819075	6.6403272892928795	2.6919364958660967	0.9448779406092845	0.07803641201903178	2.241195194663056	0.19636774694652115	-0.3322773787935877	0.5286451257401088	79.9145446746738
15	6.0	ltm	73	diff_vonmises	-0.16306769938879992	-9.34309094988627	0.8574008826791173	145.398795981277	0.8400696550852366	146.43548022557061	0.15813149285775552	-0.2895221591139272	0.4476536519716827	92.36067462786839
16	6.0	perception	73	diff_vonmises	0.10141315666176925	5.810545863818407	0.43448485622902067	4.099995683441737	3.608616781293211e-19	5.392315818397812	0.10348167863428426	-0.45489270460055253	0.5583743832348368	155.4257267970636
17	6.0	wm	73	diff_vonmises	-0.17351429726977285	-9.941636918736327	2.277570136421004	0.9884080559075181	0.0661899891502499	2.1429938307176726	0.18727370545888666	-0.31398751972962663	0.5012612251885133	87.21938510740334
18	7.0	ltm	73	diff_vonmises	-0.15821339865282333	-9.064960005227562	1.5032330866160828	160.44050904842993	1.48488503801399	161.43967909597197	0.08545880996877031	-0.2842631134275635	0.3697219233963338	67.1731074529132
19	7.0	perception	73	diff_vonmises	-0.1339439522288589	-7.674423154015532	2.463010957703079	1.6313372064588962	1.9328601308462888e-14	2.4992705686078343	0.5552451426675529	-0.39085628745879036	0.9461014301263433	87.63505308122163
20	7.0	wm	73	diff_vonmises	0.686648652115097	39.34206977454176	0.5363239143992404	109.87114251342591	0.5219977790734465	111.346962938243	-0.0747745285147019	-0.3067460872393877	0.23197155872468578	106.83857417625799
0	1.0	ltm	74	diff_vonmises	-0.6486968895452327	-37.16759395420597	0.0012794575394832676	424.96598090570245	6.651952863313555e-22	425.60634857639786	-0.015353713503486688	-0.1884262878349574	0.17307257433147072	168.2820621913592
1	1.0	perception	74	diff_vonmises	-0.07488880944331396	-4.290812713861354	10.33919079504033	0.9319109817756669	0.003792145877282059	1.845125036140317	0.8853684014306837	-0.2936637510644615	1.1790321524951453	42.18104985683212
2	1.0	wm	74	diff_vonmises	0.28793338604677576	16.497367801391277	2.0041436374566093	0.6196045085040267	1.3160181682644143e-11	1.370764344954701	0.1018569353763176	-0.21235003111073422	0.3142069664870518	96.79694674897806
3	2.0	ltm	74	diff_vonmises	0.36642333277740574	20.99451048326303	0.7715500301875041	66.72645862704051	0.7530673065657871	66.98851625023823	0.15825800542928548	-0.12717747432431548	0.28543547975360095	102.71654847213227
4	2.0	perception	74	diff_vonmises	0.005010924728292474	0.28710483838889755	6.503693712988446	1.7471354365711065	0.6997941574952486	1.9792858226652927	1.1772660339842531	-0.3352291116207939	1.512495145605047	49.90496151328628
5	2.0	wm	74	diff_vonmises	-0.007379701857899286	-0.4228257705224815	9.889936245362543	0.34352446305381773	0.4059367865976226	0.877186537436817	0.22401596562570308	-0.16293596921053946	0.3869519348362426	41.11505288592119
6	3.0	ltm	74	diff_vonmises	0.19689050808289346	11.280995139336216	1.5327059891115138	30.087929928060547	1.5020711260488182	30.059959060612783	0.17277663302716562	-0.05073834322845805	0.22351497625562367	77.19437052557834
7	3.0	perception	74	diff_vonmises	0.050103647427021496	2.870727535779838	2.7326549891483523	4.389645586413075	1.2918635828768033	4.269526920712237	1.0342331006049736	-0.296789148162487	1.3310222487674608	66.84730346983426
8	3.0	wm	74	diff_vonmises	-0.047670865867175005	-2.731339419923381	5.028607615444108	0.2707996816732321	1.1645013069206056e-11	0.5203914124488652	0.15269949225567503	-0.08281276643036979	0.2355122586860448	60.88333923623185
9	4.0	ltm	74	diff_vonmises	-0.31256641496126525	-17.90873639481525	9.436855770511741	0.3606986159351751	1.0814686814497484e-34	1.086008468168619	0.2630340639925983	-0.17284361317775854	0.43587767717035686	44.195792440108164
10	4.0	perception	74	diff_vonmises	0.0017771817798856984	0.10182501541499818	2.20208059262562	3.4535091482240334	0.6263152056272385	4.313601322073734	0.7207984623008217	-0.4184817783845316	1.1392802406853533	77.00491979442987
11	4.0	wm	74	diff_vonmises	-0.39939870521380016	-22.883860151740457	1.5398758599163216	67.26066120815021	1.4921147134656214	68.19632319764231	0.156093058442778	-0.2893184084263698	0.4454114668691478	68.21514493123557
12	5.0	ltm	74	diff_vonmises	-0.1825934072842215	-10.461831604299194	3.3288937652216974	0.30028555809442	5.394264440739672e-16	0.31670758023941115	0.1581563842617274	-0.05013772876307465	0.20829411302480205	75.22687779034663
13	5.0	perception	74	diff_vonmises	-0.0014049389764992585	-0.08049707382683706	1.3879463775056882	168.62240882493134	1.365058906291273	168.50035513608012	0.7418468881997313	-0.22279623860441156	0.9646431268041429	81.06694475177557
14	5.0	wm	74	diff_vonmises	0.13327923384843163	7.636337596252277	1.6344738268941037	1.3261746298998054	0.3423477210606151	1.3489162460818276	0.3115065946803766	-0.12667690823758	0.4381835029179566	95.2919793377774
15	6.0	ltm	74	diff_vonmises	-0.5788556616088314	-33.165986357438996	1.491875859193826	1.4655239758754504	0.5005519414048953	1.665593889980697	0.22157060090531405	-0.12660576663801143	0.3481763675433255	92.32574570326773
16	6.0	perception	74	diff_vonmises	0.20840055591053774	11.940472301853955	1.496563142291818	1.8035138235194552	1.4104409318609332e-12	1.9384066930911321	0.4716049386951366	-0.26939956575260027	0.7410045044477369	110.39509081064736
17	6.0	wm	74	diff_vonmises	-0.1972817535123474	-11.30341185119771	4.910496873972995	0.49827381858062125	1.1228998751041661e-18	0.49124297293159724	0.34971448241559433	-0.07816050949995881	0.4278749919155531	61.6290111131444
18	7.0	ltm	74	diff_vonmises	0.11980500243380846	6.864321004011781	1.4134394346186392	196.95075131301104	1.3982098865056083	197.86684171914698	0.1544174611040603	-0.27552116498885226	0.42993862609291256	71.05057573697732
19	7.0	perception	74	diff_vonmises	-0.100917639775424	-5.78215483755336	1.7518895937977332	1.6864396759971025	2.5947384037323588e-20	1.890891544474786	0.5018388394739819	-0.2767936031158228	0.7786324425898047	103.16448983799283
20	7.0	wm	74	diff_vonmises	-0.1123885956078211	-6.439392193730691	0.00024784295647314685	3713.799422248192	1.535398954978925e-32	3714.4882357584165	0.03686911347995192	-0.25610711209935744	0.29297622557930936	179.62609388229248
0	1.0	ltm	75	diff_vonmises	0.02768446199279607	1.5862028302775513	4.202257735233859	0.5049044516164555	7.5909996384455805e-22	3.0959052009817745	-0.09400993716741057	-0.4926393416512713	0.39862940448386075	66.75280158801027
1	1.0	perception	75	diff_vonmises	-0.08615195475120732	-4.93614340404622	13.121976583655087	0.8773475724826896	0.04617618309069353	3.9229026573468238	0.6018545149042075	-0.6368730547034124	1.2387275696076199	37.12493448320146
2	1.0	wm	75	diff_vonmises	-0.015901076718762876	-0.9110645856988443	6.040818198143577	0.5607419906758639	0.07973067174654579	3.538564981456541	-0.07154613632638307	-0.5680692373403592	0.4965231010139761	53.12866226315626
3	2.0	ltm	75	diff_vonmises	-0.09646846722476421	-5.527236028075099	3.5920434068396423	0.8536661803061494	0.1272593401884436	2.012273688404922	0.25631846276625014	-0.3030626809876227	0.5593811437538728	68.65376128166585
4	2.0	perception	75	diff_vonmises	-0.07108813493493113	-4.0730501052280585	13.767946864472382	0.788281028873994	7.915775573977867e-21	2.1663730733630486	0.8111167072685277	-0.3447889832056391	1.155905690474167	36.52081043067213
5	2.0	wm	75	diff_vonmises	-0.15868546570752595	-9.092007455109194	4.038974074159403	0.8276838637650051	0.2496362886256796	2.2707664837699317	0.18300376154138226	-0.34887897318044137	0.5318827347218236	62.250305064113405
6	3.0	ltm	75	diff_vonmises	-0.09712313514762229	-5.5647457370374624	2.3783475070468985	1.0327533845862236	0.13228037433490308	1.9103184381509883	0.24545636936001874	-0.26668279617648755	0.5121391655365063	83.40144378901186
7	3.0	perception	75	diff_vonmises	0.008773633519809065	0.5026921716795686	3.6749945863468954	2.433425534357889	0.3612020283931938	3.29517816132792	1.0570285869661427	-0.462727449696792	1.5197560366629346	66.16313827518468
8	3.0	wm	75	diff_vonmises	-0.06392656981830155	-3.662722649337069	3.162231520234701	0.9909511504364759	0.11333587069666694	2.0581410319760387	0.30298976091100044	-0.30464166522206143	0.6076314261330619	73.49639316004436
9	4.0	ltm	75	diff_vonmises	-0.26376467738326786	-15.112602798691007	1.5324826938230716	1.3010532746222183	7.160282177412146e-22	2.7510245765821324	0.13308215895477388	-0.41120240740017594	0.5442845663549498	109.23718077536432
10	4.0	perception	75	diff_vonmises	-0.05240691757680302	-3.0026951944407845	2.099332511271833	3.0754032172095336	0.13199336441452367	4.422236955654866	0.8339753694030451	-0.593287036237406	1.427262405640451	89.41507605818418
11	4.0	wm	75	diff_vonmises	-0.1398757158984668	-8.014288177353098	0.8954892566926522	201.84363036105404	0.8789373579975565	203.2929394809884	0.17476198056806425	-0.38541329988093764	0.5601752804490019	89.45801612276895
12	5.0	ltm	75	diff_vonmises	0.013459002576500423	0.7711440440891751	1.3857410816854911	1.6892346480905056	2.0926691164747063e-15	2.2806946660903966	0.33454735748097686	-0.3193388977623094	0.6538862552432863	114.14114975827324
13	5.0	perception	75	diff_vonmises	0.014135373599629837	0.809897249099436	1.0269123993604357	88.76999163714227	0.9772894205981653	89.58639344643603	0.5576633772347499	-0.38419748890295935	0.9418608661377093	89.80009125459043
14	5.0	wm	75	diff_vonmises	-0.05813443845763858	-3.3308579679857138	1.565832449500649	2.3672791971030227	0.30089566203493956	2.936285448631196	0.435108835962721	-0.2967120549246208	0.7318208908873418	95.78928534669228
15	6.0	ltm	75	diff_vonmises	-0.22100999768391338	-12.662940097484336	1.1601445859682755	1.6260981067950813	6.330229212718337e-14	2.3215329257316792	0.23501220238731885	-0.3100922779299146	0.5451044803172335	121.91134723294694
16	6.0	perception	75	diff_vonmises	0.27423598225688434	15.712564373944002	0.0003195047912730692	7000.42015764385	1.373547660528342e-29	7000.699433429465	0.3115525618186439	-0.40039194007863443	0.7119445018972783	177.562736971472
17	6.0	wm	75	diff_vonmises	-0.3202288236389797	-18.347760072952706	0.7808111065376208	163.48094736240708	0.7680579410907431	163.82751786321492	0.29500196418116076	-0.20533509393140115	0.5003370581125619	102.90913816783137
18	7.0	ltm	75	diff_vonmises	0.2135562904989521	12.235874134059717	1.031180735323347	141.85551941172966	1.0134632010975009	142.43563801529788	0.2747778299710646	-0.22709026108656616	0.5018680910576307	87.72819511826603
19	7.0	perception	75	diff_vonmises	-0.0416655307851238	-2.3872590651599968	2.0201693843321094	1.6573502397474544	1.920872582183135e-16	1.9463651560624544	0.5503886668059574	-0.2946406837023257	0.8450293505082831	96.5585507391196
20	7.0	wm	75	diff_vonmises	0.07289640613090564	4.176656412972473	1.681163320558948	0.8149967016262128	8.456049976466763e-24	1.4520232739564387	0.147249195910618	-0.21798507100657522	0.3652342669171932	105.09842062095669
0	1.0	ltm	76	diff_vonmises	0.15800697732871719	9.053132934554776	4.27002842196487	0.42420507167429955	1.4323070683864603e-15	2.7397793236036883	-0.09810386395168341	-0.4359833607800803	0.3378794968283969	66.20099589728733
1	1.0	perception	76	diff_vonmises	-0.08955137826860567	-5.130916024370662	9.516022101401738	1.01667014499382	4.915262676398522e-18	3.367811634075598	0.6978470803733909	-0.536003862270187	1.233850942643578	44.01026593811406
2	1.0	wm	76	diff_vonmises	0.17711490414543093	10.147936496397321	1.03500192762594	4.540103345133872	0.47572724942469047	7.200219494197839	-0.16255584542319546	-0.5287035811027687	0.36614773567957326	88.78887547151169
3	2.0	ltm	76	diff_vonmises	-0.014964768837225825	-0.8574180957619362	1.057582466836937	62.03236185175446	1.0129683932176166	63.16167175163475	0.13315049872326412	-0.30002330567375957	0.4331738043970237	82.42497691169064
4	2.0	perception	76	diff_vonmises	-0.04234951685021898	-2.426448579935711	8.756267574148195	1.2291679513068947	0.21913918631701454	2.2430847356906956	0.9896203214666872	-0.37789053277015516	1.3675108542368424	44.81541873845262
5	2.0	wm	76	diff_vonmises	-0.018444366227658736	-1.056784340638477	7.13932960888258	0.4291406738338069	0.056054674135270106	1.818220861077661	0.14302320425051906	-0.29111798803961814	0.4341411922901372	49.960471052325374
6	3.0	ltm	76	diff_vonmises	-0.01612136700859113	-0.9236862895737169	0.9346984987263722	82.92919012052059	0.9098793497548618	83.6755505566248	0.14927337930199158	-0.21995214012821762	0.3692255194302092	89.38135506604249
7	3.0	perception	76	diff_vonmises	0.024923697710621286	1.428022688678472	3.2504031102123574	2.241365520934878	0.3191896214904367	2.8610673676741745	0.9251322911938853	-0.3870093611487314	1.3121416523426168	70.59532497039879
8	3.0	wm	76	diff_vonmises	0.04122557965250064	2.36205172206869	2.8528531561571997	0.8036282202717179	0.30671473912208347	1.7438398549209955	0.14292960852203995	-0.24163109033789806	0.38456069885993804	71.59144086657747
9	4.0	ltm	76	diff_vonmises	-0.2021945712665824	-11.584895574032316	1.7295140988605362	0.8419637069608419	2.5587760972139263e-16	2.191300087848251	0.048900303902270736	-0.3362447027326448	0.3851450066349155	103.69950997662569
10	4.0	perception	76	diff_vonmises	-0.004833771400619169	-0.276954700386519	0.9851891374245964	112.25068550010083	0.9326033473349501	113.800403103651	0.6104632878671907	-0.5668839298302615	1.1773472176974522	90.03491867907385
11	4.0	wm	76	diff_vonmises	-0.18812708461534283	-10.778887960559665	0.8692376863189439	155.90842068376767	0.8480884136506754	157.63181130869984	0.08990178299808349	-0.4153433459060878	0.5052451289041713	88.76193888007978
12	5.0	ltm	76	diff_vonmises	-0.03229695053883395	-1.8504789570179552	2.022153080436009	0.9070487616045655	1.1651597027539445e-13	1.8202654317367322	0.18135030126024604	-0.2814503768308042	0.46280067809105024	96.51148693660397
13	5.0	perception	76	diff_vonmises	0.009799981770814481	0.5614975947728126	2.0189620912326713	2.5752552599221734	0.3435789896941723	3.4998594566409023	0.5733473833657584	-0.39236073025692986	0.9657081136226883	84.84208927888997
14	5.0	wm	76	diff_vonmises	0.00531015778315872	0.30424962952354007	1.2244932614020116	2.4900674229632744	0.24068403088745202	3.3806555021116367	0.2806528522415812	-0.3343729275945589	0.61502577983614	106.13646742731724
15	6.0	ltm	76	diff_vonmises	-0.2653747064510535	-15.204850669168506	1.1745564154829509	1.3329247890930334	1.27549791350668e-13	2.2699220012931915	0.13781171982144602	-0.31362940700085273	0.45144112682229875	121.24323845816066
16	6.0	perception	76	diff_vonmises	0.292692422526145	16.770040506207934	0.0512025444078136	42.904589988067194	1.4829613299113874e-07	43.82105442928611	0.20816907549697206	-0.4909413648383705	0.6991104403353425	174.47047819194506
17	6.0	wm	76	diff_vonmises	-0.33657158733177917	-19.28413145812975	1.4600788123531558	1.669260625568676	0.20672524499639655	2.4330142588884436	0.2402238364746282	-0.27369546447386517	0.5139193009484934	100.403728984009
18	7.0	ltm	76	diff_vonmises	0.07667654842631823	4.393242612458509	0.6864807255392226	230.04932120282314	0.6751266540160511	231.66400063049025	0.04555085311496043	-0.38144199636368015	0.4269928494786406	99.17331482321686
19	7.0	perception	76	diff_vonmises	-0.11046761822622217	-6.32932829722498	3.336366440209171	1.4709145952428764	2.550681260953129e-14	2.1372969512528983	0.6827943058690019	-0.3388672574160274	1.0216615632850292	75.14061920481942
20	7.0	wm	76	diff_vonmises	0.506056052321602	28.99487599507936	0.4515266685632457	85.21262590835315	0.43190630499580757	86.52372375868087	0.002439255965466458	-0.3275620013347158	0.33000125730018226	121.86193210783387
0	1.0	ltm	77	diff_vonmises	0.18923678438056746	10.842469073633694	0.3241873242279128	78.61987953946381	0.31070109157149145	80.51164153251551	-0.21042782471687005	-0.35403771661474615	0.1436098918978761	126.19918839273318
1	1.0	perception	77	diff_vonmises	-0.024525025061459232	-1.4051804284741864	9.738746541873041	0.8540241410666541	0.08146638634164141	3.2218784685283164	0.49326724288540147	-0.5261142854611518	1.0193815283465533	42.8085200787167
2	1.0	wm	77	diff_vonmises	0.2042770568024451	11.704213206134288	8.397249586544135	0.157133364023686	0.1568358638426443	2.5120029310173617	-0.2860534777872264	-0.43062055300473334	0.14456707521750695	42.27985754750756
3	2.0	ltm	77	diff_vonmises	0.33814001424200396	19.373995700560375	0.292461154765795	94.6381332679392	0.28000345754110334	95.63617218502428	0.003988604430062992	-0.275384125068582	0.279372729498645	142.17427889071217
4	2.0	perception	77	diff_vonmises	-0.03558953172441816	-2.0391299626561112	9.353797565585651	1.277240554761585	0.330582635372417	2.857399421774366	0.9204614119638941	-0.5084163991081322	1.4288778110720264	42.721505001808765
5	2.0	wm	77	diff_vonmises	-0.13344113829356383	-7.645614037642759	2.6652043833143466	1.300370912777866	0.49383116204343175	3.5406346666578306	-0.07396641945655025	-0.49266708061922915	0.4187006611626789	65.5572259383847
6	3.0	ltm	77	diff_vonmises	0.18120673644413143	10.382381217588174	1.6440237338456931	117.79012228241835	1.6276656912724186	118.06865772872773	0.20048085047314856	-0.13648757051667104	0.3369684209898196	69.62371225643909
7	3.0	perception	77	diff_vonmises	-0.013401150955996788	-0.7678293903963244	1.5403498987069761	389.52147969432	1.5202454335539763	390.4150603048869	0.97098743586767	-0.5363013375828558	1.5072887734505258	73.16777361672672
8	3.0	wm	77	diff_vonmises	-0.05171152263503644	-2.962851999182814	2.7407927944429593	0.8294495777569603	0.5174314123625127	2.1587363836907136	-0.023909730313940725	-0.30015820160714257	0.27624847129320185	65.04340846940204
9	4.0	ltm	77	diff_vonmises	0.04914898911411334	2.8160296435731214	0.771636901271326	88.80652494021555	0.7520338157016457	90.23622424722383	-0.08862857192386997	-0.28594639795428556	0.1973178260304156	86.7224131293483
10	4.0	perception	77	diff_vonmises	-0.0067928205065807745	-0.3891999460169962	0.98847902193231	383.35417661444643	0.9733423146090417	385.1952311222952	0.4795934129607815	-0.5806095715637412	1.0602029845245227	87.4987609502952
11	4.0	wm	77	diff_vonmises	-0.341154956566724	-19.546739171242194	0.9739704279408953	231.3167673252784	0.957627646995247	233.67935078849717	-0.07127782695910412	-0.5121034035029162	0.44082557654381205	79.30120160695947
12	5.0	ltm	77	diff_vonmises	-0.08895839177114946	-5.096940400758176	1.4773696049249634	94.92616709376792	1.4525456358955045	95.55814655354202	0.14673457911452914	-0.20489324482661075	0.3516278239411399	70.43211150808884
13	5.0	perception	77	diff_vonmises	-0.020981297277528756	-1.202139782711722	0.9877295675127021	298.4844009925491	0.9699669965308293	299.77393189692077	0.5713983264961797	-0.49375515501421674	1.0651534815103965	89.48656776002241
14	5.0	wm	77	diff_vonmises	0.17201361380379232	9.855654089750578	3.6840056507473093	0.7886298170914214	0.1430098228264876	2.2503528009011315	0.16844496928841435	-0.34178983092678095	0.5102348002151953	66.90774466540458
15	6.0	ltm	77	diff_vonmises	-0.24618431488454293	-14.105322225204002	0.8138175971304091	170.7934842484471	0.8004515221229407	171.77400981952823	0.13811455028270103	-0.2713027215482171	0.40941727183091814	94.53440908936057
16	6.0	perception	77	diff_vonmises	0.17715592156795087	10.15028662159422	0.6810458745437512	3.2565193222373066	1.0460422628769019e-20	4.457481042129252	0.20547715706896486	-0.47509889835320657	0.6805760554221714	142.56355362594223
17	6.0	wm	77	diff_vonmises	-0.11022919515578589	-6.31566766155043	2.7240127519194437	0.8038774471160872	2.150486608643291e-13	2.002321791097621	0.17940012586262316	-0.31653510256983347	0.49593522843245663	83.31677413338113
18	7.0	ltm	77	diff_vonmises	-0.003530188203942852	-0.20226488497279374	1.6575189250609255	93.55177895610991	1.636249019452701	94.05901525735716	0.10552758781410176	-0.16896594507692164	0.2744935328910234	65.83562454347958
19	7.0	perception	77	diff_vonmises	-0.06780415604026757	-3.8848919745537995	1.6548729115274694	1.7203109757400208	3.3418931920052306e-15	2.6328028811671507	0.3719731173929652	-0.3901318838194773	0.7621050012124424	105.84447587560382
20	7.0	wm	77	diff_vonmises	0.4318039403854443	24.74054336120456	0.682723933000521	39.00012403288325	0.6429815846474064	40.30930034392321	-0.06350313704389343	-0.26721087874022764	0.2037077416963342	94.83995770827897
0	1.0	ltm	78	diff_vonmises	0.22092747629429585	12.658211970139696	3.2341560034781507	0.7319427276398965	0.1070131240505033	3.9450676798509745	-0.1965830496474017	-0.60640121657435	0.4098181669269483	69.22262813372416
1	1.0	perception	78	diff_vonmises	-0.05078045910063741	-2.9095059882032155	8.499940989132664	0.9576811870985192	0.0030592212125902015	4.1609710257226284	0.43224787991003677	-0.6620146200254791	1.0942624999355157	46.542333759953124
2	1.0	wm	78	diff_vonmises	0.14965572378082234	8.574641352616748	0.7582032477363422	163.55351383609732	0.7339842373094293	167.24937634287156	-0.31955397104493954	-0.7097140799444723	0.3901601088995328	84.48149038002623
3	2.0	ltm	78	diff_vonmises	-0.022459123715283642	-1.28681300044793	1.5374584257406116	2.965523004144334	0.6255228179153297	4.545209921237704	0.07487532649928541	-0.3777364054550005	0.4526117319542859	79.93208313658266
4	2.0	perception	78	diff_vonmises	-0.05376059937910717	-3.080255448516475	9.646168341708767	1.141401675987109	0.12494201150047944	2.6334572688282805	0.9219095599237213	-0.4348204052482302	1.3567299651719513	43.025209391212826
5	2.0	wm	78	diff_vonmises	0.0006273119573177982	0.03594232759240068	5.78481119297484	0.5139146296086051	0.015256558279069953	2.4303148027527186	0.08871187325858348	-0.3853743143291503	0.4740861875877338	56.159828571315416
6	3.0	ltm	78	diff_vonmises	-0.05566153960516292	-3.189171300576114	0.822266551812044	124.50990216504653	0.8049763476232072	125.5105820976137	0.10626785312431508	-0.26264288691574933	0.3689107400400644	93.20245091978953
7	3.0	perception	78	diff_vonmises	0.03282336448465901	1.8806402543905596	3.1528157515495967	2.2681578566118366	0.21831789868498896	3.1275835304201114	0.9161293010273646	-0.43619231019188925	1.3523216112192538	72.77541898906685
8	3.0	wm	78	diff_vonmises	0.0377532337383668	2.163100956179325	2.8261744246676086	0.8220265891416745	0.21065370792867003	2.058811035065074	0.12023420613140295	-0.29407924806537655	0.4143134541967795	73.49224214001924
9	4.0	ltm	78	diff_vonmises	-0.12681533492538857	-7.265983468762752	0.5568820120677177	1.8518408585769932	6.475707245827244e-15	3.567742523205141	-0.09113788331990846	-0.41131604749116724	0.3201781641712588	149.0151463748529
10	4.0	perception	78	diff_vonmises	0.021276845644404307	1.2190734567756751	1.3671377373244589	7.433929224099002	0.5743319314966577	9.479062647463943	0.5736617772191557	-0.6572537539692082	1.230915531188364	89.32727684223329
11	4.0	wm	78	diff_vonmises	-0.18827199464155095	-10.787190693470519	0.9034056084052599	5.0413644438384	0.3453037385125118	7.382989409735501	0.01896771700619082	-0.5450371064223641	0.564004823428555	105.06432817315195
12	5.0	ltm	78	diff_vonmises	0.016458050320458634	0.9429768223762117	2.154459996307284	0.9602679361811902	6.626098900016467e-13	2.355319532226221	0.1432270861363415	-0.367893452006355	0.5111205381426964	93.61207270651263
13	5.0	perception	78	diff_vonmises	-0.003722559110106742	-0.21328692599709184	2.6213630168893487	1.7648472957386692	0.01964529159487925	3.2189757805133405	0.5469463651944693	-0.49664838928273275	1.043594754477202	84.05752282986381
14	5.0	wm	78	diff_vonmises	-0.005654235172972675	-0.3239638117857573	1.7844358841346302	1.4442437314919963	3.6613763379173774e-17	2.8700087476780327	0.2384511065693944	-0.43717814871433736	0.6756292552837317	102.32549130723271
15	6.0	ltm	78	diff_vonmises	-0.18623968517518275	-10.670747938383137	0.7871992449495144	1.84253554824979	2.286909879120051e-16	3.0898757598795474	0.06319531511394044	-0.3768150842990655	0.44001039941300596	137.60623767154254
16	6.0	perception	78	diff_vonmises	0.2747724153479989	15.743299726056023	0.0002291185352179116	10290.895569069702	5.3323217678954944e-33	10292.136654633527	0.1777539061031348	-0.5727607227595399	0.7505146288626747	177.5587110700166
17	6.0	wm	78	diff_vonmises	-0.41158215039890256	-23.581920140775807	0.5143869262858097	149.5515836673514	0.49797900259990935	150.75977721067596	0.1613942259153518	-0.38519230837964713	0.5465865342949989	119.61565081400988
18	7.0	ltm	78	diff_vonmises	0.22413524201351098	12.84200340751747	0.7943308328158473	1.7187856779105548	2.3754157249638027e-14	3.400651373506057	-0.021193072612531116	-0.43503886486899396	0.41384579225646284	137.02900443283
19	7.0	perception	78	diff_vonmises	-0.0791709156885368	-4.536159329139235	3.6418775157085483	1.4848438871937635	9.107963577495552e-11	2.472877645293758	0.6906016968059563	-0.39282612769885916	1.0834278245048155	71.84437592561449
20	7.0	wm	78	diff_vonmises	0.8796592133194924	50.40076033300508	0.0004735856223471809	2183.1772729104596	3.9173364258055635e-23	2184.8315253441065	-0.09871330326643601	-0.4278126392885042	0.3290993360220682	158.30267561494247
0	1.0	ltm	79	diff_vonmises	0.16448997782105512	9.424581501346976	3.6765883000462	0.4922132157879693	5.715663618099531e-23	2.642937558288049	-0.05934736464830842	-0.42040510458423236	0.36105773993592394	71.49190250774708
1	1.0	perception	79	diff_vonmises	-0.09418412587741144	-5.396352909904557	11.765670687054023	0.8560689403143571	3.040850454814477e-15	3.1616506270555247	0.6549838402434608	-0.5031923255555741	1.158176165799035	39.54221515627114
2	1.0	wm	79	diff_vonmises	-0.00989423955557422	-0.5668981680257981	4.427816236752172	0.7289600561087614	0.18575476408052866	3.2753245982127637	-0.030150050474056833	-0.520030900633291	0.4898808501592342	59.19836224315256
3	2.0	ltm	79	diff_vonmises	-0.12571056337770056	-7.202684721754093	1.85193084611071	1.876414420344787	0.4478997115744435	3.146458738304512	0.1780623052639666	-0.33580223325534125	0.5138645385193079	81.38809577629206
4	2.0	perception	79	diff_vonmises	-0.05139981874262442	-2.944992681689805	9.20126054603455	0.9942646535187278	0.0015073709454817036	2.4751027507785013	0.7914380687126317	-0.3938202174395159	1.1852582861521475	44.75099604697533
5	2.0	wm	79	diff_vonmises	-0.11225523332442218	-6.431751097745704	4.32451855836436	0.8237213971364709	0.2820908972159051	2.513385361265842	0.14067898540985213	-0.39509919648427405	0.5357781818941262	59.482454288289034
6	3.0	ltm	79	diff_vonmises	-0.01711636780098803	-0.9806956355902319	0.8335300043721556	130.54086724267313	0.8091125038370256	131.61713152420992	0.27990728064666826	-0.34929958428355157	0.6292068649302198	95.93212768048744
7	3.0	perception	79	diff_vonmises	-0.00429631213163084	-0.24616055261330133	2.9235146409276314	3.176039719794744	0.4226369315240683	4.354558871865885	1.0377685775275478	-0.5540715827689566	1.5918401602965044	71.83952540836574
8	3.0	wm	79	diff_vonmises	-0.07334026472831191	-4.202087637304448	2.5634906687139494	1.4083832325034933	0.29864964738949046	2.8893753122528674	0.23601916410858803	-0.3863253151451109	0.622344479253699	75.18371985684192
9	4.0	ltm	79	diff_vonmises	-0.10457357284250517	-5.991624372479429	1.6220839217385459	1.3024396219462966	3.534677310067921e-22	2.9684730498564895	0.11916506694508999	-0.4493736866528621	0.568538753597952	106.76679218241514
10	4.0	perception	79	diff_vonmises	-0.05102596717460855	-2.9235725646781474	0.8542964701994208	496.5915017094265	0.8413450115245784	498.5070742968566	0.6305505262912732	-0.6707908977055297	1.3013414239968029	95.25038751317811
11	4.0	wm	79	diff_vonmises	-0.24788675480353958	-14.202864847437104	0.9160757155235666	186.20325423344298	0.8963391026152844	188.1697916545268	0.06643895852721471	-0.46193718580151	0.5283761443287247	85.51995701605708
12	5.0	ltm	79	diff_vonmises	-0.020834778718441863	-1.1937448876557049	1.6501608595446866	1.2402275214228118	3.7621419176604094e-18	1.749891787726013	0.290758617094284	-0.2575140798976139	0.5482726969918978	105.98992540778113
13	5.0	perception	79	diff_vonmises	0.014797839531026466	0.8478537510396659	0.9701470127081233	317.64342138461456	0.9558831990525434	318.30540558047403	0.638960278496711	-0.3866498252612125	1.0256101037579235	92.58324463685497
14	5.0	wm	79	diff_vonmises	-0.07463899101483172	-4.276499172264731	1.9288312653145776	1.6051402451021826	0.19556940908068235	2.331853257500648	0.36308083590500245	-0.2901288266715575	0.65320966257656	90.37607370030815
15	6.0	ltm	79	diff_vonmises	-0.22692921678330194	-13.00208636989253	0.8812846123306792	1.6057637657656614	5.8015308209027946e-18	2.23468428360531	0.15682935511078222	-0.26771594915682073	0.42454530426760295	133.22254631330787
16	6.0	perception	79	diff_vonmises	0.09381709006825992	5.375323307110006	0.49623469205765436	3.892858704250538	1.5778606722897664e-16	4.302697167174449	0.2729730372095117	-0.32978122229335444	0.6027542595028661	152.20242691456338
17	6.0	wm	79	diff_vonmises	-0.14391976116923935	-8.245994903528205	0.7621196525819939	84.10181130128942	0.741627775334435	84.66514029544358	0.16423122231244136	-0.19547407630539837	0.35970529861783973	100.84530491009883
18	7.0	ltm	79	diff_vonmises	0.2722098517748387	15.596475648579979	1.5627072492057281	127.5263009846197	1.544251174501653	127.92959634301658	0.22926708360309078	-0.17553399796484648	0.40480108156793726	70.92054152990158
19	7.0	perception	79	diff_vonmises	0.022156389907053115	1.2694676309203978	0.6924893169970728	109.73317195879434	0.6611928192311926	110.27488813920155	0.5036536185181539	-0.3681375328138401	0.871791151331994	110.27138567333397
20	7.0	wm	79	diff_vonmises	-0.07419441227327789	-4.251026686712459	0.0003996221148756204	1895.6552269422375	1.314023887706414e-24	1896.3803954462685	0.00516388497663911	-0.23596809923435558	0.2411319842109947	179.82008480069277
0	1.0	ltm	80	diff_vonmises	0.10091563176142826	5.782039786826201	0.062289674778245374	51.29484676364581	0.051590218646676594	53.44371588993095	-0.2701092770533098	-0.409383213867053	0.13927393681374323	172.23642579235704
1	1.0	perception	80	diff_vonmises	-0.012606258743793793	-0.7222854214692753	10.924500034988693	0.7852068232766047	0.08271357472259255	3.624907408288619	0.3972624849399271	-0.5959178562720179	0.993180341211945	40.36556076053776
2	1.0	wm	80	diff_vonmises	0.18160464330481763	10.405179601344793	8.908293279700562	0.15619529211788508	0.1559081254112227	2.6868261329395766	-0.31355794989911234	-0.46225901814241904	0.1487010682433067	41.10453884243199
3	2.0	ltm	80	diff_vonmises	0.3021005395787342	17.309085906486352	0.23549894393974408	107.58979266742774	0.224122462167678	108.64079663134883	0.0076168285812947545	-0.302247426325426	0.30986425490672076	149.73309975497665
4	2.0	perception	80	diff_vonmises	-0.04572022203312421	-2.6195757608990533	10.61300210186938	1.1999634880470877	0.3452274704224632	2.8918464067615934	0.9088972059259022	-0.5280411862646678	1.4369383921905698	40.15009826550349
5	2.0	wm	80	diff_vonmises	-0.1554966435685789	-8.909301404929646	3.3007461143003507	0.9657393133780596	0.3457456211852272	3.155766810840882	-0.021332294188284973	-0.475434639205608	0.45410234501732305	63.803234019964094
6	3.0	ltm	80	diff_vonmises	0.10318686784605068	5.912172028752884	1.7405244000262523	103.5906884266393	1.721848247894092	103.88503329923957	0.18290596187261343	-0.1376832193320272	0.32058918120464064	67.14383336775018
7	3.0	perception	80	diff_vonmises	-0.00805681074969673	-0.4616212522932553	1.616735259499737	176.14789598674952	1.570085394294417	177.0004734428517	1.029160771380802	-0.5485888186031396	1.5777495899839415	71.85110699160464
8	3.0	wm	80	diff_vonmises	-0.10024658470645155	-5.743706214280379	3.3105084309630275	0.6199465639952823	0.3103818338416231	1.8708494757908745	0.032765266537985005	-0.27898530811429206	0.31175057465227707	65.30117904291572
9	4.0	ltm	80	diff_vonmises	-0.0761787459029594	-4.364720628839085	0.6701503536415202	92.1280168105032	0.6532102835536381	93.62713586435544	-0.11638766067453332	-0.2893551031666881	0.1729674424921548	91.24730117846713
10	4.0	perception	80	diff_vonmises	-0.01435741224042832	-0.8226191261060103	1.8522420319390163	3.6717764180877057	0.38166969611799345	5.379248160927896	0.5985413077485797	-0.5741837203638331	1.1727250281124129	85.52922605343204
11	4.0	wm	80	diff_vonmises	-0.28355705534506986	-16.246622522430005	0.9455196410437487	219.01613536266822	0.9282687208733251	221.3145379306492	-0.03600128692747262	-0.5051715105158223	0.4691702235883497	81.49571696955195
12	5.0	ltm	80	diff_vonmises	-0.09693885880981198	-5.554187480616806	1.3664013549347385	76.61433060843297	1.335563146779355	77.3263448005313	0.1379615722766978	-0.21669224777070006	0.35465382004739787	72.99356660820877
13	5.0	perception	80	diff_vonmises	-0.018528844749511216	-1.0616246034001278	0.9835077920564016	220.904710101989	0.959551671312421	222.34436090750964	0.5225139107934638	-0.5088136065192046	1.0313275173126684	89.13405041879994
14	5.0	wm	80	diff_vonmises	0.1434339751954649	8.218161417484277	3.254621903133855	0.8669750607567889	0.1538899499625023	2.3261952072469927	0.16535214287311129	-0.3458578747440948	0.5112100176172061	70.56612116841163
15	6.0	ltm	80	diff_vonmises	-0.2750148318225517	-15.757189166932339	0.7801975741503182	189.80973184593566	0.7676616838698591	190.86789177555957	0.13960418931941376	-0.2910874333026996	0.43069162262211336	96.40412026149289
16	6.0	perception	80	diff_vonmises	0.2334839585881632	13.377645411109043	0.6686155160410343	3.6398172253087453	3.6200882816325955e-14	4.912852027118555	0.23206366938016076	-0.5156575409922008	0.7477212103723616	142.8479542004771
17	6.0	wm	80	diff_vonmises	-0.1137617227488046	-6.518066583643909	2.6013755378860757	0.87353518275594	4.190653477713447e-14	2.100958178112955	0.192527032948905	-0.33147862640962183	0.5240056593585268	85.27618105586012
18	7.0	ltm	80	diff_vonmises	0.08933904421263265	5.118750179116514	1.5496627886760284	90.85256277076115	1.52956840675813	91.32805805384817	0.10829398603339513	-0.15646714277859708	0.2647611288119922	68.5216066264417
19	7.0	perception	80	diff_vonmises	-0.03207178405760306	-1.8375778679556136	1.3234861995936549	1.8959197863149744	1.4771641895219335e-19	2.9168073863325885	0.29741112552781873	-0.41025010836285086	0.7076612338906696	116.25556912236767
20	7.0	wm	80	diff_vonmises	0.3603211213264802	20.644879521428596	1.6007010380636941	0.8045383887041154	0.2214257880794236	2.0565256588832157	-0.040968924467244316	-0.25745365919471475	0.21648473472747043	88.79139017459255
0	1.0	ltm	81	diff_vonmises	0.02097244933603789	1.2016328330069166	1.0603007083110638	0.8737672809442408	4.856171546021182e-21	3.27272224776446	-0.21235718704874074	-0.48386041553151143	0.2715032284827707	126.10336678396966
1	1.0	perception	81	diff_vonmises	-0.07127939463144231	-4.084008478629102	12.619516394844506	0.7798406351903141	1.22885206962454e-19	3.4937569483239996	0.5377640205315368	-0.5560486882754586	1.0938127088069955	38.15837885638777
2	1.0	wm	81	diff_vonmises	-0.02397233871810292	-1.3735138336053514	4.179688652928031	0.7342392323603565	0.13259066057544905	3.3895045652023086	-0.035099963092034	-0.5313395458357364	0.4962395827437024	61.9584723166152
3	2.0	ltm	81	diff_vonmises	-0.019298101854724033	-1.1056997888892732	2.6925681616854495	0.7570125709913189	3.5340416942746053e-11	2.0912447056647174	0.1330798828863956	-0.3306960724459631	0.4637759553323587	83.80846142414305
4	2.0	perception	81	diff_vonmises	-0.044535761909488915	-2.551711194813207	9.206509786100588	1.1056101099790683	0.11355831813481392	2.6063946218587946	0.8555815624805944	-0.4274374270158119	1.2830189894964064	44.068840046333236
5	2.0	wm	81	diff_vonmises	-0.05629423927806222	-3.2254223215325517	5.956130378859479	0.598094420681807	0.06883658360090883	2.231557679574257	0.18892090101861186	-0.354862610404503	0.5437835114231149	54.44531723463396
6	3.0	ltm	81	diff_vonmises	-0.09558184101165365	-5.476436088058197	1.8121970685249833	1.114262705331563	1.0819655890005738e-14	2.148962390616707	0.1994062050762333	-0.3275789675071159	0.5269851725833492	101.58918650308276
7	3.0	perception	81	diff_vonmises	0.010747034942600781	0.6157597444906457	3.7589579472633208	2.5599616079516374	0.2921406987047134	3.5603300119931576	1.1592000872602575	-0.510423167606849	1.6696232548671066	66.24041390984667
8	3.0	wm	81	diff_vonmises	-0.08886912800267054	-5.091825963560901	3.1239827196790073	0.8781756717179934	5.179634596600873e-18	2.2450314265919915	0.2312440279137304	-0.3561693534335787	0.587413381347309	77.70967362958103
9	4.0	ltm	81	diff_vonmises	-0.2216395398233659	-12.6990102051006	0.9810068183464635	1.7483524417800422	3.298179191549759e-23	3.529370050537887	0.0294187816652014	-0.47861553038638516	0.5080343120515866	128.99660820764439
10	4.0	perception	81	diff_vonmises	-0.035293174398307744	-2.0221499386422024	2.510648122346835	2.5367938339765788	0.013432447815112443	4.375179369375923	0.793108595333153	-0.6771233300511365	1.4702319253842895	86.20949541838993
11	4.0	wm	81	diff_vonmises	-0.22880203954425335	-13.109391209871083	0.8194623778939559	122.38087352002675	0.788993722777532	124.56538380322203	0.05332899512963252	-0.5046558540390134	0.5579848491686459	90.61718069777667
12	5.0	ltm	81	diff_vonmises	-0.08769263634591234	-5.024417956996303	1.2100067812558148	1.4726376890616963	2.789378193008848e-17	2.0747790835568067	0.23084021537132804	-0.280322400230027	0.5111626156013551	120.28258321812224
13	5.0	perception	81	diff_vonmises	0.012572899088027304	0.7203740539878463	1.2697874466242989	7.8521665075957925	0.6979221581748493	8.573247205803796	0.6415099970802394	-0.39733468915340375	1.0388446862336431	91.73319646305916
14	5.0	wm	81	diff_vonmises	-0.07500227909194615	-4.297314045830811	2.135108351095383	1.2360424868426207	1.5395931910031956e-15	1.9897987131543329	0.3465687693343985	-0.3074142887081435	0.6539830580425421	94.02009700905663
15	6.0	ltm	81	diff_vonmises	-0.28110781078276353	-16.106291146014485	0.5774456772349876	2.3129087544476805	5.3087194399122236e-17	2.9314946046082584	0.1377820944202386	-0.27613767420507296	0.41391976862531155	147.067640118656
16	6.0	perception	81	diff_vonmises	0.13270066588718563	7.603188093911393	0.8101802769727823	2.956100753953873	1.5319542346657312e-15	3.4635050186146903	0.3520990796245036	-0.3725230133470526	0.7246220929715562	136.6805049245976
17	6.0	wm	81	diff_vonmises	-0.09679834182220078	-5.546136450276791	1.3944612519626338	1.4567098994809657	0.2556587803265103	2.0898190613478684	0.1812066996976302	-0.2176406499645808	0.398847349662211	99.80006206216962
18	7.0	ltm	81	diff_vonmises	0.3249528510606914	18.618426906520853	1.5125358675515062	127.47094401940329	1.49413126506836	128.06732475469033	0.15238436889213602	-0.19937051461110755	0.3517548835032436	69.75223024188344
19	7.0	perception	81	diff_vonmises	0.04600115388200529	2.6356719701707463	1.3706069144948005	2.2442421127976786	2.4144531682596e-15	3.2137104914782193	0.40912848245106337	-0.45210285681178086	0.8612313392628442	114.6367546977964
20	7.0	wm	81	diff_vonmises	-0.05087286090317214	-2.914800221507857	0.00021112733010059093	3202.494935210797	3.9362222221535137e-28	3203.3992953571915	-0.036317726203151324	-0.25153768939838983	0.2152199631952385	179.91385310542495
0	1.0	ltm	82	diff_vonmises	-0.03724887340977149	-2.134203237996982	1.790781704602418	0.49752114345419873	1.5417375377047352e-17	2.6776441607732915	-0.18614103368992982	-0.4194799857772273	0.23333895208729746	102.15421679035047
1	1.0	perception	82	diff_vonmises	-0.06015731130046117	-3.4467600443710786	8.862317717058312	1.0788587285967832	0.11623166513616101	3.554667255978233	0.6285253015725557	-0.584656687801124	1.2131819893736797	44.64187176745415
2	1.0	wm	82	diff_vonmises	0.08957226035569389	5.132112479828242	5.055377592198186	0.34449075764878656	6.882245245131585e-29	3.0102202900042245	-0.17861663673911732	-0.4790792272941229	0.30046259055500557	60.716828082932665
3	2.0	ltm	82	diff_vonmises	0.06695097613269702	3.8360083666846454	1.575073394476181	2.250737114783818	0.6649654746786122	3.10306125585239	0.14193666218346013	-0.23739102151340352	0.37932768369686365	81.29382091086313
4	2.0	perception	82	diff_vonmises	-0.03310311965158753	-1.8966690447525414	9.312370286189285	1.1329198358915022	0.2397063611632084	2.1589393815620928	0.9292394734629321	-0.36934430111105404	1.298583774573986	43.38643700217702
5	2.0	wm	82	diff_vonmises	-0.038306113266103316	-2.1947786196978134	5.335837387465188	0.565577570595502	0.1721449212761339	2.041487008343869	0.12455918918928005	-0.3275527719392156	0.45211196112849567	55.62982429238528
6	3.0	ltm	82	diff_vonmises	0.11304496697750219	6.476999503006637	2.614174564415617	0.6457088821979402	0.28946944465258473	1.148598528741295	0.15146276918703527	-0.15210182867328184	0.3035645978603171	75.94881895296604
7	3.0	perception	82	diff_vonmises	0.005718986847639518	0.32767380946057156	3.9665119774014364	2.1856971377098597	0.4782134806711563	2.862612400028216	0.9780069878495936	-0.40523459005755513	1.3832415779071487	62.9092700965268
8	3.0	wm	82	diff_vonmises	0.07161213988310126	4.103073377202179	3.4928791799430976	0.48812498947787025	1.8943658487381697e-17	1.5615026974947672	0.09976576448002064	-0.2481987175586546	0.34796448203867525	73.39388256128112
9	4.0	ltm	82	diff_vonmises	-0.30726434832236404	-17.604950353709096	1.8506548998599588	0.9578805648089858	0.0685800061206455	2.1717607342306873	0.10167920218301912	-0.31072097211540617	0.4124001742984253	95.52897988828165
10	4.0	perception	82	diff_vonmises	0.006407056103869717	0.3670972738552676	1.0222337807701982	265.9414004388769	1.0003607911382806	267.3572872710284	0.6153338377954469	-0.5348862471881617	1.1502200849836086	87.93049434195916
11	4.0	wm	82	diff_vonmises	-0.16867938547522396	-9.664616878590653	0.8673056204635098	229.44266503591817	0.8507782915822517	231.36724133663807	0.12033566685512653	-0.47111980521533425	0.5914554720704608	89.14319721675393
12	5.0	ltm	82	diff_vonmises	-0.03999367852182045	-2.291468986503321	1.5287099782120765	1.9024468258495508	0.4447582090149131	2.2955376451009903	0.2907586759899278	-0.19448079555338804	0.4852394715433158	92.17806934509133
13	5.0	perception	82	diff_vonmises	-0.013133325436481576	-0.7524841184822041	1.0772941229342965	274.1099166533724	1.0605597737440318	274.66142879557367	0.6671021729663522	-0.3617793945347856	1.0288815675011378	88.35177221053192
14	5.0	wm	82	diff_vonmises	0.057603694447289265	3.3004485761908504	2.1858527546442166	1.343405702153151	6.156957132683004e-15	1.8664242414762617	0.4340394029849148	-0.28781665402474454	0.7218560570096593	92.9539295266805
15	6.0	ltm	82	diff_vonmises	-0.26056123735738557	-14.929059205284672	0.5968104173487178	121.76169194408553	0.581618147814267	122.11333704783375	0.2575817852846285	-0.22120377269236613	0.4787855579769946	116.97566667312218
16	6.0	perception	82	diff_vonmises	0.21624628913312802	12.389999702693952	0.4120044247031544	5.413549992665531	3.677281385980421e-14	5.73974250882563	0.3338498186451778	-0.3663198637634202	0.700169682408598	155.90490610302282
17	6.0	wm	82	diff_vonmises	-0.2983702319277286	-17.095355021798373	2.026671602989175	1.2872816212471583	0.04656875300760675	1.4004033055939757	0.4360445533784456	-0.20100040933849936	0.637044962716945	94.80981987813288
18	7.0	ltm	82	diff_vonmises	0.10998998974008695	6.301962200794208	0.9566825487747463	196.3255149542196	0.9431234916080076	197.33512076274923	0.17141142882810811	-0.2857595889996105	0.45717101782771863	87.4383406526521
19	7.0	perception	82	diff_vonmises	-0.08719977142092676	-4.996178876924597	2.3093315105712717	1.7165962228208134	1.4036769124022317e-13	2.1429765082649044	0.6242859772902971	-0.3315411697603527	0.9558271470506499	90.48220896501584
20	7.0	wm	82	diff_vonmises	0.30693116136572524	17.585860147304885	0.525168456463503	128.81392197867444	0.5101228161228012	129.88352612430856	0.09724338851606973	-0.31107838547874955	0.4083217739948193	117.42813921179285
0	1.0	ltm	83	diff_vonmises	2.9689694001150446	170.1094161300799	712.1476178903728	634.4227103653551	0.9862036746683787	0.7268984454258334	inf	-0.24033131907357136	inf	0.0
1	1.0	perception	83	diff_vonmises	-0.08589854068984619	-4.921623847860958	11.035942925192028	0.9410117522360919	0.015845723740911838	1.9188873515977114	0.9221042198868079	-0.30630237811914096	1.2284065980059489	40.75392436289519
2	1.0	wm	83	diff_vonmises	0.14902310714300443	8.538395089220025	0.0003384830426402553	1689.060909508034	1.4782828830714394e-26	1689.800627412371	-0.026733194565451868	-0.20871092977716899	0.18197773521171712	179.19059681605745
3	2.0	ltm	83	diff_vonmises	0.49746233209897084	28.502492096006367	0.4660321280171593	76.75027396378948	0.4519039240824605	76.9515956881599	0.15339373533992529	-0.14607652192787235	0.29947025726779763	127.72958318492749
4	2.0	perception	83	diff_vonmises	-0.008765325205041518	-0.5022161403085219	7.214674175652176	1.7151577919748229	0.8051748314158927	2.0265818689844703	1.1859174646311241	-0.3639289055400977	1.5498463701712217	47.131794966758264
5	2.0	wm	83	diff_vonmises	-0.042327258345288624	-2.4251732615449306	9.552220932078843	0.36190804207211924	0.6278401935949806	0.9605816530224165	0.17982135954941192	-0.19340708029565792	0.3732284398450698	40.56199636669092
6	3.0	ltm	83	diff_vonmises	0.19271870822557918	11.04196861453883	2.2185154055920506	48.09695869706449	2.198552027985404	47.983172399888915	0.2045172156272237	-0.03701416207561792	0.2415313777028416	66.051559732224
7	3.0	perception	83	diff_vonmises	0.01807112647860997	1.0353992782714607	1.8825314235584532	161.81991764902864	1.8431450345111036	161.86725448233346	1.003746054894819	-0.34354981279363095	1.3472958676884499	68.58109308574868
8	3.0	wm	83	diff_vonmises	0.03479003811704836	1.9933223532061326	1.7807505270188875	32.74272324394389	1.7366105006829762	33.051722531293144	0.09237076178415649	-0.11463027947234306	0.20700104125649954	64.52884542125034
9	4.0	ltm	83	diff_vonmises	-0.24095335045543662	-13.80561004063315	11.663463759681624	0.2895873742076735	4.795981366662051e-25	1.037975179356712	0.22492235464286744	-0.16519888057244367	0.3901212352153111	39.709354076696826
10	4.0	perception	83	diff_vonmises	-0.025868120481691338	-1.4821341275368358	1.6459228244466875	5.547629120751579	0.7652151141452673	6.4015149578019654	0.6410369705822452	-0.4062615706945162	1.0472985412767613	82.50752448829431
11	4.0	wm	83	diff_vonmises	-0.3658310665725479	-20.960576129376445	1.6600436135079257	166.94158978821406	1.6388721549338083	167.9585232923339	0.1336960420088218	-0.3168282678455441	0.45052430985436587	64.62489905039696
12	5.0	ltm	83	diff_vonmises	-0.2664066884639166	-15.263978883038977	5.319976881220402	0.3650668982034402	0.849213160269703	0.4474848929221857	0.18707973815657342	-0.07071258202248996	0.2577923201790634	53.22659728111617
13	5.0	perception	83	diff_vonmises	0.015124986278492975	0.8665978789509291	1.3206875680982544	197.09148337262937	1.2997537580473815	197.32059727565823	0.6575818000387272	-0.27444809322591723	0.9320298932646445	81.0368625972493
14	5.0	wm	83	diff_vonmises	0.21609387633168015	12.381267092427224	1.116788624531273	26.712844876661407	1.05072958530451	26.92495370753866	0.25646318494290377	-0.13859769904646013	0.3950608839893639	87.74211672502082
15	6.0	ltm	83	diff_vonmises	-0.4887270754630286	-28.001998757803236	0.9980495830158225	68.54336906286467	0.9681341885133397	69.01594015430372	0.22981451732416502	-0.18842937116112868	0.4182438884852937	89.60234510139857
16	6.0	perception	83	diff_vonmises	0.23276154746721084	13.336254302805157	1.5581725612947246	1.7054337835822968	5.228928744606601e-17	2.3480441861322534	0.38223982536654466	-0.3401985291862609	0.7224383545528056	108.49151736610403
17	6.0	wm	83	diff_vonmises	-0.17757204623786446	-10.174128808931542	5.553414636129523	0.5619626179756056	4.315475900467622e-16	0.7960013470128636	0.38852012101611044	-0.12667981569456263	0.5151999367106731	57.86866756848178
18	7.0	ltm	83	diff_vonmises	-0.02410725012373642	-1.3812436877563286	1.6726741840335548	208.13028196310566	1.6564918493663912	209.02991666097316	0.15446810815556944	-0.291817080830171	0.44628518898574043	64.95780074478972
19	7.0	perception	83	diff_vonmises	-0.14085182998104073	-8.070215394607867	1.5545871088625551	1.729047609235816	4.7373250202204577e-26	2.189938146266174	0.4168181927550288	-0.3143755175678398	0.7311937103228686	108.72864595625231
20	7.0	wm	83	diff_vonmises	0.4308429388580319	24.685482029578203	3.961835540784815	0.3891631923469734	1.4336665150529174e-27	1.1906972036051506	0.10812504832153583	-0.1893975695707158	0.29752261789225165	68.79164410447544
0	1.0	ltm	84	diff_vonmises	0.20397440907575676	11.686872768715817	5.62214911309124	0.4960989305745579	0.018334389102356737	3.3464695408597	-0.08465354552860932	-0.5309083094982479	0.44625476396963853	56.66672681543051
1	1.0	perception	84	diff_vonmises	-0.056001005247938544	-3.208621249196853	8.715994236861961	0.9547493885240906	0.03109370901374816	3.7839990408305515	0.4862613941102083	-0.6052775116423547	1.091538905752563	45.62451404048977
2	1.0	wm	84	diff_vonmises	0.12461575867584108	7.139957032946467	0.8569417639167061	189.7542172683632	0.83412038197525	193.28735520181462	-0.26942390631268154	-0.7018057612595108	0.43238185494682924	80.62756530713278
3	2.0	ltm	84	diff_vonmises	-0.06816536761260056	-3.905587873159764	1.5688318613208838	4.226962190548221	0.8185115047641127	5.726815742968481	0.12228848837509165	-0.38449620506046434	0.506784693435556	76.26988633328838
4	2.0	perception	84	diff_vonmises	-0.04791527933043301	-2.7453432798242408	9.115354014872374	1.0348872756501286	0.004956897647796795	2.6071281587752204	0.811355106566225	-0.41482491716703124	1.2261800237332563	44.93307887587571
5	2.0	wm	84	diff_vonmises	-0.036209307936270696	-2.074640523837868	4.003860867027616	0.7771752568362457	0.17818808339522715	2.8296424106799383	0.06390376738275572	-0.43902161223791314	0.5029253796206689	62.798814763228876
6	3.0	ltm	84	diff_vonmises	-0.0028648120165735134	-0.16414163764802475	0.7659556524891304	164.8017874409533	0.7507392479103656	165.9081890514404	0.15324007225956393	-0.30871963597946284	0.46195970823902677	97.60517666269132
7	3.0	perception	84	diff_vonmises	0.02122540142974819	1.2161259203955146	2.9846181998182826	2.629847818013726	0.3232329818664813	3.690399914310221	0.926681191950285	-0.48984530480355193	1.416526496753837	72.69567529845719
8	3.0	wm	84	diff_vonmises	0.02247865751503465	1.2879322047315163	3.1028237799558527	0.8418859200481245	0.1006917612008335	2.403683206278903	0.1400287885550669	-0.36048913918312603	0.5005179277381929	73.48922841299517
9	4.0	ltm	84	diff_vonmises	-0.06918615397124822	-3.964074623294803	0.9937164746409768	1.3981717855033164	2.9883028116486968e-15	3.1240742149249083	-0.021104411898981157	-0.4319628363905348	0.41085842449155363	128.81203446217106
10	4.0	perception	84	diff_vonmises	0.025318557772949567	1.450646503748155	0.9400426724068217	479.3612651859608	0.9263559803640038	481.55848018081554	0.5271076837086639	-0.6794966239460649	1.2066043076547288	89.49872342158122
11	4.0	wm	84	diff_vonmises	-0.2087350300539014	-11.959636258624947	0.5883267753817997	162.52694678713576	0.5673645479442919	164.978145940986	0.007536838110368649	-0.5684111968862258	0.5759480349965944	106.68364610480586
12	5.0	ltm	84	diff_vonmises	0.022278009959384518	1.2764359466231474	2.110061507090844	1.050316108332956	9.194180542649977e-12	1.9524726746714987	0.24886970168980777	-0.30252069772533	0.5513903994151378	94.56104507008297
13	5.0	perception	84	diff_vonmises	-0.019843555723958455	-1.1369519935154864	1.5425091610709767	4.213523282804342	0.43897459158528324	5.219245383976718	0.627725907056609	-0.4524205268161572	1.0801464338727662	91.63030462422108
14	5.0	wm	84	diff_vonmises	-0.008963254674950186	-0.5135566635755503	2.2004065003302338	1.3298075174241748	2.800196675835528e-18	2.4740745495532255	0.3327731652934193	-0.38484712008892435	0.7176202853823437	92.66255173892583
15	6.0	ltm	84	diff_vonmises	-0.14138645832170932	-8.10084734213626	0.6434369239967354	2.151333997608553	2.7825197753426277e-19	2.9139090677160984	0.12525730446032496	-0.30111495072244143	0.4263722551827664	144.62165669310457
16	6.0	perception	84	diff_vonmises	0.13790679430056507	7.901477279601174	0.10219094439664216	20.202869870716484	1.1723776675401185e-11	20.787106959021916	0.24369497145477137	-0.4128999117802903	0.6565948832350617	173.531825811254
17	6.0	wm	84	diff_vonmises	-0.37875381057123164	-21.700994820229038	0.5332341794227237	175.07021473138443	0.5219845905667843	175.81351864576277	0.1831290954080984	-0.28240071425908475	0.46552980966718316	119.396054352644
18	7.0	ltm	84	diff_vonmises	0.23446353535236422	13.433771025406843	1.7528574174024631	0.8742032707810986	1.7603870749535463e-16	1.8779770071375896	0.11737557271004406	-0.28638958850867174	0.4037651612187158	103.02381355927628
19	7.0	perception	84	diff_vonmises	-0.0373685267777258	-2.1410588709852902	1.7243989064657734	3.8020563500073044	0.5428533120413843	4.354122139854352	0.6832233920371391	-0.35849922244705423	1.0417226144841933	86.80293100188021
20	7.0	wm	84	diff_vonmises	0.4894267491757445	28.042087108578105	0.1773378277410866	95.62819675599897	0.16515225411440612	96.89738009493612	-0.03679758554100232	-0.33845063108323536	0.30165304554223304	153.83561139837016
0	1.0	ltm	85	diff_vonmises	0.020161277535360532	1.155156112368077	0.4605200748831128	76.13545333153303	0.4440433329800635	77.46637870132733	-0.0819653126818487	-0.2769102532398353	0.1949449405579866	114.98877409770664
1	1.0	perception	85	diff_vonmises	-0.0966987356256042	-5.540429435598457	10.263791880449496	0.948278587899068	3.566190521593009e-17	2.411263485381138	0.8123658243207943	-0.38376450133977713	1.1961303256605715	42.368973950927625
2	1.0	wm	85	diff_vonmises	0.1298367899770835	7.439100091213353	4.78982719179194	0.30912847597951776	4.615704072870364e-20	1.8443670062102637	-0.03159874707927507	-0.2935220152135169	0.2619232681342418	62.42294433272269
3	2.0	ltm	85	diff_vonmises	0.15005903587713593	8.59774943356209	0.5146148068061872	92.1800367056958	0.49866827555972454	92.9855396274009	0.07646061901179735	-0.2380562821041643	0.31451690111596164	118.8981076526261
4	2.0	perception	85	diff_vonmises	-0.028504178842664197	-1.6331691461707538	7.156314802253696	1.5500133871856807	0.43184678822287653	2.388161159398529	1.063962225100172	-0.40957347596641563	1.4735357010665875	48.4057561691842
5	2.0	wm	85	diff_vonmises	-0.043832643423470596	-2.5114254730667294	8.54690097292866	0.39632407689848576	0.23892948481365597	1.622284804248808	0.1316899358369743	-0.28071074610082053	0.41240068193779483	44.166038287636326
6	3.0	ltm	85	diff_vonmises	0.09320208787196964	5.340086276871296	1.2892594551913292	151.5117910760834	1.275847473624053	151.87149186799155	0.22907292291493064	-0.15952244486754275	0.3885953677824734	78.85067808702979
7	3.0	perception	85	diff_vonmises	0.014906599395204993	0.8540852322375116	1.439477775527923	286.2790711102657	1.4168656336440721	286.74072784553164	0.9558382573814868	-0.42514100472336835	1.380979262104855	77.09678286037041
8	3.0	wm	85	diff_vonmises	-0.007516082479154813	-0.4306398045277954	1.4952513479453071	62.06633566808678	1.4547248713281054	62.82616333635057	0.11918552422643458	-0.23013060763055826	0.34931613185699284	69.06107562389798
9	4.0	ltm	85	diff_vonmises	-0.14878513400342086	-8.52476023268441	6.5295111507108	0.3677334985687368	4.7663604913787254e-26	1.554832633655627	0.11956535930032391	-0.24745851692657586	0.3670238762268998	53.29015822808131
10	4.0	perception	85	diff_vonmises	-0.034144906575237895	-1.9563590386296252	0.9967766826220762	364.2085382588357	0.9814369128781107	365.65894270927305	0.5673411497710532	-0.5264364438344415	1.0937775936054948	88.57447480433589
11	4.0	wm	85	diff_vonmises	-0.3451507803071494	-19.775683007246748	1.2561170299137017	155.6889733019085	1.234435370058913	157.16262048026886	0.0511295560123628	-0.3698498463539259	0.4209794023662887	72.4238513287764
12	5.0	ltm	85	diff_vonmises	-0.06468134967205474	-3.705968349418628	2.6192660644017205	0.5783744693434502	0.24650001124088455	1.178045091560182	0.11398684839353149	-0.16074987772962185	0.27473672612315336	76.0635369337042
13	5.0	perception	85	diff_vonmises	0.020710265572659377	1.1866108099084713	1.526940647585204	5.333019035198939	0.714000651057848	6.119854130538688	0.5772733449118008	-0.3740491200302989	0.9513224649420997	85.59089933107899
14	5.0	wm	85	diff_vonmises	0.04223348545835453	2.41980047089085	0.758915188308511	109.61874988635088	0.7388575198583289	110.49074778338507	0.16510543054295823	-0.2633703487120922	0.4284757792550504	99.4015071888548
15	6.0	ltm	85	diff_vonmises	-0.38265372128635705	-21.92444324468357	2.0415415452864427	0.752678899717136	3.913904123316387e-16	1.7366039942740283	0.11675693356974232	-0.26976244519127174	0.38651937876101405	95.87347017792021
16	6.0	perception	85	diff_vonmises	0.2050473642829385	11.748348573693915	0.856019095656415	2.5451233914595615	1.9906039121777717e-11	3.661025148658265	0.2173534701105072	-0.43826556014932305	0.6556190302598303	134.35226494921352
17	6.0	wm	85	diff_vonmises	-0.16637530612498563	-9.532602856158752	3.2881073127303413	0.5646303286500244	1.7398973620533957e-19	1.527572076980472	0.14633746506666556	-0.24257796917617222	0.3889154342428378	75.70560857916567
18	7.0	ltm	85	diff_vonmises	0.0241733849477627	1.3850329340518748	1.372579384055047	172.5871131546862	1.3558693417000196	173.6826145626834	0.07169761914511241	-0.2938062006603417	0.3655038198054541	69.96496274168953
19	7.0	perception	85	diff_vonmises	-0.13000431778193952	-7.448698727382695	2.2949953819455504	1.4924952234793047	2.1384282006779493e-20	2.2481411587031968	0.4783605338043373	-0.3493120571097908	0.827672590914128	90.75634717460207
20	7.0	wm	85	diff_vonmises	0.45964414357012445	26.335669504473408	1.9464520433922716	0.35839078386799145	3.8893187458199784e-16	1.4705534880449673	-0.05217489774516071	-0.23033797724386515	0.17816307949870444	97.90048239124329
0	1.0	ltm	86	diff_vonmises	0.14472018178911558	8.291855626882358	4.935002282031969	0.5100200423048181	9.174187664766295e-24	3.405611264905597	-0.10286688090709883	-0.5419971588475485	0.4391302779404497	61.47142099711428
1	1.0	perception	86	diff_vonmises	-0.08460017716232646	-4.847233097460359	10.169027522762825	0.9457633514726131	0.05223934678665576	3.950426049694229	0.5256408514115337	-0.638978801226319	1.1646196526378527	42.07694157935936
2	1.0	wm	86	diff_vonmises	-0.04554598339413842	-2.609592622257064	4.372721988317159	0.8421683585336868	0.19288334612152308	4.438071910458612	-0.1691623389832836	-0.7096781473651037	0.5405158083818201	58.575217546543826
3	2.0	ltm	86	diff_vonmises	-0.08284796313610583	-4.746838628954292	1.8448001439678292	2.696035163248727	0.6405509223709683	4.14581595952624	0.19153392406809155	-0.38768602188416423	0.5792199459522558	76.87927626983841
4	2.0	perception	86	diff_vonmises	-0.05941153820484173	-3.4040303935176786	9.41544650389056	0.9212991840586842	1.829352003749063e-12	2.5571312622501106	0.7047936414429976	-0.40698007314100076	1.1117737145839983	44.25640943970936
5	2.0	wm	86	diff_vonmises	-0.09780989630147377	-5.6040942526866875	3.3074892264574194	1.1163047888066624	0.3140922377281245	3.1427363751190796	0.10437678151338459	-0.4652165216256122	0.5695933031389968	65.74100871804524
6	3.0	ltm	86	diff_vonmises	-0.011466766097102486	-0.6569973020276715	2.034501517867356	1.291459698466586	1.0122211411586134e-09	2.7739838265404777	0.2316457058086125	-0.4299854770218932	0.6616311828305057	96.23523361129767
7	3.0	perception	86	diff_vonmises	-0.03435473578014433	-1.9683813664893497	3.968279475474646	2.31729910771735	0.1849481006366757	3.982521049127016	1.017814316081165	-0.5952084567155282	1.6130227727966933	65.4147292273515
8	3.0	wm	86	diff_vonmises	0.0061860151926832856	0.354432562544559	3.18912985768363	0.9678787359323812	1.9774966793667633e-14	3.1204000598635435	0.15961844872332198	-0.49551260345826253	0.6551310521815845	76.89867898567411
9	4.0	ltm	86	diff_vonmises	-0.1035926472332443	-5.9354214750524825	0.9925157444568122	2.306305243055033	2.6139939361576524e-17	4.2281089906005	0.1118973709447082	-0.5651084017485531	0.6770057726932613	128.81653242831862
10	4.0	perception	86	diff_vonmises	-0.02966774552421104	-1.6998366062054309	0.7945101260074964	589.0859849168103	0.7834606043758962	591.3387728758814	0.5661048500711559	-0.73061493025034	1.2967197803214958	97.81295742880761
11	4.0	wm	86	diff_vonmises	-0.10559639557084986	-6.050227798003636	0.682614296883613	192.0531270844096	0.6603724988502242	194.7731504739825	0.05950676743904637	-0.6363060070999325	0.6958127745389788	99.55763999221226
12	5.0	ltm	86	diff_vonmises	-0.013317684336321665	-0.7630471053587162	1.7142047758027021	1.6436121831666273	5.570771517684316e-15	2.2241732431094245	0.41811686356424893	-0.3289415091678752	0.747058372732124	104.20500868433894
13	5.0	perception	86	diff_vonmises	-0.001623228399848349	-0.09300413649708444	0.9138137370385138	383.6366239400767	0.9013623616582936	384.3642844061069	0.6744161564048312	-0.42327339074275017	1.0976895471475814	95.27842008170123
14	5.0	wm	86	diff_vonmises	-0.05809969812707009	-3.32886749366525	2.5076440550958163	1.4364641467321617	5.219525501291e-10	2.2274065152025835	0.4935781833571362	-0.34887466442454074	0.842452847781677	86.86096979418465
15	6.0	ltm	86	diff_vonmises	-0.1056835702625193	-6.05522253991665	0.7159701213957845	2.314366074725827	6.444783340381893e-18	2.790698450490155	0.22146519737007775	-0.2851736241732938	0.5066388215433715	141.20876508485838
16	6.0	perception	86	diff_vonmises	0.04450472108308925	2.549932686467908	0.1767785331696802	10.586841212274203	6.0805630199942885e-12	10.883673266576478	0.26294195650872076	-0.3312212685893967	0.5941632250981175	169.8220091128091
17	6.0	wm	86	diff_vonmises	-0.22787465204384222	-13.056255820124338	0.7195179173299417	152.04216231931272	0.7058171939130485	152.46484864145165	0.27649866137323187	-0.22233717282423626	0.49883583419746813	106.49966700244202
18	7.0	ltm	86	diff_vonmises	0.257604761243173	14.759665601709054	1.3574308347630597	104.2525854949495	1.3346991687980678	104.69571997964577	0.24833661309967425	-0.1861832239872605	0.43451983708693476	76.4942519884685
19	7.0	perception	86	diff_vonmises	0.030593438347808095	1.7528748981230902	0.8011372515477947	304.30851739642554	0.7873682602530763	304.9384380129966	0.6104100785994007	-0.4011228393833548	1.0115329179827555	101.9553999182175
20	7.0	wm	86	diff_vonmises	0.20167847662023616	11.55532552896738	0.0010600957840289742	956.2494017025441	4.1048068481148104e-21	957.1674430574898	0.015264965378747775	-0.3074010980824653	0.32266606346121307	178.57221367290867
0	1.0	ltm	87	diff_vonmises	0.3479067954830752	19.933591045101302	0.5750835705708423	118.86708212629468	0.5548310411958483	121.94271334156697	-0.3365871432914389	-0.5556318601480772	0.2190447168566383	92.35165161311289
1	1.0	perception	87	diff_vonmises	0.040156334787426265	2.3007885040338927	8.435321627476974	0.8321058799225747	0.034711031804092615	4.170654991065425	0.2618652226810825	-0.6679434999535083	0.9298087226345908	46.23742118246281
2	1.0	wm	87	diff_vonmises	0.24402250340671594	13.981459551421576	3.021437734919624	0.6541803132205548	0.1269140262096918	4.2405506820089744	-0.332954165841468	-0.652421882924269	0.319467717082801	68.7736594796691
3	2.0	ltm	87	diff_vonmises	0.2208552569122297	12.654074104348265	0.7952306538117363	149.50815549239726	0.7796328028260101	151.04088430241305	-0.014105988465040298	-0.3351064732544984	0.3210004847894581	89.69566049173272
4	2.0	perception	87	diff_vonmises	-0.03416036961914429	-1.957245005783887	8.786107704795405	1.3434395046138434	0.2408813064787215	3.058628152800874	0.9542480252808395	-0.5224641948156753	1.4767122200965148	44.412171390597194
5	2.0	wm	87	diff_vonmises	0.06596239127907509	3.7793666268815507	5.044649323787975	0.5773423132060974	5.284651976227392e-15	2.881360098126701	0.04441043042612847	-0.45856181584150846	0.5029722462676369	60.78360001931193
6	3.0	ltm	87	diff_vonmises	0.021433320889477168	1.2280388279166252	0.8274639743656894	61.964309367140984	0.805796100050416	62.62310237453667	0.05559246031877407	-0.16718858056359576	0.22278104088236983	92.33487837748203
7	3.0	perception	87	diff_vonmises	0.05765279379718511	3.303261761716718	3.204574016325626	2.5763124783460953	0.4141169712999652	3.2179511782742156	1.0088834861125973	-0.4202909904833345	1.4291744765959318	69.84715423542227
8	3.0	wm	87	diff_vonmises	0.001467588134088364	0.0840866061467428	3.237961246855514	0.4873824309950238	7.92124039734483e-15	1.665583377536511	0.06823301397959469	-0.2645724872149511	0.33280550119454577	76.29985600298042
9	4.0	ltm	87	diff_vonmises	-0.04523450793374368	-2.591746392954551	0.00022178483503858522	2271.568087623587	1.3277895250755353e-32	2273.2950233858965	-0.19466579595774647	-0.3550260392993323	0.16036024334158583	179.9301522178253
10	4.0	perception	87	diff_vonmises	0.04662362750306269	2.671337081515561	2.4034286661413056	2.9685009096425894	0.3038685443313279	5.115335822132071	0.6311212777196371	-0.6531851724991586	1.2843064502187957	78.3441020281571
11	4.0	wm	87	diff_vonmises	-0.4369599029955034	-25.035958258088204	0.7131148632113878	2.7255335939597187	3.624352734567093e-16	5.602994399732503	-0.10935659921486784	-0.7038046058095568	0.594448006594689	139.19924316002385
12	5.0	ltm	87	diff_vonmises	0.0024807970723087986	0.14213920207170508	2.5867056270381967	0.5931145256104774	0.02795552835832748	1.6967420116274776	0.07896277490802717	-0.2606770169301844	0.3396397918382116	83.52627079663006
13	5.0	perception	87	diff_vonmises	-0.035742599255077716	-2.047900086143393	2.8442332723248502	1.803139111616482	4.222867169014861e-14	3.2898177915791527	0.6218768941243699	-0.5197136003636933	1.1415904944880633	81.51581950207711
14	5.0	wm	87	diff_vonmises	0.06772435138216282	3.880319504458913	2.3295494685767255	1.092896638757618	2.0318367112343063e-16	2.71749555031052	0.1852906171105	-0.42664919946203755	0.6119398165725376	90.0938700839468
15	6.0	ltm	87	diff_vonmises	-0.29629185095789207	-16.976272564006432	0.26679468756730856	110.48613690824645	0.2545708931133556	111.49002475142383	0.0360380751122058	-0.3057733117190775	0.3418113868312833	146.52461474360183
16	6.0	perception	87	diff_vonmises	0.23166031119519026	13.273158112171657	0.2399293301781824	226.67934500442144	0.22673162148686368	227.86642404748923	0.2904241151793556	-0.5637524661742468	0.8541765813536024	151.62304315776777
17	6.0	wm	87	diff_vonmises	-0.3834228765684039	-21.96851259613505	0.8799380012163863	1.9583972877007851	4.269510346949499e-15	3.2426249695664016	0.10845320430412109	-0.4086187454745689	0.51707194977869	132.3862813527566
18	7.0	ltm	87	diff_vonmises	0.4982235206142181	28.546104985343867	0.49577700365722316	66.24016236687535	0.4730463911683466	67.51647589000888	-0.02779719979153583	-0.291911057942734	0.26411385815119814	115.2067576513403
19	7.0	perception	87	diff_vonmises	-0.06081105166868225	-3.484216608367475	3.028051224497448	1.4408048071326118	3.1245613419474445e-17	2.6108566309895296	0.5330487262290449	-0.4133072455201893	0.9463559717492342	78.96265059787297
20	7.0	wm	87	diff_vonmises	0.8783321985389865	50.324727986730615	0.000741527457630452	1062.0388681035124	5.889537254889496e-19	1063.7795809196687	-0.15168238521809485	-0.4023572448391235	0.25067485962102865	158.35241373030652
0	1.0	ltm	88	diff_vonmises	-0.09848245825530717	-5.6426292141024135	0.2593658004647921	2.551177797149735	6.056561645972639e-12	4.82306706121565	-0.2500957607876776	-0.4595455517733329	0.2094497909856553	165.05517805250417
1	1.0	perception	88	diff_vonmises	-0.053449837576576904	-3.062450108797613	10.771730633454874	0.8615903558351988	0.04863625412712622	3.550123682476184	0.5215951794194229	-0.5742262013437831	1.095821380763206	40.933623815261654
2	1.0	wm	88	diff_vonmises	-0.020153714906606043	-1.1547228056584204	6.872385689483253	0.3526432315751997	7.680232984769735e-18	2.9589850824579993	-0.10936317548989682	-0.4709367143111733	0.36157353882127646	51.91247499246714
3	2.0	ltm	88	diff_vonmises	0.12338447603563846	7.069409734275131	1.8284376689340078	1.026383238199012	0.1901290492970011	2.077490581998258	0.10517520809066	-0.2656948896935977	0.3708700977842577	89.64252938183986
4	2.0	perception	88	diff_vonmises	-0.03206552579580081	-1.8372192959672569	8.848958551448453	1.2302348178077418	0.2672319965445148	2.5378016348779293	0.9197843461054547	-0.436680980205578	1.3564653263110327	44.24230769584494
5	2.0	wm	88	diff_vonmises	-0.0249262000795235	-1.4281660638553535	5.987368068980857	0.5665386783861037	0.09327890826182286	2.212950118817921	0.15454959263958468	-0.35368545487327185	0.5082350475128565	53.86221117344783
6	3.0	ltm	88	diff_vonmises	0.08062790619019489	4.619638735674892	3.245874447004182	0.526579637533231	1.8173351726056674e-11	1.2014936706384307	0.16937253508552413	-0.19067695241187238	0.3600494874973965	76.2084367244153
7	3.0	perception	88	diff_vonmises	-0.00088343818227597	-0.050617279305122206	4.236291192241047	2.3700000898052282	0.3975673057389549	3.2639440551474834	1.1365653690531825	-0.47893446052065813	1.6154998295738405	61.74630229677538
8	3.0	wm	88	diff_vonmises	-0.027876984531869944	-1.5972335592276268	2.7469053285346043	0.6618566268370303	1.1147080547406682e-19	1.9918665126886606	0.09504936710947132	-0.3153207016604523	0.4103700687699236	82.97030956977795
9	4.0	ltm	88	diff_vonmises	-0.3075204486739255	-17.619623822985382	1.543907483188293	1.0332195815656289	4.6527687329839984e-15	2.594133305131057	0.04255710107169425	-0.3920996118459448	0.434656712917639	108.81488017004285
10	4.0	perception	88	diff_vonmises	-0.009547950217403347	-0.5470572504582286	2.433674530442363	2.5387364088733864	0.11767047392714308	4.229956064035979	0.7179538016093296	-0.5951676860895058	1.3131214876988353	83.4997616786982
11	4.0	wm	88	diff_vonmises	-0.20156567443684925	-11.548862439939448	0.8260242307227104	148.76792815084394	0.7992378873271334	151.13422747615743	0.04271270200113264	-0.5409947920336293	0.583707494034762	89.80231836073771
12	5.0	ltm	88	diff_vonmises	-0.07124173485412788	-4.081850732331583	1.4376116548246194	1.5667736426133754	0.2674291976665351	2.0177227512419003	0.24925529326646534	-0.20503799320224939	0.4542932864687147	99.69822495199463
13	5.0	perception	88	diff_vonmises	-0.0033372920000515663	-0.19121274660572807	1.0230992071426113	279.4999521521753	1.006110151146477	280.12757928507267	0.6819068267623578	-0.38913705701887125	1.071043883781229	90.46316597697421
14	5.0	wm	88	diff_vonmises	0.003363911702583059	0.1927379432126763	2.305176558616706	1.2277997808267758	2.2415137807264316e-14	1.9127791561547791	0.3852937821700046	-0.297566513698595	0.6828602958685996	90.56890901754312
15	6.0	ltm	88	diff_vonmises	-0.30391204477516615	-17.412877508807924	0.4637528125284969	123.60948988180476	0.4505074559832034	124.04901892685157	0.1993961343199615	-0.23398628057303839	0.4333824148929999	128.09885720770802
16	6.0	perception	88	diff_vonmises	0.13345307056374864	7.646297706364359	0.9858451512368026	2.58770105173423	2.6244217567823104e-16	3.085656494404829	0.3861972929357164	-0.36895474844589626	0.7551520413816126	129.0028103375906
17	6.0	wm	88	diff_vonmises	-0.13426726503950373	-7.692947613527992	2.1949456148563735	1.060385322568723	0.044291793711164006	1.5001758471595754	0.32905287837010233	-0.22112911401783023	0.5501819923879325	90.97827534755919
18	7.0	ltm	88	diff_vonmises	0.22918437134518557	13.131297208438134	1.4246774547488055	163.2897728045525	1.4098525964858073	164.00777740503685	0.13103146960906997	-0.2195163796184758	0.3505478492275458	70.97102980125817
19	7.0	perception	88	diff_vonmises	0.007271820431801401	0.41664462011922015	1.4099670349578617	2.230491120228025	7.841903817574217e-19	3.2292364548001045	0.41670562804903455	-0.45846860730897954	0.8751742353580141	113.34233898452379
20	7.0	wm	88	diff_vonmises	0.13088343296573116	7.499068317119822	0.0005196710439320032	1613.7627385585954	2.4710107210772676e-27	1614.8494988906323	-0.03947957116372436	-0.30641231107949807	0.2669327399157737	179.34351176573625
0	1.0	ltm	89	diff_vonmises	-0.09750434612717362	-5.586587517269802	1.779462893175568	0.6168345922651152	1.6831728363726276e-23	1.264602199956942	0.0951538243410838	-0.1928279694514589	0.28798179379254274	102.4383928053899
1	1.0	perception	89	diff_vonmises	-0.1248397612768576	-7.152791436584666	12.768553779516708	1.028215625327143	0.03946207083097967	1.938551890767487	1.1299901637321268	-0.3126862390512051	1.4426764027833319	37.80582548244226
2	1.0	wm	89	diff_vonmises	0.021417495478713206	1.2271320986707894	6.425222907207186	0.44938918562247326	3.406901251719325e-24	1.3195456126249887	0.2348240782897059	-0.21001103909019458	0.44483511737990045	53.722453630232934
3	2.0	ltm	89	diff_vonmises	-0.1273931735338	-7.29909118226444	1.5271543205477947	79.74898422635265	1.4972634933601148	79.8810045810971	0.3587983462277933	-0.1498158889068879	0.5086142351346812	75.21108270641389
4	2.0	perception	89	diff_vonmises	-0.026807205633865527	-1.5359397433598174	9.310595453990217	0.9660036162446791	0.06031685479895947	1.4013960026863939	0.9222428246742189	-0.22521070027058535	1.1474535249448043	44.2475834233947
5	2.0	wm	89	diff_vonmises	-0.16086457627343154	-9.216861293627947	3.927000225996279	1.0421374182744827	1.1547759244767015	1.4807352838605825	0.24422045064509323	-0.19967790335283955	0.44389835399793276	55.838780750189215
6	3.0	ltm	89	diff_vonmises	0.030380816975033913	1.7406925908288517	1.2047115816082723	102.23073189077206	1.1832650895798245	102.35717628145136	0.3577984337596476	-0.15265240535401858	0.5104508391136662	84.92640721493095
7	3.0	perception	89	diff_vonmises	0.01275910934822041	0.7310431159989441	2.7097240543310392	4.107419705411397	1.0317335927231903	4.389993969253793	1.010819558178512	-0.3819280926024178	1.3927476507809298	68.1723515209647
8	3.0	wm	89	diff_vonmises	-0.055205841868858005	-3.1630617435521766	2.59030993719505	1.3269352232753906	0.7264183314353301	1.6140591112372975	0.3310409273059499	-0.16632306786340684	0.49736399516935675	71.52351948446011
9	4.0	ltm	89	diff_vonmises	-0.27702536017564067	-15.872383956155725	3.929588151823097	0.9050619999458955	3.4783068834946697e-19	1.5638824578831745	0.4402356632013744	-0.24863347997051802	0.6888691431718924	69.08529423708023
10	4.0	perception	89	diff_vonmises	-0.06696662441948385	-3.8369049474741415	1.037846391411513	347.610143310354	1.0227780877234276	348.30871080220703	0.7463929396343474	-0.426442974891998	1.1728359145263454	89.72452169088464
11	4.0	wm	89	diff_vonmises	-0.33478456266273177	-19.181742486707574	1.6398937828587046	153.91794510154918	1.6210854783244282	154.49824430453552	0.2288278230736438	-0.22483935270649624	0.45366717578014004	68.03886672880351
12	5.0	ltm	89	diff_vonmises	-0.0494723987444952	-2.834559650447888	1.5362672901917311	1.099286728669319	2.526375073354919e-19	0.7216692136805961	0.36824684860031903	-0.09248745636346034	0.4607343049637794	109.3362852221499
13	5.0	perception	89	diff_vonmises	0.03709589290540799	2.125438100749171	1.3103994412003048	203.66105102034408	1.2941685568906682	203.47085159520392	0.6760233294090483	-0.19008516264605113	0.8661084920550994	83.89075875029442
14	5.0	wm	89	diff_vonmises	-0.015623950964825143	-0.8951864496038312	1.0480933793800185	83.36164781889184	1.026662267736428	82.9425032894556	0.48212647805824815	-0.09856732304618365	0.5806938011044318	97.05145033308716
15	6.0	ltm	89	diff_vonmises	-0.3484571713776633	-19.965125261006936	1.7958054486946984	0.9952982729845916	9.645882201274173e-16	1.094206048601942	0.30683501292171333	-0.16089532252162916	0.4677303354433425	101.77471821809864
16	6.0	perception	89	diff_vonmises	0.20506455942057203	11.749333782508463	0.7997457285255086	2.2373157293527117	8.590190789660389e-18	1.9988069114733622	0.36111477592607494	-0.18091300694704648	0.5420277828731215	136.87611346711412
17	6.0	wm	89	diff_vonmises	-0.23295794587803365	-13.34750710284838	3.9029449641433875	0.5301638491799695	0.1460337934453799	0.21372699802829406	0.36299856953914184	-0.03029969561077452	0.39329826514991634	68.47077469594336
18	7.0	ltm	89	diff_vonmises	0.13660631634203482	7.826965381227602	1.5975449576751914	211.76250211005942	1.5825728669551882	211.95907879683696	0.4560770740506399	-0.1978679562099508	0.6539450302605907	73.06109739077252
19	7.0	perception	89	diff_vonmises	-0.05809192253148273	-3.3284219848548937	1.3698279486885527	2.0869939126854384	1.2156712299059757e-18	1.552086579940901	0.6087923125799585	-0.19174050153901862	0.8005328141189771	114.66503228866634
20	7.0	wm	89	diff_vonmises	-0.18780606512100656	-10.760494898392773	0.2329908517618122	5.673306509199734	6.141035517501046e-13	5.66050334436996	0.22362534400177925	-0.19523528687226355	0.4188606308740428	165.95762210779856
0	1.0	ltm	90	diff_vonmises	-0.26298554209421804	-15.067961634958747	0.18743944693575265	54.14601269066575	0.1704332655797394	55.64300440474604	-0.12210633325858566	-0.3318666174581866	0.2097602841996009	154.68823201182428
1	1.0	perception	90	diff_vonmises	-0.08333305102731062	-4.774632117813227	12.613607956765687	0.8486069666004136	0.01683997005515952	2.7952549052025346	0.7374787441811059	-0.44723857717490434	1.1847173213560103	38.070705406001565
2	1.0	wm	90	diff_vonmises	-0.0154336961904425	-0.8842856539994921	6.954682617876744	0.34487231711101507	7.81400828794355e-19	2.0166794696245973	0.03484798405510825	-0.320964182276459	0.35581216633156726	51.59894020221495
3	2.0	ltm	90	diff_vonmises	0.08631212021471088	4.94532020912873	1.5718520458607275	0.8759293702335574	3.9306642115218974e-12	1.579117150669386	0.13901359216793785	-0.2344918246011647	0.37350541676910254	108.23848349490947
4	2.0	perception	90	diff_vonmises	-0.029023778069581684	-1.6629399889113863	8.8237258174337	1.2348612647075536	0.31852208682383776	2.223564763423547	0.9667200621867511	-0.3874308881097154	1.3541509502964666	44.23146742746471
5	2.0	wm	90	diff_vonmises	-0.07677312417766938	-4.398775995414234	6.551272569228884	0.5267119947697659	0.2310741146955911	1.6531460694835958	0.19952880933229505	-0.2744352352660879	0.4739640445983829	50.37343597938303
6	3.0	ltm	90	diff_vonmises	0.0666393335102	3.8181525596991777	1.9307485355709106	1.4280444045951546	0.6420912921667851	1.7847525541212592	0.23295640201417972	-0.1550055304200107	0.3879619324341904	79.99173009931508
7	3.0	perception	90	diff_vonmises	0.0019333084707321064	0.11077041586984114	3.5555688505517624	2.87966573352203	0.6272597051537813	3.4764763604088134	1.1339445755623085	-0.4512542092046707	1.5851987847669793	64.6925643365937
8	3.0	wm	90	diff_vonmises	-0.08717028131522261	-4.994489218330354	3.8236569168847887	0.5504010503703998	0.018724730967004017	1.400058429843121	0.18584332953459504	-0.21942270515074916	0.40526603468534417	69.32100219366629
9	4.0	ltm	90	diff_vonmises	-0.29152167780915117	-16.70296177503695	2.741402615672168	0.7603510823157699	7.223403282776916e-16	1.9942030723608002	0.15546478264803132	-0.31542117820182836	0.4708859608498597	83.02173187108377
10	4.0	perception	90	diff_vonmises	-0.03846163233639264	-2.20368920605919	2.2641465970622496	2.754148371173927	0.19062153066720847	4.0174554731743175	0.7640072049046533	-0.524831080725809	1.2888382856304623	84.5800055854138
11	4.0	wm	90	diff_vonmises	-0.27973329528063573	-16.02753720886726	1.1936810062131193	203.8827280488285	1.1750520231711101	205.4339617060875	0.12223564268808218	-0.40278527271042464	0.5250209153985068	75.76546399370909
12	5.0	ltm	90	diff_vonmises	-0.08281367689053602	-4.744874171787793	1.7750693913632767	0.9163823612318832	0.1077737465721043	1.1257003944906139	0.240750532036514	-0.1477606372902883	0.3885111693268023	98.2160546931751
13	5.0	perception	90	diff_vonmises	0.018413578951631898	1.0550203596594347	1.1199824377827081	251.4950695297993	1.102898419164103	251.87390718662132	0.666508815924729	-0.3209780794832682	0.9874868954079972	87.35040739100069
14	5.0	wm	90	diff_vonmises	-0.004614450526251063	-0.26438853992610756	1.531095790933145	2.0029654798571954	0.37304157775266245	2.3619858332505066	0.3510535566070693	-0.21474869737822588	0.5658022539852952	94.79419727965242
15	6.0	ltm	90	diff_vonmises	-0.3858475328751634	-22.107435169282144	0.6277997478357382	105.42789252640972	0.6112851306280656	105.86222754931549	0.2138611953356353	-0.21019405835657956	0.42405525369221486	113.15073111603367
16	6.0	perception	90	diff_vonmises	0.16570857800822192	9.494402148985486	1.1761261662793474	2.117050065355603	1.8650554839719553e-18	2.5088076307444007	0.3939756820800989	-0.32379972809048585	0.7177754101705848	121.40311877405927
17	6.0	wm	90	diff_vonmises	-0.1098708508523506	-6.2951360453510325	3.1872688799982343	0.7011252259281312	7.327085501270384e-15	1.001686506282765	0.3158090884457124	-0.15861330067147453	0.4744223891171869	76.91924375040617
18	7.0	ltm	90	diff_vonmises	0.19288402121682796	11.051440351236067	1.6755710744484988	145.22982355596807	1.6573980421231473	145.77016277657162	0.19654471756068403	-0.2061115074947466	0.40265622505543064	67.0070377532081
19	7.0	perception	90	diff_vonmises	0.019038619658170004	1.0908325541679433	0.9489954912495344	2.7810870676987673	9.832368594436451e-16	3.4398950452439716	0.37596023172452797	-0.4090810844276639	0.7850413161521919	130.7312657780658
20	7.0	wm	90	diff_vonmises	-0.17830536362052413	-10.216144800001521	0.00022304705536908446	3839.5489691514617	1.911927268145926e-30	3840.2435605444803	0.025759283901379604	-0.2468393908990265	0.2725986748004061	179.07940547175485
0	1.0	ltm	91	diff_vonmises	0.020972450954085026	1.2016329257141887	1.0603006528383578	0.8737673241739381	4.849912029074924e-21	3.27272229099163	-0.21235718778243007	-0.4838604175675765	0.2715032297851464	126.10336901955014
1	1.0	perception	91	diff_vonmises	-0.07127939433776431	-4.0840084618025925	12.619516211447994	0.7798406391179332	1.2276443923140694e-19	3.49375695100552	0.5377640174999727	-0.5560486887022359	1.0938127062022085	38.1583791354945
2	1.0	wm	91	diff_vonmises	-0.02397233836282875	-1.373513813249641	4.179688688596853	0.734239227442643	0.1325906586942502	3.389504559769851	-0.03509996222022482	-0.5313395454143444	0.49623958319411954	61.95847212735654
3	2.0	ltm	91	diff_vonmises	-0.019298101093730605	-1.1056997452875617	2.6925681384314153	0.7570125756850008	3.5384108849136834e-11	2.0912447111453516	0.1330798825689532	-0.33069607321635663	0.46377595578530983	83.80846178935772
4	2.0	perception	91	diff_vonmises	-0.044535761909488915	-2.551711194813207	9.206509786100588	1.1056101099790683	0.11355831813481392	2.6063946218587946	0.8555815624805944	-0.4274374270158119	1.2830189894964064	44.068840046333236
5	2.0	wm	91	diff_vonmises	-0.05629423867080191	-3.2254222867390987	5.956130172043184	0.598094432455769	0.06883659065274336	2.2315576909499	0.18892089730953615	-0.3548626118702583	0.5437835091797945	54.44531803730632
6	3.0	ltm	91	diff_vonmises	-0.09558184004835377	-5.4764360328651795	1.8121970523694997	1.1142627106008545	1.1159242043304952e-14	2.148962395230749	0.19940620397486908	-0.3275789677851478	0.5269851717600169	101.58918691919146
7	3.0	perception	91	diff_vonmises	0.01074703459676558	0.6157597246757482	3.758957955375326	2.5599616062937756	0.2921406986388123	3.5603300105936033	1.1592000886053901	-0.5104231677247152	1.6696232563301052	66.24041384679634
8	3.0	wm	91	diff_vonmises	-0.08886912796419937	-5.091825961356665	3.123982710130232	0.8781756729629937	5.1695595367399775e-18	2.2450314275059537	0.23124402758416507	-0.3561693535576544	0.5874133811418194	77.70967375039865
9	4.0	ltm	91	diff_vonmises	-0.2216395382771249	-12.699010116507518	0.9810068175674124	1.7483524432338666	3.297500369793024e-23	3.529370051994107	0.02941878166221612	-0.47861553045518557	0.5080343121174017	128.99660824594088
10	4.0	perception	91	diff_vonmises	-0.03529317434094773	-2.0221499353557157	2.5106481846881583	2.5367937529542224	0.013432426871420362	4.375179287572968	0.7931085971889231	-0.6771233330955001	1.4702319302844233	86.20949527406103
11	4.0	wm	91	diff_vonmises	-0.22880212936564143	-13.109396356257529	0.819213061945224	124.406810806406	0.7892363476235135	126.59132112447593	0.0533287827113611	-0.5046560067887675	0.5579847895001286	90.61726772863882
12	5.0	ltm	91	diff_vonmises	-0.08769262651310702	-5.024417393618057	1.2100069269497318	1.4726375499592943	9.263075314641664e-17	2.0747789446346	0.23084022406209903	-0.28032239385066277	0.5111626179127617	120.2825778268228
13	5.0	perception	91	diff_vonmises	0.012572953087799656	0.7203771479468967	1.2697952576922178	7.8519676838830845	0.6979159326285082	8.573048396818427	0.6415099385187193	-0.3973345656417588	1.0388445041604781	91.73317576253228
14	5.0	wm	91	diff_vonmises	-0.07500227954220284	-4.297314071628619	2.1351083637357786	1.2360424833134134	1.5439345703680657e-15	1.989798709949494	0.34656877030515226	-0.30741428842594554	0.6539830587310977	94.02009674015937
15	6.0	ltm	91	diff_vonmises	-0.2811078152330965	-16.106291400999783	0.5774456855884791	2.312908724399367	5.514991814903347e-17	2.931494574610383	0.1377820949886412	-0.27613767393560473	0.4139197689242459	147.0676396708335
16	6.0	perception	91	diff_vonmises	0.13270066671472278	7.603188141325779	0.8101802915326951	2.956100705783371	1.5332467294124264e-15	3.4635049703092573	0.3520990808150585	-0.37252301215000183	0.7246220929650603	136.68050425826328
17	6.0	wm	91	diff_vonmises	-0.09679834134575281	-5.546136422978334	1.3944605371997754	1.4567114184989463	0.2556591653743023	2.0898205806250725	0.18120669400862122	-0.2176406494194406	0.39884734342806183	99.80006524334122
18	7.0	ltm	91	diff_vonmises	0.32495297351655483	18.618433922725004	1.5123902965311251	129.53411789874184	1.4942781556703628	130.13049848411893	0.1523844598251216	-0.19937060349742453	0.35175506332254614	69.75220879395008
19	7.0	perception	91	diff_vonmises	0.04600115311461659	2.6356719262026123	1.3706069094499498	2.244242118733195	2.4011573261302013e-15	3.2137104981692275	0.4091284817829113	-0.45210285725124033	0.8612313390341516	114.63675486813918
20	7.0	wm	91	diff_vonmises	-0.05088238966628112	-2.9153461794179814	0.00024282905375029123	2784.3935069979507	3.706542182740961e-30	2785.297867144558	-0.036317280211562775	-0.2515364298012628	0.2152191495897	179.91201047594052
0	1.0	ltm	92	diff_vonmises	0.0250388876656457	1.4346225869436726	3.9566579846860206	0.4205851109281839	1.3406715082630054e-26	3.0413060604684277	-0.1626243997706306	-0.4839212801021141	0.3212968803314835	68.84841234085243
1	1.0	perception	92	diff_vonmises	-0.051693111126717366	-2.9617970974616608	10.918944853616303	0.8734983013043918	0.049822476562704325	3.946488281233765	0.4779425434437574	-0.6391436442241564	1.1170861876679137	40.619825510741634
2	1.0	wm	92	diff_vonmises	0.07390745445153649	4.234585214628409	3.0075006173915613	0.8360952954320281	0.12794656168043267	3.803501673543535	-0.13679038240235442	-0.5758183006552271	0.4390279182528727	71.18217246138488
3	2.0	ltm	92	diff_vonmises	-0.021773350674136247	-1.2475210994863328	3.989129502280381	0.6486783683689423	0.05223417278215793	1.8228293908366247	0.19252177160890288	-0.2827686731805429	0.47529044478944577	66.7990498486225
4	2.0	perception	92	diff_vonmises	-0.05442885048101279	-3.118543416310634	12.001122783963892	0.9290956245496607	0.08055615271030676	2.232748702962699	0.8855649661519247	-0.36628727616281076	1.2518522423147354	38.81148067929291
5	2.0	wm	92	diff_vonmises	-0.07870845873946931	-4.5096624977511715	5.6135961183043745	0.5509260452268234	0.032257988515140466	1.9775826776393948	0.18290734715285217	-0.31280716128931774	0.4957145084421699	56.75498544954644
6	3.0	ltm	92	diff_vonmises	-0.11800082713134882	-6.760949373679105	1.57365759797595	1.2121629099387896	0.30371682194767363	1.8803207010753902	0.14426885205718937	-0.20033509701823599	0.34460394907542535	92.44870331466265
7	3.0	perception	92	diff_vonmises	0.04397173235202265	2.5193946816497585	3.7070341624210554	2.304078724287281	0.4005870029908882	2.8053985786752804	1.0583634060973512	-0.3876653921796044	1.4460287982769557	65.90561671158835
8	3.0	wm	92	diff_vonmises	-0.0532567541175678	-3.0513872415026038	3.2962927589253836	0.7018312913607233	1.21361119783486e-12	1.5295641720814959	0.2413844504679237	-0.24277325214948306	0.48415770261740676	75.60546148829212
9	4.0	ltm	92	diff_vonmises	-0.4029197309639395	-23.085600066780327	0.6929796328614063	9.139435747172119	0.4695840725674328	10.514078744553672	0.05387078332263462	-0.34498946600483626	0.3988602493274709	108.89209788637918
10	4.0	perception	92	diff_vonmises	-0.0126910938488229	-0.7271461149419922	2.8512185657492424	2.3675867424682417	0.06274964045747339	3.6704888904746436	0.884720669859076	-0.5467059669418599	1.431426636800936	79.31483350082405
11	4.0	wm	92	diff_vonmises	-0.18678478353903194	-10.701979774051182	0.7917598710303921	178.5890093695773	0.7740940554313519	180.11130490712648	0.1477772211850592	-0.39599750888388385	0.5437747300689431	94.82116915534448
12	5.0	ltm	92	diff_vonmises	-0.007079453377819699	-0.40562279980870336	1.2982985266943599	1.4060135295172382	4.399021388868521e-17	2.1166109171924594	0.22151918390730824	-0.2952515145232345	0.5167706984305427	117.14069828980581
13	5.0	perception	92	diff_vonmises	-0.00031531185479977423	-0.018066038510468892	2.29796669057824	2.100183180920943	0.23796889886202668	2.9346180707622995	0.593363469892257	-0.37169372615550833	0.9650571960477653	83.02665279516523
14	5.0	wm	92	diff_vonmises	-0.018655912312842794	-1.0689050384920384	1.848967018158581	1.4361249995934995	2.0407696610900798e-17	2.111536988240824	0.37037384323212674	-0.31855980773244247	0.6889336509645692	100.66359839956326
15	6.0	ltm	92	diff_vonmises	-0.2960131446633104	-16.960303869603173	0.40257719308481793	77.46910137671468	0.37975235927844575	78.14172354639216	0.17275147863086104	-0.2890647587093502	0.46181623734021127	133.7932518992517
16	6.0	perception	92	diff_vonmises	0.31791454745563363	18.215161815019332	0.14986068773330213	16.78745547652661	1.041013840568147e-10	17.10766446476822	0.36363809187542895	-0.43566049583694033	0.7992985877123693	168.7042017066256
17	6.0	wm	92	diff_vonmises	-0.3607826676875374	-20.671324179966795	0.7314227736848012	78.0915960878049	0.7050780643697427	78.50075840228018	0.2755641611670896	-0.21808792923822384	0.49365209040531344	106.17591550917767
18	7.0	ltm	92	diff_vonmises	0.23386407065749296	13.399424228423621	0.7933168495297677	139.83639300789557	0.7765738887062514	140.75349263382867	0.1727277222471315	-0.2732857729384133	0.4460134951855448	96.98148794143174
19	7.0	perception	92	diff_vonmises	-0.06247358706880622	-3.5794728700856724	2.520889493123667	1.4465531863058774	7.072928008733124e-17	1.8470572894949222	0.5626913985188585	-0.2884316038357477	0.8511230023546061	86.63389955222843
20	7.0	wm	92	diff_vonmises	0.19651885936472752	11.259701236323862	0.5966144065709413	81.03418217303503	0.5762437865672552	81.885434752218	0.08976553766460782	-0.24265518697411181	0.33242072463871963	110.68253114145892
0	1.0	ltm	93	diff_vonmises	0.17603258048551787	10.08592391861715	4.4148591460378235	0.39615530446756747	1.9563478202462413e-15	3.228786036459203	-0.19253617538342604	-0.5138302389702998	0.32129406358687373	65.08008383346859
1	1.0	perception	93	diff_vonmises	-0.05062908479891276	-2.9008328795876532	7.856716929073078	1.1278034825485517	0.10126490281633077	4.069212586694441	0.5249324295882779	-0.6618509718776842	1.186783401465962	47.33508226459983
2	1.0	wm	93	diff_vonmises	0.10943104246670388	6.269936881059014	4.892638238417961	0.3399989523875531	0.024151213655663875	3.89650829838326	-0.343800820043596	-0.618027581787351	0.27422676174375493	59.70466705198726
3	2.0	ltm	93	diff_vonmises	0.02760992214752447	1.5819320117379305	1.0976100464064265	120.51182042642742	1.074854497767377	121.67004218223836	0.10211077107262412	-0.29850518072388255	0.40061595179650666	79.57917578772728
4	2.0	perception	93	diff_vonmises	-0.04189224317324875	-2.4002487281628886	9.172661514703515	1.1324830663987282	0.17873235457046804	2.4273514031177896	0.8901019091332323	-0.40668826349694176	1.296790172630174	43.882731902710475
5	2.0	wm	93	diff_vonmises	-0.005414608327526858	-0.31023420488367826	4.304532529216299	0.6805870155216929	0.17318177679817834	2.630721297292565	0.05038166767902247	-0.4128176980857982	0.4631993657648207	60.804374030229695
6	3.0	ltm	93	diff_vonmises	0.12977386548254585	7.435494783248352	2.2270238189833145	0.8809018047078978	0.3191924118599373	1.6919952653205832	0.1234740594059664	-0.21288386942699106	0.33635792883295745	79.1130345237979
7	3.0	perception	93	diff_vonmises	-0.009198154117608222	-0.527015410249831	3.772610913562022	2.0787077821922115	0.30746480075110477	3.1145457442799027	0.8891133974179307	-0.4488177064808383	1.337931103898769	65.67694941689618
8	3.0	wm	93	diff_vonmises	0.1568313912382929	8.98577681311918	3.465676526986448	0.49109021737439223	0.006269874775961508	2.0457657097458584	0.02124430761901769	-0.32328695915842115	0.34453126677743884	73.18499486291859
9	4.0	ltm	93	diff_vonmises	-0.14836777473255652	-8.500847307923225	1.3260955264285754	1.0267823374252214	1.5863054936954824e-15	2.5471846931418676	0.007551820230493778	-0.3762826219802804	0.3838344422107742	116.07690236664882
10	4.0	perception	93	diff_vonmises	0.029323402238413385	1.680107189225558	0.9252985666867423	475.5907121172009	0.913089308949596	477.51511083497394	0.47893617552884393	-0.6027331620774632	1.0816693376063071	90.33776493899057
11	4.0	wm	93	diff_vonmises	-0.12895331672373786	-7.388480802483956	0.6858247900648753	173.0246111051978	0.6621684827518446	175.71055895353945	0.03414423074822537	-0.6170594311335975	0.6512036618818229	98.83737824289658
12	5.0	ltm	93	diff_vonmises	-0.007330979151002788	-0.42003416505085917	0.966373131720061	79.84476275945504	0.9296762805745957	80.67913705369394	0.28248127505611365	-0.2883735665792502	0.5708548416353638	90.02402076983148
13	5.0	perception	93	diff_vonmises	-0.024909328965086547	-1.4271994202024338	0.9631442076231633	311.7754003263183	0.9468753041225157	312.78125774027734	0.6292713132215226	-0.4571679097930712	1.0864392230145938	91.76217578165202
14	5.0	wm	93	diff_vonmises	0.057098305015695724	3.271491894750025	2.2696447530446004	1.4265596823354454	3.538251053586822e-20	2.5120692223687766	0.3941818972256899	-0.3913271992022891	0.785509096427979	91.25998461812407
15	6.0	ltm	93	diff_vonmises	-0.13987867360812065	-8.014457641633287	0.5580081772564649	33.960095337497364	0.49823905167939236	34.60977359771689	0.2208228535008505	-0.2823931689549912	0.5032160224558417	120.68658009562387
16	6.0	perception	93	diff_vonmises	0.1876233747766129	10.750027512701223	0.0005894842048412039	3604.4481666747934	1.8787851944767848e-24	3605.2138805326636	0.21634635471298225	-0.45998097743927246	0.6763273321522547	178.76680957913186
17	6.0	wm	93	diff_vonmises	-0.3613012114556083	-20.701034549370064	0.9066493484847804	5.661736614761243	0.42671359631969313	6.245758168714229	0.3782786830463345	-0.3209984438752885	0.6992771269216229	110.76887494585516
18	7.0	ltm	93	diff_vonmises	0.1070719480307863	6.134770726408141	0.6356080583938291	120.94075604649917	0.6162621901640555	122.3277175682056	0.07128096657942251	-0.3487340785363706	0.42001504511579313	104.86593647967456
19	7.0	perception	93	diff_vonmises	-0.08043337250355079	-4.608492776457064	2.117643653228124	2.6772903589568227	0.3193126236874258	3.4436137953370944	0.6941505350348905	-0.3966158433745544	1.090766378409445	84.40070505727056
20	7.0	wm	93	diff_vonmises	0.5472629745283616	31.35585872425059	0.3941082731076784	166.99767744911472	0.3820017025873861	168.59405237433555	0.010869583495654922	-0.41758899742535505	0.42845858092100997	128.12477368041803
0	1.0	ltm	94	diff_vonmises	0.24163393684771955	13.844604768504999	0.43832537292024965	123.67966150037859	0.4198715910799587	127.29668561542714	-0.4174013855408525	-0.6457355515673004	0.22833416602644796	104.86358523437264
1	1.0	perception	94	diff_vonmises	0.01883866667891889	1.0793760923557876	11.545377847056974	0.6321871043659799	5.509297673096078e-24	4.758395796187069	0.08995954325320399	-0.7573222120714617	0.8472817553246657	39.910974380209126
2	1.0	wm	94	diff_vonmises	0.08233177430558689	4.717263187533763	3.9786864513846276	0.560196479036007	0.14085521336281215	4.423517076168472	-0.3770717027823665	-0.7042804102570658	0.32720870747469927	60.324318117024404
3	2.0	ltm	94	diff_vonmises	0.06784870439488432	3.887444407257591	1.121920496944809	1.151280261570584	3.313195679463616e-10	3.0877054630493572	-0.07162843706989364	-0.4469039581942884	0.3752755211243948	123.62493339380235
4	2.0	perception	94	diff_vonmises	-0.0702967322602621	-4.027706072074158	12.192074544377029	1.1127913077937623	0.19221398859017383	3.2434081621496396	0.9137231314705648	-0.5626181589110817	1.4763412903816464	38.01240930110848
5	2.0	wm	94	diff_vonmises	-0.04596771277026123	-2.633755935605586	5.004974767128653	0.6394260291795405	1.2816129615743473e-22	3.080215171566636	0.0644754811305302	-0.49020653090848926	0.5546820120390195	61.03155078220192
6	3.0	ltm	94	diff_vonmises	-0.11108807212524612	-6.364877687021488	0.9781054119879046	130.87898970529733	0.9609726902906329	131.84220607439522	0.10319727326358219	-0.2513087204295097	0.3545059936930919	85.03198328644564
7	3.0	perception	94	diff_vonmises	0.04279397176564496	2.4519139707734636	2.819884391605035	3.1802119692435644	0.396280773766892	4.0895904404420875	1.0796344651636356	-0.5115617052224836	1.591196170386119	73.74903070186323
8	3.0	wm	94	diff_vonmises	-0.08907945777468892	-5.103876971803504	3.216554325195303	0.794265539346824	0.1600276546034286	2.0776520163012466	0.15558707907404945	-0.3076195033728009	0.46320658244685037	70.86109841678987
9	4.0	ltm	94	diff_vonmises	-0.0286372654792944	-1.6407944487592558	0.00026927492650256896	2065.2146960848045	2.2172853626068444e-27	2067.304997342708	-0.244169819255319	-0.42118182071692445	0.17701200146160545	179.9622124540709
10	4.0	perception	94	diff_vonmises	-0.009193332193125577	-0.5267391343278446	2.8247425203751635	2.3606759078722757	2.3353270234140304e-18	4.520052873369276	0.7741960535514224	-0.7141313289345808	1.4883273824860033	81.80779792551795
11	4.0	wm	94	diff_vonmises	-0.20648549789183945	-11.830747559859859	0.9067940765696857	4.126468527935024	0.27855341167223996	6.735637721115267	-0.052237194019698396	-0.5801040843902592	0.5278668903705608	107.31930939434154
12	5.0	ltm	94	diff_vonmises	0.06028181638610806	3.4538936603065604	2.574295050429074	0.6497676982689626	1.2381902644732378e-19	2.381447351200684	0.010527534683630546	-0.3767564260371875	0.38728396072081805	85.72933550138589
13	5.0	perception	94	diff_vonmises	0.006286918659404575	0.3602139053259276	2.8223943267305045	1.6285385900695355	2.188093885448729e-17	3.875961610137815	0.4130361291698328	-0.6132363727667816	1.0262725019366143	81.83946396827176
14	5.0	wm	94	diff_vonmises	-0.044310899837311325	-2.538827547104865	1.1906327730375812	2.7027821419667704	0.25088575160511156	4.752151078414383	0.06312483205356412	-0.4899260266810763	0.5530508587346404	101.36003109347247
15	6.0	ltm	94	diff_vonmises	-0.3633493496117723	-20.81838422157797	0.29277388567403445	133.70284555327405	0.27971888490487806	135.49574931697353	-0.05910904840131792	-0.44497115827878453	0.3858621098774666	140.83976045614799
16	6.0	perception	94	diff_vonmises	0.3152143408746152	18.060451374113526	0.17738853138326363	15.827181077826673	8.070589994570084e-09	17.83153914778474	0.14639304967479916	-0.7449491411171643	0.8913421907919634	167.2661208431962
17	6.0	wm	94	diff_vonmises	-0.30928429404988655	-17.72068471874162	0.5291714057061475	4.741268124235514	0.1426003544187454	6.777948220090346	-0.04202688020714285	-0.5156762665131193	0.4736493863059764	137.44339436828983
18	7.0	ltm	94	diff_vonmises	0.692487510741713	39.676611731020415	1.44555062765297	0.6249793704377482	9.304533094706916e-12	1.718841618519006	-0.008843064399184475	-0.2588655724218628	0.25002250802267834	110.09629856403294
19	7.0	perception	94	diff_vonmises	-0.04658010157275663	-2.668843229409643	2.943405011972447	1.2585485063711872	5.7202784899044455e-19	2.813635869191382	0.367537050951689	-0.44554059607835916	0.8130776470300481	80.11099777360991
20	7.0	wm	94	diff_vonmises	1.0775927376263443	61.741515899937795	0.0002914747641944058	1928.0228493853765	3.8539122061655725e-23	1929.6746325059487	-0.17344353800410772	-0.35232232484054293	0.1788787868364352	148.54350872326356
0	1.0	ltm	95	diff_vonmises	-0.030360090507880612	-1.739505051736751	1.4179003325252182	0.599178159006935	1.4806574467602275e-18	2.9364477844956367	-0.21649612802828144	-0.4526317574273091	0.23613562939902766	113.07928233619172
1	1.0	perception	95	diff_vonmises	-0.04886279080914271	-2.799631688594506	10.931429082622808	0.8738421625263805	0.07394079017055989	3.701456003457275	0.5053156231431606	-0.6056917484417417	1.1110073715849023	40.45489484168729
2	1.0	wm	95	diff_vonmises	0.013426797873791203	0.7692988505434634	7.226858306645204	0.35034865812609206	0.028706206824441537	3.096578414644457	-0.13833586655942381	-0.4946832965355748	0.356347429976151	49.629343840676
3	2.0	ltm	95	diff_vonmises	0.011831049902209607	0.6778692266052758	2.9799438894999306	0.611176886526746	2.1923907726021918e-18	1.6690727492828852	0.1331064620498505	-0.26461223224821634	0.39771869429806683	79.60896340347043
4	2.0	perception	95	diff_vonmises	-0.045686079887859866	-2.617619560071884	10.808709557288745	1.001806617417148	0.14610716223154852	2.395315383857597	0.8589077778516119	-0.4021105089961094	1.2610182868477213	40.60510081572971
5	2.0	wm	95	diff_vonmises	-0.09954163151918398	-5.703315371895651	4.54580124723829	0.7129495030658577	0.1915733867483356	2.3767731964318513	0.1334809352949568	-0.37402253414664033	0.5075034694415972	59.55365209904343
6	3.0	ltm	95	diff_vonmises	0.025858578275914756	1.4815873994185924	1.8910861849564906	1.2280441718002546	0.4584293888992879	1.8250263799723336	0.1761946677160549	-0.18836016608080078	0.3645548337968557	82.4489270439073
7	3.0	perception	95	diff_vonmises	0.012645930762834979	0.7245584607250979	3.547383418497164	2.7250466320765367	0.5415948770234631	3.4876487878937943	1.0733773302419585	-0.4647653653410977	1.5381426955830562	65.32530443269695
8	3.0	wm	95	diff_vonmises	-0.05908337365593809	-3.3852279498796856	3.442828565050932	0.6532098706942162	4.157904542482462e-13	1.7810945670917606	0.17884323069865138	-0.282997287683392	0.4618405183820434	73.9440599205935
9	4.0	ltm	95	diff_vonmises	-0.301170676306568	-17.255808665467008	1.3775201314250913	1.3357432405639182	0.139386226858022	2.7645045916921864	0.046252970440278096	-0.34612666103148826	0.39237963147176635	102.67496359504781
10	4.0	perception	95	diff_vonmises	-0.013002817622511386	-0.7450065715482337	2.1318563056697526	3.160105745839962	0.2656667601422794	4.670961129482114	0.7414227579863458	-0.571258119083202	1.312680877069548	84.45051491639492
11	4.0	wm	95	diff_vonmises	-0.19971914247750952	-11.44306395193326	0.845931226017387	232.15274024096027	0.8303854535253313	234.05497243756767	0.10018065475142635	-0.4590124505009747	0.5591931052524011	89.92248643457849
12	5.0	ltm	95	diff_vonmises	-0.007490384738202527	-0.4291674324282088	2.0579030032594146	0.9330070969896276	9.182973377484691e-15	1.4243032728255642	0.26297608606273404	-0.21869624859534423	0.48167233465807824	95.71169121873405
13	5.0	perception	95	diff_vonmises	-0.008129883008929107	-0.46580798434675635	1.0331718390334776	188.51873002548467	1.0082120813089683	189.2848280423236	0.6254227841195217	-0.39694639849299485	1.0223691826125165	89.47110010150155
14	5.0	wm	95	diff_vonmises	0.006700850764086513	0.38393046792917007	2.350130311009598	1.2142889158315784	8.349132962180022e-17	1.9199955105979805	0.3843966018283577	-0.2993022504032957	0.6836988522316534	89.71278445334235
15	6.0	ltm	95	diff_vonmises	-0.284385623880107	-16.29409600252497	0.5290058122861485	132.88254555701815	0.5153285163109002	133.43484824868258	0.20294744166226053	-0.25018689950270634	0.45313434116496687	121.29171746958531
16	6.0	perception	95	diff_vonmises	0.21921433127571655	12.560055990881242	0.46720914490807813	5.03643071606351	8.691904955858288e-16	5.4166604260766595	0.34979040166258657	-0.3860318879986488	0.7358222896612354	152.99997850908397
17	6.0	wm	95	diff_vonmises	-0.24624034146453072	-14.108532311777855	1.704614390709699	1.28830484284839	0.12057335575899546	1.6905616316931256	0.30069918606270113	-0.21769079538790218	0.5183899814506033	99.08750599224439
18	7.0	ltm	95	diff_vonmises	0.24299592494946276	13.922640938481917	1.1761394693928677	132.9468798047009	1.1595352394813987	133.5257676881151	0.194526031109433	-0.19750291708516876	0.39202894819460177	80.72037675167982
19	7.0	perception	95	diff_vonmises	-0.028769706562238557	-1.648382763846098	1.759511286996555	1.7886647882987967	5.312170671912755e-19	2.3304790488792095	0.48277324455269394	-0.34561241340241405	0.828385657955108	102.98219686385326
20	7.0	wm	95	diff_vonmises	0.13738142820902324	7.871376019856544	1.2008549860461697	0.9181253777576045	3.2070797514236978e-12	1.7940829683017492	0.06270212449255907	-0.2539994000802832	0.3167015245728423	120.53270989218512
0	1.0	ltm	96	diff_vonmises	0.11773812943444491	6.745897904358704	1.9247100269709385	0.5959623829166742	1.34261495665276e-22	3.0387444819784375	-0.18324826351396356	-0.47723518501793016	0.2939869215039666	98.76804841458707
1	1.0	perception	96	diff_vonmises	-0.0669026272726302	-3.8332381810585483	13.549875521904564	0.729685464903192	1.9553833664019306e-23	3.514751166047726	0.5018687235674719	-0.5593900218126932	1.0612587453801652	36.817694735159705
2	1.0	wm	96	diff_vonmises	-0.010127873359501929	-0.5802843989424429	3.6005711500646025	0.8924293290445691	0.21770391712101836	3.569957530824119	-0.05053758210284298	-0.5501614692400624	0.4996238871372194	63.94773825330756
3	2.0	ltm	96	diff_vonmises	-0.08214569796600732	-4.70660179860861	2.393687398640719	0.8263388015330518	7.982991327642212e-17	2.317264898704936	0.10587598812460663	-0.3648477842059395	0.47072377233054613	88.8940671012945
4	2.0	perception	96	diff_vonmises	-0.054138940948284045	-3.101932823644667	10.080598802640937	1.0288984088661783	0.0626107382417311	2.7275193415861243	0.8245798682934022	-0.441646113843524	1.2662259821369262	42.35445316900038
5	2.0	wm	96	diff_vonmises	-0.09345981383144197	-5.354852886620021	5.510232397357384	0.6452766281203548	0.08633365508484876	2.4033992001690216	0.17287853945843346	-0.38136430374158004	0.5542428432000135	56.195757590863025
6	3.0	ltm	96	diff_vonmises	-0.10858816072344281	-6.221643314541525	1.1388668563046855	3.6081196262902617	0.4401124744456842	4.671581220883658	0.2264109299493915	-0.3297975292916701	0.5562084592410617	98.66168031064016
7	3.0	perception	96	diff_vonmises	0.02564290635740298	1.469230308728378	2.96443592613892	3.254861519336401	0.4177709701584972	4.2254711080010345	1.1390405958963887	-0.5367601870914145	1.6758007829878032	71.86672989147849
8	3.0	wm	96	diff_vonmises	-0.11831031409092212	-6.77868167027699	2.6643993579331395	1.2756849292650132	0.21333425096968484	2.5799315810692827	0.2778236485658305	-0.35713265763362917	0.6349563061994596	76.51173991844448
9	4.0	ltm	96	diff_vonmises	-0.14348763762642097	-8.22123604829647	0.810499822945002	1.8087620878273045	4.777428634386624e-22	3.662982123090003	-0.03013767889461505	-0.47368258946709185	0.4435449105724768	136.68455573536724
10	4.0	perception	96	diff_vonmises	-0.04563386440810422	-2.6146278334566344	2.506350028613764	2.5815976675652896	0.006248956783380166	4.470877259970289	0.8076608581890103	-0.6969847148790541	1.5046455730680646	86.60561769800034
11	4.0	wm	96	diff_vonmises	-0.26539745850573615	-15.206154265877073	0.836683156064583	166.55502171137584	0.8158656973594508	168.57334144520053	0.04297589643119437	-0.46380701103623423	0.5067829074674286	89.17759884775595
12	5.0	ltm	96	diff_vonmises	-0.05421696410142744	-3.1064032210240864	1.210599351314719	1.3745661831040532	2.4737122161995633e-16	2.1388433583474167	0.18342957685342404	-0.29388266184435063	0.47731223869777467	120.28646024241284
13	5.0	perception	96	diff_vonmises	0.018638329109187196	1.0678975951322536	2.007325800694188	2.4565397864103815	0.21962856002084907	3.4265136098080498	0.5989216263324229	-0.4211344191005483	1.020056045432971	88.39130500797958
14	5.0	wm	96	diff_vonmises	-0.09627360089080779	-5.516071009570209	1.8859244343096604	1.4110721627638985	0.11369318670163708	2.3706519213165405	0.2810926479619079	-0.32001026574840385	0.6011029137103118	93.70365764261248
15	6.0	ltm	96	diff_vonmises	-0.31575411336817133	-18.091378059891543	0.596339601746373	2.148853610619412	3.2979988807509732e-18	2.99643924449261	0.09225397055756629	-0.3042129661391366	0.3964669366967029	145.84728670366457
16	6.0	perception	96	diff_vonmises	0.16473090213413316	9.438385447668436	0.6304252897683019	3.7353002351401003	1.3883772993939588e-17	4.397660377409347	0.3135436182356137	-0.412673173050332	0.7262167912859457	145.09034471915334
17	6.0	wm	96	diff_vonmises	-0.09176403370932387	-5.257691842640474	1.0168459650548294	2.0824547368268096	0.31259908707896433	2.935788547905066	0.09483323766850349	-0.2401848421625264	0.3350180798310299	106.61118738479996
18	7.0	ltm	96	diff_vonmises	0.3544665393825078	20.309436685225478	1.4756470710779936	97.31858020428979	1.4543841974698455	97.81991731656599	0.15145170605504887	-0.17315836949761199	0.32461007555266086	71.23957988918872
19	7.0	perception	96	diff_vonmises	0.046951255393704795	2.6901087769001273	1.3960135129970206	2.066730495855413	6.2259001409479825e-15	2.9821827872135023	0.38256818225144273	-0.4220835014220947	0.8046516836735375	113.78807996976892
20	7.0	wm	96	diff_vonmises	-0.11873636607119747	-6.803092650599959	0.0002604512709157433	2104.333285353154	1.8288275203956743e-32	2105.1912074463626	-0.04930832901033	-0.22376539564339737	0.17445706663306737	179.58209630754584
0	1.0	ltm	97	diff_vonmises	0.0698586179575611	4.002603971585074	0.7960967515127091	0.8450750718429869	1.702853437578331e-19	3.0531123792340495	-0.2299454552733709	-0.4338329579375121	0.20388750266414118	137.47900187667543
1	1.0	perception	97	diff_vonmises	-0.028011326394174783	-1.6049307809496216	11.679417791256524	0.7426600733141661	0.02096165398864856	3.37830492995432	0.45197032842122176	-0.5412358000172954	0.9932061284385172	39.50393419599564
2	1.0	wm	97	diff_vonmises	0.05084114195322305	2.9129828595451874	4.9530138652618545	0.48354393262111695	0.10064047176682894	3.0549893063140026	-0.11914753323010147	-0.4871782490630543	0.3680307158329528	57.49923298465953
3	2.0	ltm	97	diff_vonmises	0.060772732916776144	3.4820211056070463	2.1497243837596525	0.6786439889589417	3.6755294715458156e-16	1.9076682976054629	0.06201958051168199	-0.29865021634840333	0.3606697968600853	93.71308645511206
4	2.0	perception	97	diff_vonmises	-0.033644661342432526	-1.9276970980683383	9.296963653919834	1.1424115036560645	0.15815766517328242	2.742264227522802	0.8618990210441826	-0.45747432213541933	1.319373343179602	43.60628461850757
5	2.0	wm	97	diff_vonmises	-0.06358085305687226	-3.6429145380002392	4.998526069018252	0.6620449957811093	0.13459660907425977	2.545489105175289	0.11253481431511114	-0.40379553058988804	0.5163303449049992	57.78674052944842
6	3.0	ltm	97	diff_vonmises	0.03591888006294217	2.058000232443183	0.916112806999194	89.40419412837994	0.8940767598150224	90.0465827319886	0.16854014917259974	-0.20496020447662744	0.3735003536492272	91.26002904950545
7	3.0	perception	97	diff_vonmises	0.029051576371454932	1.664532714286354	2.994406374507225	3.478512181684122	0.6390456848647048	4.235363169860881	1.1196696030254114	-0.4976597140444087	1.61732931706982	68.99464240034055
8	3.0	wm	97	diff_vonmises	-0.11136606248040452	-6.380805361117408	3.2676486842547834	0.6888075881932276	1.1527684212313733e-12	1.9140201462833497	0.16883908573696654	-0.3039385299602836	0.47277761569725013	75.94789887264685
9	4.0	ltm	97	diff_vonmises	-0.2577324580228193	-14.7669820882402	1.7590065198740696	0.701643022704231	4.1551459993406473e-22	2.318265935883836	-0.03414082434758514	-0.35903292113524843	0.3248920967876633	102.85313120209625
10	4.0	perception	97	diff_vonmises	-0.0012046772838792993	-0.06902292404156722	2.267374986038217	3.1227283138210105	0.26743835986645786	4.948384907883475	0.7261641272756021	-0.6231846557247095	1.3493487830003117	81.812916627567
11	4.0	wm	97	diff_vonmises	-0.3214393993454386	-18.417120951713866	0.7797444627902772	145.63743043423187	0.7561282368651749	147.84909486471966	0.0036968526670833057	-0.4925530527901305	0.4962499054572138	91.58510301709757
12	5.0	ltm	97	diff_vonmises	-0.014860154604391652	-0.8514241417435392	2.0753194947014992	0.7208933756246052	3.918379260040354e-17	1.2459137078724178	0.18199164390576172	-0.19230210052770838	0.3742937444334701	95.32119158574378
13	5.0	perception	97	diff_vonmises	-0.01254564347391948	-0.7188124223314307	1.6355182929038627	4.075324525725842	0.49318416610512894	4.876430441012489	0.6634419369046203	-0.4118686794475603	1.0753106163521806	88.8892240315158
14	5.0	wm	97	diff_vonmises	-0.0005576843361421987	-0.03195295876150311	2.556842790977926	1.0141457995662786	2.871751205674073e-16	1.9441891826462283	0.2962037290830956	-0.30578512496219484	0.6019888540452905	86.01765816311274
15	6.0	ltm	97	diff_vonmises	-0.3381701224678123	-19.37572077482782	0.409861924335669	113.40086890577463	0.39745151654924066	113.9915259672364	0.12386690211164364	-0.23285695532146278	0.3567238574331064	131.84754867287188
16	6.0	perception	97	diff_vonmises	0.15719460828986045	9.006587617221188	0.8387307561147471	2.9507737915961108	4.7359197699045114e-15	3.4448952651128577	0.3695347660091316	-0.3767820178504896	0.7463167838596212	135.3065672550889
17	6.0	wm	97	diff_vonmises	-0.1350346336598657	-7.73691459680551	1.9083664840809196	0.8179022657174468	3.3541098504228953e-19	1.496604014221771	0.17192848484530066	-0.22916909636680588	0.40109758121210654	99.16337853113943
18	7.0	ltm	97	diff_vonmises	0.32559424463042413	18.65517605107337	1.388380520640614	104.54519121753995	1.3708452898501822	105.01210360560627	0.13689454233472276	-0.15719524129517026	0.294089783629893	73.46948536738407
19	7.0	perception	97	diff_vonmises	0.028213841767421314	1.6165340571231646	1.465573323543602	1.977805772188133	6.0287217637360235e-16	2.740329170667852	0.4085739713106268	-0.39108060505424325	0.79965457636487	111.53929683378423
20	7.0	wm	97	diff_vonmises	-0.02058344648497286	-1.1793446114223343	0.0021028860026370342	308.4897157306061	2.2882425627839783e-14	309.44148210890626	-0.04817780106136382	-0.25467029057288926	0.20649248951152543	179.86768482533392
0	1.0	ltm	98	diff_vonmises	0.3929719582105301	22.515634672454734	0.5911073253577356	96.65986215186348	0.571326321944739	98.90916903607615	-0.2239473983250555	-0.41468728131820676	0.19073988299315126	93.48047741615952
1	1.0	perception	98	diff_vonmises	-0.02862259724787593	-1.6399540210060564	8.104145062921893	0.9399652195629838	0.03906459568907717	3.336295500666469	0.49791827442082115	-0.5335906824020396	1.0315089568228606	47.25704450880369
2	1.0	wm	98	diff_vonmises	-1.410715861138255	-80.82806493538553	19.093085837602917	0.12148974875244872	0.13412420032196973	3.0289033176108426	-0.33844376887048605	-0.5297295541743302	0.19128578530384416	29.469420958478736
3	2.0	ltm	98	diff_vonmises	0.3141221605987342	17.99787405383811	0.554239600598068	109.83399711677863	0.5407577916247939	111.05618745852216	-0.03227883052963776	-0.2679295332877647	0.23565070275812694	107.44937205054265
4	2.0	perception	98	diff_vonmises	-0.031111394772561453	-1.7825516152331429	7.22743279625113	1.675908047053997	0.42417092396690453	3.2625949658418634	1.0049425971961434	-0.5680636707226349	1.5730062679187782	47.75190974103407
5	2.0	wm	98	diff_vonmises	0.06994892353463027	4.007778100017631	1.434672595945316	4.345956357416352	0.6942289185700575	7.1259116103881155	-0.1874353110269531	-0.5782875501557048	0.39085223912875167	73.7890806879276
6	3.0	ltm	98	diff_vonmises	0.2812164943199058	16.11251825399529	1.445149197210605	107.52479863574025	1.423549801939	108.13587579866748	0.15528806087655056	-0.20072229199060665	0.3560103528671572	71.50857308077482
7	3.0	perception	98	diff_vonmises	-0.0547531625075807	-3.1371251266783093	1.3242518442256506	308.6867117372986	1.3004038022539448	309.97986899720456	0.8211777034254624	-0.5735114026824313	1.3946891061078937	77.89560596039934
8	3.0	wm	98	diff_vonmises	0.052093045546521936	2.984711651798476	2.6944294807849154	0.606776006375034	0.4386531941626539	2.5829398273901885	-0.23424764998493103	-0.39302924826032254	0.1587815982753915	60.44848930470354
9	4.0	ltm	98	diff_vonmises	0.451099440431642	25.846094077446175	0.9307158275745899	5.387925806275111	0.5948743401760923	7.107441380064908	-0.11023093318407362	-0.3417738377681737	0.2315429045841001	86.96070870531878
10	4.0	perception	98	diff_vonmises	0.03319301177712603	1.901819484157358	0.8732439853697191	391.4118122181263	0.859703105152967	393.8768855539395	0.23423056261513864	-0.6328929584766101	0.8671235210917487	89.83926258755483
11	4.0	wm	98	diff_vonmises	-0.24591716722113807	-14.090015791584122	0.6861244818480736	165.1231903919223	0.6632196449356146	168.74186787626047	-0.2844214082566694	-0.6977924033786742	0.4133709951220048	90.17948031859801
12	5.0	ltm	98	diff_vonmises	-0.07178690660893378	-4.113086772991702	1.4102830683656375	158.69844604103926	1.3906699869527432	159.75177689299446	0.11959574928050642	-0.2996185972294221	0.4192143465099285	70.15099505492458
13	5.0	perception	98	diff_vonmises	-0.03088698249373901	-1.769693738785704	0.898548258056774	367.94701639591096	0.8827106715755616	369.65331077239887	0.565296151030168	-0.5919161329994225	1.1572122840295904	92.88954601263933
14	5.0	wm	98	diff_vonmises	0.2113308236959106	12.108364278798968	4.11401297441351	0.8033156529673035	0.06283004122290378	2.9328157795913508	0.13061264491549535	-0.4566047252850045	0.5872173702004999	65.09830417211347
15	6.0	ltm	98	diff_vonmises	-0.12066728836679054	-6.913726348705154	0.8318644547830729	134.935031943427	0.812979142496823	136.21627662126738	0.09431683296784144	-0.31961456491275975	0.4139313978806012	91.61790484386579
16	6.0	perception	98	diff_vonmises	0.03664013850838485	2.0993252973052154	0.2948468080896388	187.91771075145135	0.28136809708269606	189.9336185027392	0.03482616354705215	-0.5756784488513738	0.6105046123984259	143.66601085428246
17	6.0	wm	98	diff_vonmises	-0.14964412220749335	-8.573976631429284	2.048404053690143	1.1867574189164152	0.008049541667024106	3.1060913654472038	0.12276290776309967	-0.4800512800857167	0.6028141878488164	95.26303150481493
18	7.0	ltm	98	diff_vonmises	-0.5694791646367131	-32.62875265431942	1.8557615535614844	135.82350932305764	1.8305167166432468	137.18313409403103	-0.08757139953705795	-0.3805189511415854	0.29294755160452746	45.38923645289901
19	7.0	perception	98	diff_vonmises	-0.1112537412794509	-6.374369830352924	0.8718342273839726	200.77720983734952	0.8457936234358748	202.62284426782617	0.42080147723636685	-0.5693505013997573	0.9901519786361241	93.25393241328159
20	7.0	wm	98	diff_vonmises	1.445390240773399	82.81476054571364	0.12966836078937338	103.41232020876878	0.11854486901856393	105.81280238873745	-0.2349420049042763	-0.509215398963665	0.27427339405938866	121.45259145604734
0	1.0	ltm	99	diff_vonmises	-0.0011965602150823204	-0.068557850257483	1.5194900203473645	0.6485151381278669	1.6202187276098293e-23	2.139570295116501	-0.057410649147419335	-0.3269666820246693	0.26955603287724994	109.85506315453922
1	1.0	perception	99	diff_vonmises	-0.10756034242998466	-6.162753664220035	11.833046283761576	0.9122333151428929	1.7747126122055702e-19	2.630163047304201	0.8194578186084807	-0.41860345005083366	1.2380612686593144	39.42126339839686
2	1.0	wm	99	diff_vonmises	0.02009146522273381	1.1511561614965178	5.404837148990217	0.4747129456754181	0.015940857279190417	2.1567041629811023	0.0802757396131169	-0.341564253501459	0.42183999311457593	58.094373790324255
3	2.0	ltm	99	diff_vonmises	-0.06701914583273827	-3.839914202787682	2.157939729115073	0.939164857994533	0.12965735406366893	1.8069651904653716	0.1811604726536814	-0.24889109261212863	0.43005156526581	86.90023114813789
4	2.0	perception	99	diff_vonmises	-0.03799118960082957	-2.176734822808837	8.43707843407718	1.1930980286813508	0.1852626677002898	2.1707376431865733	0.9485309366191945	-0.3602860369343144	1.308816973553509	45.77507828312997
5	2.0	wm	99	diff_vonmises	-0.0858282615267453	-4.917597148427565	6.868319208549908	0.5035662578776302	0.21711395745714127	1.587950599340203	0.20582344132031904	-0.26406629219592875	0.4698897335162478	49.43709375082426
6	3.0	ltm	99	diff_vonmises	-0.023950347288488178	-1.3722538175029677	0.9744808885390712	117.30743648844415	0.9531724871310135	117.91341858143556	0.2725158190596275	-0.23421515515805957	0.5067309742176871	90.25517074662883
7	3.0	perception	99	diff_vonmises	0.02050529635440165	1.1748669387722077	2.671635273436773	3.5413149435861873	0.6312202352852871	4.115631320878421	1.0523845170589339	-0.4447279282705481	1.497112445329482	72.57255817716984
8	3.0	wm	99	diff_vonmises	-0.06804035434979462	-3.8984251408178245	2.5414333112155365	1.3177286393730114	0.5189208659239773	2.1129956780710795	0.2553019059867908	-0.253055252522584	0.5083571585093748	72.51011769739728
9	4.0	ltm	99	diff_vonmises	-0.20924438742934554	-11.988820286501756	2.9451772814648813	0.7841013771663278	6.612613615815137e-26	2.0630111832528195	0.17983553828709903	-0.32693282025422815	0.5067683585413272	80.07070944704064
10	4.0	perception	99	diff_vonmises	-0.05502891762680397	-3.15292473118893	1.1147696073587308	17.796398814760202	0.7823094683389737	19.143050185866468	0.7173829522102428	-0.5648838983003599	1.2822668505106027	91.72015342307463
11	4.0	wm	99	diff_vonmises	-0.3110886652361698	-17.82406757239066	1.2147198351779933	161.38918904428803	1.1940370776689904	162.698945292643	0.12105249196667955	-0.3468742772263411	0.4679267691930207	75.4676024977917
12	5.0	ltm	99	diff_vonmises	-0.07337040462664993	-4.2038145262741695	1.4470998451313914	1.021337280275546	1.4868840876632092e-14	1.4382990102769064	0.20397566506187711	-0.20495450490232062	0.40893016996419773	112.11540755655939
13	5.0	perception	99	diff_vonmises	0.030270084817074706	1.7343481055214132	1.0986647604528172	126.67218756541159	1.0654605069089333	127.17582318144215	0.6107850957653937	-0.3298904280736892	0.9406755238390829	87.81397749517132
14	5.0	wm	99	diff_vonmises	-0.05440624288042324	-3.117248096211935	0.7997953422476408	102.50688939364746	0.7770720702296097	103.01016960717809	0.29421289040536536	-0.23620626362704122	0.5304191540324066	100.88608738500848
15	6.0	ltm	99	diff_vonmises	-0.36151294973367254	-20.713166259064515	1.2317418623798604	1.1725167942984172	2.5974221779179783e-16	1.863286857176592	0.1548447800782572	-0.25811924031374084	0.41296402039199803	118.82715849328645
16	6.0	perception	99	diff_vonmises	0.1879957515516184	10.771363130297733	0.7737020129600926	2.7958154634021435	4.404278442259416e-17	3.3124498207866133	0.30769506956391557	-0.3495267104090857	0.6572217799730012	138.1460689554734
17	6.0	wm	99	diff_vonmises	-0.14953447161843678	-8.56769411545522	2.697407440544518	0.5801613171229397	1.4708796699366955e-15	1.1134305744210489	0.18020527916455123	-0.1755850525931975	0.35579033175774877	83.73017823451846
18	7.0	ltm	99	diff_vonmises	0.20036237012153055	11.479918181201807	1.4566397377152025	158.98238530460853	1.439259355863654	159.6831295052812	0.19246088796121796	-0.23527355587723164	0.4277344438384496	71.39567989249909
19	7.0	perception	99	diff_vonmises	-0.04291825221219352	-2.4590347158366974	1.5591149547300966	1.919302980021749	1.4662418036208404e-16	2.408149335798496	0.4677652072190097	-0.3456192702438583	0.813384477462868	108.65040676471769
20	7.0	wm	99	diff_vonmises	-0.1168013609628297	-6.692225024554231	0.0002439900097879742	3010.2779643038266	9.41207538034054e-31	3010.950355435058	0.009886835120482829	-0.22390131969751792	0.23378815481800075	179.5965492973791
0	1.0	ltm	100	diff_vonmises	0.33509877982866115	19.199745804165886	0.759840258885951	209.71300162487697	0.7439587424478024	212.59782728335566	-0.20926611822633845	-0.5665799824691788	0.3573138642428404	86.05965481801556
1	1.0	perception	100	diff_vonmises	-0.07289153415074667	-4.176377269071492	8.38390616234629	0.9817596959543871	2.434323863225731e-17	3.772546988209958	0.5156716914150477	-0.6004194429338467	1.1160911343488944	46.9293771084468
2	1.0	wm	100	diff_vonmises	0.11007297627758113	6.306716979149029	4.192397861953704	0.3840722851469319	0.09141497623193587	3.6630240062235786	-0.334533682172507	-0.5821650089267877	0.24763132675428068	60.4838431315182
3	2.0	ltm	100	diff_vonmises	-0.017869489472856333	-1.023846328848122	0.7408460477522101	157.68498148463996	0.7253776237741866	159.3181097235082	-0.0071708694203493906	-0.36050843744319394	0.35333756802284455	93.46796119723476
4	2.0	perception	100	diff_vonmises	-0.054848225724651485	-3.1425718478034015	8.213895359191534	1.4148475540884797	0.2662987068548693	3.004435602539646	0.9783491844859099	-0.5122396927784724	1.4905888772643823	45.782062436661846
5	2.0	wm	100	diff_vonmises	0.004840248319293721	0.27732580049082034	6.06630060128912	0.5135741434372154	0.09102797951035109	2.791059984111808	0.007723426717965498	-0.44850580902880577	0.45622923574677127	53.047634799320804
6	3.0	ltm	100	diff_vonmises	0.06171419696991049	3.5359630224149248	1.0718198793422864	215.78194860682535	1.0586092176537623	216.8878465999506	0.14567153747958628	-0.29971098150595665	0.44538251898554293	81.52931509505643
7	3.0	perception	100	diff_vonmises	-0.027083827100636247	-1.5517889859284981	1.6359274700450703	7.135962279409839	0.7285355774379777	8.351513778259424	0.8361524888760528	-0.5529734994581184	1.3891259883341711	83.17616474926967
8	3.0	wm	100	diff_vonmises	0.03800851294427936	2.1777273772755654	2.139628169923193	1.6619592984821372	0.6272039065966087	3.287828696218335	0.0028996386705706367	-0.37770875260490466	0.3806083912754753	69.80573412207826
9	4.0	ltm	100	diff_vonmises	0.32636548089923173	18.699364634283462	1.9562948342125652	0.7090387479336447	0.07480891857044644	2.6087119463885062	-0.08589881963448198	-0.3806457025468763	0.2947468829123943	89.84427505974202
10	4.0	perception	100	diff_vonmises	0.001654493100370024	0.09479547188471688	0.8074612649815152	420.5122769071474	0.7937198661088223	422.93092252388874	0.3719859596348982	-0.6829648056703022	1.0549507653052004	95.24794337680461
11	4.0	wm	100	diff_vonmises	-0.16981824417838898	-9.72986867574375	1.0354771759958339	5.027072133313395	0.4468299560420165	7.826798547386153	-0.10225656855268817	-0.5813033537987653	0.47904678524607713	92.31494828400118
12	5.0	ltm	100	diff_vonmises	0.04668297651000681	2.6747375291317512	0.95869980519067	160.83222594486787	0.9389820767697262	162.49576143661642	0.05306759773759495	-0.3912512835261275	0.44431888126372243	83.39942713613615
13	5.0	perception	100	diff_vonmises	0.009871127022744267	0.5655739174407842	2.0532403673007105	2.3907417396616553	0.15189459085411336	4.328628466036462	0.45567055300341486	-0.5783985306815507	1.0340690836849655	88.19208829865497
14	5.0	wm	100	diff_vonmises	0.009976494655883307	0.571611038116934	1.1829916624922328	2.988262646640547	0.3003099710442202	4.976700921964656	0.07773526432927014	-0.4776374949778114	0.5553727593070815	99.20500260865157
15	6.0	ltm	100	diff_vonmises	-0.08596188994919891	-4.9252534930571485	1.9797960640967445	0.9537646412284873	0.05969720784063755	2.7841273655736316	0.019074064179828154	-0.40825888388931053	0.4273329480691387	92.09793003105582
16	6.0	perception	100	diff_vonmises	0.19886585255443706	11.394174040640165	0.00044712368246610875	4505.863183778966	1.86745009536866e-30	4508.143813335646	-0.042299237269162404	-0.6835760199257948	0.6412767826566323	178.64093614341834
17	6.0	wm	100	diff_vonmises	-0.28398450639182826	-16.27111366335771	0.49270478411793084	74.53726405767952	0.45667870850403164	76.63545067693647	-0.0009713911455584423	-0.5104612608943473	0.5094898697487888	118.26575508961525
18	7.0	ltm	100	diff_vonmises	-0.22035376576558807	-12.625340778182522	0.9333114229576384	106.08094962198345	0.9107749807681847	107.90340689778118	-0.13710460387642343	-0.3691968876628984	0.23209228378647495	77.32420937075429
19	7.0	perception	100	diff_vonmises	-0.10464506704489918	-5.99572068853626	3.6173780906320467	1.462967700603658	4.019557633555059e-15	3.246526429627688	0.5476445948030058	-0.5159332477206532	1.0635778425236588	72.08427161382673
20	7.0	wm	100	diff_vonmises	1.4543430194648708	83.32771697964962	0.00031488470288153474	2987.8980654664647	1.2981111414746552e-32	2990.0874750556713	-0.19870614535665254	-0.4981809979381069	0.29947485258145434	126.43150684427269
0	1.0	ltm	101	diff_vonmises	-0.5569414124216514	-31.910392367815586	0.33012531226750047	2.6100278501384984	1.6881160174497313e-16	4.378166186133213	-0.13435709567803988	-0.40617652847253555	0.27181943279449566	155.22980752734924
1	1.0	perception	101	diff_vonmises	-0.09179110367408053	-5.259242837372598	11.363798576494988	0.9750548844033146	0.03681929679235926	3.1983090831352987	0.7681669614231268	-0.5150066948970108	1.2831736563201375	39.99807067216241
2	1.0	wm	101	diff_vonmises	0.1081423817913862	6.196102063138833	2.2844437951848104	0.7620889977979931	2.850094452968369e-20	2.6669843650650793	0.001347765651684929	-0.42004817915794407	0.421395944809629	90.96031752778183
3	2.0	ltm	101	diff_vonmises	0.1059331116613908	6.069520208885777	2.4301991260052556	0.8493399809586771	0.16712092835830017	1.5255483307082982	0.20732062286760344	-0.20915505549760935	0.4164756783652128	81.60956136614695
4	2.0	perception	101	diff_vonmises	-0.03547212701023709	-2.0324031680385963	9.540242798812141	1.203754975273922	0.3774564498596155	1.858201361705096	1.0464515772834608	-0.3324286378917394	1.3788802151752002	42.584989975915136
5	2.0	wm	101	diff_vonmises	-0.029607799102755513	-1.6964019292591166	8.171697870787058	0.3938907702134705	1.23036149873916e-17	1.1883421025664627	0.25272152998173847	-0.18913048442755856	0.441852014409297	47.54510433688142
6	3.0	ltm	101	diff_vonmises	-0.06485445540290005	-3.715886577205592	2.973079126560541	0.45455887279419915	2.6260651732337844e-15	0.8822040643479205	0.15577182306524087	-0.13963231513495078	0.2954041382001916	79.70114632538579
7	3.0	perception	101	diff_vonmises	0.024164361664558685	1.3845159380069334	4.777567919870534	1.8440062269562956	0.35458634640922254	2.1047253209414274	1.0975638444734779	-0.31557323023165434	1.4131370747051322	59.42204589302901
8	3.0	wm	101	diff_vonmises	-0.012398041188833775	-0.7103554343495331	3.2881606768088374	0.5476863792234159	1.6523030275058947e-15	1.0821669179926088	0.20556758044501813	-0.17170590847272602	0.37727348891774415	75.70423376987674
9	4.0	ltm	101	diff_vonmises	-0.44532964815281983	-25.515509331202495	1.6484945551026828	1.3290299842159954	0.14145509844579976	2.3914858270236716	0.17335379345828567	-0.30693417195251305	0.4802879654107987	97.12825283839906
10	4.0	perception	101	diff_vonmises	-0.025083579619144564	-1.4371832472573525	3.1632973147109777	2.0447427351128917	9.419655736779644e-18	2.890214376956531	0.9199983067182609	-0.4575238723080008	1.3775221790262617	77.22067237427305
11	4.0	wm	101	diff_vonmises	-0.17936003242779103	-10.27657287144201	1.1023593864850003	178.0896473668933	1.0831020096948847	179.27530878059866	0.21891200935469612	-0.34285120301368366	0.5617632123683798	81.51128135775764
12	5.0	ltm	101	diff_vonmises	-0.12001738794033744	-6.876489797165639	1.1745969781029013	1.3809726710847825	1.6720918415361295e-19	1.7354574141991967	0.24087760903896194	-0.22685270114322242	0.46773031018218436	121.56665033827686
13	5.0	perception	101	diff_vonmises	0.01982936106535974	1.1361386994861509	1.2743379916756328	26.89629514497019	1.1230228379566285	27.25599824621016	0.6205189579123296	-0.2948656857765588	0.9153846436888884	84.05083551428962
14	5.0	wm	101	diff_vonmises	-0.0002918942946900926	-0.01672431114969022	0.7061633080125952	88.08473970535576	0.6795759257188543	88.26556477521164	0.3954787877624426	-0.23322040671417454	0.6286991944766172	110.63556815609721
15	6.0	ltm	101	diff_vonmises	-0.4123367422305476	-23.625155067984117	0.6124828762773162	57.17604248368007	0.5793470613698767	57.5546163593053	0.2593678897746212	-0.22691461912077227	0.4862825088953935	116.02823560400536
16	6.0	perception	101	diff_vonmises	0.33318618561683644	19.090162227907182	0.5197450566849415	4.942210853731724	4.482315618002314e-18	5.211496921383091	0.4082628907157094	-0.3917415258664693	0.8000044165821787	149.26299233726672
17	6.0	wm	101	diff_vonmises	-0.27869781903677193	-15.968208790307802	2.9063617356079106	0.9113014687909958	1.4102088581081545e-15	0.9495912547045733	0.43501113406743475	-0.14937999547322386	0.5843911295406586	80.60488754326316
18	7.0	ltm	101	diff_vonmises	0.1327365810759434	7.605245882647629	1.0400990108931756	251.85443504687126	1.0273454246715443	253.15949532697223	0.15301895160210677	-0.3464007006353853	0.4994196522374921	82.47338527521038
19	7.0	perception	101	diff_vonmises	-0.09849760746909439	-5.6434972001153625	2.132979921716965	1.6238813785475767	3.193176683365056e-19	2.1581460869842135	0.5273554718637596	-0.33125348894748624	0.8586089608112459	94.06215032560516
20	7.0	wm	101	diff_vonmises	0.2514952552249329	14.409616691954119	1.1872728865900062	1.0932333045947573	4.076725680710116e-15	1.927204231451995	0.10517610039806286	-0.2683916623048984	0.37356776270296127	120.7632630319064
0	1.0	ltm	102	diff_vonmises	0.06656636989226902	3.8139720523337273	0.45967575411102335	135.01822712993294	0.4470356111706515	137.18899158355887	-0.19775030443233987	-0.4136492653416557	0.21589896090931582	109.13930684308991
1	1.0	perception	102	diff_vonmises	-0.085934262846668	-4.9236705766819515	9.502718212963307	0.976155818945515	9.576771677916848e-18	3.2382977614941137	0.6684573261550131	-0.515391089348196	1.183848415503209	44.04010320914293
2	1.0	wm	102	diff_vonmises	0.09405828812611569	5.389142937851894	4.711873635025247	0.30692328686495474	1.1487424977491042e-23	2.754994482636151	-0.18066552925092794	-0.4384501593446511	0.25778463009372315	62.94700409525723
3	2.0	ltm	102	diff_vonmises	0.11269273370130584	6.45681802287652	0.7052300191729786	136.83527784719323	0.6908190446541292	137.95369319446104	0.05950547751044866	-0.27543722750510113	0.3349427050155498	99.05781495057914
4	2.0	perception	102	diff_vonmises	-0.0375500952030944	-2.1514619754517468	7.7076678532307845	1.508616042781562	0.40466466005170776	2.5999103048430587	1.0463921298629206	-0.4530823966022304	1.499474526465151	46.7302661137939
5	2.0	wm	102	diff_vonmises	0.003375695896498321	0.19341312778898456	7.882298265249615	0.422264740740161	0.08912823075110636	2.050034204985856	0.10896639719708046	-0.3333475739962331	0.44231397119331356	47.10383424247138
6	3.0	ltm	102	diff_vonmises	0.09417711180924795	5.395951033401572	1.154241511504046	100.50834005643144	1.1321438080428174	101.20847678716416	0.15690761001863507	-0.21249594537309235	0.3694035553917274	80.24144223904278
7	3.0	perception	102	diff_vonmises	-0.008497583540660816	-0.4868756729396995	2.8840099924853653	2.851606404534866	0.4644300924974347	3.6920359737080015	0.9393658688430931	-0.4559683099293569	1.39533417877245	71.9833704282155
8	3.0	wm	102	diff_vonmises	0.06423390208928961	3.6803314913728555	2.581343086438977	0.8840018505457374	0.4336540670345315	2.0941559159591105	0.039961504031946427	-0.28042338961485413	0.32038489364680056	69.76486921527584
9	4.0	ltm	102	diff_vonmises	-0.06491940746743605	-3.719608056374166	1.8898676266900314	0.6711898824284167	3.4518835505493814e-20	2.175141143828542	-0.011614192567892256	-0.3385463033609167	0.3269321107930244	99.63909547549098
10	4.0	perception	102	diff_vonmises	-0.014117951099867245	-0.8088990133944717	0.8962720847416576	267.263308704962	0.8750542414411026	269.05160535404366	0.5121003990557966	-0.589483386645643	1.1015837857014397	92.61874627357548
11	4.0	wm	102	diff_vonmises	-0.190193243833769	-10.897270163577533	0.9289547865202994	136.54696005783765	0.901083728662785	138.7959340515264	-0.0019956625293815478	-0.5029827669009279	0.5009871043715464	83.37764917405283
12	5.0	ltm	102	diff_vonmises	-0.04290387572274695	-2.4582110036671945	1.1597333128971594	5.041839419213736	0.7293349605968205	5.998365189223868	0.13346592184704953	-0.25968553141063566	0.3931514532576852	87.42717803566075
13	5.0	perception	102	diff_vonmises	0.009908521204703579	0.5677164462453971	1.0421479528316315	38.51819475531231	0.9160587046664675	39.6589448200039	0.5484397060195576	-0.45283125801556867	1.0012709640351263	89.77672709858771
14	5.0	wm	102	diff_vonmises	0.026737649847844953	1.5319544903801234	1.1724643689051801	2.977536256628552	0.3494183010135405	4.159918208778046	0.20272632058994866	-0.3512090525180688	0.5539353731080174	100.72754592575387
15	6.0	ltm	102	diff_vonmises	-0.28184505161414203	-16.14853193413719	0.606533180569518	57.4103753824128	0.5698440277477489	58.524639145588544	0.10863316169371551	-0.3125054712788309	0.4211386329725464	110.24679618942115
16	6.0	perception	102	diff_vonmises	0.18368931068873948	10.524622244132093	0.6031044364645379	3.6325836920603383	8.533580003517993e-17	5.134908069058078	0.1495231355582639	-0.5278510500243125	0.6773741855825764	146.34389144295562
17	6.0	wm	102	diff_vonmises	-0.19174858431368147	-10.98638460878237	2.2345917613106177	0.9976389471309516	1.7543418840008498e-17	2.2041423771685693	0.19934487838232656	-0.34449732583698733	0.5438422042193138	91.92681791309744
18	7.0	ltm	102	diff_vonmises	-0.06069698348545586	-3.477680982891878	1.1548692681437385	218.6460829634138	1.1415379955223073	220.20484130778422	-0.03172185156232388	-0.35817983844579615	0.3264579868834723	73.1168411160036
19	7.0	perception	102	diff_vonmises	-0.11630843178893047	-6.663982263290935	2.629062240947363	1.5734651239749076	6.144453166216034e-18	2.940952369992829	0.48694985240730626	-0.4630957391503797	0.950045591557686	84.82030127424628
20	7.0	wm	102	diff_vonmises	0.8257898404945859	47.31427262512121	0.41652728429119723	113.94505700867256	0.40351365209850953	115.60148454812611	-0.10646509622425171	-0.3495488046555	0.24308370843124827	118.57228744755491
0	1.0	ltm	103	diff_vonmises	0.27051758030713424	15.499515635690104	5.618039516072969	0.4013099381558974	0.028671304244104724	3.19785636223784	-0.15354219743007597	-0.50796486768613	0.35442267025605406	56.15227574782111
1	1.0	perception	103	diff_vonmises	-0.049314420891235	-2.8255081861995412	7.623427319286221	1.0466144007139428	7.672184785907076e-11	3.6193439127837035	0.5565876835513602	-0.5760362037227521	1.1326238872741123	49.248631330757945
2	1.0	wm	103	diff_vonmises	0.27552907832851425	15.786653321353342	0.6477186112472846	106.35042840469893	0.6162233383524895	109.68215351978452	-0.25925131151095826	-0.6422184248302187	0.3829671133192605	93.45856613247429
3	2.0	ltm	103	diff_vonmises	0.10927728902904611	6.261127457995596	1.1163844815654769	171.0205001851612	1.0992632022070647	172.33733711242274	0.07309411796544651	-0.3274423561138029	0.4005364740792494	77.74602657041135
4	2.0	perception	103	diff_vonmises	-0.023977737949001463	-1.3738231867484545	6.682549463407617	1.5981815051727768	0.3199504263754302	2.724320587333364	1.0325917984030482	-0.4518777762821675	1.4844695746852157	50.40007882674203
5	2.0	wm	103	diff_vonmises	0.10545109410547153	6.0419026372803915	6.180138171672179	0.46838845608970325	0.021620173087954633	2.2470942357299606	0.08889791978864298	-0.35669978503658617	0.44559770482522915	54.17696026097843
6	3.0	ltm	103	diff_vonmises	0.08323277079270894	4.768886483601969	1.7548880590776652	0.7439307489524996	0.10953172539222181	1.6286260387727451	0.06615377094268926	-0.2216918698768792	0.2878456408195684	95.0554576146503
7	3.0	perception	103	diff_vonmises	0.027233200853299656	1.5603474715261425	3.764345475873334	1.8088639264380648	0.12003965708225982	2.5965126115886457	0.8808085052025414	-0.38743374339029124	1.2682422485928326	68.41757648989318
8	3.0	wm	103	diff_vonmises	0.2799697782139911	16.04108668287539	0.8083670652591118	115.05526458804407	0.7899144766941245	116.37279287291821	0.007917375011231798	-0.2953985759823503	0.3033159509935821	89.92826862582558
9	4.0	ltm	103	diff_vonmises	-0.14293863954256938	-8.189780775131005	0.4795953664618013	2.1385157587981554	1.2398957837891842e-13	3.7487720002522265	-0.07712553996461746	-0.397556800939927	0.32043126097530955	152.94035691051
10	4.0	perception	103	diff_vonmises	0.060168783944672476	3.447417378464242	0.9636272053512785	289.21695853860706	0.94251093061122	291.3931631931456	0.4395578300136833	-0.6412971353122465	1.0808549653259298	87.9017778177822
11	4.0	wm	103	diff_vonmises	-0.40380511885605685	-23.136329056230636	0.8094949709114949	2.5391266563499353	5.4639351888382035e-28	5.497880245070198	-0.09942081309717998	-0.7213699577031274	0.6219491446059474	135.25196617714784
12	5.0	ltm	103	diff_vonmises	-0.05192232887474602	-2.974930307013196	1.7772119838940568	1.1840846102569789	0.16377227622371082	2.2288921077206743	0.1535274206210584	-0.28652192041477514	0.44004934103583354	92.6552161929738
13	5.0	perception	103	diff_vonmises	-0.024593985616752273	-1.409131577245356	2.051981500298122	2.6462603035347985	0.23083533135341017	3.647164825933229	0.6648727822397815	-0.44689198755221926	1.1117647697920008	87.3396626886148
14	5.0	wm	103	diff_vonmises	0.04074722228077187	2.3346438635696605	1.8009266408226805	1.423646613629213	3.575894255071841e-15	2.6246485589655255	0.2714311393323226	-0.398929170181742	0.6703603095140647	101.8893334744987
15	6.0	ltm	103	diff_vonmises	-0.11487827273957713	-6.582040185730547	0.1674272875205195	7.473194835373742	4.656064980719422e-10	8.265981229255734	0.0807935024960802	-0.316544335327839	0.3973378378239192	170.12639655282226
16	6.0	perception	103	diff_vonmises	0.14373816965754366	8.235590476312641	0.23576628774606861	165.99642018159037	0.22051633177572239	167.09323562921693	0.22797346735814017	-0.49078064287022016	0.7187541102283603	152.661792081978
17	6.0	wm	103	diff_vonmises	-0.35421898677896296	-20.295252965834884	1.4004159124903308	1.518705036546056	4.403025582470228e-12	2.467876986578197	0.23831825752992508	-0.35442849523566555	0.5927467527655906	113.1500508882635
18	7.0	ltm	103	diff_vonmises	0.0338753075000879	1.9409121494629005	0.8413022720072183	1.3297587900095607	3.3731631286524418e-18	3.546800010447819	-0.15023091412118378	-0.48748425952461194	0.33725334540342816	135.46246576110397
19	7.0	perception	103	diff_vonmises	-0.07363714051470517	-4.219097366904409	2.545113737785122	2.6395342365332537	0.30645121263592257	3.895683557298351	0.7491023453752853	-0.4957987656703883	1.2449011110456736	77.66911868364562
20	7.0	wm	103	diff_vonmises	0.9856852888003276	56.47560697639244	0.0005459830913789989	2213.1561118635523	8.068918190238068e-30	2215.2503015555385	-0.14096681571862746	-0.5255819738685545	0.3846151581499271	153.25057085789805
0	1.0	ltm	104	diff_vonmises	-0.37201056930172344	-21.314635555247776	0.00033759347731076444	1634.7805367100784	1.866750749114156e-28	1636.2628102569104	-0.14806885456670216	-0.3237386438455587	0.17566978927885657	176.06279648531878
1	1.0	perception	104	diff_vonmises	-0.050320458234255586	-2.883149879987176	10.297433783196878	0.8364271833475547	4.929688499934367e-19	2.6684784801921224	0.6324436982974544	-0.4247015394548929	1.0571452377523474	42.28754265313816
2	1.0	wm	104	diff_vonmises	0.22825604709932568	13.078108147130697	3.6161355916302003	0.4672165050488004	0.11168615312368506	2.128676631733033	-0.03779693468575074	-0.3286884539429991	0.2908915192572484	66.64946066381367
3	2.0	ltm	104	diff_vonmises	0.297258770199928	17.031672955705083	0.35926004842631726	100.92968697833375	0.3462621369585507	101.83658194280076	0.0399608885438667	-0.2660776657216708	0.3060385542655375	135.18037177312303
4	2.0	perception	104	diff_vonmises	-0.02833021792426203	-1.62320191974609	8.765461359694822	1.343857897985112	0.3269164789494103	2.3889427040958955	1.0496181940414937	-0.41677342935009704	1.4663916233915908	44.34930214899941
5	2.0	wm	104	diff_vonmises	-0.0597476882652821	-3.4232903732639794	8.335637922143949	0.3754857384830428	0.09475066720545555	1.6479461238577748	0.13781125630132096	-0.2689426761786823	0.40675393248000324	45.909399421156735
6	3.0	ltm	104	diff_vonmises	0.02001097713442273	1.1465445337352167	1.234472297800598	105.99148913574201	1.2206140495572195	106.25830588574615	0.1680188009841146	-0.11755382981949225	0.28557263080360684	80.64390697523154
7	3.0	perception	104	diff_vonmises	0.06854886088608335	3.9275604192019844	1.5471666517361342	287.30426772531416	1.5256354732802353	287.41613213697326	1.0249267493576326	-0.36486383955673674	1.3897905889143694	75.53074635866213
8	3.0	wm	104	diff_vonmises	-0.06882774886462813	-3.943539523329535	2.536655666666497	1.0249116847461213	0.6903828345194892	1.534697686554822	0.17532635426600218	-0.17098534674451837	0.34631170101052056	69.98166498121594
9	4.0	ltm	104	diff_vonmises	-0.17932641298507437	-10.274646619264765	7.87218082482354	0.22417966013768112	1.1496813940474889e-34	1.3674374103436233	0.029029859309137485	-0.21763438737444987	0.24666424668358736	48.45337483137689
10	4.0	perception	104	diff_vonmises	-0.0025069464318832313	-0.14363745001229009	2.331527350477711	3.0706014873677674	0.4103887603449967	4.346424827286973	0.7364285627629137	-0.5054195193299955	1.2418480820929092	78.41379884424018
11	4.0	wm	104	diff_vonmises	-0.4087643500964968	-23.420472075937273	1.740840102547213	2.2961930364113834	0.7085465647757478	3.5581973220239282	0.07050872787127793	-0.3111729605872097	0.38168168845848766	75.1569676031904
12	5.0	ltm	104	diff_vonmises	-0.041526095685031135	-2.3792700224087033	5.147202451095841	0.24690837494268436	5.809845869130682e-35	0.9035101949636285	0.07361386730617855	-0.14379075873854388	0.21740462604472244	60.1648830851135
13	5.0	perception	104	diff_vonmises	0.005321442257999995	0.30489618230596666	3.1184818472533187	1.5293206604758853	0.10667773055576597	2.4450271449987904	0.5921687517235819	-0.35881865906742455	0.9509874107910063	74.83420512881065
14	5.0	wm	104	diff_vonmises	0.07425675200821384	4.254598490420253	0.7391596291662234	82.38360432595336	0.7137721122403221	83.34097544423675	0.12408847739756723	-0.26607583330949325	0.3901643107070605	99.58883753927995
15	6.0	ltm	104	diff_vonmises	-0.5032231935519678	-28.832565143622695	1.6257567391938648	0.7719325957886273	7.665896740617341e-16	1.759709800255289	0.07105188018800657	-0.26647257625188253	0.3375244564398891	105.95974225401137
16	6.0	perception	104	diff_vonmises	0.30562690369272044	17.511131687244156	0.7586109240341234	3.3549608818285708	2.8747756027318985e-11	4.282140816564755	0.3106473306191416	-0.46390852657605774	0.7745558571951994	138.15548119806172
17	6.0	wm	104	diff_vonmises	-0.25181230813135164	-14.427782485374271	2.738519618408512	0.5311847359766574	3.081746439501591e-23	1.473503018160022	0.09560716556754734	-0.23313460769200203	0.32874177325954934	83.07559791716503
18	7.0	ltm	104	diff_vonmises	0.23650286948579127	13.550616264269182	1.007450864744831	122.89988509599041	0.9905402008964855	123.83662927129178	0.07475452071019362	-0.23625161388095073	0.31100613459114435	82.90881539420369
19	7.0	perception	104	diff_vonmises	-0.11699658366644664	-6.703410461536615	2.659121645614232	1.2172283366618684	6.967731304370938e-23	1.755169207882162	0.46436819606175866	-0.27569839781630906	0.7400665938780677	84.33614000928495
20	7.0	wm	104	diff_vonmises	0.3060621052210725	17.536066898056372	2.1490972705700226	0.38182593656532915	0.0059449585265471715	1.371135235236876	-0.013839865335882828	-0.21413134862269606	0.20029148328681323	93.01502158233095
0	1.0	ltm	105	diff_vonmises	-0.1557622297536185	-8.924518372429397	0.8945034748143333	0.9146200426049116	1.238633507826423e-25	2.408050741923212	-0.089042254002686	-0.3340827921792011	0.2450405381765151	132.89327307459973
1	1.0	perception	105	diff_vonmises	-0.09557829899947053	-5.47623314570912	11.008121856666227	0.9403451786370125	1.0138509050116881e-19	2.6603368119282518	0.8060371703951186	-0.42340575357003507	1.2294429239651536	40.89400211369022
2	1.0	wm	105	diff_vonmises	0.09388982253865912	5.37949057069744	3.5061602605470386	0.5818001980355835	0.018140895691355165	2.29050963670262	0.04478440106459286	-0.3590826095338686	0.4038670105984615	72.05525634601923
3	2.0	ltm	105	diff_vonmises	0.011325203112300331	0.6488863404632335	2.3714257047148735	0.88889686447478	0.21041083666805002	1.6550646327382503	0.1862643806890097	-0.22137065288814528	0.40763503357715497	80.8687001360478
4	2.0	perception	105	diff_vonmises	-0.027482960513161535	-1.574657645928851	8.187370057760765	1.2512073621103152	0.24692488030934573	2.0508530169852404	0.9932712018548553	-0.3445240690029622	1.3377952708578174	46.252337713553175
5	2.0	wm	105	diff_vonmises	-0.051004305443844496	-2.9223314389284187	7.49496560950688	0.4417916227667312	0.14897020214221837	1.4337587436152757	0.21052717858817493	-0.23560487439222044	0.4461320529803954	48.067920567688475
6	3.0	ltm	105	diff_vonmises	-0.013075734208596337	-0.7491843841874037	0.9462434914760511	33.17114737033677	0.889026350956382	33.65711713937988	0.20530921892338405	-0.18472996248623552	0.3900391814096196	92.34430777188325
7	3.0	perception	105	diff_vonmises	0.03311447071742326	1.897319412917904	3.235163557311679	2.674412395326075	0.5564030057706054	3.0488599415818927	1.0435847844825346	-0.37803675945504	1.4216215439375746	68.36694107453513
8	3.0	wm	105	diff_vonmises	-0.03508902630264729	-2.0104531143652253	3.282234453126063	0.7010329641312742	0.18473448973537468	1.3723652328929865	0.2226021399589907	-0.19958777708808328	0.422189917047074	70.82009102559496
9	4.0	ltm	105	diff_vonmises	-0.2935473107455229	-16.81902199313374	3.0496743681327567	0.7225544487546218	1.2826894736387166e-22	1.855685255625314	0.18233879224128563	-0.2942693769953391	0.47660816923662475	78.6554183667091
10	4.0	perception	105	diff_vonmises	-0.0236911478667939	-1.357402784587654	1.8958052117746584	3.865494355174139	0.4306806230942033	5.068236387664351	0.7452524723211502	-0.5133407286021365	1.2585932009232867	84.88561906623798
11	4.0	wm	105	diff_vonmises	-0.2862889500783646	-16.40314856072181	1.1342223757216976	141.88787865173182	1.1115058156994237	143.16396991184072	0.13890482362533163	-0.3390868724559759	0.47799169608130754	78.748049755143
12	5.0	ltm	105	diff_vonmises	-0.0888503930532263	-5.090752530028356	1.457804371248182	0.9787558371104772	3.073285419967376e-14	1.3127330981048666	0.20776598749541833	-0.18635513239563503	0.39412111989105336	111.76247578827511
13	5.0	perception	105	diff_vonmises	0.015167472804889823	0.8690321775996396	1.1601674959587531	106.88428232892306	1.1214193948878777	107.22778481404539	0.646187428471805	-0.3038997299429127	0.9500871584147177	86.32064557969005
14	5.0	wm	105	diff_vonmises	-0.010827479319011277	-0.6203688677445288	1.2015044894418159	2.6290510680950487	0.37670823334409553	2.9908561135280234	0.3276808417678043	-0.22568503994352285	0.5533658817113272	103.47859630857093
15	6.0	ltm	105	diff_vonmises	-0.38328926002703634	-21.96085693224155	1.2346902401833422	1.1594999672687485	1.802138292037992e-13	1.6548250268076516	0.1836463502560982	-0.22553901115560798	0.4091853614117062	118.63273394766948
16	6.0	perception	105	diff_vonmises	0.21217019703228285	12.156456828408912	0.810656417150916	2.819871612717258	3.075623155587488e-16	3.1509292651172265	0.3604883227083894	-0.3311251483861869	0.6916134710945763	136.34746367948534
17	6.0	wm	105	diff_vonmises	-0.22200223022485932	-12.719790834376079	2.7220609527262085	0.6597522567381614	1.992065343441488e-15	0.9685417736605555	0.2544657469790471	-0.15238221627364024	0.40684796325268735	83.33232847870363
18	7.0	ltm	105	diff_vonmises	0.17583970483801062	10.074872958044132	1.2262677476845147	183.01422341019347	1.2107328675121467	183.92837158165761	0.17531962436837034	-0.2706139709121622	0.44593359528053256	77.07186773814661
19	7.0	perception	105	diff_vonmises	-0.07211403054258095	-4.131829593767402	1.9652730226713406	1.708656507312102	3.1047592124029466e-16	2.0675834387342613	0.5431101073893568	-0.31194255476873023	0.8550526621580871	97.82122086292044
20	7.0	wm	105	diff_vonmises	0.07143460640066926	4.0929014579365655	0.2987145385748848	2.9899434861324132	6.05304498030381e-12	3.730913622940798	0.0336556834062961	-0.24855530648090807	0.28221098988720417	162.91033899575353
0	1.0	ltm	106	diff_vonmises	0.3349668800035961	19.192188500871147	0.5527456904195596	143.21796347570827	0.5375795343038817	145.93871960587887	-0.2819056766892487	-0.4969571903106633	0.21505151362141461	95.67704232489814
1	1.0	perception	106	diff_vonmises	-0.019832526658573272	-1.1363200746169415	8.485992483699086	0.8835936557010023	0.018552289146395593	3.7930872445522157	0.3958745893191924	-0.6047554144041211	1.0006300037233133	46.358848946090205
2	1.0	wm	106	diff_vonmises	0.14917123434206592	8.546882152557343	5.72049971856322	0.22403065215520543	0.06555778366555608	3.471787699316082	-0.380755536961943	-0.559885294682696	0.179129757720753	52.74842466845308
3	2.0	ltm	106	diff_vonmises	0.20257539963571888	11.606715432302686	0.6010776498269088	186.8866939070228	0.5912150608278935	188.32645077913668	-0.031224214770091407	-0.31408280728799554	0.28285859251790413	103.01833900296168
4	2.0	perception	106	diff_vonmises	-0.0403040481950105	-2.309251858865965	8.201447021939483	1.4647580783996113	0.3244170025728512	3.1654695514929365	0.9673123296215528	-0.5503598122638701	1.5176721418854229	45.4751787473177
5	2.0	wm	106	diff_vonmises	0.029904450793570573	1.7133988191282392	4.781622914518155	0.6243847641924052	0.12820941650872023	3.1714618815721796	-0.04281528767494647	-0.5044319846772269	0.4616166970022805	58.28235164636564
6	3.0	ltm	106	diff_vonmises	0.16275736118727444	9.325309880717178	1.184550858760755	119.61099005255483	1.1662870977789943	120.38843110508874	0.11505734220347819	-0.21791026078543219	0.33296760298891037	77.74248895224372
7	3.0	perception	106	diff_vonmises	-0.013417024972583128	-0.7687389045506423	2.1509449506320877	4.931029432138353	0.7245762259618467	6.059174722085203	0.9051873252916964	-0.541211843428216	1.4463991687199125	75.96889369930716
8	3.0	wm	106	diff_vonmises	0.06710864341130066	3.845042036315947	2.5832552646081592	0.7574723272880689	0.31971094055388405	2.4526611408544996	-0.06886262578357388	-0.3486393689095167	0.2797767431259428	69.82056420608285
9	4.0	ltm	106	diff_vonmises	0.33916909594080336	19.432957738675732	1.8487548324260532	0.41062560620485966	6.987349730600278e-22	2.245445985844306	-0.1554099949944649	-0.35236759107737203	0.19695759608290714	100.43328132665849
10	4.0	perception	106	diff_vonmises	0.025888600369797506	1.4833075386902195	0.897591768553365	302.6009982826104	0.8777050474551855	304.9755272786516	0.39046202137789976	-0.6705851518116965	1.0610471731895963	90.48598218430936
11	4.0	wm	106	diff_vonmises	-0.2376099516328826	-13.614047398871795	0.839227529184424	6.910344355383435	0.40664609050128625	10.160948401767634	-0.1812144393621158	-0.6561597600371463	0.4749453206750305	98.77965842036616
12	5.0	ltm	106	diff_vonmises	-0.011399266111054922	-0.6531298377099543	1.088142784925999	132.54959861779113	1.067217108133993	133.76262923917434	0.09075110164765476	-0.30714058165453295	0.3978916833021877	79.51155219720303
13	5.0	perception	106	diff_vonmises	-0.023659382531172227	-1.3555827649217156	1.3419745583153404	6.184642859410653	0.5147870095781678	7.926813077196526	0.5273680637940195	-0.5796736564103654	1.1070417202043847	91.88665764174345
14	5.0	wm	106	diff_vonmises	0.11018329688557778	6.313037884380554	3.0638369422003753	0.8878542801217383	3.9735941668292826e-13	2.8414670556261057	0.13625584037655747	-0.45094953238047486	0.5872053727570323	78.48622775930053
15	6.0	ltm	106	diff_vonmises	-0.20267689876531692	-11.612530904052905	0.5954700671820988	122.61998093990533	0.5782903045848162	123.94864269304696	0.050792165780357834	-0.331070717220852	0.38186288300120985	107.88374078219529
16	6.0	perception	106	diff_vonmises	0.14199668422761433	8.135810711094164	0.2290064282286242	139.22638482929207	0.21006944639928649	141.07855469804974	0.10032926693308042	-0.605516833827469	0.7058461007605494	152.80294442284264
17	6.0	wm	106	diff_vonmises	-0.23246343803011327	-13.319173890226446	1.4503836403323218	1.3926538137621927	8.178957449389911e-14	3.190789235588557	0.0832391550791789	-0.47533083930828923	0.5585699943874681	111.83365002432305
18	7.0	ltm	106	diff_vonmises	-0.2518577914838281	-14.430388489509276	1.199340235517332	89.0552675656744	1.1748304290944527	90.38752879929224	-0.09496327942385818	-0.29415493096010437	0.19919165153624618	68.65802776261955
19	7.0	perception	106	diff_vonmises	-0.08669638686644611	-4.967337066480782	2.591011020549333	1.642523705621909	0.021088856903871602	3.329539968852808	0.44738564739633535	-0.5132445889290362	0.9606302363253716	84.37139474725493
20	7.0	wm	106	diff_vonmises	1.2476195155979977	71.48333268192144	0.07648145305903806	81.86372081641943	0.06542988827808921	83.97804870996791	-0.20996976909616372	-0.45356100120999976	0.24359123211383604	135.09667676999877
0	1.0	ltm	107	diff_vonmises	0.13546943282642973	7.761826753985434	0.29703998302951884	94.1837088324542	0.28604168909602595	96.17767020656572	-0.2290428138510947	-0.37158857389342614	0.14254576004233144	130.19402448627272
1	1.0	perception	107	diff_vonmises	-0.009766499716185956	-0.5595792143531716	9.55728748666806	0.8034996809123887	0.027759707390684202	3.1525961479385747	0.4612908763204763	-0.5046596237780058	0.965950500098482	43.62692490270075
2	1.0	wm	107	diff_vonmises	0.20097073961127362	11.514775185348613	5.489396420728538	0.2611387128030884	0.06976817013058842	2.6328269112209775	-0.21085093326979054	-0.4222768738495565	0.21142594057976594	54.74383049289676
3	2.0	ltm	107	diff_vonmises	0.3293068411044098	18.867892160067896	0.502912750450387	113.93985404698265	0.48978598130964307	115.07869576648586	0.0005605853698718022	-0.27391276047140956	0.27447334584128136	115.60885765646648
4	2.0	perception	107	diff_vonmises	-0.023917211572554536	-1.3703552808288255	8.100637425914373	1.453063491341892	0.3437208757475418	2.941927224994949	0.9813533695279053	-0.5122500765624302	1.4936034460903356	45.73350074779782
5	2.0	wm	107	diff_vonmises	-0.007240413198285134	-0.41484511819255626	5.542653764748939	0.5347709434766907	0.14161220185826645	2.6062428456570337	0.014206686451289918	-0.42055926806536165	0.43476595451665156	54.47380273177325
6	3.0	ltm	107	diff_vonmises	0.17817850655491568	10.208876425540742	1.2606262471916503	109.11195712636362	1.2456930808409732	109.51321014991478	0.14299878462777116	-0.1405342011018842	0.28353298572965535	77.96966129291485
7	3.0	perception	107	diff_vonmises	0.026109043038410377	1.495937973226338	1.7756505968216925	14.61874095015064	1.2808737791825198	15.24866725659708	1.0083463198535787	-0.4809124662810269	1.4892587861346056	74.10135632481308
8	3.0	wm	107	diff_vonmises	-0.05017138111871571	-2.874608390444757	3.4336581588513297	0.5036457967896953	0.1948386436422178	1.6580798789320865	0.038316573754930416	-0.2503910006674395	0.28870757442236994	66.91725438324698
9	4.0	ltm	107	diff_vonmises	-0.1545922363447278	-8.857482688041836	10.405856611163808	0.15562591080925237	2.5937988826684252e-58	1.647823478024737	-0.06450791973979292	-0.2622592516894925	0.19775133194969957	42.06465034675816
10	4.0	perception	107	diff_vonmises	0.01745491440895693	1.0000929273953199	1.5774652590170524	6.286999986720693	0.6514173412365192	8.195435291449204	0.5514518230118903	-0.60964396562463	1.1610957886365203	83.28111149180751
11	4.0	wm	107	diff_vonmises	-0.39585528435278494	-22.680837091365674	1.1411543876293893	4.212885582008025	0.5021776169723474	6.636075146826797	-0.08881726176772964	-0.503312607224172	0.4144953454564424	87.34551518243174
12	5.0	ltm	107	diff_vonmises	-0.037374353387452444	-2.1413927111314965	1.3405436761586065	3.6786506410783573	0.8933577717700147	4.3490834941771785	0.09110200608373287	-0.18274469393154424	0.2738467000152771	79.88707250273538
13	5.0	perception	107	diff_vonmises	-0.02413495718470328	-1.382831185412441	1.9086298873909349	3.1523334800777376	0.3705823723024678	4.275239947171026	0.6281178337658623	-0.4578020878212964	1.0859199215871587	85.90431766927969
14	5.0	wm	107	diff_vonmises	0.13604676009413286	7.794905169822643	3.390272606150915	0.729969496875527	0.01658359588107325	2.095371659979142	0.17320988436010526	-0.32800851508482326	0.5012183994449285	73.63379144332436
15	6.0	ltm	107	diff_vonmises	-0.3920338751327846	-22.461886471267274	0.5664596651355721	154.67188505941775	0.5560735232168452	155.5309355845492	0.08176743586770385	-0.24418006727398378	0.32594750314168763	112.90097550065884
16	6.0	perception	107	diff_vonmises	0.17148622878130454	9.825437153783616	0.41092641689402726	188.27639247808457	0.3955406843070737	189.3551175762732	0.28650644994831964	-0.4655740253843099	0.7520804753326296	132.94380168257382
17	6.0	wm	107	diff_vonmises	-0.13525113820546092	-7.749319393513513	2.107097285465782	0.8155605805625172	1.0322685683352479e-14	1.9656081401187109	0.12133456383317853	-0.30641711391319687	0.4277516777463754	94.6059959791164
18	7.0	ltm	107	diff_vonmises	0.17281536308913162	9.90159094002815	1.221179561660079	94.2160258678729	1.2019729452515533	95.00365965212998	0.034777585413763745	-0.19795164062104575	0.2327292260348095	73.79841466313678
19	7.0	perception	107	diff_vonmises	-0.05911598256766989	-3.387096302896432	1.9727263444862055	1.607031450499157	2.480035940946427e-16	2.6247432548844	0.4044100508668346	-0.4018370116194249	0.8062470624862595	97.65284033978838
20	7.0	wm	107	diff_vonmises	0.47786914781822	27.379885329497277	1.413887304572238	0.4124210269536271	4.650135936446582e-13	1.8308979917526869	-0.11902813080238386	-0.2812012229347159	0.16217309213233203	112.21430732507855
0	1.0	ltm	108	diff_vonmises	0.12119105815145198	6.943736146802731	0.6005663437272685	65.77315008115218	0.5804724402728269	66.8986334136324	-0.04481349895006659	-0.23614611439290645	0.19133261544283986	101.83659187126167
1	1.0	perception	108	diff_vonmises	-0.10346362523879216	-5.928029059306015	9.485042891048243	1.0122154085463306	9.688957145976892e-17	2.083740625770499	0.8947676926484602	-0.33163761363271393	1.2264053062811742	44.08152625147591
2	1.0	wm	108	diff_vonmises	0.29824456472268224	17.08815482132601	2.2051820809856637	0.4853518073618378	0.030262770678919956	1.8801559876929415	-0.042825354488018774	-0.28710684967461686	0.24428149518659809	89.1988440809755
3	2.0	ltm	108	diff_vonmises	0.10848301267406292	6.215618775088024	0.8145076953132446	92.0176508175349	0.7970842555143741	92.67028396813282	0.1083530940163584	-0.18733899415472344	0.29569208817108183	95.20324251699637
4	2.0	perception	108	diff_vonmises	-0.01436858784984374	-0.8232594413590005	5.627076020746155	1.910828611028299	0.5961973272569899	2.4560400204218538	1.1136395024082453	-0.3959957113409331	1.5096352137491784	53.3496479090349
5	2.0	wm	108	diff_vonmises	-0.0012407499284634925	-0.07108973433211693	8.903937949931901	0.3875775691938145	0.3275712418259939	1.5553016662536636	0.12009126491553274	-0.2806476113129538	0.40073887622848653	42.70039566773818
6	3.0	ltm	108	diff_vonmises	0.21364487730700626	12.240949784281757	1.2875548638320313	126.99925264936616	1.2720333150205263	127.32215963136511	0.23284323056365253	-0.15226235495866192	0.38510558552231444	79.29497583563378
7	3.0	perception	108	diff_vonmises	-0.002618192309544647	-0.15001136929051787	1.4626462712361243	127.38951645542464	1.4136869568114427	127.91571898796492	0.8849485013799878	-0.4167508839171141	1.301699385297102	76.47969611784177
8	3.0	wm	108	diff_vonmises	0.0962865004542675	5.516810100114012	1.4152203045666247	58.813713889796304	1.3778339899255063	59.68649102850001	0.03351147979693181	-0.23003628786920238	0.2635477676661342	68.33256995646187
9	4.0	ltm	108	diff_vonmises	-0.216168598132347	-12.385548336243053	9.746005136895517	0.3835960263712938	1.6615995205988236e-32	1.447638764765432	0.24080500258161716	-0.23039886360902959	0.47120386619064675	43.488985425686394
10	4.0	perception	108	diff_vonmises	-0.017933658066275157	-1.0275229184283117	0.9994973967686263	383.73774844887043	0.9860886631036365	385.2756301896107	0.45251876279724	-0.503338602969599	0.955857365766839	87.38722356468409
11	4.0	wm	108	diff_vonmises	-0.32795992829914566	-18.790719740954138	1.258562028487273	153.55810887967607	1.2347901884056227	155.21982992116145	0.028773765293358622	-0.4094471752111879	0.4382209405045465	71.7425089777612
12	5.0	ltm	108	diff_vonmises	-0.06271845696436798	-3.5935028816311703	1.2167477863041756	33.21742190404267	1.167568334474961	33.59799975787695	0.1600804684582311	-0.14077370589039617	0.30085417434862727	80.61026972298015
13	5.0	perception	108	diff_vonmises	0.013085482884353345	0.7497429421641217	1.1264368242681702	257.61776334916357	1.1093497399692545	258.0418041424434	0.6686977305621298	-0.33093536600203066	0.9996330965641604	86.90243040080591
14	5.0	wm	108	diff_vonmises	0.08828137715731293	5.058150320716664	1.6630527104670096	1.3795173006545403	0.22677678695216238	2.0366575591271734	0.23473208112397986	-0.23539533019075062	0.47012741131473046	94.49456586946883
15	6.0	ltm	108	diff_vonmises	-0.36559781682455705	-20.94721190324408	2.017134824786457	0.7479144044752964	1.3576398998078681e-12	1.4008978251772028	0.1648719549009387	-0.21609572194076243	0.38096767684170113	96.43826108302814
16	6.0	perception	108	diff_vonmises	0.09803841311429755	5.61718730160927	0.4943100235877562	107.97769959625577	0.4721603138493974	108.85594449308452	0.23365657150490193	-0.35620511154129986	0.5898616830462018	124.54245662250376
17	6.0	wm	108	diff_vonmises	-0.16183616690604705	-9.272529336291262	3.454830896882421	0.621589467950209	3.135974782214656e-20	1.2791437207239436	0.23722292132274045	-0.20314204632051766	0.4403649676432581	73.80725912682954
18	7.0	ltm	108	diff_vonmises	-0.04775897400481494	-2.7363876443509074	1.4399996526974779	235.55511586369062	1.4254226432000003	236.83828922434773	0.06998868903389166	-0.34757511201481606	0.4175638010487077	67.8843723778754
19	7.0	perception	108	diff_vonmises	-0.13981989288124877	-8.011089754066818	2.360086615281559	1.6749673313388431	1.3063348713698049e-18	2.3233386310706177	0.5844040966156188	-0.3612656605257104	0.9456697571413292	89.50757477457837
20	7.0	wm	108	diff_vonmises	0.6033747937115571	34.570829144248904	0.4753106446163968	38.817012332216024	0.44350389286632624	40.02550223154952	-0.056297740089647164	-0.26178351267938327	0.2054857725897361	115.72456066066673
0	1.0	ltm	109	diff_vonmises	-0.1563635091447932	-8.958969143851903	1.1305514199609836	0.7734278619866388	3.857299624038557e-17	1.4403993977007354	0.05401716255907171	-0.1997205278993989	0.2537376904584706	123.18464179033077
1	1.0	perception	109	diff_vonmises	-0.11547587067683224	-6.616280025380989	12.512530322347931	0.9586590240661552	1.8253351162642173e-21	1.896298238329595	1.0366269097126466	-0.3018052381884699	1.3384321479011165	38.332881934756244
2	1.0	wm	109	diff_vonmises	0.06645498927955247	3.807590413305488	4.711873228462911	0.4951856284489131	9.86269934351075e-24	1.345543160233671	0.20182392138119318	-0.21411623978245078	0.41594016116364396	62.944894496949075
3	2.0	ltm	109	diff_vonmises	-0.09410253453676296	-5.391678070440585	2.3232891472206116	1.1458443568270644	0.5302231164576608	1.403445018520941	0.2924325958319427	-0.14782005825729433	0.440252654089237	77.57129538878402
4	2.0	perception	109	diff_vonmises	-0.021908976889158445	-1.2552919091984385	8.486348076631504	1.1050172010670019	0.1570622394296081	1.5884640199694393	0.9700793203553801	-0.26037804041427676	1.230457360769657	45.933244043943716
5	2.0	wm	109	diff_vonmises	-0.12707746778130893	-7.281002575078699	5.82069712905208	0.6023428335597745	0.7336316211371258	1.0952643986544286	0.24738503620441504	-0.19017594670851867	0.4375609829129337	50.323677121303376
6	3.0	ltm	109	diff_vonmises	0.01714235008764374	0.9821843109577032	1.1414828461683757	116.85682482919132	1.1245814588403718	116.99827420585827	0.3166061464825347	-0.14342841220533487	0.4600345586878696	86.88359945411585
7	3.0	perception	109	diff_vonmises	0.037839401934932126	2.168038030170772	1.8816187906960398	17.31646878727742	1.507507482153029	17.453477697058762	1.0261530363837847	-0.3700464241646124	1.3961994605483972	71.73466782541968
8	3.0	wm	109	diff_vonmises	-0.07183975133714261	-4.116114552887584	2.3058900516079106	1.6351859465692868	0.8845630013533837	1.9019029082130539	0.3105571665372763	-0.15974674196502447	0.47030390850230075	72.52046055202234
9	4.0	ltm	109	diff_vonmises	-0.2822263969000078	-16.170381409554505	4.500640734085895	0.7214591616797597	3.8358065242490606e-16	1.4771565013432215	0.35620771598877055	-0.2350238766915029	0.5912315926802735	64.43981110509955
10	4.0	perception	109	diff_vonmises	-0.04978325083007251	-2.852370163004307	1.095835134133645	334.0165672057554	1.0791732032175874	334.7991607001805	0.7644014177099336	-0.44513832136841813	1.2095397390783518	87.08469431426741
11	4.0	wm	109	diff_vonmises	-0.38335488632018094	-21.964617041863825	1.6373701667633933	135.24787596412938	1.6160621787244647	135.8910587198032	0.19902336005964827	-0.2323395673458819	0.43136292740553017	67.40681902500069
12	5.0	ltm	109	diff_vonmises	-0.06564715659170943	-3.761305009739372	1.4581548410685927	0.8996985070805968	1.1733360895384958e-13	0.7657463434979915	0.2612153826571061	-0.10113407102476979	0.3623494536818759	111.76572857174318
13	5.0	perception	109	diff_vonmises	0.03014622572155299	1.7272515020937111	1.2984431720791605	209.5084507395623	1.2816271771186425	209.436949714139	0.6696538965535979	-0.21382309137982247	0.8834769879334203	83.45288832490351
14	5.0	wm	109	diff_vonmises	-0.00994356597850906	-0.5697243638784418	0.9280168630432993	92.46369215278281	0.9090548028692523	92.30988269389937	0.38348650751149194	-0.12358824164064774	0.5070747491521397	99.78591486518587
15	6.0	ltm	109	diff_vonmises	-0.40957900774707234	-23.467148521063294	1.7873186426438419	0.8706098282196323	3.9549559364460734e-14	1.1385397276473885	0.2382870875813018	-0.16944633742824625	0.407733425009548	101.89587490994812
16	6.0	perception	109	diff_vonmises	0.21776454575488233	12.476989399338265	0.9528571192012802	2.0960284804578024	4.179992278788482e-14	2.0220675208613765	0.3756613802869947	-0.21808797744140762	0.5937493577284023	130.12540566006209
17	6.0	wm	109	diff_vonmises	-0.2207200971897082	-12.646330022687621	4.350131649394431	0.4239970254055661	8.708958331299788e-14	0.36906323350897885	0.2824276945403153	-0.05868141006667543	0.34110910460699073	65.57774956842601
18	7.0	ltm	109	diff_vonmises	0.16366993844444072	9.377596706032431	1.5418054880596141	164.9465316889703	1.5237463802348181	165.33734542906663	0.346573122579116	-0.20932438590033442	0.5558975084794504	72.62773091463367
19	7.0	perception	109	diff_vonmises	-0.05933517847864313	-3.399655303481724	1.4612836049399507	1.900470447779326	7.418852591540426e-15	1.6195899138620913	0.5524765480753213	-0.21417532878483964	0.7666518768601609	111.67125637235802
20	7.0	wm	109	diff_vonmises	-0.2388975744148211	-13.687822749881766	0.0004994008709875736	2163.061545178085	3.587678897030635e-28	2163.2392894829454	0.1436547346084467	-0.20018957693355333	0.343844311542	178.34570517793233
0	1.0	ltm	110	diff_vonmises	0.1368808733552901	7.8426963393228455	6.539405818273437	0.37350353242067036	2.942440484833177e-23	3.5026416278511925	-0.1843091112175856	-0.557461949385152	0.37315283816756645	53.24256468334397
1	1.0	perception	110	diff_vonmises	-0.029590885992014048	-1.6954328793951932	7.736230934050164	1.088204979334958	0.10539925403792401	4.370239193324625	0.4158422022062178	-0.7121609594425872	1.128003161648805	47.53886647066719
2	1.0	wm	110	diff_vonmises	0.136658642601278	7.829963455039943	1.0206719740863712	5.835631874670695	0.46442570063501615	9.646966913442412	-0.29942694529264235	-0.7342582984040321	0.43483135311138976	87.48337865503743
3	2.0	ltm	110	diff_vonmises	0.061206425292648824	3.506869848351552	2.2723389518143873	1.6305390800575343	0.595797333754291	2.871999957044789	0.14773278761744035	-0.3273122859999811	0.47504507361742143	71.92142734350145
4	2.0	perception	110	diff_vonmises	-0.037404107438265596	-2.143097492666508	9.415814224293205	1.0570770557828992	0.09862461689319685	2.361656332882334	0.8620880905972896	-0.3855727879249085	1.247660878522198	43.68050483347696
5	2.0	wm	110	diff_vonmises	0.023132421336025347	1.3253901124726295	5.051115981727443	0.5810773387692206	0.03692520892822304	2.312959584882106	0.12473490355181638	-0.36480019417999915	0.4895350977318155	59.572241623236295
6	3.0	ltm	110	diff_vonmises	-0.03587486968684925	-2.055478623638275	1.7083915522134698	0.6807547800453048	1.5312859471065138e-19	1.5222044909936343	0.07686938815189942	-0.23179300714093387	0.3086623952928333	104.36036350568878
7	3.0	perception	110	diff_vonmises	0.02319048871877603	1.3287171284316144	4.611147117657318	1.7988072548509055	0.1955751652551253	2.613362218812294	0.9925988200697365	-0.397360064432557	1.3899588845022937	61.25195119453295
8	3.0	wm	110	diff_vonmises	0.10866079535195101	6.225804972201546	2.1493158476267515	0.8269080138431589	2.3654996206286838e-17	2.1538369744884993	0.10269678375335328	-0.3367406571416502	0.4394374408950035	93.7061777519304
9	4.0	ltm	110	diff_vonmises	-0.3557161431284877	-20.381033705933866	1.1524346187722696	1.3394373681947458	6.177715967429877e-18	2.895315769757057	0.03520461072686215	-0.41131361769642105	0.4465182284232832	121.72642261359445
10	4.0	perception	110	diff_vonmises	0.03877887567276641	2.221865910312056	1.688082166957639	5.078224644581675	0.5050163330418704	6.899221549934621	0.6545884010278213	-0.6229546774624267	1.2775430784902482	85.42620307772245
11	4.0	wm	110	diff_vonmises	-0.20716254146172425	-11.869539298960728	0.9435951952148754	4.186386345619532	0.2009843259307444	6.748349171897057	0.08580094489696322	-0.6597354813779155	0.7455364262748787	114.48697108078113
12	5.0	ltm	110	diff_vonmises	-0.036680362901032396	-2.101629985237397	1.6787249972743772	1.3330306641963292	1.30852642616589e-13	2.0533358622428444	0.2914908821447459	-0.30526716003899956	0.5967580421837455	105.18272937800148
13	5.0	perception	110	diff_vonmises	-0.031108328977897157	-1.782375958138025	1.41771397661351	5.878095250381123	0.6213616273289719	6.598324882203881	0.6818387645509318	-0.40756899892505366	1.0894077634759856	90.52918997072055
14	5.0	wm	110	diff_vonmises	0.02007274764477222	1.1500837232766117	1.9840952630946669	1.609002359311989	1.92848660452257e-15	2.388509217721747	0.4459145646607105	-0.36452405663803333	0.8104386212987438	97.3872335020699
15	6.0	ltm	110	diff_vonmises	-0.08828083876556801	-5.058119473141955	0.18157397612735046	8.252165675116451	8.586438680380127e-11	8.621267652623127	0.18985152484053147	-0.28579352771982114	0.4756450525603526	169.45560990500235
16	6.0	perception	110	diff_vonmises	0.19916748874600262	11.411456521365272	0.23497939292723863	10.154206798815233	4.082176514394532e-12	10.416730633389504	0.3583526765396936	-0.3976606098777613	0.7560132864174549	165.59122786231154
17	6.0	wm	110	diff_vonmises	-0.3785734444706153	-21.69066060389649	0.6618290147483044	59.81968538504966	0.6224506150640801	60.08661350255613	0.3754120113328767	-0.25365048831212267	0.6290624996449994	113.77348176626431
18	7.0	ltm	110	diff_vonmises	0.13807809778472663	7.911292246259517	0.5440119135633348	62.995467449143405	0.5089906426354247	64.29297916454571	0.09161751625700276	-0.3595153658069634	0.4511328820639662	115.83796751793795
19	7.0	perception	110	diff_vonmises	-0.04395126277621306	-2.518221861347446	2.101439482241201	2.6130804640517913	0.30981427663782674	3.211187103338478	0.7085178332080164	-0.3681529603567266	1.076670793564743	85.27116984918791
20	7.0	wm	110	diff_vonmises	0.4104615644578263	23.517715295770444	0.34821599564619166	140.5327246605215	0.33544171505537795	141.86118988193675	0.03727372986051236	-0.3774206187737761	0.41469434863428845	135.36421025268712
0	1.0	ltm	111	diff_vonmises	0.20043306872518313	11.48396891280857	0.41881842981136974	151.13577179011014	0.4054511756948059	154.1566229924576	-0.320830945323074	-0.5560002296279904	0.23516928430491646	110.73129549533476
1	1.0	perception	111	diff_vonmises	-0.05335748172092516	-3.057158508055448	10.455861445573534	0.8279410908342482	0.024199391832381078	4.2329168315296934	0.3645817678799306	-0.6782004936991946	1.0427822615791251	41.68058767926692
2	1.0	wm	111	diff_vonmises	-0.028209027769676532	-1.616258235369803	7.338995246784193	0.285833898077815	0.12777922007760023	3.778093262995307	-0.3772460643399919	-0.6312985984471907	0.2540525341071988	45.97657197404456
3	2.0	ltm	111	diff_vonmises	0.03346659098687912	1.9174944182387341	0.505313742200965	122.50524730457678	0.4894415235091347	124.03064856638285	-0.010096093472121481	-0.3600896655263721	0.34999357205425063	114.99211685066902
4	2.0	perception	111	diff_vonmises	-0.06457100919252565	-3.6996463056321613	10.57748573154061	1.152507214638786	0.23494418312486584	3.0382477039698212	0.8733937552754572	-0.5300912076813602	1.4034849629568174	40.57953090602663
5	2.0	wm	111	diff_vonmises	-0.08872209197482388	-5.0834014197289195	3.8736828162555654	0.8540941238134777	0.20599420270999644	3.3845381990117387	-0.009670197277102388	-0.5263177630114702	0.5166475657343678	62.533478517994126
6	3.0	ltm	111	diff_vonmises	0.07155050401686036	4.099541902199943	1.2545277053953836	165.95761986118382	1.23630600080026	166.95311123179815	0.17061489571224797	-0.28975033114487303	0.460365226857121	75.83319322075442
7	3.0	perception	111	diff_vonmises	-0.044983297137170225	-2.5773530745427724	2.5939424194964285	3.8825689036802906	0.5416229766507955	5.41138674021443	0.9606514565388711	-0.6268598077556332	1.5875112642945042	73.02002744866752
8	3.0	wm	111	diff_vonmises	-0.02589262696089549	-1.483538245365959	3.078282062251742	0.8576543484423271	0.28043478633834834	2.8291544247652247	-0.014519929437959878	-0.4188746514375545	0.4043547219995946	67.15158058869363
9	4.0	ltm	111	diff_vonmises	0.22342101881610624	12.80108143267584	2.1454291498324345	0.6061352668331367	9.708204810334495e-23	2.627324196147579	-0.0919539946744572	-0.4136848385448618	0.3217308438704046	93.74179736778132
10	4.0	perception	111	diff_vonmises	-0.030304679592190045	-1.7363302401287264	0.7793502736638395	299.99767474878877	0.759159308075746	302.3004963341789	0.4753478565101972	-0.7075295446108356	1.1828774011210328	98.34928212509502
11	4.0	wm	111	diff_vonmises	-0.11276412232962083	-6.460908289984197	0.7519434447646717	206.97416771333488	0.7314369054589542	210.04292923429853	-0.0815768158332304	-0.6510795492765773	0.5695027334433469	91.30213971085081
12	5.0	ltm	111	diff_vonmises	-0.00014372686840293455	-0.008234942962120337	1.01052599349246	179.4690983891038	0.9925167384357622	180.76923738504925	0.16891774529410242	-0.34985326185044485	0.5187710071445473	84.16972533815931
13	5.0	perception	111	diff_vonmises	0.0003941286644407088	0.022581909057580462	0.855094349603843	242.0777131651655	0.832511982790799	243.94596370436773	0.4644147098959337	-0.5937797725895457	1.0581944824854794	94.43287789766367
14	5.0	wm	111	diff_vonmises	0.00895227237512764	0.512927424146371	1.9089845330738058	1.74602328712704	0.2078113784708873	3.6121194644048913	0.1755466186240694	-0.46299287033727476	0.6385394889613442	87.17109371540423
15	6.0	ltm	111	diff_vonmises	-0.11415996006822345	-6.540883901291213	0.7564455945154925	52.12601420170906	0.7017901598159944	53.59370523964336	0.12539336015026237	-0.37916508560177853	0.5045584457520409	98.0582691966224
16	6.0	perception	111	diff_vonmises	0.16541906323276262	9.47781417424499	0.09638607998205928	22.388674799079965	2.342044408384554e-13	24.228334476818166	0.05864465550735165	-0.6276993348405719	0.6863439903479236	173.62109851026895
17	6.0	wm	111	diff_vonmises	-0.13606901748150665	-7.7961804241821495	0.6780150660459902	97.11221409243062	0.6446047340471173	98.87933985250685	0.13289594983240605	-0.4582552833660074	0.5911512331984135	102.84091947154292
18	7.0	ltm	111	diff_vonmises	-0.07203860998800245	-4.127508314301518	1.371694243875083	119.29434913058722	1.3534040338221343	120.21328311623921	0.0180702453155277	-0.23517538940722815	0.25324563472275585	68.5854640901484
19	7.0	perception	111	diff_vonmises	-0.05672377174120067	-3.2500327188342433	1.9348152636683764	1.74087138513371	9.309157160114764e-17	3.458372216482027	0.3298244246187565	-0.5320491701072682	0.8618735947260246	98.54868652498443
20	7.0	wm	111	diff_vonmises	0.9447296076419516	54.12901929893403	0.24715237196214454	80.7377381285015	0.23395714410659857	82.48751356731528	-0.15993066259868982	-0.3644931745858564	0.20456251198716657	133.26694428228876
0	1.0	ltm	112	diff_vonmises	-0.5490694012368998	-31.459359350649542	0.08585923809754388	7.1936977529389114	1.1071358413369072e-06	8.68955209696139	-0.137728822901394	-0.3342014381744258	0.19647261527303184	167.33583033574118
1	1.0	perception	112	diff_vonmises	-0.07761008741529492	-4.446730456537782	10.071444696360928	0.9742437732034932	0.012391222483236514	2.764019508243812	0.7716505444920654	-0.4406245986061506	1.212275143098216	42.67157246473161
2	1.0	wm	112	diff_vonmises	0.2547109785693555	14.593864067671229	1.5140757402788467	0.6867166547341635	4.126516763049264e-20	2.3542375632057215	-0.07555813841665004	-0.36020802657227735	0.2846498881556273	109.78332482593908
3	2.0	ltm	112	diff_vonmises	0.2806936910555622	16.08256383343274	0.7842496560480406	110.6097348846106	0.7692308924748992	111.25212933154425	0.12595021626337655	-0.1940197256900298	0.31996994195340633	97.66022723141427
4	2.0	perception	112	diff_vonmises	-0.019691561922832973	-1.1282433901988453	7.521916550677863	1.5926428066972935	0.5979829071862799	2.1907919698370093	1.1306549539539834	-0.39141466120385904	1.5220696151578426	46.773435852164084
5	2.0	wm	112	diff_vonmises	0.007857323514245434	0.45019147563516354	9.660540490202978	0.34709436371627184	0.07233635644528395	1.340543506053304	0.19534607162595033	-0.2180835742171614	0.4134296458431117	43.03351064038293
6	3.0	ltm	112	diff_vonmises	0.11647146413639664	6.673323328724857	2.464574618924503	0.6729326141706903	0.6047873357842325	0.9392166810413499	0.14300620565003286	-0.10324474758267588	0.24625095323270874	73.15776776599111
7	3.0	perception	112	diff_vonmises	0.022812592162209593	1.3070652506478306	3.8765893300757113	2.180895607214175	0.5412264112325171	2.4564953000846383	1.0231135242107285	-0.33385438261432443	1.3569679068250529	63.61264469745521
8	3.0	wm	112	diff_vonmises	0.04834538254102777	2.7699863785463466	3.4239936923292817	0.4179205997381077	0.1727422413888265	1.0401532921065215	0.09959616809251207	-0.15480817145153392	0.25440433954404595	68.86262263973686
9	4.0	ltm	112	diff_vonmises	-0.3450014762245108	-19.76712851344748	3.0483530482569403	0.5299871320670846	5.662613316203712e-18	1.578687161422251	0.099028480468206	-0.25046759209703007	0.34949607256523607	78.66545314511602
10	4.0	perception	112	diff_vonmises	-0.0036773757321268336	-0.21069810913469875	2.790303973771295	2.0573782423512346	0.14710701743569227	3.1757376356109006	0.7102398228228962	-0.44800476397943967	1.1582445868023359	77.94121396575338
11	4.0	wm	112	diff_vonmises	-0.2332230756811652	-13.362697921590954	1.1355139825396638	143.73401839292202	1.1109863384629584	145.24000534037927	0.11207187174377253	-0.3842090419681732	0.4962809137119457	77.78541257242038
12	5.0	ltm	112	diff_vonmises	-0.15555445882387273	-8.912613975049455	3.0000048642694215	0.49118721374902374	1.7434225048208992e-14	0.9155698678709568	0.1759885322549737	-0.14492004295675628	0.32090857521173	79.3297321218059
13	5.0	perception	112	diff_vonmises	0.00682597064908647	0.3910993092728298	1.1949279240871784	111.46746386478986	1.1554814093586334	111.95130516870047	0.6356340166906378	-0.32854995631821104	0.9641839730088488	84.37409258372594
14	5.0	wm	112	diff_vonmises	0.07312597542994725	4.189809764913333	1.1645683575040557	2.7523530933934435	0.3905926845285625	3.2402598306510475	0.2915764641313362	-0.2373726219583205	0.5289490860896567	103.09093590091706
15	6.0	ltm	112	diff_vonmises	-0.45571006935467584	-26.11026365563696	0.734897655400845	92.92509611080453	0.7145146406744877	93.46802558173741	0.20535443991557045	-0.21276231108004318	0.41811675099561363	103.74959118260593
16	6.0	perception	112	diff_vonmises	0.23629134019637327	13.53849652874213	1.0645594715259954	2.446877219716436	2.3891925477246775e-17	3.200694595502216	0.35648055048205907	-0.40640889432391114	0.7628894448059702	125.50015991109657
17	6.0	wm	112	diff_vonmises	-0.2281124188333791	-13.069878853673176	3.268322340885557	0.8248539025585927	6.744464833611592e-15	1.2157820356653588	0.3735863727356843	-0.1926758171386209	0.5662621898743052	75.92811613555347
18	7.0	ltm	112	diff_vonmises	0.04745091523580197	2.7187371770444684	1.16573681972075	274.8596874433313	1.1543341790585704	276.2849241498251	0.05395050868919782	-0.35109860081951894	0.40504910950871675	75.27794746118408
19	7.0	perception	112	diff_vonmises	-0.1300177770211502	-7.449469884984923	2.2882885634947026	1.5703761135932812	8.171169414387484e-22	2.368508407953346	0.5013048048682763	-0.3679211545170338	0.8692259593853101	90.88640515889719
20	7.0	wm	112	diff_vonmises	0.4420088789687973	25.325243272220902	1.9842296392290546	0.63137302373862	4.0216102202306576e-20	1.816251849663545	0.03508492532226548	-0.28293780423612064	0.3180227295583861	97.06188315005744
0	1.0	ltm	113	diff_vonmises	0.15734352005458785	9.015119632859912	0.4414968674300423	88.1911665098304	0.42571404199676544	90.20824890585462	-0.21272574062365734	-0.3702582076359455	0.15753246701228818	107.83695507209984
1	1.0	perception	113	diff_vonmises	-0.008472897087568891	-0.4854612433663846	8.965720027972218	0.90061365330495	0.08837967130580486	3.312780179088651	0.48480575714498275	-0.5402864194128946	1.0250921765578773	44.52717331316762
2	1.0	wm	113	diff_vonmises	0.2536858582157719	14.53512899791793	5.325396599724502	0.2751264755768156	0.08877518963052343	2.7624643508921043	-0.23286720889966298	-0.44490102109536955	0.21203381219570658	54.745775621654786
3	2.0	ltm	113	diff_vonmises	0.25338437730864977	14.517855414336056	0.604963967904058	105.7413875074159	0.5904042832729791	106.75223357600919	0.024711578240260934	-0.24349490590459055	0.2682064841448515	106.09469688471697
4	2.0	perception	113	diff_vonmises	-0.02756018327935953	-1.5790821845143217	9.086448460157335	1.2640783884268523	0.28264231985406274	2.6514135487813473	0.9489016620998777	-0.4605801430616205	1.4094818051614981	43.61351817601485
5	2.0	wm	113	diff_vonmises	-0.04977713602284489	-2.8520198103576284	4.314934609758517	0.6584228470828302	0.2211141219885635	2.614691103085452	0.014674957406741851	-0.41377854293497845	0.4284535003417203	59.53197612792172
6	3.0	ltm	113	diff_vonmises	0.15864961249055257	9.089953217094651	1.319395782645873	83.65354810324821	1.301639022334517	83.98198177781259	0.138876355824344	-0.12284603571368358	0.26172239153802757	76.69886201312602
7	3.0	perception	113	diff_vonmises	0.03121090506906366	1.7882531352408149	2.07765027514244	7.699578603109202	1.1808552853007814	8.239378803348421	0.9697420134976	-0.44335465672631025	1.4130966702239103	72.01257000774922
8	3.0	wm	113	diff_vonmises	-0.028724827345667857	-1.6458113741487432	3.487040764807924	0.48684689968215467	0.16943863497951997	1.5073406951748485	0.06486421572759327	-0.22761499956685755	0.2924792152944508	67.49553820638099
9	4.0	ltm	113	diff_vonmises	-0.2565198455078786	-14.697504508949352	0.7358228733436957	72.10551526924318	0.7135818597120849	73.40579521149796	-0.06742649322470484	-0.2637504322090898	0.19632393898438494	90.11897728966623
10	4.0	perception	113	diff_vonmises	0.02281194480313739	1.307028159705164	1.1131034657194065	203.46560245575273	1.082462857710134	205.13497049098416	0.5710940885629441	-0.5720062819208032	1.1431003704837472	83.44702854548146
11	4.0	wm	113	diff_vonmises	-0.33004600399716866	-18.910243074195662	0.81122675621689	142.84206508169964	0.7885315240814119	144.94106932720456	-0.013669363104646948	-0.4610650585285647	0.44739569542391777	89.12824759158431
12	5.0	ltm	113	diff_vonmises	-0.03249248754211253	-1.8616824020444536	1.3328730602242995	5.310504442649402	0.9933937975877504	5.9019683693211675	0.13299293465644357	-0.17949701664463436	0.31248995130107793	79.65523584989731
13	5.0	perception	113	diff_vonmises	-0.03220138849089181	-1.845003654989244	1.5755460760978295	4.9600034068887595	0.6048518390926376	5.956218328725422	0.6262791704369477	-0.4377152258069323	1.06399439624388	86.71035773409164
14	5.0	wm	113	diff_vonmises	0.14213619518586007	8.143804100197471	3.3320946125315607	0.7970573329998927	1.4532795531822222e-13	1.9542766745053501	0.24291206201138638	-0.31032606045135297	0.5532381224627394	75.18685778638093
15	6.0	ltm	113	diff_vonmises	-0.34144874432525	-19.563571969878343	0.6373080713289427	146.62971733621708	0.6254518407793106	147.36865835817864	0.13014834768606676	-0.2317529888332821	0.36190133651934886	108.3337730719581
16	6.0	perception	113	diff_vonmises	0.22245709618700768	12.745852734251338	0.6409066110982176	3.750461857454442	6.0421705628956426e-18	4.523107892406342	0.30516738819144207	-0.4353876792548618	0.740555067446304	144.2543337282986
17	6.0	wm	113	diff_vonmises	-0.27311560305575366	-15.648371374264975	1.8342248707326874	1.0090143630631667	7.475511361270896e-17	1.8113117701469248	0.2056333936477544	-0.2756756788674347	0.4813090725151891	100.89772951678005
18	7.0	ltm	113	diff_vonmises	0.25081716148261285	14.37076478240495	0.940750998460996	87.08466575811175	0.9201241460317153	87.84773408444799	0.09235476697508105	-0.2027058981237797	0.29506066509886075	87.26688775929975
19	7.0	perception	113	diff_vonmises	-0.08698893494080287	-4.984098836446104	2.310420737497556	1.469032496249803	2.426397316630296e-16	2.083477968176921	0.4947661800479197	-0.3234606881642397	0.8182268682121594	90.46116213249925
20	7.0	wm	113	diff_vonmises	0.3361668348780047	19.26094085078091	0.6159290037639908	98.52419957000586	0.5988553887108858	99.76296815129032	-0.010090797904009463	-0.2774292133281566	0.26733841542414716	103.06293407835813
0	1.0	ltm	114	diff_vonmises	0.1632700067163788	9.354682305921111	4.010292178660513	0.5120451054806804	3.01191899052306e-16	2.654285235051035	-0.02823069473548534	-0.42231304657625474	0.3940823518407694	68.37291020195582
1	1.0	perception	114	diff_vonmises	-0.11771232395082257	-6.744419359058849	10.870719643520653	0.9964856626066996	2.6581032302356365e-17	3.1501734889958812	0.7934673731470696	-0.5013656819028718	1.2948330550499414	41.14893484729458
2	1.0	wm	114	diff_vonmises	-0.0056759757020514445	-0.32520945234635223	5.650117323298729	0.5076207237886871	0.08414825497754604	3.050548502250132	-0.05757833905458126	-0.48819729122747074	0.4306189521728895	54.76816259552987
3	2.0	ltm	114	diff_vonmises	-0.13234730847960474	-7.582942205797324	1.1020429920758534	155.54857462775465	1.081210850135208	156.69487093016502	0.19800515072782332	-0.3269251442678218	0.5249302949956451	81.33641266492722
4	2.0	perception	114	diff_vonmises	-0.05281968660163903	-3.0263451174776184	8.987923310616274	1.060875067714393	0.0705680702745714	2.252526414342883	0.8659654728546551	-0.36346297128738586	1.2294284441420409	44.86189959595268
5	2.0	wm	114	diff_vonmises	-0.09053242379393682	-5.187125792482332	4.940749276844833	0.6681224650115642	0.27037446853674246	2.1787447084261946	0.12944838388976793	-0.3512793232179089	0.4807277071076768	56.242326949276844
6	3.0	ltm	114	diff_vonmises	0.014594573741216893	0.8362074791641841	0.9533440719767293	148.09458470775104	0.9314543582928866	149.1423577840318	0.2715183088356241	-0.3311777783215053	0.6026960871571294	89.32055100689448
7	3.0	perception	114	diff_vonmises	-0.025348623631037445	-1.4523691505240297	3.0029825507109695	2.70027347803237	0.33238656013889945	3.851279283772536	0.9379039259838619	-0.5118195448828017	1.4497234708666635	72.27411628562584
8	3.0	wm	114	diff_vonmises	-0.004422774247917308	-0.2534062981448086	2.8176954910219143	1.217480914875441	0.38040975468895416	2.6242653258390436	0.17976477515610467	-0.35784724205261886	0.5376120172087235	70.16394368747149
9	4.0	ltm	114	diff_vonmises	-0.07955383824686271	-4.558099175611662	1.919286158630575	1.1817073462472736	1.3374691580016927e-14	2.690387491496433	0.16638660437657288	-0.4153891891632543	0.5817757935398271	98.91959973697419
10	4.0	perception	114	diff_vonmises	-0.05670826921935402	-3.2491444897606208	0.8220984905112777	528.2714312669711	0.8111092932829308	530.0599671100928	0.5615793235642741	-0.6215776921423881	1.1831570157066622	96.9290276331063
11	4.0	wm	114	diff_vonmises	-0.18520611924423036	-10.611528972691056	0.9766626799856966	205.08682118840494	0.958528960377101	206.91743408916594	0.09418755567020298	-0.44316500766237965	0.5373525633325826	83.33129177430978
12	5.0	ltm	114	diff_vonmises	-0.014986829771607342	-0.8586820941941122	1.8917122832957398	1.249737990829832	0.03206378386983245	1.8997207337060646	0.3112193292206537	-0.2785561821384405	0.5897755113590942	98.04543764087936
13	5.0	perception	114	diff_vonmises	0.02353509825232754	1.348461800284088	0.9839402252344692	295.89484885382245	0.9687739021609779	296.6549493764102	0.5953163927339062	-0.389049628169186	0.9843660209030922	91.3923396398981
14	5.0	wm	114	diff_vonmises	-0.050256085181888614	-2.879461575772174	1.2446726030116348	3.6703256164005276	0.47381737474927793	4.422792431979722	0.35206407490566916	-0.30718184939221316	0.6592459242978823	97.02869772496985
15	6.0	ltm	114	diff_vonmises	-0.1816214095632389	-10.406140237190558	1.3621365296473278	1.3199776077962355	6.336627455439828e-15	2.129187112674301	0.20058316646768792	-0.3034833690329014	0.5040665355005893	114.80032078817094
16	6.0	perception	114	diff_vonmises	0.13910800267666648	7.970301449867549	0.09572086589786855	19.2528930701538	2.7457714610984332e-11	19.926704199048785	0.19285272377131646	-0.3933143929221288	0.5861671166934452	173.88699938876786
17	6.0	wm	114	diff_vonmises	-0.22005487407597768	-12.608215545836313	0.7995118043099758	142.50502329988026	0.7842715292124514	143.1483969661805	0.22131425844378327	-0.2340059525589222	0.4553202110027055	98.81435447650213
18	7.0	ltm	114	diff_vonmises	0.11188406926593689	6.4104849636875505	1.2088371240997668	229.46827646508285	1.1965778937976308	230.31771874724993	0.19788129612656746	-0.2619807947389319	0.45986209086549934	78.24652255466304
19	7.0	perception	114	diff_vonmises	-0.06459373530127215	-3.700948415748091	2.144570970518328	1.8220910559335113	3.0788459139145415e-18	2.3733108291630334	0.6026006373404299	-0.3642765531391317	0.9668771904795617	93.82051820755117
20	7.0	wm	114	diff_vonmises	0.29265993965195963	16.768179374610657	0.2539277091798962	3.486796696955373	2.6026560384540805e-05	4.418303426436106	0.0007542243134645021	-0.27953793247488545	0.28029215678834996	163.4853292699376
0	1.0	ltm	115	diff_vonmises	0.29612699527493297	16.96682702914413	0.4621215114757951	165.11271775077125	0.450104400392152	168.22361245578082	-0.3705693165985764	-0.5489283813392483	0.17835906474067187	99.9081175146556
1	1.0	perception	115	diff_vonmises	0.03082044725147363	1.7658815502150174	8.384576792707975	0.8390867680532977	0.04255789229623114	4.3658261421485465	0.22918362442117957	-0.7008846863094244	0.9300683107306039	46.2495307794251
2	1.0	wm	115	diff_vonmises	0.25586614110648054	14.660050005700118	5.623649210150324	0.23726378190023184	0.07529574554572413	3.809819311146634	-0.43388673327677363	-0.6165548662001339	0.18266813292336026	52.515728441514426
3	2.0	ltm	115	diff_vonmises	0.29535158925967603	16.92239953706085	0.5584127646998002	189.45243716266907	0.5487316795933315	190.96220801464972	-0.04094911077275043	-0.3296707076695178	0.28872159689676735	106.73911170131564
4	2.0	perception	115	diff_vonmises	-0.04870738975781468	-2.7907278642215143	9.793245055306722	1.3343087820732589	0.3168457979712949	3.1458134008710985	0.97299769039047	-0.5613034665451014	1.5343011569355713	41.819276882579004
5	2.0	wm	115	diff_vonmises	0.017085472759735557	0.9789254801185826	5.309245245724368	0.5454880517542467	0.026462840565987446	3.051348842649153	-0.0102230212875985	-0.4831370346922504	0.4729140134046519	58.13259754351884
6	3.0	ltm	115	diff_vonmises	0.06927697120560103	3.9692780675302695	1.2021870461721045	85.50390039861772	1.182258868284619	86.13595688929036	0.077552922153032	-0.1727310649442586	0.2502839870972906	76.61412893483723
7	3.0	perception	115	diff_vonmises	0.021815046176963334	1.2499100758230006	2.690365270689294	3.3843073486735786	0.5909837730614326	4.222471843397594	0.9677824414658267	-0.4758467622565246	1.4436292037223513	72.30248087343244
8	3.0	wm	115	diff_vonmises	0.0037914434509569222	0.21723370800234776	3.1319105198129176	0.5573337833254054	0.18909240163814403	1.8720758183026718	0.0172811734963092	-0.2790544743921522	0.2963356478884614	69.47217131342441
9	4.0	ltm	115	diff_vonmises	0.1852548423349857	10.61432060015617	0.0006225415100904884	562.5085522999042	1.7439093318686744e-18	564.2745885339742	-0.2253323258843949	-0.33679712009309526	0.11146479420870037	178.7931808370916
10	4.0	perception	115	diff_vonmises	0.029548032088844902	1.6929775316079387	2.3320022140223426	2.613986645874644	0.20647715740865588	4.730584065531988	0.5627425350842425	-0.6295642863049957	1.1923068213892383	81.73892177393341
11	4.0	wm	115	diff_vonmises	-0.24765911008342834	-14.189821765746293	0.974396042196854	3.404153755517381	0.23766780725714837	6.334435827079486	-0.11404154063547334	-0.6234641258051092	0.5094225851696359	105.93921888530264
12	5.0	ltm	115	diff_vonmises	-0.022882138085484567	-1.3110499385338275	1.5195768844022213	2.3959682648918865	0.6086136878273094	3.79342044704268	0.032442363948052444	-0.32284086804842926	0.3552832319964817	79.75918161963915
13	5.0	perception	115	diff_vonmises	-0.01849972443857492	-1.0599561324853695	2.718682524634945	1.7979056579795163	0.027725073362325877	3.7977438222363333	0.49145392973475366	-0.5830764017695144	1.074530331504268	81.99090023625993
14	5.0	wm	115	diff_vonmises	0.11914923691749854	6.826748407577005	2.8894375772374588	0.8932150871945502	6.575161059796252e-18	2.9455867514822036	0.10377766957727053	-0.467034110607283	0.5708117801845536	80.86189219010146
15	6.0	ltm	115	diff_vonmises	-0.2780352131204809	-15.930244267823927	0.5373860701201075	152.78566239067786	0.5239277209374769	154.2710742647556	0.012880779509046647	-0.35695438520942346	0.3698351647184701	112.10168579362795
16	6.0	perception	115	diff_vonmises	0.2793866713238544	16.007677119065562	0.2851531516537018	9.051609095055337	6.513497350475873e-10	11.002113257256857	0.1265565926215868	-0.6895368561713879	0.8160934487929747	161.98734887028252
17	6.0	wm	115	diff_vonmises	-0.36127407026953895	-20.699479473957314	0.9428936338022977	2.059784006069001	1.3838037760222567e-15	3.926588045563325	0.05660251385539472	-0.5215373112648358	0.5781398251202305	129.90331509782672
18	7.0	ltm	115	diff_vonmises	1.0312966730147233	59.08894678962694	0.00016920903260536434	5209.323111022933	3.9223048309410965e-31	5210.6748581820975	-0.07484204086483714	-0.3554205744550245	0.28057853359018736	150.95873376675212
19	7.0	perception	115	diff_vonmises	-0.09211491500808244	-5.27779586016941	3.0802290696176873	1.3519821841899062	2.857841260705242e-19	2.857439142077849	0.4440756830719759	-0.45287769476650175	0.8969533778384777	78.27409228069567
20	7.0	wm	115	diff_vonmises	1.1386231593196345	65.23830148486698	0.0002990166399016376	2742.4573921924716	2.3110406209220045e-25	2744.4564374970705	-0.18763583309993237	-0.448660538107049	0.2610247050071166	145.25166546835314
0	1.0	ltm	116	diff_vonmises	-0.45999458828630585	-26.35574850766326	0.06045369019571275	47.23205124078515	0.04705827414709396	47.916613825919676	-0.01081264390465364	-0.20180300475228474	0.1909903608476311	168.33941198395166
1	1.0	perception	116	diff_vonmises	-0.10238287565588243	-5.866106669494763	11.806969478136457	0.9107065738828081	4.0340898648716784e-16	1.9194512454343235	0.9291239159360312	-0.30549015366619386	1.234614069602225	39.46470583015406
2	1.0	wm	116	diff_vonmises	0.11668161246088934	6.685363940790035	3.9593680830709874	0.36967708154686363	2.408340334724594e-28	1.1548663392995089	0.09882854716304823	-0.1836998354936635	0.28252838265671176	68.82190126139173
3	2.0	ltm	116	diff_vonmises	0.2817757738204674	16.144562608945655	0.26053130970048183	82.39664856077988	0.24646542664088011	82.76335826514213	0.13093716168216574	-0.20352542998165468	0.3344625916638204	149.2303918481902
4	2.0	perception	116	diff_vonmises	-0.01835407311000941	-1.0516109260780924	7.460636243288498	1.5131144978731712	0.5296246464329553	2.0086142407317498	1.1125077708566362	-0.35194168008973864	1.4644494509463748	47.31957079076108
5	2.0	wm	116	diff_vonmises	-0.07069618396237552	-4.050592968724574	8.972847995619588	0.3959350778695399	0.514109562490979	1.006211036907053	0.21526200494834846	-0.19146674387168786	0.4067287488200363	42.36672823053746
6	3.0	ltm	116	diff_vonmises	0.0726541577253686	4.162776601741426	1.5101326019837196	103.43487156599075	1.4952341322646712	103.46193733926711	0.2577239502847206	-0.09165117995785188	0.3493751302425725	76.41370824564828
7	3.0	perception	116	diff_vonmises	0.03245132264048475	1.8593238269171108	1.665469034758222	271.8009538152672	1.641849430484686	271.8798301864073	1.0500164813848158	-0.36447339939071455	1.4144898807755304	72.8525303233973
8	3.0	wm	116	diff_vonmises	-0.05864690055074673	-3.3602198830812506	1.715271435885103	49.662976462679985	1.673737057662408	49.98051619852134	0.19870722126922047	-0.14783736455179852	0.346544585821019	67.94657885630332
9	4.0	ltm	116	diff_vonmises	-0.2263001031220623	-12.966040812269474	7.420547177974717	0.39553842007071793	4.818792893903289e-21	1.2973761837782745	0.21561776135638855	-0.20648368133744663	0.4221014426938352	49.923804696972184
10	4.0	perception	116	diff_vonmises	-0.04474000323838344	-2.5634133609610066	1.746376983031602	4.5978071556749915	0.5944291225610734	5.53723977152647	0.7197973000533016	-0.45071666255389803	1.1705139626071996	84.31885148377594
11	4.0	wm	116	diff_vonmises	-0.4070995949556618	-23.325088632444718	1.669481382272442	145.61822648084848	1.6468141941782848	146.53642207812257	0.13690254529240065	-0.29137450248402175	0.4282770477764224	64.73995888296747
12	5.0	ltm	116	diff_vonmises	-0.1455238769844618	-8.337903969590638	4.013779378182182	0.28891294790982497	1.4367701245593103e-21	0.5049624351477742	0.14216735442694972	-0.08029463466903945	0.2224619890959892	68.34246687787689
13	5.0	perception	116	diff_vonmises	0.03073100245228145	1.76075674072191	1.2672252091882197	100.64547093971123	1.2267977264929502	100.97948371847204	0.6178475918336161	-0.28633983680246544	0.9041874286360816	82.48211397703176
14	5.0	wm	116	diff_vonmises	0.045014495705976355	2.579140620862212	0.8148414697858675	93.51623795368177	0.7970914444714036	93.8641011066241	0.21152829240552862	-0.16526480128883314	0.37679309369436176	99.901367140675
15	6.0	ltm	116	diff_vonmises	-0.4951944257850906	-28.372550635889958	2.3935126614726854	0.6885129752782329	3.186897733913203e-15	1.3645872062477702	0.17830232820720268	-0.21388323521079283	0.3921855634179955	88.7143089010545
16	6.0	perception	116	diff_vonmises	0.23346406836755476	13.376505785414595	1.2974977718276173	1.909152418648065	7.006249553425027e-18	2.563650082360919	0.34991416823590965	-0.3514376813125606	0.7013518495484703	116.87119583063293
17	6.0	wm	116	diff_vonmises	-0.16871655986450537	-9.666746814202455	5.700378160345621	0.4054563694900203	1.1474987235246266e-16	0.9179442518101938	0.2307638997774343	-0.14609114841290338	0.37685504819033766	57.10496264121326
18	7.0	ltm	116	diff_vonmises	0.09244487347436267	5.2967010877018765	1.6218132800996854	202.15479479173194	1.6069725506916848	202.928120888475	0.1627531715352717	-0.2557727469121893	0.418525918447461	66.57728012663912
19	7.0	perception	116	diff_vonmises	-0.09107349680340456	-5.218126992333275	1.3149903991731609	1.9090527000623807	2.1854472372426656e-25	2.3463185082395484	0.39054156326704487	-0.3183603168572991	0.708901880124344	116.51807145551764
20	7.0	wm	116	diff_vonmises	-0.2936798801149029	-16.826617658491926	0.0001795140468253014	3825.381339931535	4.042507715564869e-33	3826.024596768995	0.006920139597468733	-0.21166534065980613	0.21858548025727487	177.53705131711084
0	1.0	ltm	117	diff_vonmises	0.07277011587297137	4.16942051419922	1.9668507442658447	0.45650907066704627	1.2745882060350042e-24	2.687335928455653	-0.19456731498193489	-0.42314000137083335	0.22857268638889847	97.78030133154485
1	1.0	perception	117	diff_vonmises	-0.02792397623190134	-1.5999259853115706	10.74970943604383	0.8341710011048661	0.07609156816752498	3.539063272614008	0.4706394314687925	-0.5793392745668774	1.0499787060356698	40.7762239218215
2	1.0	wm	117	diff_vonmises	0.07089875926189629	4.062199678420713	5.49232152579258	0.4452202717915695	0.08431679477082267	3.133860221464884	-0.1358782020650971	-0.5019973249019153	0.3661191228368182	55.12465184880486
3	2.0	ltm	117	diff_vonmises	0.008807682166359182	0.504643015425023	3.2802838516051587	0.5579460305261471	2.2993553077442787e-19	1.652374582622283	0.12134435394865445	-0.26243959370296216	0.3837839476516166	75.80250798970059
4	2.0	perception	117	diff_vonmises	-0.03809551469310273	-2.1827122102934022	10.441935170178235	0.9965908683223191	0.09989783351489172	2.4875381649535915	0.8321702950962616	-0.40900876874167713	1.2411790638379387	41.46786636349282
5	2.0	wm	117	diff_vonmises	-0.1013427815168975	-5.806513665034634	4.127334533433211	0.7879323127028874	0.21949392301880896	2.5612557690622646	0.11459665989627077	-0.39816041258859464	0.5127570724848654	61.55702115786656
6	3.0	ltm	117	diff_vonmises	0.03288666612054366	1.8842671709630239	0.9767762972244359	79.11836561739628	0.9535084475129808	79.66406037014917	0.16756175115146377	-0.18170220340786614	0.3492639545593299	88.8365278275638
7	3.0	perception	117	diff_vonmises	0.03172487477811666	1.8177014303671186	3.082683339284948	3.316785963913889	0.6978936812397706	3.9750741510073317	1.0766329982577048	-0.4650850423961942	1.5417180406538988	67.64131228665096
8	3.0	wm	117	diff_vonmises	-0.08556933845539853	-4.902761949220831	3.216566976935344	0.6962018467212308	1.6354343547255436e-14	1.7834547945809895	0.19050893347111691	-0.2830831591622778	0.4735920926333947	76.55908354527645
9	4.0	ltm	117	diff_vonmises	-0.32380834479219106	-18.552851527709517	1.7123624475368928	0.9523790975171414	0.10972089631074297	2.3697591255131902	0.027449652984159745	-0.3239866415299186	0.3514362945140783	94.9411751640176
10	4.0	perception	117	diff_vonmises	0.004521964603029424	0.2590894868611367	1.9716611503308967	4.019282086984585	0.437766347344984	5.606904712614633	0.737073884393753	-0.5881554957236687	1.3252293801174218	82.76341523360574
11	4.0	wm	117	diff_vonmises	-0.26899572623083173	-15.41231982008319	0.7932594687482524	189.96164375009258	0.7755732539411933	191.86502686612266	0.07250658572689161	-0.4501670166324878	0.5226736023593794	92.47912823358871
12	5.0	ltm	117	diff_vonmises	0.008699187839999277	0.49842674842348544	2.1105427276370503	0.8036713965867675	4.1588462191286046e-13	1.2328614589485964	0.2320204801229586	-0.18992732398685008	0.4219478041098087	94.55617432558947
13	5.0	perception	117	diff_vonmises	-0.020041468784869586	-1.1482915766162096	1.1970388564458312	14.492615211153648	0.8752233714145877	15.181502338531873	0.6590135120313354	-0.3910772583707396	1.050090770402075	89.29531624082517
14	5.0	wm	117	diff_vonmises	0.017190945699942225	0.9849686344452604	2.551480574105084	1.105138426899778	3.319274863266616e-17	1.8360000238418552	0.3669513079681331	-0.28820163089252476	0.6551529388606578	86.10802271428
15	6.0	ltm	117	diff_vonmises	-0.30302869087885276	-17.362265058732728	0.4738091752565154	112.40888311929321	0.46020416576742956	112.88955151980699	0.1692369018105353	-0.22328793022974303	0.3925248320402783	126.56267899197682
16	6.0	perception	117	diff_vonmises	0.196968875024174	11.285485234324941	0.5968150866441393	3.9375514907519884	6.06649944893554e-16	4.174510266888089	0.3788655648477207	-0.3481575937375192	0.7270231585852399	146.5770158399631
17	6.0	wm	117	diff_vonmises	-0.25913872477087635	-14.847555237773456	1.6910458344146582	1.0158693151954494	0.02428656639213819	1.4061023128745338	0.2440280202149035	-0.2023057361149363	0.4463337563298398	103.55339713227845
18	7.0	ltm	117	diff_vonmises	0.2963047407587232	16.97701109519282	1.1800105781489965	97.15878925082775	1.1603252374551982	97.59806961351462	0.191506582177702	-0.1646614183269346	0.3561680005046366	81.51394906445319
19	7.0	perception	117	diff_vonmises	-0.009606432300455726	-0.5504080269942635	1.7542285084499103	1.7331990238467072	5.30389471035307e-16	2.1301645254609105	0.4866520795819927	-0.3143001916514778	0.8009522712334705	103.12557384010677
20	7.0	wm	117	diff_vonmises	0.04513092729737233	2.5858116596511933	1.2100822595772993	0.8438727109929403	2.295708502002722e-16	1.6451679006448718	0.059667109787976014	-0.2332508687935873	0.2929179785815633	120.30414662681936
0	1.0	ltm	118	diff_vonmises	-0.17380979310863243	-9.958567583166658	1.2599073502760358	0.6583199443292831	1.479643695862489e-18	2.0726344897686046	-0.0730249265617216	-0.30920052540524356	0.23617559884352196	118.3525214672271
1	1.0	perception	118	diff_vonmises	-0.08118902342916438	-4.651788385279877	11.304512943383477	0.9877033849783158	0.1338181029960964	2.8728492265768204	0.7889225476342806	-0.4822286306244557	1.2711511782587364	39.6772467524485
2	1.0	wm	118	diff_vonmises	-0.0014532063238193408	-0.08326258911656986	8.529994617189589	0.33100716941319425	4.6948921844303845e-19	2.0743551486080816	0.04954138285697196	-0.3301438608253278	0.3796852436822998	46.51863573722261
3	2.0	ltm	118	diff_vonmises	-0.017449941795885996	-0.9998080176532038	3.1666726949141544	0.6618872228524272	0.10890633309265844	1.161357491664527	0.24152311266208754	-0.17117872697589404	0.41270183963798157	74.0141749978641
4	2.0	perception	118	diff_vonmises	-0.031079140708686923	-1.780703593500987	10.386241189389924	0.9412617624326713	0.12379570140174082	1.8608512720593398	0.8609230122255583	-0.3079914370163961	1.1689144492419543	41.57869318877982
5	2.0	wm	118	diff_vonmises	-0.1593800180951554	-9.131802375571095	3.6129454841357935	1.000103965630883	0.5990719397141209	2.0458720974487608	0.18416648985083317	-0.2990052457910602	0.48317173564189336	60.77834759219613
6	3.0	ltm	118	diff_vonmises	0.08379534594621206	4.801119665556623	1.278443665602519	23.418106199621807	1.1972954749687883	23.66712569359979	0.2546859151519243	-0.14294794412066691	0.3976338592725912	81.60088804871822
7	3.0	perception	118	diff_vonmises	0.002061125690141538	0.11809380309109921	3.4883222946827006	3.0607797672138024	0.8189855239946788	3.6125327935526816	1.0723155375434108	-0.442536038520978	1.5148515760643888	63.38154563905621
8	3.0	wm	118	diff_vonmises	-0.06062926717500992	-3.473801124099128	3.4689795344421936	0.6309884775826854	8.188887152630745e-17	1.3791245791796118	0.22896009298126993	-0.21905927861728414	0.4480193715985541	73.65972965695255
9	4.0	ltm	118	diff_vonmises	-0.3199350604495539	-18.330928682022304	2.547174046306161	1.0452260064592078	0.1155763188792005	2.007325839308843	0.26535933861118505	-0.28688540712189803	0.552244745733083	81.30369397624074
10	4.0	perception	118	diff_vonmises	-0.03153972564390445	-1.8070931663962577	1.0498081428127832	272.6874874295622	1.0285864266667966	273.72039626240394	0.7321766564268302	-0.4920131386642659	1.224189795091096	88.25404138100552
11	4.0	wm	118	diff_vonmises	-0.2560484036493716	-14.670492880171098	1.194486163264028	194.84426732725993	1.176366385304259	196.04820890584276	0.2023409294257874	-0.3455856981152188	0.5479266275410062	77.78421325779244
12	5.0	ltm	118	diff_vonmises	-0.030253329839797928	-1.7333881160376163	1.9884639905231396	0.9545033406820679	5.613351515293487e-10	0.7960698971006329	0.36398614644964844	-0.11750109763885803	0.48148724408850646	97.28715364711195
13	5.0	perception	118	diff_vonmises	0.005495167413226267	0.3148499004956871	1.178607576350363	272.22558306928374	1.1640468787404583	272.2952599034591	0.7092549139485129	-0.2657014981992951	0.974956412147808	86.67232609453023
14	5.0	wm	118	diff_vonmises	0.01657968447829793	0.9499459462650315	2.3409017343477463	1.256669496194883	0.06813273754887803	1.1378674997167215	0.5187857121320378	-0.1623746657260136	0.6811603778580515	88.2231949029152
15	6.0	ltm	118	diff_vonmises	-0.31203480927753263	-17.878277632772203	0.6982001066641992	114.32516349980246	0.6834868319058987	114.4091312615401	0.2968456252548606	-0.16449174429926927	0.46133736955412985	111.24779422102401
16	6.0	perception	118	diff_vonmises	0.18827829363988738	10.787551599490357	0.7773017169196107	2.6773871634628073	8.747767623544455e-15	2.4949511776682916	0.40428002244369193	-0.22777534173366026	0.6320553641773522	137.97878716501435
17	6.0	wm	118	diff_vonmises	-0.21403118781565994	-12.263083746009164	2.721743462004017	0.8585832849525258	0.1512892735970073	0.548755369012551	0.43070186257305987	-0.0729900818208854	0.5036919443939453	81.17475570426609
18	7.0	ltm	118	diff_vonmises	0.18902162878359413	10.830141565988505	1.5695788665341637	204.49368092255526	1.5571174232267015	204.6793415416918	0.3575575263169384	-0.16264072658321993	0.5201982529001583	73.43514855327714
19	7.0	perception	118	diff_vonmises	-0.004828569046745708	-0.27665662746603614	1.2621063769926641	2.2361831540440353	1.0755459466953818e-16	2.1562875312937497	0.5301555544280359	-0.2732086191166283	0.8033641735446642	118.42521775225026
20	7.0	wm	118	diff_vonmises	-0.0638899061965096	-3.6606219785467258	0.7814583712422086	1.7290972819606505	2.522823585660788e-15	2.0474002561160427	0.19304725599713474	-0.2171286238761594	0.4101758798732941	138.19701792249197
0	1.0	ltm	119	diff_vonmises	0.013209449562656525	0.7568457096311499	1.58680375712036	0.6217761447854675	1.5657145654017618e-28	2.8613113658284997	-0.1767162997630194	-0.44372828984941415	0.26701199008639476	107.82547063476592
1	1.0	perception	119	diff_vonmises	-0.08578429779549068	-4.915078212175028	10.19443005741062	0.9370880229475909	0.005909326611063259	3.3116451643398834	0.6480970100491601	-0.5273466455756924	1.1754436556248526	42.440391700432514
2	1.0	wm	119	diff_vonmises	0.029824991330736822	1.7088461272654887	4.197398423487701	0.5756696106796932	0.03037727463134962	3.1492842243591848	-0.06222307822682199	-0.4951908263452041	0.4329677481183821	65.01441994048898
3	2.0	ltm	119	diff_vonmises	0.04658053849775006	2.6688682633677305	1.9035551418899777	1.5556691952809885	0.43946119634924297	2.6566898691346346	0.15326155333563518	-0.29015964059243754	0.4434211939280727	80.7447757339173
4	2.0	perception	119	diff_vonmises	-0.031941099539922094	-1.8300901966447916	7.993534056384007	1.2591379374281348	0.20962089849506435	2.377228798060982	0.9350335091615831	-0.3954514725657203	1.3304849817273035	46.8175596812338
5	2.0	wm	119	diff_vonmises	-0.006876894158604597	-0.39401701144621276	6.619124809193363	0.5092871177099969	0.07719920512406532	1.954052365152662	0.17652069343658644	-0.31301156176357536	0.4895322552001618	51.61352699615074
6	3.0	ltm	119	diff_vonmises	-0.006943549869924006	-0.3978361023852573	2.041083806420417	0.8592335428496918	1.5220651890942536e-15	1.7661456407528693	0.16762982271338922	-0.2735197625578187	0.4411495852712079	96.08800726981082
7	3.0	perception	119	diff_vonmises	0.002186424373386068	0.12527288881955734	4.208793573348038	2.108924270141912	0.23333667365505628	3.009294769352537	1.0703057777918876	-0.4477540839338355	1.518059861725723	63.53209649840991
8	3.0	wm	119	diff_vonmises	0.025289425031520617	1.4489773206186303	3.1892832239033977	0.6723563954318263	7.849624220305126e-16	1.9814438866393758	0.14051310185957855	-0.3145825736944654	0.45509567555404395	76.89775079812699
9	4.0	ltm	119	diff_vonmises	-0.2540974321090917	-14.558710444962923	1.411378271408904	1.3398108140934657	7.971791105329499e-19	2.8790920466737884	0.10113780912755005	-0.42496957406650954	0.5261073831940596	113.04529494421931
10	4.0	perception	119	diff_vonmises	-0.011317856768621593	-0.6484654259755892	1.4774873461304734	5.761759533756624	0.47957556031913867	7.500826629778617	0.6507718841590062	-0.6188262830302758	1.269598167189282	90.49829893615814
11	4.0	wm	119	diff_vonmises	-0.19490258140464994	-11.167095330691401	0.9718818318103544	12.568946250918453	0.6828877018866291	14.77661492294339	0.07137098305638645	-0.5156838968615971	0.5870548799179836	89.92600910888147
12	5.0	ltm	119	diff_vonmises	-0.09410711080322241	-5.391940271194639	1.5076988885507938	1.2595856698622472	2.1233250693404908e-16	1.7711231745980038	0.2653859707884396	-0.25505052546486917	0.5204364962533088	110.19569292867828
13	5.0	perception	119	diff_vonmises	0.005470540546065983	0.3134388849447735	1.0245706720473045	269.99565060553545	1.0078056038177228	270.5058637556163	0.6799239254514333	-0.363350754470563	1.0432746799219963	90.84249103922531
14	5.0	wm	119	diff_vonmises	-0.026047356379179577	-1.4924035880001514	1.970732824647037	1.3568554175527334	4.1992072505954065e-20	1.954483385070741	0.38265230432884334	-0.2975919137860963	0.6802442181149396	97.70599284675404
15	6.0	ltm	119	diff_vonmises	-0.24313819341597376	-13.930792321170797	0.6724866803716025	2.128048689029917	1.6676872238882928e-15	2.5833066871570542	0.1832549400854927	-0.25627669650368895	0.43953163658918165	142.7096131226687
16	6.0	perception	119	diff_vonmises	0.11666818805403859	6.68459477893502	0.828951529837045	2.779580428548892	1.0862944117648601e-13	3.2429723232275007	0.3432243419878859	-0.35239024436413935	0.6956145863520252	135.87254288258447
17	6.0	wm	119	diff_vonmises	-0.17445486731388643	-9.995527612600469	1.6289452718630497	1.4399322854365377	0.24003274609049144	1.8608747476998864	0.2845985518705622	-0.2060033713497233	0.4906019232202855	96.1201979768875
18	7.0	ltm	119	diff_vonmises	0.2027318318308693	11.615678336864772	1.2497808354787812	170.52466663031777	1.2334809486834324	171.5394901648801	0.1191170133379984	-0.2785330253185734	0.3976500386565718	74.8678653893447
19	7.0	perception	119	diff_vonmises	-0.02589258328215882	-1.4835357427586933	1.8783299961273123	2.011189270193511	2.8918320966455575e-18	2.8946251072088574	0.5380661743777551	-0.43735810119198254	0.9754242755697375	99.93429066417329
20	7.0	wm	119	diff_vonmises	0.24396864689280395	13.978373800475133	0.00026254714033187873	3395.546420633198	1.9618560083491019e-31	3396.6473002934035	-0.033315937921429395	-0.3170863156493624	0.283770377727933	178.03865482618994
0	1.0	ltm	120	diff_vonmises	-0.11439129504226707	-6.554138418957681	0.0015038987067951166	336.3497661123284	5.609380240765828e-14	337.6848556103579	-0.13195198481243864	-0.29295967204452467	0.16100768723208603	179.54167208599011
1	1.0	perception	120	diff_vonmises	-0.06262576605177488	-3.5881920835403696	11.6997826780666	0.8402211397058887	0.0648346046352976	2.6684714326219865	0.6807789971106413	-0.43508560963061965	1.115864606741261	39.292947575715914
2	1.0	wm	120	diff_vonmises	-0.007993927892461951	-0.4580183299699788	9.076996373469804	0.21354218223452567	6.620860171783414e-29	1.7711688242246	-0.02902902696070364	-0.28189027012224993	0.2528612431615463	45.08290682164008
3	2.0	ltm	120	diff_vonmises	0.2114433628386815	12.11481229670976	0.44189305347788044	54.22031820184681	0.41770492711686247	54.83748564437688	0.09924263460333904	-0.21895883247527426	0.3182014670786133	128.7952651758948
4	2.0	perception	120	diff_vonmises	-0.019777507986549286	-1.1331677369155526	8.527919795736015	1.3071959048905444	0.3826819008755724	2.3788885107044715	0.963878597996549	-0.42104460228428553	1.3849232002808345	44.63203527926589
5	2.0	wm	120	diff_vonmises	-0.09349166241858117	-5.356677676246552	5.288499662294339	0.6307647200732497	0.3808140737612474	1.9434081843617668	0.12678655474195694	-0.32393169242824693	0.45071824717020387	53.38458396938279
6	3.0	ltm	120	diff_vonmises	0.17880921879216935	10.24501357482263	1.556607226188401	87.83346723041669	1.537008368199271	87.96599853769544	0.23990469116274227	-0.11097439273203769	0.35087908389477995	73.74638111822614
7	3.0	perception	120	diff_vonmises	-0.0044502792832368816	-0.2549822205839784	2.893908456038635	4.3332465138368175	0.9726791127352162	4.958657232591637	1.1114336963921292	-0.49262704277705677	1.604060739169186	66.42076129960435
8	3.0	wm	120	diff_vonmises	-0.10939422684685063	-6.267827501421264	4.197788598446435	0.400123849917319	0.0366399245684329	1.319429225730136	0.09805471607489188	-0.20635416737944637	0.30440888345433825	65.40944962810906
9	4.0	ltm	120	diff_vonmises	-0.26949255185803284	-15.440785831675754	3.6902062289011672	0.536130271356796	0.005552902569905218	1.724194256855336	0.11838552161814392	-0.27269249920905303	0.39107802082719695	71.02942379088242
10	4.0	perception	120	diff_vonmises	-0.030912349097883637	-1.7711471381437702	1.316574717420377	10.06186528179524	0.7560952152744396	11.429800056371894	0.654722361892397	-0.535224969129419	1.1899473310218158	87.53022725472127
11	4.0	wm	120	diff_vonmises	-0.34369047236958233	-19.692013525634703	1.233896244490867	235.28272668497107	1.2170276964673645	237.0226851095712	0.06513796296027863	-0.43564026398745526	0.5007782269477339	73.13082043948819
12	5.0	ltm	120	diff_vonmises	-0.08514044538075917	-4.878188186181606	1.21212810006649	38.02121025227363	1.174395355216914	38.13815586254378	0.221484587155528	-0.10288203215503522	0.3243666193105632	84.39000062419149
13	5.0	perception	120	diff_vonmises	0.003971516300743735	0.2275511223000254	1.1198436747001843	336.228824516627	1.106526889933206	336.60077908742545	0.7023735958117925	-0.33228537221938126	1.0346589680311737	87.39908613339279
14	5.0	wm	120	diff_vonmises	0.06636305591587713	3.8023230195704496	2.5802786806366926	1.009095538072976	0.16069715767997464	1.435015134543388	0.33934973979138716	-0.19677818522682078	0.5361279250182079	80.73490291925458
15	6.0	ltm	120	diff_vonmises	-0.3925738344499264	-22.492823861248265	0.7297283149937013	134.68661654159837	0.7171690983731235	135.0643642924786	0.21395097070629987	-0.18147592717324912	0.395426897879549	105.25142625285345
16	6.0	perception	120	diff_vonmises	0.14095428134955215	8.076085425628913	1.3484696643010372	1.8697974614258406	8.988204549432902e-16	2.2774209336139064	0.39711939984582995	-0.3112580853376659	0.7083774851834959	115.29387140788398
17	6.0	wm	120	diff_vonmises	-0.0638950293382778	-3.660915512947891	3.790550090090922	0.6660279555498734	1.647288830868727e-20	0.9654415995516318	0.3435249216842493	-0.15340120759850395	0.49692612928275326	70.38036550617477
18	7.0	ltm	120	diff_vonmises	0.16371828500469324	9.380366759888876	1.9138651567024352	118.14011696776464	1.8944289199621396	118.48214344309267	0.19558140973490623	-0.16098714313906193	0.35656855287396816	63.553457822885946
19	7.0	perception	120	diff_vonmises	0.06830300169708732	3.9134737253180027	0.6947653267067035	3.56953854632245	2.145788894639356e-08	4.218381167422164	0.34080315635213754	-0.419148557604433	0.7599517139565706	142.2742003876664
20	7.0	wm	120	diff_vonmises	-0.2939298959367809	-16.840942509897033	0.0001872000550045189	4445.392612141655	2.6034121801205866e-32	4446.11160847165	0.0180190687127606	-0.24687031199630383	0.2648893807090644	177.53243618499647
0	1.0	ltm	121	diff_vonmises	0.20841000750385177	11.941013838260524	0.6120721088904569	143.06183774710044	0.5925908015633063	146.054357320624	-0.26286658567178023	-0.5651914743527904	0.30232488868101015	94.13047273504742
1	1.0	perception	121	diff_vonmises	-0.06967423163162187	-3.9920394133088326	8.95168314806718	0.9818724380471054	0.01965805318563015	4.056424471351812	0.4963375527438485	-0.6473134806290677	1.1436510333729162	45.13552491043549
2	1.0	wm	121	diff_vonmises	0.018532571910038726	1.0618381539679218	6.258538035282267	0.31478742064271364	0.04264154695237199	3.8102984122958614	-0.3252087506332009	-0.6101238127098576	0.2849150620766567	52.25624466944524
3	2.0	ltm	121	diff_vonmises	0.014505602668291874	0.8311098121868299	0.855865118345651	152.8387876859854	0.8389352931961254	154.25707089863755	0.05257751859122095	-0.3340586952335016	0.3866362138247226	88.7408811664248
4	2.0	perception	121	diff_vonmises	-0.05336573954553325	-3.0576316465534514	9.193215681393145	1.2258831408453845	0.22596674246666057	2.713700815472223	0.927016977192407	-0.4630331091250344	1.3900500863174414	43.57419884819072
5	2.0	wm	121	diff_vonmises	-0.01099228253224113	-0.629811396312794	5.351744753855007	0.5834752619192075	0.10553986873971216	2.6781250510150203	0.05214858623257307	-0.4269825142188609	0.479131100451434	56.20992160435463
6	3.0	ltm	121	diff_vonmises	0.0705040614174549	4.03958515775131	1.0449394513088355	64.49423102670366	1.0047429211747347	65.53729690745408	0.13194469714377632	-0.2798637517364675	0.4118084488802438	83.078071225262
7	3.0	perception	121	diff_vonmises	-0.02449051443257242	-1.40320311509063	3.1976964672110357	2.4827742379977207	0.2920551777320046	3.7296722531130495	0.9076608990402053	-0.5143984609877872	1.4220593600279925	70.76877677665425
8	3.0	wm	121	diff_vonmises	0.07404473469789241	4.24245079335512	3.1163657237269855	0.7200608815097124	0.19816813751251394	2.4161919857617953	0.017645861874426516	-0.3596379438317711	0.37728380570619763	69.31646061961766
9	4.0	ltm	121	diff_vonmises	0.008783312589163334	0.5032467415031826	1.1722614454621265	1.073558766673788	9.539607957304775e-15	2.880425854474509	-0.056937783624652405	-0.41992996537409305	0.36299218174944065	121.73850273453588
10	4.0	perception	121	diff_vonmises	0.0011302685217607462	0.0647596160133812	0.8249838176809341	422.99363712920155	0.8110437822862494	425.1567386706542	0.46450213549167074	-0.6622201816130442	1.126722317104715	95.40850398145608
11	4.0	wm	121	diff_vonmises	-0.11230546012342271	-6.434628881346887	0.7360537077281532	92.12187432442059	0.6916394877129701	94.96090353706188	-0.023117789284654577	-0.6234226965440062	0.6003049072593516	94.55674044006633
12	5.0	ltm	121	diff_vonmises	9.828238446679266e-05	0.0056311658304293395	0.9190418496722028	85.63847644238783	0.8825827205844388	86.8953446587949	0.1931852544031294	-0.34938969203741266	0.542574946440542	89.55372224279529
13	5.0	perception	121	diff_vonmises	-0.0055481740974759365	-0.31788695978917575	0.8989406567239908	244.01483725342104	0.8774744809735373	245.49928084822173	0.5254407403990058	-0.5285505253256666	1.0539912657246724	93.26292605016053
14	5.0	wm	121	diff_vonmises	0.01572920354665466	0.9012169783255178	2.0243391226733225	1.4303500550639436	0.03596553890515509	2.9349306798841703	0.2592487529756576	-0.437494397715355	0.6967431506910126	94.21248363938085
15	6.0	ltm	121	diff_vonmises	-0.1261930981045982	-7.230331925073825	1.558624218159596	1.1863161156599422	8.462893542028319e-12	2.406129038303142	0.14299371027782942	-0.35965868596108697	0.5026523962389164	108.61976220368693
16	6.0	perception	121	diff_vonmises	0.1968062500054678	11.27616750710984	0.0005929717301776726	3583.100219280851	7.946202941791585e-27	3584.618761899973	0.0965154930437393	-0.5797823684195009	0.6762978614632402	178.65728506077562
17	6.0	wm	121	diff_vonmises	-0.2759431890056101	-15.81038011540224	0.6290781962052819	74.59134872274736	0.5891271786060749	75.92539144398826	0.21297110382215578	-0.41302048074724507	0.6259915845694008	110.0063516436439
18	7.0	ltm	121	diff_vonmises	0.05632822113004783	3.2273693382313655	0.8416030626855079	140.8592608935237	0.825031658677274	142.36221360766163	-0.01796811455972147	-0.3278320182561778	0.30986390369645633	86.88390780238075
19	7.0	perception	121	diff_vonmises	-0.08545260232535541	-4.896073461652669	2.852705127059937	1.6418251778769324	1.7808356648005507e-15	3.0868663430441505	0.5534822650610227	-0.48781309443718923	1.041295359498212	81.3915335403751
20	7.0	wm	121	diff_vonmises	0.9230280420730334	52.88561118300859	0.1307739211621433	111.45001293424541	0.11970635732217048	113.29669601978493	-0.1223161625021092	-0.4431287073228436	0.3208125448207344	146.1056385302821
0	1.0	ltm	122	diff_vonmises	0.46021071643932504	26.368131738665216	0.41582564787652676	102.86981357866416	0.4001750412579941	105.83331309501837	-0.38053354821256136	-0.5116200479668986	0.13108649975433728	101.4086860681391
1	1.0	perception	122	diff_vonmises	0.11520751398100203	6.600904319305841	10.20423975307473	0.7126719257913942	0.06890535767341796	4.24358417473828	0.17362759761741653	-0.6928242808771286	0.8664518784945451	41.68559990989647
2	1.0	wm	122	diff_vonmises	0.38013628165287555	21.78020457850612	4.871913234371066	0.4457183929501503	0.16323022503361417	4.016555519136759	-0.36644151232873573	-0.6574870632692525	0.2910455509405168	54.43652353330174
3	2.0	ltm	122	diff_vonmises	0.435990790849863	24.98043222226814	0.6930354119291285	155.36188773524918	0.6801536779449292	156.87354270716736	-0.043220543061757155	-0.3201887517911679	0.27696820872941075	94.94051241420331
4	2.0	perception	122	diff_vonmises	-0.027205884748735993	-1.5587823740219064	9.338231596638238	1.3175718725168077	0.25270202910489153	3.3577223147903776	0.9059987757069476	-0.5820060376612443	1.488004813368192	42.98128561786737
5	2.0	wm	122	diff_vonmises	0.08947303685510825	5.126427392016171	2.790964536517492	0.9918542336356778	0.12773464009456342	3.719389275138361	-0.04661978583000337	-0.5532323810184665	0.5066125951884631	74.49662419416418
6	3.0	ltm	122	diff_vonmises	0.10692398766129108	6.126293221700868	0.9704429544729736	30.496869501474794	0.9366128995512618	30.9426283341361	0.048914992040579364	-0.11663874674552899	0.16555373878610835	85.85016299768742
7	3.0	perception	122	diff_vonmises	0.06762790400402836	3.8747934767467065	2.8153602815138363	3.634668795265013	0.7423381868818976	4.17149715465895	1.0747145172494303	-0.44479976606630756	1.519514283315738	69.82351306254364
8	3.0	wm	122	diff_vonmises	-0.07921872378689158	-4.53889853140151	2.791269709444144	0.5070884513332349	9.716266097836788e-18	1.6883813369925333	0.049922386488260195	-0.26751499000027124	0.31743737648853143	82.30115662641273
9	4.0	ltm	122	diff_vonmises	-1.2335787525282074	-70.67885621687931	11.11865152282434	0.18622948587723698	0.19840673728870942	1.899257989942602	-0.12022745686978917	-0.33563488176944284	0.21540742489965367	38.11080533484633
10	4.0	perception	122	diff_vonmises	0.05588272510445981	3.2018442961753197	2.652825380018064	2.9961138367440237	0.35986523723271496	5.183977429432389	0.6830601869975759	-0.6721426115502407	1.3552027985478166	74.0849741555462
11	4.0	wm	122	diff_vonmises	-0.5560511619010271	-31.85938477027449	0.43256549343557854	4.377042918716852	6.718137068818643e-13	7.457484122716684	-0.16176671966923406	-0.755318822920114	0.5935521032508799	150.39148810010488
12	5.0	ltm	122	diff_vonmises	0.01053917930761069	0.6038504938577017	2.9092294655059194	0.464232085710346	0.11870641351195266	1.3429027227185393	0.05891760141954672	-0.19889994723044635	0.25781754864999307	74.89572212798149
13	5.0	perception	122	diff_vonmises	-0.05973018864253075	-3.422287718737256	2.981928714830558	1.8464815860443113	1.2076563137954945e-11	3.4173715895088956	0.6612178399416779	-0.5407939728483457	1.2020118127900237	79.58363441923265
14	5.0	wm	122	diff_vonmises	0.14962006900591202	8.572598484494897	3.999275765152478	0.7707489237913928	3.960751489730245e-12	2.6018768455882717	0.17836988933028713	-0.4139024768662831	0.5922723661965703	68.47135619589284
15	6.0	ltm	122	diff_vonmises	-0.39802731007071684	-22.805284997997042	0.3858040550665107	116.88328591697127	0.3747950264475873	117.74687247450244	0.041928590184792114	-0.2515641168752669	0.29349270706005903	131.53130716155573
16	6.0	perception	122	diff_vonmises	0.22783062173181728	13.053733069074665	0.33372660070820453	333.9490089198189	0.3238970508711052	334.9661171748924	0.3739321249674532	-0.5395414056591505	0.9134735306266037	141.3595657148157
17	6.0	wm	122	diff_vonmises	-0.48827139615306314	-27.97589025653078	0.05854644067022446	25.766060030748005	7.468461118583276e-20	27.069678500102043	0.036053417095103235	-0.44398345768514025	0.4800368747802435	170.32072818963303
18	7.0	ltm	122	diff_vonmises	0.6806101580056625	38.99608954745656	0.588005014057097	38.491750017914754	0.558076098771136	39.241534634641965	0.02425106194146487	-0.1857866871213898	0.21003774906285466	108.92060936859676
19	7.0	perception	122	diff_vonmises	-0.03600682306804976	-2.0630389954735455	2.462503995346978	1.3594045299028366	5.50590315178959e-12	2.3811095208071995	0.4151239148377113	-0.37319812619581766	0.788322041033529	87.65094100146857
20	7.0	wm	122	diff_vonmises	0.4487256961754851	25.71008854992496	0.4713697932163691	51.953438436704104	0.44516369856537674	53.52477486425317	-0.11899296140795279	-0.3127261901876368	0.19373322877968402	111.75221877727523
0	1.0	ltm	123	diff_vonmises	0.05507914591912463	3.1558026003510524	1.7755182438756527	0.568924578169485	4.150013290526872e-33	3.0146954756395785	-0.2067635807594066	-0.4719687302818196	0.26520514952241303	102.54750014430635
1	1.0	perception	123	diff_vonmises	-0.05227771288033163	-2.995292310639705	12.122194890563764	0.7628728597983948	1.996522944342183e-17	3.5593981980655647	0.48177010207466997	-0.5664958176235265	1.0482659196981965	38.94397416064945
2	1.0	wm	123	diff_vonmises	0.03113799080888995	1.7840754558665424	3.085010634499474	0.9217080093310595	0.1808451782158866	3.6435651733393994	-0.07585927623227928	-0.5477032515203507	0.4718439752880714	69.13960496951307
3	2.0	ltm	123	diff_vonmises	-0.001892834975237066	-0.10845145539583356	3.0641871187724607	0.672436225229673	1.9692681667473183e-12	2.0162053790845733	0.12486335740209903	-0.3199172468680216	0.4447806042701206	78.48271647027735
4	2.0	perception	123	diff_vonmises	-0.043043446112009984	-2.4662077979169648	9.658366438496426	1.0844187748834153	0.10517559886205509	2.5864587954334506	0.8697386826946222	-0.4241621508952293	1.2939008335898514	43.08428664572375
5	2.0	wm	123	diff_vonmises	-0.053299283839533126	-3.0538240150750817	5.992809396430837	0.5671425323921806	0.030781966205323755	2.2006660763110926	0.18015810155616757	-0.3488795502810849	0.5290376518372525	54.92952827164578
6	3.0	ltm	123	diff_vonmises	-0.11224375872903176	-6.431093651858213	1.2774189527206263	1.7875053010537745	0.2498192350313076	2.664941017337648	0.1669892180843171	-0.27152988711925696	0.43851910520357407	102.50334295327599
7	3.0	perception	123	diff_vonmises	0.037098989901340064	2.125615545545248	3.479193859052742	2.6605289819204283	0.371863788216076	3.390216111313629	1.1379516130757108	-0.46305539533196083	1.6010070084076715	67.87109507139488
8	3.0	wm	123	diff_vonmises	-0.09055950800336421	-5.18867760337397	3.1593337915383914	0.819470697700542	7.000140988526203e-12	1.9500253996778931	0.24235163174769536	-0.30935997811347454	0.5517116098611698	77.26583113008351
9	4.0	ltm	123	diff_vonmises	-0.2895773118397473	-16.591557811161245	1.2241342577332868	1.197282196306122	2.4771211933744115e-21	2.869029996347925	0.002627417708078228	-0.41691902459861063	0.41954644230668886	119.35670308075052
10	4.0	perception	123	diff_vonmises	-0.017517227946213347	-1.003663230086644	2.797077643568657	2.4148614520737124	0.03605915995354885	4.133597275937301	0.8375559627549561	-0.6292276990060981	1.4667836617610543	80.77586958375801
11	4.0	wm	123	diff_vonmises	-0.25843018591636285	-14.806958951788799	0.7797705285834615	56.85362398133445	0.7211568590862498	58.8436005524902	0.06182531648519074	-0.4667121647300876	0.5285374812152783	94.33704842210813
12	5.0	ltm	123	diff_vonmises	-0.06573720584385044	-3.7664644518353616	1.2117019196229926	1.319348420488745	7.443593408520891e-16	1.9845460034101132	0.1872079275312713	-0.2712686612190089	0.4584765887502802	120.23948184867498
13	5.0	perception	123	diff_vonmises	0.003099643407073711	0.17759648522087462	2.1222218081027195	2.3600285024843677	0.22750253393106476	3.1562071331760366	0.6392397050009667	-0.39052963880224373	1.0297693438032105	86.42594141612676
14	5.0	wm	123	diff_vonmises	-0.05662900933397915	-3.2446032328439505	2.0331781724533537	1.229769402209963	3.297994910284033e-17	2.0447532661896974	0.3153117563828497	-0.31445000015301033	0.62976175653586	96.25936748845979
15	6.0	ltm	123	diff_vonmises	-0.3086591255427547	-17.68486520179847	0.5653932114321851	2.2375054310816958	8.317732421047481e-13	2.8998740436208066	0.11801919395155247	-0.2744598263259004	0.39247902027745285	147.42724681959268
16	6.0	perception	123	diff_vonmises	0.18844526689030044	10.797118462030607	0.6728336260792838	3.6833872914388714	4.2425011572959745e-17	4.16376503967958	0.3663896775606391	-0.39474586780801196	0.761135545368651	142.90330200486494
17	6.0	wm	123	diff_vonmises	-0.1810267604285196	-10.372069351480034	1.3083011955509865	1.3222477520029545	0.16854453021976476	1.9650997558538006	0.1599715956160302	-0.22384097577239048	0.3838125713884207	106.62110672006996
18	7.0	ltm	123	diff_vonmises	0.337962350508885	19.363816318480122	1.2445363116176786	124.48834587936287	1.2272863880083373	125.15745666683091	0.13742824337967363	-0.20150297399692008	0.3389312173765937	76.71591714329682
19	7.0	perception	123	diff_vonmises	0.00835843448813982	0.4789030195070022	1.7518770391373533	1.8146706720731267	2.879247425327193e-17	2.59377119247065	0.4509672434698657	-0.38682220502589687	0.8377894484957626	103.18805811551368
20	7.0	wm	123	diff_vonmises	0.08158927858752608	4.674721316582343	0.03945263964071174	17.466797969543208	9.358523854080672e-11	18.38129424440361	-0.034805694332372905	-0.2541246478912198	0.2193189535588469	177.47118965910752
0	1.0	ltm	124	diff_vonmises	0.15008772545672838	8.599393225388742	0.8680166704135326	48.217053838238584	0.8204016735951897	49.586670485402124	0.01690646162680487	-0.3104681685286872	0.32737463015549206	87.72275397642409
1	1.0	perception	124	diff_vonmises	-0.13410286882796632	-7.683528404438959	10.591523022034151	1.1329147789916605	1.3080256994896465e-17	2.4176373643647255	1.0677361924020285	-0.38477893622486076	1.4525151286268894	41.69562534552969
2	1.0	wm	124	diff_vonmises	0.24855210478085765	14.240986593036554	0.7165874598517967	93.65232848451713	0.6923473592131889	95.29978402387408	-0.033625675367719765	-0.3539145787157114	0.32028890334799165	94.31371737895589
3	2.0	ltm	124	diff_vonmises	-0.10328814471743115	-5.917974766045274	1.1569761791937663	117.62684475631356	1.1357733944611348	118.32502053648872	0.20781624278694721	-0.22896472187445305	0.43678096466140026	81.09239819427509
4	2.0	perception	124	diff_vonmises	-0.03726059354831323	-2.1348747524707323	7.498500636417512	1.3776256690917972	0.35845705663425576	1.8830813533727917	1.0626646944213376	-0.3186223576940902	1.381287052115428	47.911104663611724
5	2.0	wm	124	diff_vonmises	-0.05200748889269344	-2.9798096166248413	8.479999460100748	0.3780187515104358	0.2679421591868396	1.2960414786482908	0.16742134748678822	-0.22552624255299825	0.39294759003978647	44.393038819925096
6	3.0	ltm	124	diff_vonmises	0.03343554271547181	1.9157154833259187	1.180589950785679	157.24378643840674	1.1653733360679361	157.7731277576465	0.2464210786292682	-0.20373521864354416	0.45015629727281237	81.62619640037101
7	3.0	perception	124	diff_vonmises	0.0022811497847853184	0.1307002551053748	2.3669983858049397	3.2858632102570042	0.6286033373201783	3.771690614233027	0.8530457351258804	-0.37315767754535534	1.2262034126712358	76.0712510491579
8	3.0	wm	124	diff_vonmises	0.04240706963608725	2.4297461116651835	1.5487967705118124	62.10703200963965	1.5071604626358068	62.78186200687032	0.1565258807510368	-0.22222151426851866	0.37874739501955546	68.8598298860291
9	4.0	ltm	124	diff_vonmises	-0.14715620004313232	-8.431429191654345	3.7072895912703725	0.6516384294581475	7.569899770222924e-21	1.6584344452469328	0.21655872116618335	-0.2636585188244152	0.48021723999059857	71.18706209838635
10	4.0	perception	124	diff_vonmises	-0.04770486900077044	-2.7332876559686192	0.9388252726073689	405.2659199148982	0.9264076143452473	406.4778090898041	0.5595478209654914	-0.477330225846174	1.0368780468116654	91.8818915238931
11	4.0	wm	124	diff_vonmises	-0.23767982531582088	-13.618050866003195	1.2762548428116816	181.21628061749215	1.25935352820174	182.3185518956031	0.12979846460319777	-0.30443499507692806	0.43423345968012583	74.05401362602035
12	5.0	ltm	124	diff_vonmises	-0.06627718874363184	-3.7974031930020713	2.6121572479691952	0.6677191261360294	4.2426382901300255e-11	1.2840346110538383	0.19940280874393634	-0.20218650304720337	0.4015893117911397	85.09914902575366
13	5.0	perception	124	diff_vonmises	0.04018191770650864	2.3022542973249376	1.1411809317787829	126.48449837553864	1.1081130206160323	127.11305845950164	0.553088225473374	-0.3335832142726822	0.8866714397460562	85.34167233373657
14	5.0	wm	124	diff_vonmises	0.015559069517922307	0.8914690165275966	0.6826702732843817	163.41543463720728	0.6688668698519404	163.98159647722312	0.27166898897434066	-0.2576099857061678	0.5292789746805084	108.36324361928716
15	6.0	ltm	124	diff_vonmises	-0.29085244984226216	-16.664617837002087	2.477779783900111	0.8443192687368795	1.6617514841043261e-18	1.8074438866991194	0.20731949968905755	-0.2841766036812111	0.49149610337026867	87.33277331259491
16	6.0	perception	124	diff_vonmises	0.3200562865146524	18.337874423919427	0.0006015997498226812	3030.500632013912	1.85291930297427e-28	3031.456819613305	0.1380196839388077	-0.4422963749277642	0.5803160588665719	176.73544465821595
17	6.0	wm	124	diff_vonmises	-0.3121820585133205	-17.886714392519373	3.209961954458553	0.7190380405118414	2.9565458859273653e-10	1.3474239502033885	0.27489668388809585	-0.21365213520908868	0.4885488190971845	76.62524299443092
18	7.0	ltm	124	diff_vonmises	-0.07579152847064467	-4.342534704213558	0.981935620451977	298.71132620808527	0.969835609001105	300.38404446675275	0.12305458857390761	-0.41752572491957807	0.5405803134934857	83.73334295742356
19	7.0	perception	124	diff_vonmises	-0.17033096499399686	-9.759245414546587	3.966461660789861	1.3270929633061428	1.2404716026372392e-23	1.6118468422609842	0.7590944053569522	-0.2561690245019612	1.0152634298589134	68.75748920547846
20	7.0	wm	124	diff_vonmises	0.4673910288254233	26.77953333397416	1.259588729171742	1.2643258425061867	0.1621863676647211	2.2881042630381576	0.06771998896536219	-0.2678995260046594	0.33561951497002157	105.86219745881496
0	1.0	ltm	125	diff_vonmises	0.2907395494571501	16.658149121429766	0.5967079884821053	143.7664495983883	0.5793762769317623	146.5435974480499	-0.2556264683852518	-0.5199468925817996	0.2643204241965478	94.51590256785059
1	1.0	perception	125	diff_vonmises	-0.007285201025953151	-0.4174112716914929	9.380683331482828	0.850209614251091	0.07818977724767587	4.043383647078752	0.3292216144134599	-0.6596774035013372	0.9888990179147971	43.475299887047015
2	1.0	wm	125	diff_vonmises	0.14860137282027036	8.514231492451556	6.292653743603044	0.35770306596513946	0.1764785637441441	3.8641090541157324	-0.37783635949957256	-0.6518778119650507	0.2740414524654781	48.2849856088917
3	2.0	ltm	125	diff_vonmises	-0.02714459884498812	-1.5552709503935085	1.9777808660458742	0.8234110695836555	0.12690454148287367	2.2747644977764616	0.012524752985141885	-0.316697412020557	0.3292221650056989	87.70536206220396
4	2.0	perception	125	diff_vonmises	-0.055250045813208505	-3.1655944430012917	11.02802206509289	0.9994106810348099	0.10595539189126438	2.973082207592786	0.7837191673201253	-0.49227478478559267	1.275993952105718	40.26809714148672
5	2.0	wm	125	diff_vonmises	-0.13320175584153052	-7.631898433451758	2.195009349747461	1.8930396518866974	0.4514241653128743	4.568617608596706	-0.05316031045886094	-0.5802490034460237	0.5270886929871628	71.92850461952287
6	3.0	ltm	125	diff_vonmises	0.09786617261689598	5.607318648046927	1.1671515746949648	172.11722028779621	1.1531861229502716	172.86691870202856	0.16879474360789004	-0.22817911117746092	0.39697385478535097	79.63411963884812
7	3.0	perception	125	diff_vonmises	0.0013330153837538816	0.07637615551510922	2.0842006542813865	6.260209132192864	0.874393826523086	7.433485255401955	0.9482193514025479	-0.5736147629783996	1.5218341143809475	74.51504467870913
8	3.0	wm	125	diff_vonmises	-0.05366433132048104	-3.0747396950552797	3.0362629583424567	0.844019378516916	0.22952667636216914	2.54286188336437	0.054105111839535924	-0.3729345337064153	0.42703964554595125	69.7180341262411
9	4.0	ltm	125	diff_vonmises	0.1522211681293052	8.721630486360505	1.6375827926802229	0.5490649799082121	9.201998693648103e-17	2.3119837919951935	-0.11711711429083888	-0.35847862226917354	0.24136150797833467	106.27534675594345
10	4.0	perception	125	diff_vonmises	0.013129057321239838	0.752239573492377	0.9465166229537684	377.24724687059677	0.9294231069616252	379.4557567220121	0.5004427801473099	-0.6716500156099627	1.1720927957572727	89.05007454553984
11	4.0	wm	125	diff_vonmises	-0.20752482153920015	-11.89029641840177	0.6474611585333302	215.33399490488492	0.6311337197329235	218.0287169200823	-0.06379338027015535	-0.5797639938587338	0.5159706135885784	99.05345174457514
12	5.0	ltm	125	diff_vonmises	0.03759044394603535	2.1537737881309216	1.5454448376402627	2.712174346774832	0.6599767884722035	3.654882940827619	0.18406746697152543	-0.2715576574842068	0.4556251244557322	82.41861503618898
13	5.0	perception	125	diff_vonmises	-0.03076253758295068	-1.7625635706156506	0.9095399259223742	180.2584444579307	0.8791894600552478	181.79086865437557	0.553755560863415	-0.5492265702080648	1.1029821310714798	93.00713948884794
14	5.0	wm	125	diff_vonmises	0.05916898637270252	3.3901331972229363	3.3321933972538638	0.9413040637660092	7.379217705418166e-10	2.6342808760313976	0.2349029015901976	-0.4184242851828192	0.6533271867730168	75.19022687637192
15	6.0	ltm	125	diff_vonmises	-0.16244547436216025	-9.307440081952402	0.6367005588494344	113.25674600329431	0.6178419584948246	114.29818510563493	0.125155172653578	-0.29760856449136774	0.42276373714494575	107.27579518763326
16	6.0	perception	125	diff_vonmises	0.16622061985453035	9.523739985713044	0.09605201554354476	22.909122122366405	5.247784932205636e-11	23.90293864260164	0.20016072583878808	-0.4997078256646432	0.6998685515034313	173.63226350209675
17	6.0	wm	125	diff_vonmises	-0.3665327857214655	-21.000781675012938	0.43742866409637987	69.25244973646006	0.40594428089819445	70.46396279028615	0.12402580628905469	-0.3861157331785279	0.5101415394675826	128.2093609338231
18	7.0	ltm	125	diff_vonmises	0.4688942630785667	26.865662312298774	1.8156552825674899	0.6261397203004071	1.2703063857797145e-24	1.1630228859423135	0.1195131900300512	-0.17703413765073736	0.29654732768078856	101.02125730364972
19	7.0	perception	125	diff_vonmises	-0.04624293622877206	-2.6495250782012505	1.8742528456092726	2.021255880175814	0.15475006381084253	2.8210483192964553	0.48146441873283596	-0.36003984329124217	0.8415042620240781	93.29643672757723
20	7.0	wm	125	diff_vonmises	0.30976622791620995	17.748297495286373	0.5667715287464495	90.83016065016407	0.5492744814910464	92.16616139107867	-0.04256880929319706	-0.28802761508166874	0.24545880578847168	105.82572903281701
0	1.0	ltm	126	diff_vonmises	-0.3185051421354682	-18.249000397576733	0.054706591029148204	40.262961391038196	0.03894593788399046	41.687341647819345	-0.13230963010104269	-0.3165306346671519	0.18422100456610924	171.7377971001415
1	1.0	perception	126	diff_vonmises	-0.0752156407508491	-4.30953876839586	10.543710129125028	0.889059229447946	2.850104610326475e-17	2.599899745571741	0.7234452522318137	-0.41378689526072987	1.1372321474925435	41.79104044018308
2	1.0	wm	126	diff_vonmises	0.12632505567604385	7.237892536992457	3.912095058469232	0.3812219044901034	5.930732691644237e-18	1.9806854478228586	-0.025679530608891943	-0.31512006607072696	0.289440535461835	69.24660752511568
3	2.0	ltm	126	diff_vonmises	0.2126392772819683	12.183333146968831	0.5789311323356895	86.62961785629368	0.5612637510771973	87.40221077638137	0.08925216278276338	-0.22700703420914436	0.31625919699190774	112.66688611189846
4	2.0	perception	126	diff_vonmises	-0.021444573681710336	-1.2286835654193233	7.574774952667204	1.5028814891219906	0.4381326022908669	2.3635057016967083	1.0649713201828295	-0.41177750745276104	1.4767488276355905	47.099137472704115
5	2.0	wm	126	diff_vonmises	-0.02532146892895582	-1.4508133007008173	8.534681116753093	0.3960709946691074	0.14432331375108892	1.566493423866726	0.16780246744082766	-0.26051778300811146	0.4283202504489391	45.043318467399104
6	3.0	ltm	126	diff_vonmises	0.09365163928915908	5.3658436757503765	1.22060712822366	93.10727089742281	1.2029465557411274	93.42109726725987	0.18403540259424034	-0.1336754086136942	0.31771081120793454	80.9770753894646
7	3.0	perception	126	diff_vonmises	0.028307525749028502	1.6219017538772376	2.7024366891903044	3.708440110921586	0.817142508333093	4.062843705185868	1.0401896132819446	-0.3982290500153526	1.438418663297297	70.43962185899798
8	3.0	wm	126	diff_vonmises	-0.03390417076771295	-1.9425658928807723	3.2235019009872836	0.6127650620664005	0.3183151936050126	1.3241194533406608	0.13548803646673746	-0.18927582930879802	0.3247638657755355	68.07190608354509
9	4.0	ltm	126	diff_vonmises	-0.25446495389435	-14.579767892137335	4.5545277411689655	0.4212419910706052	5.421408174042816e-31	1.6053115279460752	0.0919375195117283	-0.2554548090467498	0.34739232855847807	64.05434989363667
10	4.0	perception	126	diff_vonmises	-0.014544542295574732	-0.8333408884859501	2.1093191221039405	3.1620122801959503	0.3702875088440416	4.500191836642588	0.6818677178229116	-0.5109698100578337	1.1928375278807453	82.30410408373206
11	4.0	wm	126	diff_vonmises	-0.3281488596112457	-18.801544707755337	1.1548188621174569	134.13970231775022	1.12945822942004	135.6894625257921	0.06624696386631967	-0.382337664455644	0.44858462832196366	76.07125331587757
12	5.0	ltm	126	diff_vonmises	-0.09708244222836399	-5.5624142045078955	2.7484626437290505	0.4596736482397413	0.007733860552698124	0.9068950825429318	0.1408229350968278	-0.14204900602393722	0.282871941120765	82.58002858046822
13	5.0	perception	126	diff_vonmises	0.008119784159583882	0.46522936290133654	1.5373970953497786	5.6423032057512765	0.7651696439350645	6.224442141875311	0.6320529991773853	-0.3475190394266729	0.9795720386040583	85.26651223918131
14	5.0	wm	126	diff_vonmises	0.045578149152118164	2.611435584434142	0.9954385020985569	5.068206865818314	0.5781009079228666	5.7360066215862195	0.22798316648363537	-0.24340793781454712	0.4713911042981825	99.57054359125482
15	6.0	ltm	126	diff_vonmises	-0.44830165000423977	-25.685792493993922	0.804890934771289	4.684385614886775	0.460624726424224	5.3670001988398575	0.14188130149955414	-0.2263786312738294	0.36825993277338354	109.47228650928928
16	6.0	perception	126	diff_vonmises	0.19940624740286372	11.425136384725624	1.0893209277188811	2.3136145765806804	6.860246031365515e-15	3.0853350246608104	0.3384403230754827	-0.3971468141738884	0.7355871372493712	124.64342744548108
17	6.0	wm	126	diff_vonmises	-0.15684736376714375	-8.986691971610485	3.1431258009244805	0.6321964501046542	1.7425733573468853e-19	1.2907438555727533	0.21973783257874863	-0.2046367222347011	0.42437455481344977	77.46533022012096
18	7.0	ltm	126	diff_vonmises	0.12512586512472323	7.169183979569819	1.3572051254534385	170.82046698101232	1.3416058841836558	171.79111050303777	0.08701355144476963	-0.265727587962882	0.3527411394076516	70.99494615755557
19	7.0	perception	126	diff_vonmises	-0.08414567221491256	-4.821191882205728	1.7985140015218608	1.7061644279210748	1.001577604052655e-19	2.464067490385825	0.43309410699439055	-0.3695517620708242	0.8026458690652147	101.94218187221729
20	7.0	wm	126	diff_vonmises	0.08999195801932756	5.156159384625953	0.0003207621317536056	2006.283469584821	1.0565725829254662e-27	2007.3131004384004	-0.061440473708557874	-0.266284779714681	0.20484430600612313	179.65152250276316
0	1.0	ltm	127	diff_vonmises	0.132229868847768	7.576213410545508	3.734047624065142	0.4979379265630042	8.748231194436303e-20	2.798476509840137	-0.07676114765391334	-0.4451808333129103	0.36841968565899696	70.92437506230291
1	1.0	perception	127	diff_vonmises	-0.0955910240359109	-5.476962236591303	11.717207057043604	0.8864943174133237	2.8036235628935376e-17	3.38058993548787	0.658621682394671	-0.538037598720011	1.1966592811146821	39.62890422291693
2	1.0	wm	127	diff_vonmises	0.0009149841365362513	0.052424729344949066	4.7929701102701125	0.6269934043138866	0.1255695909783796	3.2979899963247066	-0.06123387905908839	-0.5249087012245982	0.4636748221655098	58.17867448283144
3	2.0	ltm	127	diff_vonmises	-0.10976023541877773	-6.288798247858298	2.169233464137878	1.4158861259718216	0.35308421275099056	2.6567084378842636	0.18347807682253414	-0.3255015975864297	0.5089796744089639	79.01247413399258
4	2.0	perception	127	diff_vonmises	-0.05545592801410467	-3.1773906241895062	10.22213638229681	0.9702794799581604	0.030096657011536528	2.355386880750484	0.8354334693664529	-0.3772443607958425	1.2126778301622954	42.257631921323366
5	2.0	wm	127	diff_vonmises	-0.10854299711117073	-6.21905563017077	4.760559644108566	0.7064534439831013	0.21782420009645093	2.287626701619287	0.1493474472926392	-0.36315834044687634	0.5125057877395156	58.01888388165361
6	3.0	ltm	127	diff_vonmises	-0.03983688060579766	-2.282485127678768	0.8979690397103726	77.6642886050187	0.8601475477734474	78.65541331361823	0.24760574201005525	-0.31296144809868665	0.5605671901087419	92.47273088517969
7	3.0	perception	127	diff_vonmises	0.00307627613656485	0.17625763924197638	3.0793308553530796	2.8366539321889124	0.38480598095003316	3.844169123180827	1.0190653040243314	-0.5042214664270396	1.5232867704513708	70.9790833018414
8	3.0	wm	127	diff_vonmises	-0.05214638381014124	-2.9877677091904182	2.8285245837072823	1.177244136798468	0.27441813342170496	2.4587211141753547	0.24015707971577738	-0.3406028314448397	0.5807599111606171	72.89985754197917
9	4.0	ltm	127	diff_vonmises	-0.14284103775960497	-8.184188604894192	1.6282534184315973	1.1931889859741591	1.8678409989865928e-19	2.7686135132331544	0.1025972034646021	-0.41971125097267903	0.5223084544372811	106.56370597375222
10	4.0	perception	127	diff_vonmises	-0.04641730339884372	-2.6595155811319966	0.877258257203997	362.4464309165242	0.8597700607979912	364.1667143733143	0.6667763667811784	-0.6391918325313029	1.3059681993124812	94.67298373298323
11	4.0	wm	127	diff_vonmises	-0.20358850246106036	-11.664761948407532	0.9086361467996172	202.97857106101785	0.891373225735906	204.7544461647381	0.09714748022831543	-0.4298408544176979	0.5269883346460134	86.69140250074582
12	5.0	ltm	127	diff_vonmises	-0.010611130197267032	-0.6079729761672217	1.6676304003146851	1.256606045240517	2.6351346089679102e-15	1.9112919528746863	0.2762810457419655	-0.2835220475562668	0.5598030932982323	105.49932205927574
13	5.0	perception	127	diff_vonmises	0.015750301782202072	0.9024258181775575	0.9863938543887851	176.06437600801527	0.9606484612259006	176.86986543070313	0.5901041610558622	-0.39705292092664557	0.9871570819825077	91.33569245096248
14	5.0	wm	127	diff_vonmises	-0.06121590808187291	-3.5074131721521047	1.5899438082463546	2.082494583320629	0.27311344584881697	2.8516854143940464	0.349019455992709	-0.30536793972716125	0.6543873957198703	95.06404449122121
15	6.0	ltm	127	diff_vonmises	-0.23035120089764513	-13.198151617205207	1.0468133351625957	1.5201994952240903	1.5276189630209123e-14	2.294659274491679	0.16769218102183897	-0.29953145965430544	0.4672236406761444	126.28276854691481
16	6.0	perception	127	diff_vonmises	0.17472321051834563	10.010902545676998	0.23034124820702115	8.874487911113913	2.014915112418965e-13	9.410658004387306	0.2571690058915437	-0.3906551811346006	0.6478241870261443	166.06617106754013
17	6.0	wm	127	diff_vonmises	-0.2241081277706564	-12.84044987583721	0.7341764168074502	137.40283739362266	0.7200768657437102	138.0245506122789	0.19033243546895307	-0.22255189199168157	0.41288432746063464	102.7797784530391
18	7.0	ltm	127	diff_vonmises	0.22122843856234636	12.675455837891676	1.2297883007412838	135.11992853701048	1.211556856296731	135.7671923882311	0.2068275838695257	-0.21820279226786887	0.4250303761373946	78.69242302496278
19	7.0	perception	127	diff_vonmises	-0.03042442434498919	-1.7431911090829546	1.9379224760003757	1.7980868547637274	1.7705530125588894e-15	2.3347113042354954	0.5384742048799119	-0.3527084724128502	0.8911826772927621	98.47788892547393
20	7.0	wm	127	diff_vonmises	0.13340902276988947	7.643773953679366	0.48756804242742846	1.732325820821394	3.985418842498873e-15	2.5544210381096426	0.0168572366546626	-0.24686196245786618	0.2637191991125288	152.48730133988028
0	1.0	ltm	128	diff_vonmises	-0.3889634336302079	-22.285963131927822	0.00027595715339384885	2045.4482390593262	2.8150057079933277e-30	2046.9984470503034	-0.1568822124010012	-0.336551921946068	0.17966970954506678	175.7050977187704
1	1.0	perception	128	diff_vonmises	-0.04596907949374187	-2.6338342430927884	11.606340076588518	0.7772530183322371	6.97715309016381e-17	2.810322905719012	0.59700397283002	-0.4472767820428862	1.0442807548729063	39.81479328531702
2	1.0	wm	128	diff_vonmises	0.09928227429545355	5.688455297589668	4.445873386840546	0.39038179793153405	4.2141537487585565e-14	2.070167893974813	-0.011640881213508814	-0.32943373896881156	0.31779285775530275	64.84885255859717
3	2.0	ltm	128	diff_vonmises	0.25110312090387993	14.387149050355557	0.4919424030357296	63.121375317247455	0.4681700187710919	63.97757589518851	0.07336783052036999	-0.253022949458213	0.326390779978583	121.4996660100297
4	2.0	perception	128	diff_vonmises	-0.022742465903851712	-1.30304731201088	8.578749570670258	1.3630199723040681	0.3637372897440137	2.4308137261412948	1.0292733205283042	-0.4277012986455976	1.4569746191739017	44.625980236369486
5	2.0	wm	128	diff_vonmises	-0.04052796693207008	-2.3220814574533786	8.100905724712426	0.40874046496963634	0.051822077830017126	1.622074888397362	0.18473318613077955	-0.26045959439834576	0.4451927805291253	47.07494383480608
6	3.0	ltm	128	diff_vonmises	0.03011804624090857	1.7256369367839153	1.1298077959948616	67.1350995441064	1.1085297938147565	67.42521959982318	0.16175113218543302	-0.12107030117962303	0.28282143336505605	84.23452476604754
7	3.0	perception	128	diff_vonmises	0.04899336127375119	2.807112825145634	2.827650855729683	3.755336144593277	0.8631198195855101	3.9689122991874957	1.124624769442482	-0.39004297175810365	1.5146677412005856	69.14254382182628
8	3.0	wm	128	diff_vonmises	-0.12278970227830038	-7.035331708214521	4.0112364683982795	0.47646180814734906	3.820339248564521e-10	1.0966090558692845	0.1923614386757191	-0.17441040810242048	0.36677184677813957	68.36083431951144
9	4.0	ltm	128	diff_vonmises	-0.38461861040647677	-22.037023098477604	2.7053797806033257	0.5247262292039796	0.06989236960482757	1.76397979279508	0.023137899639579795	-0.2653423333131999	0.2884802329527797	78.90103632361986
10	4.0	perception	128	diff_vonmises	-0.0068412500332079235	-0.3919747534965483	3.174611881745117	2.1289611087760205	0.10228324533395007	3.3948918066823475	0.842815114568849	-0.500391382022619	1.343206496591468	74.31095514733462
11	4.0	wm	128	diff_vonmises	-0.3678613359224433	-21.07690199440022	1.160506127855344	17.024060632971022	0.9790886946678696	18.51958082052251	0.07488827027719669	-0.3663841509017707	0.44127242117896737	79.0516303907989
12	5.0	ltm	128	diff_vonmises	-0.07609523611092094	-4.359935870207266	2.1506147332698577	0.4846093847130421	1.8387983803143176e-14	0.9319439931909483	0.11284416428682839	-0.14478387817076363	0.257628042457592	93.69194878097241
13	5.0	perception	128	diff_vonmises	0.0010899446088909546	0.06244922599248888	2.3464806968191887	2.213557893417681	0.32732730721524955	2.842604186251208	0.6455409064682677	-0.33997973947753646	0.9855206459458041	80.81653912832434
14	5.0	wm	128	diff_vonmises	0.03203845338520098	1.8356681610986412	1.356240298894635	1.9179130127036155	0.3306274633342683	2.60247474561044	0.22075174926752206	-0.2418739701962768	0.4626257194637988	98.05412464601437
15	6.0	ltm	128	diff_vonmises	-0.5111857646288597	-29.28878686040154	0.5948784649750877	80.3634016426984	0.5752191557661919	81.01433687931898	0.128755762114789	-0.21871632918272788	0.3474720912975169	112.983189386881
16	6.0	perception	128	diff_vonmises	0.23283988203758405	13.340742543077512	1.093537351201314	2.545355790309281	5.6329679645554e-16	3.1592606886288284	0.41178058137221485	-0.4001498950037187	0.8119304763759336	124.37376460012086
17	6.0	wm	128	diff_vonmises	-0.1470368434749365	-8.42459056403956	2.840084363746135	0.6019362335035326	3.970748114215648e-23	1.2422763524300604	0.184323047768791	-0.19641033158890786	0.38073337935769885	81.57511389683705
18	7.0	ltm	128	diff_vonmises	0.2456503011821326	14.074725493853736	1.3272336682524803	175.30998030525328	1.3147503614574985	176.04379979774677	0.10271105686562976	-0.21005063231353205	0.3127616891791618	72.91502367747256
19	7.0	perception	128	diff_vonmises	-0.032714105363358635	-1.8743801678667402	1.4849466273372305	1.7778291692337898	2.14198708188699e-21	2.4849501053748004	0.36988806747838143	-0.35622108467062796	0.7261091521490094	110.92840701759378
20	7.0	wm	128	diff_vonmises	-0.06554243013652324	-3.7553046258538374	0.0003644496181830629	1717.1534275022225	3.3249532532297334e-22	1718.0533847655256	-0.04362278613342596	-0.2428243586811618	0.19920157254773585	179.85666214568027
0	1.0	ltm	129	diff_vonmises	0.16636742446198813	9.53215127013345	4.4497473608399485	0.39670055697429096	1.5526431332280434e-15	3.4771181648738914	-0.23029442074881662	-0.5533564402017933	0.3230620194529767	64.82256642335844
1	1.0	perception	129	diff_vonmises	-0.012717886898669891	-0.7286812436185084	8.495790492479633	0.9494926519082831	0.08457490641770675	4.3472777805700655	0.3351646783070463	-0.7077906303748005	1.0429553086818468	45.555568116087045
2	1.0	wm	129	diff_vonmises	0.13864316122589285	7.943667996595481	3.955522199404481	0.5413052279792584	0.1279310937638337	4.291862559774486	-0.3594753185442245	-0.6811402779892883	0.32166495944506385	61.0130621138068
3	2.0	ltm	129	diff_vonmises	-0.01086254557113141	-0.6223780159943542	2.4806536553537635	0.9428002840492261	0.25729847284460533	2.3539411353727924	0.07643988988134065	-0.3230521884022236	0.39949207828356426	75.69945625762912
4	2.0	perception	129	diff_vonmises	-0.05403365431049948	-3.0959003436604884	11.056025318113386	0.993809194952612	0.09576409783458571	2.6648381160634775	0.8370360250872926	-0.4389177295872136	1.2759537546745061	40.30952076574417
5	2.0	wm	129	diff_vonmises	-0.06024034867016662	-3.451517735197069	3.755596102534178	0.8123956688850509	0.16179004527060756	3.008438299020554	0.04410324548749278	-0.462900137904481	0.5070033833919738	64.86532695795736
6	3.0	ltm	129	diff_vonmises	0.02031285216087265	1.1638406986911973	0.9672502666723585	96.55951296537674	0.9468914490829369	97.335244654477	0.11587192977997773	-0.21383778621465233	0.32970971599463006	86.65908405188648
7	3.0	perception	129	diff_vonmises	0.02466015895178145	1.4129230300588334	3.1599726860319617	2.678002555086565	0.4498329576255565	3.576427610149385	0.9572830375900957	-0.4648163151521221	1.4220993527422179	69.38647001554926
8	3.0	wm	129	diff_vonmises	-0.00038991521583188807	-0.022340496235099764	3.4352031012820907	0.6297908742888263	0.04066839324074647	1.9900359401032448	0.11548817264591149	-0.3078545219778373	0.4233426946237488	72.00555600851791
9	4.0	ltm	129	diff_vonmises	-0.1686178421954044	-9.6610907083996	0.48986137405538666	6.755421146762154	0.282416065236888	8.38726757278947	-0.08167824393903267	-0.3657215275570598	0.2840432836180271	127.09523085530158
10	4.0	perception	129	diff_vonmises	0.024698067845997228	1.4150950497034052	1.33103881395547	9.563942329423865	0.6913505584859618	11.50561120547582	0.6000212986907005	-0.6418700547357759	1.2418913534264764	87.34885254145689
11	4.0	wm	129	diff_vonmises	-0.18047237354136766	-10.340305322628833	0.6009502040184104	188.64261742494918	0.582516850580324	191.06098871530406	0.02337690829851624	-0.5658253762631382	0.5892022845616545	105.76654585233979
12	5.0	ltm	129	diff_vonmises	0.03562785694968311	2.041325836312681	2.3280906828035404	0.9621594293787947	0.06313767701214251	1.9709001178841663	0.20990112653168086	-0.2897022069266946	0.4996033334583755	86.67291182765894
13	5.0	perception	129	diff_vonmises	-0.0274649460463977	-1.5736254930131046	1.8496615842439614	3.0495418830643253	0.3056656774624156	4.369072866691246	0.5780555217640214	-0.48955761142579557	1.067613133189817	88.24899419045565
14	5.0	wm	129	diff_vonmises	0.03546919174097861	2.032234989498351	2.364936257985009	1.2699914736650828	1.348003422294435e-14	2.6212523831283456	0.3071682845635221	-0.41079096825444944	0.7179592528179715	89.42907101880331
15	6.0	ltm	129	diff_vonmises	-0.1899771409857638	-10.884888382446077	0.47304971531195955	88.70160491433899	0.45155427985709096	89.60986576864046	0.13821735369401011	-0.30964880064244227	0.4478661543364524	125.13648126185333
16	6.0	perception	129	diff_vonmises	0.24069016887850683	13.790530847029476	0.0007184724555700038	3300.190158959981	2.317554480468232e-23	3300.9758715123476	0.25238681178620936	-0.5023513229850778	0.7547381347712872	178.06196982460924
17	6.0	wm	129	diff_vonmises	-0.41980950671701095	-24.053312934353713	0.5081800448803945	98.03991843428604	0.4839115361503794	98.91966515681533	0.22999150517020084	-0.3507306491582103	0.5807221543284111	122.53891642927654
18	7.0	ltm	129	diff_vonmises	0.32984651583028884	18.898813244170647	1.351984471140557	1.0546981098866328	3.1126375842245802e-12	2.038941626786048	0.10461794067334262	-0.29578214874582054	0.40040008941916316	114.75364845653829
19	7.0	perception	129	diff_vonmises	-0.06555043288427231	-3.7557631495243675	2.8231735683929093	1.503033021732331	2.0649587105383975e-12	2.181805449003948	0.6034774453678353	-0.3438885291262287	0.947365974494064	81.82440835006472
20	7.0	wm	129	diff_vonmises	0.3595681184681758	20.601735635686467	0.5591183431465696	124.26878334560628	0.5439167187413515	125.61678999446539	0.011913991773106147	-0.32048407164169745	0.3323980634148036	109.80071794218031
0	1.0	ltm	130	diff_vonmises	0.19715877418589653	11.296365654824715	0.0009316022123815952	430.35076197051956	1.947123852799263e-22	432.1767011871654	-0.22678553135840218	-0.3543992527587818	0.12761372140037963	178.63413145052192
1	1.0	perception	130	diff_vonmises	-0.030547323771925212	-1.7502327275509653	9.783638152439076	0.828123924919662	0.04962791335126808	3.068027388786438	0.5065843933795856	-0.49492042726246166	1.0015048206420474	42.9543239244239
2	1.0	wm	130	diff_vonmises	0.030108347056120012	1.7250812144308134	8.896870045453973	0.11986068735704569	0.0678359882221726	2.3406320191930354	-0.2577150318775371	-0.38370209506087793	0.12598706318334085	43.016590135073926
3	2.0	ltm	130	diff_vonmises	0.3897297113930875	22.32986761367555	0.4419593504880693	104.0294095477107	0.42893163516901595	105.02115122376291	0.01884627659129734	-0.25970633436033275	0.2785526109516301	123.89291009652538
4	2.0	perception	130	diff_vonmises	-0.023767668312862714	-1.3617870831938554	7.753016178888765	1.5779542997969405	0.4598176244706816	3.060000880696589	0.9903210126118785	-0.546063246056521	1.5363842586683996	46.09472678495848
5	2.0	wm	130	diff_vonmises	-0.021999126787726125	-1.2604571179098991	4.622364650298321	0.6570364330343477	0.27874738483357325	2.8776395967382005	-0.047360723987563635	-0.4683293339669288	0.42096860997936514	56.24021971275505
6	3.0	ltm	130	diff_vonmises	0.26064174290309894	14.933671833281446	1.6277240003317353	99.87140860665961	1.60810167467371	100.18827780535987	0.19103770127741626	-0.14302663851816	0.33406433979557626	69.55097990771785
7	3.0	perception	130	diff_vonmises	-0.02843539349022996	-1.6292280357839521	1.5581602042142586	177.7207418112588	1.5114900236369264	178.7456361836784	0.9942500500699367	-0.5766598947374391	1.5709099448073758	72.79474564537426
8	3.0	wm	130	diff_vonmises	0.003252433601086583	0.18635071848879722	3.5828064383748095	0.3787232109732792	0.2737709779421519	1.9278168122803703	-0.12192469787819266	-0.3047743145591214	0.18284961668092875	60.55289756356797
9	4.0	ltm	130	diff_vonmises	0.09929308920445991	5.68907494623155	0.6310154684125607	46.09319352302641	0.5964848406325144	47.65897387188823	-0.11313738617049474	-0.30529432708293136	0.19215694091243662	95.77657724340958
10	4.0	perception	130	diff_vonmises	-0.007069265964739303	-0.4050391040350403	0.9452326329291388	339.21516997185205	0.9281084337180616	341.24055961987176	0.43955057224225413	-0.608857872670562	1.0484084449128162	88.95912806708071
11	4.0	wm	130	diff_vonmises	-0.33023972968581256	-18.921342738538222	0.9242013987304288	244.1218936183972	0.9076949245976373	247.00988881589157	-0.16941397214188214	-0.5964644753485331	0.42705050320665094	79.21874874387369
12	5.0	ltm	130	diff_vonmises	-0.10356918573854636	-5.934077230425222	1.4147811521049758	96.47971011181244	1.3924017541644211	97.05326235651695	0.14757865361513467	-0.1876816863151003	0.33526033993023496	72.38238492010538
13	5.0	perception	130	diff_vonmises	-0.01489059029834369	-0.8531679785535428	0.9806675304392941	346.66183297605676	0.9652517524169604	347.8010185227312	0.6314068641213595	-0.4844050384965435	1.115811902617903	90.50998994058475
14	5.0	wm	130	diff_vonmises	0.17240888039222277	9.878301197050178	3.6659341875291354	0.8224459433734388	0.14263450175197398	2.2372268422199624	0.1941996637142625	-0.3389357961768842	0.5331354598911466	67.22375354811356
15	6.0	ltm	130	diff_vonmises	-0.3146893837931171	-18.03037354891818	0.7285853460567426	171.7897103069105	0.7171049822012406	172.6321708297428	0.13375907039684876	-0.24543231677985844	0.3791913871767072	100.57922211810838
16	6.0	perception	130	diff_vonmises	0.08360657209497681	4.790303720598413	1.224914728885398	2.0237932466683914	2.251688856963395e-11	3.3554442152968327	0.24254977033394431	-0.46700867258158585	0.7095584429155302	119.72170925248872
17	6.0	wm	130	diff_vonmises	0.006212110891277584	0.35592773593745775	2.787644647678951	0.9893778151634006	0.11766689343776453	2.2392492877077386	0.22174252456013965	-0.3264097953979354	0.5481523199580751	77.37852916521678
18	7.0	ltm	130	diff_vonmises	-1.5447061503555304	-88.50514300327266	1.9828516837692591	14.69515892567341	2.0385548654892975	15.21556138185727	0.01227154827246385	-0.3988334187259479	0.41110496699841176	55.57159038195704
19	7.0	perception	130	diff_vonmises	-0.017399680046239013	-0.9969282315274886	0.5213486945930201	120.50950289288346	0.49333802675751337	121.95614217675224	0.2764619864700819	-0.5106558283080886	0.7871178147781706	121.0564138702238
20	7.0	wm	130	diff_vonmises	0.9373465562777252	53.706001615835554	0.6415044596313576	99.89084381157888	0.6272850337988687	101.45659486599561	-0.15424389996978505	-0.2903600508590021	0.13611615088921702	89.54290926345661
0	1.0	ltm	131	diff_vonmises	0.24810736243194834	14.215504733473317	2.431244364935176	0.49647531662425676	5.8487268328731e-30	3.347901065209905	-0.24500181908930568	-0.5306096255820898	0.2856078064927841	88.1664123300105
1	1.0	perception	131	diff_vonmises	-0.053523192105056766	-3.066653013687681	9.522699561985347	0.8026890657510175	2.703159385254154e-19	3.6608989000323224	0.39187891087499893	-0.5826501508820119	0.9745290617570108	43.99306265287177
2	1.0	wm	131	diff_vonmises	-0.008974265678662458	-0.5141875476164663	2.2070809492122145	1.5665044059991087	0.32022692777626444	4.840093604562864	-0.1769715717038739	-0.6578795965494666	0.4809080248455927	73.46092585717432
3	2.0	ltm	131	diff_vonmises	0.05056840325460741	2.897356083204621	1.7799682945560014	1.4964236172536358	0.29455646565917215	3.233060923923484	0.04320095535655277	-0.39009120948256104	0.4332921648391138	84.5432069849187
4	2.0	perception	131	diff_vonmises	-0.037595985542120916	-2.1540912981983906	7.20984626717523	1.378114868571958	0.1523600379439938	3.192156771396805	0.8605150093230022	-0.5195972722086104	1.3801122815316127	49.326674911812205
5	2.0	wm	131	diff_vonmises	0.03451208187437725	1.9773966336117639	5.5817616412279705	0.6530596457666522	0.04911471646268325	2.914986703547713	0.11335828793686187	-0.46198945406239383	0.5753477419992556	56.353544156686326
6	3.0	ltm	131	diff_vonmises	-0.0732171884129995	-4.195035883879025	0.9453307467040758	2.4945178717800625	0.11994983310519594	4.014724667790436	0.10873552199826286	-0.43991909968495635	0.5486546216832192	121.5435474747291
7	3.0	perception	131	diff_vonmises	0.0003579148180510802	0.02050700849951967	3.6665538265511923	2.5250292852068847	0.15913842403809514	4.01417166935601	1.106425628670368	-0.592578506605459	1.699004135275827	68.44182870325247
8	3.0	wm	131	diff_vonmises	-0.014334277039364712	-0.821293576726879	2.678417180310939	0.8765929160329007	5.696056051093568e-16	3.0285286394570594	0.05585058612442012	-0.4794688104220531	0.5353193965464732	84.03299626708247
9	4.0	ltm	131	diff_vonmises	-0.001073794240608978	-0.06152387805234967	0.0002496547328943235	6148.41015444854	3.981389644360462e-30	6150.719091488911	-0.12316403179329427	-0.6117629595266862	0.488598927733392	179.97804441388257
10	4.0	perception	131	diff_vonmises	0.011518890766360316	0.6599838255846605	1.3400605275314201	6.749083648963949	0.4244429700452199	9.514961365825355	0.5172530772175659	-0.8055198440298854	1.3227729212474513	93.32612230290763
11	4.0	wm	131	diff_vonmises	-0.304897693282624	-17.469351008368626	1.3649456805687954	1.5974986005050062	1.1007375621614184e-16	5.191805823311115	-0.17263043287263313	-0.7836610566015455	0.6110306237289124	114.45049799654423
12	5.0	ltm	131	diff_vonmises	-0.0977620422536087	-5.601352417711402	1.4300188997690852	1.2260164268530291	0.0075247114734433235	2.040178047175788	0.1887652564984904	-0.29271889565657283	0.48148415215506324	112.17790367610544
13	5.0	perception	131	diff_vonmises	-0.004611582214105881	-0.26422419774586253	1.2472500319966506	7.096427291861156	0.5453057304427718	8.065469870636951	0.6936252266014153	-0.4861957125311658	1.1798209391325811	95.90624866597429
14	5.0	wm	131	diff_vonmises	-0.058825346648285294	-3.3704440913407905	2.2234617129282546	1.222273053420301	9.222918154416331e-15	2.404138739362766	0.28934971833046697	-0.3747578844044041	0.6641076027348711	92.18766757185327
15	6.0	ltm	131	diff_vonmises	-0.14351873312268115	-8.223017688994045	0.00035560342027138504	3221.875511204317	1.1359000444232021e-32	3222.53668969369	0.07713040419525896	-0.28755763355343333	0.3646880377486923	179.3911828010181
16	6.0	perception	131	diff_vonmises	0.012487924724161645	0.715505381571535	0.4514404477664534	106.20899495231735	0.4260252575263146	107.03436863208408	0.30683675595761173	-0.4027952607788503	0.709632016736462	130.08948616808536
17	6.0	wm	131	diff_vonmises	-0.035567147752566496	-2.0378474555402715	0.684363849636323	46.564037531797815	0.6395729385092548	47.55550901305641	0.1259730957591092	-0.28166164315335784	0.40763473891246704	104.48995684140557
18	7.0	ltm	131	diff_vonmises	0.37346599283564597	21.398025181145552	1.4639767870447808	103.28703929767052	1.4429497605491584	104.10677720346075	0.03670135204412617	-0.22139976246140414	0.2581011145055303	67.10079268936067
19	7.0	perception	131	diff_vonmises	0.060038456717587105	3.439950178396607	0.689681272737188	224.27536574463488	0.6687409843741475	226.0264946352287	0.40630588099467957	-0.5816166442690047	0.9879225252636843	105.36223059900453
20	7.0	wm	131	diff_vonmises	-1.4973993799101282	-85.7946647143569	1.0624147300480316	44.93800208206114	1.02049266693111	46.476737448703254	-0.17677136824772788	-0.31140142681593286	0.13463005856820498	68.22314385855704
0	1.0	ltm	132	diff_vonmises	0.10639279166847321	6.095857933218143	6.736168524633816	0.3815810485128344	8.196924751385927e-19	2.76295886631844	-0.05255556837556208	-0.4397380154230156	0.3871824470474535	52.444000697338055
1	1.0	perception	132	diff_vonmises	-0.03130097439534152	-1.793413727500123	10.361635688490528	0.893071414275487	0.09375849487972024	3.7034815412271214	0.48634896857790555	-0.6100456181299815	1.096394586707887	41.396235069578154
2	1.0	wm	132	diff_vonmises	0.1432507279908623	8.207662126052977	1.5325164566679916	3.274452865207222	0.5305789047578754	6.176653643579481	-0.12250710016831867	-0.6071083983102583	0.48460129814193964	78.10728774038927
3	2.0	ltm	132	diff_vonmises	-0.04937345269169721	-2.8288904592230844	3.9730991889206906	0.8063975343103925	0.256171513310457	1.9119528095720464	0.23094130008975877	-0.2900276075218899	0.5209689076116486	63.18707132154776
4	2.0	perception	132	diff_vonmises	-0.045050456747406355	-2.5812010367630465	11.274040890411031	0.8595596227221481	9.645589520723291e-21	2.246727667184634	0.7801626388270216	-0.35757781383018905	1.1377404526572108	40.40449202030888
5	2.0	wm	132	diff_vonmises	-0.11911638424495896	-6.824866088094762	4.016914750042598	0.7944838394481495	0.20448257568349537	2.3265796627529602	0.16265300936980176	-0.3577401012252287	0.5203931105950305	63.00786627029271
6	3.0	ltm	132	diff_vonmises	-0.0874204846781005	-5.008824815043238	0.7796262837263556	79.67100705075619	0.7578059530052118	80.25979161149107	0.15792292566332122	-0.19675612107750773	0.35467904674082895	99.38498817853173
7	3.0	perception	132	diff_vonmises	0.06104851038920973	3.497821990862276	3.0842496304576157	3.056214106524308	0.6867911398948858	3.5008235911225363	1.0458825195032726	-0.4058045120688468	1.4516870315721193	68.142924784749
8	3.0	wm	132	diff_vonmises	-0.07221825908306445	-4.137801449241915	2.935008097298775	0.8404115665850138	9.960422428866195e-14	1.6792125587270397	0.27633240491373173	-0.2657204996907765	0.5420529046045082	80.22299796318006
9	4.0	ltm	132	diff_vonmises	-0.39651859701110304	-22.7188421071849	1.6932769723993792	1.2052993583932252	0.16249590954192183	2.472992047472367	0.10198780065013052	-0.31743348522272097	0.4194212858728515	93.64521112063771
10	4.0	perception	132	diff_vonmises	0.013320434341213602	0.7632046690326645	2.013919733125788	4.381174331920832	0.5159184351260445	5.718049294654729	0.8417484108534887	-0.5664292705488874	1.408177681402376	81.112778140953
11	4.0	wm	132	diff_vonmises	-0.2436152573267946	-13.958126069818835	0.7453888979389734	144.99067074081432	0.7251602846972853	146.41834344015663	0.14661128585049	-0.37886230289075584	0.5254735887412458	98.17781873404594
12	5.0	ltm	132	diff_vonmises	0.02270458569722284	1.3008769360439625	1.409402585915654	1.2669430428637474	4.542892263674532e-17	1.6484647809940742	0.26614256745921816	-0.23082045829235417	0.49696302575157236	113.3553195287673
13	5.0	perception	132	diff_vonmises	-0.02291275895773136	-1.312804385278578	1.974131612031932	2.770146817339452	0.4062641003974332	3.2831330212333394	0.6648105576825779	-0.3369966982990601	1.001807255981638	85.41510702938444
14	5.0	wm	132	diff_vonmises	-0.004796337793285208	-0.2748099126743331	2.1856993321268936	1.316492081976044	2.403000965108158e-13	1.7813722192130705	0.4329026934923606	-0.2744628446960155	0.7073655381883761	92.96233116475929
15	6.0	ltm	132	diff_vonmises	-0.25973527489985165	-14.881735042431727	0.3546844566323649	53.37074071467573	0.328062224128792	53.72920246332805	0.1799541889579075	-0.2224349655452258	0.4023891545031333	140.31618894363882
16	6.0	perception	132	diff_vonmises	0.24109288255604963	13.81360464110487	0.3261896202862121	6.904409463697184	5.792382697628201e-19	6.7732665222783615	0.40496991108763214	-0.3056583691535407	0.7106282802411729	160.22683435049242
17	6.0	wm	132	diff_vonmises	-0.4043556915137808	-23.16787454583352	0.7174469621091402	125.19863829365181	0.7051992345553324	125.31445805874358	0.25933093426773723	-0.14955831633633743	0.40888925060407466	109.22756616144848
18	7.0	ltm	132	diff_vonmises	0.2581655000630934	14.79179356949964	1.2823601175422896	2.2982858789202396	0.46474049807201256	2.782392230061868	0.23786348586135664	-0.20125595333956137	0.439119439200918	96.47118720616521
19	7.0	perception	132	diff_vonmises	-0.03269191903506525	-1.8731089848926374	2.2542138506731635	1.4637969952643182	6.035819573291543e-14	1.4365748783104328	0.5827868490245676	-0.2196994274702666	0.8024862764948342	91.56832034178203
20	7.0	wm	132	diff_vonmises	0.03659746055462787	2.0968800306766857	0.6553739080200338	64.41573166367104	0.6312677858138094	64.98454243892066	0.1405646098719373	-0.1975729424448751	0.3381375523168124	108.60444213664934
0	1.0	ltm	133	diff_vonmises	0.09832251557723486	5.633465173684851	0.00022989115263974573	2369.162450837096	2.464854094526133e-31	2372.2892605507977	-0.41096035657869834	-0.5843241244208457	0.17336376784214735	179.60451493027946
1	1.0	perception	133	diff_vonmises	-0.0008541414592224665	-0.04893870072059284	10.050466098102975	0.7764213926873583	0.038772640788849524	4.428461234439184	0.23675981445068295	-0.713262147558586	0.9500219620092689	42.31711854950049
2	1.0	wm	133	diff_vonmises	-0.08466728500155056	-4.851078093420143	9.870508826458428	0.2068731513172075	0.0300306865403649	3.747413654915966	-0.3586309125388848	-0.6034663944454467	0.2448354819065619	42.15690269195758
3	2.0	ltm	133	diff_vonmises	0.2811765881966221	16.110231801554406	0.6531135137125683	114.25424332158073	0.634846549801844	115.69759636902809	0.0036762141385722202	-0.32726761161442397	0.3309438257529962	100.6198889219155
4	2.0	perception	133	diff_vonmises	-0.04379840151872179	-2.5094635564421335	9.114824003123175	1.379298281576333	0.35469759944491247	3.1928888727362357	0.9344558222316146	-0.5718345845437074	1.506290406775322	43.076357369733245
5	2.0	wm	133	diff_vonmises	0.023430850182363332	1.3424888258527543	5.658223368373578	0.5917931289330697	0.023587682545964276	3.0393602517809124	0.05269459415261474	-0.4817529634941182	0.5344475576467329	56.50256170178557
6	3.0	ltm	133	diff_vonmises	0.14451624569215593	8.280170949236199	4.506977405287833	0.4136397064489886	0.12968872196979814	1.2634116046239188	0.11130013076112785	-0.19697508306024472	0.3082752138213726	61.22481808496468
7	3.0	perception	133	diff_vonmises	-0.011984219965656791	-0.6866452247885505	3.991764871817791	2.5228050376370166	0.349239801090845	3.781513573332533	1.1094122565307483	-0.5513262866352773	1.6607385431660255	63.571532160015835
8	3.0	wm	133	diff_vonmises	0.007756902605343783	0.4444377813802312	3.1476276335097997	0.4793455795309065	2.639030761401995e-18	2.320216114746975	-0.04667281484322933	-0.3686785396890958	0.3220057248458665	77.41798707999232
9	4.0	ltm	133	diff_vonmises	-0.06714799833465818	-3.8472969073273937	0.0004875307628167944	1642.4364549678853	2.6198136752741556e-28	1644.4830382406667	-0.19826730855413643	-0.4531493146972707	0.2548820061431343	179.84320861125678
10	4.0	perception	133	diff_vonmises	0.011303999586971467	0.6476714679510908	2.6324378517009994	2.1634274647908316	3.1696241926303474e-12	4.41507315822829	0.6113909164644784	-0.695886243803741	1.3072771602682194	84.77125320424855
11	4.0	wm	133	diff_vonmises	-0.15614955738251102	-8.946710610853748	1.7270317746373842	1.5687606841126174	0.06677029291503427	5.145547734201567	-0.1342063779627547	-0.7425691696436677	0.608362791680913	96.2447550147044
12	5.0	ltm	133	diff_vonmises	-0.059234295222447386	-3.3938751186781713	0.9231225845547086	106.02408385710767	0.898497369396465	107.08473076699562	0.15497286838927948	-0.2916541563870858	0.4466270247763653	88.86745702891395
13	5.0	perception	133	diff_vonmises	-0.017984770109506457	-1.0304514227877553	0.9093631748888011	101.94862455412091	0.855007529363507	103.52745435632545	0.5602236478158673	-0.5635953509763638	1.1238189987922311	93.60136171254956
14	5.0	wm	133	diff_vonmises	0.04575244396609121	2.6214219416658158	2.7212877317470308	1.1058158937358595	6.657892400315981e-16	2.7415741822097335	0.24841483304629286	-0.43337091304874914	0.6817857460950421	83.36322660914556
15	6.0	ltm	133	diff_vonmises	-0.27452150533318953	-15.72892364116988	0.47118026713999844	143.56460591058723	0.45778713611276517	144.57199282759564	0.11661495438064406	-0.3199243388398063	0.4365392932204504	124.00556697155568
16	6.0	perception	133	diff_vonmises	0.12204300414832116	6.9925490567964	0.9068774068225081	3.0586366456542216	9.910886497341596e-15	4.6275344179822175	0.2546025819364631	-0.5749056373534456	0.8295082192899087	132.39533365416804
17	6.0	wm	133	diff_vonmises	-0.0885301483586882	-5.072403860619866	1.1726576060147953	3.5976090644015764	0.36291708972576514	5.0381610233988505	0.23014697653598692	-0.41869491717768925	0.6488418937136762	99.89356010414261
18	7.0	ltm	133	diff_vonmises	0.03672489131264744	2.10418127529136	1.2924940097260147	120.6680883807732	1.2756934884887745	121.70117324820939	-0.03653331366614765	-0.24397507714513722	0.20744176347898957	68.28855697175692
19	7.0	perception	133	diff_vonmises	-0.013613388043014991	-0.7799896797386182	1.667248682225638	1.9505632810331237	3.624699796285141e-18	3.9307186799092615	0.2753422259296777	-0.5934899405335806	0.8688321664632583	105.50725388313617
20	7.0	wm	133	diff_vonmises	0.9068246181345052	51.957223377669685	0.25599344797641915	88.76020198844132	0.24343741655414436	90.67304108809951	-0.1862542157153868	-0.3880653970538219	0.20181118133843512	132.69273492431782
0	1.0	ltm	134	diff_vonmises	0.21254068450064148	12.177684196708348	5.442476430466313	0.3630177483741947	3.204502237203468e-16	3.058352724240737	-0.15747114729676076	-0.48674578336916086	0.3292746360724001	58.468411930092856
1	1.0	perception	134	diff_vonmises	-0.031649712183323846	-1.8133949309082384	7.768221402308367	1.0740554930976514	0.10374699088020149	3.8808686148953284	0.49037717521449964	-0.6313105640786522	1.1216877392931517	47.56651569281499
2	1.0	wm	134	diff_vonmises	0.1884675469813125	10.798395017212764	3.0593699509991183	0.5864170484366196	0.1120444183720992	4.071830339437702	-0.33423792108665856	-0.6285719510994695	0.29433403001281094	68.88890921806924
3	2.0	ltm	134	diff_vonmises	0.022221107423203188	1.2731756714563667	1.1234883638695574	99.2664423813136	1.0956038987908396	100.45466418231297	0.09020211002562206	-0.30290568942360174	0.3931077994492238	78.33398244590438
4	2.0	perception	134	diff_vonmises	-0.03518958502796498	-2.016214704919144	8.893037289359167	1.1323697977908855	0.13341524035274935	2.5202370338783915	0.8708449206907463	-0.4148133051246216	1.285658225815368	44.73694216114524
5	2.0	wm	134	diff_vonmises	0.0005184922106599815	0.02970741538122493	3.4791560254688867	0.8510767415977786	0.23387681768316193	2.9314071597274953	0.02443495186769984	-0.44518604360117303	0.46962099546887287	65.23335878676761
6	3.0	ltm	134	diff_vonmises	0.13657034753552888	7.824904520420689	1.4623217558116224	1.8073445581815557	0.551261778554878	2.554535001625407	0.11602571598049138	-0.20484527948658623	0.32087099546707765	86.0537170969796
7	3.0	perception	134	diff_vonmises	0.00944309581665736	0.5410495358321101	3.3942109573546215	2.349766002433027	0.40637450127827884	3.292628859774538	0.8946029475183802	-0.4479013954434616	1.3425043429618417	67.6906758116398
8	3.0	wm	134	diff_vonmises	0.1257751712145358	7.206386478128222	3.352856930358126	0.5068666373703101	4.2551787027804954e-14	2.018116181848409	0.03229652134434513	-0.32076051168452413	0.35305703302886926	74.94910101140522
9	4.0	ltm	134	diff_vonmises	-0.14236636517161821	-8.156991868952	1.4075697145686865	0.8630079260413158	2.051286740480492e-15	2.3679609800881574	-0.01714665579072583	-0.3553261845197978	0.338179528729072	113.34224365897035
10	4.0	perception	134	diff_vonmises	0.04463257589530188	2.5572582275981293	0.9890220293756354	459.81345528825716	0.975763198710501	461.8201608981804	0.4784292888985249	-0.6167461480232959	1.0951754369218207	87.11063868760948
11	4.0	wm	134	diff_vonmises	-0.2038034019668801	-11.67707478311045	0.5942456432325254	164.48372525154127	0.571931163164336	167.16989860202028	-0.005602621418006493	-0.6145600285651636	0.6089574071471571	105.80561822065738
12	5.0	ltm	134	diff_vonmises	0.004702041863321061	0.26940715386212627	1.3293542726824032	3.4903020175453	0.6397959086824153	4.227785359611475	0.2512213645583534	-0.25313781018095005	0.5043591747393035	89.03380447367527
13	5.0	perception	134	diff_vonmises	-0.03532259560338142	-2.023835649521113	0.9731124353582614	278.04527176073594	0.9547118195349128	278.97075301114734	0.6623399247291673	-0.45149093231100323	1.1138308570401705	91.72848470127602
14	5.0	wm	134	diff_vonmises	0.06677624514590032	3.825997018591038	2.4656935367722586	1.3033605816404128	1.4504618133042038e-17	2.409018928626437	0.3785171950395655	-0.3779087278038501	0.7564259228434156	87.59151279267309
15	6.0	ltm	134	diff_vonmises	-0.15306924811129838	-8.770221890018245	0.4610080615192083	51.349193786295196	0.42759272860159386	51.925875771169714	0.18309171817060665	-0.2601597347828415	0.44325145295344814	129.02439867955832
16	6.0	perception	134	diff_vonmises	0.15285847891158072	8.758145704423073	0.18762877862812893	11.37634596415171	1.0637208292864214e-09	11.958059659561933	0.2619978067348967	-0.41545609894712077	0.6774539056820175	168.61852665741105
17	6.0	wm	134	diff_vonmises	-0.3874861588987329	-22.20132152463298	0.7496745330140743	7.4261804113031245	0.43155504027195907	7.9907814988159735	0.31355069052869666	-0.30132100024252456	0.6148716907712213	116.31896697740908
18	7.0	ltm	134	diff_vonmises	0.19986338456108893	11.451328414550533	1.528684872703821	0.9903248580027488	8.935149703658696e-15	2.1553893215427626	0.09085523089149317	-0.3226409606420201	0.41349619153351325	109.4280043400511
19	7.0	perception	134	diff_vonmises	-0.0642646405680701	-3.68209267647563	1.5122952589385674	5.597845590425689	0.6896866353394734	6.177210230459572	0.6910744806383804	-0.3716812134451689	1.0627556940835494	87.5171499807802
20	7.0	wm	134	diff_vonmises	0.47413596313445916	27.1659896029749	0.39845779840530865	178.8637252881951	0.38807930891144327	180.34986971634717	0.004144580934124065	-0.3834846441134374	0.3876292250475615	127.83474249594369
0	1.0	ltm	135	diff_vonmises	0.11428908248367295	6.548282070737004	2.4814590463972217	0.42030604801435534	5.066829663316217e-18	3.6104599733773295	-0.3280110330609797	-0.5728978562155428	0.24488682315456312	87.31185899888891
1	1.0	perception	135	diff_vonmises	-0.014144238180281161	-0.8104051521579102	8.06178360568222	0.982752938469806	0.07261607987069144	4.459725963512171	0.3325483617289129	-0.7213412389003561	1.0538896006292688	46.85732956041073
2	1.0	wm	135	diff_vonmises	0.11722966743529871	6.716765177764842	4.262963378993748	0.3808163507236743	0.027940684420409853	4.108153083481859	-0.36913514829298977	-0.6494367630452841	0.2803016147522943	63.507784796782175
3	2.0	ltm	135	diff_vonmises	0.12605213777936553	7.222255493359201	0.8924441501649868	118.30046574840979	0.8712657251445299	119.65653184915499	0.04734577122911077	-0.31861962376711084	0.3659653949962216	86.80480579526778
4	2.0	perception	135	diff_vonmises	-0.04649422737653423	-2.6639230003970216	9.739960752013141	1.194498172220804	0.2374438688941485	2.692463092753227	0.9311313305967568	-0.464551345725457	1.3956826763222137	42.333216913311276
5	2.0	wm	135	diff_vonmises	0.01786444134120647	1.0235570922101587	5.495447878391758	0.5482934928311746	0.018645277044486538	2.590701921066323	0.07986027931564355	-0.41035247703485783	0.4902127563505014	57.51531104020157
6	3.0	ltm	135	diff_vonmises	0.06219319957624961	3.5634078501339226	2.6159010126043647	0.5484835980596704	0.16592858113098183	1.3166739908754062	0.08623772344880437	-0.18704599057714383	0.2732837140259482	77.57102976515216
7	3.0	perception	135	diff_vonmises	0.0167903134764275	0.9620140989009247	3.9234433205380608	2.0961411557972585	0.28077996283415385	2.9702319048091943	0.9808888718315893	-0.4320573177172969	1.4129461895488862	65.05696839758622
8	3.0	wm	135	diff_vonmises	0.06331130632593447	3.6274706479359557	3.2806122905947848	0.5148430619598785	1.630637638664055e-15	1.8561746836990365	0.05925693235640267	-0.29491774005637134	0.354174672412774	75.7946030245327
9	4.0	ltm	135	diff_vonmises	-0.2558071334920197	-14.65666911843238	0.2951131996420984	68.36593977962605	0.27481161695607687	70.03946042587066	-0.09681855364079084	-0.3843466722417741	0.28752811860098326	140.33447238768375
10	4.0	perception	135	diff_vonmises	0.026640778697163078	1.5264041822894763	2.1256455929388496	2.984809239648953	0.24523564213104368	4.91180268927286	0.6131590350803372	-0.616686407058352	1.2298454421386893	84.30044463589607
11	4.0	wm	135	diff_vonmises	-0.17705359869383566	-10.144423952759768	0.8871604228136531	5.819952830972113	0.33906822975775747	8.567544922014626	0.0038840341380665944	-0.633017622551288	0.6369016566893546	105.682799847532
12	5.0	ltm	135	diff_vonmises	-0.018278876938276654	-1.0473025028022644	1.747465664317739	1.4419835975197015	0.23597865954308078	2.5558738235618432	0.17742222423201526	-0.3067207390705576	0.48414296330257284	90.38558778551203
13	5.0	perception	135	diff_vonmises	-0.022539793827621554	-1.2914350574177385	1.8924666360105133	2.9642625865069334	0.2932653609220467	4.316511056964514	0.577209482319223	-0.4943069021924433	1.0715163845116662	87.72353208343677
14	5.0	wm	135	diff_vonmises	0.043358792081955255	2.484275791081288	2.1142251245267047	1.3716808604212656	6.560536241448466e-17	2.727404424825975	0.2975901298874887	-0.42341422340163104	0.7210043532891197	94.47316208759861
15	6.0	ltm	135	diff_vonmises	-0.21736548823740462	-12.454125087803824	0.4254861660329327	119.43042282956925	0.40973401081200655	120.35808822506657	0.13304855914554636	-0.3214982076010511	0.45454676674659744	129.92345028200629
16	6.0	perception	135	diff_vonmises	0.2611557508959865	14.963122321909895	0.12675729914235526	19.712098542186354	9.28573422900526e-11	20.821263385224707	0.23318517339274658	-0.5610982564198581	0.7942834298126047	170.8136013301807
17	6.0	wm	135	diff_vonmises	-0.35775276459692656	-20.497723520541147	1.3462616285595026	1.7778805599935976	4.206710312587371e-12	2.767612068481241	0.2810195588603997	-0.3916215917582922	0.6726411506186919	114.9131398462495
18	7.0	ltm	135	diff_vonmises	0.28632895960458776	16.405440937714715	0.5460257743549578	90.49251998175161	0.5248375364813319	91.93863447781962	-0.0033457933511868987	-0.3376923029885308	0.3343465096373439	110.78677254523984
19	7.0	perception	135	diff_vonmises	-0.07554440754941519	-4.328375718397725	2.9275241388461	1.5634472250382527	4.085256800029996e-16	2.726747850103037	0.5757629310715617	-0.4310818192277154	1.006844750299277	80.33058894636585
20	7.0	wm	135	diff_vonmises	0.6304061008632729	36.11960895876402	0.35268127844627684	80.21690004948196	0.3314095232849149	81.93001605409773	-0.06078780161527675	-0.4094421936768704	0.34865439206159365	130.8128544092836
0	1.0	ltm	136	diff_vonmises	-0.015988352754483112	-0.9160651341982469	0.949466385053883	0.8254070685206626	2.1181707103645914e-28	3.088768528959474	-0.2174494517480144	-0.45054567357792136	0.23309622182990697	130.71991287350113
1	1.0	perception	136	diff_vonmises	-0.0676872523180491	-3.8781938846613118	9.648020043478807	0.8887069923918434	1.8830799822669005e-17	3.2774906248996674	0.5646013216888667	-0.5216288293634755	1.0862301510523422	43.70423490087305
2	1.0	wm	136	diff_vonmises	0.08692420780172495	4.980390244556983	2.2705462458896744	1.0431885978279676	0.1724102144833712	3.563795572882692	-0.08817497793133611	-0.505982996826819	0.4178080188954829	78.93450160445633
3	2.0	ltm	136	diff_vonmises	0.10160527379494544	5.821553364721555	1.7164291825742557	1.48077566548383	0.35574430716287425	2.7235341377033104	0.09662660342934992	-0.302889713800382	0.3995163172297319	85.17071333502017
4	2.0	perception	136	diff_vonmises	-0.02748204726325073	-1.5746053205633213	7.353656750393437	1.4394159696621287	0.27730817173181577	2.6470593461289296	0.9831736246270895	-0.44326780839441243	1.4264414330215018	48.35117343753035
5	2.0	wm	136	diff_vonmises	0.02202423098680807	1.2618954825653508	7.425024576246842	0.4651356373365884	0.005127410263082337	2.011746449603082	0.17466738045150076	-0.3198916857763783	0.49455906622787904	49.79417103689278
6	3.0	ltm	136	diff_vonmises	-0.04167669345406762	-2.3878986389785797	1.6339544108263	0.9466937959248085	0.03412960293910765	1.8221638005420138	0.13192903235724063	-0.26374299388410943	0.39567202624135006	104.13221513857759
7	3.0	perception	136	diff_vonmises	0.025785947947881128	1.4774259881576146	3.8216047859756532	2.2610779542662884	0.251076504853437	3.0088715836341944	1.0893729126692158	-0.4348637582516866	1.5242366709209023	66.38653834097897
8	3.0	wm	136	diff_vonmises	-0.007177805830417076	-0.41125798024729354	3.258115193494949	0.6230835279130905	1.0947862010937103e-12	1.833927714843462	0.13570150314130913	-0.29124606347457904	0.4269475666158882	76.06400564709395
9	4.0	ltm	136	diff_vonmises	-0.24954184800279386	-14.29769470245518	1.0474960682787164	1.3338015447566653	4.186971598855219e-26	2.9730687580997714	-0.005453123741349208	-0.4156134215812571	0.4101602978399079	126.19079289935245
10	4.0	perception	136	diff_vonmises	0.0012065483019079088	0.06913012547799943	2.3409551465416314	2.7317409199908873	0.17174881445735504	4.596050658692331	0.6865096530807374	-0.6202111087556537	1.3067207618363912	83.14332521847754
11	4.0	wm	136	diff_vonmises	-0.28260412917361066	-16.19202387461783	2.1866891449921884	1.1350452922701604	0.08336901583257594	3.46811688201328	0.018935273150155085	-0.5054895377248138	0.5244248108749688	86.2399836557414
12	5.0	ltm	136	diff_vonmises	-0.11944209132806585	-6.843527729314303	1.395338100984382	1.0744468405648808	6.682227066344741e-13	1.742921517110824	0.16812023819686345	-0.2500487270348546	0.41816896523171804	113.76807703832094
13	5.0	perception	136	diff_vonmises	0.0017332200651178683	0.09930619469864357	1.8157136306569044	3.187863406233507	0.3931578009512042	3.874754456721649	0.6715129461810717	-0.38588978566880905	1.0574027318498809	88.16215701508452
14	5.0	wm	136	diff_vonmises	-0.031379320219284315	-1.79790261255452	1.8480812902746688	1.2629713124721726	6.58293238958557e-19	2.0843755357578386	0.2893345830689873	-0.31632415710332484	0.6056587401723121	100.68524748379636
15	6.0	ltm	136	diff_vonmises	-0.2953011445010214	-16.919509265291385	0.506922359335518	2.39854516412025	1.0659302394079303e-12	3.022871767936901	0.11381274982452566	-0.2652559137331312	0.37906866355765684	150.46391063015685
16	6.0	perception	136	diff_vonmises	0.1274415647604723	7.301863795318223	0.9554584812586729	2.64727760071079	1.0212105742939999e-13	3.3583771678618866	0.347741927464461	-0.4039755350094336	0.7517174624738946	130.29563696212398
17	6.0	wm	136	diff_vonmises	-0.14702225131327717	-8.423754494762507	1.9212621592335664	0.8862981951478919	4.7364688210765636e-20	1.6017499747017152	0.19129413164568027	-0.24535871377901364	0.4366528454246939	98.84716601655217
18	7.0	ltm	136	diff_vonmises	0.2627518097186813	15.054569756304923	1.1919251240625541	167.53093797785144	1.1769744495986705	168.65954303599364	0.04063962571179758	-0.2791045757284927	0.31974420144029025	74.39245470461623
19	7.0	perception	136	diff_vonmises	-0.02513738731261612	-1.4402662009986062	2.0037028087330078	1.8629878671438467	9.046544435378986e-16	3.0087595323111738	0.48324745394823004	-0.4613653058672194	0.9446127598154495	96.93700702922015
20	7.0	wm	136	diff_vonmises	0.3307453086845693	18.950310281377433	0.0002634255777752867	2474.7842609922413	6.467099510359912e-25	2476.0723595006825	-0.10124392633980506	-0.30875689723507094	0.20751297089526588	176.54682079566206
0	1.0	ltm	137	diff_vonmises	-0.3699415337647599	-21.19608855131718	0.00043618041426579613	1484.9382729858141	2.655889657759486e-29	1488.5858925896025	-0.4774412407944624	-0.6836096588679652	0.20616841807350283	176.1000167850376
1	1.0	perception	137	diff_vonmises	0.0025435175508097094	0.14573282077884828	7.911615981533925	0.9418176338597685	0.06599388041018368	5.071034751348783	0.17783343619486225	-0.8190160600968615	0.9968494962917237	47.22078832601983
2	1.0	wm	137	diff_vonmises	0.07102844874694285	4.0696303385611055	3.0166919755957227	0.4256642749884646	1.944678192420425e-19	4.370439287951709	-0.41590277637099266	-0.6949065311950146	0.2790037548240219	79.10972098106427
3	2.0	ltm	137	diff_vonmises	0.29504703772350127	16.904950019393812	0.8842921696526544	141.5834318382935	0.8661655347031239	142.95083531627398	0.05684202637116442	-0.32440171162867415	0.3812437379998386	87.43754463600695
4	2.0	perception	137	diff_vonmises	-0.050150411226296904	-2.873406904112316	9.743115864162466	1.3449310886888703	0.40487017987598084	2.7658394943992244	1.0185000984763386	-0.507565977053747	1.5260660755300854	41.71550475883322
5	2.0	wm	137	diff_vonmises	0.06138186383967436	3.5169217366600227	5.533319572216081	0.569627209646221	5.22678075578917e-20	2.431017364071838	0.13423706550330866	-0.3869002841386699	0.5211373496419786	57.98497244277857
6	3.0	ltm	137	diff_vonmises	0.08779698720382835	5.0303968207434595	5.724478146566833	0.24483952911296342	1.024901601871222e-30	0.9996627984021823	0.06899844773569222	-0.1590988441080175	0.22809729184370972	56.97986892033299
7	3.0	perception	137	diff_vonmises	0.014322884277912642	0.8206408195786761	5.294459382232139	1.731233155347606	0.12973287043119722	2.5532686948258267	1.08684496084642	-0.3971726617357393	1.4840176225821593	57.928500316725774
8	3.0	wm	137	diff_vonmises	0.0996741684710207	5.710909179865424	2.36120149489636	0.5712338399385412	5.211428258451184e-15	1.8052702320416478	0.038177157938394324	-0.2844226271515048	0.3225997850898991	89.49251597073402
9	4.0	ltm	137	diff_vonmises	-0.5080701881471835	-29.11027747725128	0.29615083500671713	125.16305295045622	0.28397161543301885	126.95258127066512	-0.09886527665133471	-0.4134286795403934	0.3145634028890587	137.81262281116486
10	4.0	perception	137	diff_vonmises	0.013808392828067551	0.7911626309069857	2.949842064888525	2.1354961765560625	3.0042389798185275e-18	3.8877026980644325	0.7664879518226508	-0.6149509790677009	1.3814389308903516	80.01981485654139
11	4.0	wm	137	diff_vonmises	-0.1364795659296805	-7.819703117548156	1.9157436515323543	1.5515890097940759	9.00702629032162e-14	4.563853219404446	0.053483930163713	-0.7094545325879478	0.7629384627516608	98.98354367422561
12	5.0	ltm	137	diff_vonmises	-0.08538346395702959	-4.892112124945179	1.0079169253096203	4.404369486530789	0.4583147174673624	5.745015779485186	0.1387039408175048	-0.35809114938204206	0.4967950901995469	99.63087829534793
13	5.0	perception	137	diff_vonmises	-0.006355858037952563	-0.36416384075898206	2.336983621811978	2.1166326797614685	0.1320655130227648	3.6539420217857663	0.5379455873095931	-0.5064589821124224	1.0444045694220154	84.38556652407183
14	5.0	wm	137	diff_vonmises	0.019778614895734313	1.1332311581401588	1.7643321346028389	1.607313781156925	1.8805076782384774e-15	2.9698571574838883	0.2957596541106676	-0.45011844122270595	0.7458780953333736	102.85165145129258
15	6.0	ltm	137	diff_vonmises	-0.2761844047231785	-15.824200757971129	0.3847050694202682	130.72339656167566	0.3697844497614282	131.73009727396598	0.1318197360425195	-0.35059089853531233	0.48241063457783184	134.1262231941137
16	6.0	perception	137	diff_vonmises	0.33361033564655806	19.11446423449058	0.15853068957197075	17.89733185626051	4.352371977252259e-15	19.457537471200766	0.22014066191766712	-0.6811068712571546	0.9012475331748218	167.97939475505825
17	6.0	wm	137	diff_vonmises	-0.2944524009580852	-16.87087984239216	1.5733214574298526	1.8903190121567826	2.5811069780962105e-12	3.017925084988618	0.36253543650720893	-0.4440779011434122	0.8066133376506212	107.96714007821232
18	7.0	ltm	137	diff_vonmises	0.27230231039591085	15.601773137347013	0.6230983984620649	168.21072653974895	0.6104570250758338	170.09336890798176	-0.10059340041344456	-0.381816097576241	0.28122269716279646	97.99601631922579
19	7.0	perception	137	diff_vonmises	-0.07579060375903811	-4.342481722141236	2.9258702581604585	1.530235474580627	2.3878149065797077e-16	3.357497932500865	0.45360265586376414	-0.5315218036064692	0.9851244594702333	80.35393698878389
20	7.0	wm	137	diff_vonmises	0.8080068758837187	46.29538380568802	0.29059156361478294	25.142309095552275	0.22492161244085404	27.172573609235233	-0.10787952041550852	-0.48006818538044493	0.3721886649649364	136.80702038285662
0	1.0	ltm	138	diff_vonmises	0.05921216944175974	3.392607404826337	3.8667932367700013	0.5035520454589576	5.332122711752002e-18	3.1030285144148415	-0.11384506519629012	-0.4936958979154364	0.37985083271914627	69.66599314033544
1	1.0	perception	138	diff_vonmises	-0.09841366700084307	-5.63868776555421	11.431024307482724	0.9460706588822432	0.011571324251342387	3.8232390730492227	0.6456938859888192	-0.6101999446503803	1.2558938306391996	40.01776493797436
2	1.0	wm	138	diff_vonmises	0.021290288041352898	1.219843649387369	6.092717135175692	0.42659214892541125	0.008764042543584746	3.350395900340181	-0.12724915845720564	-0.5323088277183425	0.4050596692611369	54.74802372878989
3	2.0	ltm	138	diff_vonmises	-0.08555376057671299	-4.901869402518382	2.7136376447068566	1.0251646477016667	0.23911306097766702	2.2084599804494873	0.1936905581877555	-0.306379956468153	0.5000705146559086	74.83242210085209
4	2.0	perception	138	diff_vonmises	-0.06730435561024214	-3.8562555193145194	12.577788859874598	0.9311569247987133	0.09991260476219697	2.1320561407139516	0.9297611035916686	-0.3534322151909554	1.283193318782624	37.87035344059913
5	2.0	wm	138	diff_vonmises	-0.09894204510002495	-5.668961600624477	5.694554561593412	0.5344012838217378	0.09749680455017383	1.907661723908675	0.16253074243029414	-0.30364126355608584	0.46617200598638	55.20688785157364
6	3.0	ltm	138	diff_vonmises	-0.08565603579325493	-4.907729340775021	1.5557124546525338	2.307390306991285	0.6005191792626533	3.118851078025019	0.19327190755061174	-0.24508444586945505	0.4383563534200668	84.27348510755183
7	3.0	perception	138	diff_vonmises	0.017486510467231722	1.001903248183715	3.3953313685114677	2.2793079727157437	0.3101686896826023	2.982306453598111	0.9688929419431775	-0.41115990622962645	1.380052848172804	69.27623829826439
8	3.0	wm	138	diff_vonmises	-0.01998588098159555	-1.1451066300962038	3.0191945064615076	0.9281316201285574	0.30094197346247836	1.8390341400742132	0.2234341462666697	-0.25640798899091855	0.47984213525758823	70.77795237051629
9	4.0	ltm	138	diff_vonmises	-0.2297584049694997	-13.164186912409933	1.4922700590522229	1.0635506395988306	1.9469219962832036e-14	2.4545681229028684	0.06858127087071703	-0.36743603268836145	0.4360173035590785	110.52239877398341
10	4.0	perception	138	diff_vonmises	-0.039288491123153094	-2.2510647247938715	2.001517470972055	3.1090016416855657	0.19221949764833954	4.460009709503792	0.7522144493296183	-0.5616813699939649	1.3138958193235832	89.19491692584361
11	4.0	wm	138	diff_vonmises	-0.13911317606608437	-7.9705978632469705	0.9186217135472973	198.5721691433858	0.9026396085101742	199.98903473114146	0.14614839852904993	-0.3673843860757522	0.5135327846048021	87.76292340531992
12	5.0	ltm	138	diff_vonmises	0.01377662257118571	0.7893423292736097	1.671670799341534	1.246325334559107	8.860670675392332e-16	2.243260620019943	0.2195623778675042	-0.3366611809768344	0.5562235588443386	105.38126806424557
13	5.0	perception	138	diff_vonmises	0.02730146571402475	1.5642587599347386	2.128783827580209	2.238113824241983	0.2850497796972741	3.3475729670156196	0.5044572602613532	-0.40500373575828413	0.9094609960196374	83.85175691130405
14	5.0	wm	138	diff_vonmises	-0.028307105565012945	-1.6218776791065272	0.7214639212378234	131.85834332178004	0.6989725096489223	132.71626065944866	0.32151843368846755	-0.3377841045607344	0.6593025382492019	104.79139328848618
15	6.0	ltm	138	diff_vonmises	-0.2248733824619901	-12.884295739903218	1.4811913026654904	1.3090227147229057	2.474759965246834e-12	2.410019722182916	0.1791232564938069	-0.3544777887141113	0.5336010452079182	110.87491566845674
16	6.0	perception	138	diff_vonmises	0.3701597299225039	21.208590270261883	0.00019514988836475224	11786.108114818984	1.7550097493577556e-29	11786.953640069667	0.2315114583554987	-0.5006147867877644	0.7321262451432631	175.73838524259264
17	6.0	wm	138	diff_vonmises	-0.36725544152081646	-21.042186802356397	0.7552183602526575	123.34748425590911	0.7349183093695242	124.0780085897443	0.2652174467753241	-0.27793933605083865	0.5431567828261628	102.14275311058276
18	7.0	ltm	138	diff_vonmises	0.13170974527415233	7.546412524952069	0.7231832490884879	222.1049418713909	0.7110334352363256	223.36602757672213	0.15316336328177727	-0.34701412292656286	0.5001774862083401	100.04173484981561
19	7.0	perception	138	diff_vonmises	-0.10378379074310559	-5.946373191448852	3.1481150358767604	1.3760004523133484	3.950882392686354e-18	1.9040071572784572	0.6231879024889249	-0.30132489966691334	0.9245128021558382	77.40518754052763
20	7.0	wm	138	diff_vonmises	0.32631573774683514	18.69651456159146	0.6458557241622396	83.95202345673947	0.6232454212222889	84.96865043032152	0.08590044219366177	-0.27125408446759813	0.3571545266612599	105.45826157033727
0	1.0	ltm	139	diff_vonmises	-0.47402874936884315	-27.159846706699398	0.0005501046183712924	1204.6709405961185	2.151405800900001e-22	1206.2909752855721	-0.1523512444426558	-0.3632928035288501	0.21094155908619427	173.6510848608087
1	1.0	perception	139	diff_vonmises	-0.09173702243764141	-5.256144210773788	11.251894766303613	0.9114429729932964	4.8874312761227553e-14	2.9034443083477983	0.7433303428017872	-0.46209751346233835	1.2054278562641256	40.437980946999886
2	1.0	wm	139	diff_vonmises	0.10873818822726389	6.230239257321355	4.221641588662483	0.3247747068813604	5.181094154917251e-23	2.0724896761105644	-0.07271468669641518	-0.3297916013080755	0.2570769146116603	66.59208305868813
3	2.0	ltm	139	diff_vonmises	0.22257382040698356	12.752540539422913	0.400974378904017	132.76051696773584	0.38997297218960225	133.5882277964684	0.08030840767583314	-0.2656845217858361	0.34599292946166926	131.57224955058217
4	2.0	perception	139	diff_vonmises	-0.04418751929847668	-2.53175836295559	9.589899210505695	1.3365520769245716	0.4371582110855477	2.199607838086687	1.1110342393487245	-0.40308210604163935	1.5141163453903639	42.20865778536427
5	2.0	wm	139	diff_vonmises	-0.05787544265318225	-3.3160186014787705	9.600788881703243	0.3490503161256792	0.06982499101917904	1.4478800639201463	0.17869951970157102	-0.23538505032301532	0.4140845700245863	43.14197509095635
6	3.0	ltm	139	diff_vonmises	-0.010466011684293697	-0.599658297844635	1.4244577192750265	125.01214455662408	1.4098046110306635	125.35251842437943	0.18382096320914343	-0.1419397064781336	0.325760669687277	74.32984721122344
7	3.0	perception	139	diff_vonmises	0.027878507177691646	1.5973208004069035	2.500482582070645	3.828728079146583	0.8093191370060653	4.131436006403452	0.9948060034142707	-0.37661014272144056	1.3714161461357113	72.71791958179509
8	3.0	wm	139	diff_vonmises	-0.024613522691449053	-1.4102509691695135	2.3873235489441704	1.251133045082997	0.8305724031592709	1.8195006255870603	0.15445484898660833	-0.18368758190456466	0.338142430891173	68.88711077920564
9	4.0	ltm	139	diff_vonmises	-0.18619821424487704	-10.668371829104139	3.4692243754177428	0.40410025031958874	1.3135036300090112e-30	1.571963330214818	0.0370440711883846	-0.2499071543376582	0.2869512255260428	73.65037770432318
10	4.0	perception	139	diff_vonmises	-0.030998648312522786	-1.7760917189178869	2.7724694769163114	2.028917843510887	0.042012723864592774	3.1489095518636208	0.7475866869228741	-0.47585128182147785	1.223437968744352	81.0573914028318
11	4.0	wm	139	diff_vonmises	-0.2597907275081559	-14.884912242850552	1.2080403407190268	164.18464121133076	1.1889544631899907	165.4498129409095	0.10188136357161426	-0.3301796120169307	0.43206097558854495	75.34038457076417
12	5.0	ltm	139	diff_vonmises	-0.1310834344630848	-7.510527558814483	5.0785634407977716	0.32668016247471	1.3441730142889038e-33	1.1699179978065193	0.09938767356186165	-0.1861871479276015	0.2855748214894631	60.581693093789426
13	5.0	perception	139	diff_vonmises	0.041951177712054165	2.4036254285039886	2.7683837843471903	1.6638801375164913	0.21123123604255606	2.7449195284053434	0.5069425820313008	-0.3771537126755247	0.8840962947068256	76.43850602477298
14	5.0	wm	139	diff_vonmises	0.024062038004254487	1.3786532241271725	0.661461068921693	169.2124104846284	0.6486283699929115	170.12779504458356	0.1613098001464479	-0.28307147963670154	0.44438127978314945	106.2795602618468
15	6.0	ltm	139	diff_vonmises	-0.4017042777525161	-23.01595972757014	2.237823638333847	0.7955698372285944	4.896734511170208e-17	2.0437608236092712	0.11381872438523238	-0.3202765020042409	0.4340952263894733	91.74010070494529
16	6.0	perception	139	diff_vonmises	0.38987820083216496	22.33837543183695	0.3886106251446105	6.088109465876602	5.514444475446687e-13	7.493936774361098	0.18396297241656745	-0.5598632374515192	0.7438262098680867	155.09430558104907
17	6.0	wm	139	diff_vonmises	-0.2608061541701166	-14.943091904985957	3.4391785607689833	0.6692778526287595	2.8728156827002164e-19	1.7373426397097862	0.19693474139470535	-0.27601910097854443	0.4729538423732498	73.9710188720426
18	7.0	ltm	139	diff_vonmises	0.04671896828451791	2.676799705908424	1.1070374631708828	221.19912267134598	1.0940823883752182	222.56848690947754	0.04428064668383058	-0.3306007677369003	0.37488141442073086	77.17342528367561
19	7.0	perception	139	diff_vonmises	-0.15531678239082183	-8.898996118545915	2.991604861678556	1.2200547345478234	1.3226835863967237e-30	2.1036156229040834	0.46300389400380354	-0.33278976177135694	0.7957936557751605	79.4428935377222
20	7.0	wm	139	diff_vonmises	0.4552548106760092	26.08417925476266	3.241319991221739	0.40530059703654553	0.00504624969036721	1.5720991785018599	0.025873661896230193	-0.24852206692277234	0.27439572881900254	75.84020706682605
0	1.0	ltm	140	diff_vonmises	0.214494795206841	12.28964649287491	4.3233638153435185	0.6866239387645178	0.09891631229195286	3.5443383931972203	-0.07056806453833209	-0.5572015366213113	0.48663347208297925	61.70129126102526
1	1.0	perception	140	diff_vonmises	-0.08089248206823842	-4.634797816847754	8.417326305167295	1.085561490907792	0.023490450818940935	3.7746601451619455	0.6215252139073986	-0.602044532805616	1.2235697467130144	46.54594581542088
2	1.0	wm	140	diff_vonmises	0.17644397875396292	10.109495303098042	0.7621270441512059	189.1094514071267	0.7419728562508282	192.63170952148275	-0.30287362913277605	-0.6775464317680608	0.3746728026352848	84.2072327050486
3	2.0	ltm	140	diff_vonmises	-0.08015133936940701	-4.592333468187778	1.223210287943416	186.2246109437633	1.2039276028289247	187.59219494514957	0.14243460436719602	-0.3676951697208466	0.5101297740880426	75.46568593396961
4	2.0	perception	140	diff_vonmises	-0.04950778441608454	-2.8365871000851928	8.905985580237752	1.0955897564798123	0.06909757833856614	2.3845271837975126	0.878804644456359	-0.38451877366768683	1.2633234181240458	45.06486638922479
5	2.0	wm	140	diff_vonmises	-0.01951058000888312	-1.117873890361319	4.673254030581746	0.6127091165380799	0.15738136967183838	2.434746257171612	0.06168704458841012	-0.38529657587397814	0.44698362046238826	58.95482455500823
6	3.0	ltm	140	diff_vonmises	0.028872859857614057	1.6542930123139805	0.8744084390337553	138.01209194228173	0.8562261798247065	139.06938423684065	0.14620130042359136	-0.28879157747053164	0.434992877894123	91.0935120065975
7	3.0	perception	140	diff_vonmises	-6.15075499810093e-05	-0.0035241230221017992	3.0688375060341695	2.2155774669701227	0.23294042688453065	3.238937263347405	0.8279898229081273	-0.44843369793765064	1.276423520845778	73.17605082950286
8	3.0	wm	140	diff_vonmises	0.09136710978282214	5.234949776864164	2.9195506181836253	0.8447438284137777	0.22522899068109398	2.292057229909267	0.0935307489592423	-0.33086446262870917	0.42439521158795146	71.61201242446631
9	4.0	ltm	140	diff_vonmises	-0.052638195714264126	-3.015946455610952	1.4254293533816358	1.06400486472539	4.6041877443519444e-17	2.626973574761314	0.028794511717010418	-0.39226794673355964	0.42106245845057005	112.82579032121035
10	4.0	perception	140	diff_vonmises	0.021909715218902795	1.2553342123766786	0.9003859253211015	499.8732509968289	0.8886723912008196	501.9153342119462	0.460832226456688	-0.6238905792682843	1.0847228057249723	91.2598409096704
11	4.0	wm	140	diff_vonmises	-0.14754480229892314	-8.453694460820422	0.6853118599363891	171.14535163779902	0.6644986506334271	173.4330086837781	0.04254559574113159	-0.5314111728434767	0.5739567685846083	99.10983631387188
12	5.0	ltm	140	diff_vonmises	0.024341853257929327	1.3946854572061234	1.7353170528083948	1.7359536952087666	0.24661284303660685	2.839001012870329	0.2520441554137737	-0.3328157346255308	0.5848598900393045	91.06679914405007
13	5.0	perception	140	diff_vonmises	-0.01434618730075469	-0.8219759844374224	0.953478323913728	99.15729292076367	0.9040866697428487	100.26430178041535	0.5731696330692202	-0.46053609875987966	1.0337057318290999	92.46417907931752
14	5.0	wm	140	diff_vonmises	0.016247735392876696	0.9309266646571671	1.95287971465211	1.4703288558932504	2.5607512423606262e-15	2.651614944505283	0.32563889180315453	-0.4069704985318272	0.7326093903349817	98.11921153304948
15	6.0	ltm	140	diff_vonmises	-0.09853409727034088	-5.645587911722058	1.188915904456002	1.4449165441161722	1.5216981737772094e-16	2.4063044419410553	0.1618729139893086	-0.33243748382522076	0.49431039781452935	121.05778443721432
16	6.0	perception	140	diff_vonmises	0.19141248610865402	10.967127600132374	0.00015757042161855119	12669.95145041883	1.9490048846985357e-30	12670.840333360222	0.17628080462418438	-0.4591959994550052	0.6354768040791896	178.74588863076167
17	6.0	wm	140	diff_vonmises	-0.4225297438288201	-24.20917104013523	0.6012824407053006	193.5622230841832	0.5883418691407603	194.4040930916192	0.2521317947790749	-0.3275150925755774	0.5796468873546523	113.65227914506403
18	7.0	ltm	140	diff_vonmises	0.08380542141480801	4.801696947383787	0.8994407893788775	1.9011447041601977	1.6952829299760614e-13	3.5360724905153473	0.05055357249293313	-0.46128494676877874	0.5118385192617119	132.80267773637513
19	7.0	perception	140	diff_vonmises	-0.08276632561960007	-4.742161143808582	2.7836269748340916	2.2151101386254757	0.2858150569616339	2.768626350552062	0.81515553979688	-0.35919658605471344	1.1743521258515934	76.14325034550669
20	7.0	wm	140	diff_vonmises	0.6993827541013052	40.07168007424065	0.1879210724053421	110.3582174901959	0.1739770254627903	111.90493478146878	-0.025868280824930423	-0.4262797800369782	0.4004114992120478	148.31130172277344
0	1.0	ltm	141	diff_vonmises	0.12941537907196327	7.414955024909176	0.44350056600053495	99.96068561086877	0.4278913805336215	101.90851614508489	-0.16615689359811014	-0.37984369873549717	0.21368680513738703	112.98263674762225
1	1.0	perception	141	diff_vonmises	-0.07058214482151551	-4.044059007253998	10.764623934490524	0.8937096835825774	0.06517350750239952	3.2067560482860396	0.6114175858695415	-0.521902772235017	1.1333203581045586	40.88787258480289
2	1.0	wm	141	diff_vonmises	0.007591457533150197	0.4349584770023015	8.359107990112644	0.27063048370943743	0.12794106815547868	2.701568939611227	-0.17952996631173024	-0.45228925096131795	0.2727592846495877	44.20970965288777
3	2.0	ltm	141	diff_vonmises	-0.003684371467779386	-0.21109893526217918	0.7028282383265021	23.744597254192993	0.6264329299100726	24.733217014169355	0.07756952408310092	-0.2575962739607891	0.33516579804389	102.71785126123171
4	2.0	perception	141	diff_vonmises	-0.04396828204004591	-2.5191969933354876	9.720077927308962	1.0845878682967902	0.18547666002678187	2.560026866888162	0.8440261926955002	-0.4330803378239741	1.2771065305194742	42.576313122695126
5	2.0	wm	141	diff_vonmises	-0.1607637041711497	-9.211081747896587	2.4886264738043837	1.7173296035405468	0.6138636272877729	3.6916279364408173	0.019378919019606977	-0.468629192351785	0.488008111371392	66.66596687934
6	3.0	ltm	141	diff_vonmises	0.14231764369392672	8.154200333908635	1.3468840743751989	185.0455596101898	1.3326620495700368	185.57282828318174	0.26232746503205817	-0.2106194990231849	0.47294696405524306	76.31789352455078
7	3.0	perception	141	diff_vonmises	-0.03169305330072015	-1.8158781940144275	2.3496573863717654	5.357195248830616	0.8676703988943314	6.534496622574296	0.9752247189322234	-0.5807496701803544	1.5559743891125777	71.57466375103209
8	3.0	wm	141	diff_vonmises	-0.05152943263489515	-2.9524190106831814	2.9357902509575013	0.8871481796414046	0.35632260419730993	2.415325625908984	0.041963037603195086	-0.34561904850974484	0.3875820861129399	67.69634304040767
9	4.0	ltm	141	diff_vonmises	-0.025312334964994028	-1.4502899631155821	1.550571705956719	1.3692464906775992	0.22217783751611977	2.8487768579466426	0.045841314164391855	-0.3416718595797612	0.38751317374415306	92.76144993905078
10	4.0	perception	141	diff_vonmises	-0.03918549861637114	-2.2451636888337934	0.8866644167460415	490.615997361715	0.8749421051676662	492.4425308627886	0.5155212112092897	-0.5997827224681274	1.115303933677417	92.8289416770034
11	4.0	wm	141	diff_vonmises	-0.25585650499656265	-14.6594978972709	1.0040644514459685	252.3295863118222	0.9880228360967772	254.5464614866824	0.013463246582062993	-0.5070354093067131	0.5204986558887761	80.12098973306522
12	5.0	ltm	141	diff_vonmises	-0.011177568689974614	-0.6404275111531179	1.1692623029265359	106.14060386921207	1.147324167078303	106.58395042056688	0.2689174340901559	-0.19213435596872763	0.4610517900588835	83.00654839005085
13	5.0	perception	141	diff_vonmises	0.0013460184096119867	0.07712117401767812	0.9824651094767033	380.99707612140776	0.9695860059649756	381.89994400803243	0.6267662083966457	-0.4315401779315877	1.0583063863282334	91.05959468254972
14	5.0	wm	141	diff_vonmises	0.029378062139453393	1.6832389708637532	2.438006842382816	1.2902979360173008	0.19744583847882133	2.255606216874623	0.31614512216502	-0.30392062273040793	0.6200657448954279	80.73334264265398
15	6.0	ltm	141	diff_vonmises	-0.20835212735108175	-11.93769754978923	0.7428481515292228	154.48772818777113	0.7286358770464083	155.20456172104923	0.21111686507322958	-0.25164755544636286	0.46276442051959243	102.01149982328951
16	6.0	perception	141	diff_vonmises	0.11080503500779552	6.34866085474602	0.5273804170217056	3.7777669728184393	6.883610844123375e-13	4.508707202213111	0.23390018648505173	-0.3861980680572246	0.6200982545422764	150.52287513354736
17	6.0	wm	141	diff_vonmises	-0.11368847742575802	-6.513869935764268	2.0755008586690322	1.2031683854876467	0.1956435768092488	1.9151224147630883	0.26754215882998567	-0.24566902948889763	0.5132111883188832	87.02132333622862
18	7.0	ltm	141	diff_vonmises	0.14300666460789327	8.193678324275165	1.6973247941595866	109.76124211763492	1.677725294887684	110.08480937305649	0.21113588182676324	-0.15316260508643964	0.3642984869132029	68.20658139510837
19	7.0	perception	141	diff_vonmises	-0.019095566299757054	-1.0940953563883253	0.61616683359224	157.00693359226977	0.595586462647908	157.70732792500596	0.42651329048238296	-0.38718286585008954	0.8136961563324725	115.1413337492645
20	7.0	wm	141	diff_vonmises	0.12093376973781922	6.928994606583958	0.6505522910112057	1.2119031001006293	1.5685235106898213e-14	2.1625468970999244	-0.010730605410513183	-0.25340469262976556	0.24267408721925238	144.28218820120586
0	1.0	ltm	142	diff_vonmises	0.1106149985649716	6.33777256861853	5.246577133957172	0.5124372057651551	6.080757203563973e-19	2.661508667170808	0.032245639545458726	-0.42357961977673747	0.4558252593221962	59.5776995037358
1	1.0	perception	142	diff_vonmises	-0.10620046770671887	-6.084838581910384	11.331479196029145	1.0136597281279185	0.07451249946227269	3.3665163898124844	0.7691517201392966	-0.5508177591913506	1.3199694793306471	39.84321780989134
2	1.0	wm	142	diff_vonmises	-0.023891390949967044	-1.3688758681301623	6.285065130100764	0.5974342879825352	0.13354222880579364	3.3174021357711663	-0.01619078326987855	-0.5411242487227369	0.5249334654528583	51.36691259341396
3	2.0	ltm	142	diff_vonmises	-0.14607805514243863	-8.369656039141045	1.3355168290563564	90.18934552120267	1.293390948199036	91.17633166736981	0.2977224623166208	-0.3310931031023081	0.6288155654189289	75.4821925447146
4	2.0	perception	142	diff_vonmises	-0.06008978675580724	-3.4428911729488663	10.131961027545179	0.8361480332351716	3.7260201293656254e-17	2.106632825328763	0.7124591644849426	-0.33528102577110436	1.047740190256047	42.644607285685396
5	2.0	wm	142	diff_vonmises	-0.19425727492952338	-11.130121993174185	2.1943504916949435	2.3866278269624916	0.7810961217488842	3.8676660064153956	0.14144009657602208	-0.3962669474308857	0.5377070440069078	69.17100875410298
6	3.0	ltm	142	diff_vonmises	-0.00028557593027156946	-0.016362295535083216	1.5184680113426503	2.7966736051023697	0.45485585057144495	3.7697887456275936	0.32194404272866706	-0.32969136522289433	0.6516354079515614	89.9494464255655
7	3.0	perception	142	diff_vonmises	-0.02562637020654888	-1.4682828570750466	3.566450352090059	2.524504941430652	0.3696284740253345	3.7399901592575784	0.989323535150303	-0.524611994361565	1.5139355295118682	66.51051519524617
8	3.0	wm	142	diff_vonmises	-0.031136976231290595	-1.784017324852111	3.1805972534256304	1.0891056661245477	0.13930418516953355	2.50819286053084	0.2807114906637438	-0.3701397901071785	0.6508512807709224	72.28009296767365
9	4.0	ltm	142	diff_vonmises	-0.16875944318915295	-9.66920384771625	1.9850863948500628	1.4171015291343696	5.232840544483876e-16	2.773549929987736	0.286312722781962	-0.42769075181858274	0.7140034746005448	97.32664564420189
10	4.0	perception	142	diff_vonmises	-0.06309430494431949	-3.6150373846209094	0.8508942120382871	473.4293514028394	0.8383291985066694	474.98259704508934	0.6522055010300392	-0.6024542863059565	1.2546597873359957	96.32385324055585
11	4.0	wm	142	diff_vonmises	-0.15950762839015983	-9.139113906897268	0.9576359029427012	215.4797688191296	0.9406563490325583	217.0556177129682	0.1741026067932694	-0.4127239160806333	0.5868265228739027	86.07596563081007
12	5.0	ltm	142	diff_vonmises	0.008603277885291123	0.4929315128054173	1.7226619526192977	1.5970263041168538	5.212122897263994e-19	1.7460887280129014	0.4745366498090489	-0.25389709726679127	0.7284337470758402	103.97795813587535
13	5.0	perception	142	diff_vonmises	0.013218229554588661	0.7573487661130203	1.0194093703801874	312.59401233253647	1.0060407040778963	312.99785439664134	0.6511816928926066	-0.3305428653707878	0.9817245582633944	91.36636708162035
14	5.0	wm	142	diff_vonmises	-0.0616472142240595	-3.5321251937774654	1.9734031566844408	1.966497793579615	0.2898395699419621	2.2463301773978546	0.5384064471206452	-0.25143511449682654	0.7898415616174718	88.58321276446796
15	6.0	ltm	142	diff_vonmises	-0.1551834010534011	-8.891353930845895	1.2325487743294576	1.5265087067244776	3.432816268878191e-11	1.8683494778824248	0.29055320735777035	-0.24738413754458508	0.5379373449023555	119.37009465745811
16	6.0	perception	142	diff_vonmises	0.10709667228672701	6.136187321925145	0.00042911624954772694	3974.046952048228	1.0103869304964492e-29	3974.0561874997134	0.2699698782722635	-0.27285138092190664	0.5428212591941701	179.53191548395898
17	6.0	wm	142	diff_vonmises	-0.27275333586117717	-15.627614992959696	0.9008149660732533	123.18750240497111	0.8864978133243248	123.23056118885638	0.32220659535596496	-0.1405176199984517	0.46272421535441666	98.81019168563935
18	7.0	ltm	142	diff_vonmises	0.1840446998721252	10.544984544424697	1.36809543265461	123.8085456752627	1.3471964173385234	123.98041319495044	0.3956852828931332	-0.17206983447777624	0.5677551173709094	79.2986971714138
19	7.0	perception	142	diff_vonmises	-0.008046503325626151	-0.4610306803963596	0.81889428722881	165.55787249882923	0.7994981089223867	165.41834251017124	0.6555023604029273	-0.259412362948769	0.9149147233516963	105.027189134655
20	7.0	wm	142	diff_vonmises	-0.04690866021835759	-2.6876682531251124	1.366650049894626	1.0790762480171208	1.7370089856730142e-32	1.4688529049987757	0.20810734319289081	-0.2050497180374833	0.4131570612303741	114.77701328513858
0	1.0	ltm	143	diff_vonmises	0.32178990199575336	18.437203274285054	0.9168223127013129	40.94828649200899	0.8452492448825086	43.02952467542907	-0.09134777498660185	-0.43538261245774024	0.3440348374711384	82.12103002860272
1	1.0	perception	143	diff_vonmises	-0.07697607078116205	-4.410403979260879	8.335790533826554	1.0297808455891646	1.2559027397461777e-16	2.9682280946989836	0.6945918500000822	-0.47240810637110026	1.1669999563711824	47.07007062380805
2	1.0	wm	143	diff_vonmises	0.2666060398969398	15.275400878791093	0.7761297463911504	139.948463181449	0.7540826514130194	142.3695414476529	-0.12477700434718031	-0.49274012576676895	0.36796312141958865	87.62442544464352
3	2.0	ltm	143	diff_vonmises	0.0005939728469796864	0.0340321372773059	1.0055604664922129	131.41603986538695	0.9857739373293636	132.6301537010313	0.08047748418444911	-0.30069807397885384	0.38117555816330295	82.60949025837832
4	2.0	perception	143	diff_vonmises	-0.029627390039485068	-1.6975244072504279	6.622938678369159	1.5843860555975215	0.32617495960052845	2.5727589422409043	1.0407525381270666	-0.4255071981529219	1.4662597362799885	50.65274284500944
5	2.0	wm	143	diff_vonmises	0.02421530398729804	1.3874347180984916	8.000713951196646	0.39006884961754	0.05667206426326422	1.9137705229749562	0.11068253272601125	-0.3080583665197243	0.41874089924573554	47.1691469671573
6	3.0	ltm	143	diff_vonmises	0.03450431574844352	1.9769516673725942	0.9036645234648406	124.7846275145383	0.8882461632006474	125.49401338719107	0.139160178442431	-0.20867521488589702	0.347835393328328	90.6714662142823
7	3.0	perception	143	diff_vonmises	0.04472318861199173	2.5624499538346726	2.235226619406662	3.518725151057232	0.5893020300597996	4.034054008517644	0.8775082054115071	-0.391535596813575	1.269043802225082	78.35562979803734
8	3.0	wm	143	diff_vonmises	0.07117907133272726	4.0782603770259	1.8158949248311	1.8482822118952016	0.7334807933094094	2.761603519875031	0.09578491944787837	-0.24006855967868543	0.3358534791265638	74.86905764337683
9	4.0	ltm	143	diff_vonmises	-0.11481773547985175	-6.578571656244995	2.5087605797555157	0.5028060639164501	2.0012039658155506e-36	1.8649139085242383	0.00011353207642411656	-0.294844091841992	0.2949576239184161	86.8371581655656
10	4.0	perception	143	diff_vonmises	0.01772091478901436	1.0153336265214865	1.0137136031842955	371.4026058231111	0.997665759871735	373.20908823512093	0.5104575175274988	-0.5830670161419533	1.0935245336694521	86.65712245215596
11	4.0	wm	143	diff_vonmises	-0.31458435994907213	-18.024356125906163	2.264796224152704	0.9609562274060239	0.13219316337125314	2.8391590631584958	0.020696097383329226	-0.40444415264143724	0.42514025002476646	82.35401578389886
12	5.0	ltm	143	diff_vonmises	-0.025329228844770266	-1.4512579111263622	2.493384198997299	0.6043299398911686	0.02709476999342646	1.5820462364692738	0.09692880551708716	-0.24259796286471585	0.339526768381803	85.2704603343357
13	5.0	perception	143	diff_vonmises	0.0013690020045262275	0.07843803700430246	2.6471396327363688	1.8033877007132235	0.10398341043307308	2.7925487527934827	0.6071720353601454	-0.40053975933841707	1.0077117946985625	80.97948708443178
14	5.0	wm	143	diff_vonmises	0.02330756973634604	1.335425376599473	1.4144837681027336	1.5705443874727865	0.10588034453153297	2.689720276531778	0.18200623692974643	-0.34520965706944223	0.5272158939991887	106.14020141001052
15	6.0	ltm	143	diff_vonmises	-0.31596552340924144	-18.10349096299155	0.9985441946744378	1.209212351033544	9.865508495760899e-16	2.266611421544924	0.052124419743610484	-0.30470385503176906	0.35682827477537954	127.87600452753408
16	6.0	perception	143	diff_vonmises	0.2254246467017895	12.91588085424021	0.1915571947727389	158.427879265916	0.17669195199394128	159.58319643825635	0.18813076879930435	-0.49040115484032043	0.6785319236396248	157.13672955851578
17	6.0	wm	143	diff_vonmises	-0.3341562314611186	-19.145741760718753	1.7486582446275154	0.9158640742541819	4.8824473394113346e-20	1.9630188404055815	0.1230612907769007	-0.29923814480177624	0.42229943557867694	103.02325801612008
18	7.0	ltm	143	diff_vonmises	0.08729552779909164	5.001665313254903	0.5818947407409201	50.7827164249935	0.5396923303926837	52.603787087618024	-0.05897431612647708	-0.3917856565525	0.3328113404260229	105.50376211971624
19	7.0	perception	143	diff_vonmises	-0.11734231296439133	-6.723219291162867	3.748188704365066	1.4429359474058223	3.3086886346860985e-14	2.2165333744835816	0.7177416994564574	-0.35217795779920763	1.069919657255665	70.78555755036052
20	7.0	wm	143	diff_vonmises	0.7731413287282365	44.297735103264536	0.2704389486725024	79.10617597145108	0.25463495627603266	80.66957421843148	-0.09463099462407598	-0.35980256952455925	0.26517157490048326	136.64722954203043
0	1.0	ltm	144	diff_vonmises	-0.4412109285961611	-25.279524083607956	0.0056868240983535216	108.83235997867979	1.8304704181383698e-13	110.45438807262853	-0.1595125287791248	-0.3565149801858887	0.19700245140676387	174.21578791789165
1	1.0	perception	144	diff_vonmises	-0.06647120706291594	-3.8085196238452723	11.986882234994026	0.8142429714169793	4.441192077175201e-19	2.936796162330774	0.6449696914207809	-0.46740562604513525	1.1123753174659161	39.16620267471893
2	1.0	wm	144	diff_vonmises	0.05686222847277641	3.2579657051987088	4.424131817258523	0.3814525178669436	2.754181168377678e-20	2.1040913491277293	-0.02512349449142348	-0.33483204482702866	0.3097085503356052	65.01173223477838
3	2.0	ltm	144	diff_vonmises	0.2221580393276975	12.728718038378428	0.48715963476623736	72.1666109980393	0.46574606126695145	72.98408703296782	0.09123790983051805	-0.2552879652376694	0.34652587506818744	122.64466621588937
4	2.0	perception	144	diff_vonmises	-0.030634847808980074	-1.7552474854801554	8.863369252729502	1.367993116486207	0.422782673751725	2.3433565391085946	1.055837601003192	-0.4218968457769067	1.4777344467800988	43.763262005207196
5	2.0	wm	144	diff_vonmises	-0.04058847150480062	-2.325548114112081	8.607883213896422	0.39496303619604645	0.039004692885943416	1.5223157895227963	0.20329515818792376	-0.2439425240213332	0.44723768220925697	45.83920549010273
6	3.0	ltm	144	diff_vonmises	0.019167459738880756	1.0982145470247944	1.248579307925513	27.629031685901914	1.1914074222686368	27.955763945167	0.1675400928809303	-0.13105948328448314	0.29859957616541344	80.27453112030898
7	3.0	perception	144	diff_vonmises	0.03013735982953284	1.7267435238993378	3.3623028906427708	2.843492017766195	0.6416511419874367	3.1599974936565163	1.1220405985685618	-0.38877983347870976	1.5108204320472716	66.55389978828322
8	3.0	wm	144	diff_vonmises	-0.09209446005789342	-5.276623877853428	3.966443763098435	0.48554868865887424	0.05957434736942925	1.138955249232265	0.17935977993264335	-0.17582183186166905	0.3551816117943124	67.0506166362978
9	4.0	ltm	144	diff_vonmises	-0.3562202005928392	-20.40991407127327	2.4718163939498474	0.5653287799023272	0.008788724313619461	1.8145722587732465	0.03960633943824937	-0.2839061213239404	0.32351246076218976	86.7041384559379
10	4.0	perception	144	diff_vonmises	-0.020849173666094192	-1.194569657402495	3.2217148976004517	1.9781469087164736	8.656398174330021e-17	3.1642140496805924	0.8453990398746398	-0.5014540492886251	1.346853089163265	76.49772531891915
11	4.0	wm	144	diff_vonmises	-0.28823451297998687	-16.514621103761993	1.1266023319305443	145.09283185990725	1.1031351154620903	146.5874218971428	0.09654790068244523	-0.37625594550369	0.47280384618613525	77.7915425607056
12	5.0	ltm	144	diff_vonmises	-0.10039327914459767	-5.752111186464194	2.148512207678955	0.563624311786583	1.2823883123254257e-15	1.0797891988654693	0.13172547891875877	-0.1677222140539647	0.29944769297272344	93.72977963624342
13	5.0	perception	144	diff_vonmises	0.01576267773791263	0.9031349082072132	2.061566197484982	2.6796879710806083	0.4518599487837638	3.386789000081585	0.6026420459728854	-0.3510395781098851	0.9536816240827706	82.30882935406115
14	5.0	wm	144	diff_vonmises	0.013991920340451604	0.8016779827911269	0.7522527651973635	80.47582997439899	0.7243785486415367	81.13725858301747	0.23682089289411934	-0.2510645404730383	0.4878854333671576	102.56944268488039
15	6.0	ltm	144	diff_vonmises	-0.478322767993918	-27.405875851066757	0.6179783542111482	87.36175298443099	0.5970412699079916	88.10575290938678	0.14926912885540133	-0.24683162068608144	0.3961007495414828	111.00493485324098
16	6.0	perception	144	diff_vonmises	0.24674438296629908	14.137411762528618	1.0514703500705962	2.619038995874991	2.6582802618476276e-18	3.428317119468297	0.37475732971077436	-0.43325610155030814	0.8080134312610825	125.97677977621578
17	6.0	wm	144	diff_vonmises	-0.15782190125614967	-9.042528856707802	3.03602868461661	0.6881159827556812	7.494422037083052e-18	1.3642196688296053	0.23663854614385843	-0.2160757374726037	0.45271428361646215	78.84870708748326
18	7.0	ltm	144	diff_vonmises	0.17735774430990653	10.161850212918035	1.3385158681845606	168.0466929833814	1.3233268844458723	168.9669474929999	0.09178475266517694	-0.253307945267629	0.34509269793280595	71.7592440985317
19	7.0	perception	144	diff_vonmises	-0.05796668593668568	-3.3212464565324322	1.464424121656416	1.8444009424046954	6.36453040677072e-23	2.7258424546507847	0.3535373324201935	-0.3917377586567097	0.7452750910769032	111.57035509991151
20	7.0	wm	144	diff_vonmises	0.055915408009854825	3.2037168887166794	0.0007938082387203453	833.4271187006616	1.352687938415558e-17	834.4075417947304	-0.050725021302383766	-0.261311551646088	0.21058653034370423	179.80085832752218
0	1.0	ltm	145	diff_vonmises	0.26921213666657295	15.42471922469375	2.0326354079042215	0.8820347674367327	0.29298292720857333	2.3300021615122524	-0.027094305921327333	-0.3034337001526247	0.2763393942312974	78.620284140222
1	1.0	perception	145	diff_vonmises	-0.08230513490938757	-4.715736862562765	9.539991056150138	0.9505800200890001	9.250868806663823e-20	2.4987686198467154	0.7573393315208601	-0.3976913715161511	1.1550307030370113	43.95893846041241
2	1.0	wm	145	diff_vonmises	0.24949798376394275	14.295181466697457	0.9126154337137075	113.82170661527462	0.887732974620447	115.47425995330838	0.009933999111410685	-0.3726276084429969	0.3825616075544076	84.47504873590489
3	2.0	ltm	145	diff_vonmises	0.0048163629642542245	0.27595727045488566	1.5957896065320705	1.2930124398712335	0.32519271464967	2.250261240785828	0.09859065287712554	-0.24403124955705935	0.3426219024341849	89.29001774600391
4	2.0	perception	145	diff_vonmises	-0.02848245979969178	-1.6319247366733711	7.278084552094311	1.4557529082405003	0.3099091570183274	2.3004232497262906	1.0503439539846513	-0.38529414321620414	1.4356380972008553	48.619293944011844
5	2.0	wm	145	diff_vonmises	-0.038445334102563254	-2.202755386047249	9.101145153107902	0.356811329978341	0.08408467125362296	1.4821388451165067	0.1670589045014398	-0.24178173808774087	0.4088406425891806	44.14920915426387
6	3.0	ltm	145	diff_vonmises	-0.023489058760520303	-1.345823931712606	1.0120537512809276	129.22335339731433	0.9984152988876138	129.65624884225093	0.18543919792499253	-0.16268866986940367	0.3481278677943962	88.1542561411454
7	3.0	perception	145	diff_vonmises	0.07866354929411327	4.507089376071997	1.4099962901662875	257.1915108665902	1.3877797743577487	257.31739688146524	0.9678706575346183	-0.35277232304851935	1.3206429805831377	79.16216013031521
8	3.0	wm	145	diff_vonmises	-0.02728005349608412	-1.5630319302167264	1.7745762393982438	3.254483188138724	1.128509355322437	3.75531263974987	0.18743918049436958	-0.18143333575183063	0.3688725162462002	72.54371121176601
9	4.0	ltm	145	diff_vonmises	-0.19974749794641228	-11.444688600627503	6.359768225669397	0.3270213802604002	1.6715063712843395e-24	1.4561212281951683	0.09018230915796649	-0.23174792759019697	0.32193023674816346	54.010417648517176
10	4.0	perception	145	diff_vonmises	-0.006540078526687526	-0.37471889726333274	1.5899918501700334	6.760868297640153	0.7342127534500702	8.079022426829695	0.6821792187551825	-0.5242362692768336	1.2064154880320161	83.06038175502331
11	4.0	wm	145	diff_vonmises	-0.39690366289380463	-22.740904757098185	2.309586938624968	1.1423001694115624	0.4825396193706349	2.276593492380823	0.0881141332480957	-0.2788964738718531	0.3670106071199488	72.87558505735483
12	5.0	ltm	145	diff_vonmises	-0.017197098101381193	-0.9853211410815834	2.346579538360755	0.4323439023658205	1.868490720649139e-21	1.1544445856430587	0.06172010367628966	-0.18148775005416512	0.24320785373045478	89.77511353358989
13	5.0	perception	145	diff_vonmises	0.015919749705511074	0.9121344690304197	3.228138041681148	1.4287562933747775	0.05918474935490419	2.209279525609572	0.6027201901692771	-0.3335165972619925	0.9362367874312696	74.74367039267057
14	5.0	wm	145	diff_vonmises	0.004056236296807106	0.23240522051482151	0.6276598595264737	110.3212856259941	0.6095780042418064	111.1621872164178	0.15336966367160798	-0.2686894247932159	0.4220590884648239	109.62577313975927
15	6.0	ltm	145	diff_vonmises	-0.47329748147908246	-27.11794814292267	1.388335524956828	0.8629625007961078	2.4823081151436725e-21	1.8609734823046389	0.06056117355836399	-0.273977315294643	0.33453848885300697	113.1096611399661
16	6.0	perception	145	diff_vonmises	0.29236317117515365	16.75117579339715	0.3021817892254605	59.568745005104795	0.2599569236924833	60.44051800895547	0.27060623817320995	-0.4427843272916352	0.7133905654648451	145.985174485907
17	6.0	wm	145	diff_vonmises	-0.30959667776390976	-17.73858298714377	2.566616353749838	0.5141738162332091	1.0267708922421659e-20	1.3675948114924557	0.09007485841120064	-0.2158445250165716	0.30591938342777225	85.80695616058742
18	7.0	ltm	145	diff_vonmises	0.18391929114027342	10.5377991533755	0.8558221314333362	122.76012911379154	0.8364818228504609	124.03779070980366	0.05620497444263606	-0.30415775557722213	0.3603627300198582	89.11456077416116
19	7.0	perception	145	diff_vonmises	-0.12640077507238634	-7.2422309388301604	3.398217326183355	1.2239390920726787	3.2374871392340762e-21	1.6347414829560838	0.5998315384679492	-0.259215851769238	0.8590473902371872	74.43489234870975
20	7.0	wm	145	diff_vonmises	0.3457036743221029	19.807361500821628	1.6139573191436254	0.477398998011181	7.882054472637198e-15	1.4821102961344705	-0.0196979700555579	-0.2273153459403025	0.2076173758847446	106.65861928124897
0	1.0	ltm	146	diff_vonmises	-0.31824784677963697	-18.234258459599285	0.27817646105250854	2.2684427384382744	8.549858157332606e-09	3.796373445686062	-0.13648069278278552	-0.3360620345772797	0.19958134179449416	162.08504709709922
1	1.0	perception	146	diff_vonmises	-0.06623932550010389	-3.795233788949244	11.831330637392632	0.8479980246221323	0.032635602006197945	2.8606185742861787	0.680505516625649	-0.46023945529012006	1.140744971915769	39.219738852220644
2	1.0	wm	146	diff_vonmises	0.04582333737063519	2.625483834541499	5.6650666823628075	0.3582226086964029	3.49060601881117e-20	2.0735748554509175	0.0018389618618736003	-0.33001570297351396	0.33185466483538756	57.287060056393415
3	2.0	ltm	146	diff_vonmises	0.13008307358613536	7.453211102575274	1.6831250990386781	0.7840326917481949	1.3292313538726762e-15	1.5034303616423559	0.1249353561576286	-0.22670481640822404	0.35164017256585267	105.01268211697348
4	2.0	perception	146	diff_vonmises	-0.027934622963069238	-1.6005359980731015	9.25780033351272	1.20800647271623	0.30604131904605975	2.1955579664704428	0.9815231868184775	-0.3837604971222567	1.365283683940734	43.28682682121121
5	2.0	wm	146	diff_vonmises	-0.07591317866831288	-4.349504747116879	6.695808780013548	0.4884067044056305	0.17294594112978806	1.6160924724345922	0.19047070832228424	-0.2648976621075132	0.45536837042979744	50.38390399476717
6	3.0	ltm	146	diff_vonmises	0.0472969002738281	2.7099127697414978	1.210216385818635	46.96779593310431	1.1754897019796122	47.258847469201136	0.1925636460599307	-0.13146150530243972	0.3240251513623704	82.00652509996416
7	3.0	perception	146	diff_vonmises	0.026259992928844893	1.504586764866198	3.2354638415858683	3.1362794125216094	0.7650714038047836	3.4974725177246038	1.105075583764011	-0.40537245582876985	1.5104480395927808	66.2615653584048
8	3.0	wm	146	diff_vonmises	-0.0930909914756296	-5.3337209222419	3.8733820882584777	0.5173583111056362	0.0033709207532771073	1.1937553291029919	0.20017785164611204	-0.18918325777743975	0.3893611094235518	69.46382691158081
9	4.0	ltm	146	diff_vonmises	-0.3422289410253692	-19.608273947985207	2.8057206988005454	0.6378171770376077	0.023776615836174773	1.7904356258186689	0.11021557156987777	-0.2769808177766856	0.38719638934656336	80.5443907442456
10	4.0	perception	146	diff_vonmises	-0.018948901684035162	-1.085692092903553	2.6625647138297817	2.4133046766660806	0.17143037808803088	3.5747696065809635	0.8052581602382723	-0.49189851165184295	1.2971566718901153	79.18125542325004
11	4.0	wm	146	diff_vonmises	-0.3017416801472235	-17.288524775622328	1.1382445359857647	177.20053249867607	1.1190918352294983	178.5962113729634	0.12496284161770177	-0.36286881776238644	0.4878316593800882	78.02129463699546
12	5.0	ltm	146	diff_vonmises	-0.06330224808804875	-3.6269516491352785	2.0753505709427813	0.6606591231296459	8.65854975379104e-17	0.9391575365078804	0.1990289354767021	-0.14398102488582437	0.3430099603625265	95.31777673832627
13	5.0	perception	146	diff_vonmises	0.0047691805521130615	0.2732539173719502	1.1545233352107103	140.89737381696494	1.1236144632008318	141.3462644537176	0.6475051724343999	-0.32720691571010896	0.9747120881445088	85.91303853473593
14	5.0	wm	146	diff_vonmises	0.023960350901775583	1.372826982324217	1.6293486894520777	1.6077318546619797	0.26039951189740707	2.0260297504347906	0.3208891484593045	-0.21851077648979933	0.5393999249491038	95.6205654617564
15	6.0	ltm	146	diff_vonmises	-0.4207137946653538	-24.1051248172583	0.6353976978519514	112.6929664429097	0.6202770627090788	113.17327654537107	0.1939244767013939	-0.20825953653131002	0.4021840132327039	111.77129977041244
16	6.0	perception	146	diff_vonmises	0.2258849094149601	12.942251965172126	0.9838379127693926	2.5818883024194434	2.5056088801139008e-15	2.9380849916923415	0.4067477326451541	-0.34539161389117273	0.7521393465363269	128.798515584881
17	6.0	wm	146	diff_vonmises	-0.17670392843288238	-10.124389322585907	2.973914562838852	0.6920452910095415	2.7556116002308273e-16	1.008533203511907	0.29049166193559117	-0.15933522768039649	0.44982688961598766	79.68072219342869
18	7.0	ltm	146	diff_vonmises	0.20460820773069943	11.7231867567051	1.4080645143815291	157.04706244721217	1.3924447734542587	157.6687478387294	0.180323675472863	-0.2095446808936643	0.3898683563665273	72.85290878733258
19	7.0	perception	146	diff_vonmises	-0.030434397514848947	-1.7437625296242858	1.38313915354048	1.9623604337701732	1.8010108344288295e-20	2.4609098162676273	0.41773007342998164	-0.34075706535921646	0.758487138789198	114.22843595794305
20	7.0	wm	146	diff_vonmises	-0.0239842523571069	-1.374196434838922	0.2969206961255439	2.893249517557691	6.784348537589647e-13	3.623998062810976	0.02944866598387308	-0.2420138387552358	0.2714625047391089	163.16152719116258
0	1.0	ltm	147	diff_vonmises	-0.3482295518156279	-19.952083620767695	0.18241088039873213	53.25694667936279	0.16556895936403035	53.976159457783794	0.019834695155935833	-0.22571034969354997	0.2455450448494858	156.56669205924047
1	1.0	perception	147	diff_vonmises	-0.11779745468769966	-6.7492969909887455	12.308558239576392	0.9639179546312545	9.967596382198803e-15	1.970905636008275	1.0210567100361128	-0.31367937431119897	1.3347360843473117	38.64656569442471
2	1.0	wm	147	diff_vonmises	0.08437009734815502	4.834050495157181	3.712721229798167	0.5349376829146237	1.301523824343596e-18	1.3942587118396224	0.17290443649608228	-0.2216678938823857	0.39457233037846795	71.13131257712902
3	2.0	ltm	147	diff_vonmises	-0.022225843722792977	-1.2734470414333712	2.414329072164407	0.6995612365948737	2.4669061790180788e-09	1.0495201255439903	0.23686419612968404	-0.16380604636832807	0.4006702424980121	88.51945043510236
4	2.0	perception	147	diff_vonmises	-0.02429444390829565	-1.3919691015626534	8.079936483695072	1.2581946970997389	0.30874345946288084	1.7125468348915442	1.0406061219330418	-0.2901613035095466	1.3307674254425885	46.47211885833795
5	2.0	wm	147	diff_vonmises	-0.09404833942940931	-5.388572919518962	7.857036991517357	0.44475144986214343	0.4958636466353942	0.937830305036537	0.25815512268593377	-0.1705616587414832	0.428716781427417	45.43838005468058
6	3.0	ltm	147	diff_vonmises	-0.008474771055359643	-0.4855686138117381	1.164508308090909	108.65839417346095	1.146884166775489	108.84369696132318	0.28751718993653697	-0.141799912816591	0.42931710275312795	85.42605145299163
7	3.0	perception	147	diff_vonmises	0.04031758586848468	2.310027510420462	2.2089229218945623	6.0857709344613475	1.1553278192106269	6.17929082383866	1.0411786509294103	-0.3561265911486709	1.3973052420780812	72.38720829255323
8	3.0	wm	147	diff_vonmises	-0.0640027839475914	-3.6670893972846414	2.214264576733396	1.856892057748275	1.0216491801492007	2.133153831651533	0.2807276796728364	-0.15536722509566733	0.43609490476850377	71.46367849695548
9	4.0	ltm	147	diff_vonmises	-0.2692225605574307	-15.425316469646004	4.621981644173141	0.6384369553889889	1.7124316379017789e-18	1.4869978872393435	0.2940795785880854	-0.2366117316297967	0.5306913102178821	63.57311956561989
10	4.0	perception	147	diff_vonmises	-0.05372677893783722	-3.0783176799704366	1.5115576628907577	6.730655098499033	0.7016008591330806	7.534141732767353	0.782791846559872	-0.45183472164906785	1.23462656820894	86.83924871663203
11	4.0	wm	147	diff_vonmises	-0.3695039362161452	-21.17101605865629	1.6183571217066144	132.31364594391349	1.5962131568275768	133.024130069616	0.18126971179079732	-0.24385573536322624	0.42512544715402356	67.28195655410359
12	5.0	ltm	147	diff_vonmises	-0.10844885503261224	-6.213661686394779	1.328533392366062	0.8528245330126698	1.3166858233686744e-13	0.9385883175248146	0.19399615453193947	-0.12529135074117412	0.31928750527311356	116.03422380647639
13	5.0	perception	147	diff_vonmises	0.03852214994917321	2.2071566098577238	1.2848747094383126	152.6528749455749	1.260457023349532	152.7756873397485	0.6327496220967106	-0.24401850483373444	0.876768126930445	82.79197228624918
14	5.0	wm	147	diff_vonmises	-0.019428979725676487	-1.1131985385265066	0.7943737139031403	115.92616764526335	0.7793421160225892	115.99546532934043	0.31201058049818187	-0.15372911086032115	0.465739691358503	104.75993342107559
15	6.0	ltm	147	diff_vonmises	-0.45309460303463356	-25.960408474039927	1.9481616428944026	0.8344965773740041	6.571232824849569e-18	1.3242287543847322	0.21295989751833636	-0.2021491002716091	0.4151089977899455	97.89648207736492
16	6.0	perception	147	diff_vonmises	0.24605804581553745	14.098087540466942	1.0002402521135607	2.223092398439014	2.4466577314566023e-18	2.4561657760019107	0.36884298929437115	-0.2881385062449399	0.6569814955393111	128.04356697505122
17	6.0	wm	147	diff_vonmises	-0.2197692821475263	-12.591852333673046	4.830463936257987	0.41948868590132454	9.475386112922156e-16	0.6133752913721356	0.25945043140756496	-0.09759894946137128	0.35704938086893623	62.15293718571979
18	7.0	ltm	147	diff_vonmises	0.15184270063219754	8.699945896093356	1.4620071389990088	190.59465597038044	1.4455470611335528	191.30373012018902	0.25366216216004034	-0.25648587704371195	0.5101480392037523	72.06263156938951
19	7.0	perception	147	diff_vonmises	-0.08641992286712562	-4.951496846132411	1.5493921437757094	1.7940182028453484	1.9510373802356528e-20	1.8568070841732407	0.4969846374564331	-0.25977485375320547	0.7567594912096386	108.92288963093382
20	7.0	wm	147	diff_vonmises	-0.20981132937767438	-12.021303667369923	0.00027320586926058506	3318.4710548075664	4.164346323182576e-28	3318.860580805675	0.08230882924738125	-0.20627909439667746	0.2885879236440587	178.7281449910931
0	1.0	ltm	148	diff_vonmises	0.2474105449735112	14.175580034013835	2.4910948039828407	0.44786757819705414	5.157517022671283e-21	2.806704402119609	-0.18330106192724216	-0.4448941705331517	0.26159310860590956	87.10848156862266
1	1.0	perception	148	diff_vonmises	-0.02433298156905295	-1.3941771468763537	12.583624801984945	0.6520957385612975	2.218711026381106e-19	3.322399736364772	0.38427071952699254	-0.5287763409589296	0.9130470604859221	38.22433098543951
2	1.0	wm	148	diff_vonmises	0.06741818144609868	3.8627772593086473	1.5921575521708176	3.435001815717317	0.6149756887581828	6.001830841097	-0.06812960000565882	-0.5582866864689573	0.4901570864632985	76.00904901879335
3	2.0	ltm	148	diff_vonmises	-0.03942474591336029	-2.258871549211184	1.759263542254781	0.8678528007479686	1.4808846781108442e-18	2.569976536994781	0.00514858630631243	-0.3967466698522799	0.40189525615859234	102.98660629470146
4	2.0	perception	148	diff_vonmises	-0.042771447704061064	-2.4506234371072138	8.719743512724877	1.1721530224818246	0.08443703427068286	3.1001203639543258	0.8236314299317482	-0.5025966354049968	1.3262280653367449	45.360908831650136
5	2.0	wm	148	diff_vonmises	-0.06243577108870545	-3.577306174027747	5.967996186139906	0.5853580222108434	0.011469004112862485	2.5697459162312217	0.14365428846120049	-0.4077199233626007	0.5513742118238012	55.42789831611327
6	3.0	ltm	148	diff_vonmises	-0.12707855647069488	-7.281064952385715	0.6918113439408204	150.44504162927538	0.6755307661582666	151.41006169209933	0.1963666451062096	-0.30646598051379037	0.50283262562	104.49275141109642
7	3.0	perception	148	diff_vonmises	0.0747413440084213	4.282363566817944	1.9407044731097312	7.027904875539414	0.834533668210372	7.706559195008863	1.169225210977312	-0.5338874837666103	1.7031126947439224	78.47518880780402
8	3.0	wm	148	diff_vonmises	-0.15310919385526076	-8.772510612556799	2.6280336242834617	1.2333615063023098	0.21040315758903166	2.402604773530347	0.281687034614657	-0.3307983180511918	0.6124853526658488	77.25241833347249
9	4.0	ltm	148	diff_vonmises	0.05616372131742155	3.2179441932371864	0.0002644735255945081	3440.570414891844	8.803820641452266e-32	3442.5128435619395	-0.16431718281296526	-0.4539579159245477	0.28964073311158245	179.83011283514878
10	4.0	perception	148	diff_vonmises	-0.01261152674814063	-0.7225872558848057	2.8525985836846397	2.556991088513196	0.07783329603595432	4.66525321122343	0.8256718373768157	-0.6907569117054919	1.5164287490823076	78.50262475558841
11	4.0	wm	148	diff_vonmises	-0.4525143153472164	-25.927160438647515	2.3592349848674647	0.9261098543138913	0.08940576847454564	3.056361035302962	-0.0034058975641755307	-0.4490869262642442	0.44568102870006865	82.70179660122871
12	5.0	ltm	148	diff_vonmises	-0.08132670922272921	-4.6596772001500515	0.9967005125096747	1.0991208867471352	4.9609105186710355e-20	1.8804031312133906	0.0756129456047982	-0.24820211951559126	0.3238150651203895	128.67452699123749
13	5.0	perception	148	diff_vonmises	-0.001030447470357019	-0.059040291061389194	2.670604108795005	1.7786726872433714	2.143845073659007e-13	2.8682887691427177	0.6330090465899436	-0.45128347461012663	1.0842925212000702	84.1552408923535
14	5.0	wm	148	diff_vonmises	-0.09864601793684016	-5.652000493552758	2.126690253153678	0.9616086083344824	3.1954043488784247e-11	2.1525059233753434	0.1721848191255736	-0.33526341018496525	0.5074482293105389	94.1962228144756
15	6.0	ltm	148	diff_vonmises	-0.39556370753321207	-22.6641309702003	0.22961321911149396	3.9864799512484304	2.852785128784312e-17	4.818687447597253	0.020893481936829605	-0.2691966752650444	0.29009015720187403	163.45752160041752
16	6.0	perception	148	diff_vonmises	0.16340853098038588	9.36261916160887	0.3898475313143397	226.45142486322396	0.3776418806709723	227.17795100923666	0.3423960440394893	-0.4199269636845422	0.7623230077240315	136.08144096192092
17	6.0	wm	148	diff_vonmises	-0.016689503174323994	-0.9562380940589551	1.1669094812456033	0.7089050312732424	7.892764576364054e-17	1.6893091619866167	-0.0044334981950255314	-0.24323219281675384	0.2387986946217283	121.93765318879171
18	7.0	ltm	148	diff_vonmises	0.4621840009076102	26.481192610476675	1.3923879267920858	100.71958698038449	1.3773618454656547	101.15306858538638	0.09252336761912971	-0.13551522415377093	0.22803859177290065	72.32936361613889
19	7.0	perception	148	diff_vonmises	0.06452319868934549	3.6969069655835414	1.4944460384462837	1.8343854264986348	6.807065142530621e-17	2.7700415573188564	0.3519037356047549	-0.40095359581037227	0.7528573314151272	110.61235902895234
20	7.0	wm	148	diff_vonmises	-0.5704465074173104	-32.684177312990094	0.9891467896414039	0.37582051039188874	6.72174634727438e-10	1.2944811393356388	-0.07837515232753242	-0.1883681903328696	0.10999303800533719	126.40964915911293
0	1.0	ltm	149	diff_vonmises	0.2590626745357507	14.843197880269779	2.1824214143880876	0.9308103114296237	0.1495415636205238	3.619806077698141	-0.15922477445535366	-0.5191563555435704	0.35993158108821677	80.15100715540376
1	1.0	perception	149	diff_vonmises	-0.06848366805168986	-3.923825144936742	9.570040559231796	0.9042973181251638	0.023539447629441244	3.681470422466676	0.5008965735923753	-0.5886418749856492	1.0895384485780246	43.618605675732624
2	1.0	wm	149	diff_vonmises	0.033196471388634644	1.9020177052955562	5.173125480814645	0.5010664960681016	0.16149366860418998	3.860842190219815	-0.2750476056885867	-0.631374042198102	0.3563264365095153	54.001388032856426
3	2.0	ltm	149	diff_vonmises	-0.11742837060275191	-6.728150030635791	0.9725737248747435	102.24232752841105	0.9428951129672907	103.74703101110035	0.07804446948636468	-0.3641087894363739	0.4421532589227386	83.79676372113033
4	2.0	perception	149	diff_vonmises	-0.056414381260834055	-3.2323059500877114	9.506108275488648	1.037445704549541	0.05195707786839662	2.8000477148999816	0.7892311603674186	-0.4509083933827041	1.2401395537501227	43.66082215024002
5	2.0	wm	149	diff_vonmises	-0.09982805428982748	-5.719726187809967	2.8131731211597235	1.302818024949991	0.377764620817557	3.692081347053703	-0.0051566548225231434	-0.5252109576264856	0.5200543028039625	67.60476002241793
6	3.0	ltm	149	diff_vonmises	0.08381082702254354	4.802006665892737	0.9920569578182755	248.00953533011713	0.9792463620660598	249.15656109780355	0.21430623144807726	-0.3313074386286843	0.5456136700767615	86.09024043789853
7	3.0	perception	149	diff_vonmises	-0.02668333939644111	-1.528842730731233	2.400753829462213	3.8865418118385238	0.5130067418716571	5.352099152587458	0.9027905670963834	-0.5990369356618926	1.501827502758276	75.7469650975583
8	3.0	wm	149	diff_vonmises	-0.011428001991763036	-0.6547762823951205	2.8440079221510493	1.0938068311725269	0.2900632259372408	3.060928073420146	0.057176347232229974	-0.4375191812819549	0.49469552851418486	70.11513467658992
9	4.0	ltm	149	diff_vonmises	0.12078189247104036	6.920292680193547	1.5819016004911195	0.9801737282153543	5.108140460195776e-16	2.851588992148949	-0.015357682603651834	-0.43531191659888036	0.4199542339952285	107.91588087431114
10	4.0	perception	149	diff_vonmises	-0.010930074154446544	-0.6262471188148089	0.8327457670100259	537.3622011901581	0.8213709746061929	539.7488391639682	0.43245871112412715	-0.696484881079769	1.1289435922038962	94.23857742000078
11	4.0	wm	149	diff_vonmises	-0.17268991019286575	-9.894403018544423	0.6997559668387984	199.73724697644474	0.68089008732265	202.46805597600456	-0.049224939447121585	-0.5899961089505368	0.5407711695034152	95.51845471687002
12	5.0	ltm	149	diff_vonmises	0.041108447744812045	2.355340558111817	1.473437258336326	2.8005429096478514	0.5338018555278534	3.752195644606967	0.2504142604916084	-0.2977856505792284	0.5481999110708369	87.95778036513295
13	5.0	perception	149	diff_vonmises	-0.009038063312224455	-0.5178428827624909	0.8870720875632182	343.21178833307044	0.8719077135911755	344.4935156669105	0.5852913257263879	-0.5101650331142906	1.0954563588406785	94.64601622266068
14	5.0	wm	149	diff_vonmises	-0.010424572937004696	-0.5972840325166661	2.367749912253581	1.336857193584152	0.07788317175691291	2.7785188538670544	0.2856763088695217	-0.40448950688432045	0.6901658157538422	85.25313063453626
15	6.0	ltm	149	diff_vonmises	-0.10674407306971484	-6.11598487493073	1.4857642055563134	1.1425800904260088	1.1094551636173861e-15	2.1430828683187957	0.15097854351844903	-0.31587628608679785	0.4668548296052469	110.86755278612488
16	6.0	perception	149	diff_vonmises	0.08355251244348255	4.7872063307258435	0.037861367760520806	51.21110984453871	2.8721440732131675e-09	52.15936920958293	0.16055016403436184	-0.45655007346656085	0.6171002375009227	177.55049447897002
17	6.0	wm	149	diff_vonmises	-0.2694550677052832	-15.438638147924577	0.5733580815726674	151.84693687099167	0.5582996899948186	152.95254504503404	0.1462901197742923	-0.33633698499375875	0.48262710476805104	113.5906708225661
18	7.0	ltm	149	diff_vonmises	0.20532710223557818	11.7643763777498	1.0493487780456807	79.88304157925563	1.024905225682198	80.57859804232906	0.12715109832300087	-0.20003284891276252	0.3271839472357634	83.7483143542785
19	7.0	perception	149	diff_vonmises	-0.03504688644859949	-2.008038678578989	0.8891853441555234	230.96739922400346	0.8703112369393862	231.86291717684225	0.5470646396108236	-0.4122209804202974	0.9592856200311211	95.58778815277773
20	7.0	wm	149	diff_vonmises	0.5710309856899937	32.717665451231944	0.0943725030873155	66.198310975571	0.08152021505517038	67.54526365022309	-0.09110973508526143	-0.32646901513319904	0.2353592800479376	161.23043953512394
0	1.0	ltm	150	diff_vonmises	0.0008960365128159423	0.05133911047397339	1.9804653939809005	0.6082382587734843	1.5723682668824795e-23	2.077160661087528	-0.01866627784929381	-0.3246496645407028	0.305983386691409	97.47289509654146
1	1.0	perception	150	diff_vonmises	-0.11926244390123408	-6.833234689956457	12.553943755011097	0.9578682507853851	3.137610122976714e-15	2.6542731719208166	0.9174515985730642	-0.42244069561069375	1.339892294183758	38.26100014528518
2	1.0	wm	150	diff_vonmises	-0.012398998082460207	-0.7104102603157705	6.884836292946077	0.43594466609476046	6.13010317073248e-19	2.1547666866774144	0.10443738767131788	-0.3429413009487	0.4473786886200179	51.868329693185615
3	2.0	ltm	150	diff_vonmises	-0.10796211175273938	-6.18577335075171	1.8584253707884621	1.720002350596937	0.49494896850721437	2.4438121660078673	0.24802125033404276	-0.24047606705286084	0.4884973173869036	82.52868014225467
4	2.0	perception	150	diff_vonmises	-0.04296760622303318	-2.461862492359853	9.27715740589935	1.0435149284345748	0.11003419533351341	1.9451777302451663	0.9050619654378971	-0.31785405965547886	1.222916025093376	44.04084273921444
5	2.0	wm	150	diff_vonmises	-0.11628501825077148	-6.662640766370957	5.585054110409607	0.6156521021930356	0.36009840649689784	1.6189446405120447	0.20842604113866314	-0.26836542351074966	0.4767914646494128	53.066558938341814
6	3.0	ltm	150	diff_vonmises	-0.00600680650786011	-0.3441646612521009	1.2481715274316232	5.958074189966536	0.8044386601678941	6.570679513482752	0.31100606537005593	-0.2468319001927376	0.5578379655627935	88.0221662337182
7	3.0	perception	150	diff_vonmises	-0.004883421834351829	-0.2797994606903944	3.1755010857741794	2.8425547042118393	0.5074636772386232	3.574619878316875	1.0357325764182383	-0.45384562400374523	1.4895782004219835	68.85515611528282
8	3.0	wm	150	diff_vonmises	-0.0519361158754532	-2.975720243965861	2.7490441403545587	1.2121496168395318	0.43538463523786397	2.068257337028413	0.26958649923006717	-0.2658166511420196	0.5354031503720867	71.62902745627005
9	4.0	ltm	150	diff_vonmises	-0.20763486559272942	-11.896601478229508	2.6770704418211047	1.014900906448361	3.9957202647417665e-18	2.190375078904305	0.2739327133679003	-0.3456652880318291	0.6195980013997294	84.0354007724265
10	4.0	perception	150	diff_vonmises	-0.07265377020754132	-4.162754398605437	0.9017996610381844	388.26964407131123	0.8868576854117034	389.51087924484176	0.7077634450938035	-0.5479369627317467	1.2557004078255503	94.5765147823299
11	4.0	wm	150	diff_vonmises	-0.2600971571156189	-14.902469366076033	1.251909163737756	192.8871691578939	1.2339008407127092	194.10831244128585	0.16680832322258254	-0.3422944220180888	0.5091027452406713	75.24333087392854
12	5.0	ltm	150	diff_vonmises	-0.054401398283832635	-3.1169705212738497	1.5402085095011642	1.2235910310801978	2.0055298833456839e-13	1.4262356342158307	0.3115782528290624	-0.2022503031939324	0.5138285560229947	109.21483878895143
13	5.0	perception	150	diff_vonmises	0.03642952775207014	2.087258189848324	1.1080317957489243	251.274494502769	1.0920338109197107	251.6182119307929	0.6292062162484058	-0.30095510795683467	0.9301613242052404	87.87123955346195
14	5.0	wm	150	diff_vonmises	-0.05401879965373176	-3.095049234521583	0.891321504962675	102.79771722201288	0.8672319339539754	103.05507927839601	0.39061630937539604	-0.21413775612440578	0.6047540654998018	97.89497660404695
15	6.0	ltm	150	diff_vonmises	-0.29411554090400477	-16.851579183006802	1.394342010388514	1.230828613501274	1.0874759548266423e-16	1.745002107964467	0.23241337061071327	-0.24635079476427008	0.47876416537498334	113.50775773423169
16	6.0	perception	150	diff_vonmises	0.17704704857667855	10.14404865869135	0.5860804689415762	3.3358203564249167	1.3178529573792867e-17	3.6250826693490485	0.30011334762973674	-0.30532500208038865	0.6054383497101254	147.2260646210978
17	6.0	wm	150	diff_vonmises	-0.17888659621659858	-10.249446974672018	2.428951493968543	0.8029512535928843	0.15895677775185063	1.0536681896065985	0.2698995645026365	-0.14194311921272826	0.4118426837153648	83.34771462745493
18	7.0	ltm	150	diff_vonmises	0.16781774860041204	9.615248722191089	1.5216311025737135	165.56697198393712	1.5035569996024827	166.1047688497584	0.28879226906840927	-0.22706499606630004	0.5158572651347093	71.7749024153564
19	7.0	perception	150	diff_vonmises	-0.04300863471230062	-2.464213251634675	1.4546585675035768	2.1011231590034005	2.179307934180218e-14	2.328694679997565	0.52269783512484	-0.3219210573434481	0.8446188924682881	111.8901190782595
20	7.0	wm	150	diff_vonmises	-0.09410028602575839	-5.391549240249834	0.0004213871107350044	2315.4439989173775	4.0645310096963773e-26	2315.9218838851525	0.07924217482997165	-0.23132496957560988	0.31056714440558153	179.72381302215902
0	1.0	ltm	151	diff_vonmises	0.2448365639988019	14.028101787616023	0.29721187488095785	33.669160459677855	0.25103359967379313	36.65636177027887	-0.32550999861943186	-0.573826368554871	0.24831636993543915	135.32116279570195
1	1.0	perception	151	diff_vonmises	-0.04351188972710183	-2.493047640001578	12.834894184697767	0.7449434431670262	0.04563521488400143	4.285738694643364	0.3398761959677499	-0.695895741286186	1.0357719372539358	37.47776834661943
2	1.0	wm	151	diff_vonmises	-0.04878705570997603	-2.7952923870512505	6.373065567762725	0.4440115373722887	0.19888169446552348	4.014275946641429	-0.3341750963252417	-0.68105016673018	0.3468750704049383	48.235794898041945
3	2.0	ltm	151	diff_vonmises	-0.054873554117932315	-3.1440230578402404	1.5699332582475003	0.9294994567130402	1.7151431734107277e-12	2.4409664611775717	0.025409214703252858	-0.3705745116368681	0.39598372634012097	108.31892990679216
4	2.0	perception	151	diff_vonmises	-0.06747022252170301	-3.865758993302097	11.6247376512836	0.9656129315933324	0.1317410120121643	3.032088851646621	0.7505277218666605	-0.5097345487037627	1.2602622705704232	39.106642525779336
5	2.0	wm	151	diff_vonmises	-0.15929031323866136	-9.126662665892159	2.5936409275811307	1.626113163800088	0.39768097181992146	4.259451066974971	0.008988442353725201	-0.5839672870708663	0.5929557294245915	69.54278633022088
6	3.0	ltm	151	diff_vonmises	0.07698276411087673	4.41078747880442	1.176004820753069	127.74315344297081	1.1508860835177235	128.79037631934233	0.20829878398081547	-0.30994285703081914	0.5182416410116346	79.103110543978
7	3.0	perception	151	diff_vonmises	-0.04559635332420035	-2.6124786066639816	3.0708923141032	3.539838009615719	0.49491786362917767	5.292035343072685	1.0485834308137234	-0.6858355788483965	1.73441900966212	68.74080567017668
8	3.0	wm	151	diff_vonmises	-0.08644103627691005	-4.9527065554041885	3.125412849029857	0.876747664526457	0.13524796504088007	3.0945034674059375	0.026487980783080456	-0.4649012947261588	0.4913892755092393	71.13522314894843
9	4.0	ltm	151	diff_vonmises	0.07601509470722714	4.355344106011358	1.1493679867968498	1.1975355857929966	1.5445024743317592e-16	3.2952219291829685	-0.08167182802769063	-0.48000023111992574	0.3983284030922351	122.55952144066835
10	4.0	perception	151	diff_vonmises	-0.046466118846682135	-2.662312500268179	0.7757701543337864	338.5431060224175	0.7567528499023066	340.86930624926174	0.5421860061233446	-0.7424157721484583	1.2846017782718029	99.0127091542101
11	4.0	wm	151	diff_vonmises	-0.11060495255641883	-6.3371969747275045	0.7247247828220832	198.04192479265583	0.7027802004108252	201.15207194530691	-0.05788276435072959	-0.6699553219724699	0.6120725576217403	93.79812396043518
12	5.0	ltm	151	diff_vonmises	0.009515937876826175	0.5452230784508212	1.0185571087235366	22.452180830818893	0.8859732701939989	23.352198824457925	0.276978344878966	-0.30040416283811977	0.5773825077170858	89.49803372818684
13	5.0	perception	151	diff_vonmises	-0.0008377152616133234	-0.047997548924141056	0.862040406787652	360.0079783120014	0.8470421330972109	361.52243132649414	0.55672709571175	-0.5529139794417723	1.1096410751535224	95.27000198681498
14	5.0	wm	151	diff_vonmises	-0.02493901204034183	-1.4289001351375308	2.3993059345006293	1.5463168297385959	0.17935387389610674	3.074642992132506	0.30867264455538124	-0.4210348243551815	0.7297074689105627	81.06869342531598
15	6.0	ltm	151	diff_vonmises	-0.14878259375568592	-8.52461468721028	0.6484170485090636	78.25859277590388	0.6175374511759429	79.27211243522189	0.18617369892083957	-0.3214885784515982	0.5076622773724377	108.35934941896913
16	6.0	perception	151	diff_vonmises	0.10267284264272025	5.882720554038696	0.24997934962233248	8.769099663488497	3.0613371860600595e-11	9.863874773383088	0.19445097181174686	-0.49971559531804166	0.6941665671297885	165.47365663277606
17	6.0	wm	151	diff_vonmises	-0.08089309815861616	-4.634833116226197	0.7821179083315513	103.15965779099004	0.7527724013685411	104.3806368908245	0.2182976284136373	-0.36083287457217317	0.5791305029858105	97.93177953929036
18	7.0	ltm	151	diff_vonmises	0.26101127185341083	14.954844282542217	1.638671470386918	76.24575021916499	1.6152051060854369	76.56449841719764	0.16011200623814403	-0.13406270435571876	0.2941747105938628	68.82850821823496
19	7.0	perception	151	diff_vonmises	0.04594073669985241	2.632210320623313	0.5510364140189354	40.57844013555631	0.4675885758508431	41.91853055092989	0.3111099956602814	-0.5054003083949925	0.8165103040552739	121.49284399021988
20	7.0	wm	151	diff_vonmises	0.28695419267768535	16.4412641540152	0.08631844799462628	6.903821096094158	3.7088214669169493e-06	8.159950049594773	-0.103096588780345	-0.2926531773006398	0.18955658852029478	172.64708259043334
0	1.0	ltm	152	diff_vonmises	-0.5481772012246956	-31.40824005546872	0.8066296464758529	0.9533770346728642	1.3869266763375512e-15	2.6538877209657206	-0.13169059823916446	-0.3644609697916097	0.23277037155244523	133.9079191012882
1	1.0	perception	152	diff_vonmises	-0.08581639643211578	-4.91691732858177	11.963945056713277	0.9231175206947468	0.04596165536500284	3.17866663351692	0.7305321105092679	-0.5144631640993838	1.2449952746086517	38.92755822775615
2	1.0	wm	152	diff_vonmises	0.030709959511716522	1.759551069038995	4.870951025863902	0.3510040779896376	2.94959149078153e-34	2.1974026297472298	-0.049590073779160915	-0.34970985030416357	0.30011977652500266	61.883749323026365
3	2.0	ltm	152	diff_vonmises	0.16756520587708185	9.600779089997527	0.6429257130348215	68.41350811504755	0.618514548237543	69.07431468229287	0.1391402111469482	-0.21906494239466756	0.35820515354161575	109.0908355647131
4	2.0	perception	152	diff_vonmises	-0.043673179653464005	-2.502288872060107	10.381657173536013	1.194013295706736	0.4230375147959793	2.0060037413501917	1.0485722470474215	-0.37133622210191086	1.4199084691493322	40.70157387058666
5	2.0	wm	152	diff_vonmises	-0.06898739699146342	-3.9526866872043667	7.8646360501229555	0.4103879079547299	0.08256584983371366	1.376563440383555	0.2138251864214899	-0.22242989638335411	0.43625508280484404	47.550151093484885
6	3.0	ltm	152	diff_vonmises	0.0012286964678384108	0.07039912190977263	2.6306925039230724	0.7962780277493893	0.6646704977144311	1.0951824201193656	0.17922309147999388	-0.12212120305309634	0.3013442945330902	70.685587698674
7	3.0	perception	152	diff_vonmises	0.01431303586853685	0.8200765472865261	3.9051902730280816	2.319181386561319	0.5675375851464124	2.662593470126452	1.06911848169625	-0.3627524251324297	1.4318709068286797	63.085190935034746
8	3.0	wm	152	diff_vonmises	-0.041153486567149025	-2.3579210925459657	3.873050430116552	0.48907560496411456	0.09996489880932732	1.0731624470238554	0.18114069362417057	-0.16354010344243436	0.3446807970666049	67.04965325336141
9	4.0	ltm	152	diff_vonmises	-0.3873215858630825	-22.19189218426856	0.7582025219780897	95.14125025274177	0.735407216365608	96.22503396119075	0.09827035758254254	-0.2811702823968041	0.37944063997934663	96.99278323161398
10	4.0	perception	152	diff_vonmises	-0.031196949880785762	-1.7874535618501808	2.9716427837921384	2.0007249876213358	1.809797576943482e-17	2.9149220335063757	0.8393584725133737	-0.4605050836877129	1.2998635562010867	79.72013409666081
11	4.0	wm	152	diff_vonmises	-0.19628150012351755	-11.246101553574103	1.1768332459973854	214.13091544152297	1.1607214815058096	215.37629200794447	0.17705273752572737	-0.3464181010346117	0.523470838560339	77.85295237364451
12	5.0	ltm	152	diff_vonmises	-0.08887124780042364	-5.091947419025575	2.242886079896742	0.7052236163810428	1.5251787157151446e-12	1.1523922266122733	0.2063445694701868	-0.17901708011628523	0.385361649586472	91.7876352978723
13	5.0	perception	152	diff_vonmises	0.0209418028121333	1.199876916530437	1.1841420513221663	69.20669538262274	1.121444197051758	69.8797604351442	0.5615146378306797	-0.34513483232098086	0.9066494701516605	84.12574578505999
14	5.0	wm	152	diff_vonmises	0.029421274010180517	1.6857148286812822	0.7571598863293425	142.72589625814948	0.7406363397933924	143.14828343907078	0.326717688820942	-0.23966930114896812	0.5663869899699101	104.3792972816266
15	6.0	ltm	152	diff_vonmises	-0.39382947427966875	-22.564766724081025	0.7244360896342432	133.8761494644204	0.7077929393942225	134.54340108665014	0.23407079589705404	-0.2542490210314199	0.4883198169284739	104.10639118510518
16	6.0	perception	152	diff_vonmises	0.37027829747503604	21.215383690609173	0.4093597426436857	6.0337313098767344	1.0704211933480592e-14	6.701517909432881	0.32075208027539337	-0.4547684028831731	0.7755204831585665	154.32863852820225
17	6.0	wm	152	diff_vonmises	-0.25468668096148844	-14.592471917288183	3.1680480051893976	0.8802944682554806	8.296868984254444e-14	1.2089200766716615	0.40221331578821545	-0.19135224606839862	0.593565561856614	77.1496056910394
18	7.0	ltm	152	diff_vonmises	0.10365142780294605	5.9387893536137675	1.1701356211897926	245.78073914421418	1.1579667263628697	246.86406059672714	0.15305121370673191	-0.3008050984179711	0.453856312124703	77.99910652799477
19	7.0	perception	152	diff_vonmises	-0.11754538439532775	-6.734854427095206	1.935420557292604	1.5785584781964361	5.098283572470828e-22	2.231838221620076	0.44311214359998874	-0.3385697373620923	0.781681880962081	98.5177994788688
20	7.0	wm	152	diff_vonmises	0.30379776326440816	17.40632966056511	1.9262671559282758	0.7119098055319337	1.727598309998678e-12	1.6068394707944527	0.1032528470380697	-0.24811584438510706	0.3513686914231767	98.59288227965368
0	1.0	ltm	153	diff_vonmises	-0.11437634554465538	-6.553281875838691	0.0014319068606950176	353.2607217226358	8.056030076831405e-18	354.5958112194933	-0.1319533660981307	-0.2929611879035221	0.16100782180539142	179.54587401835752
1	1.0	perception	153	diff_vonmises	-0.06262576639244269	-3.5881921030591974	11.699782770487387	0.8402211358806703	0.06483460188096166	2.668471427912216	0.6807789985674275	-0.4350856084445779	1.1158646070120053	39.29294743304132
2	1.0	wm	153	diff_vonmises	-0.007993932292672703	-0.45801858208348384	9.076996111567228	0.2135421845970701	8.18821462661836e-29	1.7711688269986359	-0.0290290284453098	-0.2818902705637497	0.2528612421184399	45.08290748645524
3	2.0	ltm	153	diff_vonmises	0.2114435901983847	12.114825323461185	0.44156903164382094	55.714498578885916	0.41802605552182676	56.33166602476173	0.09924265355119033	-0.21895867997031893	0.31820133352150926	128.795202100873
4	2.0	perception	153	diff_vonmises	-0.019777507939937065	-1.1331677342448692	8.527919751604381	1.3071959088768503	0.38268190347587205	2.3788885148055514	0.9638785965070147	-0.42104460293470997	1.3849231994417246	44.63203537611983
5	2.0	wm	153	diff_vonmises	-0.09349166342548414	-5.3566777339378415	5.288499708699273	0.630764714397036	0.3808140690333776	1.9434081791158713	0.12678655513372883	-0.3239316919100403	0.4507182470437691	53.384583819989615
6	3.0	ltm	153	diff_vonmises	0.1788091755071544	10.245011094773957	1.556751798788893	86.55716841062375	1.5368641724001477	86.68969974428309	0.2399046786383252	-0.110974365459791	0.3508790440981162	73.7463801137823
7	3.0	perception	153	diff_vonmises	-0.004450277465280687	-0.25498211642276114	2.8939082617214424	4.333247057289838	0.972679184936998	4.958657778090861	1.111433686607683	-0.49262704785990147	1.6040607344675846	66.4207621830171
8	3.0	wm	153	diff_vonmises	-0.109394232262053	-6.267827811689505	4.197789172599783	0.4001238025304088	0.03663987465691691	1.3194291775993867	0.09805472069247315	-0.20635416371922127	0.30440888441169445	65.40944669708551
9	4.0	ltm	153	diff_vonmises	-0.2694925492216613	-15.440785680622792	3.69020636872229	0.5361302538742777	0.005552889609332727	1.7241942393147434	0.11838552340623187	-0.2726924996000899	0.3910780230063218	71.02942312338547
10	4.0	perception	153	diff_vonmises	-0.030912335364068882	-1.771146351254148	1.3165712249309773	10.061979672496763	0.7560978639253514	11.429914436097759	0.6547222511041153	-0.5352249948148131	1.1899472459189284	87.5302368491837
11	4.0	wm	153	diff_vonmises	-0.34369033575950514	-19.69200569845384	1.2339017599422852	235.10357061521555	1.2170204180246684	236.84352927154936	0.065137688169699	-0.4356401328131163	0.5007778209828153	73.13084314140372
12	5.0	ltm	153	diff_vonmises	-0.08514046511525092	-4.8781893168846935	1.2123138664139579	37.652256313949295	1.1742119399698487	37.769201942740146	0.22148452979814692	-0.10288195541217515	0.3243664852103221	84.38997227984987
13	5.0	perception	153	diff_vonmises	0.003971528585583705	0.22755182616950767	1.1198545957190538	335.67244137771877	1.1065157509828862	336.04439597469235	0.7023735609239452	-0.33228537294079885	1.034658933864744	87.39909062573858
14	5.0	wm	153	diff_vonmises	0.0663630560505934	3.802323027289123	2.580278489371315	1.0090956359644767	0.16069722698363664	1.4350152330922674	0.339349737023714	-0.19677818696871735	0.5361279239924314	80.73490403365787
15	6.0	ltm	153	diff_vonmises	-0.3925739199011214	-22.492828757241092	0.7297075180590221	135.1454814921624	0.7171908811511521	135.52322921927362	0.2139510468688357	-0.1814758884177845	0.3954269352866202	105.25138854563289
16	6.0	perception	153	diff_vonmises	0.1409542807787807	8.076085392926116	1.3484696756590895	1.8697974494946972	8.98893872455137e-16	2.2774209211832743	0.3971194008053777	-0.31125808459122695	0.7083774853966047	115.29387102370839
17	6.0	wm	153	diff_vonmises	-0.06389502987186485	-3.660915543520177	3.7905500461846375	0.6660279594123676	1.6474542669912376e-20	0.9654416048842166	0.3435249205589645	-0.15340120842508986	0.49692612898405436	70.38036592284308
18	7.0	ltm	153	diff_vonmises	0.1637180845073797	9.380355272239006	1.9140188481316247	116.27562886963166	1.8942714302473194	116.61765560788506	0.1955811570364432	-0.1609870105219109	0.3565681675583541	63.55349131573308
19	7.0	perception	153	diff_vonmises	0.06830330206398966	3.913490935073812	0.6947677079734043	3.569527179726146	1.0727210379321664e-16	4.218369800474446	0.3408033768100822	-0.419148363769527	0.7599517405796092	142.27408554967002
20	7.0	wm	153	diff_vonmises	-0.29392458188935927	-16.84063803740764	0.00012886915428883124	6457.59767603216	2.224898777151328e-30	6458.316672369628	0.018018313718357604	-0.24687342207016627	0.2648917357885239	177.53572660969172
0	1.0	ltm	154	diff_vonmises	0.26621675675482354	15.253096597712238	4.337489261940199	0.3908527857583324	0.030924955186776768	3.110233217593727	-0.19641908114293494	-0.4908286506858146	0.29440956954287967	63.386676824258444
1	1.0	perception	154	diff_vonmises	-0.008460122703839711	-0.48472932509282196	7.853832080002233	0.9756732529949539	0.065680366496708	3.791280749149513	0.4283609317938545	-0.6104126314634993	1.0387735632573538	47.65816411657326
2	1.0	wm	154	diff_vonmises	0.24897407886117082	14.265163926902414	2.642923751834766	0.7263557893002225	0.15144651576291504	4.142818994291468	-0.32056042644849814	-0.6247103797417549	0.3041499532932568	71.52609955913923
3	2.0	ltm	154	diff_vonmises	0.0813081685732531	4.658614899185639	0.9929477645876774	106.97769920732291	0.9691327916169669	108.29932951371168	0.03880536489950259	-0.3110396997380249	0.3498450646375275	81.84395478519812
4	2.0	perception	154	diff_vonmises	-0.03041023620361232	-1.7423781884629252	8.279309045528937	1.283567718897701	0.18868999324682978	2.780050768125762	0.9200685995462132	-0.46285779334247396	1.3829263928886872	46.020772420494524
5	2.0	wm	154	diff_vonmises	0.04840543165420981	2.773426939295181	3.9061936555000836	0.7274021638354151	0.14783319840849743	2.936484620760601	0.01317600740253222	-0.4553847514689785	0.4685607588715107	63.83533177393082
6	3.0	ltm	154	diff_vonmises	0.1209614211746086	6.930578917209462	0.9095404204681252	51.70342760928656	0.8775122181902509	52.40960343263063	0.09061046773693704	-0.18974046375546116	0.2803509314923982	89.32833969523978
7	3.0	perception	154	diff_vonmises	0.03179615011108564	1.821785206129631	3.0251265580725994	2.6511668944956046	0.46357232849090313	3.459161792576603	0.9146222066289779	-0.4375618415714273	1.3521840482004053	70.57261699604598
8	3.0	wm	154	diff_vonmises	0.10048693879070522	5.757477488896845	2.7269043856210087	0.6078519062778225	0.09890755265043914	1.992882083699268	0.027563750123222208	-0.2962752277192408	0.323838977842463	77.28163651316333
9	4.0	ltm	154	diff_vonmises	-0.080006172388073	-4.584016012832686	0.9211638297858592	0.8745233813053438	1.048284293269971e-15	2.4576371603311666	-0.10540022181654657	-0.34586714677021047	0.2404669249536639	131.891403940737
10	4.0	perception	154	diff_vonmises	0.05388384040783813	3.0873166393256093	1.0305622901843683	351.3107340102696	1.0121758506993808	353.45275525830505	0.4826983698653322	-0.6474525952369774	1.1301509651023096	85.15316943123125
11	4.0	wm	154	diff_vonmises	-0.3253962773815867	-18.64383336323317	1.3068827202706876	1.5765686808889896	2.462663694991442e-10	4.391209861561768	-0.07029627298197372	-0.6528313316609818	0.5825350586790081	116.34232632983736
12	5.0	ltm	154	diff_vonmises	0.006131626033003825	0.35131629324366276	1.7147232592483763	1.4748842523743715	0.3896560583121951	2.3558244689501144	0.15980266757689954	-0.24670791075273962	0.40651057832963916	86.13986798883093
13	5.0	perception	154	diff_vonmises	-0.03864549213119933	-2.214223596323755	1.8938023574382779	3.102706559252624	0.3052491287687065	4.227051845774696	0.6565811875154547	-0.47389425191052614	1.1304754394259808	88.0038319723869
14	5.0	wm	154	diff_vonmises	0.07979620301759809	4.571985654077454	2.5003850641780816	1.1528173235589423	1.6409807554180308e-16	2.5195578326015275	0.2784399992566831	-0.3964249381742094	0.6748649374308925	86.98459356299537
15	6.0	ltm	154	diff_vonmises	-0.19993103302893636	-11.455204386248717	0.3633270212427405	68.88418480816703	0.3417448932878924	69.64194791441138	0.10484026225067389	-0.27249794411618833	0.3773382063668622	137.39089964776278
16	6.0	perception	154	diff_vonmises	0.16697831976442323	9.56715299268735	0.1897587976673499	149.68694805611963	0.17341638319605235	150.52678136387618	0.2633597857534049	-0.4626736451503035	0.7260334309037084	158.19249153962937
17	6.0	wm	154	diff_vonmises	-0.3947993785644302	-22.620338146129512	1.1296549635254869	1.6876076436290641	1.6971149624024232e-11	2.595242201403087	0.20473438196056631	-0.34853228046679957	0.5532666624273659	122.3853086293145
18	7.0	ltm	154	diff_vonmises	0.3098664563422192	17.754040161083942	1.2256362460139996	0.9491084059898238	7.290273610674854e-18	2.2293497827584674	0.009511929154446763	-0.32341248706751236	0.3329244162219591	119.1736746315911
19	7.0	perception	154	diff_vonmises	-0.06754011608204623	-3.869763599324906	2.200530202591975	2.447414945422632	0.3073728273453874	3.2766982710562393	0.6445720033139274	-0.3890726131382334	1.0336446164521607	83.07799251410489
20	7.0	wm	154	diff_vonmises	0.6589312856229944	37.75398165532696	0.2382566945751186	81.40811777372505	0.22136487613628592	83.07427320115875	-0.08609359269986072	-0.4011822169488486	0.31508862424898787	143.09840581685305
0	1.0	ltm	155	diff_vonmises	-0.296894468408408	-17.01080000058193	0.00030204500881466945	2337.0375271491916	1.1604155796236384e-27	2338.650994479061	-0.14443685491477254	-0.3691287804495005	0.22469192553472794	177.4764458063704
1	1.0	perception	155	diff_vonmises	-0.06935791867413194	-3.9739160158393583	11.927910852438721	0.7971530161576627	2.3061226088804557e-17	2.79577711657915	0.6413939921198465	-0.44496174783940595	1.0863557399592525	39.2624217325415
2	1.0	wm	155	diff_vonmises	0.056483527698380595	3.2362677491274927	3.426909291249681	0.6773397154474928	0.0701129578583855	2.387209567925887	0.07114690507216026	-0.36635921699957885	0.4375061220717391	70.70739898338374
3	2.0	ltm	155	diff_vonmises	0.07973410757202193	4.568427847118956	1.825682219289951	0.8202726761569391	2.740393521306847e-15	1.800045221506133	0.11389260473021634	-0.276092913027516	0.3899855177577323	101.24070923046082
4	2.0	perception	155	diff_vonmises	-0.02580468739274366	-1.478499679258656	8.085238165133239	1.32825652310852	0.2676442658376821	2.405465022030299	0.9900744396689745	-0.40717662864209436	1.3972510683110688	46.32253422550676
5	2.0	wm	155	diff_vonmises	-0.0389835824253828	-2.233594743274804	8.153361782258672	0.43203722003609296	0.006519975615040264	1.5464249903804408	0.23637429275512806	-0.24598968367541607	0.48236397643054413	47.49176351497249
6	3.0	ltm	155	diff_vonmises	-0.09996959198284044	-5.727835700261628	1.1187110478040743	2.3838637334923427	0.4263982430541208	2.9223452659106823	0.1866972546795782	-0.2004442434194037	0.3871414980989819	101.46780921420851
7	3.0	perception	155	diff_vonmises	0.052455807172252546	3.005496361922144	3.1862896136927863	2.9844959528491857	0.5612269588578236	3.289563012838115	1.1731964748710215	-0.4010446028872833	1.574241077758305	68.9535366366371
8	3.0	wm	155	diff_vonmises	-0.12089080199495555	-6.926532736262666	3.4470917280328366	0.672132445053897	0.004400749175198551	1.3578268669681002	0.25901286550469715	-0.21467230537634185	0.473685170881039	73.7147669620858
9	4.0	ltm	155	diff_vonmises	-0.35656363903475563	-20.429591644517632	2.6653548070845616	0.6686087039641982	5.904726110835563e-18	2.042216135247343	0.08402373263046192	-0.32304842259097455	0.40707215522143647	84.18918384143929
10	4.0	perception	155	diff_vonmises	-0.022293338997194045	-1.2773142357936298	3.2796948540366175	2.1242888527540873	8.348108436629712e-18	3.458389495314556	0.9128219522303562	-0.5483465761951867	1.461168528425543	75.80407655657297
11	4.0	wm	155	diff_vonmises	-0.3612812084192666	-20.69988845981024	1.7593260010792997	2.2468559620050876	0.5774680117950665	3.7221484998060848	0.09972784431020643	-0.36143313758838486	0.4611609818985913	78.05638834460548
12	5.0	ltm	155	diff_vonmises	-0.16207966259767093	-9.286480611750928	0.42669770861911227	22.112857100139824	0.37075496856886364	22.557538449542488	0.12775941274597713	-0.19909012931049297	0.3268495420564701	133.67719626917886
13	5.0	perception	155	diff_vonmises	0.014804235386309388	0.8482202065537537	2.348139165074807	2.0965494649798444	0.2690943009600336	2.5791707851373538	0.6630967101775596	-0.3176548222540526	0.9807515324316122	82.33196493058765
14	5.0	wm	155	diff_vonmises	-0.05986841510781054	-3.430207511814799	1.5730573771558802	1.3202519469535807	0.09517672337983987	1.8754350912138786	0.2610421813013188	-0.24545047485406316	0.506492656155382	103.38179612869247
15	6.0	ltm	155	diff_vonmises	-0.4747056232112555	-27.19862872113243	0.991439284004603	1.1873224724779663	2.127268762456859e-17	1.7725686595618928	0.12168153847637764	-0.226521042982091	0.3482025814584686	127.15419283081943
16	6.0	perception	155	diff_vonmises	0.19494825417013362	11.169712187392307	1.1048361474617898	2.425980117073294	3.31329775401945e-17	2.8853164633646857	0.4176313744316963	-0.36298958934144	0.7806209637731363	124.0479580189292
17	6.0	wm	155	diff_vonmises	-0.09987941652084233	-5.722669026873493	2.3459385062675646	0.57395962669459	1.0536016844737394e-22	1.129674540405307	0.146000489329674	-0.17680577038092316	0.3228062597105972	89.78298622929961
18	7.0	ltm	155	diff_vonmises	0.3041847110713337	17.428500136793787	1.4313241803934547	142.98205074382685	1.4148507098384244	143.69473249433022	0.12048865270499931	-0.2154030291070761	0.3358916818120754	70.60145136135327
19	7.0	perception	155	diff_vonmises	0.009401589079891136	0.538671374994045	1.3299955216414456	2.044955257971852	2.2180425296479783e-18	2.773558412435373	0.38245811425846743	-0.3837908499679521	0.7662489642264195	116.03671950824507
20	7.0	wm	155	diff_vonmises	-0.2090902147532164	-11.979986842843319	0.00020978019026022572	2984.515229088396	2.4452831449024667e-25	2985.2937902965236	-0.02426098119769904	-0.22355229650793262	0.19929131531023359	178.74028857767274
0	1.0	ltm	156	diff_vonmises	0.2447016117787174	14.02036959496926	1.950796803339216	0.9517707889259482	0.2959099195298145	2.250393180378026	0.012535817553144923	-0.28392097037655806	0.296456787929703	80.95949849933598
1	1.0	perception	156	diff_vonmises	-0.12011238722934875	-6.881932855482731	9.770455175224363	1.0485011530641357	3.361713344570466e-18	2.2511134783248674	0.9316068775207839	-0.35827583332835783	1.2898827108491417	43.427687349637296
2	1.0	wm	156	diff_vonmises	0.22235897729357812	12.74023093576733	0.8108536538638785	117.63965876167505	0.7905376958013403	119.16146670640731	-0.0029412305313840648	-0.3368016401297762	0.33386040959839214	89.36662885895524
3	2.0	ltm	156	diff_vonmises	-0.06498659911144143	-3.72345785399422	0.9504242188718532	117.80683641149172	0.931609229785898	118.66282153048283	0.13977753664583759	-0.2403606827003486	0.3801382193461862	87.73568739373499
4	2.0	perception	156	diff_vonmises	-0.029438388741940314	-1.686695430578617	5.825132409639403	1.7346790488548531	0.45530527247168695	2.3806401511809967	1.0632785608245343	-0.3854323091588397	1.448710869983374	53.232650226375114
5	2.0	wm	156	diff_vonmises	-0.027690490321564804	-1.586548228073517	9.13707360529186	0.3754902130469283	0.23063485358185723	1.453753552520576	0.15861506902106615	-0.2519382221687393	0.41055329118980544	43.00088007648682
6	3.0	ltm	156	diff_vonmises	0.05254914790883714	3.010844392185084	1.0647337321482813	182.5691646918975	1.0517316387046982	183.13804788393722	0.24659063594474162	-0.2135435626911466	0.4601341986358882	85.87696087537714
7	3.0	perception	156	diff_vonmises	0.01960921852006043	1.1235254607492329	1.3098436380289866	179.43624737456824	1.2766308384617187	179.90745570152487	0.8992536004393656	-0.4112900563977977	1.3105436568371633	81.01121476291289
8	3.0	wm	156	diff_vonmises	0.017072390756907953	0.9781759365689827	1.5078966050652238	109.47085980054857	1.4832255724775878	110.22295756624449	0.14933263378148354	-0.23820309843594067	0.3875357322174242	69.19865695726926
9	4.0	ltm	156	diff_vonmises	-0.15428635244851824	-8.83995683176801	5.632556754100025	0.48919637891430995	2.840793421881893e-32	1.6576717023945335	0.18803630571584234	-0.2638208558512974	0.45185716156713973	57.45234925996297
10	4.0	perception	156	diff_vonmises	-0.036995774263067174	-2.1197017250924626	0.9628711512489343	444.8907907732835	0.9506238122263587	446.38808539023216	0.5366319019017851	-0.5278974097991451	1.0645293117009302	89.79711313507232
11	4.0	wm	156	diff_vonmises	-0.32556562541918915	-18.65353629105661	1.2505522104629525	113.1000999975701	1.2225797796942626	114.43740068778317	0.06852121093282904	-0.34095340094348536	0.4094746118763144	73.24555981654565
12	5.0	ltm	156	diff_vonmises	-0.06691391034011161	-3.8338846532051942	2.602815915596337	0.5239556238673684	2.5970837580357414e-11	1.1896607154435748	0.12683052100587108	-0.18760596365429444	0.3144364846601655	85.2521627331557
13	5.0	perception	156	diff_vonmises	0.03177762487551733	1.820723788317081	1.7521268946469524	3.5294543830927565	0.5755615187960579	4.1894900934445864	0.5870590631251744	-0.3450757609465746	0.9321348240717491	84.95097505589439
14	5.0	wm	156	diff_vonmises	-0.007903996195283895	-0.4528656232772276	0.672732809983531	128.3023627694863	0.6562558286789166	129.06577117130203	0.19128448186896918	-0.2627931590544996	0.4540776409234688	106.86104568295995
15	6.0	ltm	156	diff_vonmises	-0.35919294883154607	-20.580239998906123	1.8705055771783985	0.7953064418932932	1.9690794549556852e-24	1.791759901794159	0.1087898128881184	-0.27581786296074096	0.38460767584885935	99.89373748211368
16	6.0	perception	156	diff_vonmises	0.1892355267945948	10.842397019265086	0.674250205983443	2.9180331809472135	7.573683886508998e-18	3.9662220051418298	0.18479137017532798	-0.4193761021230691	0.6041674722983971	142.83075305445982
17	6.0	wm	156	diff_vonmises	-0.21834120150188369	-12.510029339873407	3.007910958042844	0.5453383809097707	7.049844227011557e-21	1.425729385954912	0.1307588105421717	-0.22603902726787423	0.3567978378100459	79.2230180727426
18	7.0	ltm	156	diff_vonmises	0.0212433670892803	1.2171552768628735	1.1449321385031725	189.3322926509605	1.128336125270152	190.79993189249933	0.04867474575976871	-0.35756825503218437	0.4062430007919531	75.91200064248741
19	7.0	perception	156	diff_vonmises	-0.14057475567174715	-8.054340206073844	3.0970452173798915	1.4220175848409733	2.417599165900472e-19	2.0206207616321312	0.6267793275204587	-0.31965571601119747	0.9464350435316562	78.05101402073748
20	7.0	wm	156	diff_vonmises	0.5742106274959949	32.89984550707917	0.387239289635316	32.46447446588146	0.35581535095831557	33.590121531942756	-0.061859381873181185	-0.2496087110037415	0.1877493291305603	126.2413027800865
0	1.0	ltm	157	diff_vonmises	-0.1160082917260608	-6.646785504425711	0.9380014054264482	0.8563007107606672	5.321055719435291e-19	3.4755021267197543	-0.27060920197188365	-0.5098572143261788	0.23924801235429516	131.10319360274005
1	1.0	perception	157	diff_vonmises	-0.06590725677456444	-3.776207652467545	13.37266410876283	0.7559221858758696	3.221207868888498e-17	3.921909311051466	0.4678198007285862	-0.6241912532093222	1.0920110539379084	37.063716721450646
2	1.0	wm	157	diff_vonmises	-0.01093683334498181	-0.6266343919054044	7.407221512593356	0.315145340432884	0.027614552659334594	3.1479256275274707	-0.17899428418896685	-0.5031978347213163	0.32420355053234945	48.979102601100436
3	2.0	ltm	157	diff_vonmises	0.032429568336798775	1.8580773971296585	1.4247353724608596	1.0099824037098015	7.605287076748312e-14	2.2788479299775783	0.06138425402407732	-0.33814642967964026	0.3995306837037176	112.84968024103512
4	2.0	perception	157	diff_vonmises	-0.06445491077019906	-3.6929943560247205	12.056750378306894	1.0574009120253027	0.2321541664640491	2.5514269051528395	0.9433599030077588	-0.4492505500845581	1.392610453092317	38.20783077879804
5	2.0	wm	157	diff_vonmises	-0.09779515745073032	-5.603249778744215	5.855735224619475	0.5522254351716189	0.06130474244031575	2.228967045175909	0.14375630476087708	-0.35410493116764247	0.49786123592851955	54.93897601137061
6	3.0	ltm	157	diff_vonmises	-0.05062852245770815	-2.900800659809983	1.611932242473891	2.7457863891613172	0.8212824535651903	3.4542871070054204	0.17955947887114454	-0.22004863868619087	0.3996081175573354	78.71339941820105
7	3.0	perception	157	diff_vonmises	0.010066134823192035	0.5767470413785707	3.2566705204672965	2.814659585042589	0.4560022231662243	3.6098951515977924	1.0699093461641656	-0.4714388273488155	1.541348173512981	68.6920783780717
8	3.0	wm	157	diff_vonmises	-0.07160548614902765	-4.1026921463217585	3.2048099646777617	0.8228449931124041	0.22985684351460758	1.8836354438961984	0.18715881657078526	-0.27322403797756134	0.4603828545483466	69.83859077470075
9	4.0	ltm	157	diff_vonmises	-0.2387588399757837	-13.67987385205181	0.4502118134756465	37.766463669337696	0.40458341970328277	39.37327030584125	-0.050111880455496305	-0.370565233264482	0.3204533528089857	122.13780942782415
10	4.0	perception	157	diff_vonmises	-0.040538079612456875	-2.3226608713591066	2.5605814421043727	2.360323045924605	6.999788673797632e-14	3.8771904161074113	0.7936210890124652	-0.6086527877594595	1.4022738767719247	85.95878411589547
11	4.0	wm	157	diff_vonmises	-0.16809990952745696	-9.63141535245426	0.9062771761837956	190.08815891927057	0.8875786680174814	191.93726899243526	0.08465584615803579	-0.44175478085863773	0.5264106270166735	86.49443848927969
12	5.0	ltm	157	diff_vonmises	-0.0002576964583008099	-0.014764919456105419	2.1639718211770567	0.825009985460932	9.200115803831326e-17	1.8754638982330072	0.147801436904759	-0.29260069728466315	0.44040213418942215	93.4135015403613
13	5.0	perception	157	diff_vonmises	0.026744683830920903	1.5323575079235419	2.253777765502322	2.0832389950077603	0.1985265207066443	3.4831062619651645	0.4851109920237927	-0.4580453018482471	0.9431562938720398	83.67899101632085
14	5.0	wm	157	diff_vonmises	-0.029690149531078996	-1.7011202612431466	0.7425507605588084	148.53427245451687	0.7225618108200325	149.71165072362106	0.22645029922000504	-0.3594312408039819	0.585881540023987	100.60352956309227
15	6.0	ltm	157	diff_vonmises	-0.2995204348496258	-17.1612567948067	0.5665460897942615	136.98647352575313	0.5496902447258852	138.23573212344445	0.11515174005871387	-0.35375812502339166	0.4689098650821055	113.15075663185571
16	6.0	perception	157	diff_vonmises	0.33456499619513175	19.169162254791495	0.11960219395058794	20.604969447208152	4.53522805317612e-11	21.865490257239124	0.20283809476774461	-0.5806682825570606	0.7835063773248052	170.0498545105729
17	6.0	wm	157	diff_vonmises	-0.22449232969339436	-12.862463024490907	1.7754283483450999	1.1815522671713419	0.04252644350708685	2.3272625594848906	0.1807257616557596	-0.3385394088731784	0.519265170528938	99.70411457747997
18	7.0	ltm	157	diff_vonmises	0.21978252164539502	12.592610901023797	1.0624351505793914	140.42610290037973	1.0462144500798805	141.36914616477324	0.098163391565528	-0.24677155194111045	0.34493494350663845	81.28049424765717
19	7.0	perception	157	diff_vonmises	-0.0746367271813625	-4.276369464161424	2.040333446100392	1.5220586400139902	5.817685481608598e-23	2.5943251995275824	0.3818144128944108	-0.39947139860048275	0.7812858114948935	96.09557946441588
20	7.0	wm	157	diff_vonmises	0.33895038502597596	19.42042652632268	1.8589727064410075	0.519939311975042	5.741252659823507e-19	1.6893254357844052	-0.012276805401001012	-0.2626329432647826	0.2503561378637816	100.18098216163082
0	1.0	ltm	158	diff_vonmises	-0.2772735749111262	-15.886605612912001	0.3192764232675322	50.159082010114815	0.29892152771065533	51.631609569723864	-0.12592983340686104	-0.30426764711168186	0.17833781370482082	133.59646404343434
1	1.0	perception	158	diff_vonmises	-0.058858705309258914	-3.3723554018247865	11.444119811936243	0.9010439694744747	0.11330881677030355	2.9894053686488276	0.6707488258660199	-0.49809160858265206	1.168840434448672	39.467039465665806
2	1.0	wm	158	diff_vonmises	0.05620222621785377	3.220150361522524	10.815235597053743	0.16785160611369465	1.3369640907436687e-13	1.9055696414434653	-0.08573990993617042	-0.303280827753713	0.2175409178175426	41.25473209153
3	2.0	ltm	158	diff_vonmises	0.22435560374118896	12.85462920447963	0.4139505222987268	73.49294920892454	0.39651760228047084	74.08085929325829	0.10151667538648113	-0.21701634153898475	0.3185330169254659	131.65164953869896
4	2.0	perception	158	diff_vonmises	-0.04053292790680182	-2.3223657003677785	11.29438957931265	1.045649496646051	0.2945275165940898	2.124773640299417	0.9412052465586909	-0.38068632186705537	1.3218915684257462	39.338221874091204
5	2.0	wm	158	diff_vonmises	-0.19321493892764566	-11.070400539432052	3.5881408726185047	0.921232210292253	0.5358751658685541	2.1598643843857226	0.1197702697091525	-0.32212165548120686	0.44189192519035936	60.80428998761727
6	3.0	ltm	158	diff_vonmises	0.0629001318323492	3.6039120848100907	1.7243875995210092	93.44590151347518	1.7071799169274902	93.55445858736083	0.217315903526341	-0.09902497276104327	0.3163408762873843	69.9823695642728
7	3.0	perception	158	diff_vonmises	0.016759084654338424	0.9602248191960558	1.982630585385444	17.095160576785144	1.559668776059316	17.47085954506584	1.0239737288422983	-0.4317723645862559	1.4557460934285542	69.27644520247483
8	3.0	wm	158	diff_vonmises	-0.08742858212392121	-5.009288764513601	3.198634292488067	0.7010060375604649	0.3914902803062739	1.3215271568188502	0.1766009817926109	-0.18383960207649674	0.36044058386910766	67.74976207840353
9	4.0	ltm	158	diff_vonmises	-0.30063226432896295	-17.224959931510945	0.9596438253235631	118.43818785910153	0.9414304244331287	119.44584798933136	0.07649899299813967	-0.251863653926641	0.3283626469247807	84.97782778750948
10	4.0	perception	158	diff_vonmises	-0.025252410572108853	-1.446856548313378	1.8493202648690565	4.053560857442859	0.5190786049582369	5.086238318690475	0.7209710080700544	-0.4681865310589939	1.1891575391290483	83.95599058787462
11	4.0	wm	158	diff_vonmises	-0.3027454622632424	-17.34603725442092	1.2348625777773383	206.85767614520475	1.2190975097655359	208.07082127000362	0.13568790494602467	-0.3299099896534621	0.46559789459948675	75.21206439898808
12	5.0	ltm	158	diff_vonmises	-0.06352811651163075	-3.6398929565317997	2.268667907553281	0.9490517107940443	0.5951866941234204	1.1739226786676973	0.21740517770267054	-0.11790346350449712	0.33530864120716763	76.92881248705172
13	5.0	perception	158	diff_vonmises	-0.0009858264254468362	-0.05648369351057201	1.1508510643726169	204.8807491364297	1.128950226009504	205.54547732106946	0.5926191434948294	-0.35475947894737914	0.9473786224422085	84.78544123535872
14	5.0	wm	158	diff_vonmises	0.09001170253778755	5.157290662202228	1.9128943651192734	1.4182935976912003	0.3369252173803128	1.879563625438129	0.3048613900529452	-0.2054537403560991	0.5103151304090443	87.03196437784118
15	6.0	ltm	158	diff_vonmises	-0.3413214403040386	-19.556277986747887	0.8245939462082265	146.38027163562268	0.8097251702559062	146.9817451543816	0.23180473593745177	-0.227071590852729	0.45887632679018076	97.65496453088241
16	6.0	perception	158	diff_vonmises	0.3067580105827924	17.575939338223446	0.6167019050104706	3.7799753858656704	9.728553845051356e-18	4.192184452628821	0.3485298049755353	-0.3713134360349113	0.7198432410104466	144.78927458929724
17	6.0	wm	158	diff_vonmises	-0.2338343605563912	-13.397721965021585	3.146099529679842	0.7532713306256384	1.4859113392451132e-19	1.0250442018097674	0.3436834434642153	-0.1622027369272644	0.5058861803914797	77.4265295526769
18	7.0	ltm	158	diff_vonmises	0.1609314810112263	9.220694652733018	1.377515517740544	128.20877044153036	1.359810226524598	128.59642037249694	0.24928029241056038	-0.17366145424112744	0.4229417466516878	76.22757376559846
19	7.0	perception	158	diff_vonmises	-0.07534581212567688	-4.316997038786908	1.552707660861462	1.6501561748356435	5.9421818570439356e-24	1.9091585063698207	0.42603170022795533	-0.2711473581297194	0.6971790583576747	108.82936278803402
20	7.0	wm	158	diff_vonmises	0.1560718012716482	8.942255513869956	0.7897973056769181	8.636682290819996	0.6080502475720161	9.27333750842812	0.12892716008328842	-0.2005019134226408	0.3294290735059292	103.41620818850967
0	1.0	ltm	159	diff_vonmises	-0.2793200901927556	-16.003862301258394	0.5781640107908627	1.5141440808978472	7.000399785540198e-17	4.179105602997274	-0.2692861900976739	-0.5405787250084507	0.2712925349107768	147.04646186280792
1	1.0	perception	159	diff_vonmises	-0.07697328883668932	-4.410244585583752	11.03392684322044	0.9072785985285483	0.02531764339011781	3.960191232822241	0.5414095278448172	-0.6350166378568993	1.1764261657017165	40.611914883027055
2	1.0	wm	159	diff_vonmises	0.0017713922631341045	0.10149330053971155	4.347098004161963	0.5534237698006207	2.3357560068832496e-23	3.4363632404327538	-0.10174005461302121	-0.5468396035875613	0.4450995489745401	65.59785829406098
3	2.0	ltm	159	diff_vonmises	0.0730227633757058	4.183896149810423	2.5009360208427376	0.9078726027197492	0.15203089541636686	2.0370603740443034	0.15990572247539153	-0.2873515989977864	0.4472573214731779	79.92047807526228
4	2.0	perception	159	diff_vonmises	-0.047329412921939706	-2.711775607259087	9.966170080035452	1.1411884641445218	0.2509502114016213	2.2701522910692535	0.9610098162309971	-0.3935244304100361	1.3545342466410333	41.92792938966875
5	2.0	wm	159	diff_vonmises	-0.01748262619110877	-1.0016806955554063	6.724512463186163	0.48898185301141106	1.3210842336021968e-13	1.7997607430717149	0.20927575881967958	-0.28644010349423205	0.4957158623139116	52.49024862274982
6	3.0	ltm	159	diff_vonmises	-0.09892353131012054	-5.667900838600162	2.3845612328150656	0.641097671457279	1.6722425316438135e-22	1.4638032608588314	0.13446466046248332	-0.229852540691238	0.36431720115372135	89.0608356601686
7	3.0	perception	159	diff_vonmises	0.01084798360819366	0.6215436769765952	4.873648326822108	1.8844954438346475	0.17808208586804009	2.6031738053865374	1.1206108524360823	-0.39900509948907864	1.5196159519251609	59.92556103408205
8	3.0	wm	159	diff_vonmises	-0.0022673190284705335	-0.1299078111410637	2.970812588968818	0.700316935570245	1.3019819157451454e-14	1.7400560472597013	0.17918466532840183	-0.2757399226117807	0.45492458794018253	79.73028191708451
9	4.0	ltm	159	diff_vonmises	-0.38970243171771307	-22.328304603410107	1.1672928841726904	1.4819499411275496	3.3667571096078087e-12	3.0030181989076477	0.07493146106937354	-0.4243967068640196	0.49932816793339313	121.02224585178206
10	4.0	perception	159	diff_vonmises	-0.022683664602822548	-1.2996782456320308	2.7420855140265155	2.3294140977599747	3.8463563422657224e-17	3.728133770257081	0.8554880820808151	-0.587334922707152	1.442823004787967	83.04311640191276
11	4.0	wm	159	diff_vonmises	-0.13280592263354307	-7.609218861242953	0.8568971840091804	114.7209539268744	0.8224393867915573	116.6736816360485	0.1531505819155896	-0.49004650819581563	0.6431970901114052	90.7973151242394
12	5.0	ltm	159	diff_vonmises	-0.09537155281564086	-5.464387461945244	1.2500715979924573	1.5993103693230877	1.863615081956131e-13	2.3381258416520163	0.24894416292308913	-0.32114699614467956	0.5700911590677686	118.81568438503314
13	5.0	perception	159	diff_vonmises	0.013429837465401525	0.7694730063141781	1.6625104977990526	3.7969482503731347	0.5253498232723023	4.573517421086768	0.6005468116559858	-0.380528054128056	0.9810748657840418	87.42434565746154
14	5.0	wm	159	diff_vonmises	-0.03376500224460981	-1.9345921238658932	1.6452346439228722	1.6765403696594374	0.0391146327557871	2.307483039516609	0.3863860827466203	-0.324422177613297	0.7108082603599173	104.2462064994657
15	6.0	ltm	159	diff_vonmises	-0.2922915245242557	-16.74707074268445	0.38787297395061704	76.50763214940594	0.36352920884308243	77.12738492193225	0.20250581884551266	-0.2992415395204855	0.5017473583659982	135.89658158447241
16	6.0	perception	159	diff_vonmises	0.2753284645282039	15.77515899728348	0.36405758251646786	6.993568403136895	9.763585070098512e-12	7.614261958281914	0.338229651012536	-0.46343786077119486	0.8016675117837309	157.85346558464664
17	6.0	wm	159	diff_vonmises	-0.24154112148942047	-13.839286840200465	1.8382194538432943	1.3690483338499122	0.09464184470896864	1.8285359995894592	0.35186093251092737	-0.24716265676552276	0.5990235892764502	96.83671949994464
18	7.0	ltm	159	diff_vonmises	0.19462647644455233	11.15127568177518	1.0169867020134602	225.88636131705985	1.0045224510231574	227.15758203407094	0.09663351214904026	-0.319418986163722	0.41605249831276225	82.27711479525203
19	7.0	perception	159	diff_vonmises	-0.055368600611781345	-3.172387132600539	2.1172715919833043	1.7397424053860693	4.1665688798768576e-16	2.7511468249678974	0.49100437300233557	-0.4244024532061586	0.9154068262084942	94.402766630954
20	7.0	wm	159	diff_vonmises	0.36060082231184204	20.660905207415478	0.7184621578039206	1.4874244836517982	2.4105639361472116e-14	2.636962022415502	0.008803962735446758	-0.31784919285927243	0.3266531555947192	139.53536220255654
0	1.0	ltm	160	diff_vonmises	-0.10588304374233827	-6.066651528435065	0.00038480328780460016	1166.2126141185547	1.8168164327718514e-28	1168.4692677764187	-0.2877280008894161	-0.4305734262821659	0.1428454253927498	179.65722131272463
1	1.0	perception	160	diff_vonmises	0.006015611833336258	0.34466916923912316	10.698110929499839	0.7365463497855063	0.03175992209467243	3.5555958362520443	0.3651586518858624	-0.5714393911438346	0.936598043029697	41.159944186066014
2	1.0	wm	160	diff_vonmises	0.1294015781330861	7.414164289358196	6.230807715157112	0.23880535812685807	0.04665614998865152	2.7882386327752577	-0.23211981060314313	-0.44683005839823137	0.21471024779508824	52.27450335929362
3	2.0	ltm	160	diff_vonmises	0.3389774506680698	19.421977273384467	0.4661920803988672	115.91013703308215	0.4526993990753287	117.10658018884648	0.0056431641260275	-0.29776395128389055	0.30340711540991805	120.37342947303958
4	2.0	perception	160	diff_vonmises	-0.0328251101251577	-1.8807402722236817	9.25124543297386	1.3473253889783405	0.3452742752774689	2.950795290079933	0.9675913459600168	-0.5266644964438046	1.4942558424038215	42.900066142961634
5	2.0	wm	160	diff_vonmises	-0.028292561621184417	-1.6210443725076773	6.000439868283509	0.5085942956673717	0.05968050432811482	2.5336145954713873	0.057999799669717855	-0.4037205175250977	0.46172031719481554	54.09311605862027
6	3.0	ltm	160	diff_vonmises	0.1015587355449915	5.818886919413269	1.276795371969188	75.71762840172974	1.2562235965672122	76.12890961704484	0.12455462261783623	-0.13715972288746237	0.2617143455052986	76.99380934697868
7	3.0	perception	160	diff_vonmises	0.029662559028397508	1.699539441884853	2.6751095060977006	4.198109506786649	0.8322594435351959	4.7919706103079776	1.0893917127647152	-0.4707559042516758	1.560147617016391	70.02018416348758
8	3.0	wm	160	diff_vonmises	-0.11669611437745724	-6.686194839404226	4.269643618258492	0.41086524867466223	0.0018124395272587793	1.4916385398772753	0.08944986083740344	-0.23691641758345122	0.32636627842085464	66.10256113259626
9	4.0	ltm	160	diff_vonmises	-0.367193136322037	-21.03861697742461	0.5534358195558416	83.1066415342833	0.5371200893913559	84.66905418038733	-0.14131430702895642	-0.2938422057862038	0.15252789875724737	98.73820812851314
10	4.0	perception	160	diff_vonmises	0.00979198637254838	0.5610394921966387	2.814154604879679	2.3043034949230563	0.15023121623437657	4.071383406467169	0.7060019348182007	-0.5787589954398412	1.284760930258042	77.06796324873673
11	4.0	wm	160	diff_vonmises	-0.3352895846936727	-19.210678117641613	0.7816796031111372	66.71402321345255	0.7322991327292324	69.07207292298942	-0.056587328808802795	-0.5025685352868203	0.44598120647801753	90.52761176302357
12	5.0	ltm	160	diff_vonmises	-0.05093993291349688	-2.9186431646229227	2.0406581958095216	0.8605889797990325	0.3715714302823021	1.6207727809346606	0.08794109267283301	-0.19276325251692744	0.28070434518976045	79.9394513797846
13	5.0	perception	160	diff_vonmises	-0.017554159198890407	-1.0057792349971706	2.2774095187373096	2.32071597739695	0.21783140478111243	3.5894902512820774	0.5923496446426825	-0.4642408788472303	1.0565905234899127	83.23408007174541
14	5.0	wm	160	diff_vonmises	0.10299458528624102	5.901155049601818	2.961120498710523	0.8098276855452369	0.025634500249166223	2.177132419023884	0.17102662323242157	-0.33689022044868366	0.5079168436811052	78.3792820867352
15	6.0	ltm	160	diff_vonmises	-0.42599159444185514	-24.40752046956692	0.5497366429393473	160.5925139380178	0.5390565000757455	161.52738094920625	0.08507223193360147	-0.2667427441224852	0.3518149760560867	114.48460453619134
16	6.0	perception	160	diff_vonmises	0.21963480932820148	12.584147608666509	0.8878554682792493	3.130849890135821	6.718929621826821e-21	4.274737003952134	0.3227839143238769	-0.5104445668974492	0.8332284812213261	132.89468312147034
17	6.0	wm	160	diff_vonmises	-0.13375161622878967	-7.663403112963136	2.0152648833298223	0.8956665991300368	2.6764416730510583e-12	2.083243166762183	0.1326145131142511	-0.3233118803611018	0.4559263934753529	96.64739715635305
18	7.0	ltm	160	diff_vonmises	0.2618594588741142	15.003441819066296	1.1756041351006912	98.47502065123076	1.1581665777484478	99.21349718719728	0.04445431800196076	-0.18697299452685456	0.23142731252881532	75.80050058475484
19	7.0	perception	160	diff_vonmises	-0.03625438766616275	-2.077223402102272	1.700607959163209	1.6545107669272556	4.3513647600852874e-16	2.773074174152957	0.33212690168176223	-0.41556634851102314	0.7476932501927853	104.57501991518754
20	7.0	wm	160	diff_vonmises	0.39559952303195833	22.666183047119617	1.7447181200113895	0.37390981363646186	3.830017950482284e-16	1.7244521673906148	-0.0969124414392119	-0.269036506406078	0.1721240649668661	102.98787797042041
0	1.0	ltm	161	diff_vonmises	-0.05435887055627391	-3.1145338619724527	0.3847289948220213	72.78052119124311	0.3731067674546652	73.88680959308964	-0.09257696816156624	-0.22262779699600088	0.13005082883443464	122.53715084736406
1	1.0	perception	161	diff_vonmises	-0.06999323212246336	-4.010316795096652	9.748527660801063	0.9786438337280351	0.08407601631690056	2.3513974310250223	0.7962342629713677	-0.3828856233806159	1.1791198863519836	42.98447712285821
2	1.0	wm	161	diff_vonmises	1.2528955954652907	71.78562979069129	0.5214626100354863	53.4459433557626	0.5064508889141759	54.8811186991581	-0.2055727216484673	-0.24436572715148053	0.038793005503013234	81.74603917601843
3	2.0	ltm	161	diff_vonmises	0.4937943792362886	28.29233387752175	0.25416694223326347	77.83855400621442	0.24173206201190373	78.32581834545417	0.07314689397557039	-0.19297511740430195	0.26612201137987235	146.62283833262495
4	2.0	perception	161	diff_vonmises	-0.022192547001744133	-1.271539279845648	8.07888589008322	1.4685055771167723	0.5290419473442333	2.3040187341150933	1.0566200924044091	-0.4171383943451923	1.4737584867496014	45.3361719173262
5	2.0	wm	161	diff_vonmises	-0.1270852552199566	-7.281448762446427	3.1671844061386727	1.0470574118207612	0.7625550618453116	2.487114564560124	-0.030223069594346397	-0.361190758825353	0.3309676892310066	58.227986204182145
6	3.0	ltm	161	diff_vonmises	0.2387221923056111	13.677774095221931	1.9985989970723668	83.30729240464109	1.9812560721322063	83.29116866605769	0.23406235458254798	-0.0733804988720621	0.3074428534546101	66.75201579496704
7	3.0	perception	161	diff_vonmises	-0.01773976770545471	-1.0164138190650314	1.6304797907401214	381.596546138122	1.6128237709227817	382.13808512130265	0.9029453015892557	-0.43060699541170067	1.3335522970009563	71.79586445786416
8	3.0	wm	161	diff_vonmises	0.021590794352576718	1.2370613927375387	1.7233545633465046	64.8274630491886	1.6896501072914651	65.65052673001081	-0.018042273710232593	-0.22879158163187974	0.21074930792164714	59.72458460973087
9	4.0	ltm	161	diff_vonmises	-0.08209405489543238	-4.70364286862357	1.147582553842945	97.99906224194213	1.1261508792929031	98.94380484237979	0.046166403983448845	-0.23448447879028933	0.2806508827737382	76.47230512546193
10	4.0	perception	161	diff_vonmises	-0.020839324946114495	-1.1940053673140523	1.0455340839758631	352.76368021866796	1.0317960589281359	354.1017315156786	0.44821322898815197	-0.4560229986268851	0.9042362276150371	85.81511112894904
11	4.0	wm	161	diff_vonmises	-0.3668498134142748	-21.01894602379968	1.3676657709292435	229.54368079302867	1.3512675330599917	231.13682323579917	0.028979390350201584	-0.40671572734160577	0.43569511769180735	68.61450832455361
12	5.0	ltm	161	diff_vonmises	-0.2375174182899234	-13.608745628855997	2.314437600667941	61.85849504273987	2.273701676218779	62.16089617512575	0.19758905496776435	-0.16468321197026548	0.36227226693802983	57.723708635424174
13	5.0	perception	161	diff_vonmises	-0.002951159332464074	-0.1690889744208368	1.1252767318863297	282.3394301906403	1.108482248003203	283.10305723239503	0.6094001066329326	-0.38351018531153613	0.9929102919444688	85.38141346909882
14	5.0	wm	161	diff_vonmises	0.26484405545759143	15.174446606848706	3.775686930790658	0.6755626923580549	0.17999534743036844	1.5109918587152182	0.21764384569528733	-0.2270119500835423	0.44465579577882963	66.20302038122418
15	6.0	ltm	161	diff_vonmises	-0.2721336414887349	-15.592109120830749	1.0275991704125762	174.60012579592566	1.013101695240943	175.38400506634798	0.2081422248784932	-0.24806077861329712	0.4562030034917903	85.78657825142871
16	6.0	perception	161	diff_vonmises	0.2090645505223235	11.978516390728707	0.8753320874185051	2.2746935798917614	6.6443752071584696e-18	3.301970310489406	0.19787766950195407	-0.3998998294512872	0.5977774989532413	133.48427489938027
17	6.0	wm	161	diff_vonmises	-0.16163921640171938	-9.261244903620314	4.122419497490173	0.6766344612921577	1.0368189275670527e-10	1.364350199843401	0.3116855565209584	-0.21700419058915754	0.528689747110116	67.40980962047178
18	7.0	ltm	161	diff_vonmises	-0.1355716258499185	-7.767681982927022	1.8030606716503277	161.66160691596932	1.784190956090583	162.34092956464696	0.17266265861849206	-0.24545979773906268	0.41812245635755474	63.40329024498601
19	7.0	perception	161	diff_vonmises	-0.17060563483262683	-9.774982837059625	2.1326834787421154	1.4904979888633147	1.9891053594744065e-23	1.9714136902573514	0.48549879490828696	-0.30253290328058957	0.7880316981888765	94.04466368957688
20	7.0	wm	161	diff_vonmises	0.4662646775445187	26.71499815932917	1.4411231707509777	1.9213751336052325	0.5296430664202626	2.996868091900479	0.05624703487291982	-0.25638820088034237	0.3126352357532622	84.4393798702647
0	1.0	ltm	162	diff_vonmises	0.1942231222030233	11.128165186086866	0.5686551179264394	181.07430975706794	0.5542237823079545	184.1892293022948	-0.3077292834293601	-0.5748939409406368	0.2671646575112767	95.37598750013555
1	1.0	perception	162	diff_vonmises	-0.02535487869636426	-1.4527275393678347	8.856632243764311	0.9445767727150944	0.08962448944578136	4.52869300339873	0.3176613243370642	-0.7404933014041231	1.0581546257411873	44.57365734413159
2	1.0	wm	162	diff_vonmises	0.10728378887571842	6.146908312751236	7.97429344832136	0.23254974709998663	0.11158126378731523	3.9685961241782586	-0.4463826206617032	-0.6627190011026641	0.21633638044096093	44.115111881996626
3	2.0	ltm	162	diff_vonmises	0.02665925610207467	1.5274628596072648	0.7132881016746035	55.85764510969922	0.6750936322254967	57.24067158545632	0.019512909123363897	-0.31732020941465144	0.33683311853801534	97.38636976910485
4	2.0	perception	162	diff_vonmises	-0.06903944694134766	-3.955668929656601	12.433914730458513	0.9974181321495768	0.1858031609902918	2.76071756000706	0.8638927723687858	-0.47768889133588327	1.3415816637046691	37.71262700090904
5	2.0	wm	162	diff_vonmises	-0.1337336908437178	-7.6623760640523715	2.937135934577166	1.118245853109761	0.2960040480778662	3.5126276856957905	-0.011867419223480002	-0.5122711111621807	0.5004036919387007	68.16664210711753
6	3.0	ltm	162	diff_vonmises	0.03871764498956985	2.2183576505881906	1.3156385072190084	134.76800301461293	1.2978269759230356	135.49433034106863	0.14741300053065487	-0.22101296048489516	0.36842596101555003	74.43800148832136
7	3.0	perception	162	diff_vonmises	-0.011145164490912216	-0.6385708873083408	2.706930367503194	3.4409785365170773	0.5970093579356104	4.546900342434194	0.9193618555439449	-0.5215379458533574	1.4408998013973022	71.49969329709049
8	3.0	wm	162	diff_vonmises	-0.011117703124318347	-0.6369974669028505	3.1678218665430804	0.7655761977161496	0.2602724935693301	2.265919346315123	0.05710081227903979	-0.33406827027529223	0.391169082554332	67.84951363676856
9	4.0	ltm	162	diff_vonmises	0.06540417870065064	3.7473834020667143	1.875336391646961	0.5206410924108241	3.830328772635146e-16	2.1894419783167183	-0.09014696526198962	-0.3423894255187632	0.2522424602567736	99.99346322321094
10	4.0	perception	162	diff_vonmises	-0.004242110217120417	-0.24305501167032517	0.9179726279880159	112.04246683931015	0.8644582645418336	113.96204664957403	0.5358677599513513	-0.626596701794373	1.1624644617457243	92.23097685995731
11	4.0	wm	162	diff_vonmises	-0.11126526543246597	-6.37503011568315	0.7259785076320429	226.73314211435104	0.7093602224033896	229.19706397823066	0.013124175412698946	-0.5543142224461661	0.5674383978588651	95.15256775134145
12	5.0	ltm	162	diff_vonmises	0.013692008415466054	0.7844942952638108	1.0526394634917826	72.25500902230645	1.0084511933276337	73.51546608223171	0.16955670995500682	-0.34172143492056417	0.511278144875571	83.02683802408669
13	5.0	perception	162	diff_vonmises	-0.021797740677622583	-1.2489185437484092	0.9213404250845271	88.62179805525078	0.8608959065826121	90.42672101258599	0.4515310486592661	-0.5688270125145181	1.0203580611737841	91.83097603860833
14	5.0	wm	162	diff_vonmises	0.06175558361745313	3.5383343026473137	2.538230240448833	1.1769877683958843	0.03275742229799273	2.9170978933632035	0.2202170638602245	-0.44503413569678796	0.6652511995570125	84.28080213725994
15	6.0	ltm	162	diff_vonmises	-0.10238127931598374	-5.8660152059559	0.802681920556256	149.0059495961708	0.7825740122204907	150.3752995580054	0.1609490924056871	-0.36697578292446664	0.5279248753301538	94.81889769105435
16	6.0	perception	162	diff_vonmises	0.2894511866654486	16.584331370983577	0.00017269269377284758	13154.812194058552	1.6929713634687683e-33	13156.263996789257	0.13050315446207605	-0.5925951004523995	0.7230982549144755	177.31453993601227
17	6.0	wm	162	diff_vonmises	-0.40220033421397705	-23.04438166921205	1.0605193798018884	2.4109005828523036	0.07377641255576949	3.77675401748494	0.20512104783653018	-0.4554969471855047	0.6606179950220349	120.13108191750078
18	7.0	ltm	162	diff_vonmises	0.7776680112383627	44.55709490629046	0.0001549843824173248	7823.504052339726	9.811039984449188e-31	7824.487052136006	0.0365311353607467	-0.3494147360786428	0.3859458714393895	162.75258632212885
19	7.0	perception	162	diff_vonmises	-0.09891981286792699	-5.667687787556108	2.8257367312131567	1.4194084394492328	6.407590042246341e-19	2.402256137000507	0.5159457191836667	-0.37917558791963857	0.8951213071033053	81.78682377055318
20	7.0	wm	162	diff_vonmises	0.4153651341058123	23.79866914114849	0.7114511146757762	125.087829300055	0.6927898029311583	126.63797697069184	0.005982614463583502	-0.34848967166803213	0.35447228613161563	96.17225122531875
0	1.0	ltm	163	diff_vonmises	0.04682224323680057	2.6827169248036355	1.331498575359055	0.5295655407036852	1.3024494736721165e-17	2.5833172968626825	-0.19764448157210496	-0.3962576306817278	0.19861314910962286	115.96743228983381
1	1.0	perception	163	diff_vonmises	-0.04279061284640858	-2.451721518877494	9.2195801156906	0.9254298956452148	0.059405537740150116	3.2300434420704716	0.5596114404275498	-0.5217183003601843	1.081329740787734	44.183021253402785
2	1.0	wm	163	diff_vonmises	0.11777682888250178	6.748115219401848	4.443508929320783	0.39459457451514646	0.015333198036821214	2.886163808491919	-0.14523563142235174	-0.456361603071072	0.31112597164872025	63.69360830837374
3	2.0	ltm	163	diff_vonmises	0.12540385124530093	7.185111411042136	1.2100487131116862	3.479184524227952	0.6538695616975337	4.4840727427685465	0.08893724346682719	-0.2540462727657171	0.3429835162325443	86.99296653361617
4	2.0	perception	163	diff_vonmises	-0.02217955877483232	-1.2707951092602428	8.11870714223144	1.3004044193828812	0.25361150692335355	2.5041580574782434	0.9484379106192867	-0.4232017137354451	1.3716396243547317	46.22466129655217
5	2.0	wm	163	diff_vonmises	-0.003502326853297521	-0.20066854716928217	5.685609356889743	0.553546646868211	0.13356730041184717	2.2395459574535015	0.10827488192770596	-0.359801840370756	0.468076722298462	54.429601328181406
6	3.0	ltm	163	diff_vonmises	0.1358959622471741	7.786265089632247	1.838947069272688	1.0235742729935398	0.3946016411588431	1.5691918901555657	0.14528138044570843	-0.16751666545808547	0.3127980459037939	84.70817299064356
7	3.0	perception	163	diff_vonmises	0.020731320249414542	1.1878171540255544	3.451117968127521	2.6370029572069664	0.5380287722795736	3.3127928057123563	1.0279657746653883	-0.4345706132048044	1.4625363878701927	66.21079872136733
8	3.0	wm	163	diff_vonmises	0.017081077554540743	0.9786736534108258	3.3592774479594634	0.5017724586678083	2.2295029833316053e-14	1.6712801621752167	0.08432696293646652	-0.26556921383734955	0.34989617677381607	74.8772251152568
9	4.0	ltm	163	diff_vonmises	-0.2890383778037852	-16.560679165464666	2.307732201400084	0.6346650426666632	2.1109779104606686e-18	2.022342793987103	0.03487550999137273	-0.3183344949353531	0.35321000492672583	90.45506807748144
10	4.0	perception	163	diff_vonmises	0.01637279589077726	0.9380921033706742	1.074476920061064	81.31217680419591	0.9972024007728938	83.03050038594348	0.5983455709692578	-0.5937796615594051	1.1921252325286629	86.08019034609922
11	4.0	wm	163	diff_vonmises	-0.2826052914825896	-16.192090470016815	0.7776388275364363	78.07752054662484	0.7331652935141583	80.3130757363154	0.012629904413884674	-0.5015624735932978	0.5141923780071824	92.62878829398682
12	5.0	ltm	163	diff_vonmises	-0.045707011120131105	-2.618818831341034	1.7901765443122168	1.0564377938998017	0.25660683834074416	1.5018985573809416	0.2055998061883808	-0.17253588947347984	0.37813569566186067	91.10122065754732
13	5.0	perception	163	diff_vonmises	-0.019296832426633746	-1.1056270560173045	1.0517882248924013	260.48624522778886	1.0334429719359686	261.0663965750359	0.6984758381694576	-0.3820471731026771	1.0805230112721347	89.46038821550033
14	5.0	wm	163	diff_vonmises	0.05135623146365551	2.9424953145644275	2.410601440114583	1.1153912468582083	2.0620201506844873e-13	1.8700690459816511	0.34578384366746806	-0.29244667111607825	0.6382305147835463	88.58373688394192
15	6.0	ltm	163	diff_vonmises	-0.30835879649917947	-17.66765761513641	0.4750262457820838	107.51645313383261	0.46137083680923036	107.9559624642629	0.16768500647838636	-0.21203638340477227	0.3797213898831586	126.61212250738403
16	6.0	perception	163	diff_vonmises	0.14404906254189312	8.253403326466515	0.841922205073512	2.8231745257734144	4.1211263068484627e-17	3.271293365826202	0.35918841290410164	-0.357291419023841	0.7164798319279426	135.20720958592375
17	6.0	wm	163	diff_vonmises	-0.21330853127045296	-12.221678575931298	2.0444539742788725	0.9655335209432578	5.345714647339586e-15	1.4132949915363706	0.279820392127375	-0.21647421012411328	0.49629460225148825	95.95017490123462
18	7.0	ltm	163	diff_vonmises	0.2061777930861284	11.813117373156722	1.1454532114205098	147.35555226940792	1.130102900162228	148.20385810085259	0.1108666342059621	-0.2317614123093641	0.3426280465153262	78.71418634270333
19	7.0	perception	163	diff_vonmises	-0.044719597621759144	-2.5622442052500727	1.9338444659833436	1.9010732407100286	0.03375947155169571	2.579500047730341	0.5364008651788829	-0.37670744350082386	0.9131083086797067	97.14202217696572
20	7.0	wm	163	diff_vonmises	0.2706406919396709	15.506569412643419	0.25890276989196065	32.46065435197684	0.22357980144693532	33.61563635957077	-0.025527233890412226	-0.3033984822559037	0.2778712483654915	147.89753025591347
0	1.0	ltm	164	diff_vonmises	0.11050716840851249	6.331594355749188	1.4873610630317433	0.6368027209469453	6.947692464677417e-26	2.8972879000872918	-0.1867013877386608	-0.44710485159723734	0.26040346385857654	110.80154265107555
1	1.0	perception	164	diff_vonmises	-0.08305637804751022	-4.758779923765356	10.272648998631128	0.8610586578045519	2.940984938225017e-21	3.239941293736858	0.5712021681423066	-0.515652670926975	1.0868548390692816	42.34203912913415
2	1.0	wm	164	diff_vonmises	0.014033923007955723	0.8040845583674042	3.381500247591605	0.7626312764367488	0.1453559014489841	3.2379079668631343	-0.05841826039984954	-0.49485159145911745	0.4364333310592679	67.59310732746323
3	2.0	ltm	164	diff_vonmises	0.0032805364910576938	0.18796089547626238	1.648570359658889	1.262719797916879	0.1819513533630881	2.6498385894439584	0.07751383803286849	-0.3335768268646011	0.4110906648974696	93.15999891754225
4	2.0	perception	164	diff_vonmises	-0.037999265388860996	-2.17719753137928	7.492300701317423	1.3815570019626489	0.22465393393624408	2.7797855857558154	0.9347455062835393	-0.4615828899784751	1.3963283962620143	48.11489983355875
5	2.0	wm	164	diff_vonmises	-0.011960205032456575	-0.6852692704708896	7.045210252247065	0.5087353613035506	0.04854664581125589	2.1781053347979094	0.1646895736482093	-0.34801538388653225	0.5127049575347415	50.39087736857533
6	3.0	ltm	164	diff_vonmises	-0.04645567315259452	-2.6617140060828737	1.234547519724647	2.3489780269796356	0.313449647665969	3.412244175421262	0.1804385236070717	-0.31459011687358834	0.49502864048066003	100.4121622810478
7	3.0	perception	164	diff_vonmises	0.01205313876993309	0.6905939814026706	3.209435658859864	2.7624447037873874	0.30587920078616715	3.748879684718647	1.0882294311691871	-0.5103217888287134	1.5985512199979004	70.903993272002
8	3.0	wm	164	diff_vonmises	-0.04855794358356761	-2.7821652291727803	3.0241005016527076	0.873781806761794	0.14209083752806004	2.269237078174801	0.1606830611483892	-0.3340592900944136	0.4947423512428028	73.331176850312
9	4.0	ltm	164	diff_vonmises	-0.10722686459760433	-6.14364679186347	0.6812573236533128	2.0919135385677308	7.158296554123764e-24	3.9113485047918606	-0.034710571863089235	-0.47202352731909636	0.4373129554560071	142.8795193225951
10	4.0	perception	164	diff_vonmises	-0.02474639814595057	-1.4178641719133331	1.8796067167610102	3.512923610850472	0.22705462749503053	5.555154779338132	0.6499488173060324	-0.6756316773822766	1.325580494688309	89.45891965482178
11	4.0	wm	164	diff_vonmises	-0.26913855386559327	-15.420503240752861	1.6205264300426583	2.094178570806761	0.32971010457661126	4.463233495135661	-0.010815451986441071	-0.5113952942015433	0.5005798422151022	85.11402306553794
12	5.0	ltm	164	diff_vonmises	-0.1076787292439681	-6.169536729011286	1.3797273802716243	1.1304735023769836	2.4924774930814085e-16	1.8964485362507948	0.16375924129029795	-0.2723448180647072	0.4361040593550051	114.29783016075312
13	5.0	perception	164	diff_vonmises	0.016454347770502052	0.9427646818902633	1.6605587578253722	3.5939481451318085	0.4106107629496244	4.454818461898025	0.6306299887209594	-0.41664316196250184	1.0472731506834614	90.25214546765952
14	5.0	wm	164	diff_vonmises	-0.06913221297536137	-3.960984031887754	1.795893783522374	1.3278913316821759	0.059638133601258206	2.2866183515696274	0.2557823616163119	-0.3248735138022096	0.5806558754185215	98.62081559845534
15	6.0	ltm	164	diff_vonmises	-0.3079301127589802	-17.643095846077106	0.5599390152971058	2.2032613944422192	3.4007522080736193e-18	3.016514569619028	0.08831889837199774	-0.2946051683978942	0.38292406676989194	147.70356690035993
16	6.0	perception	164	diff_vonmises	0.10217838461630638	5.854390195978813	0.9331749568996334	2.5796386963991433	1.4302852056567376e-15	3.477251543712326	0.2953691152830975	-0.42212384836687933	0.7174929636499768	131.30225206539654
17	6.0	wm	164	diff_vonmises	-0.056779141784176285	-3.253205188608204	1.5440305825634593	1.1382461361889196	0.1476704704305362	2.0779549589539785	0.12049184957533482	-0.2613068266389634	0.3817986762142982	99.15720997375234
18	7.0	ltm	164	diff_vonmises	0.2704082446059393	15.493251161461531	1.4093404946010946	129.76003270672598	1.3903179344308423	130.6831540579268	0.05858678665335759	-0.24971988490102603	0.3083066715543836	68.9711476653498
19	7.0	perception	164	diff_vonmises	0.003986758861749603	0.2284244567146323	1.666198404230774	2.0179886098756343	3.8049667401048796e-16	3.330889594211704	0.4015923282904924	-0.4968573512603479	0.8984496795508403	105.53610780144948
20	7.0	wm	164	diff_vonmises	0.15993202202725554	9.163429871155058	0.00013647595000071847	3294.2176716165354	2.4499675243247626e-32	3295.4402907535255	-0.12303061322586473	-0.26613626255527834	0.1431056493294136	179.09343435031906
0	1.0	ltm	165	diff_vonmises	0.10898624709076764	6.244451983270932	3.390731395566422	0.4779552139037588	5.189647359822899e-21	1.8532464529735624	0.04047125660294709	-0.29457273283818425	0.33504398944113134	74.51903975631635
1	1.0	perception	165	diff_vonmises	-0.12656590540493765	-7.251692209954942	11.435852600454988	1.044517419695736	1.0440262840313589e-17	2.490878630895614	0.9965139056249994	-0.39643564658646374	1.3929495522114632	40.108893762423065
2	1.0	wm	165	diff_vonmises	0.03512442789483115	2.012481476185404	5.920536329306565	0.4172888605075528	4.96645511502066e-21	2.0976232011139264	0.06187118927732721	-0.33384425101205917	0.3957154402893864	56.00543265011095
3	2.0	ltm	165	diff_vonmises	-0.12381553368434914	-7.094107518273086	1.2246958856477121	110.28786151279859	1.1999180318551732	110.95065260262061	0.25257467241008413	-0.23668100093519406	0.4892556733452782	79.57022024665295
4	2.0	perception	165	diff_vonmises	-0.03914299550163554	-2.242728439743283	8.558612639781982	1.1215513625894213	0.15567926621779204	1.8346911587443362	0.9494989665387407	-0.3015860546330004	1.251085021171741	45.67094964445306
5	2.0	wm	165	diff_vonmises	-0.09794635043450386	-5.611912498606428	5.986072560308603	0.5427352864885997	0.3803047792738748	1.5047950359278368	0.1796159103292792	-0.2550486343172817	0.4346645446465609	51.15993409762592
6	3.0	ltm	165	diff_vonmises	0.027735043974827938	1.589100964367384	1.098550531458517	146.55047711316718	1.0807031537244474	147.10119148847414	0.2937016364828011	-0.22567171739084912	0.5193733538736502	85.2700239747841
7	3.0	perception	165	diff_vonmises	-0.0017510517477691027	-0.10032787485617595	2.8035432165747407	2.981225549317008	0.5768324002573925	3.6064415216259307	0.9362901439140852	-0.41537765781275793	1.351667801726843	71.65736843825815
8	3.0	wm	165	diff_vonmises	-0.0033395371593452484	-0.19134138475759063	2.57575864376808	1.3546523145917615	0.6583322032758978	2.1342351772623784	0.22208107379359243	-0.2465548265360168	0.4686359003296092	69.59793546598948
9	4.0	ltm	165	diff_vonmises	-0.18548917412421326	-10.627746822684658	3.1180770790310097	0.8630928262286275	4.813978180231452e-18	1.9049429955599753	0.2746070596815381	-0.30205000068517013	0.5766570603667083	77.78495627926773
10	4.0	perception	165	diff_vonmises	-0.05853496822992609	-3.353806633507124	0.9303906045484508	451.6520162334527	0.9184815032869614	452.86596637128554	0.6270213263822484	-0.5050739266758342	1.1320952530580826	92.6763142617605
11	4.0	wm	165	diff_vonmises	-0.2548845855734978	-14.603811016302494	1.2660073735428337	188.48896993185463	1.248813319545671	189.61155109665273	0.1576000112739422	-0.31691896856876767	0.47451897984270985	74.86284163807444
12	5.0	ltm	165	diff_vonmises	-0.038377794040897556	-2.198885625565751	1.9471896918449911	0.9753180161666737	4.839808121888836e-12	1.2386237023630804	0.29793150384417827	-0.18705531176878232	0.4849868156129606	98.25549123846287
13	5.0	perception	165	diff_vonmises	0.033606224653543654	1.9254948380165486	1.1300414041913656	239.86881780555638	1.113321581703545	240.23977708266537	0.6142024483820734	-0.2997172764098295	0.9139197247919029	86.84179395106923
14	5.0	wm	165	diff_vonmises	-0.01678783473785478	-0.9618720776421916	0.8304197058483217	112.92420960911043	0.8092082693976598	113.22135663766402	0.36658982684932795	-0.22011307617366604	0.586702903022994	100.9216674789553
15	6.0	ltm	165	diff_vonmises	-0.2754867428919019	-15.78422767951161	1.7037060396861827	1.083422731538987	4.5350413114063505e-14	1.6663303606433566	0.24184618489278392	-0.2484073244572047	0.4902535093499886	104.31212632026532
16	6.0	perception	165	diff_vonmises	0.20879706552837396	11.963190629492315	0.31663457566068254	5.771838914003983	1.560870058420552e-12	6.163116178864197	0.24889432915527943	-0.32805476369901054	0.57694909285429	161.05247655471067
17	6.0	wm	165	diff_vonmises	-0.2531184499522413	-14.502618899156781	2.1511680904881985	1.0300214677223412	0.2920870751884573	1.2966806929168013	0.2845935231349417	-0.15262505982515684	0.4372185829600985	84.7031088387837
18	7.0	ltm	165	diff_vonmises	0.06610690630953023	3.7876467282028345	1.2318974763797998	208.24118868848635	1.2164050862598677	209.09234400311584	0.2684710755682147	-0.2858904379622764	0.5543615135304911	78.53004681546884
19	7.0	perception	165	diff_vonmises	-0.11231298695313564	-6.4350601369225515	2.2126739541878253	1.6776781023218559	2.075754591738042e-15	1.7233716659254468	0.6453760212750059	-0.2632733526175785	0.9086493738925845	92.39928435634386
20	7.0	wm	165	diff_vonmises	0.14908129472393783	8.541728992027585	0.8161057399614987	1.362586343858743	4.268295564631554e-14	1.9668458632037724	0.1048883726939559	-0.23132665484279302	0.3362150275367489	136.35925821662516
0	1.0	ltm	166	diff_vonmises	-0.000771182041306946	-0.04418547620317152	3.0421803361256337	0.5242880094433706	5.4384368515705875e-24	3.0816786791496242	-0.14433753024372242	-0.48967584010109777	0.34533830985737535	78.77243997331215
1	1.0	perception	166	diff_vonmises	-0.10019939223974858	-5.7410022851134865	10.529377676363923	1.0368968060935295	0.04146826548518492	3.8404724644998463	0.6886374037570818	-0.618795207050896	1.307432610807978	41.48066180614339
2	1.0	wm	166	diff_vonmises	0.018858865610341127	1.080533405876956	5.257685284771943	0.4573484584927077	3.4466064377179356e-23	3.3578609192038535	-0.127094315723003	-0.534409118166929	0.40731480244392604	59.509465022897444
3	2.0	ltm	166	diff_vonmises	-0.029338370760993823	-1.6809648223949634	2.409445928536088	1.215780580390315	0.36026582898188314	2.260497235740117	0.2016366083006999	-0.2865362065585744	0.48817281485927433	76.0902315663966
4	2.0	perception	166	diff_vonmises	-0.05800737328648863	-3.3235776699557142	11.2073650339743	0.9963357566751968	0.15959657233470814	2.025190808492009	0.939246101251344	-0.3420337464426446	1.2812798476939886	39.928934535160266
5	2.0	wm	166	diff_vonmises	-0.06211305655986536	-3.5588159935376575	6.286419803582828	0.48204535568034396	0.07093466158605038	1.7426928914120083	0.17429572992622033	-0.27788034215080504	0.45217607207702537	53.05791567900772
6	3.0	ltm	166	diff_vonmises	-0.05442738946173543	-3.118459706072253	2.7072958836159264	0.723329207685302	0.11379530336560928	1.5087823135699283	0.17838942327629004	-0.2186267661026412	0.39701618937893124	78.84381673351376
7	3.0	perception	166	diff_vonmises	0.004335650828374525	0.2484144939082595	4.129855161174943	1.916619345856811	0.22785935108099958	2.6426312070350533	0.9779940556609641	-0.39109457288142513	1.3690886285423893	64.23510204179513
8	3.0	wm	166	diff_vonmises	0.022144232369986076	1.2687710553571827	3.492134725137462	0.6701148434451057	0.09535112030119411	1.6336262815821152	0.1927054700022383	-0.2472783973657496	0.4399838673679879	70.24181557372924
9	4.0	ltm	166	diff_vonmises	-0.2832621930526797	-16.229728157538496	1.46148208166065	1.2203458596445609	4.898829309405244e-16	2.55174874012718	0.11421117055440938	-0.3781422665329989	0.4923534370874083	111.38492211443662
10	4.0	perception	166	diff_vonmises	-0.02929304178912685	-1.6783676636173186	1.9940111583834854	3.0442822620882257	0.19841693666932803	4.347337668097618	0.7321010024286939	-0.5438653944421088	1.2759663968708028	89.15936152255577
11	4.0	wm	166	diff_vonmises	-0.11425612674411538	-6.546393845949623	0.9275100808097994	219.57035182557132	0.911021596248283	221.14364545092423	0.1777594679715122	-0.41347212147974943	0.5912315894512616	87.6093238620947
12	5.0	ltm	166	diff_vonmises	-0.029845109259629726	-1.7099987996835964	1.634146307952888	1.382515403358547	4.733987608255244e-16	2.170440840317719	0.285373374367798	-0.32141958855014646	0.6067929629179445	106.44722893060354
13	5.0	perception	166	diff_vonmises	0.016015631970214588	0.9176281181280873	1.1305471577330677	22.29384345885444	0.9333500106355425	23.154937069762134	0.5454107177443603	-0.38675054379251517	0.9321612615368755	88.2761458271784
14	5.0	wm	166	diff_vonmises	-0.01035944345880778	-0.5935523882940934	1.0461256458888584	4.633492614797713	0.43202572633278463	5.269018797234424	0.3901180371478039	-0.3203559823702672	0.7104740195180711	105.37327763837234
15	6.0	ltm	166	diff_vonmises	-0.22701258810080727	-13.00686319451803	1.216106907391989	1.7100621256380315	0.05016284195052452	2.4850726522691113	0.23783359800915338	-0.31852581118931234	0.5563594091984657	116.84992202680506
16	6.0	perception	166	diff_vonmises	0.34670212624795044	19.8645685822194	0.0002844672698277809	7994.652794209438	4.328293680999274e-33	7995.305272304544	0.25813249870657273	-0.46577124559780714	0.7239037443043799	176.226998865344
17	6.0	wm	166	diff_vonmises	-0.33673220073793875	-19.293333928435914	0.8519385093752481	70.64165652802139	0.8145967492614125	71.06709804640224	0.37315471178899173	-0.2478475512331073	0.621002263022099	99.2977607716395
18	7.0	ltm	166	diff_vonmises	0.07392028823638885	4.235320536335629	0.7787191781213175	242.21450555007686	0.7664204520047654	243.61525686992204	0.15249962925250315	-0.3719555597778239	0.5244551890303271	95.84797990004768
19	7.0	perception	166	diff_vonmises	-0.10377694816679828	-5.945981140705447	2.90589323347608	1.521403145626128	2.958247986176034e-20	2.0807784757395997	0.6472993626895984	-0.32823852510850304	0.9755378877981015	80.63027505103102
20	7.0	wm	166	diff_vonmises	0.3622282758225627	20.754151424933518	0.5649478103570654	111.35292122036715	0.5471032255644731	112.41946902739484	0.10169468277483062	-0.304398917680766	0.4060936004555966	113.45359398387768
0	1.0	ltm	167	diff_vonmises	-0.8439400652259708	-48.35420389944353	11.798035419459955	0.1434607176927706	0.00274592078234003	2.2751225242874544	-0.1687199749189222	-0.36235378420348124	0.19363380928455903	39.392730408344306
1	1.0	perception	167	diff_vonmises	0.032421074136495635	1.8575907153019497	8.937481351929163	0.8702899185670668	0.11696912528118762	3.6628415127081677	0.3695427878399783	-0.6048895735593507	0.974432361399329	44.23576556253147
2	1.0	wm	167	diff_vonmises	-0.43395544341491865	-24.863815404403052	0.00035722384133727116	549.6570421802667	1.8453235777938785e-29	552.1578357953172	-0.3667607947263747	-0.4292609546599948	0.06250015993362013	174.66870484376153
3	2.0	ltm	167	diff_vonmises	0.6415087015069275	36.75574111726466	0.7917551351598154	120.04228529510073	0.7768851804582655	120.97307484523232	0.06236331092046754	-0.23076008801021253	0.29312339893068007	93.68944543978171
4	2.0	perception	167	diff_vonmises	-0.0230681695558623	-1.3217087566430845	8.676370165423652	1.5308363214738272	0.5260132329737972	2.9266730693139915	1.034865501333106	-0.5454682804540018	1.580333781787108	43.54714483104348
5	2.0	wm	167	diff_vonmises	0.017352898852727068	0.9942478665786693	6.0569137604222965	0.4667035948490449	0.08224921486033777	2.5024904581048832	0.01621451411333885	-0.40115931827430396	0.4173738323876428	53.28363244080913
6	3.0	ltm	167	diff_vonmises	0.20735033432777447	11.88029903760807	1.8841879802348185	24.555407205381268	1.8348830428174314	24.745944486155995	0.10194580830873612	-0.08652572539406833	0.18847153370280445	64.19745954670276
7	3.0	perception	167	diff_vonmises	0.017844019610051352	1.0223870132046196	3.1427060799389674	3.4612112519813483	0.8860417906223625	3.9799085444339757	1.053741577161788	-0.4391302436313453	1.4928718207931333	65.41420718663088
8	3.0	wm	167	diff_vonmises	-0.05083691229300455	-2.9127405178658927	4.667403180431889	0.22023551458714924	3.4681591612897624e-16	1.2648547450938739	-0.01723662449073321	-0.2012916318903394	0.1840550073996062	63.25069597158671
9	4.0	ltm	167	diff_vonmises	-0.6047901303700194	-34.65192196136894	0.8002502734233523	108.21885872430943	0.7861500842147809	109.57219000768599	-0.11595236275221765	-0.26247842245796704	0.1465260597057494	82.02500537307291
10	4.0	perception	167	diff_vonmises	0.027635373809124838	1.5833902845292267	2.815979635060647	2.1928385893941145	0.2232943897103288	3.800892254432804	0.6380114443297965	-0.524210524295051	1.1622219686248476	75.3602685717386
11	4.0	wm	167	diff_vonmises	-0.3056321689346681	-17.511433363385873	0.7567181130339089	109.44114265930605	0.725420776461964	111.99273763454248	-0.0847367840796096	-0.5350869539173786	0.450350169837769	90.8030385432664
12	5.0	ltm	167	diff_vonmises	-0.16033644342421602	-9.18660151034568	1.4026495673036679	67.38213743234215	1.3723715487880448	67.99821041608104	0.11207946384562817	-0.1868821035626791	0.29896156740830726	71.771081624104
13	5.0	perception	167	diff_vonmises	-0.043394716118401185	-2.4863340867527137	1.1700748465198834	21.850518261238488	0.9287398769367916	23.020394059196033	0.6080789857755864	-0.47553199049370676	1.0836109762692931	86.92609906378922
14	5.0	wm	167	diff_vonmises	0.22646041930485838	12.975226252931337	4.037461476979489	0.7720615054315784	0.08050266581587841	2.074997248521685	0.23927963677847014	-0.3200575780939622	0.5593372148724323	65.77731954003414
15	6.0	ltm	167	diff_vonmises	-0.4332803723042267	-24.825136678889194	0.7253600663022574	171.72429846685782	0.7143859825695319	172.46679959920817	0.14614739326659532	-0.2294028554269456	0.3755502486935409	101.60618529560668
16	6.0	perception	167	diff_vonmises	0.22328345011857137	12.79319932691398	1.0510431144424381	2.7523304611871033	1.2418738379775688e-19	3.908080372894902	0.345017284686297	-0.5038191812376328	0.8488364659239298	126.07904387470779
17	6.0	wm	167	diff_vonmises	-0.16593682780579186	-9.507479899060959	2.4830330213056793	1.0319361330528098	1.0116665641568205e-12	1.9765530176819344	0.29111984398438245	-0.31035538061353857	0.601475224597921	87.27911765017949
18	7.0	ltm	167	diff_vonmises	0.026105155471095983	1.4957152320266502	1.296489214674656	111.1562681314316	1.2784347053449998	112.04003851533035	0.017751638230954825	-0.22106474619839034	0.23881638442934516	70.66173717786796
19	7.0	perception	167	diff_vonmises	-0.07693711357547592	-4.408171895793441	1.8174171013453404	1.6171377914977758	2.733408558232431e-16	2.765218915137135	0.34706346373860186	-0.419324476221639	0.7663879399602409	101.45938802361906
20	7.0	wm	167	diff_vonmises	0.5021940439499918	28.773599214941903	3.001194500862014	0.4329291332559371	0.006644681804580155	2.0077203022667076	-0.03805738826911653	-0.3167175815344579	0.27866019326534136	78.61783924299513
0	1.0	ltm	168	diff_vonmises	-0.38334306906500226	-21.96393996301666	0.0007081981678177839	1058.0831226541081	3.5002158077582446e-25	1059.6687940854345	-0.1330863841253631	-0.37160627889326747	0.23851989476790436	175.80276597167645
1	1.0	perception	168	diff_vonmises	-0.0967066016371334	-5.540880124860681	10.688381483727886	0.9429631876867944	7.091004950807126e-18	2.762884598232055	0.7746898418383324	-0.43972674036889536	1.2144165822072277	41.50969376421648
2	1.0	wm	168	diff_vonmises	0.10691678567117611	6.125880578063186	3.066345598211062	0.5922018381724277	2.5096412807929915e-12	2.307586901967334	0.025458132917872633	-0.3664113555446583	0.39186948846253095	78.45144536327376
3	2.0	ltm	168	diff_vonmises	0.08341712194133263	4.779449026366496	1.5337852869816662	1.2601673211050093	0.22932127799038196	2.1263176006874875	0.13316359147003765	-0.24372822370314964	0.37689181517318726	95.61793207309182
4	2.0	perception	168	diff_vonmises	-0.029604141778420807	-1.6961923800104275	7.788735590539198	1.4249562169149323	0.3768000753482285	2.2072929660506033	1.0648494011134413	-0.38042581827799166	1.4452752193914329	46.81470358485021
5	2.0	wm	168	diff_vonmises	-0.023688535532678457	-1.357253108868161	9.099074993659093	0.37670985547736546	0.03445902662553742	1.3679966403802801	0.22139259723584967	-0.21915694327548377	0.44054954051133344	44.65966962583266
6	3.0	ltm	168	diff_vonmises	-0.04194737373816244	-2.403407476854615	1.3156397581789077	2.370639046482513	0.6017218478920038	2.8918197738993805	0.18007458756031092	-0.18071044953076662	0.36078503709107757	90.41770791994699
7	3.0	perception	168	diff_vonmises	0.037570036735001255	2.1526045410670354	3.311604041552388	2.5010547453466594	0.4512013658379535	2.8316349831563583	1.0592495033143865	-0.3656300847649214	1.424879588079308	68.93942016982913
8	3.0	wm	168	diff_vonmises	-0.030995063256042954	-1.7758863103122766	3.148902013929365	0.7039532643068032	0.2730137050339614	1.3492735924446728	0.19693491612222402	-0.19058360285324097	0.38751851897546497	70.35049985026777
9	4.0	ltm	168	diff_vonmises	-0.2929507604005308	-16.78484217609862	2.66695302503993	0.6716945966581733	8.202067596821636e-27	1.9024102995793934	0.1083287810986075	-0.30079426177210333	0.40912304287071083	84.17860268720324
10	4.0	perception	168	diff_vonmises	-0.024843165442679494	-1.4234085296107906	2.7629453047731656	2.204591619315936	0.07205816563399968	3.4364033559285545	0.7901514879433078	-0.5068170656758803	1.296968553619188	80.2504143021687
11	4.0	wm	168	diff_vonmises	-0.2741420146069316	-15.707180424190947	1.1277989100534536	99.65478658092175	1.0952766830495082	101.02372002314146	0.11358155428560934	-0.3520653569385068	0.46564691122411617	78.46758572314856
12	5.0	ltm	168	diff_vonmises	-0.13600529167500533	-7.792529204423556	1.3167975256760136	0.9429245894558007	7.647281953993263e-14	1.5226131503311642	0.1353198617573617	-0.2152081015938593	0.350527963351221	116.40869242923893
13	5.0	perception	168	diff_vonmises	0.027250461007314743	1.5613364055049528	2.2131957900011034	2.2878172332225115	0.3742621995485272	2.8719704251126332	0.6124103094945028	-0.3241187667943293	0.9365290762888321	81.89574959178756
14	5.0	wm	168	diff_vonmises	-0.028707110734549363	-1.644796287104379	0.6679955777927395	101.02532732681382	0.6464531615983512	101.60231076908175	0.2555194909839855	-0.25563417026573454	0.5111536612497201	109.62083211688793
15	6.0	ltm	168	diff_vonmises	-0.44273973368717995	-25.36711816302145	1.2820957521297554	1.1113657639748649	1.0149790191002094e-15	1.8702615324948009	0.14043373377325213	-0.26393442031269554	0.4043681540859477	116.7328085236892
16	6.0	perception	168	diff_vonmises	0.23933519860859848	13.712896769198025	0.8578654439168668	2.8913715020020065	1.1070342042269236e-16	3.65059557974103	0.3288677875296655	-0.4173813909882853	0.7462491785179508	134.1136404470342
17	6.0	wm	168	diff_vonmises	-0.20376857649364688	-11.675079430474641	2.7987262290764696	0.6615757069291951	7.461839233447234e-21	1.2936281829744698	0.21048283732769474	-0.20434357340737316	0.4148264107350679	82.17531422191644
18	7.0	ltm	168	diff_vonmises	0.16648335426188438	9.538793558387301	1.1711866199016723	205.81217724067946	1.1570109902332226	207.0657749881173	0.07637872537490864	-0.3174699439489608	0.3938486693238694	75.92428658941824
19	7.0	perception	168	diff_vonmises	-0.09322644788111788	-5.3414820025843905	2.163096488997746	1.583216018971344	3.559355233777036e-23	2.3534437227338443	0.48164108633580827	-0.3632442321689542	0.8448853185047625	93.42528287158697
20	7.0	wm	168	diff_vonmises	0.2100592229737276	12.035506924192093	0.1335939847874415	5.280526492066268	2.77810712331685e-12	6.27457528523776	-0.04235889991199304	-0.26657647197945755	0.2242175720674645	171.07787571074385
0	1.0	ltm	169	diff_vonmises	0.22305537743310674	12.780131724614643	3.5500625043036758	0.40911298719759676	1.95840907581802e-21	3.52634787384964	-0.2666859240008828	-0.5609926783939224	0.2943067543930396	72.78185787187019
1	1.0	perception	169	diff_vonmises	-0.026132056191295765	-1.49725652975996	9.049070180363742	0.8207592632839112	3.2884565252045615e-20	4.011237991526815	0.33188325885446923	-0.6384083408642218	0.9702915997186911	45.15565794721073
2	1.0	wm	169	diff_vonmises	0.06729814306339345	3.8558995666000615	0.8131540732967102	89.6016586512165	0.7667487158396297	93.12283115863448	-0.2527927342579197	-0.6963077926005834	0.4435150583426637	84.00517966794922
3	2.0	ltm	169	diff_vonmises	0.08827812831901762	5.057964175994022	1.8503532864024133	1.4390906174755573	0.3231918544237168	3.1392586402747606	0.035643129864297185	-0.37953552623439735	0.41517865609869453	82.12912760564461
4	2.0	perception	169	diff_vonmises	-0.03865890239206988	-2.2149919476738065	8.060791475604347	1.326272291494732	0.1726225047065324	3.0394008089702207	0.9067382867354319	-0.5027746898871072	1.4095129766225392	46.64990272431325
5	2.0	wm	169	diff_vonmises	0.0435658433669	2.4961389558513827	5.695108754483327	0.5864308311851286	1.3047905848237743e-17	2.71230015750148	0.11306378588178073	-0.43166981600653637	0.5447336018883171	57.13580000508202
6	3.0	ltm	169	diff_vonmises	-0.1007099460439926	-5.770254863311017	0.5658247305098059	70.951934289301	0.5375856402769046	72.127425464323	0.07887214988987168	-0.31762139406023326	0.39649354395010494	112.88118850865794
7	3.0	perception	169	diff_vonmises	0.034627260835394816	1.9839959019667721	3.6491354159039573	2.3216957480930858	0.16752440537624322	3.337838900672327	1.0735435852750566	-0.48897202886588537	1.562515614140942	68.71168777605823
8	3.0	wm	169	diff_vonmises	-0.00358211845342509	-0.2052402690971874	2.939636538170473	0.7328182686074709	1.4637974606835025e-16	2.3097910122091942	0.10680274859427219	-0.3662877480977585	0.4730904966920307	80.16116913897679
9	4.0	ltm	169	diff_vonmises	-0.08908981078684718	-5.104470155705419	0.0002502224219130594	4471.60194290242	1.291386928070218e-30	4473.6565322110955	-0.14890952089308485	-0.5050642887398453	0.3561547678467605	179.7585786731398
10	4.0	perception	169	diff_vonmises	0.02374685327862216	1.3605944695814514	2.326384282317773	2.8350548447898363	0.15317590882125667	5.237391468623758	0.6353843114625992	-0.7187555722153516	1.3541398836779508	83.46965448705379
11	4.0	wm	169	diff_vonmises	-0.33369217511495847	-19.119153290627516	1.0876640314862478	1.9874123738643807	4.594186485061792e-18	5.077732551279119	-0.09620861728262287	-0.7272904666014555	0.6310818493188326	124.26960903553709
12	5.0	ltm	169	diff_vonmises	-0.06752250766462765	-3.868754711322917	1.539646624330473	1.0853597003901747	4.634031705869672e-15	2.1325696354706487	0.13821219584505867	-0.31744218697244186	0.45565438281750054	109.22698132834613
13	5.0	perception	169	diff_vonmises	-0.01238737906326022	-0.7097445395535298	2.438131043420065	2.0113743281359846	0.009972770210727382	3.222791109300547	0.6499807480701643	-0.4989133896869237	1.148894137757088	87.66757817967911
14	5.0	wm	169	diff_vonmises	-0.03560640986549603	-2.0400970089058994	1.945032711925086	1.311383821569094	3.227731390688842e-15	2.6220844808215062	0.24789223760099727	-0.4037181356455334	0.6516103732465306	98.3061487649415
15	6.0	ltm	169	diff_vonmises	-0.17924763272582597	-10.270132842900884	0.0004902008326053136	2428.3382186898843	9.634160308664364e-31	2429.2049904303753	0.051523913500830076	-0.3273794944211659	0.37890340792199595	179.05497746100906
16	6.0	perception	169	diff_vonmises	0.13060871630313775	7.483328211791301	0.32009175640002346	95.50757310326634	0.2904452645837859	96.50517132733536	0.2994478307330084	-0.48972126597143983	0.7891690967044482	144.16126136473818
17	6.0	wm	169	diff_vonmises	-0.2172856173647653	-12.449548823895563	0.5133518754983244	51.856595961437236	0.4740537429081011	52.96131584932561	0.11324751090156582	-0.33464572557158245	0.44789323647314827	120.53123927681258
18	7.0	ltm	169	diff_vonmises	0.40013814618312205	22.926226998481663	0.9204704435929593	88.90119725718235	0.8985089423166822	90.06283880848935	-0.0028853848015693018	-0.2590183983812615	0.2561330135796922	83.55083369957578
19	7.0	perception	169	diff_vonmises	-0.0060390063722348866	-0.3460095775816692	2.459243359580248	1.7357756977606988	0.0028667460348995046	3.19776758949496	0.5027091800937671	-0.5000759051114382	1.0027850852052054	87.57433382818996
20	7.0	wm	169	diff_vonmises	0.7418873985218685	42.50701680924321	0.00028414151234806574	2214.375362996246	1.9847407948996118e-28	2215.9953875285464	-0.15769185932560958	-0.35796374035680856	0.20027188103119897	164.1996890835277
0	1.0	ltm	170	diff_vonmises	0.09295111166491589	5.325706399448915	2.8448756849338155	0.36546835993000326	5.440800736696933e-30	2.441807306007144	-0.15643743958023598	-0.38784073372120303	0.23140329414096705	81.50576546656814
1	1.0	perception	170	diff_vonmises	-0.04106478607643822	-2.3528389287874973	8.69444409584067	1.0298477977182485	0.11912729132047874	3.3956574578607626	0.5861706947298047	-0.558447187548621	1.1446178822784256	45.02730778620739
2	1.0	wm	170	diff_vonmises	0.1485763886825346	8.512800006804522	4.3209464761271175	0.39874868462104235	0.01882412190451246	3.007365151309598	-0.1680278271830078	-0.4750280490951333	0.3070002219121255	64.32160033163734
3	2.0	ltm	170	diff_vonmises	0.059859800193822955	3.4297139136024426	2.0331362410528917	1.2780302476345966	0.4981711678300395	2.1623636814580904	0.13306400274653407	-0.23704730487796746	0.3701113076245015	77.55159786119214
4	2.0	perception	170	diff_vonmises	-0.025732334142308022	-1.4743541433746408	9.063247107127346	1.1287641832375814	0.18504172497242677	2.242524952181357	0.9097273668497142	-0.37555779766265907	1.2852851645123733	44.16889945096722
5	2.0	wm	170	diff_vonmises	-0.03748199211179505	-2.1475599557485	4.719007548325463	0.6328564011348681	0.20300032543455504	2.213552098713762	0.10488137766802247	-0.35140395119028134	0.4562853288583038	58.230087134690734
6	3.0	ltm	170	diff_vonmises	0.12589273587050648	7.213122436735249	1.922479082329248	0.9204434350805187	0.43007515561037446	1.3755606963705662	0.1420764784625667	-0.14589525579244558	0.2879717342550123	82.7606520376201
7	3.0	perception	170	diff_vonmises	0.02359834960107922	1.3520858356160692	3.5170070278662755	2.5283584809531985	0.6062124224549711	3.1116895606463135	0.9808628360028281	-0.40487712068676307	1.3857399566895912	65.08026688003778
8	3.0	wm	170	diff_vonmises	0.041011267209923756	2.3497725236118945	3.242899228072025	0.5213240262057722	1.089019082638271e-16	1.5561065585974543	0.10915492786233438	-0.24711785957533888	0.35627278743767327	76.24430488124338
9	4.0	ltm	170	diff_vonmises	-0.32747635624121085	-18.76301310294402	2.3646558427185416	0.6958952550489963	0.02770338578614114	1.899497584808091	0.08612877042321332	-0.2904923344804297	0.37662110490364303	87.37832391649442
10	4.0	perception	170	diff_vonmises	0.022043054387952406	1.262973984007003	1.0867816333002724	385.0431330577136	1.0708782788251112	386.5350703946703	0.6195193942346009	-0.5495909011621336	1.1691102953967345	84.87807379763598
11	4.0	wm	170	diff_vonmises	-0.23763649951862667	-13.615568480679928	0.7953110918003486	177.91039612407997	0.7758100926285972	179.83681515134384	0.08649061679475523	-0.46068491622249397	0.5471755330172492	92.71216243115045
12	5.0	ltm	170	diff_vonmises	-0.02636830145546817	-1.510792386326992	1.8674271940953378	1.1158350942573063	0.25502596349958384	1.458676760802266	0.25738910701039547	-0.16821200415070536	0.42560111116110083	90.436211492356
13	5.0	perception	170	diff_vonmises	-0.02492514060084765	-1.4281053601987432	1.087373241399161	255.00918698722643	1.06923628387597	255.48741923327432	0.6983930999554957	-0.3566989170642785	1.0550920170197742	88.35492049295672
14	5.0	wm	170	diff_vonmises	0.06751210073879806	3.8681584383951755	2.3786583777487733	1.2215949986108108	1.830879334269348e-18	1.772047153607999	0.41710733395563654	-0.2760253601072091	0.6931326940628456	89.17075581543187
15	6.0	ltm	170	diff_vonmises	-0.27721752318845144	-15.8833940857683	0.5369639086120147	113.15143495975076	0.5230542280676176	113.46183333242965	0.21753366768871985	-0.2002248970698126	0.41775856475853246	122.13615312656202
16	6.0	perception	170	diff_vonmises	0.18952626345432536	10.859055002817378	0.567536988104443	3.961957602122589	2.066947713960267e-14	4.147326537436282	0.36774958366545996	-0.3297276691508072	0.6974772528162672	148.08361077810014
17	6.0	wm	170	diff_vonmises	-0.31132954755646924	-17.83786911270314	1.921098610415985	1.1211944079806968	3.3240824134782764e-11	1.254439777227559	0.36482858679434904	-0.18754405006927777	0.5523726368636268	98.72423575529686
18	7.0	ltm	170	diff_vonmises	0.17253979940544298	9.885802303965713	0.9343021810979392	143.28281423216697	0.9180303653193058	144.1055485469263	0.17508726018107268	-0.2462952784851673	0.42138253866624	89.41002114648117
19	7.0	perception	170	diff_vonmises	-0.06993280363264345	-4.0068544976676215	2.258255391656895	1.695841856186635	0.007621867345443042	1.9747658339404426	0.6243701747433283	-0.30161972918931595	0.9259899039326442	91.23687684016235
20	7.0	wm	170	diff_vonmises	0.2353796945345733	13.48626307990958	0.5063901859855333	122.71337342949306	0.49208051655145213	123.70120046802766	0.08587044743656946	-0.28872564485618213	0.3745960922927516	119.40682509838999
0	1.0	ltm	171	diff_vonmises	0.17071955686161908	9.781510088514446	2.456541418950979	0.44974504695998685	1.1068552930253412e-24	2.7562336555461067	-0.17633108423136573	-0.43674001758080483	0.2604089333494391	87.73723086598454
1	1.0	perception	171	diff_vonmises	-0.06333511742193847	-3.6288349232425654	9.88719915277308	0.846821777584033	1.2504985215852061e-18	3.3025720186023952	0.522340382456464	-0.5256206589697708	1.0479610414262348	43.17187360283984
2	1.0	wm	171	diff_vonmises	0.08134804561459112	4.660899685353776	1.9661434737621837	1.4625568394247757	0.303406867579677	4.004770415634554	-0.09703867062315497	-0.5188230625813739	0.42178439195821893	78.29492101751819
3	2.0	ltm	171	diff_vonmises	0.03208199908153933	1.8381631457147871	2.042029149878038	0.9232998662649214	0.11870071679305495	2.3189975767763835	0.06819687738082153	-0.32418368962799615	0.3923805670088177	87.79052452804302
4	2.0	perception	171	diff_vonmises	-0.036089672533557146	-2.0677859201820334	7.841008537899187	1.3501475173985682	0.2121430457561783	2.7487090688847537	0.9478152346647534	-0.45749499845072156	1.405310233115475	47.15317433213494
5	2.0	wm	171	diff_vonmises	-0.007792320398895499	-0.4464670714704102	7.1257652201425055	0.4804247414896122	0.010687127287274355	2.149751230214021	0.1560710348446459	-0.3417432275489785	0.4978142623936244	50.722700859798266
6	3.0	ltm	171	diff_vonmises	-0.06421181287038538	-3.6790658723569027	0.7378561712004474	97.93301990776948	0.7156743772234395	98.83606102065237	0.1547824265901916	-0.26781599464283445	0.42259842123302604	100.58402733670258
7	3.0	perception	171	diff_vonmises	0.04012401310253752	2.298936607903016	2.98298212807279	2.897089087687797	0.3896563727201441	3.615524230035132	1.0730022707235785	-0.46195302306583974	1.5349552937894182	72.3259639959629
8	3.0	wm	171	diff_vonmises	-0.052277776213197305	-2.9952959393456124	3.059812320943062	0.8086130175672305	0.14164704864489816	1.960658561183076	0.17785466472052464	-0.28820052050633843	0.46605518522686307	73.2586297113053
9	4.0	ltm	171	diff_vonmises	-0.15638500398792246	-8.960200707644505	0.7673057917410316	1.4994742312930196	2.969053234014732e-26	3.2046889315794544	-0.06409711448877725	-0.4139233403575883	0.34982622586881107	138.63483579340618
10	4.0	perception	171	diff_vonmises	-0.00675960997376642	-0.38729712265135297	2.318138809884988	2.835607595843819	0.17939123145386338	4.754449348142568	0.7000377273866292	-0.6370174857484159	1.337055213135045	83.27320303749718
11	4.0	wm	171	diff_vonmises	-0.31238217747437913	-17.89818036438858	1.9673397684198604	1.2570357414049238	0.15682816879924627	3.4208168638522034	0.009073451054632309	-0.4673373506709052	0.4764108017255375	86.19252912343207
12	5.0	ltm	171	diff_vonmises	-0.0836673996967205	-4.7937888854562285	1.4306576601311571	0.9727617275201842	5.115601191189804e-19	1.7957245357506626	0.12366809415307184	-0.26237918524525233	0.3860472793983242	112.64026591137096
13	5.0	perception	171	diff_vonmises	0.006999434062250809	0.4010380307470805	2.406600172728536	1.9920840174432177	0.10774708877229326	2.930369586310433	0.630006348314512	-0.4120548116253949	1.042061159939907	84.71078133071387
14	5.0	wm	171	diff_vonmises	-0.051827483112287555	-2.9694960451196253	1.8387546019085463	1.1835642933480117	0.0049140442788706325	2.2060805271414043	0.2274078893057171	-0.33471339415950685	0.5621212834652239	100.61942889378294
15	6.0	ltm	171	diff_vonmises	-0.3408167262990069	-19.527360004398425	0.5432610064276588	2.1369406186029174	2.1582251487337517e-19	2.9962079666872468	0.06772736522817296	-0.29311689449661005	0.360844259724783	148.20919339835382
16	6.0	perception	171	diff_vonmises	0.16351297686112037	9.368603469762485	0.7705359183941533	3.2063660899515676	1.350391275885233e-16	4.0859819560999435	0.3052345470616198	-0.4456676927798497	0.7509022398414695	138.39648746140108
17	6.0	wm	171	diff_vonmises	-0.14531685488749743	-8.326042477168633	1.6519198297920807	0.8350450639359367	4.205418502733198e-16	1.7825221367506794	0.09982920827806446	-0.26960499678304795	0.3694342050611124	105.88901104303648
18	7.0	ltm	171	diff_vonmises	0.3060709531306196	17.536573845930935	1.1424552992626757	180.28672791261334	1.1301161689997772	181.28618249581803	0.048613451785257666	-0.24797513200077503	0.2965885837860327	76.48863180229034
19	7.0	perception	171	diff_vonmises	-0.027627553031327336	-1.5829421869689202	2.1191057909701247	1.6863535253695967	1.889344998827781e-15	2.766406051836719	0.4604977871214131	-0.42728436437590056	0.8877821514973137	94.37005795922698
20	7.0	wm	171	diff_vonmises	0.3280531427237836	18.796060534075632	0.00028188258403489787	1814.0224337027564	3.8496178651918796e-30	1815.247528475821	-0.11359216957760054	-0.2763561383370643	0.16276396875946375	176.5986223476782
0	1.0	ltm	172	diff_vonmises	0.18387821334822022	10.535445569259137	4.279360704427378	0.42265639983667513	2.0844237563135694e-14	2.793257752347985	-0.10749744896533492	-0.4444960899487191	0.33699864098338417	66.13561152559416
1	1.0	perception	172	diff_vonmises	-0.05874817490222043	-3.3660224759936184	10.474517166054724	0.8284568353894972	1.6217639602552516e-16	3.4160425294588874	0.5123948880794829	-0.5436800535325179	1.0560749416120008	41.93274535134856
2	1.0	wm	172	diff_vonmises	0.12453389664686852	7.135266684183961	1.308764234144471	4.456965664846314	0.6084249102577884	7.141622630867227	-0.1293131772977809	-0.5578043139551534	0.4284911366573725	79.56376036448475
3	2.0	ltm	172	diff_vonmises	-0.06886301247107728	-3.9455599791494818	2.9274673058702367	0.7439176356915715	0.0858309219974065	2.1496597016789636	0.10836401463577605	-0.32217287977264497	0.430536894408421	75.95458678024735
4	2.0	perception	172	diff_vonmises	-0.048462717519547435	-2.776709177604782	9.878394713468579	1.0780919845788641	0.07988625223879403	2.5693086512226784	0.8915094589355248	-0.41796951966216656	1.3094789785976912	42.73054049233761
5	2.0	wm	172	diff_vonmises	-0.07193292104817858	-4.121452784108398	5.810601053285341	0.5486517744879175	0.0674072180962795	2.235746735839459	0.13496337580867945	-0.35537846024945924	0.4903418360581387	55.015835758076776
6	3.0	ltm	172	diff_vonmises	-0.07872867927412922	-4.510821049046681	0.8630179064286151	161.60283543544912	0.848826439133961	162.41099584996658	0.18458394216570895	-0.24959306649880197	0.4341770086645109	93.42540476480892
7	3.0	perception	172	diff_vonmises	0.05840953418252941	3.34661979198405	2.3463555848110826	4.023997426582957	0.6385064175163316	4.616471677292984	1.0247055257875575	-0.4511540498820984	1.4758595756696558	76.16382674924975
8	3.0	wm	172	diff_vonmises	-0.06871346568393379	-3.9369915794064188	2.7476116957983807	1.0712271909978708	0.3224253440830216	2.0354378280492162	0.2312742115157554	-0.27338960520383676	0.5046638167195922	73.2316338282238
9	4.0	ltm	172	diff_vonmises	-0.17402178049117972	-9.970713565496645	1.4953698394610913	0.7858266840022317	1.0289557626109224e-20	2.346155079771703	-0.033655928746822605	-0.3563298362321033	0.3226739074852807	110.50295277907341
10	4.0	perception	172	diff_vonmises	-0.008841912848944193	-0.5066042890669961	2.033528409926413	3.6167438892506363	0.33274038228285885	5.342100355856259	0.7308069469178702	-0.6151804116026399	1.3459873585205102	84.07699457103374
11	4.0	wm	172	diff_vonmises	-0.2885613108565651	-16.53334524284376	0.8166156940365892	63.34009766805129	0.7707604599308434	65.02682333650529	0.051877508709676334	-0.3938925954181478	0.44577010412782414	91.57191168955045
12	5.0	ltm	172	diff_vonmises	0.014908659274071574	0.8542032546028748	1.7337890712285924	0.8696866686088601	1.3062336822201374e-20	1.7739118079450042	0.12905737748333557	-0.2694945937925539	0.3985519712758895	103.66926617876393
13	5.0	perception	172	diff_vonmises	0.0057314057034974315	0.32838535748761133	2.7585669275246527	1.6523815295301063	0.029067647337037986	2.724332280135108	0.5850168277679343	-0.41694693716299713	1.0019637649309314	81.64948390645901
14	5.0	wm	172	diff_vonmises	-0.041733738490753396	-2.3911670788228436	1.5635752975960042	1.5949528434198654	0.14459764340958614	2.6690988180878557	0.2201218252348981	-0.3347653501223763	0.5548871753572744	99.70040938182244
15	6.0	ltm	172	diff_vonmises	-0.33483481802223763	-19.18462190670517	0.7402988058938309	1.668857889093057	1.0184827925169619e-20	2.6624047790704832	0.06397857954779973	-0.3127783916762097	0.3767569712240094	138.8987433809408
16	6.0	perception	172	diff_vonmises	0.24578006791595947	14.082160580023212	0.3560971894490588	6.578657707609207	1.4789213870623866e-21	7.340294804771382	0.2803548867646155	-0.457609458129967	0.7379643448945825	158.58606418850104
17	6.0	wm	172	diff_vonmises	-0.2927810507364152	-16.775118528602214	0.5576978027017139	115.96829594690546	0.5432162127924473	116.87680218813975	0.0845870689877799	-0.2591777356395646	0.3437648046273445	113.9965350947231
18	7.0	ltm	172	diff_vonmises	0.3084158399940338	17.67092596664024	0.8979643821509377	93.79135124662254	0.8763514048442793	94.65946182214438	0.11004425043428867	-0.23285931215088773	0.3429035625851764	89.62479115094129
19	7.0	perception	172	diff_vonmises	-0.056019624311995836	-3.2096880429858192	2.5949030203594576	1.4150600322307387	4.907749341282454e-17	2.0182319805108433	0.5311569189063412	-0.3164611064479159	0.8476180253542571	85.38331688443313
20	7.0	wm	172	diff_vonmises	0.2419849483341792	13.864716245239748	0.41551525045372734	18.52649292122703	0.35936991234148985	19.52724988623361	-0.03067592740536451	-0.23654799533698112	0.2058720679316166	127.64840086902842
0	1.0	ltm	173	diff_vonmises	0.18616980624295806	10.666744170489782	2.487999230498643	0.3826303987086321	4.2295322827325774e-19	2.478875602339075	-0.1696640418626038	-0.39297326678737493	0.22330922492477112	87.18077868778838
1	1.0	perception	173	diff_vonmises	-0.03839641138866864	-2.1999523210187615	9.790370962401903	0.8538117143880006	0.030625169211552863	3.2242043895268866	0.5224502432019774	-0.5167550711267858	1.0392053143287632	43.08463618501338
2	1.0	wm	173	diff_vonmises	0.13003235073012834	7.450304897001223	4.138882604804167	0.475998573099191	0.09749452771854968	2.989032504999682	-0.1503943602971396	-0.4705231264963291	0.3201287661991895	62.26218313783721
3	2.0	ltm	173	diff_vonmises	0.061096431835162106	3.5005676874635117	1.8519506725475827	0.9624561133704472	0.2074649427849767	2.1048189046890227	0.06604429583499438	-0.2695921677952071	0.3356364636302015	87.56350904913478
4	2.0	perception	173	diff_vonmises	-0.030509254474266615	-1.7480515174661002	8.715498458196777	1.2177778460483992	0.1896316317084558	2.609817858865691	0.9147591300515447	-0.4368006327370246	1.3515597627885694	44.91128090183915
5	2.0	wm	173	diff_vonmises	-0.042006518108958855	-2.4067961996832063	5.181103692006242	0.5995506185662016	0.15394756562932196	2.412166248066518	0.08460405789938885	-0.38577825454065007	0.4703823124400389	56.392363908486516
6	3.0	ltm	173	diff_vonmises	0.07894074786735292	4.522971684405676	0.9998923399395756	116.85231902311725	0.9839468142981882	117.42069118978425	0.16020503471999348	-0.18349474455648185	0.3436997792764753	87.27699573602408
7	3.0	perception	173	diff_vonmises	0.03358597507250649	1.924334622486211	2.615418841458917	3.8389152156507182	0.7363052531527619	4.48712202932211	1.0151596438854793	-0.4565999188405738	1.4717595627260531	71.59794393365988
8	3.0	wm	173	diff_vonmises	-0.04419099975107693	-2.5319577782003795	3.3528233370608773	0.6281471045576307	0.11036825155868865	1.7398661820110806	0.12974910549510343	-0.2622710978364522	0.39202020333155563	70.77609558973936
9	4.0	ltm	173	diff_vonmises	-0.2148264799146928	-12.308650626763848	2.282685078828266	0.5359178103901402	8.708553068064666e-21	1.9834530096401042	-0.01637948669821404	-0.3125616534205872	0.2961821667223732	90.96957169936863
10	4.0	perception	173	diff_vonmises	0.01098669884582167	0.6294914746468344	1.2470307497766495	15.79892964563583	0.852699546619424	17.570677779092488	0.6146498089230654	-0.6095796585930686	1.224229467516134	85.66716319633795
11	4.0	wm	173	diff_vonmises	-0.31708248229813646	-18.167487993214856	0.798894245999936	103.21295552789647	0.7672048354478688	105.28693345304706	0.007843136607146306	-0.46335220689526935	0.47119534350241565	90.77166596227082
12	5.0	ltm	173	diff_vonmises	-0.0067978871406439	-0.38949024276515054	2.3429502006807814	0.6783287366217444	0.07008735027142256	1.266575456450525	0.16878366769275424	-0.1846854986733033	0.3534691663660575	86.38603912752532
13	5.0	perception	173	diff_vonmises	-0.016673144092539005	-0.9553007877159659	1.7023946706741728	3.810295994429127	0.487161070152922	4.638918285267373	0.6489567224827921	-0.4086623554820583	1.0576190779648504	87.60076005178783
14	5.0	wm	173	diff_vonmises	0.03892969169696405	2.230507031981524	2.44926797893516	1.0092735914822015	5.998511664552554e-16	1.9893049480709073	0.27107456946650005	-0.31222490543481907	0.5832994749013192	87.88719499463042
15	6.0	ltm	173	diff_vonmises	-0.3244964951335127	-18.592279637937736	0.469609773653399	129.97633603082403	0.4579654740159596	130.64504463118533	0.12140657480575001	-0.24003305661618057	0.3614396314219306	125.14808552996939
16	6.0	perception	173	diff_vonmises	0.17733204316849446	10.160377645986456	0.6743165945038961	3.4640644136700796	8.29120185653342e-18	4.070543287807967	0.32093079815535497	-0.3963560214732629	0.7172868196286178	142.88735545614708
17	6.0	wm	173	diff_vonmises	-0.23008149507634185	-13.182698611934418	1.7803293806239113	0.9046387549528855	6.993942096034804e-17	1.6185091235987914	0.17727786109129695	-0.2452344112279655	0.42251227231926247	102.32174857409764
18	7.0	ltm	173	diff_vonmises	0.25949026180593215	14.867696826224696	1.0834851177371116	104.71561336601893	1.064487488875047	105.45386519591551	0.11232823913084644	-0.20520164253683504	0.3175298816676815	81.62201359843317
19	7.0	perception	173	diff_vonmises	-0.04837596494616323	-2.7717386212879678	2.109559417045446	1.632334102851808	3.1742478298483504e-14	2.266557645320899	0.5088669261696643	-0.34794020400658465	0.856807130176249	94.5707729414896
20	7.0	wm	173	diff_vonmises	0.24252389740724817	13.895595752499089	0.35398388216040466	23.28694804028322	0.3071451312501331	24.385762871894336	-0.03546759191462723	-0.26683706117084816	0.23136946925622093	135.42283212041798
0	1.0	ltm	174	diff_vonmises	-0.003973936027941793	-0.22768976245604713	0.00026910529782483034	1824.4876293707446	2.7564165514098834e-32	1825.8405581679947	-0.13717888583016702	-0.29346121178576823	0.1562823259556012	179.9798306343747
1	1.0	perception	174	diff_vonmises	-0.059414658596815544	-3.4042091788082045	13.11756874216685	0.7174642873598034	1.1145730332445286e-20	2.5582154859310076	0.618935633028252	-0.40715264007600827	1.0260882731042602	37.430927647532144
2	1.0	wm	174	diff_vonmises	0.012989294238995261	0.744231738748023	7.674579172390537	0.2517232543985348	0.07117528508562741	1.749894725317226	-0.025325211138567838	-0.2834511105763858	0.25812589943781794	47.56247478253289
3	2.0	ltm	174	diff_vonmises	0.1422543747081244	8.15057528804809	0.00047353237496053997	2317.5674680486927	1.0102547833948923e-26	2318.416108512907	0.03961826009117431	-0.30970755582444554	0.34932581591561984	179.24422172604477
4	2.0	perception	174	diff_vonmises	-0.024504273519340033	-1.4039914526923682	8.199646481607452	1.393812226053926	0.3670989719911758	2.750777938544693	0.9549428094288881	-0.4829544453123533	1.4378972547412414	45.39831450325951
5	2.0	wm	174	diff_vonmises	-0.09607645692112392	-5.504775492150868	5.8700732136062665	0.5759727128994114	0.31163775925094434	2.0886754448832283	0.10047783761677553	-0.35187577351090366	0.4523536111276792	51.439337819991835
6	3.0	ltm	174	diff_vonmises	0.1428817766398798	8.18652277079603	1.4403514427379518	131.04505459651818	1.4254335233490458	131.2467831442443	0.26194799785046996	-0.13422002795787336	0.3961680258083433	76.13386383854527
7	3.0	perception	174	diff_vonmises	-1.491700131881861e-05	-0.0008546812185593893	1.5927762341874165	304.9264416205303	1.565295258918184	305.6174358194597	1.1342435645814533	-0.5416225715381877	1.675866136119641	72.78474041101259
8	3.0	wm	174	diff_vonmises	-0.16341807923018128	-9.363166236023885	2.5631561886475542	1.0122541654493495	0.48009367058877794	2.005655965566632	0.11792648798403732	-0.2561418988548167	0.374068386838854	70.7966904408926
9	4.0	ltm	174	diff_vonmises	-0.164163980974658	-9.405903257913847	6.054128628188323	0.33807305764651185	5.21257012788206e-31	1.7788770008469097	0.04121541046808869	-0.2831152789907277	0.3243306894588164	55.38002565448957
10	4.0	perception	174	diff_vonmises	-0.04341030434054439	-2.487227226091632	1.747087034615523	4.297463100898311	0.4256927336765795	5.934810419798734	0.6597522505845905	-0.5850809032240367	1.2448331538086272	86.68010512491023
11	4.0	wm	174	diff_vonmises	-0.4473082611541613	-25.628875505469072	1.2854522791135454	208.0806020225802	1.2659971267373076	209.98648697489125	-0.006840052502212757	-0.46343798352050314	0.4565979310182904	70.04650843750672
12	5.0	ltm	174	diff_vonmises	-0.06704050834395663	-3.8411381845202945	1.5873908938801335	1.4257638843632123	0.6993332814546817	1.777274161734302	0.13365534949770264	-0.12328513082653844	0.2569404803242411	82.90535751568058
13	5.0	perception	174	diff_vonmises	0.012711015957313502	0.7282875676775055	1.0509363244341712	240.20957257621197	1.0312410022343965	240.94188520537796	0.6369546113478748	-0.39201858602118733	1.0289731973690621	88.74044165518484
14	5.0	wm	174	diff_vonmises	0.04467328652908081	2.559590775094965	1.5236908836478937	2.2699565524550516	0.5667703820815289	3.1532557367732488	0.17502373010263006	-0.2548093763972143	0.42983310649984435	85.16697966943562
15	6.0	ltm	174	diff_vonmises	-0.43681349035906863	-25.027569431953108	0.6289418743788614	126.69535234320303	0.6159764529704437	127.41225557895346	0.11899602729465641	-0.2223589499015386	0.341354977196195	108.90742944109165
16	6.0	perception	174	diff_vonmises	0.13033803121060034	7.467819098411799	1.3983026826678262	1.8728568950576836	3.33521807920795e-23	2.7192210571397704	0.34475404679614363	-0.3853305324447753	0.730084579240919	113.64475303558811
17	6.0	wm	174	diff_vonmises	0.05116250955498615	2.931395866798454	4.052679407191841	0.4995342182912676	8.618784306543885e-18	1.421149517654956	0.1606372597142898	-0.2260661823722999	0.3867034420865897	68.00033827557112
18	7.0	ltm	174	diff_vonmises	0.15213160870474446	8.716499109317555	2.120880431947434	17.916271815482606	2.011627579021808	18.259914990180608	0.12243767431977837	-0.14509462370499904	0.2675322980247774	59.57543383043509
19	7.0	perception	174	diff_vonmises	0.17833948701622607	10.218099926557896	0.19367338282928365	11.594032018006468	6.403057163808207e-10	12.599972429842605	0.21337097751206935	-0.49915382302881883	0.7125248005408882	168.06492464232184
20	7.0	wm	174	diff_vonmises	2.6001619136080203	148.97830370039935	0.7874345221099546	1.1520363562074922	0.7874115388900528	1.97959119511736	-0.051616921241211824	-0.24928791813436918	0.19767099689315737	207.9334448713434
0	1.0	ltm	175	diff_vonmises	0.21277176858237376	12.190924339304264	6.792431988384524	0.41754052002047815	0.006491919405895125	3.02937525931486	-0.05977256096612232	-0.481657692057197	0.42188513109107467	51.955015072000435
1	1.0	perception	175	diff_vonmises	-0.06838989427828528	-3.9184523034916436	7.570881494567486	1.1809797870057863	0.08190938872790673	3.609399838150181	0.6510417384082153	-0.5813922235112305	1.2324339619194458	48.511600349785795
2	1.0	wm	175	diff_vonmises	0.2455436946804843	14.068617391240632	0.6729455674300641	150.9337578143736	0.6496534174014668	154.33442163934473	-0.26641842568452745	-0.6555082876477663	0.3890898619632388	91.16920526419358
3	2.0	ltm	175	diff_vonmises	0.019861455592689353	1.1379775804476049	1.337197258145576	179.91256913711103	1.3190076025989508	181.0035546501	0.1545372755476535	-0.3133511747191413	0.4678884502667948	72.74025712279104
4	2.0	perception	175	diff_vonmises	-0.02646087791935171	-1.5160966269897642	7.5886997710816715	1.219335267758666	0.13396278502041686	2.255673801379592	0.9074774997213112	-0.3655603592675366	1.2730378589888478	48.454579496622756
5	2.0	wm	175	diff_vonmises	0.04927620002167024	2.8233182916841604	4.665710696600373	0.5934894410507023	0.15823207163400993	2.256562480429873	0.0778369303639454	-0.356529199221389	0.4343661295853344	59.11742136915694
6	3.0	ltm	175	diff_vonmises	0.1362355667010631	7.805722991543932	2.411468184065754	0.6387681663237749	1.843212474289099e-15	1.5585439717420284	0.12049769477783029	-0.24508561632698841	0.3655833111048187	88.55574316118768
7	3.0	perception	175	diff_vonmises	-0.0009146692714969671	-0.05240668890708186	4.109519445875579	1.7286725600222133	0.1659310524373367	2.683995741315584	0.8479919661258235	-0.4027416361411622	1.2507336022669857	64.85797918556824
8	3.0	wm	175	diff_vonmises	0.2956118067052841	16.937308898449867	1.8840690480857172	0.929414728153274	0.12465050333611073	2.4691427449429786	0.019014328797136437	-0.34059415855077346	0.3596084873479099	89.848725203989
9	4.0	ltm	175	diff_vonmises	-0.18488006286433484	-10.592847318239729	1.3979207550131483	1.2195952283335239	6.05235066089116e-16	2.6502391098348372	0.08444862456315766	-0.3908832583047114	0.47533188286786904	113.60687991774729
10	4.0	perception	175	diff_vonmises	0.05411499511261181	3.100560828323734	0.9513757892292142	495.7738574876172	0.9397718108716533	497.7632804749677	0.43575596865312605	-0.5990068781669677	1.0347628468200938	88.55067071459558
11	4.0	wm	175	diff_vonmises	-0.19006878512877087	-10.890139205057476	1.0450771854891716	4.05132658358261	0.2685931355306721	6.74632069972545	0.03930335998976897	-0.6344489330364883	0.6737522930262573	104.62865102360473
12	5.0	ltm	175	diff_vonmises	-0.027800025563245605	-1.5928241351297725	1.466101134588013	2.258387285775505	0.37490416047122926	2.900304299653459	0.3161919881849533	-0.2636060642772686	0.5797980524622219	94.77335434658681
13	5.0	perception	175	diff_vonmises	-0.02775516988373746	-1.5902540940067642	0.9962565739310153	333.7604462537558	0.9820092530716198	334.32173311082977	0.7104388708443281	-0.3892275188670631	1.0996663897113912	91.97431955409456
14	5.0	wm	175	diff_vonmises	0.04618227866910089	2.6460496560365296	2.0319146756402247	1.5518166165448926	6.424264697558297e-17	2.3170666792738093	0.4394476932411259	-0.3548838139160834	0.7943315071572093	96.28877453327897
15	6.0	ltm	175	diff_vonmises	-0.06449122027448222	-3.6950747373763577	0.4797929169025421	3.1730421101294195	4.777411378113402e-12	3.512627184987419	0.21188932963160356	-0.26373774161805624	0.4756270712496598	153.19605749348267
16	6.0	perception	175	diff_vonmises	0.10192347995924989	5.839785234951246	0.2497702564386781	7.881903440470498	8.003660982385071e-13	8.275201394611718	0.2685018964610373	-0.3549160557266663	0.6234179521877036	165.48929385817155
17	6.0	wm	175	diff_vonmises	-0.3739555601458308	-21.426075321806717	0.7104055183015777	95.79033810604531	0.6850748927534489	96.05830088450382	0.3869177006855189	-0.2461866307632512	0.6331043314487701	109.56492622685224
18	7.0	ltm	175	diff_vonmises	-0.040107832946110894	-2.298009553227909	0.4760369861050826	47.62238798987923	0.4253849427324441	49.31016132236462	0.05399068972990939	-0.4516574162200939	0.5056481059500033	123.22800317959806
19	7.0	perception	175	diff_vonmises	-0.05667059947504685	-3.246986172396483	1.2027808498688992	191.37857890566784	1.1734514449620586	191.8252459299059	0.8714699276864906	-0.402270931626024	1.2737408593125146	84.6234735563252
20	7.0	wm	175	diff_vonmises	0.5952788825730992	34.10696760470232	0.19830648476077736	190.17971810085805	0.1888405516394374	191.75318824787954	0.01149028430433674	-0.4619228534504174	0.47341313775475413	149.64020026394522
0	1.0	ltm	176	diff_vonmises	0.12892690551609093	7.386967551753943	0.5710908672807102	100.04725536043371	0.5514949300283962	102.09268596786374	-0.15493826066111538	-0.39734731024277536	0.24240904958165999	99.92189189584997
1	1.0	perception	176	diff_vonmises	-0.0859387005966818	-4.923924841028277	9.733960389951303	0.9784020035385338	0.008266372259846793	3.1225246136633764	0.7002636481922944	-0.49728566520652	1.1975493133988144	43.424913103137015
2	1.0	wm	176	diff_vonmises	0.06223545459472011	3.5658288843555295	6.204965943556785	0.2876730985524505	5.978435305064479e-20	2.732119879003467	-0.15526696684688412	-0.4348292434290784	0.2795622765821943	54.69025807947793
3	2.0	ltm	176	diff_vonmises	0.02854325557931389	1.6354080782579254	0.8812809454253924	111.59993245054093	0.8616387318108111	112.61688981880515	0.09722426460725586	-0.2612492794189052	0.35847354402616105	89.59059301060913
4	2.0	perception	176	diff_vonmises	-0.03555873094821074	-2.0373652081736995	8.072802784218522	1.3268920421368449	0.29001813551343164	2.423748205061102	0.9744045400577733	-0.4130971274425532	1.3875016675003264	46.22292375431647
5	2.0	wm	176	diff_vonmises	-0.027062112409687623	-1.5505448257837111	6.100146036762873	0.5199959662867606	0.18567900200549847	2.1504448646841694	0.09227756198095632	-0.3527167285573989	0.4449942905383552	51.91134213561878
6	3.0	ltm	176	diff_vonmises	0.11853538204440939	6.791577114115458	1.1353235634959382	121.55844233799061	1.1164851010857058	122.22340738609172	0.18556491367648675	-0.2137001191303316	0.39926503280681835	81.64017581405903
7	3.0	perception	176	diff_vonmises	-0.011069988553520737	-0.6342636233748693	2.9382307997393684	2.8808907636313434	0.5096696300810856	3.765794548346283	0.9284988857859805	-0.4634975132877082	1.3919963990736888	70.7139296554715
8	3.0	wm	176	diff_vonmises	0.05582442232001439	3.198503792692736	3.0745442913963466	0.7080746768458408	0.29483903371715414	1.9776248446455007	0.056630866735223384	-0.2876937195650714	0.3443245863002948	68.06816078339477
9	4.0	ltm	176	diff_vonmises	-0.10324406889109587	-5.915449407217711	2.1700814629398097	0.7263774501668199	1.7969382168318982e-17	2.1282028819958567	0.054885048928516866	-0.3335836550452773	0.3884687039737942	93.27541723111973
10	4.0	perception	176	diff_vonmises	-0.012342495845121662	-0.7071729205832255	0.9169459538309348	476.9431927179511	0.9051233887413372	478.69133414750814	0.5074403187364567	-0.5759229581376957	1.0833632768741523	91.32518354596496
11	4.0	wm	176	diff_vonmises	-0.20277705945881808	-11.618269689063625	0.9282824425540313	210.63074827241817	0.9102716625835193	212.7639831342343	0.029158360991146992	-0.48739228047337235	0.5165506414645193	83.94494645602452
12	5.0	ltm	176	diff_vonmises	-0.025306646364482394	-1.4499640303149297	0.9994766000347187	49.54409709680771	0.9528751015081847	50.22128419669974	0.21222831795187602	-0.2267697870091654	0.4389981049610414	88.39415975271356
13	5.0	perception	176	diff_vonmises	0.0029678998282889808	0.17004813417856032	1.0108657527996814	268.9141647761914	0.9930957022018099	269.77371261304995	0.611229030641681	-0.4135435730876438	1.0247726037293248	89.92104738656931
14	5.0	wm	176	diff_vonmises	0.036669757048307855	2.1010223146381435	1.9719656308176325	1.3338623712485953	0.0772515671541392	2.275403206623248	0.2916245072050739	-0.3215025082558538	0.6131270154609276	93.59399850995416
15	6.0	ltm	176	diff_vonmises	-0.24440934385598967	-14.003623876509906	0.6214183933552194	95.78716763405288	0.6002877734565771	96.58510023895724	0.17154249071407435	-0.27016776944563414	0.4417102601597085	110.99594282821545
16	6.0	perception	176	diff_vonmises	0.1568930129502055	8.989307477138144	0.5057487298224557	4.083717040926369	1.790708865022797e-16	5.034507975627372	0.2107325421733185	-0.433228979751041	0.6439615219243595	151.42068905205196
17	6.0	wm	176	diff_vonmises	-0.21691329343330834	-12.428216234011362	2.019096005440851	1.1407992285045276	0.07323542852935554	1.9197950793044711	0.2635567319943417	-0.2731525463794033	0.536709278373745	92.83643603353943
18	7.0	ltm	176	diff_vonmises	0.032796768637474376	1.8791164245943053	1.149649436535012	203.33349960196944	1.1361524206253324	204.50432891152929	0.0810050917032612	-0.29801235574528206	0.37901744744854327	76.91520655965604
19	7.0	perception	176	diff_vonmises	-0.09933807158521393	-5.691652246801206	2.366545090639525	1.7022031687199564	6.393657257763093e-16	2.5709017931563554	0.5620568308445502	-0.4006250718109199	0.96268190265547	89.39533642139824
20	7.0	wm	176	diff_vonmises	0.5302134851863569	30.378994942100448	0.3777054002618663	78.02512600809743	0.35978181622731836	79.36472151957548	-0.04113588665065748	-0.31989448011186816	0.2787585934612107	128.7238300583847
0	1.0	ltm	177	diff_vonmises	0.3454847672201449	19.79481904777399	0.6502196406562697	117.32778829183401	0.6336811903129583	119.35962133724196	-0.18395451577608668	-0.3824851834898695	0.1985306677137828	90.5475864484479
1	1.0	perception	177	diff_vonmises	-0.03485046447396601	-1.996784528428865	9.11435274914492	0.8723925901224527	8.465027109380954e-19	3.1354394075692804	0.5364937962597508	-0.4990206679330615	1.0355144641928122	44.98359328327814
2	1.0	wm	177	diff_vonmises	0.3055628265790745	17.507460339068864	5.532069815299705	0.23350480748679556	0.09374868095680301	2.6229737567273728	-0.2438776116267747	-0.4247352512396894	0.1808576396129147	53.32627489539564
3	2.0	ltm	177	diff_vonmises	0.33546160322409807	19.220534053433028	0.37953948943601507	116.31146162110316	0.3681081332736363	117.47077538281712	-0.015326655777165854	-0.2899643187919896	0.27463766301482373	130.21421257115605
4	2.0	perception	177	diff_vonmises	-0.036707189022341304	-2.1031670087691032	8.486859775302223	1.4431746207339762	0.36355597091951675	2.8150834185744062	1.027380210231826	-0.49633591286006606	1.523716123091892	44.71759533279362
5	2.0	wm	177	diff_vonmises	-0.030551585878592656	-1.7504769282748442	6.211448911761143	0.46038469404367827	0.1511358853065856	2.4749674526587246	-0.007859824367917323	-0.405314569802312	0.3974547454343947	51.39721085585188
6	3.0	ltm	177	diff_vonmises	0.11729910795036466	6.720743826205336	1.3885394037893164	115.49665562283325	1.3730183976945836	115.90995677281448	0.15138888338513823	-0.1486233796686367	0.30001226305377493	74.14752131573186
7	3.0	perception	177	diff_vonmises	0.018064055060703924	1.034994115870271	1.40532829844119	352.6346897911387	1.3867952185362045	353.24062394001663	0.9170006021672066	-0.4459948136630487	1.3629954158302553	77.4777147002747
8	3.0	wm	177	diff_vonmises	0.00479381426840255	0.2746653253490605	1.8904267358909255	2.1303782845611807	0.9186786432833092	3.1475219601463023	0.03517006044559401	-0.2584865584411152	0.2936566188867092	68.88011865511507
9	4.0	ltm	177	diff_vonmises	-0.00181890479464157	-0.10421556806907169	10.762160454941876	0.14765876196916713	2.140566204169237e-23	1.5404825928742782	-0.054275435916163045	-0.24517541931727166	0.1908999834011086	41.355928201699015
10	4.0	perception	177	diff_vonmises	0.006083578213020439	0.34856335594381044	1.0232861592099827	271.5045983881962	1.0017343092526385	273.3207877697918	0.48445175000780694	-0.5757031013967122	1.0601548514045191	86.14733647629262
11	4.0	wm	177	diff_vonmises	-0.32607120629627345	-18.682503941516064	0.8945859865738953	126.84986855108379	0.8694495077805046	128.94159283831155	-0.05511533601306695	-0.4488825689932092	0.39376723298014227	83.38703724802957
12	5.0	ltm	177	diff_vonmises	-0.04286108982647357	-2.4557595523880456	1.23709246189382	38.637032034590646	1.1785506105685601	39.65846490094449	0.03407922727915036	-0.25336898092004834	0.2874482081991987	73.55250177418841
13	5.0	perception	177	diff_vonmises	-0.007856531320418634	-0.4501460862723316	2.3857995540105317	2.1237954785968167	0.1948513003936073	3.645582132940956	0.5191720807191225	-0.48850582990223346	1.0076779106213558	81.66023121897985
14	5.0	wm	177	diff_vonmises	0.17721617620704558	10.153738958110429	2.6596161358501216	0.8268008980484433	0.0963797030885398	2.4928101377352854	0.06936190537464171	-0.36875618035724517	0.4381180857318869	78.62481336341082
15	6.0	ltm	177	diff_vonmises	-0.27999853383618933	-16.042734258664623	0.7110245278741328	124.2328951121423	0.6931432076465867	125.6113053154351	0.03301434030933592	-0.3215960763849406	0.3546104166942765	97.3397193172881
16	6.0	perception	177	diff_vonmises	0.2652403488488506	15.197152545616783	0.21725737460712916	141.9280049258227	0.1992197120988782	143.61790539354456	0.11994976021905757	-0.5793878978679032	0.6993376580869608	153.4702226635132
17	6.0	wm	177	diff_vonmises	-0.2555134513398561	-14.639842370595083	1.8443044449235715	0.9026987105021573	1.4809128879814644e-15	2.503378401085129	0.044919531229682175	-0.38733762531901955	0.4322571565487017	100.6623520833366
18	7.0	ltm	177	diff_vonmises	0.018795028254074725	1.076875794787618	1.005529248256364	88.44816451824742	0.9822113079082317	89.66115886889719	-0.020048803163028595	-0.26923311666235783	0.24918431349932924	78.98420459535828
19	7.0	perception	177	diff_vonmises	-0.13655113258596965	-7.823803584907388	3.158063675178888	1.2767045060818185	3.11389899043894e-18	2.302006544229947	0.49452846577163767	-0.3648200825742458	0.8593485483458835	77.27985551378359
20	7.0	wm	177	diff_vonmises	0.5890421828078823	33.74963103006516	1.6525097711016836	0.8719979951705067	0.221440583238132	2.5097658405917898	-0.09180669871266944	-0.3225739254897885	0.23076722677711908	86.11283900445753
0	1.0	ltm	178	diff_vonmises	0.2537750171258191	14.540237427169624	0.6653653204822195	54.20733443060269	0.6160499094458647	57.065043134482984	-0.2598696055060241	-0.5374886806843797	0.2776190751783556	90.58714499445878
1	1.0	perception	178	diff_vonmises	-0.028554728056694685	-1.6360654027924044	7.833721505396282	1.0286347021947715	0.06377804127382322	3.9808462363534116	0.4542486020477011	-0.6404964926633819	1.094745094711083	47.73668204030679
2	1.0	wm	178	diff_vonmises	0.20171271788803774	11.557287409097587	3.178647824699634	0.4878639261414118	0.06731758516086427	3.975127590565452	-0.34579088231178917	-0.6182002978605872	0.272409415548798	70.02105051920233
3	2.0	ltm	178	diff_vonmises	0.08592029629013384	4.922870351938213	0.9729274863101538	132.36198511151377	0.9537414782295822	133.65238456500458	0.0521817014306194	-0.30758267328503663	0.35976437471565603	83.09114317118963
4	2.0	perception	178	diff_vonmises	-0.036927894611429785	-2.1158125075388217	8.541642176803588	1.283014601782099	0.23243338032994773	2.6821541186459474	0.9413448860873769	-0.45419976683581426	1.3955446529231912	45.145698745313524
5	2.0	wm	178	diff_vonmises	0.035720603490371476	2.046639821658563	4.984628710071112	0.5850996007283639	0.09083939910260791	2.660897318563223	0.04371705157062694	-0.42111327199947624	0.4648303235701032	58.41033714406211
6	3.0	ltm	178	diff_vonmises	0.11517770978664066	6.599196664757147	1.5982524599944485	1.3831546236231878	0.4957664945797883	2.152227213356871	0.09329198596890942	-0.2005128013086142	0.2938047872775236	84.22845562920185
7	3.0	perception	178	diff_vonmises	0.012554633850686902	0.7193275329764365	3.4168842212939285	2.2637284464099556	0.3397604515084619	3.16530467654645	0.9078639640921051	-0.43733286429342605	1.3451968283855311	68.40543203491129
8	3.0	wm	178	diff_vonmises	0.13476902465849383	7.721696322026217	2.6543565212213864	0.63150797812431	0.12657431755109375	2.0574853849026415	0.015283510682558177	-0.3020731098247269	0.3173566205072851	76.90983131352746
9	4.0	ltm	178	diff_vonmises	-0.11615034472490718	-6.654924541726786	0.9727188686387414	0.9831316097870129	8.707798008464339e-16	2.58511744903059	-0.08057326904919754	-0.36414436755011226	0.2835710985009147	129.62674659561608
10	4.0	perception	178	diff_vonmises	0.04041066704240911	2.315360668838455	0.9656326815636639	322.03788834462836	0.9465953493372605	324.0937333493432	0.4820432428235648	-0.6301170100950024	1.1121602529185672	88.28933166065181
11	4.0	wm	178	diff_vonmises	-0.2158029716213756	-12.364599480286298	0.9971571117563833	3.8259826036133857	0.25733713118571544	6.640702332901103	-0.03942475663778233	-0.6293174273904181	0.5898926707526357	105.5364019363912
12	5.0	ltm	178	diff_vonmises	-0.007494099441489125	-0.4293802692486743	1.3565432268302697	2.9703599699216667	0.5676528774990308	3.9756990921075324	0.1794919033639355	-0.285526552678942	0.4650184560428775	88.2668307840101
13	5.0	perception	178	diff_vonmises	-0.02960373158832867	-1.69616887784935	1.4293126561862146	5.566919386848161	0.5483223082075595	6.775299912312334	0.6088195354863328	-0.4878921564976369	1.0967116919839697	90.51752603684722
14	5.0	wm	178	diff_vonmises	0.0664272382882367	3.8060003986257898	2.2630763392033275	1.2770696182660628	1.1931899500127866e-16	2.628731743710739	0.2911938606020046	-0.4106963254707181	0.7018901860727227	91.38788332156884
15	6.0	ltm	178	diff_vonmises	-0.18772898083269127	-10.756078294005537	0.44665206176692984	72.38498362631488	0.4219981588013263	73.24440855445397	0.1301088108901176	-0.2986704313029005	0.4287792421930181	128.2375144974666
16	6.0	perception	178	diff_vonmises	0.19525607697029762	11.187349134679604	0.22272167187789527	10.246616974829895	2.648028479547631e-19	11.299471741207965	0.21423442052948327	-0.5092116677429763	0.7234460882724596	166.30120462193256
17	6.0	wm	178	diff_vonmises	-0.3668919869423921	-21.021362388967976	1.3371105354487756	1.6857293150444366	9.243754246672698e-13	2.649220936301253	0.25971652896772307	-0.374650130102708	0.6343666590704311	115.18416514943043
18	7.0	ltm	178	diff_vonmises	0.24496506314021493	14.035464246090044	1.1922490193872732	1.1171608888231035	0.05073059355989538	2.6383731178716325	-0.019521355917486716	-0.36000539614910443	0.3404840402316177	115.56489426687853
19	7.0	perception	178	diff_vonmises	-0.0821108047656339	-4.704602565493509	2.633222912178365	1.9642040881248661	0.13987827876740677	3.00046482302031	0.646731979197657	-0.42013719289882506	1.066869172096482	80.24623536245406
20	7.0	wm	178	diff_vonmises	0.7394885090291974	42.36957056579488	0.23160217465783092	93.49462837660323	0.21535583709751183	95.28758601162744	-0.0844760485185887	-0.43956937363274484	0.35509332511415614	142.23438454459938
0	1.0	ltm	179	diff_vonmises	-0.2541007742708116	-14.558901936723924	0.0006003081016501017	853.1466442844652	9.180309447510916e-25	855.1369004347147	-0.23523795258626023	-0.39825579301924563	0.1630178404329854	178.1284635895027
1	1.0	perception	179	diff_vonmises	-0.03106799368801161	-1.7800649162621467	8.396721154284013	0.975571207421703	0.07450444204499007	3.1640315201417453	0.5681375330872832	-0.5114298525535663	1.0795673856408494	46.15615181315914
2	1.0	wm	179	diff_vonmises	0.2687773963724967	15.399810440658904	2.01921111246077	0.6375668216235904	1.1401643463106324e-18	3.0351068416276235	-0.15225182660139852	-0.47722124006037314	0.3249694134589746	96.47048716115344
3	2.0	ltm	179	diff_vonmises	0.31169025613744417	17.858536192027156	1.1055619364076639	113.39299892065276	1.0857128874333632	114.26548446587547	0.109383665600987	-0.23547586906501472	0.3448595346660017	80.17451671257555
4	2.0	perception	179	diff_vonmises	-0.0033366228439285508	-0.19117440678404393	6.745918766602728	1.6730488641605263	0.4724162247900372	2.600546028759808	1.070570525165894	-0.4437422438202312	1.514312768986125	49.464937852900846
5	2.0	wm	179	diff_vonmises	0.0889500149773661	5.096460445828538	7.260111706746354	0.4578724861934473	0.037634003733316636	2.0041672718685724	0.15200557855388686	-0.31983287196371846	0.4718384505176053	49.7989604443797
6	3.0	ltm	179	diff_vonmises	0.30903371184219186	17.706327415819644	13.301504355889778	0.21649840394408473	1.1393763101494235e-37	0.7001671906423316	0.20044735394122132	-0.11143506938062034	0.3118824233218417	37.16464486936013
7	3.0	perception	179	diff_vonmises	0.019404034596399975	1.1117692878995542	4.806008455687757	1.934280820072709	0.37102704343951776	2.5213684286711273	1.0801523624319285	-0.38269394872452234	1.4628463111564507	58.790788163131396
8	3.0	wm	179	diff_vonmises	0.25803716193036896	14.78444033614394	0.5934819338702993	66.08768579986346	0.5692954237754286	67.278863538123	-0.007458457456181122	-0.27017522255533954	0.2627167650991584	105.66536014200898
9	4.0	ltm	179	diff_vonmises	-0.42786043010094993	-24.514596865436598	2.64661481606646	0.621681171739267	9.371530402471739e-17	1.9765593482725823	0.06419752313617627	-0.3126752852738349	0.3768728084100112	84.4597625083872
10	4.0	perception	179	diff_vonmises	0.03673125246399941	2.104545742416672	2.141940147382413	3.2320959209414175	0.40481157521207545	4.965142380925464	0.6002169057445632	-0.5668521681811896	1.1670690739257528	80.13735626103266
11	4.0	wm	179	diff_vonmises	-0.3969706894264758	-22.744745094535638	1.6917401038706388	1.2333502086887755	1.4216887402842023e-21	3.906537408895638	-0.047001117574070994	-0.6022435110687849	0.5552423934947139	104.42996082383958
12	5.0	ltm	179	diff_vonmises	-0.11556643218835476	-6.621468817777554	1.3659094330333725	1.596462867050678	0.46463573810874936	1.9238053771536046	0.19154167418540752	-0.1462125238717622	0.3377541980571697	94.83483641305921
13	5.0	perception	179	diff_vonmises	-0.027773591636381535	-1.5913095826845036	1.0984561633044057	300.736097601773	1.0826627843157692	301.004270817957	0.7943634931895645	-0.3459473357338574	1.1403108289234218	88.92564218879056
14	5.0	wm	179	diff_vonmises	0.08123038737332576	4.654158364704339	2.376678640068481	1.170537127966398	8.690432795762955e-17	1.7507337080165153	0.39092335930982614	-0.2728639991506432	0.6637873584604693	89.20710588281406
15	6.0	ltm	179	diff_vonmises	-0.32399570774051334	-18.56358663388551	0.4224311715212139	76.63193119882429	0.4062180091710345	76.80085953088322	0.18987714820152846	-0.1678265765178839	0.35770372471941236	133.50329346232394
16	6.0	perception	179	diff_vonmises	0.08778040030924089	5.029446461688369	0.5997761764816187	143.75640138242957	0.5800218936813982	144.12692231950666	0.43995227722777486	-0.3255913287404457	0.7655436059682206	118.02332435992383
17	6.0	wm	179	diff_vonmises	-0.1729509076843837	-9.909357073271904	2.3248703678350946	1.0410151873094844	1.3344740171727554e-13	1.2591576461051401	0.3873637768953764	-0.19477969916372562	0.582143476059102	90.16514852636664
18	7.0	ltm	179	diff_vonmises	0.17565888399222532	10.064512686732648	1.1788793531070285	188.06518049883243	1.1652355433939863	189.27495045051364	0.025023155037160905	-0.2930834189802418	0.3181065740174027	74.22185947397497
19	7.0	perception	179	diff_vonmises	-0.0370423269119861	-2.122368995400671	1.3210461070370643	4.064747414136088	0.3353767504908869	5.093504799496799	0.5286556793181261	-0.45155289985100144	0.9802085791691275	100.14572450120048
20	7.0	wm	179	diff_vonmises	0.35682792731863133	20.444734247758465	0.001170636652488077	807.6956752276983	9.465852834565947e-27	809.1605113499955	-0.08261253580624839	-0.38357121321305954	0.30095867740681115	175.97169369007412
0	1.0	ltm	180	diff_vonmises	0.2512363818951736	14.394784342730414	4.0197804349110235	0.5381613038061861	0.07715215205399552	2.645637422375421	-0.03931648612973865	-0.4130148365427824	0.3736983504130438	64.63331438012725
1	1.0	perception	180	diff_vonmises	-0.06871587472065757	-3.9371296070433837	9.445189903150125	0.8949534096032676	5.741665275107812e-20	3.032769253760055	0.5993035119526815	-0.48268021122849625	1.0819837231811777	44.17578066599614
2	1.0	wm	180	diff_vonmises	0.17739428871040325	10.163944052831333	0.9325645613543493	173.59648833219865	0.9113819291980336	176.0969500468522	-0.11283080004276513	-0.5264346411597991	0.41360384111703397	80.10573144488188
3	2.0	ltm	180	diff_vonmises	-0.10256109224262099	-5.87631772775411	1.7847421349889956	1.928398635229529	0.5262590314558433	3.2715185498777557	0.10511212501961276	-0.3312982623368459	0.43641038735645865	79.16529005423945
4	2.0	perception	180	diff_vonmises	-0.04050456038266766	-2.3207403609596557	8.117876748186799	1.2007190601837212	0.09211945328968839	2.583791261529948	0.8923563318450981	-0.41728401200340404	1.309640343848502	47.03531581095021
5	2.0	wm	180	diff_vonmises	-0.05524330690512075	-3.1652083320093367	5.542323966506925	0.5629138049898835	0.14237976381243433	2.288170360775025	0.09775871236236688	-0.3675370561180421	0.465295768480409	54.90027391115038
6	3.0	ltm	180	diff_vonmises	-0.012058531364424181	-0.6909029543076356	0.8731786281704559	187.59270496712517	0.8605062860342725	188.39534773410574	0.20038195874155917	-0.2540502984557378	0.45443225719729696	93.14070852453608
7	3.0	perception	180	diff_vonmises	0.05511159185881791	3.1576616157578137	1.5675153267176618	12.491089329172116	1.0486669657261107	13.119165659148223	0.9535525854014653	-0.4621991408325873	1.4157517262340527	80.26967800145601
8	3.0	wm	180	diff_vonmises	-0.03927820777199782	-2.2504755321734238	2.3846948107701467	1.380628125961828	0.5057173059611355	2.4145080976719258	0.1929975161633447	-0.2880522277819695	0.4810497439453142	73.29979220270931
9	4.0	ltm	180	diff_vonmises	-0.09572488501129975	-5.48463190552259	2.198506087849714	0.6124208986415217	4.0355161526801667e-32	2.1022699269603047	-0.00016596544798513913	-0.33046792063593977	0.33030195518795463	92.69265510710557
10	4.0	perception	180	diff_vonmises	0.004380922090616389	0.2510083461679483	1.0161485104167418	409.84015286368526	1.000243154054751	411.71397930189096	0.5918497538995666	-0.6271565166087711	1.2190062705083378	86.94508574611322
11	4.0	wm	180	diff_vonmises	-0.33864773266783793	-19.403085823541687	1.2520515857792167	3.2178331101234403	0.499356188468933	4.954940066815957	0.028815457625135155	-0.393090742843434	0.42190620046856914	88.04777204023988
12	5.0	ltm	180	diff_vonmises	0.03262694007450995	1.8693859646956716	2.279264618172874	0.6790571437366817	1.4326599925208294e-18	1.4866030972363227	0.14230820996532698	-0.23263018723385853	0.37493839719918554	91.07261175635492
13	5.0	perception	180	diff_vonmises	-0.002516668465440153	-0.14419448150338626	2.4497259794130195	1.9388040008831713	0.12001724086456708	2.8798690546995522	0.6141338188264738	-0.4026172834963251	1.0167511023227989	83.60717757124033
14	5.0	wm	180	diff_vonmises	-0.01837427777345947	-1.052768568020263	1.7721324062499395	1.299119132989938	0.08925743206973344	2.3693865195477644	0.2112708041938421	-0.3262217820173643	0.5374925862112063	97.1889030925301
15	6.0	ltm	180	diff_vonmises	-0.30242415943370454	-17.32762795834279	0.813266737002637	1.4200945813309471	3.6121299117474214e-16	2.331290833622018	0.06375937870813991	-0.2855489996282262	0.34930837833636613	135.83340231318493
16	6.0	perception	180	diff_vonmises	0.1887783368361987	10.816201964213228	0.2007493232492547	109.45351618908677	0.18033717957897288	110.17273642824762	0.2499190426905713	-0.4136672221983648	0.6635862648889361	157.05442646031707
17	6.0	wm	180	diff_vonmises	-0.3053937226138	-17.497771395559706	0.5629735116980611	111.56660284246504	0.5489168679853194	112.4302595074398	0.07435548886892107	-0.2419707127895272	0.31632620165844827	113.16595486619944
18	7.0	ltm	180	diff_vonmises	0.25859975874466784	14.816674759170771	0.8624513356526715	46.28366650864256	0.8190327756434195	47.20628984985477	0.1000305567536035	-0.24209986649188409	0.3421304232454876	91.68085104479451
19	7.0	perception	180	diff_vonmises	-0.06854693119067345	-3.9274498557992517	2.7871135087442753	1.4572568430148924	5.5742051059515265e-14	1.9184495597151698	0.6096520309919148	-0.3018588975709183	0.9115109285628331	82.35738927473415
20	7.0	wm	180	diff_vonmises	0.31261484217958346	17.911511070038443	0.30159915592359793	44.25441728076818	0.28008874580276616	45.31233754764244	-0.04862297001955618	-0.25165504019388596	0.20303207017432978	139.79819039546783
0	1.0	ltm	181	diff_vonmises	-0.2105857532920129	-12.06567488921552	0.5789982121885359	1.501688210048955	1.796020700032529e-16	3.1929905597041666	-0.11536098546262791	-0.3847897574929792	0.2694287720303513	147.4872558556134
1	1.0	perception	181	diff_vonmises	-0.09927205835644777	-5.687869967400873	13.989775366494026	0.8330283443726564	4.574134725747614e-20	2.9637344352222708	0.7595796263996613	-0.4716929853764218	1.231272611776083	36.23296206834513
2	1.0	wm	181	diff_vonmises	-0.016261649425788078	-0.9317238800189955	5.855015556336915	0.4826978707472636	1.0455961307184836e-17	2.291791244289186	0.0903203460373374	-0.36474616843278945	0.45506651447012686	56.32641814116104
3	2.0	ltm	181	diff_vonmises	-0.04339672856430319	-2.4864493914093972	2.023533668146317	0.8877642653300832	1.1837572194610785e-15	1.8032150410396965	0.17420858481107088	-0.2789306278538528	0.4531392126649237	96.48409992145372
4	2.0	perception	181	diff_vonmises	-0.04718624051508878	-2.703572432603799	10.192892246666652	1.0777616246066888	0.1758667584160683	2.165197133555536	0.9471851067843318	-0.3653191845698882	1.31250429135422	41.75780353504436
5	2.0	wm	181	diff_vonmises	-0.10138932867520592	-5.8091806207540335	7.014185113063182	0.4987096732803303	0.11612224391552711	1.542819635493102	0.24195261246019334	-0.249605440777353	0.4915580532375463	49.97609809043456
6	3.0	ltm	181	diff_vonmises	-0.09505834981292959	-5.446442251759064	2.17252334515721	1.0936524070341318	0.19192581362881195	1.7171559788465895	0.2648872709542943	-0.22325091453270074	0.48813818548699506	85.59452657943444
7	3.0	perception	181	diff_vonmises	0.02271959328757941	1.301736807632055	3.250307990643167	2.8757576694969953	0.4930287784808143	3.41119023236956	1.1336301347510247	-0.43496988038746864	1.5686000151384933	68.73654149597672
8	3.0	wm	181	diff_vonmises	-0.1001851589755042	-5.740186779143589	2.88105167383998	1.055971456210597	0.3050246268845546	1.7892850337894062	0.29826866819308834	-0.24149402543327073	0.5397626936263591	73.0178229664347
9	4.0	ltm	181	diff_vonmises	-0.2716808039673062	-15.566163442047717	2.1306281689219193	0.9377447373446139	3.77280378243855e-21	2.286704514922276	0.13859884299500214	-0.356851361551091	0.4954502045460931	94.04151499790903
10	4.0	perception	181	diff_vonmises	-0.060295563315678216	-3.454681301352194	2.608062165091826	2.4261812373393923	6.462882402598839e-16	3.6150672329997797	0.8902935887207635	-0.5673984889381064	1.4576920776588698	85.16938397521304
11	4.0	wm	181	diff_vonmises	-0.27138419668930114	-15.549169096845164	1.1797046374988251	169.9004718650342	1.1601589666258978	171.1610960209506	0.14740853025671186	-0.3408760772009991	0.48828460745771096	77.25448589256769
12	5.0	ltm	181	diff_vonmises	-0.08815059212223288	-5.050656890183107	1.0663315557577107	1.4107728884532624	2.1066660121032317e-15	1.894290203085484	0.19823754318269904	-0.24225778869259681	0.4404953318752959	125.81640748693921
13	5.0	perception	181	diff_vonmises	0.038018075874180116	2.1782752927986584	1.7385019396839643	3.44905724193385	0.5620368687545216	4.06820467783957	0.5830272449391096	-0.3359184172682086	0.9189456622073182	85.60506305219224
14	5.0	wm	181	diff_vonmises	-0.07562396660802338	-4.3329341166780075	0.7841470280003534	107.26574244051982	0.7619024517937001	107.76172230043511	0.3086350973994847	-0.24321006521462607	0.5518451626141108	102.0942738465451
15	6.0	ltm	181	diff_vonmises	-0.38831687685428945	-22.24891815745211	1.151576060051104	1.3315530231807151	5.383710395146485e-17	2.0855008825754946	0.16096558083096474	-0.282656307986322	0.44362188881728676	121.60441927998455
16	6.0	perception	181	diff_vonmises	0.24418114122773477	13.990548829037108	0.7068655752017375	3.3638792598279665	6.286609627150266e-17	3.901775708696558	0.34063496834150153	-0.3870877116536496	0.7277226799951511	140.96179244115814
17	6.0	wm	181	diff_vonmises	-0.1481578517341873	-8.488819606093937	2.595808185058083	0.6404397818248092	6.582986256549848e-17	1.193253122589494	0.19590882136328353	-0.1877654023315943	0.3836742236948778	85.36422772743501
18	7.0	ltm	181	diff_vonmises	0.24074000883498375	13.79338646618672	1.4541288783276434	167.18263242529233	1.4380840531565677	167.84858220411743	0.19323709907953912	-0.22664082111188577	0.4198779201914249	71.60952430449728
19	7.0	perception	181	diff_vonmises	-0.013526578356360062	-0.7750158510724376	1.2375827187303472	2.1478882493434637	6.2761551413107025e-18	2.7787570359665406	0.38695218930316305	-0.37247474970212946	0.7594269390052926	119.31176752235407
20	7.0	wm	181	diff_vonmises	-0.13174073184918925	-7.5481879249232495	0.00029738092417143825	2507.8110862772783	1.4921138308606332e-29	2508.4499690327348	0.017017589511510778	-0.22036264024382035	0.23738022975533113	179.4884016368673
0	1.0	ltm	182	diff_vonmises	-0.6429151215829735	-36.836323051844566	0.8955071769133945	0.7400068008886181	4.9164426765235414e-18	2.2417363280045706	-0.11860049679110876	-0.31705638391685487	0.1984558871257461	129.18713595956996
1	1.0	perception	182	diff_vonmises	-0.05296776122824749	-3.034829168635259	9.501597981643863	1.0179988682766798	0.12510823607296845	2.971230468927256	0.700710387021436	-0.4916783302898884	1.1923887173113243	43.19382278786131
2	1.0	wm	182	diff_vonmises	0.20367204773077863	11.669548739760671	1.82059135806698	0.6869648294204601	8.520564565784418e-20	2.407899111030959	-0.04848012833699533	-0.3744509581790131	0.32597082984201775	101.29318760131883
3	2.0	ltm	182	diff_vonmises	0.2608608306407726	14.946224635993216	1.022529840796292	78.67431735251509	0.9993577347006083	79.20330376106726	0.16384178567426844	-0.1758346843306411	0.3396764700049095	86.75095426656165
4	2.0	perception	182	diff_vonmises	-0.01095014268876973	-0.6273969611325408	8.130052272246092	1.3802388491954731	0.48729893552584325	2.020545663948693	1.0503729290461807	-0.36070117027868837	1.4110740993248692	45.513308740092384
5	2.0	wm	182	diff_vonmises	0.00026808257660947333	0.015360000200715384	7.924009188011834	0.4056259850489203	0.0778212480363899	1.349165413550671	0.21611738949789117	-0.2177642333446807	0.43388162284257187	47.42821145754539
6	3.0	ltm	182	diff_vonmises	0.1583641167472985	9.073595515937242	4.473501159982559	0.2699564522414446	5.4953253508058176e-17	0.473607789657551	0.14516186841850082	-0.07534832261126964	0.22051019102977046	64.64091901895875
7	3.0	perception	182	diff_vonmises	0.02292800393124904	1.3136778579199295	4.601874920469552	2.086947688499247	0.6459987845527941	2.3098922727776428	1.0974039584052275	-0.33539547555624355	1.4327994339614711	58.39937680617746
8	3.0	wm	182	diff_vonmises	0.020897182037088624	1.1973203344417742	2.1643420905042787	0.5479400582688551	4.1442986347793897e-20	1.1525747260653108	0.11299791802901527	-0.1795293915770442	0.29252730960605944	93.40505801619986
9	4.0	ltm	182	diff_vonmises	-0.48680389340542707	-27.89180854266738	1.3411299706616122	2.9713937445699345	0.5972461229351115	3.9282756217098544	0.16202888681899785	-0.268556672144884	0.43058555896388184	87.59486143451184
10	4.0	perception	182	diff_vonmises	0.006765399779705286	0.38762885409584974	3.1354359741001865	2.0250302117066203	0.1516174234545184	3.0186002890962933	0.8040172480451621	-0.4333745973621805	1.2373918454073425	73.90206790663635
11	4.0	wm	182	diff_vonmises	-0.2437376556895084	-13.965138979421647	1.0454493733676538	136.94209142409832	1.0196672910506677	138.38722560836058	0.16671079764045516	-0.3826276858630191	0.5493384835034743	82.47239097719451
12	5.0	ltm	182	diff_vonmises	-0.12138360246529928	-6.954768123355423	1.823183871418347	0.845071519489114	0.14641699610271852	0.9207167570443751	0.24342414994401326	-0.11515076635541215	0.3585749162994254	96.22765634960376
13	5.0	perception	182	diff_vonmises	-0.010539347234217024	-0.6038601153435126	1.24820352599193	239.46098040463687	1.230894453000319	239.5125066521265	0.7411177255950037	-0.2678951169196715	1.0090128425146752	84.3783414588249
14	5.0	wm	182	diff_vonmises	0.07691215067576297	4.406741626995481	2.057883295406328	1.231629073365104	1.8218638309448492e-13	1.2817046316213634	0.4423942832821301	-0.19344379546573515	0.6358380787478652	95.70067208716682
15	6.0	ltm	182	diff_vonmises	-0.45477435682210055	-26.0566512766829	0.7537096299446427	94.14761301078309	0.7373565399043086	94.19732151533431	0.2793862531685747	-0.1405017771036512	0.4198880302722259	107.64840441437912
16	6.0	perception	182	diff_vonmises	0.20845022392348395	11.943318069372575	1.2138600706308935	2.273144428368711	5.958534788121654e-17	2.2611340177813704	0.5077759379284681	-0.2833113616963067	0.7910872996247749	119.90463437397983
17	6.0	wm	182	diff_vonmises	-0.22836701564473103	-13.084466176441131	3.013367315109391	0.9009282739645933	8.307562171557798e-15	0.6477741621936809	0.48846825622484813	-0.1016687909744952	0.5901370471993433	79.14421913876775
18	7.0	ltm	182	diff_vonmises	0.15492721538636803	8.876675573353157	1.2272796181173244	228.68570702541277	1.2148036724898292	229.62141485137295	0.16802986478890602	-0.27353208348655755	0.4415619482754636	76.77726401236211
19	7.0	perception	182	diff_vonmises	-0.06469444123537121	-3.7067184407438902	1.7027304214546286	1.8762904068163135	7.001602581927566e-18	2.2843775115476235	0.5142344364808913	-0.33443300993938496	0.8486674464202763	104.51095706540815
20	7.0	wm	182	diff_vonmises	0.15917282728767188	9.11993121674838	0.8173010860541803	1.5311250564481806	1.6604745681065673e-17	2.3666694551781577	0.09330820663886935	-0.2850075481077199	0.37831575474658924	136.26612330887872
0	1.0	ltm	183	diff_vonmises	0.18319348628468296	10.496213598400065	4.015310372186343	0.3605258751918151	3.249009971307387e-33	1.6641185136885372	0.01287700492414845	-0.2647623018300999	0.27763930675424836	68.33288772724535
1	1.0	perception	183	diff_vonmises	-0.10145676220945063	-5.813044277663907	10.101878982873169	0.9863768596480671	3.383223416237762e-20	2.335379809503615	0.8627183831401587	-0.37168723860400316	1.234405621744162	42.70220572572438
2	1.0	wm	183	diff_vonmises	0.19545111210965685	11.198523825021633	0.8480505611808546	65.54695329132295	0.807841916519284	67.13019181828133	0.02002329063509123	-0.358885454448707	0.37890874508379824	88.63695074126983
3	2.0	ltm	183	diff_vonmises	-0.02517557881325123	-1.4424544127982692	1.1303653656602817	63.06845804721708	1.0928811419436746	63.791253174539726	0.18231937143540478	-0.225605071693181	0.4079244431285858	81.84518503013305
4	2.0	perception	183	diff_vonmises	-0.020258414379216483	-1.1607216435562442	6.878335466739447	1.3973568131279386	0.2760542535318524	2.0884118263070017	1.003565957206134	-0.3429553201514012	1.3465212773575352	50.17988150947107
5	2.0	wm	183	diff_vonmises	-0.03709412042245298	-2.12533654495659	7.358375414873953	0.4458463270822894	0.24655039382536006	1.4757945992055683	0.1776663610686458	-0.2502286653396538	0.42789502640829963	47.5627414917175
6	3.0	ltm	183	diff_vonmises	0.05983754551154415	3.4284388142334628	0.9547595250535994	113.90022942338796	0.9371194520625006	114.37314266388529	0.22567961410404536	-0.18847625049986227	0.41415586460390763	91.33098157482323
7	3.0	perception	183	diff_vonmises	0.03160504495155513	1.8108356870453584	2.638034321215806	3.3759630798135603	0.7105037585526771	3.78646846101156	0.9681314956134082	-0.3864287199913513	1.3545602156047596	72.17785907901447
8	3.0	wm	183	diff_vonmises	0.00806492388359128	0.4620861006240376	2.826640565334521	0.8613621108825771	0.4006762990644893	1.5916173591890799	0.1817740730918589	-0.21124753561939133	0.39302160871125025	70.94964668410887
9	4.0	ltm	183	diff_vonmises	-0.2545736493371986	-14.585995682264867	4.388831630907442	0.6182068320133605	7.966346594492308e-26	1.6875165709871258	0.2312286880734426	-0.26849954725657926	0.49972823533002186	65.28079606662124
10	4.0	perception	183	diff_vonmises	-0.015268685528752397	-0.8748312395099881	1.0462153196104593	435.8650498566178	1.0329638014770461	437.21457240467964	0.6190552050644555	-0.5197744334342858	1.1388296384987413	86.86421809740412
11	4.0	wm	183	diff_vonmises	-0.32488936023602366	-18.614789150229587	1.163859045842317	147.47706205877566	1.1419621559888522	148.8032630507785	0.11195981062861904	-0.34432567524065405	0.4562854858692731	77.01209851377213
12	5.0	ltm	183	diff_vonmises	-0.07285591440726275	-4.174336408102524	1.8817202926534853	0.7533465816995856	2.328141916509683e-17	1.0320710109122357	0.21028563565815853	-0.1555681999323561	0.36585383559051465	99.83675315351421
13	5.0	perception	183	diff_vonmises	0.010670606647062354	0.6113807257209153	1.1524478984869284	211.60361519822018	1.1330540473072968	211.84411387616714	0.6759473135600018	-0.2923671428305674	0.9683144563905692	86.81172513790739
14	5.0	wm	183	diff_vonmises	0.01045044918727722	0.598766632446906	1.5270724560425453	1.5846981203116326	0.19945238938801202	1.9559924718731272	0.31760604944793897	-0.2197725425910367	0.5373785920389756	100.78367967812491
15	6.0	ltm	183	diff_vonmises	-0.35900588841630926	-20.56952222659909	1.2887156415049226	1.036181066056002	3.562847864525879e-15	1.4841804634028104	0.1734888151175259	-0.20508767233851283	0.3785764874560387	116.85113126899635
16	6.0	perception	183	diff_vonmises	0.15878153313842153	9.097511713448174	0.8522747274937762	2.4238601745298323	2.5973319444180064e-16	2.747638722803154	0.3228797745202169	-0.29905792981876994	0.6219377043389869	134.69527463251114
17	6.0	wm	183	diff_vonmises	-0.22192792615001997	-12.71553352448716	2.7692377939006976	0.6035715366821711	1.2226833536857457e-17	0.906259930261173	0.2333173844799454	-0.14275091214477717	0.3760682966247226	82.61238011374519
18	7.0	ltm	183	diff_vonmises	0.13141689425279413	7.529633397402148	1.2163784665607147	175.5152073392557	1.1998008117788812	176.4748343100606	0.1729828324691738	-0.2801343492117354	0.4531171816809092	77.22938653217867
19	7.0	perception	183	diff_vonmises	-0.08828932572919357	-5.058605740338581	2.205552125954949	1.6972494428823184	1.8756133357589357e-12	1.8917271006745624	0.6275760816516003	-0.28980219834308435	0.9173782799946846	92.54477460829722
20	7.0	wm	183	diff_vonmises	0.08352910375240614	4.78586511152324	0.08517984382552966	10.343049350686764	2.0475631468315903e-08	11.121791543683036	0.019174923562823354	-0.2610908418709246	0.2802657654337479	174.85717679984964
0	1.0	ltm	184	diff_vonmises	-0.2855156923745084	-16.358844157814875	0.3175250453200438	63.402423999920344	0.3023005590008124	64.74775864883063	-0.11000358497472007	-0.2815794542588179	0.17157586928409785	133.96704147291538
1	1.0	perception	184	diff_vonmises	-0.06193740878420368	-3.5487521173113823	10.926660263914062	0.9342639458457269	0.13319979654714875	2.8076511231429144	0.7086411968082369	-0.47038905481367227	1.179030251621909	40.32422899906729
2	1.0	wm	184	diff_vonmises	0.007104485026814056	0.4070570076503329	9.824063560735835	0.20197775126570497	1.4557210506859404e-28	1.8362306225943097	-0.043125282447566415	-0.2922451795122101	0.24911989706464366	43.31373113627711
3	2.0	ltm	184	diff_vonmises	0.17339081705638043	9.934562023655566	0.6306178879342611	35.88207458525853	0.5921302278670629	36.39105909988093	0.12725201186007773	-0.18180385687995182	0.30905586874002955	111.54837792812998
4	2.0	perception	184	diff_vonmises	-0.023878367222062897	-1.3681296634877278	9.522115246560443	1.138605454464508	0.31808322563083485	2.128393641377015	0.928011676396385	-0.37550558549509855	1.3035172618914836	42.638395501593294
5	2.0	wm	184	diff_vonmises	-0.1410634543524714	-8.082340577932953	3.904363297350214	0.8697080183548833	0.5429930948917345	2.094781737705685	0.12614071071051358	-0.3228493944388091	0.4489901051493227	58.76004558572609
6	3.0	ltm	184	diff_vonmises	0.15768199987191664	9.034513097843211	1.6375366417668118	77.39247753883338	1.61668232383873	77.4824824235907	0.23388718286550159	-0.09900093005622423	0.3328881129217258	72.33233477635486
7	3.0	perception	184	diff_vonmises	-0.00021135842491657461	-0.012109945712252424	2.9638441574956245	4.2087436023271945	1.0534676178224418	4.743219512316185	1.0688768964242814	-0.4627023281730927	1.531579224597374	65.18049826602999
8	3.0	wm	184	diff_vonmises	-0.07638465979944381	-4.376518626050736	4.312928120531675	0.3988064657555922	4.329110973929323e-09	1.1952830660021958	0.12917111611860935	-0.19017789327222412	0.31934900939083344	65.86927473125922
9	4.0	ltm	184	diff_vonmises	-0.314462977248803	-18.01740140947484	1.4298677164350395	2.7507989808721085	0.6221839854208281	3.769097837037095	0.14077578156612347	-0.27377679428568324	0.4145525758518067	84.46660726244755
10	4.0	perception	184	diff_vonmises	-0.02363307233433747	-1.3540753016849254	1.0706618519899498	239.8763293057021	1.0468435978183737	241.03864031100383	0.6671996953711954	-0.4949076102667114	1.1621073056379068	86.77903493008455
11	4.0	wm	184	diff_vonmises	-0.30350038216957215	-17.389290978924027	1.226795621538764	237.0405044293603	1.210985111339079	238.51134564474052	0.1296468475524648	-0.3889449084684884	0.5185917560209532	74.8817602401899
12	5.0	ltm	184	diff_vonmises	-0.07027199699357128	-4.0262888456876444	1.2949131141566115	41.622911191674675	1.2593322731878351	41.61151093772008	0.27469579885848106	-0.09184438228980785	0.3665401811482889	83.5837024339589
13	5.0	perception	184	diff_vonmises	-0.0020319647886963593	-0.11642300651149352	1.1597521280857588	296.2513638057924	1.1451443768502751	296.5274784339291	0.7029336227628136	-0.30880051366036554	1.011734136423179	86.31892257664859
14	5.0	wm	184	diff_vonmises	0.07935833124078558	4.5468974492982035	2.829775529037822	0.9644150134653646	0.05012866179729474	1.149072728546955	0.4186490549235681	-0.17189165586855024	0.5905407107921183	80.36306584287232
15	6.0	ltm	184	diff_vonmises	-0.355291720043617	-20.35671605444285	0.7911553080451686	134.07704077245938	0.7778970320231209	134.32267222183577	0.2659154242414914	-0.16986291096305273	0.4357783352045441	102.84955690326295
16	6.0	perception	184	diff_vonmises	0.1854048793123019	10.622917085727288	1.0647740086459654	2.192001107613607	4.267483186682541e-18	2.3347638767797187	0.4042009039098897	-0.2793504811043587	0.6835513850142485	125.65224664062806
17	6.0	wm	184	diff_vonmises	-0.1508811677289309	-8.644854118873218	3.426587645525974	0.7625390427986724	3.2373013270769264e-12	0.7151403540424778	0.4244585416298601	-0.11324957516227639	0.5377081167921365	74.1207633247802
18	7.0	ltm	184	diff_vonmises	0.16490035963005567	9.44809464699165	1.7201206355872778	199.6006956056572	1.708390100700535	199.85805857169788	0.2699880915231887	-0.15509819375835932	0.425086285281548	68.80322485368282
19	7.0	perception	184	diff_vonmises	0.004653044527261194	0.26659981329851173	1.0522740566262072	2.4608899786267204	5.248688705107443e-13	2.7350337364425066	0.4298846458222169	-0.3298257956114171	0.759710441433634	126.43500504370007
20	7.0	wm	184	diff_vonmises	-0.07703247973860766	-4.413635974449246	0.40614251713956795	2.6682406219204857	4.726194946670141e-14	3.2352563139046775	0.09701754197492929	-0.2433030225952133	0.3403205645701426	157.08815549205056
0	1.0	ltm	185	diff_vonmises	0.29130855270493317	16.690750606056973	0.6765611265674759	93.46197475012106	0.6537066131336581	95.57479391362446	-0.17622566767010284	-0.403626464905976	0.22740079723587314	90.10632566933725
1	1.0	perception	185	diff_vonmises	-0.04434450955904307	-2.5407532423107035	8.807332141146949	0.920594348416731	5.672108497014444e-15	3.1523727073432606	0.5715634412911679	-0.5017156747976463	1.0732791160888142	45.78047407744165
2	1.0	wm	185	diff_vonmises	0.26031474589184495	14.9149362846232	3.0360284649635583	0.5029662484850812	0.09019523693067293	2.9608483262789047	-0.18299745829765424	-0.454474941071068	0.27147748277341377	71.47278945831866
3	2.0	ltm	185	diff_vonmises	0.15788706563710903	9.046262500711356	0.7230897889422959	120.12188095010676	0.7073244338929894	121.28355704891104	0.02898912091085748	-0.2708971563134739	0.29988627722433137	96.44154079927543
4	2.0	perception	185	diff_vonmises	-0.029620752438375742	-1.6971441007207722	7.751213793626195	1.4787444121769904	0.34004861270989273	2.6628314896233074	1.0354152061813133	-0.45723966781167463	1.492654873992988	46.87150168874834
5	2.0	wm	185	diff_vonmises	0.012713186736717173	0.7284119441755897	7.434652874395419	0.4156057621095383	0.06196740191280275	2.1534648658440534	0.07962338489279075	-0.3464342139117378	0.42605759880452854	48.74536260344311
6	3.0	ltm	185	diff_vonmises	0.08770869950379785	5.025338308148795	1.0872132590821144	103.06182316472665	1.071069850457453	103.58523367691927	0.1263885642009157	-0.16123241483196615	0.28762097903288186	82.9711432538746
7	3.0	perception	185	diff_vonmises	0.03926890189727658	2.249942344827219	2.247249899894996	4.290147255560045	0.7870111836193363	4.7964317653478705	0.9292271372211254	-0.40798081050774027	1.3372079477288656	75.28877207513341
8	3.0	wm	185	diff_vonmises	0.036968101398859116	2.118116186766302	2.372046663536559	0.9190841582475476	0.47924133035903566	1.8598356610035711	0.07345199191829255	-0.23141512806705805	0.3048671199853506	72.20803486570938
9	4.0	ltm	185	diff_vonmises	-0.13585824004662603	-7.784103766746896	2.8018497561571585	0.3449401609549899	8.495776849334533e-34	1.7210442357694915	-0.05667555993126816	-0.2731123186108689	0.21643675867960072	82.1344809581947
10	4.0	perception	185	diff_vonmises	0.01702206949705359	0.9752927407595466	1.1571600130134594	26.155568507210393	0.9296111915979755	27.911171861504805	0.5440583133203329	-0.5820968009141003	1.1261551142344333	85.40630931633652
11	4.0	wm	185	diff_vonmises	-0.3187685315798073	-18.264091501105657	1.7277868564742207	1.5008870188628378	0.26057962108523686	3.546598674193959	-0.011756280476668768	-0.43834806549468786	0.4265917850180191	85.6952963429149
12	5.0	ltm	185	diff_vonmises	-0.01974319826594165	-1.131201934728462	2.1117081845017234	0.835559532561674	0.2982703062369941	1.7397229757965724	0.08046101136992695	-0.21981517267910447	0.30027618404903145	80.41505178201967
13	5.0	perception	185	diff_vonmises	-0.008746697774749318	-0.5011488671696047	2.528740178401801	1.9726680987016463	0.15415485313358124	3.1104801314432793	0.5961895674040995	-0.4292886498545549	1.0254782172586543	81.21069414898696
14	5.0	wm	185	diff_vonmises	0.07951411412709376	4.555823151204028	2.1022849447280856	0.9999656380668361	0.011662766428774106	2.2709192813032053	0.16593064606382307	-0.3492891449670891	0.5152197910309122	93.94268908698604
15	6.0	ltm	185	diff_vonmises	-0.3585342134211614	-20.542497240075264	0.5184409907675577	72.3706121802644	0.4949378220749759	73.4160029431685	0.06127094597520255	-0.28619977186538925	0.3474707178405918	117.45465446535205
16	6.0	perception	185	diff_vonmises	0.2387401927362155	13.67880544392498	0.2621093041859827	105.96766019263488	0.23737054982687913	107.19371671540873	0.2180158711497988	-0.5114129109942027	0.7294287821440015	149.4179265578122
17	6.0	wm	185	diff_vonmises	-0.289269753057215	-16.57393599096996	1.7626706067065425	0.9724652501186003	1.149903591350833e-16	2.118583416697148	0.12744772621702594	-0.32350214281544687	0.4509498690324728	102.72047926740113
18	7.0	ltm	185	diff_vonmises	0.198985471110165	11.401027679034828	0.7314559215040713	108.50932151862396	0.7130025571939986	109.92818811289335	-0.02530237014440928	-0.3059251410298529	0.28062277088544363	93.27079558454659
19	7.0	perception	185	diff_vonmises	-0.113870980368064	-6.524326584107121	3.165066498967586	1.392223403405022	7.0428291261093264e-15	2.2996844628178903	0.57388181855025	-0.3643310950840095	0.9382129136342595	77.1974762158174
20	7.0	wm	185	diff_vonmises	0.6160200212890676	35.295347315422696	1.1000453600426792	1.0327964575935016	0.10849139046186604	2.5754576449248874	-0.0831638386031206	-0.3254182218467528	0.2422543832436322	110.86828262457351
0	1.0	ltm	186	diff_vonmises	0.222630271723368	12.755774961599698	0.7551846561340726	111.95157558994882	0.7338582279545544	113.89007785728386	-0.10841152365358653	-0.3909511462859534	0.28253962263236687	88.42929920603495
1	1.0	perception	186	diff_vonmises	-0.09155391734048209	-5.245653061499226	9.200714000313047	1.0537489718074027	1.7355116136644476e-17	2.943541713292234	0.7882910513308916	-0.4684792010534689	1.2567702523843605	44.77067610308575
2	1.0	wm	186	diff_vonmises	0.25657047900029767	14.700405594366973	2.972344189859569	0.38285464875079056	0.021398603145538823	2.767329713520375	-0.20048671141801383	-0.4328192045129851	0.23233249309497128	76.78187516029507
3	2.0	ltm	186	diff_vonmises	0.0014668251343356667	0.08404288948114372	1.0054544476976257	123.49195259284697	0.9872930046815792	124.43250214538539	0.10527427560101188	-0.24726868074140462	0.3525429563424165	83.94458494936617
4	2.0	perception	186	diff_vonmises	-0.032326892274438225	-1.852194492099377	7.52602444599885	1.4192402415193686	0.34264991917243376	2.322692662567503	1.0198786861813187	-0.39522864665490864	1.4151073328362274	47.644460366498436
5	2.0	wm	186	diff_vonmises	-0.009846672332435712	-0.5641727668968046	6.558351525605345	0.4606969503897047	0.20120923650604303	2.019210302637503	0.0718423664986858	-0.33592233184653053	0.40776469834521634	49.93559588249809
6	3.0	ltm	186	diff_vonmises	0.14389816679805306	8.244757637197992	1.1976290436322177	122.60200566418301	1.1800946555459206	123.19265969311769	0.1759833013302412	-0.19436001615793685	0.37034331748817806	79.55710694925756
7	3.0	perception	186	diff_vonmises	-0.010868571686352552	-0.6227232869633851	2.550528290293518	3.1258451913602836	0.5955544718647574	3.8924109382999994	0.8335344257950041	-0.4232897174142339	1.256824143209238	73.69220721005115
8	3.0	wm	186	diff_vonmises	0.11237195677115319	6.438438858613612	2.426754798715713	0.9844070821962051	0.5397530888752905	2.130283189264898	0.028571828937527077	-0.2699023266426504	0.2984741555801775	69.07926620429271
9	4.0	ltm	186	diff_vonmises	-0.07658056158698948	-4.387742971676171	2.6953661395438626	0.5882367209874105	1.2779011015898745e-15	1.8346209878718094	0.070245456657612	-0.2903375007937564	0.3605829574513684	83.76769463983132
10	4.0	perception	186	diff_vonmises	0.0010011618238022844	0.05736234711349106	0.9398920527346367	524.3020817606614	0.9299430506320138	525.985446644596	0.43872267340015014	-0.5335218691632946	0.9722445425634447	89.71147686440929
11	4.0	wm	186	diff_vonmises	-0.19751966316170785	-11.317043070011502	0.9493314914854359	198.69326334742817	0.9311023443086158	200.68717900675884	0.03298154981919765	-0.4585598210299473	0.49154137084914495	83.096739904495
12	5.0	ltm	186	diff_vonmises	-0.01858420840293704	-1.0647967070798523	1.098727400188401	93.33875440203052	1.0723608721853808	94.09094787539566	0.1942501024990193	-0.2360513848369461	0.4303014873359654	82.94903296966524
13	5.0	perception	186	diff_vonmises	-0.0005892512032626879	-0.03376160701995742	1.0289777267606117	267.6754680268141	1.011165599401322	268.56168957441764	0.5956237294101498	-0.41176721166548447	1.0073909410756343	88.93862515511702
14	5.0	wm	186	diff_vonmises	0.08023822560470475	4.59731168276812	2.087841920965089	1.1619854522166744	0.0022931051569590397	2.1542838185059665	0.2715148804886112	-0.33262635246444505	0.6041412329530562	94.91076819731174
15	6.0	ltm	186	diff_vonmises	-0.2121949830660638	-12.15787696353543	0.716060435206846	87.5627243373218	0.6908097646016612	88.44745386966382	0.1712738148503874	-0.274077598099165	0.4453514129495524	102.76952818533297
16	6.0	perception	186	diff_vonmises	0.20019544305603978	11.470353964862683	0.21839116219573473	8.714239383820942	5.8201875465303e-20	9.805366274125786	0.14444744768055418	-0.45892234156169165	0.6033697892422458	166.4939409770045
17	6.0	wm	186	diff_vonmises	-0.29690048300107286	-17.011144611357118	2.1415874408997535	1.0969773183759444	0.014691509796295214	1.9101828200565618	0.281224188997408	-0.29142763628177304	0.572651825279181	93.06564137171704
18	7.0	ltm	186	diff_vonmises	-0.08101509600784886	-4.641823078096904	0.9524494489072322	229.31013669376821	0.9393526368700739	230.89944261521833	0.04566404284997816	-0.3720313317612778	0.41769537461125594	83.39651324161773
19	7.0	perception	186	diff_vonmises	-0.14177696575904444	-8.123221770164033	3.2605297977702583	1.5476962637891656	1.6382668196908291e-15	2.237888693495796	0.7064321402726326	-0.35460675695189664	1.0610388972245293	76.02634793571781
20	7.0	wm	186	diff_vonmises	0.6150944995501054	35.24231882593256	0.5037794559933869	135.20349940173813	0.48952363594616055	136.72029066997362	-0.011231065169930332	-0.35750054767531303	0.3462694825053827	114.64854367443175
0	1.0	ltm	187	diff_vonmises	0.22689509589605608	13.0001313870601	0.686375345467167	83.16851285038938	0.647150020980907	86.44554308834732	-0.27883549561104815	-0.6242148393523728	0.3453793437413246	89.72274631861052
1	1.0	perception	187	diff_vonmises	-0.03033218550397018	-1.7379062127853873	9.199848410175347	0.8992879478638378	0.05668704363543354	4.525516797603935	0.31083069667961327	-0.731892538746017	1.0427232354256302	44.05966074823593
2	1.0	wm	187	diff_vonmises	0.10541548064943704	6.03986213655574	5.146616337347693	0.44522241164975174	0.12081068849177938	4.294559118513625	-0.3764080761214512	-0.6968888753781208	0.3204807992566696	54.47186031611133
3	2.0	ltm	187	diff_vonmises	-0.06958103107434294	-3.9866994147284824	2.6877331418250177	0.824564499279005	0.14587469155211194	2.3671428712419558	0.07335984512039084	-0.34382613066437545	0.4171859757847663	76.42197308184754
4	2.0	perception	187	diff_vonmises	-0.07080314581589506	-4.05672143150014	12.797798487357166	0.9334877295430385	0.09211749672998971	2.696804491546156	0.8491150715936633	-0.4465098642852416	1.295624935878905	37.5040541841357
5	2.0	wm	187	diff_vonmises	-0.10673318125936512	-6.115360820166434	3.7373376670453764	0.8281594957305004	0.16720203839397804	3.042283235204934	0.045118163239623255	-0.46771272307591777	0.5128308863155411	64.87769890460783
6	3.0	ltm	187	diff_vonmises	-0.027403309476292905	-1.5700939776824376	1.0630237769609212	149.6994658425168	1.0471561552214825	150.57050208385817	0.14156254215991027	-0.2447548368472212	0.3863173790071315	82.60723592160645
7	3.0	perception	187	diff_vonmises	0.017044268489004748	0.9765646493077929	2.858252117152328	2.9432109123779036	0.4503372649538976	3.9219960695444054	0.943556195269747	-0.48726901043903176	1.4308252057087787	72.24632927827591
8	3.0	wm	187	diff_vonmises	-0.025615889316669714	-1.4676823463194288	3.0632763024104297	0.8665980661411361	0.22338247743730513	2.203392072458044	0.14127475172651188	-0.31955354947618514	0.460828301202697	70.7223281995499
9	4.0	ltm	187	diff_vonmises	-0.07631303500373525	-4.372414827548148	1.0514126857328694	0.9192881336514722	2.155899714037724e-14	2.626915137925415	-0.09504357045805067	-0.3786377003291577	0.28359412987110705	126.43406550888872
10	4.0	perception	187	diff_vonmises	-0.0006281617385578068	-0.03599101647096256	1.5931204013467244	4.951631704542861	0.42709344908798913	6.875447122169546	0.6213573524720213	-0.6426382107603722	1.2639955632323936	89.10090111584154
11	4.0	wm	187	diff_vonmises	-0.13463794354631303	-7.714185927524377	0.668204466758239	202.88527070966285	0.6513919396081297	205.0944573725658	0.04051961748232458	-0.5147919519488475	0.5553115694311721	100.29350407236792
12	5.0	ltm	187	diff_vonmises	0.06078307017115441	3.4826133866546742	2.540363866237287	0.9124388041308399	0.028948415432572976	2.247528759911924	0.17465077167131743	-0.34410066265420236	0.5187514343255197	84.48498442932848
13	5.0	perception	187	diff_vonmises	-0.008116048962884112	-0.46501535189478854	2.1729556188930657	2.22668572322221	0.15461954267828018	3.9074967193850796	0.485874126818018	-0.5262110970017725	1.0120852238197906	86.18990465272086
14	5.0	wm	187	diff_vonmises	0.008877321516454201	0.5086330562735015	2.0037953859673507	1.4641384018996433	0.06510089937744931	3.0537610569854508	0.23797412298472076	-0.44120034533934144	0.6791744683240621	92.76353455159241
15	6.0	ltm	187	diff_vonmises	-0.14692295537947822	-8.418065256833016	1.0302193833916096	2.6336800161554765	0.25326126884670747	3.9684671653292836	0.11422267693571875	-0.3659770784154269	0.4801997553511457	108.9486736882591
16	6.0	perception	187	diff_vonmises	0.29791563364510276	17.06930845883002	0.0002503406295676482	9526.203023396114	1.5898768646775928e-31	9527.397050193853	0.18954022544494364	-0.5695632510276027	0.7591034764725464	177.1602881463428
17	6.0	wm	187	diff_vonmises	-0.43490598821349225	-24.918277609599432	0.48665822613932536	162.8071518772106	0.47100428082818574	164.05517397555894	0.1735215870869382	-0.4101766384890002	0.5836982255759384	122.49480957958886
18	7.0	ltm	187	diff_vonmises	0.3835546690656209	21.976063749997074	1.002237708101246	1.4077033623170647	9.063027282700415e-20	2.4715167639899165	0.08826869865829418	-0.32846459770179737	0.41673329636009154	127.24836675606056
19	7.0	perception	187	diff_vonmises	-0.07916588989778951	-4.535871372540699	3.116117850792782	1.3817667018534723	1.7722457715411498e-16	2.1904769509254143	0.5760205803102056	-0.34680788421444236	0.9228284645246481	77.81745897745657
20	7.0	wm	187	diff_vonmises	0.3724638109225854	21.340604387222836	0.6462732750947369	107.4879256659089	0.6274730249646527	108.8763405740518	0.007766047531021059	-0.31734446385139137	0.3251105113824124	101.42040427721042
0	1.0	ltm	188	diff_vonmises	-0.26294651032772864	-15.065725279471964	0.22174167783981444	3.1873101813553704	8.196848695401961e-10	5.940896530056167	-0.3200286795314894	-0.5440825733985559	0.22405389386706653	165.8186446745556
1	1.0	perception	188	diff_vonmises	-0.06558334276779593	-3.7576487469545374	12.947448216087931	0.740648843699883	6.593537901252254e-18	4.0508537401642055	0.4077197453830971	-0.6447133964834513	1.0524331418665485	37.67221056818616
2	1.0	wm	188	diff_vonmises	-0.02361759730088273	-1.3531886475801451	7.065046443623833	0.2842067705619805	1.444791933785301e-12	3.1224184821978023	-0.20134507731496032	-0.49694811996651755	0.29560304265155724	51.19158597198117
3	2.0	ltm	188	diff_vonmises	0.09093348106222636	5.210104681298368	0.3466151554825019	78.3441201580826	0.324451517985799	79.72739858460254	0.017008757512204653	-0.37897181200996854	0.3959805695221732	137.1657635266164
4	2.0	perception	188	diff_vonmises	-0.06627208334765267	-3.797110675359722	11.661870498863706	1.185741033332922	0.32233802828204633	2.686788986763691	1.0220446908652783	-0.49062021089624874	1.512664901761527	38.55954290374069
5	2.0	wm	188	diff_vonmises	-0.06070523002841382	-3.4781534749989422	6.937043307404012	0.4815760862020483	4.5817347949050893e-17	2.15602792465682	0.15293996011884103	-0.3431420335686055	0.49608199368744654	51.675677147563874
6	3.0	ltm	188	diff_vonmises	-0.07633373568372637	-4.37360088914469	1.8230995396142136	1.9200465634576072	0.7437266978803733	2.6619239640574883	0.15672581044479272	-0.21934935478798664	0.3760751652327794	76.45243359689536
7	3.0	perception	188	diff_vonmises	0.01473464691760043	0.8442330809939523	3.2742662319496865	2.7074390370190202	0.3842766030329466	3.4560044265876164	1.0844925305667092	-0.46032914340989556	1.5448216739766047	69.49213407410994
8	3.0	wm	188	diff_vonmises	-0.06797296579638855	-3.8945640611201644	3.1818521866759344	0.7944097109846231	0.28088500038487	1.8002197619526934	0.16590931444076218	-0.2587598806117763	0.4246691950525385	68.93674131878191
9	4.0	ltm	188	diff_vonmises	-0.2601770146354684	-14.907044864925789	0.2834367111126908	64.28488601339134	0.2629389700193958	65.99588433839057	-0.11425373284977525	-0.38362709366774883	0.2693733608179736	141.41716449881295
10	4.0	perception	188	diff_vonmises	-0.04083233984613607	-2.3395207408274583	2.575901482502388	2.403624675530036	3.6810371649095414e-18	3.9433186032214325	0.8139917298881423	-0.6192525868261632	1.4332443167143056	85.70198803859688
11	4.0	wm	188	diff_vonmises	-0.16067139453274068	-9.20579279520737	0.9060661974257654	164.42762660783632	0.8842494746015109	166.3826161162458	0.05831764063923828	-0.4562430304210885	0.5145606710603268	85.89647862647072
12	5.0	ltm	188	diff_vonmises	-0.026594958361345674	-1.523778870431267	2.2528393691204807	0.6884691449174727	2.1558719715056867e-17	2.067293051877883	0.05245197586423894	-0.32480547932290266	0.3772574551871416	91.60177811649501
13	5.0	perception	188	diff_vonmises	0.05306857155594421	3.0406051749436114	3.0711687286118465	1.4000693822232706	4.552058605144177e-12	3.122642904901386	0.4323151043881963	-0.49498615748962055	0.9273012618778169	78.3901985691347
14	5.0	wm	188	diff_vonmises	-0.049730844505298445	-2.849367501774961	0.6473982159892036	168.26181328110863	0.6307291960374493	169.69274369836208	0.14432431402049417	-0.39255813546289176	0.5368824494833859	105.62828751412195
15	6.0	ltm	188	diff_vonmises	-0.35690829551788694	-20.44933900638288	0.5137179371195675	154.80278830626844	0.49875523540487166	156.42593380567965	0.03319974399305181	-0.4073675344232939	0.4405672784163457	115.69151082478801
16	6.0	perception	188	diff_vonmises	0.37359445278826126	21.40538539426686	0.17049080600862732	15.102819938476838	9.886049670890514e-12	17.012421521517467	0.12227757245153814	-0.6953393401520307	0.8176169126035688	166.6416817162357
17	6.0	wm	188	diff_vonmises	-0.18901456648322182	-10.829736925983518	1.8619669817687032	1.0708955893815104	6.790975386461662e-14	2.6915367648946047	0.10064980363940484	-0.41560122375506636	0.5162510273944712	100.27344217820519
18	7.0	ltm	188	diff_vonmises	0.17998541561204692	10.312404688478326	1.018792980074441	150.94256564568101	1.0035114656402562	152.2189276611551	-0.0010820646961207103	-0.2901452292026967	0.289063164506576	79.1436685430321
19	7.0	perception	188	diff_vonmises	-0.09526750625876844	-5.458426033363587	2.346540328577125	1.3669896860659525	1.4328964703997953e-23	2.8797899565601863	0.31768568669599634	-0.45122462894323595	0.7689103156392323	89.77609202384787
20	7.0	wm	188	diff_vonmises	0.5357390875777878	30.695588638396828	2.2145250840806647	0.3948167696056363	0.004013362081133276	1.8461801038761474	-0.07846561616112988	-0.290068031570311	0.21160241540918115	91.56153996226507
0	1.0	ltm	189	diff_vonmises	0.2898507620920429	16.60722535652457	0.6166360663868578	187.82921614974765	0.6035240933566188	190.5852350494021	-0.267145364870899	-0.511509515034863	0.24436415016396396	91.70916207184862
1	1.0	perception	189	diff_vonmises	-0.017624150679541824	-1.0097894514403682	8.012695765088152	0.9881801974124615	0.07195066737386083	3.975882925153086	0.41829757611244756	-0.6420758625622437	1.0603734386746912	47.095826119027095
2	1.0	wm	189	diff_vonmises	0.19999874999840503	11.459084282800688	5.781238095480667	0.219463892714472	0.06922060526864982	3.6227636304831266	-0.41167732735681384	-0.585690684343927	0.17401335698711318	52.13551169527261
3	2.0	ltm	189	diff_vonmises	0.1257604257955196	7.205541627851442	0.7365639583795768	131.71827662459827	0.7215459638280786	133.01829129429677	0.002164977200720841	-0.2901975158003456	0.2923624930010664	94.13363139336766
4	2.0	perception	189	diff_vonmises	-0.04416079340622361	-2.5302270821257675	9.183471936268253	1.2754858371935478	0.2681315969815602	2.8622144593251666	0.9343644089802797	-0.496247451218582	1.4306118601988618	43.38976535157968
5	2.0	wm	189	diff_vonmises	-0.0102599580790641	-0.5878522959115243	3.7876956508653974	0.7600964086431217	0.19821950542781105	3.1705534191723785	-0.042085033610241074	-0.4924966136868395	0.45041158007659843	63.0367953301874
6	3.0	ltm	189	diff_vonmises	0.14357783261596307	8.22640384053046	1.2346191305755476	106.9589719194932	1.2157779097903734	107.6227970520736	0.11721668346530834	-0.19357611918063888	0.3107928026459472	76.58784710140026
7	3.0	perception	189	diff_vonmises	-0.005917003123972561	-0.3390193063693512	2.4853007504324	3.6950184792147134	0.6520676915201821	4.702215806788937	0.8749387234269621	-0.49400674373332387	1.368945467160286	73.20613552201752
8	3.0	wm	189	diff_vonmises	0.07880998698321214	4.51547963761901	2.8721114987986067	0.6432040235997429	0.2641071212453924	2.171878912645197	-0.03153732257414493	-0.31784456631990743	0.2863072437457625	69.10789284020947
9	4.0	ltm	189	diff_vonmises	0.14174588773521837	8.121441130563191	1.873558814711999	0.4332022954704966	1.5076851066278846e-17	2.052913041101349	-0.11192076845245574	-0.32166477474522576	0.20974400629277	100.00340960602844
10	4.0	perception	189	diff_vonmises	0.02961859499382186	1.697020488253301	0.9404073036823338	373.86606146076883	0.9247043265004982	375.9759227934757	0.4253031671395746	-0.6224090151918062	1.0477121823313809	88.89548034176107
11	4.0	wm	189	diff_vonmises	-0.18790443879736374	-10.766131294863225	0.6525089937431404	192.52862439767006	0.6335458931307899	195.3966871276319	-0.08632073487832059	-0.608611978986282	0.5222912441079615	98.19036563047952
12	5.0	ltm	189	diff_vonmises	-0.011006330321159174	-0.6306162753292885	1.1252526331768051	138.8943521550092	1.104180374790817	140.0247519669423	0.1385275316046659	-0.30487131691719327	0.4433988485218592	79.3854569501467
13	5.0	perception	189	diff_vonmises	-0.032514217186459506	-1.8629274189558558	0.9313385191478808	147.5869956123029	0.8940764339130367	149.18206077652306	0.5337412586352386	-0.5525921256543249	1.0863333842895635	91.7607193229617
14	5.0	wm	189	diff_vonmises	0.11974209030942065	6.860716404804157	2.969578482842715	0.9869201069507109	2.682653630201997e-19	2.744916625276394	0.20577033783082443	-0.4351741523781976	0.640944490209022	79.74284721645802
15	6.0	ltm	189	diff_vonmises	-0.1613675068502819	-9.245677093069553	0.6843570655067115	128.8833293296173	0.6663143572773315	130.06580668466253	0.11377461328346072	-0.3166410550278336	0.4304156683112943	102.45185768041263
16	6.0	perception	189	diff_vonmises	0.21425833604459119	12.276098380850796	0.08645316166053221	25.314550553918615	2.4736658378908696e-09	26.812086423176176	0.1172729336669116	-0.5789140613214614	0.696186994988373	173.65025342782542
17	6.0	wm	189	diff_vonmises	-0.3668244759232252	-21.017494292499087	1.2391891106935924	1.7783831204992397	1.2089341155554422e-16	3.178629340902883	0.18119199269955455	-0.4482623290483185	0.629454321747873	118.54167711943599
18	7.0	ltm	189	diff_vonmises	0.8545568539479536	48.96250108519524	0.000148655650073422	6707.143583878776	4.129933019323764e-34	6708.451587454008	-0.049483173165754124	-0.36685550120478183	0.3173723280390277	159.4455469963822
19	7.0	perception	189	diff_vonmises	-0.10493257038027923	-6.012193416249471	2.9479044839651176	1.5492116206821285	0.013982429407166628	2.7170677504416503	0.566069011315666	-0.4236459830404318	0.9897149943560978	79.4901833107198
20	7.0	wm	189	diff_vonmises	0.745003027899217	42.68552922309226	0.393014908589741	78.21535846557717	0.37059336346192734	80.11207522607705	-0.10223621063027721	-0.41964261997958197	0.31740640934930475	123.60525143156718
0	1.0	ltm	190	diff_vonmises	0.057485632061644906	3.2936840997741825	0.5779923227936926	88.87194226301763	0.5627211140538729	90.08914993683995	-0.05859703071191191	-0.25171740200178583	0.19312037128987392	102.85284525136939
1	1.0	perception	190	diff_vonmises	-0.1035393936905493	-5.93237027181194	9.482973551316867	1.063478159783597	1.1869718842629808e-18	2.2382930235112215	0.9321365085463998	-0.35623539131128706	1.288371899857687	44.086296637838615
2	1.0	wm	190	diff_vonmises	0.3730919979498012	21.37659685262717	1.9255050533365077	0.5057008127590492	0.004233140906507763	1.9855710907448478	-0.06240612390980299	-0.30925700419530355	0.24685088028550056	98.02987197238335
3	2.0	ltm	190	diff_vonmises	0.14390329428028859	8.245051420289615	0.8012577523905301	113.75817019599712	0.7874593343890324	114.39047569982885	0.10927922839411508	-0.18380780454154788	0.29308703293566296	96.06182382017118
4	2.0	perception	190	diff_vonmises	-0.017543069041280737	-1.0051438157720016	6.106721708941076	1.835821036013168	0.6336250815288157	2.2977935951627915	1.1446580037534515	-0.3818727075598905	1.526530711313342	51.34933306492721
5	2.0	wm	190	diff_vonmises	-0.0011044532962654107	-0.06328051254531995	9.802184358400746	0.3441569865601257	0.2706567549917337	1.4268962588054148	0.13179291622276934	-0.25399169123937854	0.3857846074621479	41.2662647358394
6	3.0	ltm	190	diff_vonmises	0.17252455490949795	9.884928858687259	1.362665325729132	102.4751100608419	1.3455147277496171	102.77216070930764	0.19588541649611813	-0.13450076783625065	0.33038618433236877	76.73043906630272
7	3.0	perception	190	diff_vonmises	0.005325311182822605	0.3051178553695556	1.9166606352632192	6.870699532493419	1.0805857062585318	7.273786810296008	0.8582721095176682	-0.37323892475566417	1.2315110342733324	75.4801152311777
8	3.0	wm	190	diff_vonmises	0.1101651643463327	6.311998966409956	1.4615809655181393	79.87313467234874	1.4362789800580522	80.59905792481757	0.05094257718609185	-0.20066670379951645	0.2516092809856083	67.90046041671968
9	4.0	ltm	190	diff_vonmises	-0.19759097414237023	-11.321128888236395	8.19899225757274	0.36102589593957407	2.168253916450558e-31	1.3526530592445793	0.19039796695437705	-0.21528138999525423	0.4056793569496313	47.46501533375388
10	4.0	perception	190	diff_vonmises	-0.014974673054238592	-0.8579855655961494	1.0205666254787837	336.58590328297305	1.0056966256807107	337.9431647968099	0.4804577841565276	-0.47276761374310183	0.9532253978996295	87.12946653596174
11	4.0	wm	190	diff_vonmises	-0.2805426550892896	-16.07391011001064	1.2474529670060843	150.1302839457311	1.2244623009363953	151.62477853043356	0.060721913076008605	-0.3765488239640433	0.4372707370400519	72.91229216742472
12	5.0	ltm	190	diff_vonmises	-0.18074574191904097	-10.355968176921852	4.9197907819089615	0.3818617682734389	0.08965806398239896	0.8891518642245205	0.17377473924477616	-0.1388384091207753	0.31261314836555143	59.92504514421714
13	5.0	perception	190	diff_vonmises	0.014821033685515237	0.8491826782012469	1.148232708806591	200.24030351677015	1.126103980110778	200.80847585402782	0.6181132021023359	-0.34278366743754773	0.9608968695398836	85.38054044930752
14	5.0	wm	190	diff_vonmises	0.10685632258580177	6.122416298454897	1.1373750541989678	2.898228248533728	0.43636652926788483	3.59540579552611	0.2205550281954709	-0.24817404504100277	0.46872907323647367	100.19499280175035
15	6.0	ltm	190	diff_vonmises	-0.3660646346640525	-20.973958595248583	2.435893240825927	0.7180667938197032	3.381228025443536e-14	1.5120685283676527	0.17612489014393612	-0.23746079682574922	0.41358568696968534	88.0360559682166
16	6.0	perception	190	diff_vonmises	0.191002421753402	10.94363264324768	0.8583011904782185	2.37033456890466	1.827562657216347e-20	3.4424275413809484	0.19823977992100184	-0.41381985807866073	0.6120596379996626	134.3080620987596
17	6.0	wm	190	diff_vonmises	-0.23973564372024259	-13.735840584021878	3.4757248801053584	0.6994309228275674	1.7912206687082208e-13	1.4058209484150341	0.2739330952360718	-0.22326691887099614	0.49720001410706793	73.57576479288858
18	7.0	ltm	190	diff_vonmises	-0.11077759767313039	-6.347088811268621	1.2121411263900956	279.91759004181847	1.1993371001873014	281.56551862520183	0.036875032018983234	-0.4036189224071265	0.4404939544261097	73.20076123734674
19	7.0	perception	190	diff_vonmises	-0.1755043480623805	-10.055658430169409	3.3206770080408523	1.4171226859213943	1.6668155287277184e-22	2.0450283624912236	0.6575218706768534	-0.32419330161836857	0.981715172295222	75.31794151582162
20	7.0	wm	190	diff_vonmises	0.5748060210315444	32.93395904381553	2.4377729655114764	0.5247124057834462	1.1200207733860753e-15	1.852989565388	0.009777659601045263	-0.2925873732868088	0.30236503288785405	87.82954463523092
0	1.0	ltm	191	diff_vonmises	2.4990368621273924	143.1842650475162	1.1966307256018805e-27	3558.3574631728843	0.00017109442506742332	3559.104851119978	-0.022038844758640153	-0.2158704183627833	0.19383157360414316	168.56229226430202
1	1.0	perception	191	diff_vonmises	-0.0842522435053846	-4.827297967367038	11.82157821896684	0.8943252206501838	0.006731415018613615	2.0873021278106516	0.8787032389818168	-0.33258989627824254	1.2112931352600593	39.40306749013067
2	1.0	wm	191	diff_vonmises	0.1694550946522432	9.709061740563422	1.6694041179036383	0.7103831571043585	8.486820064440721e-26	1.503016125546746	0.08915789477520253	-0.22756162238837585	0.3167195171635784	105.36064111500235
3	2.0	ltm	191	diff_vonmises	0.33693447153651007	19.304923191512792	0.7185300402476118	69.6001116922338	0.6990370650382578	69.8685609500706	0.18233926311751958	-0.14486901160939247	0.32720827472691205	106.90754126766316
4	2.0	perception	191	diff_vonmises	-0.0039333157417345424	-0.2253623914937582	7.152261542767587	1.6289968227163996	0.6909009546740975	1.9818889880834025	1.1447923037399674	-0.3501630632191106	1.494955366959078	47.71075575741128
5	2.0	wm	191	diff_vonmises	-0.022847076983119517	-1.309041085343234	9.450775656582467	0.37461640523118234	0.3398730860226351	0.8611562682065385	0.26589229909040224	-0.15415047762111764	0.4200427767115199	42.442374633383
6	3.0	ltm	191	diff_vonmises	0.13215084067786106	7.571685429947198	2.2223116157686227	0.9222934741393468	0.9818001342004817	0.9170426810638863	0.1966982538648016	-0.06149277894911612	0.25819103281391775	74.76249431076252
7	3.0	perception	191	diff_vonmises	0.02550358110903242	1.461247560017133	3.9134896917767947	2.5774871040725222	0.828218017790873	2.5972355532370104	1.1553161260052964	-0.32823499867970285	1.4835511246849993	61.594555892322234
8	3.0	wm	191	diff_vonmises	-0.07975231064942676	-4.569470806628402	3.928263038760951	0.37207959644718175	2.798384015618599e-17	0.6827647201604594	0.17456376167437465	-0.10855568480153331	0.283119446475908	69.1031515140211
9	4.0	ltm	191	diff_vonmises	-0.37023456152717954	-21.21287780538399	4.6113166564047114	0.5546268784367658	1.2852760736017182e-17	1.3950880255435263	0.23850712668553134	-0.22198966086580132	0.46049678755133266	63.64207741387369
10	4.0	perception	191	diff_vonmises	-0.014875176173445354	-0.8522848142519807	3.510562867462034	1.8037924805805394	0.04156228247433967	2.606444088445628	0.8584063460472392	-0.39974467150301235	1.2581510175502515	72.1697312542187
11	4.0	wm	191	diff_vonmises	-0.33867879077302326	-19.40486532188848	1.5351049668540764	156.26439136002128	1.512415325067635	157.27085129473028	0.17898444735047292	-0.31511796688881333	0.49410241423928625	68.20621092126649
12	5.0	ltm	191	diff_vonmises	-0.19200934785817167	-11.00132525933253	2.165783477169853	0.4913088889046037	5.687864828201744e-15	0.4742803497909347	0.19042384510834634	-0.07198818924776258	0.26241203435610894	93.33768082329938
13	5.0	perception	191	diff_vonmises	0.01638978606961247	0.9390655689111042	1.3452763652685007	211.9140247110129	1.3272480067819794	211.82381690829925	0.7263276152516198	-0.22652487131415455	0.9528524865657744	82.08271590341272
14	5.0	wm	191	diff_vonmises	0.060771068437975174	3.481925737996662	0.8997417993699307	39.0267710301789	0.8559318320326691	38.981103009273674	0.3402672436337131	-0.13173220439693267	0.47199944803064575	100.71946214683453
15	6.0	ltm	191	diff_vonmises	-0.559304284606723	-32.045774971549044	0.9029833337734909	52.925410862821785	0.8722879163628683	53.11180392431627	0.2504135623841961	-0.1410783340072479	0.391491896391444	97.20040974301205
16	6.0	perception	191	diff_vonmises	0.19043316583374262	10.91101668158836	1.7141900248930613	1.7299724930889697	2.739277299152713e-20	1.8972517952307555	0.510722715340415	-0.27559401066124334	0.7863167260016584	104.10381709302834
17	6.0	wm	191	diff_vonmises	-0.1498992553424358	-8.58859468327543	4.841315175437667	0.563076099335434	1.9456633344962405e-13	0.5212926856918724	0.3969029157799903	-0.08293637692250522	0.47983929270249553	62.081940282547265
18	7.0	ltm	191	diff_vonmises	0.14460976742785508	8.285529349984499	1.6346929212351642	193.46306554074326	1.6186581156794682	194.25374952582223	0.16930305620938668	-0.2632703045130427	0.43257336072242936	66.35492936615825
19	7.0	perception	191	diff_vonmises	-0.014950484899604282	-0.8565996864213936	0.8911916818347702	2.8149277598283167	7.977655428293756e-14	3.301338078461813	0.3782912642999222	-0.3733853055122205	0.7516765698121427	133.25507386566693
20	7.0	wm	191	diff_vonmises	-0.23962618709071815	-13.729569181110401	0.00015534001554005352	6072.545991283039	1.5184389734804558e-32	6073.161843229275	0.05212062815553509	-0.24814073080676735	0.30026135896230244	178.35476479582832
0	1.0	ltm	192	diff_vonmises	0.30758525674989645	17.623337052216883	0.6519365717005624	110.47050835325199	0.626044021134007	113.5774158735698	-0.29719890992106457	-0.5793359514353789	0.2821370415143143	89.79379530164073
1	1.0	perception	192	diff_vonmises	0.01679316972903546	0.9621777501205842	8.640815428434182	0.851645254973899	0.048750359912970324	4.259413273997976	0.2720817249449865	-0.6855994355428311	0.9576811604878176	45.516962664675646
2	1.0	wm	192	diff_vonmises	0.21021958994721415	12.044695274946159	3.1154618868448756	0.7089293950892618	0.17814118545411575	4.390068599194426	-0.3539683555632066	-0.6791304784622603	0.32516212289905366	65.61941186254657
3	2.0	ltm	192	diff_vonmises	0.05348154270689021	3.0642666789534774	1.9643961972794783	1.0118181951624667	0.22533708866144378	2.5700753776608716	0.010361167049069753	-0.3374631706996416	0.34782433774871135	83.24814643051803
4	2.0	perception	192	diff_vonmises	-0.048273212392830396	-2.7658513336478037	10.276642951347464	1.1183513329171595	0.14162921705675438	2.9136853613425537	0.8802934215426164	-0.4871234904346285	1.3674169119772448	41.57549776334136
5	2.0	wm	192	diff_vonmises	-0.015665271486079702	-0.8975539410789981	4.4421112102386955	0.6627393524714725	0.06395096827126412	2.989502291441957	0.03266955777559455	-0.4689778743616892	0.5016474321372837	62.36958004636929
6	3.0	ltm	192	diff_vonmises	0.0016568413726766402	0.09493001797703343	0.923566920957549	102.6635056771968	0.9066505863046709	103.39634864673258	0.09307709799647768	-0.1963345976438582	0.28941169564033586	88.1819762676906
7	3.0	perception	192	diff_vonmises	0.047906295616666525	2.7448285509410675	2.8036966665886105	3.0728749799717705	0.5156681430818583	3.830390704197942	0.9796318768589075	-0.45454258684220983	1.4341744637011173	72.29784214841996
8	3.0	wm	192	diff_vonmises	-0.02420736647930413	-1.3869799323905891	3.2633155681253623	0.6274577204023531	0.08156436271996571	1.8667243699704181	0.10916159703835354	-0.2833246406025054	0.39248623764085894	72.36421404055883
9	4.0	ltm	192	diff_vonmises	-0.047498857897554626	-2.721484089221519	0.2641886711302959	2.342587499115789	7.315457837099502e-15	4.050361194536682	-0.1674298625572273	-0.36329177973158555	0.19586191717435825	164.94600976460657
10	4.0	perception	192	diff_vonmises	0.03429159016838652	1.9647633894408554	1.9425919031787096	4.0124417942146	0.42000956789862887	6.087060178754479	0.6222680117926582	-0.655624506296541	1.2778925180891991	82.56873638567802
11	4.0	wm	192	diff_vonmises	-0.27214793561879896	-15.592928114155228	0.68037735584542	7.872630656711864	0.33333195660087556	10.408851340665144	-0.03831617708453461	-0.5877280013256996	0.549411824241165	114.71576440940228
12	5.0	ltm	192	diff_vonmises	0.04337336871440658	2.485110970600262	2.78292922901363	0.6468290450749062	4.9087999476193736e-23	1.8073230660487065	0.11809515201062598	-0.2860916109962599	0.4041867630068859	82.42718824626735
13	5.0	perception	192	diff_vonmises	-0.02654033272876584	-1.52064905223121	2.756720005708915	1.7729534297648624	2.7135384176324256e-09	3.313396260297227	0.5787259276465072	-0.5228826244785764	1.1016085521250836	82.82240271895063
14	5.0	wm	192	diff_vonmises	0.04478432985932267	2.565953089260901	2.341447102082522	1.1285498611395428	1.1953845589407508e-17	2.7469453045553984	0.20264979221286256	-0.4312692047706264	0.633918996983489	89.87592397574977
15	6.0	ltm	192	diff_vonmises	-0.2568952679504423	-14.719014630442746	0.36712503299356625	129.2865948897323	0.35451594602555625	130.38260258541362	0.05535511158599249	-0.3248201845542322	0.3801752961402247	134.62242412183485
16	6.0	perception	192	diff_vonmises	0.2545935403623273	14.58713535405493	0.19793417401987626	12.831682859428009	1.494250288001241e-09	13.906761192364623	0.25168719971237374	-0.5541213696322373	0.8058085693446111	167.00741882212856
17	6.0	wm	192	diff_vonmises	-0.4281028614422106	-24.52848715811253	0.9106524501705066	1.9006940183619117	9.839214544935227e-13	3.127314475274402	0.11950595838394468	-0.39784408858067216	0.5173500469646168	130.76827829974837
18	7.0	ltm	192	diff_vonmises	0.4480001109626866	25.668515579554505	1.1596782270268464	0.9865846175183915	1.6304787737050227e-10	2.0643390539872297	0.038123993349461094	-0.2924908227765932	0.3306148161260543	120.89374380749933
19	7.0	perception	192	diff_vonmises	-0.06379549522139583	-3.6552126281329924	3.0159210451501948	1.3993849667050922	6.898557061721539e-25	2.294045874706414	0.5541473208353836	-0.36290130425007416	0.9170486250854578	79.12256057206352
20	7.0	wm	192	diff_vonmises	0.490246394579297	28.089049330898956	0.45184406241914815	81.29040075649108	0.43297687484053965	82.79446246826737	-0.06855782801407884	-0.3299261918339189	0.2613683638198401	118.24118231754244
0	1.0	ltm	193	diff_vonmises	-0.07756589346596994	-4.444198329761447	0.3730157886535748	52.230637786347174	0.3446113765050099	54.63357269617082	-0.2545290787515597	-0.45104150876387816	0.19651243001231844	120.10692595229943
1	1.0	perception	193	diff_vonmises	-0.03971869760964525	-2.275713740789024	10.867942129663708	0.8705199887178214	0.09644173747231059	3.94061565687907	0.4419226694171735	-0.6517574819376362	1.0936801513548096	40.38340099997603
2	1.0	wm	193	diff_vonmises	0.0666823861789783	3.820619295916949	9.611742237129706	0.1980354974971345	0.07059585803602435	2.9952776515468504	-0.2693708445028797	-0.49180255933441375	0.22243171483153407	41.899366367057866
3	2.0	ltm	193	diff_vonmises	0.12947790205896756	7.418537328187073	0.523284179814161	81.81856425738138	0.5031284681885829	82.84397974819045	0.05521878359494181	-0.27655592478869817	0.33177470838364	116.65489499175669
4	2.0	perception	193	diff_vonmises	-0.06089724268680887	-3.489154989938066	12.641448858099592	0.9936087962232756	0.2449572442915333	2.4762684548188183	0.8982304364079625	-0.4408474048190572	1.3390778412270197	37.29594769629193
5	2.0	wm	193	diff_vonmises	-0.1715823376383472	-9.830943785665989	3.510507994275435	0.9105802823897744	0.31055937530134586	2.726847997410364	0.07350833968088077	-0.4115815387429821	0.48508987842386286	63.97163284906699
6	3.0	ltm	193	diff_vonmises	0.021537820900975963	1.2340262375345747	1.505746773595195	124.31402707476823	1.4894446611669991	124.72424758392911	0.17775970352089132	-0.1593584015098184	0.3371181050307097	71.5123606633133
7	3.0	perception	193	diff_vonmises	0.005518885532557397	0.3162088486313485	2.8313673800590684	3.7277592963395385	0.8011428968213817	4.447953556046968	1.0102876996963737	-0.4724475226166306	1.4827352223130044	68.52518989722185
8	3.0	wm	193	diff_vonmises	-0.06597234938852173	-3.7799371845247722	3.359983492903674	0.6828535612651518	0.23322052401518395	1.7041048710139353	0.1389438885621994	-0.25112992873146006	0.3900738172936595	67.97755307081277
9	4.0	ltm	193	diff_vonmises	-0.2384519792020229	-13.662292024817196	0.6640673301829306	124.65248781254803	0.6493783558700842	126.01004743291159	-0.025065210752899247	-0.29432737259474884	0.2692621618418496	98.06148067355575
10	4.0	perception	193	diff_vonmises	-0.021487457554013028	-1.2311406303114456	2.1713310548119353	2.8432516433338506	0.2299509044283951	4.235538432290519	0.7038859909541486	-0.5337937904144702	1.2376797813686187	84.79749504573186
11	4.0	wm	193	diff_vonmises	-0.18078728061317326	-10.358348168782117	0.9258484757990699	224.9966168409393	0.9102952796210338	226.7659949471478	0.09135856485670502	-0.4267390782343945	0.5180976430910995	85.67233274353278
12	5.0	ltm	193	diff_vonmises	-0.017918540254220926	-1.0266567316021322	1.876611127615231	1.479322506553453	0.48383034493229976	2.222574891704332	0.19258877887410208	-0.2258728930308771	0.4184616719049792	81.71691315640123
13	5.0	perception	193	diff_vonmises	-0.009648101086453927	-0.5527954725693942	1.0232774033880712	105.60354962323879	0.9764495880495504	106.8868993157785	0.5026048933702398	-0.46534449854793714	0.967949391918177	88.0917183344084
14	5.0	wm	193	diff_vonmises	0.05921509308078669	3.392774917003401	2.022817996704862	1.4239691791132871	0.18240040636473287	2.5081377595852694	0.26452689198703633	-0.3259318258713432	0.5904587178583796	87.69227496828054
15	6.0	ltm	193	diff_vonmises	-0.24372473097005648	-13.964398447545662	0.7635319461563225	180.22197335670506	0.7493847363625694	181.21461050028307	0.19496899858655325	-0.30203964148211426	0.4970086400686675	99.01802949827346
16	6.0	perception	193	diff_vonmises	0.3367137924273156	19.29227920992924	0.06348704407042109	37.44857065056474	1.9742191373029707e-10	38.36507005893862	0.23839526103357755	-0.5181223094321759	0.7565175704657534	173.02734339148424
17	6.0	wm	193	diff_vonmises	-0.29718728802515354	-17.027577328780087	1.9626521238161831	1.1741919850088385	1.0178680277713455e-12	1.9625749087983313	0.2865266408669058	-0.300533915504791	0.5870605563716969	97.7556109741721
18	7.0	ltm	193	diff_vonmises	0.21863680426675505	12.526966130712934	1.0104922668690024	104.33672925659243	0.9905571559676032	104.98712105094096	0.17234215600657876	-0.2058871302591605	0.37822928626573926	86.66248531851272
19	7.0	perception	193	diff_vonmises	-0.09324348588389875	-5.342458208235066	2.0775760091766684	1.4619571275913874	4.189891044180584e-17	2.1109268251206426	0.4357274487340315	-0.32386078263183476	0.7595882313658663	95.2625369823139
20	7.0	wm	193	diff_vonmises	0.28150806589352356	16.129224074589576	0.7811689528625818	93.70412847952329	0.7594330151598198	94.7437579676047	0.08130115237516833	-0.2630177316733633	0.3443188840485316	94.99716862895951
0	1.0	ltm	194	diff_vonmises	-0.5481771912266225	-31.408239482621326	0.8066297020911127	0.9533769662221547	1.4293699807302105e-15	2.6538876508558937	-0.13169059781043535	-0.3644609672198897	0.23277036940945434	133.90791690219038
1	1.0	perception	194	diff_vonmises	-0.08581639649248397	-4.9169173320406125	11.963945076143773	0.923117519451742	0.045961653707497094	3.1786666299813002	0.7305321113068026	-0.5144631631756973	1.2449952744825	38.92755820478976
2	1.0	wm	194	diff_vonmises	0.03070995982945679	1.7595510872441715	4.870950848577039	0.351004083452382	2.1147574720136496e-34	2.1974026352105094	-0.0495900758122399	-0.34970985116748543	0.30011977535524553	61.88375047681291
3	2.0	ltm	194	diff_vonmises	0.16756534870004866	9.600787273150743	0.6428611996736587	68.77452143334357	0.6185775644037829	69.43532801320977	0.139140304175708	-0.21906503812084832	0.3582053422965563	109.09087313376094
4	2.0	perception	194	diff_vonmises	-0.043673179216974174	-2.502288847051082	10.381657186983155	1.1940132938485355	0.42303751221794267	2.006003740628003	1.0485722467588499	-0.3713362217117705	1.4199084684706205	40.70157385428897
5	2.0	wm	194	diff_vonmises	-0.06898739592572661	-3.9526866261421456	7.864635980739448	0.41038790874297115	0.08256584923179552	1.3765634400728197	0.21382518541141407	-0.22242989619535408	0.4362550816067682	47.55015130337591
6	3.0	ltm	194	diff_vonmises	0.0012286957972676496	0.07039908348889815	2.6306930022564106	0.7962777533340288	0.6646703032597872	1.0951821463051918	0.17922309481581766	-0.122121199080576	0.30134429389639367	70.68558532389869
7	3.0	perception	194	diff_vonmises	0.01431303595654907	0.8200765523292549	3.905190528865361	2.3191811981397494	0.5675375063947448	2.6625932827954966	1.0691184899985884	-0.36275241598967073	1.431870905988259	63.08518985568503
8	3.0	wm	194	diff_vonmises	-0.04115348887378353	-2.3579212247063874	3.873050504774407	0.48907559620111923	0.09996488817396504	1.0731624386587442	0.18114069425805032	-0.16354010289209156	0.3446807971501419	67.0496528441777
9	4.0	ltm	194	diff_vonmises	-0.3873217263313857	-22.191900232509486	0.7580735913301714	96.22996284464274	0.7355347526416653	97.31374653435508	0.0982703677554646	-0.28117030449178415	0.37944067224724876	96.99278586027252
10	4.0	perception	194	diff_vonmises	-0.031196949826325274	-1.7874535587298248	2.9716427702630033	2.0007249920844363	1.792287949124583e-17	2.9149220381772114	0.8393584712888646	-0.46050508433984155	1.2998635556287061	79.72013428193355
11	4.0	wm	194	diff_vonmises	-0.1962818388618539	-11.246120961851135	1.1765029181961804	223.28627151950917	1.1610499503853002	224.5316479966009	0.17705284072067684	-0.3464182686296269	0.5234711093503037	77.85296132409215
12	5.0	ltm	194	diff_vonmises	-0.08887125074281861	-5.091947587612388	2.242886085280072	0.705223613538616	1.5253413606892746e-12	1.1523922233020993	0.20634456898032008	-0.17901707964810343	0.3853616486284235	91.78763519044321
13	5.0	perception	194	diff_vonmises	0.02094151955356141	1.1998606870097568	1.1836842664623783	70.22289691548555	1.1218896052367244	70.89596183113996	0.561514104808353	-0.3451354225824792	0.9066495273908322	84.12588836711276
14	5.0	wm	194	diff_vonmises	0.029421306208139923	1.6857166734884652	0.757837274116551	131.93171293048565	0.7399639642332547	132.35410007663495	0.32671774781101703	-0.23966923654061034	0.5663869843516274	104.37922581600623
15	6.0	ltm	194	diff_vonmises	-0.39382940141248773	-22.56476254909909	0.724610579327956	131.13105179479956	0.7076198968738027	131.7983034094634	0.23407082304022708	-0.254249015489755	0.48831983852998206	104.10637568822627
16	6.0	perception	194	diff_vonmises	0.3702782856545238	21.21538301334371	0.40935988646290483	6.033729228040003	1.0691512337647925e-14	6.701515828568505	0.32075209232214874	-0.4547683884419479	0.7755204807640966	154.3286314248704
17	6.0	wm	194	diff_vonmises	-0.25468668099049163	-14.592471918949943	3.168048035928196	0.8802944631655144	8.298273300508246e-14	1.2089200711968244	0.4022133164806442	-0.19135224526212596	0.5935655617427702	77.14960530915178
18	7.0	ltm	194	diff_vonmises	0.1036516944072934	5.93880462891767	1.1702228164909882	242.32748518648535	1.157880892099466	243.41080655941735	0.1530512770268473	-0.30080509532214705	0.45385637234899434	77.99908914702752
19	7.0	perception	194	diff_vonmises	-0.11754538467629035	-6.734854443193178	1.935420578786053	1.5785584668223165	5.099536149485817e-22	2.2318382095337683	0.44311214514594566	-0.3385697361616743	0.78168188130762	98.51779896573612
20	7.0	wm	194	diff_vonmises	0.3037977633870109	17.40632966758973	1.9262671490215086	0.7119098070578425	1.7439458896825166e-12	1.606839472547641	0.10325284674763796	-0.2481158445590831	0.35136869130672105	98.59288244348969
0	1.0	ltm	195	diff_vonmises	0.23506614668030695	13.468298111184735	0.5181838059563875	104.4099070417795	0.49778270714097134	107.13024213892048	-0.27149423972983655	-0.5018091194174819	0.2303148796876453	100.38874985230734
1	1.0	perception	195	diff_vonmises	-0.013614139621751748	-0.7800327420282062	8.791335677629515	0.9285064910477973	0.1027718806922518	4.045837886251887	0.3699936767809823	-0.6640530763393067	1.0340467531202888	44.68188861055529
2	1.0	wm	195	diff_vonmises	0.08136006808180879	4.661588521984683	6.782449170769282	0.2941438926019156	0.11428892686693581	3.7755659349362216	-0.3719601043550114	-0.6240985788766762	0.25213847452166477	47.95276636615978
3	2.0	ltm	195	diff_vonmises	0.04991313200303566	2.859811806053304	0.9909341647360264	5.306137821405878	0.6181716575267575	6.596550482504648	0.029596157618806407	-0.29695040680083745	0.32654656441964386	91.03169388791491
4	2.0	perception	195	diff_vonmises	-0.045773427424495354	-2.6226242052719613	10.089402002880913	1.0681452471124113	0.1513995301646761	2.8387513389690024	0.8130135725450398	-0.4760471808094197	1.2890607533544596	41.89239371529348
5	2.0	wm	195	diff_vonmises	-0.08262642536646415	-4.734145449751082	2.4598122265063584	1.5130195045117951	0.39536829004679597	4.027878216884958	-0.03255042927785723	-0.5453302524450324	0.5127798231671752	70.46320814060425
6	3.0	ltm	195	diff_vonmises	0.14826236042202912	8.494807512829723	1.156113527553898	114.1156472496365	1.136612209394657	114.8366784390177	0.14928023205265362	-0.21488018800067366	0.36416042005332727	79.85992545213452
7	3.0	perception	195	diff_vonmises	-0.008167109242071311	-0.46794089039297476	2.880766517487068	3.4422835293416547	0.6150051134032782	4.632617287368185	0.959280455791754	-0.550622462448628	1.509902918240382	69.45292887694245
8	3.0	wm	195	diff_vonmises	0.009441686955549772	0.5409688140367253	3.832527994851046	0.5054627198355587	0.03288775467927576	2.2761369807229443	0.00531988453784088	-0.3560417083001327	0.3613615928379736	68.0982752506768
9	4.0	ltm	195	diff_vonmises	-0.0015680912514934278	-0.08984501060196076	1.0223820846605196	1.2458065492000403	0.1041977112530543	2.9476125519783	-0.08826194248081554	-0.36578785201103914	0.2775259095302236	115.46825119842438
10	4.0	perception	195	diff_vonmises	0.020181956884468284	1.1563409517950287	0.9430393376529477	417.412234204163	0.9280146998368317	419.5541173978791	0.48944783770434697	-0.653082532642209	1.142530370346556	89.200652226172
11	4.0	wm	195	diff_vonmises	-0.18234312214557724	-10.447491322180031	0.6381327950563637	232.97085628649782	0.6217582898987736	235.88020844668407	-0.06066885537141076	-0.6307318958734989	0.5700630405020881	100.0790066978674
12	5.0	ltm	195	diff_vonmises	0.006938596208425757	0.3975522784882711	1.0693360514290937	123.97918831159636	1.0477725302624643	124.74956449791449	0.23266483053673426	-0.2533880030088813	0.48605283354561557	84.60806487751506
13	5.0	perception	195	diff_vonmises	-0.03196489828954303	-1.8314537645557596	0.9299053942791575	317.58950455305484	0.9128786909781851	318.8475582169292	0.6196510973459795	-0.5120943367749007	1.1317454341208801	92.67260560702678
14	5.0	wm	195	diff_vonmises	0.06899070309055146	3.9528761127287635	3.2212416941649646	1.0584432458992798	6.704299391553463e-22	2.48094245968539	0.3269051082735333	-0.39370488987340757	0.7206099981469409	76.50192323810342
15	6.0	ltm	195	diff_vonmises	-0.17597754585622669	-10.082770666631697	0.6014569630493624	127.04687275882878	0.5857669062213122	127.82050640473922	0.17368717849312532	-0.26950003999483485	0.44318721848796017	112.82043881038153
16	6.0	perception	195	diff_vonmises	0.1394781749043923	7.991510756209193	0.2586669645808718	8.497008890110015	1.303173424240542e-19	9.31665408107576	0.23982844667809422	-0.45592450577640586	0.6957529524545001	164.77113898768084
17	6.0	wm	195	diff_vonmises	-0.30553663833102	-17.5059598629825	1.1889192737085632	1.97648846598217	0.09229101627642593	2.874054541445084	0.24470126077567556	-0.347077121764203	0.5917783825398786	115.12549640510288
18	7.0	ltm	195	diff_vonmises	0.27261186305960206	15.619509198513551	0.9578166526032895	37.943720629422515	0.9126313562793802	38.572376787363766	0.12148831441396268	-0.18347803222672354	0.3049663466406862	88.6168458712693
19	7.0	perception	195	diff_vonmises	-0.04265451628357942	-2.443923760221146	0.8549062777577601	82.70206148142142	0.8068598771511705	83.5570785267522	0.4977283204167371	-0.3917452053318957	0.8894735257486328	98.24480470702076
20	7.0	wm	195	diff_vonmises	0.38256574739663896	21.919402712095373	0.4573814939978809	100.76549307402111	0.4415509326685332	102.16589862685204	-0.03472719544538094	-0.32445119647957554	0.2897240010341946	119.48389111299883
0	1.0	ltm	196	diff_vonmises	0.3262886304860267	18.694961429952976	0.5441802487444154	33.4037083205388	0.47431728188207867	36.411306654068554	-0.2909491091213088	-0.5589105527958282	0.26796144367451946	101.08409719244241
1	1.0	perception	196	diff_vonmises	-0.03480599400592356	-1.9942365582970611	10.269339041720396	0.7384621419831078	1.9577292163220596e-19	3.9484882468546227	0.3036188490048106	-0.6284214211061792	0.9320402701109898	42.3460695726601
2	1.0	wm	196	diff_vonmises	0.013903332833243293	0.7966022925105058	3.6750022051865776	0.6854320991930986	0.20548460967593146	4.058849074896129	-0.28200547777705454	-0.641462474231098	0.3594569964540435	61.28994408172338
3	2.0	ltm	196	diff_vonmises	-0.025526847694513372	-1.462580637168872	0.9833567027649049	1.931639356999956	0.15793738676912486	3.825907693829719	-0.05470836041908289	-0.42522282325561156	0.37051446283652867	113.28632633275082
4	2.0	perception	196	diff_vonmises	-0.05591325342007836	-3.2035934398159056	9.028482420255866	1.245431983019413	0.1614514405220713	3.3743484413396536	0.8439743914684196	-0.5635106396041333	1.4074850310725529	44.10851118089013
5	2.0	wm	196	diff_vonmises	-0.034960015233831555	-2.003061324611612	4.970651710244977	0.6864586975051177	0.0808484202344845	3.309949642441173	0.023165577148922423	-0.5236690617753521	0.5468346389242745	58.61379943530207
6	3.0	ltm	196	diff_vonmises	0.012639081830733636	0.7241660458215193	0.9015935256805901	229.6900018702443	0.8887966693057945	230.95245174332646	0.15520363683322103	-0.33666467373159037	0.4918683105648114	89.10142433982477
7	3.0	perception	196	diff_vonmises	-0.00035306444129876066	-0.020229102382563386	2.1292026618591233	5.092258214122422	0.5826572504527522	6.499031233010829	1.0234778740829253	-0.6364582875812829	1.6599361616642083	78.4581188427237
8	3.0	wm	196	diff_vonmises	-0.0758573447740108	-4.34630570061959	2.669565425552944	1.1775328178105557	0.2856362478209452	3.093982856074477	0.07903550848118646	-0.4325988600172542	0.5116343684984407	72.38021843807803
9	4.0	ltm	196	diff_vonmises	0.27883996428614605	15.976353113174774	0.4138915838085569	2.2065085427439617	1.3444246976049731e-17	4.494662011917507	-0.20616613783508997	-0.49282666902344924	0.28666053118835927	155.2132543687
10	4.0	perception	196	diff_vonmises	-0.011978563564543548	-0.6863211368775286	1.6288953115363267	4.245969641864785	0.2708324968526912	6.92374949099708	0.5149625674178882	-0.7774385879629079	1.2924011553807961	92.11517448908171
11	4.0	wm	196	diff_vonmises	-0.2505932360173773	-14.35793479832145	0.8986903052117489	5.045292290496199	0.3429408528662982	8.215753734610429	-0.16253031272950436	-0.6476378244876344	0.48510751175813005	100.61774729099126
12	5.0	ltm	196	diff_vonmises	0.027318992482994266	1.565262969825193	2.2913615519734853	0.847223788645407	0.08063238100038156	2.1447449555453053	0.10479888527961084	-0.31259063598712555	0.4173895212667364	85.59587291179591
13	5.0	perception	196	diff_vonmises	0.0062161528494822154	0.3561593230835514	2.161308360841904	2.238033094215073	0.05849460775125767	4.034892951450877	0.5294499448050485	-0.5891248781978125	1.118574823002861	90.42067317204655
14	5.0	wm	196	diff_vonmises	-0.047341071125441114	-2.7124435731164223	1.9362565817092579	1.385667208224193	0.11605349998988147	3.257805588952444	0.1206074006479243	-0.4504856152438335	0.5710930158917578	90.35818490779042
15	6.0	ltm	196	diff_vonmises	-0.2615654408236945	-14.98659582567658	0.7545987328465646	1.638499166222317	3.1024806578845595e-11	3.016124860365569	0.003284633355695288	-0.3731761698828918	0.3764608032385871	138.73802974213658
16	6.0	perception	196	diff_vonmises	0.1122557305721759	6.431779587943365	0.5420183769719139	4.417896083612566	6.319357985902401e-13	6.03717976088606	0.164002985994687	-0.5803801750808113	0.7443831610754983	149.76596016163364
17	6.0	wm	196	diff_vonmises	-0.06645166678127283	-3.807400048176625	0.53420278566055	75.19990140550706	0.5038521659714869	77.000630173992	-0.01781894294936137	-0.4163758434582929	0.39855690050893156	112.09081231148791
18	7.0	ltm	196	diff_vonmises	0.30704646530985497	17.59246657666473	1.1866686342576265	69.3216278172654	1.162817956051807	70.12926072133315	0.005876186101680503	-0.19284655410006835	0.19872274020174885	73.58060024524701
19	7.0	perception	196	diff_vonmises	0.007985441424729393	0.4575320911859293	1.9524968273830838	1.7386785606886517	8.133588810815185e-13	3.5005959247908067	0.3268153961344489	-0.5393311675306233	0.8661465636650721	98.13557446181011
20	7.0	wm	196	diff_vonmises	1.5980794515547143	91.56320790066644	10.872440008750003	0.13861248121295197	5.0888690770102984e-20	1.8014494999579973	-0.10661940099286565	-0.2867095925838625	0.18009019159099687	41.14873605987597
0	1.0	ltm	197	diff_vonmises	0.16596113421413322	9.50887255367404	0.11380780386913797	55.51799784471886	0.10209546548464146	57.4896993714413	-0.23788037661169525	-0.3802321834125806	0.14235180680088533	164.11641182406072
1	1.0	perception	197	diff_vonmises	-0.04706926634985239	-2.696870306623688	10.659065120226385	0.798668034632261	0.01736776867676579	3.2171703800332536	0.506374138135729	-0.5141196636389335	1.0204938017746623	41.39274622334656
2	1.0	wm	197	diff_vonmises	0.03418671747725316	1.958754626852735	9.126966153429512	0.1289116071578208	0.11270982306896815	2.423971253731427	-0.27732143072462256	-0.4076362719694617	0.13031484124483916	41.44816796020061
3	2.0	ltm	197	diff_vonmises	0.27999197289684385	16.042358344530488	0.18495845705926897	110.17946684233608	0.1743005781736213	111.26970317226812	-0.0029701806181208212	-0.3134292752971035	0.3104590946789827	156.1640165241791
4	2.0	perception	197	diff_vonmises	-0.039249213578646004	-2.2488142872639783	8.586765734771683	1.4754352342791843	0.43725976883969514	3.059035388628965	0.9790071887271404	-0.5554919694594112	1.5344991581865517	44.02094192674534
5	2.0	wm	197	diff_vonmises	-0.07226923197557204	-4.140721980852175	4.637219130066109	0.6588128662538412	0.2785729571687457	2.8964704377337616	-0.04871681331836675	-0.47171815060621675	0.42300133728785	56.154267049265826
6	3.0	ltm	197	diff_vonmises	0.15879730453543836	9.098415347934264	1.6895061873295554	132.74211446620725	1.6722403657807572	133.12878841024707	0.20643462045225647	-0.16836032165104697	0.37479494210330344	67.79930703348106
7	3.0	perception	197	diff_vonmises	-0.041121451061776726	-2.3560855932935643	1.4679247058336107	383.91693592916755	1.4463906578629229	385.03302633827985	0.9859993434623107	-0.591717235922836	1.5777165793851466	74.59020818598393
8	3.0	wm	197	diff_vonmises	-0.03582601522718559	-2.0526794692891555	2.540781223095296	0.9794192859649615	0.5974647879264636	2.507997782239242	-0.08207267496798631	-0.33930409777013465	0.25723142280214834	63.889881466292564
9	4.0	ltm	197	diff_vonmises	0.22806961904105752	13.067426606209114	1.4788822685440322	1.024882883330914	0.2726729879264716	2.6677545459807046	-0.10732213257328538	-0.3200877942753244	0.21276566170203903	86.42092985797345
10	4.0	perception	197	diff_vonmises	-0.03261929562406858	-1.8689479699486844	0.8810182670822263	354.3447158482361	0.8649547581799337	356.34513065680426	0.4531131348764035	-0.6141318899436001	1.0672450248200036	92.43681242374669
11	4.0	wm	197	diff_vonmises	-0.30019947099155697	-17.200162699876202	1.0062630286374654	254.14316499637363	0.9898827039932575	256.8481346601649	-0.13149454949827089	-0.5772107102351569	0.445716160736886	76.65989632740838
12	5.0	ltm	197	diff_vonmises	-0.10752796356807215	-6.160898492087011	1.4035800647358807	104.39018701945142	1.379060018728418	105.2152275737455	0.11790439294853883	-0.2410524330453967	0.3589568259939355	70.98685898736
13	5.0	perception	197	diff_vonmises	-0.00028907360254936293	-0.01656269739472069	0.9430185809246682	286.2826223172143	0.9243232824065452	287.804739048998	0.5192073644133757	-0.5288710399101539	1.0480784043235296	90.7584477234725
14	5.0	wm	197	diff_vonmises	0.1556615769013711	8.918751388799668	2.84189678768715	0.9722604601418762	0.2205017114903181	2.6414375098873815	0.09955047541230577	-0.37955085476880007	0.47910133018110584	72.499784178385
15	6.0	ltm	197	diff_vonmises	-0.23669684905057942	-13.561730474643328	0.814033806930583	174.90581884760843	0.7994856192250652	176.15610560305896	0.10636654941096424	-0.31802036772726083	0.4243869171382251	92.95157106138022
16	6.0	perception	197	diff_vonmises	0.1200926476421506	6.8808018604469465	1.0242854759310032	2.264715036061285	3.7425663985567603e-16	4.076402325837762	0.13548881415747638	-0.5476720321066105	0.6831608462640869	127.44193358115822
17	6.0	wm	197	diff_vonmises	0.02682757772590387	1.5371069782534665	2.1237786440094744	1.369707190643196	0.23468580160143238	3.053027888886273	0.1265508304334958	-0.4004794024511905	0.5270302328846863	81.99699529999438
18	7.0	ltm	197	diff_vonmises	-1.593990898862273	-91.3289510870727	1.8443976865103886	29.200201125413344	1.8792096179022069	29.772958635739208	0.019310210693224583	-0.44834564939675836	0.46765586008998294	70.71678172577805
19	7.0	perception	197	diff_vonmises	-0.0446984709541123	-2.5610337363587328	1.212066005680937	2.166255157878916	1.4095670153037496e-15	3.7696520789001293	0.22614338706585346	-0.5267981224728833	0.7529415095387367	120.24163966934076
20	7.0	wm	197	diff_vonmises	0.9457193583620281	54.18572783796445	0.681739303738302	109.9960042882402	0.6680544542915834	111.60341467269622	-0.16107532639827937	-0.29877438159108394	0.13769905519280456	86.41913869011438
0	1.0	ltm	198	diff_vonmises	0.2781604694502225	15.937420926875419	2.653276887124599	0.6063515275446532	2.5581185720246274e-18	3.46255931927827	-0.18107122275638604	-0.5492485398374066	0.3681773170810206	84.39434927499383
1	1.0	perception	198	diff_vonmises	-0.11092009441757752	-6.3552532733197955	9.521557155555644	0.8971239645859916	7.07632109486437e-20	3.604075169486952	0.5153146810991106	-0.5736063726529171	1.0889210537520277	44.00459133173962
2	1.0	wm	198	diff_vonmises	-0.08154466788405536	-4.672165311552361	3.2996278164845814	1.0185939044385415	0.28476187372535844	4.149406519078821	-0.15642540255045656	-0.6357001274311388	0.47927472488068223	63.72378442938958
3	2.0	ltm	198	diff_vonmises	-0.1530553435096017	-8.769425215025215	0.6943501063807711	227.5761866388023	0.6809655334649967	229.52898888356378	0.03163007043877997	-0.45034353105811675	0.4819736014968967	97.98710741052477
4	2.0	perception	198	diff_vonmises	-0.06204744843750336	-3.5550569250245365	7.174593893355641	1.3715163113260669	0.14934727652232688	3.2743344636903005	0.8361679974827528	-0.5326554879824843	1.3688234854652372	49.43885559220769
5	2.0	wm	198	diff_vonmises	-0.020315360476938917	-1.1639844146154792	5.697116949592628	0.664923186555212	0.11660091240467022	3.00112059177348	0.08299042222392461	-0.48160210347294274	0.5645925256968674	54.450128460242894
6	3.0	ltm	198	diff_vonmises	-0.003986284771694265	-0.22839729335535228	0.7534252788363369	148.70369839443975	0.7255334562206599	150.69720612618556	0.21461008800400805	-0.5326885142154616	0.7472986022194696	98.04012968549307
7	3.0	perception	198	diff_vonmises	-0.06275382158742442	-3.595529125276375	2.4157895562020064	3.7234032953054905	0.269539748615681	5.797588210375298	0.9639408264306064	-0.7427559364732431	1.7066967629038494	79.8324210177561
8	3.0	wm	198	diff_vonmises	-0.03814955968528054	-2.185808760249008	2.264835627901495	1.8493032551431388	0.3894338689260338	4.394472264242093	0.03363604180031199	-0.5673117828071165	0.6009478246074285	73.83095211078341
9	4.0	ltm	198	diff_vonmises	0.2078394730475458	11.9083246218474	0.9948984714147292	2.008727853665573	5.2660054371601e-16	4.548601690312467	-0.039468942834608445	-0.630350174856979	0.5908812320223705	128.40791599981412
10	4.0	perception	198	diff_vonmises	-0.05894380494071996	-3.3772312515456235	0.643172468106129	607.7988117818032	0.6326449540921233	610.8244672511003	0.3928149847931479	-0.8742930139339933	1.2671079987271412	106.60880278300075
11	4.0	wm	198	diff_vonmises	-0.1499905955375788	-8.593828090957023	2.2605817304368765	1.201574869362065	0.0954602881289614	4.674070974999532	-0.14939644540544705	-0.6863054439038838	0.5369089984984368	82.75450054478068
12	5.0	ltm	198	diff_vonmises	-0.04733069663348361	-2.7118491585126647	1.552596712939094	1.6007403508169264	0.11093826160820294	2.863539476147986	0.2003452473812818	-0.37490799458626406	0.5752532419675458	101.55072503749355
13	5.0	perception	198	diff_vonmises	0.02960352318662205	1.6961569373111172	0.8092348186768616	358.33772896101584	0.7945945714445194	359.7819004481503	0.5647888332897253	-0.5521919235361743	1.1169807568258996	98.64932746048365
14	5.0	wm	198	diff_vonmises	-0.11230654061126213	-6.434690788739901	1.4797951957762734	2.325702217208384	0.2721965007459159	3.8293659228544956	0.2135983453921677	-0.41455187364194795	0.6281502190341157	94.90777707630366
15	6.0	ltm	198	diff_vonmises	-0.1719240899734135	-9.850524752104027	0.6663702250536886	2.125317693651719	6.014712067685895e-18	3.4051988257709302	0.049209061495771866	-0.3860321518451132	0.43524121334088506	143.37735167807335
16	6.0	perception	198	diff_vonmises	-0.048908392279377585	-2.802244460378556	0.7975322788063354	2.6323830687951624	4.575629029041693e-14	4.151291100483281	0.13736580694237976	-0.49877336024391894	0.6361391671862987	137.46742156329964
17	6.0	wm	198	diff_vonmises	0.06453740782824657	3.697721089273089	0.7131514184467299	118.05900890603921	0.6909819373406431	119.66772210441871	0.043888654297504104	-0.3776348402841734	0.4215234945816775	97.52005695988407
18	7.0	ltm	198	diff_vonmises	0.17302444992912933	9.913570733511746	1.631167477653129	106.69477765477518	1.6082765620206032	107.64318790262729	-0.012209650456320276	-0.25739338544029167	0.2451837349839714	61.644426235584206
19	7.0	perception	198	diff_vonmises	0.04285344949094669	2.455321793408291	0.6174739211713842	252.23577539292475	0.59860244926436	254.58871817009472	0.27736381608121974	-0.6771651412355126	0.9545289573167324	108.97945481572134
20	7.0	wm	198	diff_vonmises	-1.6166201434275473	-92.62551129423227	77.1636642042748	0.441071780194012	0.4491899393293255	2.053224195352765	1.053454661150515	-0.4668166650443339	1.5202713261948488	15.276069128990045
0	1.0	ltm	199	diff_vonmises	2.2538162663747814	129.13415986120788	2.355966489688864	64.76329652157257	2.3234495155937926	65.5654223995636	-0.023696326667858147	-0.2529177528154136	0.22922142614755547	184.03753041928388
1	1.0	perception	199	diff_vonmises	-0.10119167572625305	-5.797855940970719	12.168274562463882	0.9541847632566944	0.017265245938075945	2.1477661269927126	0.9658399681457672	-0.3433907310528389	1.309230699198606	38.79117336357493
2	1.0	wm	199	diff_vonmises	0.12335885626697689	7.0679418296587215	2.3389303739055465	0.7781131258195771	1.0796377411067085e-21	1.645357640554197	0.17903766944579108	-0.2577668680656555	0.4368045375114466	89.90504643672969
3	2.0	ltm	199	diff_vonmises	0.11385062527212587	6.523160323018282	2.8237193976644255	0.6344809723149557	1.5731350247684844e-10	0.8868377081465976	0.2602032106314418	-0.1397289600255197	0.3999321706569615	81.81760187043056
4	2.0	perception	199	diff_vonmises	-0.009257564974195375	-0.5304194015895318	7.791287944782777	1.3317278739459315	0.44334481437259254	1.6518383421701848	1.0670624515044582	-0.2858618061047376	1.3529242576091958	46.85927939906367
5	2.0	wm	199	diff_vonmises	-0.04763408741389685	-2.729232169773524	8.389409499224719	0.41016141387197264	0.3184340525619422	0.7925167854393224	0.2973012839733927	-0.13738248302437608	0.4346837669977688	45.19286164757199
6	3.0	ltm	199	diff_vonmises	-0.005946557837576223	-0.3407126667235589	2.4681351375105343	0.5701910991185892	2.292482527011836e-13	0.7181718171229691	0.21920783507397848	-0.1119053505912289	0.33111318566520737	87.55510273480215
7	3.0	perception	199	diff_vonmises	0.02667160965514268	1.5281706660600525	4.263880111372794	2.25671413257014	0.6784034888722023	2.2956372179873106	1.15238342314023	-0.3148609695485193	1.467244392688749	60.47102880632147
8	3.0	wm	199	diff_vonmises	-0.06485412750521344	-3.715867790052037	3.071960970088072	0.5854538328558057	4.020560220738577e-18	0.8564085850082287	0.2523371557282375	-0.13546738776608447	0.387804543494322	78.38230083463287
9	4.0	ltm	199	diff_vonmises	-0.3882206424067863	-22.243404329766403	3.6670025644568045	0.8116092565504026	1.8598903920477128e-18	1.5964874115733385	0.3408222151711803	-0.2537003883465101	0.5945226035176904	71.57476121815952
10	4.0	perception	199	diff_vonmises	-0.026269151306389737	-1.505111501246705	3.2838213128437377	1.9690553020534853	0.04022831857037936	2.63779851272216	0.9202846023598712	-0.4028889639577117	1.3231735663175828	74.72127817015922
11	4.0	wm	199	diff_vonmises	-0.3070423420959518	-17.592230333910052	1.4918430213248592	139.55671014207317	1.4682491923603294	140.34127866380604	0.24287733199721373	-0.27367968086731054	0.5165570128645243	70.92752429969698
12	5.0	ltm	199	diff_vonmises	-0.17094336986642109	-9.794333629089744	1.0826113666043309	1.171795388578316	2.5099769117929807e-14	1.0257158207291304	0.2554044127558482	-0.11521746457045126	0.3706218773262995	125.02470282991183
13	5.0	perception	199	diff_vonmises	0.023911607866849836	1.370034212142313	1.369415901560151	195.874473594287	1.3517358703367148	195.61455438822608	0.7283986625202914	-0.18955026273608055	0.917948925256372	82.50627946313065
14	5.0	wm	199	diff_vonmises	0.004929847783811292	0.28245947165430935	0.9762020563222806	6.191400361972689	0.6861612703063166	5.910825143081178	0.4213670152742026	-0.12613887256624212	0.5475058878404447	105.93144022113793
15	6.0	ltm	199	diff_vonmises	-0.4958546210814585	-28.41037704002623	1.7226802950189282	0.9160041766846365	8.835097699742461e-10	0.9515491129268306	0.2801407761869481	-0.13767789113042186	0.41781866731736994	103.37552056588065
16	6.0	perception	199	diff_vonmises	0.20070971835163076	11.499819768807889	1.4356967312127928	1.82080068920937	4.8208436343261635e-18	1.6336884956901419	0.5080158186411288	-0.21651926924317963	0.7245350878843084	112.32953168269458
17	6.0	wm	199	diff_vonmises	-0.19706160988878654	-11.290798550680957	4.177462318280125	0.56245489284303	2.538746882653734e-15	0.28956231506528624	0.3966806514724663	-0.045981108430304105	0.4426617599027704	66.95307147302881
18	7.0	ltm	199	diff_vonmises	0.18743842418953657	10.739430624643283	1.5172734400709598	221.99873091690694	1.5024381765048207	222.7283883132413	0.25856739041014976	-0.266249747922398	0.5248171383325477	70.58558137246789
19	7.0	perception	199	diff_vonmises	-0.0260523902056886	-1.4926920050139194	1.1461831113952567	2.399996277691286	8.601288622110204e-16	2.517655458507723	0.4852414124837536	-0.3111858819764879	0.7964272944602415	122.73166043153307
20	7.0	wm	199	diff_vonmises	-0.18679150713155562	-10.702365007525955	0.0002646598968957042	4304.295979597373	6.078599519872246e-29	4304.662957285777	0.12290849250121028	-0.2396971279090394	0.3626056204102497	178.9891822437686
0	1.0	ltm	200	diff_vonmises	-0.34751832149785655	-19.911333125297645	0.10296944867490539	40.6783819117911	0.08964892043025478	41.91749787066437	-0.12509420474825816	-0.26183713687914434	0.13674293213088617	164.81176483786538
1	1.0	perception	200	diff_vonmises	-0.05577181139799897	-3.195489408904961	9.726795713101119	0.9153964132705753	0.05316008131091683	2.4627361223529878	0.7104385958621668	-0.39702385150920877	1.1074624473713757	43.161400296531355
2	1.0	wm	200	diff_vonmises	0.21204133759926969	12.149073726746808	3.4701323141436102	0.2788252757284421	1.0140918374162492e-33	1.7492503604272813	-0.0801779733431307	-0.27820995369913465	0.19803198035600394	73.63528409352057
3	2.0	ltm	200	diff_vonmises	0.40826509984164994	23.391867143413716	0.701587824085663	85.84658452980639	0.6852939027348472	86.42760841401712	0.10281284972658256	-0.17631660434127827	0.2791294540678608	103.192181127422
4	2.0	perception	200	diff_vonmises	-0.005893032477550064	-0.33764588949714175	6.900345223311507	1.716674005878196	0.6052626435950381	2.4743778735129904	1.1041697008551339	-0.4331870846822108	1.5373567855373447	48.446327075373745
5	2.0	wm	200	diff_vonmises	0.005278902273026393	0.3024588207064293	8.39686055690153	0.40017651986077707	0.24144989113812768	1.658204207820968	0.12412078114805364	-0.28682339267192797	0.4109441738199816	44.46571295386758
6	3.0	ltm	200	diff_vonmises	0.27188442278316277	15.577829940825751	1.6503380312843476	66.38411510443231	1.6298210079822166	66.49145526668214	0.18220910304179228	-0.08656166079100025	0.2687707638327925	71.40428496695506
7	3.0	perception	200	diff_vonmises	0.009352110359145464	0.5358364531196116	2.985433575845833	3.6171891227669017	0.9329844888902852	4.03166186283046	1.0359330312205286	-0.4133869118468137	1.4493199430673422	66.45986966404959
8	3.0	wm	200	diff_vonmises	-0.014783252172855253	-0.8470179569822097	7.739804504762255	0.17988084729165463	3.430800497107693e-21	1.0084140683096516	0.03570743817554492	-0.16049404649986407	0.196201484675409	48.871373235944816
9	4.0	ltm	200	diff_vonmises	-0.26402012974810507	-15.127239141062816	15.723967718464625	0.26531636064967185	2.1110223907520835e-37	1.3455483454313688	0.20211246344757997	-0.21415067034451427	0.41626313379209423	34.15487399712708
10	4.0	perception	200	diff_vonmises	-0.0028768886899040048	-0.16483358006042012	1.1085405574410785	148.55880299932076	1.070368362370051	149.94987365754233	0.5692135379320931	-0.5091830779279984	1.0783966158600915	84.39608515973606
11	4.0	wm	200	diff_vonmises	-0.3331924182759494	-19.0905193329695	1.1571052364623144	165.31612753857553	1.1344735105717647	167.17680137528362	0.013597828307126747	-0.4408710862282099	0.45446891453533667	74.53798077347564
12	5.0	ltm	200	diff_vonmises	-0.13330467834481985	-7.637795458507158	1.3753080375245441	24.943350310724842	1.3194050769872114	25.151258901771154	0.1679539631398228	-0.10424750686830553	0.27220147000812833	77.49642377511395
13	5.0	perception	200	diff_vonmises	-0.008497741191055898	-0.48688470564197633	1.1621700826164025	321.77146194296427	1.1480255072318124	322.10101640411784	0.7242613767333523	-0.32763950699274247	1.0519008837260948	86.02356485832453
14	5.0	wm	200	diff_vonmises	0.15300218890468875	8.766379680502018	3.1221905367119622	0.7715332235725119	0.003959531740607111	1.302239221478264	0.3088216911362487	-0.205434457207026	0.5142561483432747	77.58725621302136
15	6.0	ltm	200	diff_vonmises	-0.4555046207706601	-26.098492318865922	0.7914225745899403	111.90681544521918	0.7768701496422624	112.28358519268359	0.19825958747289008	-0.16755600050585429	0.36581558797874436	100.81925547275277
16	6.0	perception	200	diff_vonmises	0.1362924840086917	7.808984113052298	1.4588398791471309	1.8182951131144554	0.0014097766144142395	2.4243550997592602	0.38805316119903766	-0.3434379318809952	0.7314910930800329	111.60366938298262
17	6.0	wm	200	diff_vonmises	-0.110533490108391	-6.333102478061837	3.732226524648081	0.7065285706768522	1.5606473715330424e-13	1.0793052488875468	0.3511558166418861	-0.17147703580804172	0.5226328524499279	70.94159503236526
18	7.0	ltm	200	diff_vonmises	0.031204511244932096	1.7878867961031273	1.6438311566954111	185.39493702626046	1.6286631562474827	186.23221738662096	0.09635187411157631	-0.25599422746422107	0.3523461015757974	64.60457950139758
19	7.0	perception	200	diff_vonmises	-0.061541211601820696	-3.5260516909058626	1.4266696285522653	2.074619586002446	5.086849854014871e-15	2.8683657099468363	0.4152562475054205	-0.4062507911381097	0.8215070386435301	112.78468772537427
20	7.0	wm	200	diff_vonmises	0.01924083009089963	1.1024183585368648	0.00022227169472533603	3289.0853146338363	5.26806905106135e-24	3290.197794648807	-0.06069691987943315	-0.29340353610598413	0.23270661622655098	179.9487945008954
0	1.0	ltm	201	diff_vonmises	0.12155454343746724	6.964562319606511	5.109931760668502	0.40609893788284657	3.692273714823007e-31	3.4744848340382934	-0.19673607813767918	-0.5529684546888938	0.3562323765512146	60.382883194324734
1	1.0	perception	201	diff_vonmises	-0.053705402518654737	-3.077092901370178	8.158920545009423	1.0772473432030354	0.0919895218917206	4.266973485378139	0.46459540880816197	-0.6941043655149999	1.158699774323162	46.493786246326295
2	1.0	wm	201	diff_vonmises	0.06909879394270893	3.9590692623613593	2.2912126307616147	1.140381075479215	0.16056282047660955	4.8636668255623725	-0.26475821052658055	-0.7055495521039815	0.44079134157740096	77.23720615039161
3	2.0	ltm	201	diff_vonmises	0.060147818020676036	3.446216119505654	2.061080627518362	1.96368841960584	0.6383733644324575	3.2053408456299084	0.15703615697256867	-0.3312828480286588	0.4883190050012275	73.85225484216207
4	2.0	perception	201	diff_vonmises	-0.038437328440149444	-2.202296695378731	9.077862105403415	1.07105232616961	0.1048323677201322	2.3735582962984116	0.8502562436082146	-0.3874772995217004	1.237733543129915	44.442698628053876
5	2.0	wm	201	diff_vonmises	0.015394909527721072	0.8820633419241568	5.148320203358025	0.5991058424788928	0.06260252034811986	2.332187866606964	0.1328777642334042	-0.36805026010726666	0.5009280243406709	58.44220129404749
6	3.0	ltm	201	diff_vonmises	-0.02148860558328525	-1.2312064075435014	1.7373704061804995	0.8323746276202337	1.3833543627827845e-22	1.8733284969655308	0.09607675659248716	-0.285940013323351	0.38201676991583816	103.57471688995159
7	3.0	perception	201	diff_vonmises	0.00032095504128982664	0.01838936927935414	4.881908220836325	1.813674121426339	0.15032924115597507	2.877348736520243	1.0235337125026511	-0.44380251263231146	1.4673362251349626	59.928645149379975
8	3.0	wm	201	diff_vonmises	0.1274757996845729	7.303825311981138	2.048754612015792	0.9244087798443841	3.8687641959892058e-16	2.534688166320496	0.08045265758407022	-0.3953688215236035	0.4758214791076737	95.8872775771205
9	4.0	ltm	201	diff_vonmises	-0.29164260207822146	-16.709890225295382	0.9516654450991	1.8903247862230785	2.055456211298949e-14	3.563043470088942	0.06154197217286339	-0.4733648294608167	0.5349068016336801	129.92487143082715
10	4.0	perception	201	diff_vonmises	0.026796682960052186	1.5353368385611201	1.1721511453527758	13.02054083355876	0.7002794957254403	14.958581438877497	0.6119788387069471	-0.653735988520838	1.2657148272277852	90.74568153474519
11	4.0	wm	201	diff_vonmises	-0.1544381101114053	-8.848651905360207	1.0453595799743447	4.357440603581023	0.2544945299698383	7.140682130676589	0.08390534104860481	-0.680092729221714	0.7639980702703189	106.26567093619832
12	5.0	ltm	201	diff_vonmises	-0.05401038874490855	-3.094567324944143	1.6446664154144288	1.4821126856175053	1.593809592563924e-14	2.1350551622664873	0.33910811961917675	-0.3144954781362469	0.6536035977554236	106.13866522452342
13	5.0	perception	201	diff_vonmises	-0.02075612196479979	-1.1892381876418139	0.9759822744318182	295.80263013076154	0.9597010838073443	296.4520478841127	0.6964616666321035	-0.4054991702160464	1.10196083684815	92.60702097463789
14	5.0	wm	201	diff_vonmises	0.0012779325279063723	0.07322014035151943	2.0553221010781937	1.6113396628407135	2.6601638963651912e-17	2.3289140456060333	0.4744132573510337	-0.35680132370512385	0.8312145810561575	95.76342562508566
15	6.0	ltm	201	diff_vonmises	-0.0816659183554716	-4.679112451828483	0.23549792211771545	6.718442425979834	5.682628388566239e-11	7.0403827423629854	0.21412142796213618	-0.2871870864087487	0.5013085143708849	166.4529329163863
16	6.0	perception	201	diff_vonmises	0.13928045889733598	7.980182463462687	0.36474555289570926	6.247159877558641	1.3427934115971842e-12	6.546085488757684	0.3435847423119822	-0.3738524484176613	0.7174371907296435	158.97455195112224
17	6.0	wm	201	diff_vonmises	-0.30715843892228906	-17.598882192074036	0.7155960862204893	108.65907398292143	0.6932749013343033	108.91048926205919	0.3911285564935305	-0.24318591907413634	0.6343144755676668	109.21223276167785
18	7.0	ltm	201	diff_vonmises	0.15787304881537337	9.045459395983714	0.7897982483082014	142.84348921942316	0.7726411148365795	144.04073664620984	0.11074253422975744	-0.3092931521732609	0.42003568640301836	94.78083643180346
19	7.0	perception	201	diff_vonmises	-0.024034945705104074	-1.377100949728548	1.2689014008144184	7.706308220490008	0.6614427579276013	8.491355442204425	0.6653202186000322	-0.42274910669513704	1.0880693252951692	92.56758790023494
20	7.0	wm	201	diff_vonmises	0.4410148778338096	25.26829120235489	0.18116865915701016	123.29210875971172	0.1689483674285431	124.62557354231987	0.00926368616712736	-0.395131630692223	0.4043953168593504	154.64877808760798
0	1.0	ltm	202	diff_vonmises	0.17159838301339606	9.831863117936992	3.982513277570831	0.37830404376895577	4.4703724369303994e-26	3.451832362634825	-0.2592143622264108	-0.5492753768434993	0.29006101461708844	68.61405292849787
1	1.0	perception	202	diff_vonmises	0.02091984916473389	1.1986190651895323	10.51862100146477	0.7648054003255127	0.06832439847670298	4.305588258471184	0.24433116504223484	-0.7031843606300426	0.9475155256722775	41.112712671572496
2	1.0	wm	202	diff_vonmises	0.11952747618169642	6.8484199210616765	3.5553263681940823	0.7714470058294186	0.20651042116818888	4.530069594962997	-0.3211022695633944	-0.7128484403154733	0.39174617075207896	62.00347826452767
3	2.0	ltm	202	diff_vonmises	-0.010211209924414207	-0.5850592323910344	3.5697961736041157	0.5749386476961239	0.031246033918130904	2.124464760642634	0.06642105695560524	-0.3310358817716758	0.39745693872728105	70.8452407829426
4	2.0	perception	202	diff_vonmises	-0.05130316079064907	-2.9394545889852393	11.286351873326238	0.9360850151537106	0.040367555989046885	2.9120576677773484	0.7577266984347568	-0.4694186607622596	1.2271453591970163	40.11979171055876
5	2.0	wm	202	diff_vonmises	-0.07862186170739119	-4.504700853294736	3.349243583732069	1.0009585288758955	0.17857643521564956	3.4309798176064525	0.04993532667232514	-0.5176174940993861	0.5675528207717112	67.86529691479174
6	3.0	ltm	202	diff_vonmises	-0.01041213392031589	-0.5965713293591047	0.8406182030367377	104.87482036900234	0.8219887971693938	105.69104354209792	0.12168188604849206	-0.22749848621370639	0.34918037226219845	93.28787675958799
7	3.0	perception	202	diff_vonmises	0.04013703384323766	2.2996826413912683	3.0486289155661397	3.2020642513285744	0.5444471530059308	4.122933689378994	1.0647734782134728	-0.5101876380340413	1.5749611162475141	69.32434346851048
8	3.0	wm	202	diff_vonmises	-0.07779862639634488	-4.457532944425643	2.9982948100285727	0.7984518445660627	1.0015044736458277e-13	2.2648071956305267	0.16227744573301778	-0.35915486044072015	0.5214323061737379	79.3616147641506
9	4.0	ltm	202	diff_vonmises	-0.1534119801739843	-8.789858990713961	0.6499411824374335	1.3857881853539558	8.265037089645439e-14	3.185534695733164	-0.12586294570076378	-0.4031102467379324	0.2772473010371686	144.25629080910392
10	4.0	perception	202	diff_vonmises	0.025944032982014358	1.4864835934176304	2.0059428299182342	4.038863277268069	0.39006896439844746	6.129929926667031	0.6994366681157196	-0.682233132671786	1.3816698007875057	82.54345324834532
11	4.0	wm	202	diff_vonmises	-0.24347609610171533	-13.950152718949925	0.5079025100416984	171.8569146666618	0.4885715957701897	174.4376495094893	-0.010510467291851455	-0.6128546012401799	0.6023441339483284	115.07885019351347
12	5.0	ltm	202	diff_vonmises	0.048438674844352714	2.7753316337879204	2.251139480688971	0.849380790899207	7.876422672773057e-18	1.664261833572714	0.20557204917227906	-0.2596610135066118	0.46523306267889086	91.62742147504787
13	5.0	perception	202	diff_vonmises	-0.03371780555862231	-1.9318879529518056	2.130557393800979	2.472961426665857	0.16485509212954116	3.6833703544818217	0.6386988576765498	-0.48370166524294167	1.1224005229194916	87.51821787865228
14	5.0	wm	202	diff_vonmises	0.010798566757958757	0.6187123000213052	2.709954035151672	1.1540142867224255	3.240791943644689e-17	2.4670006031163125	0.3202331821199694	-0.3894786981562066	0.7097118802761759	83.54104543182214
15	6.0	ltm	202	diff_vonmises	-0.224731404784046	-12.876161018171953	0.3186556799210609	98.45112404160913	0.30370968280596017	99.16322613429423	0.11402194195932935	-0.274983913817028	0.3890058557763574	142.33123522587886
16	6.0	perception	202	diff_vonmises	0.18934431035360544	10.848629858076807	0.33145021881816233	7.393281751009609	1.2146086028108302e-16	7.879536236277717	0.34091925840303827	-0.4320819625776873	0.7730012209807255	160.420399101386
17	6.0	wm	202	diff_vonmises	-0.3757439260243234	-21.528541138869546	0.42998823683163745	112.51094052284472	0.4132662446549221	113.29790489983783	0.16520414485074397	-0.3061692329653294	0.47137337781607336	129.75465314226102
18	7.0	ltm	202	diff_vonmises	0.42231546099362394	24.196893538056393	1.6957688635548918	0.9446739953535289	0.27977012197145457	1.456285844500847	0.14017601644466698	-0.1630627097093132	0.3032387261539802	91.16405133290974
19	7.0	perception	202	diff_vonmises	-0.0030274249749491656	-0.17345867385708616	2.1474160177876707	1.5891302079487102	0.007186031019694815	2.229918217266366	0.49822644572726604	-0.34068598682399065	0.8389124325512567	93.46904473397589
20	7.0	wm	202	diff_vonmises	0.1463209598028235	8.383573451005157	0.5314677221717257	88.46103535026884	0.5151860582967854	89.54549499302968	-0.00053951362896143	-0.25599352613244974	0.2554540125034883	112.30705670872263
0	1.0	ltm	203	diff_vonmises	0.12892663476040747	7.386952038596002	0.5708528572938709	102.53432521723941	0.5517276098419471	104.57975582548346	-0.15493836489714852	-0.3973473349696075	0.24240897007245898	99.92194045779692
1	1.0	perception	203	diff_vonmises	-0.08593870062294737	-4.923924842533183	9.733960359185417	0.9784020055175499	0.008266372687826911	3.122524616639455	0.7002636479782067	-0.49728566570898947	1.1975493136871962	43.42491316817416
2	1.0	wm	203	diff_vonmises	0.0622354572059606	3.5658290339685887	6.2049656969039075	0.2876731026107881	5.977082164230312e-20	2.7321198834651756	-0.15526696940820722	-0.4348292441386267	0.2795622747304195	54.69025917601357
3	2.0	ltm	203	diff_vonmises	0.02854323066447123	1.635406650742594	0.8806070495222856	119.80329347267647	0.8623041732371597	120.82025085321571	0.09722435454277445	-0.2612495246979947	0.3584738792407691	89.5906891896359
4	2.0	perception	203	diff_vonmises	-0.035558730760167925	-2.0373651973996396	8.072802704050785	1.326892049103185	0.2900181395142874	2.423748211884189	0.9744045370660028	-0.41309712844012514	1.3875016655061279	46.22292395335296
5	2.0	wm	203	diff_vonmises	-0.027062113665059753	-1.5505448977112357	6.100146015172009	0.519995970712266	0.18567900676221863	2.150444869062527	0.09227756274637577	-0.3527167295729536	0.44499429231932935	51.91134216117899
6	3.0	ltm	203	diff_vonmises	0.1185355186772376	6.791584942599857	1.1350935475792414	124.59857641711332	1.1167135200274858	125.26354142338286	0.1855648813283466	-0.21370016953047255	0.39926505085881914	81.64018555113762
7	3.0	perception	203	diff_vonmises	-0.011069988761026677	-0.6342636352640838	2.9382310236592364	2.880890433851638	0.5096695481374723	3.7657942199698238	0.9284988930105652	-0.46349750475960355	1.3919963977701688	70.71392854155636
8	3.0	wm	203	diff_vonmises	0.05582441981761141	3.1985036493156067	3.074544153902202	0.7080747115300575	0.2948390501595479	1.9776248796877893	0.05663086470455364	-0.2876937205705208	0.3443245852750744	68.06816167370033
9	4.0	ltm	203	diff_vonmises	-0.10324406827110955	-5.915449371695111	2.170081480709258	0.7263774456698185	1.7976442752658538e-17	2.128202876396627	0.05488504931373178	-0.33358365434303333	0.3884687036567651	93.27541686096613
10	4.0	perception	203	diff_vonmises	-0.012342483453110651	-0.7071722105732948	0.9161659307092973	549.2787108383412	0.9058978451574438	551.0268524275217	0.5074400130610286	-0.5759232587924572	1.0833632718534858	91.32526049236358
11	4.0	wm	203	diff_vonmises	-0.20277701012946742	-11.618266862700025	0.9279386582462347	218.95713838547405	0.9106095014249733	221.09037333873613	0.029158259945475606	-0.4873924020869538	0.5165506620324294	83.94502396943012
12	5.0	ltm	203	diff_vonmises	-0.02530611289388945	-1.4499334647014597	0.9986319005133636	51.39549323698686	0.9536984403583281	52.07268029739685	0.2122277560746859	-0.22677020326563557	0.4389979593403215	88.39441032575789
13	5.0	perception	203	diff_vonmises	0.002967789918069461	0.1700418367868565	1.0103658783799923	284.89498755058577	0.9935911364837173	285.7545354714789	0.6112287617325478	-0.41354379016192055	1.0247725518944684	89.92110916841551
14	5.0	wm	203	diff_vonmises	0.036669759273035125	2.1010224421056263	1.9719658495370855	1.3338621654093905	0.07725149157017859	2.2754029998340903	0.2916245115965675	-0.3215025110463962	0.6131270226429637	93.59399743323442
15	6.0	ltm	203	diff_vonmises	-0.244409264729327	-14.003619342886088	0.6220913776140344	90.06226275777358	0.59962341030766	90.86019534733467	0.17154276824393122	-0.270167935083121	0.4417107033270522	110.99586837688054
16	6.0	perception	203	diff_vonmises	0.15689300989285582	8.98930730196491	0.5057486952574177	4.083717309771217	1.7833847630400515e-16	5.034508245371619	0.2107325394596543	-0.4332289826134264	0.6439615220730808	151.42069085217798
17	6.0	wm	203	diff_vonmises	-0.21691329149040145	-12.428216122690998	2.0190958935345114	1.1407993276255495	0.07323547662059245	1.919795178831519	0.26355673139599173	-0.27315254405155975	0.5367092754475515	92.83643613646606
18	7.0	ltm	203	diff_vonmises	0.03279554049437846	1.879046057178271	1.1494295328537905	210.17465299857932	1.1363706217322442	211.34548232746863	0.0810053807707618	-0.29801250843864935	0.37901788920941115	76.91522862176498
19	7.0	perception	203	diff_vonmises	-0.09933807062237696	-5.69165219163471	2.3665451100025954	1.702203161393659	6.392875925808955e-16	2.570901786330999	0.5620568324462489	-0.4006250710508598	0.9626819034971088	89.39533605939212
20	7.0	wm	203	diff_vonmises	0.5302135799226134	30.37900037008811	0.37765858926652895	78.4358506998732	0.35982808028241364	79.77544621013652	-0.041135992094591955	-0.3198943739008495	0.27875838180625756	128.72380993958456
0	1.0	ltm	204	diff_vonmises	-0.05909710117741355	-3.3860144789234043	1.0988384847890045	0.8555549680024638	1.4527279265237946e-24	3.409440455748474	-0.23436508646325532	-0.5083915062707806	0.27402641980752523	124.55532752965243
1	1.0	perception	204	diff_vonmises	-0.07216811942466425	-4.134928658429357	12.445047029860401	0.8011220091261456	2.1457239890444044e-19	3.721580668179503	0.523367135410333	-0.5923079594387111	1.1156750948490441	38.42973539342165
2	1.0	wm	204	diff_vonmises	-0.013382001376030602	-0.7667322002848136	4.455509788903761	0.6300641178587766	0.07217430113200113	3.410204706893193	-0.06902022529095775	-0.5366686902944312	0.46764846500347346	61.6231792951406
3	2.0	ltm	204	diff_vonmises	-0.0033521318652321107	-0.1920630082491164	2.778569157859648	0.7369769038389437	1.5053546483305897e-14	2.0409454890924223	0.13708102414028933	-0.3230436337556465	0.4601246578959358	82.4879703107458
4	2.0	perception	204	diff_vonmises	-0.050034784464124515	-2.8667819786410753	10.077870339836679	1.0842326680249488	0.14749001476631798	2.487845167223197	0.8988528186434166	-0.415590159776579	1.3144429784199956	42.019058262008684
5	2.0	wm	204	diff_vonmises	-0.05282805336490566	-3.0268244977009813	6.410395025471309	0.5339974518814873	0.014519618752379372	2.0614105768632274	0.19510990691857794	-0.32720707211164257	0.5223169790302205	53.43855725954296
6	3.0	ltm	204	diff_vonmises	-0.10966177376293122	-6.2831568105344235	2.13439828787521	0.8716159813812078	4.8152231759705046e-14	1.8155141937777277	0.17866516579329061	-0.28240177744630063	0.46106694323959124	94.02799441275667
7	3.0	perception	204	diff_vonmises	0.017431108052479376	0.9987289236435721	3.9222081797538855	2.3406253084099604	0.2603107935303114	3.180629353911916	1.1346503514622892	-0.4625739425250707	1.59722429398736	65.432606144797
8	3.0	wm	204	diff_vonmises	-0.06807621809167781	-3.900479981865278	3.3447007500245594	0.7771572001232993	2.873117290552381e-13	1.9484621210259774	0.23115383714891874	-0.30943402757378785	0.5405878647227066	75.04403371541545
9	4.0	ltm	204	diff_vonmises	-0.2839647204021003	-16.26998000965281	1.0384261826732037	1.541515270826142	2.085278757440006e-16	3.225092581273499	0.02464239948960878	-0.4458720680078722	0.470514467497481	126.41908839526276
10	4.0	perception	204	diff_vonmises	-0.033064258552751524	-1.8944424678019978	2.63512139494241	2.4467714865595758	1.9426802991472952e-22	4.086101002821116	0.8368022059951009	-0.6426757672741825	1.4794779732692835	84.72605861126752
11	4.0	wm	204	diff_vonmises	-0.18980229052565809	-10.8748701890361	0.8278111686482877	134.13404340997198	0.8006418128957629	136.1229253350229	0.0917096790030385	-0.4755292268477014	0.5672389058507399	91.02810678468244
12	5.0	ltm	204	diff_vonmises	-0.07538301867971035	-4.319128817303251	1.2177564352466697	1.4980916255871093	2.1747071280748085e-16	2.2542973506516293	0.2140958793977507	-0.3086235411642845	0.5227194205620351	120.01022045437674
13	5.0	perception	204	diff_vonmises	0.016210074460712643	0.9287688521916384	1.8629945508078307	2.868009581589075	0.3465614109153537	3.7414870410430674	0.5998859938023432	-0.39947071129213985	0.999356705094483	87.79250605878622
14	5.0	wm	204	diff_vonmises	-0.06361820844402437	-3.645054844026132	1.76429178478775	1.5261233613151688	0.07257544292226924	2.3234821338819875	0.33247422837109164	-0.3220425082631234	0.6545167366342151	99.16555943969593
15	6.0	ltm	204	diff_vonmises	-0.2995601770982601	-17.163533857921802	0.7145224298720845	2.0652727322765068	6.739978835346267e-10	2.8261189526403516	0.14361609578194656	-0.3076467064285445	0.4512628022104911	140.34880080909363
16	6.0	perception	204	diff_vonmises	0.21074887817687196	12.075021256651503	0.5516465996671605	4.478812532287171	5.3005956271633905e-17	5.12981861110338	0.33205445064888806	-0.4353932883257492	0.7674477389746373	148.74788640653497
17	6.0	wm	204	diff_vonmises	-0.17404750767987265	-9.972187624827486	1.0391227438085697	3.171714298079156	0.43047561590758926	3.8653918013271724	0.20343357028874065	-0.24588487443932536	0.44931844472806604	103.31349800723635
18	7.0	ltm	204	diff_vonmises	0.28425279768005784	16.286485621853394	1.2274994582434446	155.13572462119706	1.211690483613327	155.980769553716	0.1294731964590028	-0.24006767492775438	0.3695408713867572	76.3405588977748
19	7.0	perception	204	diff_vonmises	-0.010757736551765566	-0.6163729015297864	1.746704577918895	1.8565677838724712	1.3519865562951155e-17	2.8197734193669612	0.4333709481630004	-0.42196395010873083	0.8553348982717313	103.32635817475932
20	7.0	wm	204	diff_vonmises	0.1910257278324624	10.94496798321484	0.007552670619738748	98.48087167142127	2.962324960435538e-09	99.47945002427568	-0.040327403235355774	-0.2770829265213717	0.2367555232860159	178.33591301325123
0	1.0	ltm	205	diff_vonmises	0.16659288328844288	9.54506910934328	0.6491170441496836	64.84620204315537	0.5999497175708886	68.26267486580754	-0.30248951426697346	-0.6448078563336992	0.34231834206672573	92.2467608401601
1	1.0	perception	205	diff_vonmises	-0.05473543888485528	-3.1361096378984605	9.55021222397376	0.9299259738765009	0.05319304741957154	4.7045573572735595	0.34155772039508947	-0.7606840227505869	1.1022417431456764	43.295148524976526
2	1.0	wm	205	diff_vonmises	0.03249851654103243	1.862027838237253	7.03668458287827	0.33075808369154425	0.07211647497389244	4.253259078345801	-0.3832629971366945	-0.6911861520818384	0.30792315494514394	48.44899864243618
3	2.0	ltm	205	diff_vonmises	-0.06231551143411222	-3.5704158033738542	2.3254985259599796	0.9734277943538933	0.1757215900434465	2.4788613846947043	0.08295711598160554	-0.3446827954592563	0.42763991144086183	80.53701176428393
4	2.0	perception	205	diff_vonmises	-0.07760543618511825	-4.446463960679116	13.362812913297551	0.9370257027930025	0.13418667838067694	2.597969087245953	0.881980378920461	-0.44001105156711906	1.32199143048758	36.59984832066988
5	2.0	wm	205	diff_vonmises	-0.10444874694122612	-5.984472375162223	4.123609304594419	0.7404480457605731	0.140160541703984	2.8222923119188694	0.06458182475122254	-0.4391987298281336	0.5037805545793561	62.79300789294922
6	3.0	ltm	205	diff_vonmises	-0.0359208447827243	-2.058112802594625	1.1272143024479764	100.69636790600426	1.1014801786503783	101.63450720911311	0.14581656108862973	-0.262880087406824	0.40869664849545373	80.11630611653587
7	3.0	perception	205	diff_vonmises	-0.002870545858947997	-0.16447016261647593	3.2192424816349954	2.50902351011019	0.332030454914828	3.5876360169393817	0.9359477241984449	-0.48822989831579144	1.4241776225142364	70.17231646066577
8	3.0	wm	205	diff_vonmises	-0.006823778423876103	-0.3909737040205336	3.128548240290498	0.8526236382449573	0.23289430926442406	2.229963813112441	0.12989191586503246	-0.325128295236408	0.4550202111014405	69.71103868432661
9	4.0	ltm	205	diff_vonmises	-0.11563173157575893	-6.6252101970806025	0.40140053398878617	30.51354806006375	0.34681634899193553	32.24039852570086	-0.07359319808608422	-0.39709087373509266	0.32349767564900844	128.8310171683213
10	4.0	perception	205	diff_vonmises	-0.018949581089947154	-1.0857310199948864	1.6899137327705962	3.8838054318722666	0.2783533423560358	5.730658858087588	0.626909041807965	-0.636017485588408	1.262926527396373	91.86197837648729
11	4.0	wm	205	diff_vonmises	-0.0851904248056948	-4.881051796292908	0.7336537564978094	267.39984685622346	0.7197228707387309	269.6117665553783	0.0729800283239399	-0.5222729601293992	0.5952529884533391	96.03883632783248
12	5.0	ltm	205	diff_vonmises	0.0427929914805982	2.451857804577565	2.0483401730318973	1.3281175270537762	0.1408686499455268	2.8011132659383935	0.1843525733744903	-0.3814945287020333	0.5658471020765237	87.74078377813265
13	5.0	perception	205	diff_vonmises	0.003954509644201035	0.22657671265650012	1.926728243091073	2.60045415558535	0.2384562564249102	4.3731905431946645	0.4405291324021323	-0.5362602555258562	0.9767893879279885	87.60942095550024
14	5.0	wm	205	diff_vonmises	-0.002966843692780629	-0.16998762207133788	1.4561695167873216	2.492573638424956	0.23788719271657022	4.065045056543371	0.25122369080611273	-0.450860057814373	0.7020837486204857	97.36615076889075
15	6.0	ltm	205	diff_vonmises	-0.10131044960491285	-5.804661182934325	1.4887412729956866	1.7862662873150161	0.18051419426962814	3.26258639091432	0.15325135196643302	-0.39298822867772254	0.5462395806441556	98.42432435892428
16	6.0	perception	205	diff_vonmises	0.3403309212628421	19.49952542615998	0.00015566327095374013	15075.831084006977	5.585731240673347e-30	15077.273898863084	0.14386658965986499	-0.6030997568000203	0.7469663464598852	176.36482766622458
17	6.0	wm	205	diff_vonmises	-0.40498476904881325	-23.20391803357737	0.5489853427506841	182.23343218395175	0.5327587725325267	183.5535041010948	0.22209834193849787	-0.4365998758165901	0.658698217755088	116.82233233745986
18	7.0	ltm	205	diff_vonmises	0.34972392414383563	20.037704848195133	1.0088400369456259	1.454138660750003	1.205507989141162e-16	2.73099035837788	0.06467453594260353	-0.368258529792172	0.4329330657347755	127.18980339316465
19	7.0	perception	205	diff_vonmises	-0.09167628292492785	-5.25266409304562	3.2596502573370296	1.3876707477801125	6.276462872889049e-18	2.389377951971185	0.5722854822141688	-0.37887647241151146	0.9511619546256802	76.04087905344352
20	7.0	wm	205	diff_vonmises	0.44955778369154353	25.757763652780636	0.6293273216624901	117.96075275780287	0.6107777978218105	119.46059042383185	0.013549474654780624	-0.34695153860184824	0.36050101325662887	103.10545329645566
0	1.0	ltm	206	diff_vonmises	0.15494763870790965	8.877845743481132	0.5094599254799583	118.04678639805798	0.49502559037509164	120.0390963992426	-0.17114819110103596	-0.38086035648111505	0.20971216538007909	104.22949453797469
1	1.0	perception	206	diff_vonmises	-0.05080031382720738	-2.910643580239061	10.103634708450743	0.901474282487811	0.08145053493609117	3.2900866485522404	0.5611736753554537	-0.5379256809907386	1.0990993563461924	42.059686723174764
2	1.0	wm	206	diff_vonmises	0.08359220457264063	4.78948052220649	8.133311646106412	0.2499958889084209	0.11420357010910308	2.745747211813778	-0.2085037285489066	-0.4566460120649458	0.24814228351603923	44.79039319235366
3	2.0	ltm	206	diff_vonmises	0.029196520847466195	1.6728374210255346	1.0990878103162884	2.028055286680769	0.35769786172087165	3.0270832587841263	0.0633961673501926	-0.25072355314680167	0.31411972049699427	99.91943188255044
4	2.0	perception	206	diff_vonmises	-0.04274056037876944	-2.4488537237275563	10.172567743880203	1.0654782388267092	0.1784829542376542	2.5421457894275536	0.8580151189737364	-0.4306086299685972	1.2886237489423336	41.680254579275896
5	2.0	wm	206	diff_vonmises	-0.15927002648724425	-9.125500320655929	2.6197617067777594	1.4625889318059224	0.5384338135279582	3.4370857259818397	0.013102925239080854	-0.45873444466439767	0.4718373699034785	66.61346743123562
6	3.0	ltm	206	diff_vonmises	0.12509110268237653	7.167192238337786	1.3549407317724735	145.05817596111967	1.3395924841781517	145.49967387544572	0.22266402800020302	-0.1774791787255996	0.4001432067258026	76.13477756810462
7	3.0	perception	206	diff_vonmises	-0.004746485190555768	-0.27195356894019385	1.974537800646316	8.875879939330625	1.131468039088748	9.778678651016522	0.9604749747866954	-0.5268376052896141	1.4873125800763094	72.85533444871913
8	3.0	wm	206	diff_vonmises	-0.05171993010240481	-2.9633337115794154	2.941260631692012	0.8578761620831159	0.36627421012184647	2.139103593272574	0.0805818531856341	-0.30236626291119034	0.38294811609682444	68.18691173985351
9	4.0	ltm	206	diff_vonmises	-0.0734279885734879	-4.207113843395691	0.7632165926263326	36.27966287196171	0.7060665341748833	37.661020155711725	0.0009709194889886419	-0.3076764755426358	0.3086473950316244	93.70674210182929
10	4.0	perception	206	diff_vonmises	-0.014603445153775577	-0.836715773662116	0.9719383125863287	447.25348363800754	0.9587712905709546	448.9673142938621	0.5448867343838231	-0.5775630167243975	1.1224497511082205	88.9520043864691
11	4.0	wm	206	diff_vonmises	-0.2732495352145425	-15.65604512170465	0.9546581886603617	239.72519996299025	0.9394837903062404	241.7421235238163	0.024873681125257008	-0.4615624207150688	0.4864361018403258	82.57713109334681
12	5.0	ltm	206	diff_vonmises	-0.0035215183609362782	-0.20176813955947606	1.1767778207035668	98.91350370559343	1.1543615861875975	99.4281511671833	0.22083504205682658	-0.19170491687549962	0.4125399589323262	81.62962252470692
13	5.0	perception	206	diff_vonmises	-0.011643797490029101	-0.6671404536836888	1.0031262855108718	292.5884031791129	0.9862021308032065	293.56831584037093	0.6048533573771522	-0.4377910708495065	1.0426444282266587	89.8345526275098
14	5.0	wm	206	diff_vonmises	0.06608066470741061	3.786143195153719	2.797162786389169	1.0165523202016096	0.08302648876134767	2.056786775144923	0.2845147820006267	-0.303869874305057	0.5883846563056837	78.79219229692086
15	6.0	ltm	206	diff_vonmises	-0.23066998092451488	-13.21641636733791	0.7310466806444925	154.9257988496229	0.7173378113100773	155.693239566962	0.18425881996991222	-0.2518125841901586	0.43607140416007084	102.05752162213788
16	6.0	perception	206	diff_vonmises	0.17709555476490157	10.146827858556795	0.40038228822844635	5.195044511804134	4.334898895343755e-17	5.901493763252533	0.2466779212948227	-0.4067851502248242	0.6534630715196469	156.81930028497197
17	6.0	wm	206	diff_vonmises	-0.21187373013905608	-12.139470526661663	2.0956982013747805	0.9591260914926014	0.01568530066010032	1.6870675735666225	0.23620972196835288	-0.25661224036177693	0.4928219623301298	94.01536175855517
18	7.0	ltm	206	diff_vonmises	0.17084867563756068	9.788908049431797	1.3476262451736276	92.54047192765196	1.3258945352314062	92.96135476249778	0.19392288714956862	-0.16306460729673233	0.35698749444630096	76.16970926896599
19	7.0	perception	206	diff_vonmises	-0.05951508030240846	-3.4099629187101836	1.8113947855346075	1.7176607502247776	2.630645649379845e-13	2.2401819468480504	0.4778702506823285	-0.33424858343605585	0.8121188341183844	101.61934956093792
20	7.0	wm	206	diff_vonmises	0.18303127675442574	10.486919676919527	1.6649277191420175	0.6263104658409041	2.321551009684949e-14	1.6121987141023992	0.03243482840829476	-0.246241580420744	0.27867640882903877	105.47625114485047
0	1.0	ltm	207	diff_vonmises	0.241388893392311	13.830564812712787	0.8870458966354288	0.8433310045676644	4.59072172546462e-13	3.9888985591885486	-0.3647731226571225	-0.5890369203582347	0.22426379770111227	132.82938017270345
1	1.0	perception	207	diff_vonmises	-0.0009978031359030028	-0.057169908472160566	12.04376852915911	0.6524879599084314	6.562088753757809e-18	4.168184252067084	0.23022248265116696	-0.6633871274033633	0.8936096100545302	39.07180240154358
2	1.0	wm	207	diff_vonmises	-0.004096068896861462	-0.23468746038496868	3.560489690551197	0.7254710478329067	0.1831623317432923	4.243113225927777	-0.2811281280738923	-0.6648424032413625	0.38371427516747014	62.93223900820763
3	2.0	ltm	207	diff_vonmises	0.04062753361406305	2.3277862081116973	1.4738387019068462	0.923838008636654	1.991048149144681e-16	2.7472267618547748	-0.04132059379239378	-0.41646350328420184	0.37514290949180806	111.27144068609131
4	2.0	perception	207	diff_vonmises	-0.04862869879189025	-2.7862192039882365	9.295854709958174	1.227710084723468	0.17486322957325456	3.362559313357361	0.839475902304213	-0.5659213435750574	1.4053972458792705	43.413436796331126
5	2.0	wm	207	diff_vonmises	-0.012691608299179959	-0.7271755907762206	5.187520195162957	0.6702210706131321	0.023319410338531625	3.232738380455532	0.06606583281399037	-0.5112941738215709	0.5773600066355613	59.023309604278865
6	3.0	ltm	207	diff_vonmises	-0.021296928253906045	-1.220224105541734	0.7857069140752782	63.67476351477262	0.7487745662199589	64.83371609103125	0.10846014947095384	-0.30073425707962986	0.4091944065505837	95.724451011978
7	3.0	perception	207	diff_vonmises	0.015552266436308086	0.8910792286634186	3.1529763969235924	3.1301094086069368	0.3612876748315941	4.405087989155967	1.1346436616985207	-0.5896539675067662	1.724297629205287	70.42754925935367
8	3.0	wm	207	diff_vonmises	-0.10152868532824903	-5.817165168820472	3.2984686996260075	0.7387685541597911	1.1812303402972332e-13	2.5841830534544803	0.09923391721958613	-0.41058885888677343	0.5098227761063596	75.57956132019865
9	4.0	ltm	207	diff_vonmises	0.07179043473103863	4.113288919497917	0.00017300854657918162	5269.152798128133	1.6826621277449283e-30	5271.436660508123	-0.21839500208307072	-0.5085684216037407	0.29017341952067	179.76221733281795
10	4.0	perception	207	diff_vonmises	-0.0009403576851485412	-0.0538785265917033	2.686479008433862	2.351275586211568	8.676305174161633e-14	4.8986451484707185	0.6655791197829103	-0.7729371846190097	1.43851630440192	83.90368679203695
11	4.0	wm	207	diff_vonmises	-0.27207014204790664	-15.588470870869847	1.358662450484086	1.636469989469388	0.03619238432411156	4.965262056924887	-0.15132535295184701	-0.7177971489806533	0.5664717960288063	110.44526959270678
12	5.0	ltm	207	diff_vonmises	-0.010659390426044673	-0.6107380835945162	2.0887561256960394	0.8132474582534923	2.3377273943986706e-14	1.9005321214633422	0.12817698729795024	-0.2958736390276408	0.42405062632559104	95.0278376704108
13	5.0	perception	207	diff_vonmises	-0.004846617513265551	-0.27769072842430637	2.226123621706194	2.2284222631422814	0.048720539271967685	3.8004387889007454	0.591360953752971	-0.5614675392224823	1.1528284929754533	89.7857309391486
14	5.0	wm	207	diff_vonmises	-0.03786454078937657	-2.169478380432232	2.435176919151109	1.0895696422466974	4.7357896985727404e-17	2.7402505948868408	0.19616387256686718	-0.4312742614954597	0.627438134062327	88.14007222223358
15	6.0	ltm	207	diff_vonmises	-0.2811813115005105	-16.11050242693257	0.22934229633375308	81.64841652710615	0.21207686926301117	82.70169811867434	0.04114576999377917	-0.331338947927863	0.37248471792164217	151.66397206359557
16	6.0	perception	207	diff_vonmises	0.12132929053997112	6.95165627925689	0.7521976748817486	3.5696028060953426	1.2480277152975593e-12	4.8347881629077625	0.281825563801951	-0.5359310240860033	0.8177565878879544	139.39836639332248
17	6.0	wm	207	diff_vonmises	-0.0643802623526803	-3.6887173167535647	0.585932855969115	38.61541828745476	0.5268752035421824	40.092115905179796	0.05774997857032105	-0.3747606456961865	0.43251062426650755	111.08418667398962
18	7.0	ltm	207	diff_vonmises	0.4088266110154922	23.424039363824317	1.2537046392380817	71.34277690794752	1.2307658572516984	72.02938391926811	0.03611081201447419	-0.17557532021370825	0.21168613222818244	73.11347071435412
19	7.0	perception	207	diff_vonmises	0.04680140637340566	2.6815230604728164	1.6576543846140723	1.912146387909223	6.903099885866759e-14	3.5959050555260745	0.30777599692477	-0.5403373548176581	0.8481133517424281	105.76986324206874
20	7.0	wm	207	diff_vonmises	0.6147027691574142	35.21987432772434	0.00028894122609514637	1136.8602423430116	6.1405816921280374e-24	1138.4021304265818	-0.1931155815694865	-0.29767508609882043	0.10455950452933394	168.8971135808275
0	1.0	ltm	208	diff_vonmises	-0.6100017846000343	-34.9505277530303	0.0001723505421136226	4095.959975347322	2.6854998680888223e-32	4096.701322680479	-0.0056303064171743245	-0.23033819670160938	0.22470789028443505	169.64405510960262
1	1.0	perception	208	diff_vonmises	-0.0923272872241314	-5.289963891834855	10.751676286548168	0.9490330937566114	2.879008995118533e-16	1.978933979391163	0.9112359517065545	-0.31495712431041806	1.2261930760169726	41.37851868215688
2	1.0	wm	208	diff_vonmises	0.22266419014681565	12.757718344110987	1.4107151280877088	1.8333331954693899	0.40454339153774416	2.680926628419201	0.15115596270064002	-0.2426058436795594	0.3937618063801994	92.14353342082751
3	2.0	ltm	208	diff_vonmises	0.170275882218346	9.756089403977928	1.5187534371320612	1.0007883430083955	0.1889699585629959	1.41581420395728	0.16697525600734864	-0.1640470760992058	0.3310223321065544	100.10932447469588
4	2.0	perception	208	diff_vonmises	-0.009989829250461258	-0.5723750541077687	7.056794708857341	1.531119492710844	0.4953552508758666	1.8625724004635869	1.1335023135066913	-0.317135530104886	1.4506378436115772	48.858190958381215
5	2.0	wm	208	diff_vonmises	-0.035827739020745104	-2.0527782353848676	10.071686897680884	0.3336815110084293	0.2107882084618352	0.8224494081129563	0.257134411741892	-0.1411474287712759	0.3982818405131679	41.69821693408397
6	3.0	ltm	208	diff_vonmises	-0.011920153039046732	-0.6829744602874197	1.0628499613789182	65.54803327928812	1.0439819003924256	65.68708926046412	0.18408757114385566	-0.09744442601484593	0.2815319971587016	89.19994080093142
7	3.0	perception	208	diff_vonmises	0.0756203602378553	4.332727486888015	2.308486031879487	5.485644691540532	1.2365184312797493	5.297636472203056	1.0400099629731576	-0.28744615220934255	1.3274561151825002	71.55989428825782
8	3.0	wm	208	diff_vonmises	-0.056831653951851885	-3.2562139141890993	3.1893708466244335	0.6009430314540216	0.4355681164594352	0.7916966184646339	0.22162482466872518	-0.10344770050306484	0.32507252517179	69.39859089464844
9	4.0	ltm	208	diff_vonmises	-0.3199874301268162	-18.333929243503896	5.75233515515578	0.4435422768576932	5.497467074969295e-25	1.2572738737294493	0.2141348759771528	-0.20009717430850976	0.41423205028566257	56.84095862294029
10	4.0	perception	208	diff_vonmises	-0.011963560126628974	-0.685461503206837	2.8076098093566526	2.416048122508644	0.31340335998631697	3.1911413081667233	0.8452832556028202	-0.41309380757003455	1.2583770631728548	75.10032553360838
11	4.0	wm	208	diff_vonmises	-0.3932158971884078	-22.529611346345863	1.5249464054918511	43.90223694820997	1.4623347726406373	44.64031198024929	0.16662466693922795	-0.23955240628909902	0.40617707322832697	69.6276325185432
12	5.0	ltm	208	diff_vonmises	-0.17700364968050367	-10.141562085105003	1.1441689560830388	0.685115825664656	4.630302369911353e-16	0.8954302872713787	0.11014562167625813	-0.11688365702391434	0.22702927870017248	122.62035239953651
13	5.0	perception	208	diff_vonmises	0.016910334872829967	0.9688908183660528	2.417022338633881	2.1842127559765676	0.5606730522896737	2.3010589787103766	0.6679804504224429	-0.23368630099871535	0.9016667514211583	77.39572670082961
14	5.0	wm	208	diff_vonmises	0.020419076342118238	1.169926895958802	0.679710694306301	80.62379845715118	0.6597920974790029	80.79942711556902	0.2569777943038538	-0.1675192665887053	0.4244970608925591	111.80699900695629
15	6.0	ltm	208	diff_vonmises	-0.575091048630353	-32.950289922272006	2.1588277838102545	0.6824962180575692	2.7086573945113368e-15	1.1531310866878228	0.185144396974274	-0.17861171543696946	0.3637561124112435	93.12469334841434
16	6.0	perception	208	diff_vonmises	0.2720464557349501	15.587113745105212	1.1324698233972612	2.28488432294171	1.6497971733582328e-17	2.5557191082549684	0.4308644829482544	-0.31977487107725594	0.7506393540255103	122.74172511456518
17	6.0	wm	208	diff_vonmises	-0.2590838882920639	-14.844413338974144	4.9435677770603395	0.40621372266558475	1.8982169888484286e-13	0.6552026777345745	0.2458316427777001	-0.10426095011701421	0.3500925928947143	61.41515540324946
18	7.0	ltm	208	diff_vonmises	0.17127655537815162	9.813423752706809	1.1934243253229402	180.1061552863936	1.1770834663624679	181.1746119154989	0.1442609762685123	-0.2956625994385078	0.4399235757070201	77.12635443328605
19	7.0	perception	208	diff_vonmises	-0.11805858096431579	-6.7642584245588155	2.2698722099751247	1.3931868223693784	1.4121200403566617e-24	1.579439911356931	0.5240910669500698	-0.24309636365520632	0.7671874306052762	91.24811030824962
20	7.0	wm	208	diff_vonmises	-0.0689407809347429	-3.9500157838967387	0.001958140861353411	410.3202441821668	4.752290606681382e-22	410.949988097383	0.027711053181846523	-0.22803956839656792	0.25575062157841444	179.7519820988608
0	1.0	ltm	209	diff_vonmises	0.11645091985695985	6.672146228219992	1.6869554335135262	0.48845083770978626	8.62858852674493e-14	2.893674902662244	-0.2333182672180351	-0.45275857037539596	0.21944030315736085	104.9145706065191
1	1.0	perception	209	diff_vonmises	-0.02014720597311585	-1.1543498712403009	12.296076971540838	0.7016315167171612	0.005824178082065558	3.617018835450557	0.3920917133852031	-0.5765124364348602	0.9686041498200633	38.603194441612914
2	1.0	wm	209	diff_vonmises	0.10832913399999716	6.206802176506987	4.676754828775737	0.5047568797397981	0.13980859832301146	3.221013312600602	-0.1643779130272891	-0.5160034293223853	0.3516255162950962	57.68775220820518
3	2.0	ltm	209	diff_vonmises	0.04393158569017956	2.517094447364611	1.68481290268468	0.797994209776491	8.295673234554288e-18	2.147151935959625	0.029193179735085784	-0.3289676345037821	0.35816081423886786	105.00973170650727
4	2.0	perception	209	diff_vonmises	-0.049216476261113674	-2.8198963722676194	11.096046707826702	1.047685288089215	0.1412514897984841	2.7468615381975727	0.8748275253184585	-0.4615061054687645	1.3363336307872231	40.055811099049265
5	2.0	wm	209	diff_vonmises	-0.10522147856432097	-6.028746635861852	4.980516982336564	0.6336282632959797	0.0988730869377484	2.5333830801425443	0.10428163263057538	-0.4002759418166479	0.5045575744472233	58.51831454793759
6	3.0	ltm	209	diff_vonmises	-0.034949978350931554	-2.0024862535819747	1.0350592440551152	129.24495389876915	1.0196913002817298	129.84549118003756	0.16735940737789434	-0.19277478494583455	0.3601341923237289	85.6469399237385
7	3.0	perception	209	diff_vonmises	0.04962710191596875	2.8434234892506107	2.3447370621143957	4.93123611644518	0.840181244127138	5.512351390583763	1.082215231859408	-0.472450715007256	1.5546659468666642	73.42772693829545
8	3.0	wm	209	diff_vonmises	-0.11457127345913598	-6.564450422647716	3.1292828499137344	0.8288263038814535	0.1817064995627638	1.8138102169325983	0.21260593935178135	-0.2634298548151374	0.47603579416691877	71.92237369521823
9	4.0	ltm	209	diff_vonmises	-0.2300246468403546	-13.179441447939585	1.603014671115781	0.5518835143863765	3.951566049302527e-11	2.1283622919612033	-0.0898540688185874	-0.32865509141855775	0.23880102259997035	107.2023046681798
10	4.0	perception	209	diff_vonmises	-0.007362936966102444	-0.4218652129785289	2.592361104735203	2.662153624122097	0.1716838550912718	4.339555613355288	0.7885480510699403	-0.5975717520026589	1.3861198030725992	79.70234773688009
11	4.0	wm	209	diff_vonmises	-0.303751297515705	-17.403667369272505	0.8058938930117386	156.96286429163663	0.7862192422770399	158.81061796395883	0.03353299323915593	-0.422629987604644	0.4561629808437999	90.78494997624584
12	5.0	ltm	209	diff_vonmises	0.043065970638346975	2.4674983582116052	2.3902362384594706	0.612701987671649	8.909878054833488e-19	1.444618883899531	0.12172369420340115	-0.22696677594597212	0.34869047014937327	88.96158812798296
13	5.0	perception	209	diff_vonmises	-0.0038943592514691723	-0.22313034901691	2.6601529541312208	1.7783503828897087	0.07259284188202667	3.0040656344224907	0.5733795658084071	-0.44203166369636876	1.015411229504776	81.5156318424246
14	5.0	wm	209	diff_vonmises	-0.00486959785850919	-0.2790074052185204	1.925084930769943	1.267602183805192	0.11956214826178682	2.482913404684272	0.19521493755902974	-0.3379912170409073	0.533206154599937	91.6285595995904
15	6.0	ltm	209	diff_vonmises	-0.37301819474944875	-21.372368240732417	0.4340003240935597	133.7796134038399	0.4217102727209834	134.76372063142975	0.07487008627186142	-0.29545877843384893	0.37032886470571036	126.87089535904781
16	6.0	perception	209	diff_vonmises	0.2615257861965446	14.984323782902727	0.506272196065728	5.043308350810765	1.7117013851682312e-17	5.855975065058314	0.31828534845836953	-0.47778421328908094	0.7960695617474505	150.6449833139397
17	6.0	wm	209	diff_vonmises	-0.24545666842708963	-14.063631154214283	1.4360802732990894	0.9582789308413756	6.727383821277419e-18	1.9641021039559334	0.09169850930992912	-0.289722894650818	0.38142140396074714	112.26330445123301
18	7.0	ltm	209	diff_vonmises	0.3680095498084289	21.08539402453243	1.028769496320478	96.43718464984197	1.010992272061117	97.03162264847147	0.11937460381221854	-0.17457998981526757	0.2939545936274861	84.81253477462027
19	7.0	perception	209	diff_vonmises	-0.03342119296915036	-1.914893303424616	1.9846714590710677	1.4678037916588904	1.9473126165692392e-18	2.1754524232172456	0.40746846996780584	-0.3319996409588401	0.7394681109266459	97.37407241964246
20	7.0	wm	209	diff_vonmises	0.12421057580608263	7.116741764578308	1.6966396392159118	0.4493116418035469	5.3381891864459705e-21	1.4337476072136544	-0.01843611000422002	-0.2211406579011665	0.20270454789694647	104.64034162340579
0	1.0	ltm	210	diff_vonmises	0.12886759569600836	7.383569349379532	5.549086329773658	0.43095434077800127	9.757053140440003e-21	2.606253950881982	-0.019900795241177383	-0.41479221901595054	0.39489142377477315	57.897422968609106
1	1.0	perception	210	diff_vonmises	-0.08021313493211932	-4.59587409312383	10.038490194942645	0.9989961046354604	0.07506319681134421	3.375649027095824	0.6676011030976363	-0.5500154021468948	1.2176165052445311	42.282334210711184
2	1.0	wm	210	diff_vonmises	0.04662340596465553	2.6713243882998303	4.360126436654618	0.6488204008285086	0.10439542225000395	3.359697282171013	-0.06921487126367398	-0.5288292883768236	0.45961441711314965	61.29054017619015
3	2.0	ltm	210	diff_vonmises	-0.06892114764479225	-3.9488908792446096	2.4046752322613205	1.6247264081249797	0.6026637005365165	2.6303551039981166	0.23603037403309712	-0.2995651008217978	0.535595474854895	71.86226345889321
4	2.0	perception	210	diff_vonmises	-0.04330197525995244	-2.4810204269751805	9.866682565969981	0.920973677170887	7.608290900614542e-22	2.1200918530835664	0.8009262259556669	-0.3374230951617142	1.138349321117381	43.221628109861314
5	2.0	wm	210	diff_vonmises	-0.10658914812797282	-6.107108329627602	3.987392843696023	0.8187483341129075	0.3078633942965566	2.282790643934292	0.14562125540284404	-0.3517284822114407	0.49734973761428475	61.40643870991482
6	3.0	ltm	210	diff_vonmises	-0.005649206395902777	-0.32367568408353997	1.2742610246302897	2.645935105169068	0.46910197054553654	3.424936533518519	0.21391177129944872	-0.2547315976108704	0.4686433689103191	94.70373702438454
7	3.0	perception	210	diff_vonmises	0.013441658041904692	0.7701502754592211	3.507380454813149	2.4798171474464397	0.43953380898838834	3.2945888924335818	0.9975859242093585	-0.4476709027458968	1.4452568269552555	66.61933596836357
8	3.0	wm	210	diff_vonmises	-0.01138551262589744	-0.6523418210568347	3.454924296916209	0.7631544070271318	2.3671425873676457e-17	1.9199893484115675	0.23561592375447737	-0.30503566676245497	0.5406515905169323	73.81050369988114
9	4.0	ltm	210	diff_vonmises	-0.25104129055179053	-14.383606432135027	2.061239589830016	1.0695835807471914	4.679887596562706e-16	2.3761554329574603	0.18371713702121367	-0.3690709470472813	0.5527880840684949	95.55640282516002
10	4.0	perception	210	diff_vonmises	-0.010174666134073387	-0.5829654274370945	0.984445864395096	487.7654593096095	0.9716518622820748	489.2800737038823	0.6731727163264623	-0.5807966985327297	1.253969414859192	89.53742502470769
11	4.0	wm	210	diff_vonmises	-0.19597324599968247	-11.228439893260848	0.8564501802871707	202.43561179856977	0.839439513504104	204.08450807813756	0.1440210866004321	-0.41911140731142993	0.563132493911862	90.62225872694995
12	5.0	ltm	210	diff_vonmises	-0.0077183981886390085	-0.4422316408104346	1.6934489546748341	1.2933649775576004	1.5017767874518376e-14	1.5915762125736557	0.3497537244512946	-0.23291361925662865	0.5826673437079233	104.77870525212042
13	5.0	perception	210	diff_vonmises	-0.004844481387165474	-0.2775683374142642	1.0521500851731131	252.75836350500023	1.0351095389850298	253.16602053370272	0.6694282050685558	-0.33462110644830645	1.0040493115168623	90.03562657494837
14	5.0	wm	210	diff_vonmises	-0.01578125599142732	-0.9041993637243291	2.2263701993830605	1.360994510688331	2.6449852997395243e-14	1.7523491628746304	0.46996853615832895	-0.2701732574522603	0.7401417936105892	92.12710264510909
15	6.0	ltm	210	diff_vonmises	-0.2047927310344325	-11.733759163230815	0.9202991730077253	1.6766322474908353	1.2153341134305447e-09	2.006324496740714	0.22824437171377565	-0.23240454941178337	0.460648921125559	131.61938623460577
16	6.0	perception	210	diff_vonmises	0.1608802061198454	9.2177568178619	0.26288774235043516	7.41668085853753	6.545743257955756e-20	7.443000717971996	0.3245451580432921	-0.2925417953542012	0.6170869533974933	164.38449040862855
17	6.0	wm	210	diff_vonmises	-0.31419375537147953	-18.001976132151615	0.8267830097414052	126.60001539925842	0.813027882017498	126.69790970486984	0.30252374478154564	-0.15123274585180368	0.45375649063334933	102.35262072787764
18	7.0	ltm	210	diff_vonmises	0.1806703108662606	10.351646295953309	1.0440393370933057	124.87084882193781	1.0241522313513294	125.42702759490267	0.2756867093198849	-0.22182316907244015	0.4975098783923251	87.36377620958064
19	7.0	perception	210	diff_vonmises	-0.034557821964267606	-1.9800173477170302	1.718687442078138	2.469201812322245	0.25667795648950203	2.4814604134201685	0.6595970399017836	-0.26405672724130735	0.923653767143091	95.82179660904075
20	7.0	wm	210	diff_vonmises	0.07399702332820407	4.23971713323719	1.1140540260855345	1.1780864237863766	1.391290960883052e-13	1.8243540301853645	0.13748010479565986	-0.2442625095613401	0.38174261435699997	123.9257109107485
0	1.0	ltm	211	diff_vonmises	-0.12211070817442493	-6.99642821174819	1.9188012022380498	0.6482710658386446	9.075018234009152e-21	2.3127583673936587	-0.04194123888644097	-0.36106005349067677	0.3191188146042358	98.91524160388076
1	1.0	perception	211	diff_vonmises	-0.12446750047987498	-7.1314624640393856	12.709668920438462	1.0172051889441265	0.0032956441679036805	2.989769351269054	0.9545051274096801	-0.4761253969936296	1.4306305244033097	38.001491801256776
2	1.0	wm	211	diff_vonmises	0.015381418785400941	0.8812903793267148	5.530855388323027	0.4408996783602737	2.5206257171658987e-27	2.3396212871592152	0.030991375007974775	-0.37235595913071734	0.4033473341386921	57.9880493562014
3	2.0	ltm	211	diff_vonmises	-0.07794300561704738	-4.465805264421284	2.4532149568735258	1.066016519566159	0.29704869528619143	1.7465926741065623	0.2552696826110495	-0.2235864195862219	0.47885610219727137	78.29359006160604
4	2.0	perception	211	diff_vonmises	-0.055580809014365413	-3.1845457784458193	11.493894547534175	0.9893774788640837	0.18959605649567618	1.722530110427268	0.9944850305289208	-0.2945515418307505	1.2890365723596713	39.41956923766281
5	2.0	wm	211	diff_vonmises	-0.10882168534281436	-6.235023289643914	6.756001006029848	0.46390438649091237	0.20824259084172386	1.314420741441807	0.2165587146175283	-0.2168409426132216	0.4333996572307499	50.09283400599591
6	3.0	ltm	211	diff_vonmises	-0.05734193429609063	-3.2854508242824623	2.053062837219888	1.4500480946861605	0.5720831574466596	1.965701433807217	0.24833087235809737	-0.19335432436057462	0.441685196718672	78.7676383329852
7	3.0	perception	211	diff_vonmises	0.009087258922560173	0.5206615836052977	3.4892227549256836	2.2803090398606005	0.4398661300842551	2.7423843210820875	0.9799338171311914	-0.36652969663910273	1.3464635137702943	67.26072434669061
8	3.0	wm	211	diff_vonmises	-0.016997534795349118	-0.9738870059002679	2.9505872436742955	0.9648272029586997	0.479575543492438	1.555456759450345	0.2480955019539196	-0.20164994005579256	0.44974544200971217	69.44030895728491
9	4.0	ltm	211	diff_vonmises	-0.2532442559085573	-14.509827049491296	2.341096574717469	0.9154292833922002	7.08535463829196e-15	1.9520942893773656	0.20826827066785403	-0.3058798026252249	0.514148073293079	89.83746373935307
10	4.0	perception	211	diff_vonmises	-0.06003535623483757	-3.4397725338206055	1.8420630579069344	3.3967657661961823	0.28858501990545965	4.300839993369314	0.7722425288827129	-0.47638451556476963	1.2486270444474825	90.18779787862024
11	4.0	wm	211	diff_vonmises	-0.18573709179929537	-10.641951459133558	1.2229245634793982	194.53244544744584	1.2075045357809675	195.47373388057437	0.19463350551963288	-0.2829590885963249	0.4775925941159578	77.42754968075369
12	5.0	ltm	211	diff_vonmises	-0.03216864797369979	-1.8431277615350656	1.5599803765043057	1.1901238649699886	1.0699354205538202e-12	1.6464444195914776	0.26587177336123063	-0.2387275015440011	0.5045992749052317	108.6234843611707
13	5.0	perception	211	diff_vonmises	0.04285909372555904	2.4556451842301605	1.1633358211605642	90.98372544350109	1.118503135424007	91.59809192000526	0.536058287912418	-0.32375550558155375	0.8598137934939718	84.69650805022843
14	5.0	wm	211	diff_vonmises	-0.01694843968758796	-0.9710740634308137	0.7462717978058928	149.37807095892208	0.7299548791371514	149.69111477004702	0.37431161535000257	-0.2407553494529857	0.6150669648029883	106.22104578630272
15	6.0	ltm	211	diff_vonmises	-0.29489542966938037	-16.896263517752494	1.8867210728392936	1.1447118495581812	1.2268031872421687e-15	1.9126413797970025	0.2656363068174157	-0.2913107443281419	0.5569470511455576	99.57068816691914
16	6.0	perception	211	diff_vonmises	0.39515087700894463	22.640477523505602	0.00028506898933390503	7523.503881059415	1.6659094287235287e-31	7524.033240104641	0.25710990879974815	-0.4255614769995191	0.6826713857992672	175.17635192541573
17	6.0	wm	211	diff_vonmises	-0.3206238791655015	-18.370395087295723	2.536224262269191	1.0138984348724558	0.1518881399253132	1.2936621472774061	0.3642983756242833	-0.17649349167883852	0.5407918673031218	82.00552041578081
18	7.0	ltm	211	diff_vonmises	0.05609265927277773	3.213872637995525	1.00485808497605	284.0980522779479	0.9930990982969188	285.2425280438519	0.24243566338772382	-0.3406143218844555	0.5830499852721793	85.92666423404523
19	7.0	perception	211	diff_vonmises	-0.13656661927111058	-7.824690906604611	2.6865147287241706	1.419264980520278	7.265902327249794e-23	1.6469883467734647	0.6102284278142589	-0.2580784623225195	0.8683068901367784	83.89761423432233
20	7.0	wm	211	diff_vonmises	0.2454980773361548	14.066003709937958	1.7114565346769683	0.8711502304379455	8.18758125231187e-14	1.5477577157419862	0.1625051012076051	-0.23299806455846048	0.3955031657660656	104.11617447528755
0	1.0	ltm	212	diff_vonmises	0.37064846802354595	21.23659290073883	0.9185959667941522	35.68540441076689	0.8209181521679607	38.40100779016329	-0.17082802258589602	-0.5519209659085629	0.38109294332266686	80.95068462304587
1	1.0	perception	212	diff_vonmises	-0.025221248648060884	-1.4450711015839222	7.598279263682762	0.9557875647948569	4.0821512122002175e-18	3.469829132212715	0.48011959909153745	-0.552240198509321	1.0323597976008585	49.33732281647252
2	1.0	wm	212	diff_vonmises	0.27021332036089	15.482082824895432	0.7945183214069607	175.6385220197933	0.7723052386597805	178.9243611469608	-0.23531871888280165	-0.6492921677559735	0.4139734488731719	84.38394364532505
3	2.0	ltm	212	diff_vonmises	0.047466800539545585	2.719647337905261	1.0610267883608002	153.19215783004216	1.0414829324442783	154.708969500553	0.033410728320824035	-0.3578701522645815	0.39128088058540555	78.62130280194958
4	2.0	perception	212	diff_vonmises	-0.027158436408530145	-1.5560637843832106	6.705377706606643	1.5381688916044343	0.22161995231999246	2.9425692145250566	0.9793222980289114	-0.48032865505662425	1.4596509530855357	50.78452449631817
5	2.0	wm	212	diff_vonmises	0.09927724475786306	5.68816712631283	4.865666221996234	0.5708039423169998	0.06564761831984288	2.626890887643657	0.04181846537703515	-0.41428390879060073	0.4561023741676359	59.69065048318191
6	3.0	ltm	212	diff_vonmises	0.03472388987900149	1.9895323383438202	0.7138036120279763	109.40444613240527	0.6984717344727728	110.24921965519553	0.0796539245498451	-0.2229955980885414	0.3026495226383865	100.00991368007206
7	3.0	perception	212	diff_vonmises	0.06042863159352559	3.462305552059923	2.5887193235077897	2.772187593199399	0.39355592987569565	3.450405825244709	0.8840692714060822	-0.41384598556236035	1.2979152569684425	76.63450554345286
8	3.0	wm	212	diff_vonmises	0.13011317416360452	7.454935738625164	1.3738711709813558	2.424460588755356	0.5747402837567762	3.6397957330256117	0.0467647186866863	-0.28496618792355355	0.33173090661023985	84.0067216618325
9	4.0	ltm	212	diff_vonmises	0.048557387006748276	2.782133339670058	0.0606395972223749	12.062360775718414	2.396624644635699e-07	13.706415504452595	-0.14351766234594177	-0.3762735270813533	0.23275586473541154	176.41040604496223
10	4.0	perception	212	diff_vonmises	0.06472619509503819	3.7085378028860583	1.0374525942739776	336.7637476954778	1.0176923263455802	339.0986472542912	0.4499911596085582	-0.6792737910827427	1.1292649506913008	84.33857380713283
11	4.0	wm	212	diff_vonmises	-0.4966512088612246	-28.456018157818523	0.627969730717867	2.8610842299959645	1.7906660893465083e-19	5.600935021206926	-0.1164880434372485	-0.6707017715252315	0.554213728087983	142.33051785861326
12	5.0	ltm	212	diff_vonmises	0.004487170016227556	0.2570959038874881	2.317331949005485	0.6954767773408427	0.05523654357309603	1.7550971997723848	0.09693583382748089	-0.26101344054530196	0.35794927437278284	86.6107203696597
13	5.0	perception	212	diff_vonmises	-0.03258483411569485	-1.8669734709632149	2.730687179126854	1.8511826360819896	3.1052762793092076e-16	3.0279548359281128	0.6667380988625511	-0.47703476243288645	1.1437728612954374	83.21685892472038
14	5.0	wm	212	diff_vonmises	0.04207982324024743	2.410996274322694	1.9419263626941707	1.2028676603982624	1.0326771552697508e-16	2.624103960049991	0.1919044113229797	-0.4050986897688945	0.5970031010918742	98.38129008562615
15	6.0	ltm	212	diff_vonmises	-0.1755898748548791	-10.06055875441487	0.11060537097005439	9.303406221629544	4.946209190822084e-20	10.2355495638661	0.019769991589363656	-0.3074395739851512	0.32720956557451486	172.88701254183292
16	6.0	perception	212	diff_vonmises	0.16185903687357595	9.27383968890827	0.20895821562896474	273.13579074051694	0.1997730473537784	274.1883599947892	0.2329277113972239	-0.4906813785499011	0.723609089947125	155.39530435079652
17	6.0	wm	212	diff_vonmises	-0.41103346200826746	-23.550482611724593	1.0203339523191595	1.4896171867371213	2.7194274313323774e-12	2.604333875502277	0.10023392342009635	-0.3476038688465152	0.4478377922666115	126.47322406346645
18	7.0	ltm	212	diff_vonmises	0.18080291160747733	10.359243758785334	0.3498618612809342	2.9860945220706263	3.0930771352381606e-13	4.728287822248706	-0.0983849548168022	-0.42759714776410934	0.32921219294730714	159.49655758011534
19	7.0	perception	212	diff_vonmises	-0.06651594926155942	-3.8110831629936794	2.668432270376891	2.3268875486420932	0.3140281484089365	3.276660872973089	0.7280128530368285	-0.4199762127629126	1.1479890657997411	76.3242290652791
20	7.0	wm	212	diff_vonmises	0.9904705043737692	56.74977963281092	0.00022208413894498147	4139.935053007116	8.139912453375018e-30	4141.7932671036715	-0.1494079619862987	-0.4420637075082823	0.2926557455219836	153.02204604355845
0	1.0	ltm	213	diff_vonmises	0.18616980488565463	10.666744092722023	2.487999212573151	0.382630401355416	4.22977562781171e-19	2.478875605652085	-0.16966404179131933	-0.39297326725482323	0.2233092254635039	87.18077900152906
1	1.0	perception	213	diff_vonmises	-0.03839641131675741	-2.1999523168985515	9.790370984085557	0.8538117118399223	0.03062516673092176	3.224204385709718	0.5224502431827	-0.5167550701234335	1.0392053133061334	43.08463615762355
2	1.0	wm	213	diff_vonmises	0.13003235073012834	7.450304897001223	4.138882604804167	0.475998573099191	0.09749452771854968	2.989032504999682	-0.1503943602971396	-0.4705231264963291	0.3201287661991895	62.26218313783721
3	2.0	ltm	213	diff_vonmises	0.0610964154772492	3.5005667502241407	1.8519499090555305	0.9624567771796253	0.20746517666513395	2.1048195686664055	0.06604428967184017	-0.269592174458518	0.3356364641303582	87.5635141825077
4	2.0	perception	213	diff_vonmises	-0.030509254293784115	-1.7480515071252147	8.715498480574684	1.2177778431383703	0.18963162903134656	2.6098178559989558	0.9147591302921423	-0.43680063198260854	1.3515597622747508	44.91128085939249
5	2.0	wm	213	diff_vonmises	-0.04200651833434873	-2.406796212597095	5.181103707217567	0.5995506182823156	0.15394756591823255	2.412166247626707	0.08460405843311963	-0.3857782546088391	0.4703823130419587	56.39236383007844
6	3.0	ltm	213	diff_vonmises	0.07894066600569005	4.5229669940778905	0.9995466619166161	122.14146016788237	0.9842900407602536	122.70983232979474	0.16020501965918044	-0.18349480495455417	0.3436998246137346	87.27701790820674
7	3.0	perception	213	diff_vonmises	0.03358597507250649	1.924334622486211	2.615418841458917	3.8389152156507182	0.7363052531527619	4.48712202932211	1.0151596438854793	-0.4565999188405738	1.4717595627260531	71.59794393365988
8	3.0	wm	213	diff_vonmises	-0.04419100062036978	-2.531957828007191	3.352823292261927	0.6281471142941247	0.1103682597962143	1.7398661913125342	0.12974910497151526	-0.2622710982642374	0.39202020323575265	70.77609580084342
9	4.0	ltm	213	diff_vonmises	-0.21482648159550688	-12.3086507230674	2.282685094388392	0.5359178073079798	8.711854770004111e-21	1.9834530065586888	-0.016379486720518255	-0.31256165303230055	0.2961821663117823	90.96957139554424
10	4.0	perception	213	diff_vonmises	0.010987021909927706	0.6295099848566225	1.247266371924359	15.781038079157439	0.8525091474032909	17.552786710724437	0.6146436521161167	-0.6095737768754828	1.2242174289915995	85.66660294203456
11	4.0	wm	213	diff_vonmises	-0.3170825743950505	-18.167493269979335	0.7991516028536919	101.56980051405559	0.7669546139794514	103.64377842969645	0.007843309238669605	-0.46335205663164913	0.47119536587031874	90.77158160140146
12	5.0	ltm	213	diff_vonmises	-0.006797887027883979	-0.38949023630448293	2.342950048605066	0.6783287936040185	0.07008739360733494	1.2665755137291494	0.16878366640182313	-0.18468549861052633	0.3534691650123495	86.38603996442939
13	5.0	perception	213	diff_vonmises	-0.016673146103129314	-0.9553009029143049	1.7023937893115282	3.810300449671735	0.48716159170913786	4.6389227404795985	0.6489567048627192	-0.4086623720820639	1.057619076944783	87.60076429591211
14	5.0	wm	213	diff_vonmises	0.038929691758031786	2.2305070354804473	2.4492679820054204	1.0092735912413253	5.987460875543502e-16	1.9893049480715876	0.2710745697599552	-0.3122249054596452	0.5832994752196003	87.88719493977646
15	6.0	ltm	213	diff_vonmises	-0.32449619362668153	-18.592262362868816	0.4707139961481448	109.2611684045537	0.45686870488132075	109.92987698555325	0.12140672839636935	-0.2400332716441902	0.36144000004055954	125.14806161643101
16	6.0	perception	213	diff_vonmises	0.17733204216642678	10.160377588572207	0.67431663030966	3.464064239190654	8.322039149769397e-18	4.0705431126252885	0.32093080085298664	-0.39635601814016885	0.7172868189931555	142.88735373187887
17	6.0	wm	213	diff_vonmises	-0.23008149515211435	-13.182698616275863	1.7803293753025768	0.9046387561180932	6.97481099285256e-17	1.618509124240766	0.17727786075810703	-0.24523441120515846	0.42251227196326546	102.32174871271604
18	7.0	ltm	213	diff_vonmises	0.2594903395933155	14.867701283113462	1.081639466085063	129.91480973647418	1.0663163847889778	130.65306162962906	0.1123283045206378	-0.20520214233788892	0.3175304468585267	81.62215987896681
19	7.0	perception	213	diff_vonmises	-0.04837596512025306	-2.77173863126258	2.1095594159897817	1.632334104047813	3.174417095624519e-14	2.2665576468871804	0.5088669262971565	-0.3479402042233489	0.8568071305205054	94.57077296430472
20	7.0	wm	213	diff_vonmises	0.24252381539926382	13.8955910537877	0.3540220223974999	23.249623863970314	0.3071100248121388	24.34843869577532	-0.03546879691072746	-0.26683611529341356	0.2313673183826861	135.42267801973424
0	1.0	ltm	214	diff_vonmises	-0.24542135817425492	-14.061608025753314	0.0005080746882432061	842.4496514649545	4.445598132027679e-26	844.5357316284504	-0.2638786901420076	-0.4001239436097137	0.1362452534677061	178.25483488196303
1	1.0	perception	214	diff_vonmises	0.013849827966827313	0.793536689481459	8.645544538194109	0.955022611031738	0.14998083045038124	3.5773933081719913	0.44527488085870826	-0.5962518878033637	1.041526768662072	44.780880203501795
2	1.0	wm	214	diff_vonmises	0.21178825556180267	12.134573194129377	4.606464951229232	0.2641560897312941	1.5961860890767112e-23	2.8288930302916366	-0.2310063695731271	-0.45021044279527905	0.21920407322215196	63.676350177810946
3	2.0	ltm	214	diff_vonmises	0.3534521455436023	20.25131619949212	0.8937352271128974	111.16198515870765	0.8774163734675152	112.00216009449824	0.07818849636319669	-0.2149114597809838	0.2930999561441805	88.75683870233257
4	2.0	perception	214	diff_vonmises	-0.01325078751453709	-0.7592141998076213	8.562500312345001	1.3492856344497806	0.3818766922391491	2.560645516186685	0.9747849148254294	-0.45433225238568536	1.4291171672111147	44.490758633903056
5	2.0	wm	214	diff_vonmises	0.024815741630425853	1.4218372609104977	5.1167656101660475	0.568565748317238	0.11155630067762677	2.3361549002366164	0.08465454245239085	-0.3706930292050106	0.4553475716574015	57.48511767644146
6	3.0	ltm	214	diff_vonmises	0.2709790896270175	15.525958171925367	7.336523299704436	0.1927908332376662	2.307078202186569e-22	0.4582723616632513	0.13153609758399287	-0.07293622485910507	0.20447232244309793	50.22610867857861
7	3.0	perception	214	diff_vonmises	0.02648040807903114	1.517215622712612	3.9538171577174714	2.529209475745526	0.7138025136332662	2.9973497949617274	1.071245789077471	-0.40482560604865514	1.4760713951261262	61.295144541836436
8	3.0	wm	214	diff_vonmises	0.025180823466322288	1.442754909284251	1.6621009239476618	0.5898550969536449	1.1533801575837289e-20	1.6115215782086996	0.015440900027256066	-0.24669110483133327	0.26213200485858934	105.65217887034478
9	4.0	ltm	214	diff_vonmises	-0.5523893122491946	-31.64957624001304	0.8719832818221642	126.58876635636834	0.8554121552638253	127.83411468471083	0.008786347384898363	-0.28033324077203403	0.2891195881569324	86.38526327446202
10	4.0	perception	214	diff_vonmises	0.03513313272507245	2.012980226219608	2.4413188534331067	2.889807427284085	0.3955275603160739	4.405219735335828	0.6777881607478746	-0.5342700407243853	1.21205820147226	76.72443935382833
11	4.0	wm	214	diff_vonmises	-0.3227811425356079	-18.49399717370099	0.9109126375995037	6.1994084025804685	0.4382588499263876	8.545758627325057	0.0030764873655590996	-0.5285855660410625	0.5316620534066216	99.4594208194772
12	5.0	ltm	214	diff_vonmises	-0.0798785371404186	-4.576703051824982	1.103724774595976	34.370679538702866	1.0569681874481847	34.68774292621904	0.18979111548049055	-0.1374202957788233	0.32721141125931386	86.01467086135827
13	5.0	perception	214	diff_vonmises	-0.043347593330515966	-2.4836341498880006	1.112899615934334	233.93246358235706	1.0916665222891209	234.45576873922255	0.7417609978593447	-0.3798423606733863	1.121603358532731	87.32193985237643
14	5.0	wm	214	diff_vonmises	0.1349752915524349	7.733514544502313	3.219389143874135	0.9878964252743407	2.3713254967408163e-19	1.6667148014383808	0.40814610061275997	-0.26418947080373645	0.6723355714164965	76.52321383819867
15	6.0	ltm	214	diff_vonmises	-0.3917875626321907	-22.44777380454193	0.6335377829089417	130.5437055599966	0.6223826106299547	130.7853819498698	0.2110944889590769	-0.16475836225254348	0.3758528512116204	113.96781705463401
16	6.0	perception	214	diff_vonmises	0.18555129479495716	10.631306074938806	1.0133114087739823	2.72376319045482	3.12121384023614e-18	2.9997308081307854	0.4601516952692044	-0.35386351549196676	0.8140152107611711	127.72764143878884
17	6.0	wm	214	diff_vonmises	-0.23375366247651205	-13.3930983056297	2.149485009047597	1.1356822273634215	3.1282669759866183e-12	1.3002189716121564	0.4049122877238128	-0.19862497698335688	0.6035372647071697	93.6636183256961
18	7.0	ltm	214	diff_vonmises	0.2356984990345059	13.504529232245497	1.089684581694167	133.33811637262696	1.0746436263421533	134.09710391356657	0.10620536188909568	-0.208096752110416	0.3143021139995117	81.03819259144163
19	7.0	perception	214	diff_vonmises	-0.043397040961634985	-2.48646729045804	1.8502578878984712	1.760077735108719	3.8143092424911584e-18	2.421364836400846	0.48072745336823447	-0.3639673321464977	0.8446947855147322	100.6326857495466
20	7.0	wm	214	diff_vonmises	0.2695114459881087	15.441868385586673	0.47505775721513527	109.28311170138667	0.4598459806933426	110.48496804495427	0.02147467610964071	-0.3074620144827165	0.3289366905923572	120.24294340325767
0	1.0	ltm	215	diff_vonmises	0.28682055167818915	16.43360708877416	0.677667017846084	140.78118405809093	0.6585241458157142	143.37326300877905	-0.20433326505104787	-0.4994083776248033	0.2950751125737554	90.6109711090071
1	1.0	perception	215	diff_vonmises	-0.041360911134059986	-2.369805644797293	8.809255643157835	0.945134003935538	0.07040850693267303	3.7718555308616493	0.4588211967442538	-0.6111495466244524	1.0699707433687062	45.00491337984403
2	1.0	wm	215	diff_vonmises	0.10438557055755768	5.980852635013123	6.9571449282257705	0.28749727756082727	0.14390709622210718	3.626832103334902	-0.366455891201466	-0.6085848942049141	0.24212900300344814	46.69509350958927
3	2.0	ltm	215	diff_vonmises	-0.05874226151357929	-3.3656836637818603	0.856697730488907	64.89021710894373	0.8206521911601137	66.24013582689616	0.031201909882707213	-0.3111355250606751	0.3423374349433823	88.57599843333887
4	2.0	perception	215	diff_vonmises	-0.05242789432835123	-3.0038970737723916	9.93591533934491	1.0759761859134114	0.13166919534393134	2.8411060797395193	0.8216080436827892	-0.47207529541946874	1.293683339102258	42.29758571914138
5	2.0	wm	215	diff_vonmises	-0.11978535280936906	-6.863195163462386	1.8271504006075465	2.779293446460687	0.6123207842685209	5.354307147976506	-0.07704760882422246	-0.5651531594933517	0.4881055506691292	72.50831720245534
6	3.0	ltm	215	diff_vonmises	0.13878401002076832	7.951738038091349	1.212442523834509	181.9625446431394	1.1976872161844254	182.76548058191673	0.19150746547741448	-0.249141017744261	0.4406484832216755	78.24047940405137
7	3.0	perception	215	diff_vonmises	-0.026472519889601507	-1.5167636627502943	1.9319573439154818	6.752600446956044	0.8616529662316744	8.061796480390019	0.868386592315693	-0.5804694171377232	1.4488560094534162	76.1993429705777
8	3.0	wm	215	diff_vonmises	-0.0014104523678771237	-0.08081296788359256	2.9080041070168297	0.903282630584304	0.34067719732768537	2.743230146321485	-0.015211086531587426	-0.3974898787769511	0.38227879224536365	67.31933139191392
9	4.0	ltm	215	diff_vonmises	0.19034980963380366	10.906240723135607	1.4523533437151523	1.118396448991911	0.17434496995114432	2.823879015809207	-0.055925574512712795	-0.35526142882795997	0.2993358543152472	95.17115124145334
10	4.0	perception	215	diff_vonmises	0.006587350221225169	0.37742736585077136	0.8870494401460778	480.60671547657705	0.8748773552608347	482.8563255748428	0.39983751796430056	-0.6472440472766507	1.0470815652409513	91.11796134154173
11	4.0	wm	215	diff_vonmises	-0.18327914618720165	-10.501121549287888	0.715599741937247	222.86394128887747	0.6988206211654348	225.6244010867757	-0.07196360424984505	-0.5867318197877083	0.5147682155378632	93.67470224178886
12	5.0	ltm	215	diff_vonmises	0.02595561923475365	1.4871474367999638	1.1421054117217337	162.79090657743845	1.1235906789674164	163.7492274239729	0.21220571358200147	-0.2897443527713044	0.5019500663533059	80.58822378258378
13	5.0	perception	215	diff_vonmises	-0.022901126299079925	-1.3121378830333343	0.9019857572238354	333.77474956273034	0.8857415044713098	335.24814894893854	0.5614153159563813	-0.5395804172196144	1.1009957331759956	93.22434444415035
14	5.0	wm	215	diff_vonmises	0.06927387977631799	3.969100941679688	3.1457402017343408	0.9947898850716851	0.008158474103054964	2.6652028218416177	0.2416847463541526	-0.41948700225404223	0.6611717486081948	76.96826893683692
15	6.0	ltm	215	diff_vonmises	-0.10082295223376712	-5.776729641043952	0.7562107304559731	120.03879816169975	0.7354466315825355	121.12923758468149	0.1581069557634862	-0.3084897417751957	0.46659669753868194	98.62318124833358
16	6.0	perception	215	diff_vonmises	0.12685403933865058	7.268201068291195	0.0005706256735408427	3475.5863281494785	1.9082872142104565e-26	3476.7361973047546	0.132679639952471	-0.498604306149673	0.631283946102144	179.37271076941323
17	6.0	wm	215	diff_vonmises	-0.33013036507738086	-18.915076608046988	0.5345828160671816	86.26585207840289	0.5057111578718184	87.51282939178463	0.15789395466176614	-0.38833512967669837	0.5462290843384645	118.14769635339968
18	7.0	ltm	215	diff_vonmises	0.33659985313898005	19.285750969586893	2.2215358384784456	0.5580056705280206	3.697658734000083e-22	1.2770254639760743	0.10338195273336834	-0.19963885717417362	0.303020809907542	92.1054620145353
19	7.0	perception	215	diff_vonmises	-0.07206650960301923	-4.12910684449202	1.2242228967763342	6.928673513100218	0.639258740973925	7.795192828209649	0.5297725681910364	-0.3920806951049613	0.9218532632959977	93.33100913948715
20	7.0	wm	215	diff_vonmises	0.5252422604308963	30.094164744601596	0.44128970136937207	118.39621560912062	0.42824048013863686	119.90086506847003	-0.06571708581684632	-0.33333634699684467	0.26761926117999835	119.33049450512041
0	1.0	ltm	216	diff_vonmises	0.1707195526501277	9.781509847213766	2.456541352929123	0.4497450530369114	1.1067124218801334e-24	2.7562336616197127	-0.17633108581713652	-0.4367400182972438	0.26040893248010727	87.73723204605858
1	1.0	perception	216	diff_vonmises	-0.06333511742193847	-3.6288349232425654	9.88719915277308	0.846821777584033	1.2504985215852061e-18	3.3025720186023952	0.522340382456464	-0.5256206589697708	1.0479610414262348	43.17187360283984
2	1.0	wm	216	diff_vonmises	0.08134804561459112	4.660899685353776	1.9661434737621837	1.4625568394247757	0.303406867579677	4.004770415634554	-0.09703867062315497	-0.5188230625813739	0.42178439195821893	78.29492101751819
3	2.0	ltm	216	diff_vonmises	0.032082000052942435	1.8381632013720852	2.042029116579015	0.923299895871405	0.11870072976744814	2.318997605998279	0.06819687783137762	-0.32418368972732214	0.39238056755869977	87.790524504767
4	2.0	perception	216	diff_vonmises	-0.0360896726999385	-2.0677859297149825	7.841008602051405	1.3501475106420726	0.21214304165066836	2.7487090620039885	0.9478152368360651	-0.4574949972222787	1.4053102340583439	47.15317417058748
5	2.0	wm	216	diff_vonmises	-0.007792319848040728	-0.4464670399087567	7.125765204384422	0.4804247421672926	0.010687127932959294	2.1497512307385147	0.156071034683674	-0.3417432276297447	0.4978142623134187	50.72270090194215
6	3.0	ltm	216	diff_vonmises	-0.06421235566378841	-3.6790969721280438	0.7353710717578119	126.13577946204059	0.7181314123299324	127.03882056548296	0.15478195809619422	-0.26781625096021777	0.422598209056412	100.58429382641147
7	3.0	perception	216	diff_vonmises	0.040124012991047085	2.2989366015150847	2.98298203559077	2.897089210906719	0.38965640641111654	3.6155243536484987	1.0730022674402275	-0.4619530270355361	1.5349552944757636	72.32596449052787
8	3.0	wm	216	diff_vonmises	-0.052277779319699874	-2.9952961173350987	3.0598124495275996	0.8086129805152683	0.1416470277070552	1.9606585236204475	0.17785466678203926	-0.28820051882341874	0.466055185605458	73.2586288655811
9	4.0	ltm	216	diff_vonmises	-0.15638499691861835	-8.960200302603216	0.7673057355428056	1.4994743315543817	2.9612536902886927e-26	3.204689031839175	-0.06409711672047991	-0.41392334255198326	0.34982622583150336	138.63483843648083
10	4.0	perception	216	diff_vonmises	-0.006759610754890408	-0.38729716740646075	2.318138848777059	2.8356075437560024	0.17939122353804374	4.754449296294032	0.7000377302097693	-0.6370174847478967	1.337055214957666	83.27320264793983
11	4.0	wm	216	diff_vonmises	-0.3123821822136587	-17.898180635929297	1.967339373785411	1.2570361343085217	0.1568282630073548	3.420817255656305	0.009073446324231349	-0.46733735554152145	0.4764108018657528	86.19253181459936
12	5.0	ltm	216	diff_vonmises	-0.08366739758580607	-4.793788764509741	1.4306577032920917	0.9727617051939024	5.117765958281979e-19	1.7957245135891824	0.12366809572660348	-0.26237918385094844	0.3860472795775519	112.64026451128191
13	5.0	perception	216	diff_vonmises	0.006999433479337746	0.40103799734862217	2.406600167735196	1.9920840188115212	0.10774708806995341	2.930369587624707	0.63000634781853	-0.412054811894475	1.042061159713005	84.71078143420425
14	5.0	wm	216	diff_vonmises	-0.05182748133181064	-2.9694959431058128	1.8387540781210485	1.183564780579727	0.004914234699121081	2.2060810154302937	0.22740788258594496	-0.3347133859285718	0.5621212685145167	100.61943063054127
15	6.0	ltm	216	diff_vonmises	-0.3408167262990069	-19.527360004398425	0.5432610064276588	2.1369406186029174	2.1582251487337517e-19	2.9962079666872468	0.06772736522817296	-0.29311689449661005	0.360844259724783	148.20919339835382
16	6.0	perception	216	diff_vonmises	0.1635129779675183	9.368603533154415	0.7705359444189842	3.2063659924817802	1.3474794677801482e-16	4.0859818588709365	0.30523454941726447	-0.44566769076367596	0.7509022401809404	138.3964862532259
17	6.0	wm	216	diff_vonmises	-0.14531685416772183	-8.326042435928528	1.6519198166572058	0.8350450680058457	4.0672137101297016e-16	1.7825221406853893	0.09982920766746234	-0.2696049970387001	0.36943420470616245	105.88901141488896
18	7.0	ltm	216	diff_vonmises	0.3060709355202545	17.536572836931338	1.1428762214833024	168.74970583512098	1.1296959874347792	169.7491605222422	0.04861319813505105	-0.2479749251781378	0.29658812331318885	76.48864153972653
19	7.0	perception	216	diff_vonmises	-0.027627553291576123	-1.5829422018800774	2.11910577740478	1.6863535297947443	1.889432186063491e-15	2.7664060563487367	0.4604977853054906	-0.4272843647571953	0.8877821500626859	94.37005825014353
20	7.0	wm	216	diff_vonmises	0.32809685147142265	18.79856486084315	0.0004295938018341551	1190.2722365006146	7.847125466544247e-29	1191.497331273107	-0.1135903869105448	-0.27635191067471965	0.16276152376417485	176.58979204812425
0	1.0	ltm	217	diff_vonmises	-0.4144779768049814	-23.747838772046663	0.0002228616763691804	2539.8210590895087	6.600326357004189e-33	2542.3185437123434	-0.3073965987450151	-0.4875674092946838	0.18017081054966866	175.13582455628472
1	1.0	perception	217	diff_vonmises	0.0009066210868702024	0.05194556189522617	9.596516299845877	0.8197290089262709	0.036546631920029084	3.812682649758952	0.3699988054929221	-0.6124948100016501	0.9824936154945721	43.394376428883504
2	1.0	wm	217	diff_vonmises	0.14794547635230124	8.476651393039386	3.7076807735428425	0.41259448578581714	3.3009729312890957e-16	3.1545729010004577	-0.19781528076880078	-0.5018826845431135	0.3040674037743127	71.18413151120444
3	2.0	ltm	217	diff_vonmises	0.2960210197530722	16.96075507900981	0.7393832071529912	126.25487779552054	0.723303585646972	127.42403584003094	0.049494878120292185	-0.2804020683399404	0.3298969464602326	96.15973637075905
4	2.0	perception	217	diff_vonmises	-0.032655803575780226	-1.871039721500429	9.233778281571958	1.3409771166935023	0.3514833395782985	2.651199477699322	1.0208297996957594	-0.4722315375219709	1.4930613372177302	43.04548972152301
5	2.0	wm	217	diff_vonmises	0.019479163286330235	1.1160738447529053	6.441531518129033	0.4888113000708558	9.915785508512303e-20	2.1331625933296214	0.1450163934503983	-0.33950214008551427	0.48451853353591257	53.65119163731052
6	3.0	ltm	217	diff_vonmises	0.008186901163945973	0.4690748839848455	2.0702304871976076	0.5604978485335815	0.2929327276332365	1.0200660014850846	0.08220980857002874	-0.12554578995734075	0.2077555985273695	82.62488371846476
7	3.0	perception	217	diff_vonmises	0.04932268993354907	2.8259819674247524	3.8264168595180097	2.3064057127557027	0.45321591984203463	2.680143340713184	1.0927656976594977	-0.36924738972249177	1.4620130873819894	64.65815297868488
8	3.0	wm	217	diff_vonmises	-0.04453764712508609	-2.551819209710397	3.1921973778874353	0.48507692055051455	7.231464248143429e-16	1.3111252440916206	0.12038841025667943	-0.20811660317102063	0.32850501342770005	76.86198775213683
9	4.0	ltm	217	diff_vonmises	-0.5873382596506184	-33.65200342453932	0.6346278212915453	125.57613431745563	0.6208316357270762	127.01603994925811	-0.059344920939359724	-0.29924544297612066	0.23990052203676093	98.40012102025932
10	4.0	perception	217	diff_vonmises	0.012818598083560414	0.7344515694624971	3.5105800087983914	1.9429685464934021	0.016730170959071037	3.4435941689435428	0.8329313584322976	-0.5382369322049134	1.3711682906372111	72.64878647929936
11	4.0	wm	217	diff_vonmises	-0.30508594093575375	-17.480136804396203	1.9853290882839962	1.1115036738816613	0.03821504983422055	3.2076562522192993	0.04061484562334028	-0.48042661813513815	0.5210414637584784	93.9081596675654
12	5.0	ltm	217	diff_vonmises	-0.05812361263244164	-3.3302376938921827	2.1702044978919885	0.6070982809851451	2.1755175082432165e-13	1.4272512913995319	0.10181176044325874	-0.22286696994661287	0.3246787303898716	93.28158590966993
13	5.0	perception	217	diff_vonmises	-0.01350275867777381	-0.7736510840200872	2.8006032886236745	1.7646104865004026	0.09307989920555851	2.8277180866101173	0.6181543124111931	-0.41219300218469096	1.0303473145958841	79.0697825643542
14	5.0	wm	217	diff_vonmises	0.04494193299880636	2.5749830839913277	1.9651126120211448	1.157461507717321	9.116494650781018e-19	2.215947541584997	0.23808409351991028	-0.34107560676407445	0.5791597002839848	97.83203632754172
15	6.0	ltm	217	diff_vonmises	-0.44391801580527335	-25.434628755463937	0.4869478719284179	135.9006944800225	0.47480918550709283	136.7038169338955	0.11297823102380278	-0.2643717046085232	0.377349935632326	122.28434751302308
16	6.0	perception	217	diff_vonmises	0.28045241308995683	16.06873962431405	0.707198170332552	4.107156676015448	1.4102664114731108e-17	5.014072798266683	0.3763456852359066	-0.5125597537389043	0.8889054389748109	140.70251954085694
17	6.0	wm	217	diff_vonmises	-0.265017807636836	-15.18440187340062	1.7593295278348315	1.120146034944717	3.230965565565983e-12	1.9733320965643601	0.2205285593153244	-0.2982203519615032	0.5187489112768275	102.83594868179557
18	7.0	ltm	217	diff_vonmises	0.3227624446990977	18.49292586658293	0.8406323096220881	159.7063229429396	0.8280021952546902	160.88034806144026	0.022253557340036423	-0.2688305854719353	0.2910841428119717	88.60978320070515
19	7.0	perception	217	diff_vonmises	-0.07333807521039565	-4.201962187168678	2.452120069284659	1.4349366034566768	1.0332487351269603e-20	2.4431453932626583	0.4472768060581275	-0.3826386178874636	0.829915423945591	87.8343728038987
20	7.0	wm	217	diff_vonmises	0.4257129798034688	24.391557026676814	1.557235369583719	0.6208751509560021	9.597777823423509e-19	1.976458040991544	-0.03946000174319747	-0.30234705200526407	0.2628870502620666	108.0880468811367
0	1.0	ltm	218	diff_vonmises	-0.07102386228897585	-4.069367553876683	0.00036865915697722643	1443.6016422554962	9.221854658022272e-28	1445.919123688431	-0.28412910452311735	-0.4535325336304936	0.16940342910737627	179.8345156502891
1	1.0	perception	218	diff_vonmises	-0.044194423000887134	-2.5321539159667235	11.794567469693659	0.7616468308340871	0.011981015600558956	3.621676515542917	0.44827729729159793	-0.5783364512060346	1.0266137484976325	39.37927710250304
2	1.0	wm	218	diff_vonmises	-0.05524742840592719	-3.1654444766108054	9.61962175085886	0.19141552915674595	0.011726889597142728	2.7325969296462262	-0.20642082763477979	-0.43623695722921446	0.22981612959443468	43.35426190527426
3	2.0	ltm	218	diff_vonmises	0.18856811280432248	10.804157014434496	0.3650130313606591	93.92058437541412	0.3488676700656117	95.07131630530735	0.02354965320476765	-0.31775029295847723	0.3412999461632449	134.40661923541685
4	2.0	perception	218	diff_vonmises	-0.0414603224327648	-2.3755014926489926	9.110731847450957	1.3850068401371505	0.40723350529492647	2.88393371811082	0.9813500657318888	-0.5240221872247246	1.5053722529566134	42.99328683153496
5	2.0	wm	218	diff_vonmises	-0.03349946782714414	-1.9193781224296458	6.571512679212596	0.5104304647239633	0.08109199023835317	2.4191445353225896	0.09441368740084566	-0.388721359569772	0.48313504697061765	51.481951793204644
6	3.0	ltm	218	diff_vonmises	0.09989781502352556	5.723723183426603	1.4240839175768334	17.30830747788629	1.3036537427832429	17.85943560633345	0.15511494223629985	-0.18290587919684387	0.3380208214331437	73.79970099177228
7	3.0	perception	218	diff_vonmises	-0.011864316415365329	-0.6797752574082151	3.312082889181794	3.116282815690457	0.5623462154175105	4.074432113921761	1.105386643858873	-0.5252667279357347	1.6306533717946077	66.76692945159209
8	3.0	wm	218	diff_vonmises	-0.07068176000010036	-4.049766536562352	4.1142757959989105	0.44446569796961966	0.06465112378269189	1.8042547457210778	0.041001897382511254	-0.2813163395823928	0.3223182369649041	64.83176338726688
9	4.0	ltm	218	diff_vonmises	-0.14698276553244544	-8.42149212617007	1.2187450315787132	0.7466443942257636	1.781444711274086e-18	2.441530406305708	-0.10292877830258956	-0.3636196702849552	0.2606908919823656	119.89031257062108
10	4.0	perception	218	diff_vonmises	-0.019104715075781317	-1.094619542642226	2.655884787130235	2.120100678544061	1.882131303678495e-15	3.915420568954406	0.6713217021690169	-0.616772575452203	1.2880942776212199	84.39114239950115
11	4.0	wm	218	diff_vonmises	-0.2071682310297643	-11.869865287196676	0.8977020237335225	209.4821839122039	0.8782936852081725	212.04816887431176	-0.042723531289169614	-0.558961396224479	0.5162378649353094	83.7402960510023
12	5.0	ltm	218	diff_vonmises	-0.07718746349551207	-4.42251588961295	0.9974139357791393	61.10756384733355	0.9619055662103485	61.91107715211064	0.1423667630986465	-0.22936285157287628	0.37172961467152277	86.18823273584093
13	5.0	perception	218	diff_vonmises	0.0036521820167933427	0.2092546155758357	0.9732207500161859	151.89332777346573	0.9395901447510906	153.1653243698517	0.5495487482138799	-0.4838531375563164	1.0334018857701963	90.47486043727056
14	5.0	wm	218	diff_vonmises	0.040369403172260156	2.312996423232544	1.9465422479896974	1.408962393216031	0.18596655417002833	2.678853637537168	0.20594376068321485	-0.3466326647635049	0.5525764254467198	88.28235885988295
15	6.0	ltm	218	diff_vonmises	-0.3489264312746271	-19.992011872597704	0.6016826834914366	165.8454453510739	0.5891754868670549	166.8454622792206	0.12890799422488897	-0.2959751985034682	0.4248831927283572	110.50679610162238
16	6.0	perception	218	diff_vonmises	0.15791624125927523	9.047934140726147	1.0723348951121339	2.5038968648212103	8.988242046716515e-17	3.924806970184049	0.26510083443459875	-0.520456282782883	0.7855571172174818	125.42072771220072
17	6.0	wm	218	diff_vonmises	-0.04656144016227454	-2.667774009349258	2.0895083693485144	1.2563391940146473	0.13439348838197626	2.495377915971343	0.21321488261045934	-0.34122802605892355	0.554442908669383	87.70573238784542
18	7.0	ltm	218	diff_vonmises	0.007207692092019528	0.4129703369025379	1.570148651824589	131.08429167743628	1.5522423296080368	131.94366162222204	0.02523868067653723	-0.23714118688561925	0.2623798675621565	64.20300715562314
19	7.0	perception	218	diff_vonmises	-0.014794318657300206	-0.8476520198349528	1.1628880573651008	2.3027161237521896	4.225914392162574e-18	3.8772472528043456	0.2401297781829589	-0.53332618271696	0.7734559608999189	122.09191887967161
20	7.0	wm	218	diff_vonmises	0.6504492098175797	37.267994510166666	0.43686903068980965	40.24685763114122	0.409463839542815	41.702776056167785	-0.1314560774512188	-0.280843626492679	0.14938754904146023	113.61700848366127
0	1.0	ltm	219	diff_vonmises	0.03275851784799239	1.8769248157939442	1.386961986910573	0.6723135003032594	3.4551533446926144e-26	3.085079275931459	-0.21323991893946243	-0.47366831451205454	0.2604283955725921	114.09283880186189
1	1.0	perception	219	diff_vonmises	-0.08297943107441294	-4.754371186960576	10.166632147934347	0.8902987638617055	1.0667390599975567e-17	3.4601599468738	0.5670861145771152	-0.5507015577822932	1.1177876723594085	42.56462262925328
2	1.0	wm	219	diff_vonmises	0.035073858704608975	2.009584075012279	3.3152278825220702	0.6958745708969306	0.09641789669665096	3.2954296481770844	-0.09397648513101636	-0.5059056452694888	0.4119291601384724	69.62703002525768
3	2.0	ltm	219	diff_vonmises	0.029477574360765913	1.6889406011549324	1.577871252849058	1.3881417261647784	0.22444362956420544	2.744228839226339	0.08018275480043813	-0.32748792557673023	0.40767068037716836	92.82977037329329
4	2.0	perception	219	diff_vonmises	-0.04227080598689737	-2.421938779665552	8.219664292516619	1.3405176846336142	0.2527266100980657	2.641289302247536	0.9754409361688644	-0.44731547099998775	1.422756407168852	45.94029049187981
5	2.0	wm	219	diff_vonmises	-0.010169147258571976	-0.5826492191632056	7.560842253862502	0.45838402108164106	4.8146047553648976e-20	2.019726995076107	0.17240353469883057	-0.32144940114656434	0.4938529358453949	49.46076664781077
6	3.0	ltm	219	diff_vonmises	-0.06663432590916729	-3.817865645294518	1.5789746217064258	1.4238270063018221	0.2390289509137565	2.3940081596976164	0.15917726626889533	-0.27460827921685393	0.43378554548574927	94.20610897323763
7	3.0	perception	219	diff_vonmises	0.019695680992291856	1.1284793954943606	3.4117249930157927	2.4607285473708607	0.2564386955912643	3.2881177895004745	1.067606008471878	-0.46126662182703215	1.5288726302989102	69.78240261165357
8	3.0	wm	219	diff_vonmises	-0.028945683673382752	-1.658465509605565	3.12747872202152	0.796211067790724	0.15867034866890392	1.9884109562787375	0.16537209973118544	-0.29247807523686825	0.4578501749680537	71.96416572302786
9	4.0	ltm	219	diff_vonmises	-0.18215204966254367	-10.436543675321124	0.7719612707083698	1.7064154836603875	4.031343694874541e-18	3.4249036972996887	-0.036095197089899056	-0.43639372517443925	0.4002985280845402	138.32677843898148
10	4.0	perception	219	diff_vonmises	-0.02182615233929333	-1.2505464120510967	2.42809100446683	2.4667140216137655	0.05094046706369672	4.302138402950634	0.7089600563968675	-0.6394341378971262	1.3483941942939937	85.9356288047141
11	4.0	wm	219	diff_vonmises	-0.22398750268526374	-12.833538567540806	1.5490330318849652	2.3091083167489606	0.3613460643662137	4.471927484901963	0.030927096439087753	-0.4824237549618831	0.5133508514009708	86.23066834707461
12	5.0	ltm	219	diff_vonmises	-0.09685955803359098	-5.54964388082723	1.4241414591922916	1.119328160192898	1.807635637487658e-15	2.0576194660254785	0.14236954701487092	-0.3002530604670592	0.4426226074819301	112.84516940136189
13	5.0	perception	219	diff_vonmises	0.021341457512026814	1.2227754440969028	2.169642232768058	2.241850121311592	0.19704650134939122	3.260624960691241	0.5887373193116154	-0.4190893585466599	1.0078266778582754	85.9633143427879
14	5.0	wm	219	diff_vonmises	-0.058435463441026875	-3.348105429061859	1.3124564636084999	2.1110804738797624	0.20516921419187745	3.1209680525496943	0.24036864306945616	-0.33924306423944467	0.5796117073089009	104.34007649984876
15	6.0	ltm	219	diff_vonmises	-0.32833704445101775	-18.81232690484262	0.7068261192402714	1.9066432095683397	4.334887169957598e-17	2.890395528249644	0.08500911344056161	-0.3274394536690608	0.4124485671096224	140.4904801036937
16	6.0	perception	219	diff_vonmises	0.1793662416683225	10.276928634718445	0.6915397004299724	3.534690404545456	3.1425303309371286e-12	4.629059163954289	0.26338039957014425	-0.4858989552175073	0.7492793547876515	142.0498681653683
17	6.0	wm	219	diff_vonmises	-0.1415213620162487	-8.10857675447409	1.4283297690263734	1.3836299165802033	0.1550078245619222	2.415265685662008	0.13567769080772085	-0.2938741050001086	0.42955179580782943	102.17767668477735
18	7.0	ltm	219	diff_vonmises	0.2291505678002587	13.129360407981244	1.1410247403448703	171.7662702551566	1.1263565250470153	172.98270096457006	0.02516899172965026	-0.29185026943834913	0.3170192611679994	75.522474300346
19	7.0	perception	219	diff_vonmises	-0.04590629748481501	-2.630237098951927	2.1347636218623016	1.7029487518682596	3.923201498555998e-17	3.000757697997328	0.43610658759236826	-0.46480319980488916	0.9009097873972574	94.03265724366517
20	7.0	wm	219	diff_vonmises	0.48362029045205074	27.70940152979353	0.00038215300278867254	1490.1869326784247	1.0221715784250118e-24	1491.5132418365097	-0.12044570347498507	-0.3017142962636683	0.18126859278868324	172.9332744545706
0	1.0	ltm	220	diff_vonmises	0.008585887208639897	0.49193510043042543	4.490037095469385	0.45659211081719403	7.962397401515899e-25	3.050673292995158	-0.11183853847724456	-0.4854826734692302	0.3736441349919856	64.52634863669775
1	1.0	perception	220	diff_vonmises	-0.0724223784784115	-4.149496629112064	10.821455722331931	0.975974312523218	0.09101138335895913	4.030740353107734	0.5641370457331509	-0.6643356567422165	1.2284727024753674	40.5552035538762
2	1.0	wm	220	diff_vonmises	0.007779416864908848	0.44572775343217147	6.527190917185454	0.4672203783514314	1.0019837482403141e-10	3.488229558261638	-0.08892327752656964	-0.5551679782986092	0.46624470077203956	53.29875462802585
3	2.0	ltm	220	diff_vonmises	-0.04381889328098859	-2.5106376479348067	3.7903895462867707	0.8148072355272953	0.19201494679808626	1.847152892481777	0.2552301577162877	-0.27758850292902	0.5328186606453077	65.82454332763288
4	2.0	perception	220	diff_vonmises	-0.060657245263568894	-3.4754041504924005	12.983086456820434	0.8228248555808959	0.02626483662931426	2.0271114370034535	0.8393029124467404	-0.3255172824687487	1.164820194915489	37.51980433119931
5	2.0	wm	220	diff_vonmises	-0.11423523504255668	-6.545196839623463	4.697300415376533	0.6597013283643721	0.15362714227998048	1.988708417130075	0.18628441361010611	-0.3117798967156823	0.4980643103257884	59.690213599843645
6	3.0	ltm	220	diff_vonmises	-0.08460434995293468	-4.847472180751002	2.609621718650928	0.6675635541089943	0.014069563421884363	1.3697716234429371	0.18235949869732843	-0.2127662835837384	0.3951257822810668	84.4174725610284
7	3.0	perception	220	diff_vonmises	0.019962938979764373	1.1437921502176962	4.066553483740815	2.1454618116145627	0.37876268533582136	2.7862719458541516	1.0394166093495296	-0.4016734838906516	1.4410900932401813	63.265592250503545
8	3.0	wm	220	diff_vonmises	-0.03074225264446938	-1.7614013292529895	3.2431087501229694	0.7690393074091882	1.6168001915952224e-17	1.6789813023246216	0.2591821292795753	-0.2664157345152298	0.5255978637948051	76.23973104413705
9	4.0	ltm	220	diff_vonmises	-0.36136551059933997	-20.704718618932198	1.1616225198643144	2.243033432713587	0.2246283341804804	3.5331911517647265	0.13930690223248754	-0.3619603948813148	0.5012672971138024	106.33837775843217
10	4.0	perception	220	diff_vonmises	-0.023458775544700584	-1.3440888312560524	2.403124904106916	2.709795885787896	0.13826027463184914	3.9084381593975683	0.8493381686523317	-0.5364371834788829	1.3857753521312146	83.9245085038111
11	4.0	wm	220	diff_vonmises	-0.1369424710548945	-7.846225627537892	0.8545424835926235	216.30940395519303	0.8389669308723561	217.73691209602728	0.19886315198993998	-0.3914044839082358	0.5902676358981758	92.1562306197036
12	5.0	ltm	220	diff_vonmises	0.000719672143336526	0.041234176446316974	1.3720393667231947	1.6488861806299093	9.110786781893724e-13	2.1385782066469097	0.3364636129883239	-0.29684007478670105	0.6333036877750249	114.60198930542859
13	5.0	perception	220	diff_vonmises	-0.00027466829207032967	-0.015737333901696505	1.0810121012739307	78.19733945089207	1.0253271539036504	78.85010978066043	0.5933434550313805	-0.35783304689322737	0.9511765019246079	88.33676208298442
14	5.0	wm	220	diff_vonmises	-0.017278768715761506	-0.9900005225958158	1.9279759368638825	1.5772094498062503	0.01463468221786877	1.9886873867315464	0.474635136788007	-0.29506065778355	0.769695794571557	98.13492574326767
15	6.0	ltm	220	diff_vonmises	-0.2386337873432977	-13.67270886399336	0.48462952400879195	75.81423066575555	0.4584501122317862	76.28165975485263	0.25750523437259787	-0.2740829286362052	0.5315881630088031	127.26919026877961
16	6.0	perception	220	diff_vonmises	0.30387305971203005	17.410643829226174	0.00040928582409344085	5736.498810375284	1.600488575900441e-29	5736.576024464248	0.36141436571506347	-0.385915911556026	0.7473302772710895	177.04629562557108
17	6.0	wm	220	diff_vonmises	-0.36752979846267575	-21.05790629720505	0.8363906230608368	127.11986156094508	0.8195623049283622	127.2070135695699	0.38160755130473234	-0.1821797562117009	0.5637873075164332	102.18677032217775
18	7.0	ltm	220	diff_vonmises	0.1705570610863127	9.772199766400686	0.8255187555973384	173.78442581063123	0.8104590315326039	174.58027491557039	0.2564616310497172	-0.27920315810671603	0.5356647891564332	96.94158779952193
19	7.0	perception	220	diff_vonmises	-0.06292385786219364	-3.6052714861847783	2.347894671146895	1.5683698844924718	1.0542757005586524e-14	1.7461740296026749	0.6127486568106308	-0.26977633252763344	0.8825249893382643	89.75281658322982
20	7.0	wm	220	diff_vonmises	0.16195770132439974	9.279492745528449	0.6331392554582247	96.88581432130401	0.6139408466592646	97.58398506403987	0.1655507733976762	-0.2423132200653697	0.4078639934630459	110.20650562939028
0	1.0	ltm	221	diff_vonmises	-0.10109242330384482	-5.792169196060279	2.2438086976693383	0.6510067223201164	1.9038545112552973e-17	3.482335828037358	-0.19435728192323282	-0.550183194211219	0.35582591228798616	91.76865071229369
1	1.0	perception	221	diff_vonmises	-0.10485315297390603	-6.007643134044412	14.643585736071495	0.8530521359193467	0.008247201677260904	4.1631279141109845	0.6227610290444074	-0.6646248906594903	1.2873859197038977	35.34526828465951
2	1.0	wm	221	diff_vonmises	-0.058844488953599734	-3.3715408646454588	6.551428670465223	0.4797984708744798	0.02967321173387567	3.5237602870706786	-0.09783163109476817	-0.5614976286925876	0.4636659975978194	52.1749998940046
3	2.0	ltm	221	diff_vonmises	-0.07711654618025858	-4.418452626754527	3.0789601380421434	0.8008857630019417	8.744397624781049e-18	2.0301999819030936	0.20919523271178087	-0.32198945979460647	0.5311846925063873	78.29422975324778
4	2.0	perception	221	diff_vonmises	-0.07878113688918593	-4.513826648992754	14.07967158700371	0.8852919466879473	0.1290662953350804	2.1820063966341148	0.9189295857268885	-0.36916767126550076	1.2880972569923892	35.73682798431892
5	2.0	wm	221	diff_vonmises	-0.11307079636756073	-6.478479418044389	5.766201410123928	0.5612895192717526	0.06468599284560204	1.9017330091087419	0.20225762117350515	-0.30142838093190855	0.5036860021054137	55.48047816200804
6	3.0	ltm	221	diff_vonmises	-0.12687761883060306	-7.269552073663134	3.5943477656289495	0.7094461229827176	4.4696360184330146e-11	1.688999870199706	0.24548449754626378	-0.26842431517558	0.5139088127218439	72.32437017960203
7	3.0	perception	221	diff_vonmises	-0.005590486779966766	-0.3203112979157774	4.11333135681545	2.115335422649158	0.19695235888143503	3.0366907650931467	1.0683917996354335	-0.45198772959852174	1.5203795292339553	64.6166435103058
8	3.0	wm	221	diff_vonmises	-0.04472553173455577	-2.562584204868474	3.2522811677413688	0.9250859887524852	0.16871470525734822	1.9833430079758945	0.2631530237871126	-0.2905494012379072	0.5537024250250198	71.11611945094745
9	4.0	ltm	221	diff_vonmises	-0.2785971810684279	-15.962442659462917	1.088842925012132	1.680651714685207	2.8939473929763887e-11	3.247688267011971	0.08553587094594883	-0.4486291865553572	0.534165057501306	124.45372900716637
10	4.0	perception	221	diff_vonmises	-0.07080364018005984	-4.056749756480325	2.175112965747624	2.791623753908718	1.6515977834812293e-14	4.1106292924314145	0.8605610518719718	-0.6346802609941942	1.495241312866166	93.17632707988096
11	4.0	wm	221	diff_vonmises	-0.09619878315359866	-5.511784268995407	0.9543715396953583	208.0866686525603	0.93679906632531	209.63043270657258	0.18554680293345882	-0.4095985510481448	0.5951453539816036	86.51055557282794
12	5.0	ltm	221	diff_vonmises	-0.016677327465867177	-0.9555404773517977	1.292078458311663	1.796429085103612	1.357405372456996e-13	2.7985375915274258	0.2660280741710356	-0.39171683818514497	0.6577449123561805	117.35698490512999
13	5.0	perception	221	diff_vonmises	0.04568174774485265	2.617371346561323	1.903704770224667	2.6076692784543165	0.3469202592931911	3.774611816357784	0.4807269445998712	-0.41668349811480776	0.897410442714679	85.92352321716012
14	5.0	wm	221	diff_vonmises	-0.06933220474986168	-3.972442716503954	0.7586824030773475	152.34156388421349	0.7379661713186779	153.1292462872814	0.3726055697385817	-0.3385373934585658	0.7111429631971475	102.86711556108402
15	6.0	ltm	221	diff_vonmises	-0.22523373379647912	-12.904942350511346	1.40427145768965	1.5240205239730338	4.7756853055853e-13	2.6353704174232404	0.21492850156677673	-0.3811847089518656	0.5961132105186424	113.32950291668263
16	6.0	perception	221	diff_vonmises	0.38171971415564987	21.870928578058923	0.00020036718837544574	11908.490116050103	6.272267330292418e-29	11909.398685878521	0.23516962188887192	-0.524338335733546	0.759507957622418	175.48381640661262
17	6.0	wm	221	diff_vonmises	-0.27914728051577	-15.993961036108098	0.7867368638808707	134.24028266069686	0.7666112530076797	134.97314675162445	0.2980655364408662	-0.2885262870927665	0.5865918235336327	100.41321130598253
18	7.0	ltm	221	diff_vonmises	0.16025636713906988	9.182013477167718	0.9848826321856723	199.97578257875114	0.9705507221743123	201.06041234353535	0.17858999791999963	-0.30480306177106087	0.4833930596910605	86.0206350098643
19	7.0	perception	221	diff_vonmises	-0.07919954123709813	-4.537799452258046	2.259264267664587	1.551693176391289	3.0424355306496733e-19	2.4055458599954807	0.47838391523724344	-0.3734612782823324	0.8518451935195759	91.46845699959476
20	7.0	wm	221	diff_vonmises	0.2824296870700003	16.182029078311576	1.5242673995770215	0.8246138923880328	3.991249898094197e-15	1.7737461365008445	0.07837249077893421	-0.26519407341086676	0.34356656418980097	109.41784719352151
0	1.0	ltm	222	diff_vonmises	0.16730201298232594	9.585699247930183	4.244711722276689	0.5863306149760783	0.0031207462206034034	3.709415216210855	-0.12666503920048866	-0.5887510740742707	0.4620860348737821	66.11830490589821
1	1.0	perception	222	diff_vonmises	-0.10893454940878035	-6.241489924282451	10.325579511864849	0.9789447938020712	4.387985294809384e-16	4.06684512184438	0.591660563651062	-0.6472585025988967	1.2389190662499587	42.23246849426769
2	1.0	wm	222	diff_vonmises	-0.03454924065650658	-1.9795256749996206	4.491608009315601	0.6738065426037093	0.14889642800645067	4.2865931011668374	-0.235734325745793	-0.6856774594089582	0.4499431336631652	58.36537141935361
3	2.0	ltm	222	diff_vonmises	-0.12797203488103176	-7.332257494384076	1.032254532233323	166.79637126841683	1.0102495506679627	168.3912821079535	0.14488863171330735	-0.408948187039087	0.5538368187523943	82.28383573153857
4	2.0	perception	222	diff_vonmises	-0.07073490684774661	-4.052811626626907	10.470242940634439	0.979878628184065	0.03924899259823953	2.540347926862389	0.8287682580515916	-0.4083682167484026	1.2371364747999942	41.69284626114981
5	2.0	wm	222	diff_vonmises	-0.07814665488738202	-4.477473508112378	4.514984059545597	0.7208373516964737	0.17659989505367885	2.6614626926186244	0.09024565036639831	-0.4194688490691994	0.5097144994355978	59.679811158203364
6	3.0	ltm	222	diff_vonmises	-0.024764749385219005	-1.418915620472249	1.3376643300184687	3.8966445084766033	0.5279323278807977	5.4084069660716185	0.2125772285214611	-0.4093599275337962	0.6219371560552573	89.11389944839331
7	3.0	perception	222	diff_vonmises	-0.04087529202839568	-2.3419817195918107	3.2404497142940842	2.393296385708521	0.14954998020716664	3.937913253924166	0.9136007265017125	-0.5718726014360397	1.4854733279377523	72.54051107475618
8	3.0	wm	222	diff_vonmises	0.012968273488915088	0.7430273384862297	2.9989465947803233	1.1444043140351254	0.25549171737447085	3.0278447804508493	0.1372209601691784	-0.4369102502196878	0.5741312103888663	70.17685855132007
9	4.0	ltm	222	diff_vonmises	-0.002517918024868796	-0.14426607598489827	1.2047881321014524	1.6229489640333268	1.7244578905290843e-19	3.5674633725996094	0.04897325800768104	-0.512361705079879	0.56133496308756	120.51720898653197
10	4.0	perception	222	diff_vonmises	-0.04782527913262685	-2.740186648334605	0.7419094827493176	553.1747120083952	0.7308459847943031	555.4076736648678	0.5194060235398297	-0.7210077227901976	1.2404137463300273	101.06035596838942
11	4.0	wm	222	diff_vonmises	-0.08487543551064052	-4.863004239094496	0.7660476376285981	183.66496401120185	0.7439349058847556	186.13427982314144	0.05201573987854857	-0.5689706224624409	0.6209863623409895	93.51448911684489
12	5.0	ltm	222	diff_vonmises	0.010194518103633515	0.584102861507912	1.796639041323335	1.6764746092842089	0.08898030571320177	2.938040241639936	0.30024914888949605	-0.40465563152369427	0.7049047804131903	96.83909837914868
13	5.0	perception	222	diff_vonmises	0.015323348508612063	0.8779631975515556	0.8776672974867966	234.61721463583456	0.8566107832407843	235.95901752584146	0.5202421351267645	-0.4988340596810872	1.0190761948078517	94.75033852893426
14	5.0	wm	222	diff_vonmises	-0.06267547269896045	-3.591040064637849	1.3986972115668028	2.966797012048915	0.31808210792400654	4.237708199060858	0.3279033380083002	-0.4123174225486328	0.740220760556933	96.75714669350279
15	6.0	ltm	222	diff_vonmises	-0.08018362691847694	-4.5941834084803075	1.4772486964231595	1.395135437666815	2.7627154186961826e-18	2.6226488163779704	0.1813115123133564	-0.3862090502436263	0.5675205625569827	111.1539337396047
16	6.0	perception	222	diff_vonmises	0.1579606195422753	9.050476829044088	0.0002085267766756661	9499.435340275906	4.977999490102765e-30	9500.597528262258	0.13031624825316612	-0.5002193030645685	0.6305355513177346	179.1089745215229
17	6.0	wm	222	diff_vonmises	-0.27974119228941646	-16.02798967414117	0.6260973179210779	225.19547316010943	0.6143731893759726	226.3263466802342	0.19725555670390094	-0.35623962963007116	0.5534951863339721	109.30205625575769
18	7.0	ltm	222	diff_vonmises	0.11542421024731808	6.613320100801994	0.8974451446280965	163.73388967383687	0.8822636664864935	164.90126149732203	0.10083449441922454	-0.2957306547517504	0.39656514917097496	88.32575826575282
19	7.0	perception	222	diff_vonmises	-0.052526404287457265	-3.0095412786691735	2.566336202844596	1.7876737147533497	0.027840294268540035	2.9038746562219657	0.5947659113908285	-0.4430763827511003	1.0378422941419287	84.71534673664755
20	7.0	wm	222	diff_vonmises	0.7180815451465526	41.14304188313035	0.036228305453094516	25.736047125612128	4.675984414099627e-10	27.137134324198005	-0.07327109087459416	-0.37002137142276625	0.2967502805481721	163.5574472183791
0	1.0	ltm	223	diff_vonmises	-0.12727918938153823	-7.292560371408463	0.32079112355133205	88.74461223814549	0.3065473882317089	90.96873940058161	-0.24283363023228333	-0.42020146442225226	0.17736783418996893	127.75652868051121
1	1.0	perception	223	diff_vonmises	-0.05140534717360575	-2.9453094374523645	9.306451755681556	0.9813676347922831	0.07992836375540097	3.618463423911478	0.5546289899059631	-0.5892728004260175	1.1439017903319806	43.78154447503303
2	1.0	wm	223	diff_vonmises	0.03632134210553228	2.0810596088978106	9.196969930996737	0.14292862131367176	1.2678505211475433e-31	2.7430191374201836	-0.2661219007101997	-0.4365650529654325	0.17044315225523282	44.77852035598235
3	2.0	ltm	223	diff_vonmises	0.21613314297978897	12.383516905639485	0.6138423205223674	117.91455115132713	0.6000192580020463	118.85743309637704	0.058301936854075365	-0.24410315284434603	0.3024050896984214	107.06608484374968
4	2.0	perception	223	diff_vonmises	-0.04316635187867133	-2.4732497796244792	9.619985002443805	1.2793051917055052	0.39304896167892983	2.4746645618966165	0.9992391438884455	-0.44999862552606545	1.4492377694145109	42.1034301031342
5	2.0	wm	223	diff_vonmises	-0.049130017759660805	-2.814942665031344	5.773637695660491	0.5182897772705569	0.15783407434332675	2.2480827982583604	0.06865339934768627	-0.3644515232027542	0.4331049225504405	53.49694448336183
6	3.0	ltm	223	diff_vonmises	0.1034095976413499	5.924933505995342	1.5089096948577354	84.89117426684518	1.4869795424515386	85.30158394071846	0.14897806681774028	-0.15045767646420138	0.29943574328194167	70.95869451676899
7	3.0	perception	223	diff_vonmises	-0.005341703968383699	-0.3060570927966693	3.1107127089274185	2.9530190346204983	0.6519007397371591	3.685828109030527	0.9591885220968395	-0.444455093447345	1.4036436155441845	67.6353315302184
8	3.0	wm	223	diff_vonmises	0.03575240487832071	2.0484619069707124	3.4015123947875767	0.5125993960105103	0.24502154700333328	1.6094525851614607	0.0379714206710034	-0.2418255773793606	0.279796998050364	66.06338807194402
9	4.0	ltm	223	diff_vonmises	-0.18635480894467069	-10.677344044496433	0.6505783758042479	102.74600352612266	0.6334337186746573	104.07464996275526	-0.026648151825146016	-0.28784936257665095	0.26120121075150493	99.12903673801208
10	4.0	perception	223	diff_vonmises	-0.006964209650213966	-0.39901982060153957	1.6291946308873069	4.360105697442782	0.4670034845888265	5.868132935365802	0.5739236366487774	-0.5314820251803416	1.105405661829119	87.71591766161632
11	4.0	wm	223	diff_vonmises	-0.17032709740305538	-9.759023817908759	0.9353240251228143	228.10459989454813	0.9185069472366849	230.20250652679158	0.045110761951747236	-0.48509674098954747	0.5302075029412947	83.95689803846471
12	5.0	ltm	223	diff_vonmises	-0.07455387366037348	-4.271622307090955	1.1774676457398967	69.87085106984372	1.1421879230917973	70.63694785502264	0.1757106686226102	-0.2342036649574908	0.409914333580101	79.70884506261339
13	5.0	perception	223	diff_vonmises	-0.008117158601945878	-0.46507892952981056	1.0250788011402079	202.2020954975227	1.0003801441429931	203.37009241657844	0.5444090493998885	-0.4546495097771661	0.9990585591770547	88.10665327763348
14	5.0	wm	223	diff_vonmises	0.10582485539233784	6.06331758156321	2.434406074837896	1.0628442399913525	0.025065306685387426	2.1717654454394024	0.2623049639796735	-0.3323006258036448	0.5946055897833182	86.79813784753455
15	6.0	ltm	223	diff_vonmises	-0.26581322607378544	-15.229975992784716	0.7634562975064095	181.19340618074116	0.750097403530704	182.12810671361433	0.18722268973340306	-0.28597164097453387	0.4731943307079369	99.07169078718735
16	6.0	perception	223	diff_vonmises	0.28513980513377996	16.337307405348316	0.3116996203242146	7.250007021934837	6.69395583509229e-17	8.468516768223374	0.19049128716906116	-0.5230869217411318	0.713578208910193	160.50517663877173
17	6.0	wm	223	diff_vonmises	-0.2500274956873215	-14.325520265108915	2.3047154577049525	1.1575065973703489	4.7365789115416025e-11	2.026436869719715	0.32762403268395357	-0.31604319011507276	0.6436672227990263	90.52839510412319
18	7.0	ltm	223	diff_vonmises	0.00696734238167881	0.39919931289282296	1.1316425850550227	174.1139431354549	1.1165825427167102	175.2643458423104	0.07111858254889114	-0.2891709228369699	0.360289505385861	77.3604330582001
19	7.0	perception	223	diff_vonmises	-0.1261152571027979	-7.225871964197597	2.415925477085401	1.5137938130197592	1.4174574352747473e-18	2.4955026406257135	0.47718531031672556	-0.3902011625319002	0.8673864728486258	88.47969520475854
20	7.0	wm	223	diff_vonmises	0.4758248153744268	27.26275370854626	1.3582169813207756	1.5136846389488043	0.2622894892866099	2.9517250598216105	0.017264464612269936	-0.3245684379601795	0.3418329025724494	94.92604226723407
0	1.0	ltm	224	diff_vonmises	0.13086838775821877	7.498206290227464	4.340866449635195	0.46628421801496944	1.5364446465303495e-24	3.5312825255433276	-0.18729168311299632	-0.5619574731309934	0.3746657900179971	65.65449188650769
1	1.0	perception	224	diff_vonmises	-0.07094943769028143	-4.065103338479537	9.194638242283053	0.9835932028283487	0.052861372343968045	4.157593626581313	0.4756568415238097	-0.6707335555165862	1.146390397040396	44.19705569144293
2	1.0	wm	224	diff_vonmises	-0.010801484355377313	-0.6188794660397067	3.88258816024165	0.75799671855979	0.12068963054726697	4.418811979446067	-0.2172821636422011	-0.6924050238072177	0.4751228601650166	63.32900455644392
3	2.0	ltm	224	diff_vonmises	0.0037710389335771015	0.2160646152734827	2.1139682571051677	1.710562497939239	0.48719188289036947	3.1108077443264657	0.1523083165571989	-0.3568318181476013	0.5091401347048001	75.91961809423066
4	2.0	perception	224	diff_vonmises	-0.04875407226813892	-2.793402575040169	9.402936338420568	1.0275676991078193	0.0616395156167851	2.505752437033738	0.8156227956689568	-0.40436712691772697	1.2199899225866837	43.87246291513779
5	2.0	wm	224	diff_vonmises	-0.021866285017411523	-1.2528458451278262	4.858525447225823	0.6741711794065438	0.10680320814721614	2.5497459572792764	0.12542340791375273	-0.40192593165988216	0.5273493395736348	59.13707334007401
6	3.0	ltm	224	diff_vonmises	-0.026245142901293827	-1.5037359209618688	1.9430116135079376	0.9964845789454531	1.2226543284156015e-16	2.2749373438582543	0.1430524115300812	-0.35169750885823214	0.49474992038831334	98.36163311290869
7	3.0	perception	224	diff_vonmises	-0.013405732817091493	-0.7680919116993662	4.399768175025005	2.0302882200821593	0.1401463511645274	3.355224126946808	1.0324445830087048	-0.5114878772167849	1.5439324602254896	63.01773039422699
8	3.0	wm	224	diff_vonmises	0.05697733995708528	3.2645611074230936	2.7667062818323145	0.8641762718612602	3.8643537984261285e-16	2.7021843276958415	0.11022058215408215	-0.427930396142753	0.5381509782968352	82.66597723179305
9	4.0	ltm	224	diff_vonmises	-0.18823567249745035	-10.78510958791069	0.7242045155164545	2.5717759399173197	2.500325968902163e-15	4.427895914483249	0.03896498938701132	-0.5299952227748914	0.5689602121619027	140.5337609446934
10	4.0	perception	224	diff_vonmises	0.0014064426196263881	0.08058322623191544	0.8535298442231433	355.4091506039166	0.8350918800133268	357.5313125324742	0.5920032206322929	-0.7005090243299854	1.2925122449622783	94.83668337836593
11	4.0	wm	224	diff_vonmises	-0.12427206147985292	-7.120264634185864	0.6650828224060893	71.01103992680659	0.6053547322745263	73.83007695697898	0.05370859643049286	-0.6624722353813182	0.716180831811811	102.40639519670802
12	5.0	ltm	224	diff_vonmises	-0.042127873247219075	-2.4137493369277436	1.6517431409832382	1.5361965533302522	1.4171446644312107e-13	2.290134060813089	0.3410134753997163	-0.3385534203475809	0.6795668957472972	105.94521134252706
13	5.0	perception	224	diff_vonmises	-0.008079925672089932	-0.46294563979015824	0.9320794003565949	328.55968248374705	0.917242167023416	329.3759384579417	0.6610784338175648	-0.43370368725407005	1.0947821210716349	94.03775775739595
14	5.0	wm	224	diff_vonmises	-0.030229572428029424	-1.7320269166111266	2.1650652240916703	1.5164844056963542	3.039004677082478e-20	2.380969797169914	0.4416312374442496	-0.36813905858083806	0.8097702960250877	93.39093334073385
15	6.0	ltm	224	diff_vonmises	-0.11966932782114251	-6.8565474213189495	0.49353206767248403	3.277132525791212	2.5571247282158646e-11	3.802834079564535	0.19939353896793766	-0.30537684136630794	0.5047703803342456	152.31042427556832
16	6.0	perception	224	diff_vonmises	0.11120014224385649	6.371298831827393	0.3123722052994197	6.948565943576959	1.2501789045279738e-11	7.432349428799851	0.2922803344598821	-0.39307841181110037	0.6853587462709825	161.98362371340386
17	6.0	wm	224	diff_vonmises	-0.2559196262714243	-14.663114479917956	0.6949477267814705	142.38624778308065	0.6782463256543411	142.89377518929385	0.3106418274540559	-0.2620414917839238	0.5726833192379797	108.30279658065383
18	7.0	ltm	224	diff_vonmises	0.21208050182979635	12.151317671863863	1.013546900084334	128.98975310691912	0.9946007423053637	129.9544754996291	0.13347553462170936	-0.2624129022150452	0.39588843683675456	84.25688922605426
19	7.0	perception	224	diff_vonmises	-0.007149778352607483	-0.4096521240584073	0.8807783190366192	101.5975066070685	0.8351596103629373	102.5415304033445	0.5911209474968437	-0.4444791996635047	1.0356001471603484	96.8909358232732
20	7.0	wm	224	diff_vonmises	0.4358735889159766	24.97371704610568	0.025845675114651433	40.81114329052552	7.761755289207674e-07	42.07751108502947	-0.03260335825528937	-0.3683248174167906	0.3357214591615012	172.87314281929298
0	1.0	ltm	225	diff_vonmises	-0.2241067283733724	-12.840369696278975	0.6679759363290982	1.0473135826190196	1.2182278440036254e-19	4.522423147080323	-0.42813279541949056	-0.64309295675048	0.21496016133098939	143.03876895826426
1	1.0	perception	225	diff_vonmises	-0.006065042281878572	-0.34750132532003636	7.919431175544112	1.0091057644658359	0.10334094470190605	4.968047157413115	0.2392713827267947	-0.8123028256358499	1.0515742083626445	46.814195393444294
2	1.0	wm	225	diff_vonmises	0.04776596272510085	2.736788068527487	4.3430558938629265	0.3726078876521821	1.2801985586039608e-19	4.313807956171135	-0.3870004029216513	-0.6865132542154736	0.2995128512938223	65.63119250986946
3	2.0	ltm	225	diff_vonmises	0.21129151566457174	12.106112094502283	0.9435893549742392	117.89609634154013	0.921757911570618	119.15825060239442	0.0767778881694241	-0.3086351399577758	0.3854130281271999	85.30505192918523
4	2.0	perception	225	diff_vonmises	-0.048060867431448225	-2.7536848635597364	10.093448337379613	1.1949047622925029	0.31164265118494994	2.6032639971636153	0.9423362140894574	-0.46417714723922066	1.406513361328678	41.34771105850521
5	2.0	wm	225	diff_vonmises	0.03359329899137858	1.9247542521270777	5.44419082105698	0.5682016447956907	1.6805988826332729e-16	2.4336749785294565	0.1281616133968732	-0.3873217763364955	0.5154833897333687	58.458587900741605
6	3.0	ltm	225	diff_vonmises	0.08228275365770098	4.714454511300903	4.804063720410647	0.29025260141842335	2.695795007200422e-24	1.0284349254569327	0.08267716703610636	-0.16366394962701905	0.24634111666312541	62.32418253109529
7	3.0	perception	225	diff_vonmises	0.008670160893701859	0.49676362690849046	5.153944727499658	1.8004613657589474	0.2107560173429098	2.6636925079226286	1.0687158650487196	-0.41300478833308185	1.4817206533818015	57.97302276536638
8	3.0	wm	225	diff_vonmises	0.10330410769654803	5.918889377377127	2.1168288360240197	0.6859390776926729	3.2597532215429303e-16	2.008077358156634	0.04658985978355784	-0.31428599933742374	0.3608758591209816	94.39906100645169
9	4.0	ltm	225	diff_vonmises	-0.46627793506000625	-26.715757759013435	0.392439881649255	142.02019214012788	0.3795614025496036	143.70890514936423	-0.04456814878481197	-0.40427642282697995	0.359708274042168	127.31157063167534
10	4.0	perception	225	diff_vonmises	0.016643355036622513	0.9535940005362716	2.924737880684406	2.0992312121810115	7.791600050878095e-16	3.827048093290837	0.7460010427625706	-0.6051890316270079	1.3511900743895784	80.367322674169
11	4.0	wm	225	diff_vonmises	-0.13137153790857053	-7.527034670303993	1.417624402359678	2.501562823030692	0.12821116676196165	5.376693697487507	0.07835986467007772	-0.6885439011595673	0.766903765829645	102.08702995906823
12	5.0	ltm	225	diff_vonmises	-0.058394071662809494	-3.345733854863461	1.3534015983502181	2.2342209962100474	0.29544209360236223	3.2652004687448537	0.2262893742678619	-0.32239152532307896	0.5486808995909409	98.47679102593695
13	5.0	perception	225	diff_vonmises	-0.022884369287197913	-1.3111777769752444	1.6177989919523756	4.100230404727503	0.454981416996222	5.322556301861705	0.5907736647673616	-0.4779660265839887	1.0687396913513503	88.92856418930171
14	5.0	wm	225	diff_vonmises	0.033037670445942545	1.8929190814966002	1.9792220886184488	1.5880403540841586	4.518273730209783e-15	2.7024195524877914	0.3839831488924727	-0.41456013349073034	0.798543282383203	97.49879146294097
15	6.0	ltm	225	diff_vonmises	-0.22296482314328236	-12.7749433459909	0.38671055838288065	111.7685103174929	0.3695840589680213	112.44836297177585	0.19808007511592862	-0.31116694652472354	0.5092470216406522	135.73973562169408
16	6.0	perception	225	diff_vonmises	0.29564898528380573	16.939439074087453	0.1437455476114034	18.89385349994629	9.89903258831344e-15	19.838151933528597	0.29670509470261797	-0.5663109681652219	0.8630160628678398	169.3845672593178
17	6.0	wm	225	diff_vonmises	-0.3193869523097119	-18.299524398892594	1.5660596684907295	1.8861707277185065	2.1656011520225116e-11	2.5485414643069912	0.43301512273610043	-0.3690260517969979	0.8020411745330983	108.13528626784779
18	7.0	ltm	225	diff_vonmises	0.235613881098569	13.499680981645204	0.6824598870465408	162.6441913575782	0.6686463823169567	164.16175950024834	0.004901881006659892	-0.3422344225739451	0.347136303580605	98.13093999627608
19	7.0	perception	225	diff_vonmises	-0.06464882005680567	-3.7041045397556718	2.6160397448169204	1.6473076466591983	5.174168164355975e-15	2.99601962811331	0.5201244376850351	-0.47150482102378427	0.9916292587088193	85.03638166708151
20	7.0	wm	225	diff_vonmises	0.5628583424336528	32.249407485177564	0.4078323680619204	58.16686670068645	0.3742421527142705	59.88148413204269	-0.025490410108952588	-0.42265255822024006	0.39716214811128747	126.66603174945647
0	1.0	ltm	226	diff_vonmises	0.21951265532344033	12.577148699743073	3.7088324336067378	0.5425073936352449	0.05581653948828659	2.7526578799454806	-0.0627574157936378	-0.4285568622449427	0.3657994464513049	67.84856283808841
1	1.0	perception	226	diff_vonmises	-0.08712961707792112	-4.992159329155861	9.740850939195548	0.9416512984059731	4.159855146738067e-20	3.183296578844075	0.6500139469233751	-0.5066373818473573	1.1566513287707325	43.4937015885705
2	1.0	wm	226	diff_vonmises	0.13781356154879346	7.89613543641227	0.8882030598441443	57.61244007309683	0.8287118781187907	60.1693625499434	-0.1366011874181794	-0.525567399416774	0.3889662119985946	82.38305095927507
3	2.0	ltm	226	diff_vonmises	-0.09547437904201929	-5.470278970739985	1.4307458607107777	3.241284211505572	0.6474660535221588	4.545060606123163	0.1164982768406373	-0.32948583671690046	0.44598411355753775	82.62284345337778
4	2.0	perception	226	diff_vonmises	-0.046194571328954014	-2.6467539735651036	8.613503213226995	1.1860542263551106	0.12625657220252898	2.4723503479608957	0.9224656771926854	-0.4046518509393425	1.3271175281320278	45.52144370177177
5	2.0	wm	226	diff_vonmises	-0.05490577176760797	-3.1458689931924866	6.086052212641662	0.5199717306991928	0.12300860249902719	2.134839074870329	0.11749008851380877	-0.34414510365757767	0.46163519217138643	52.904131937306175
6	3.0	ltm	226	diff_vonmises	-0.020371125603277907	-1.167179520998717	0.9187900815419918	191.95345324617017	0.9055572058885678	192.81900494251136	0.20323160428704767	-0.2667439359043975	0.46997554019144516	90.48268088383696
7	3.0	perception	226	diff_vonmises	0.03154988123482876	1.8076750388946823	2.249622630221029	3.9405265494590265	0.5961869432294139	4.672831739220092	0.9441540883375541	-0.45928996744926376	1.4034440557868177	77.64938889759094
8	3.0	wm	226	diff_vonmises	-0.02140860563468676	-1.2266227481275445	2.471561869602372	1.3227818227377783	0.5033428216660911	2.3946361447267597	0.1820117254586998	-0.2932075999093816	0.4752193253680814	72.11583804257387
9	4.0	ltm	226	diff_vonmises	-0.08525738284248084	-4.88488820920523	1.9303420060062206	0.7563654347259836	3.600744607482499e-20	2.260005121673761	0.022221495737180852	-0.3516502936523898	0.37387178938957066	98.64930608065164
10	4.0	perception	226	diff_vonmises	-0.015178121019966444	-0.8696422753828775	0.9486199066030968	380.12956203402155	0.932235796751021	381.92419987793807	0.5933113686004674	-0.6156451774779512	1.2089565460784186	90.3070745232991
11	4.0	wm	226	diff_vonmises	-0.2602400107748838	-14.91065427783991	0.8745608747075019	115.69520930129569	0.8478455929727299	117.43420096251617	0.0456620290476053	-0.4029812239399462	0.4486432529875515	87.49505662835811
12	5.0	ltm	226	diff_vonmises	0.009920881983145481	0.5684246666816144	2.144766845006416	0.8020948113939396	1.439835219339136e-20	1.7201770270127223	0.15777985572894282	-0.26785677552324505	0.42563663125218787	93.82269259558996
13	5.0	perception	226	diff_vonmises	0.011179111562077503	0.6405159112129419	2.175602581064515	2.2302070626042085	0.22056845952199777	3.2493324922478073	0.5732676149609555	-0.4112582673763329	0.9845258823372884	85.15669237394542
14	5.0	wm	226	diff_vonmises	-0.027335440476440813	-1.5662053704311387	1.2251949107200726	2.622511880923463	0.3136638228197509	3.6787614668038247	0.22458857227189621	-0.33368111858844396	0.5582696908603402	101.37622896039913
15	6.0	ltm	226	diff_vonmises	-0.27361355661748743	-15.676902011745826	1.058110394926767	1.2984589044461001	9.199304101559569e-18	2.3445819846908607	0.08477285513189214	-0.3179763933127411	0.4027492484446332	125.67955742072822
16	6.0	perception	226	diff_vonmises	0.21709559841689977	12.438661540155353	0.24170659931451524	8.728543776174838	1.321247865442242e-20	9.64049675469618	0.20912174392174787	-0.459172770237926	0.6682945141596739	165.0444963234042
17	6.0	wm	226	diff_vonmises	-0.2881914430730978	-16.512153379873226	0.6263960561303937	121.25409511405799	0.6106617602192171	122.20239829917242	0.10795270128916457	-0.2692543487163448	0.37720705000550936	107.88174107909914
18	7.0	ltm	226	diff_vonmises	0.1882559298472239	10.786270248556834	0.8620432762070801	100.12007716717683	0.8392767508532448	101.24489959002631	0.08494853338245179	-0.2808501715831557	0.3657987049656075	90.07400230616688
19	7.0	perception	226	diff_vonmises	-0.08293735888957249	-4.751960628334324	2.87276923882363	1.4763817441044658	8.219455804654751e-18	2.110712941177495	0.6073321485299821	-0.3329146134577919	0.9402467619877739	81.10368347777884
20	7.0	wm	226	diff_vonmises	0.4413465452690638	25.287294346596887	0.30475232774878136	50.71634313204319	0.2838958947578868	51.866345759082314	-0.04934702784849598	-0.2756800204605696	0.22633299261207362	138.44820591390126
0	1.0	ltm	227	diff_vonmises	0.12834875779229515	7.35384212724535	0.5053449424661401	76.98401846744771	0.484093612194705	79.0548536160681	-0.19929008445152263	-0.3859311610292835	0.18664107657776086	102.75432231371636
1	1.0	perception	227	diff_vonmises	-0.04893729320682488	-2.8039003615453	8.621516920641266	0.971058195332665	0.011551250767127241	3.1385603550120478	0.6146712687700194	-0.49963413823088226	1.1143054070009017	46.12535002128999
2	1.0	wm	227	diff_vonmises	0.28089223819361364	16.09393974647749	2.9668413086485725	0.42114875264222	5.2237122634864944e-11	2.857892701900989	-0.18075794413959745	-0.4541217601583186	0.2733638160187212	79.76213186207275
3	2.0	ltm	227	diff_vonmises	0.19865056928450822	11.381839217873466	0.8558157113550429	128.39797870075824	0.8403128045332764	129.42093675352487	0.061344274341031735	-0.24952510191074317	0.3108693762517749	89.6518569980683
4	2.0	perception	227	diff_vonmises	-0.021649134675939347	-1.2404040470416458	7.220238902485799	1.5848204075495291	0.42165298706772	2.5838842368417603	1.0672891706285907	-0.4445737853858446	1.5118629560144354	48.15316758489499
5	2.0	wm	227	diff_vonmises	0.04321455749456307	2.476011757963905	7.843413432524116	0.4036707358249473	0.05465281857355601	2.01631746019254	0.1045557331982136	-0.32418663183424534	0.42874236503245894	47.64450182762539
6	3.0	ltm	227	diff_vonmises	0.14250902867746207	8.165165885727392	1.0905309664467215	29.7843871625976	1.0396769455518144	30.284235077015268	0.11015500102450027	-0.1503024855847328	0.26045748660923307	83.22682204685029
7	3.0	perception	227	diff_vonmises	0.027796511824619292	1.5926228127361726	3.1471485130275294	2.517907299123283	0.5079830634636882	3.050993553449529	0.9370966389305083	-0.38288239840636706	1.3199790373368754	69.33927555630495
8	3.0	wm	227	diff_vonmises	0.14457960597546096	8.283801226058332	1.6585981559433343	1.3505068935708684	0.5279083706378861	2.3449291626425426	0.03096392634068368	-0.23045332681161368	0.26141725315229736	79.73956040396206
9	4.0	ltm	227	diff_vonmises	-0.23104410389023408	-13.237852034292537	2.4038802279899505	0.4586753988289347	1.0018566063371986e-21	1.7815258759169659	-0.019392621206052507	-0.28138150985603755	0.26198888864998504	88.67424110368749
10	4.0	perception	227	diff_vonmises	0.022630583200430522	1.296636905304332	1.0736318707643926	75.64542700716059	0.9959011404847457	77.34441367570973	0.5293936698377522	-0.5649990095644872	1.0943926794022394	85.73555183977243
11	4.0	wm	227	diff_vonmises	-0.28591104047322935	-16.381495935310106	1.8526312830959164	1.4017083765589151	0.19964391023754083	3.6205787329882653	-0.006292065026744287	-0.47542385871123943	0.46913179368449515	86.08103643517899
12	5.0	ltm	227	diff_vonmises	-0.057161467938258166	-3.2751108636345645	1.7485392400201933	1.231871279334724	0.4212631816983352	1.9742777841939523	0.12744248118376966	-0.20483185044157953	0.3322743316253492	84.43716844849087
13	5.0	perception	227	diff_vonmises	-0.015318197694555138	-0.8776680776450372	1.8351456054322937	3.377866192852461	0.458513910558774	4.251706117156677	0.6378183518892908	-0.40836549962416924	1.04618385151346	85.66328326619941
14	5.0	wm	227	diff_vonmises	0.08916636223969436	5.108856230869157	2.1399717275645815	1.08215767344092	2.1845836444527205e-15	2.1219312307640217	0.2437735469488485	-0.3296659657837118	0.5734395127325603	93.907357095083
15	6.0	ltm	227	diff_vonmises	-0.3499261662814685	-20.0492924691212	0.5378106195347664	98.39232127162683	0.5208808228341422	99.16326920738102	0.11944115922043252	-0.2512263263673411	0.3706674855877736	117.80057531466156
16	6.0	perception	227	diff_vonmises	0.19514542497512974	11.181009242361782	0.7228520134020874	3.310951952615129	3.061859329946275e-17	4.343872952899084	0.2652340585160876	-0.46599526829365023	0.7312293268097378	140.48363362629777
17	6.0	wm	227	diff_vonmises	-0.26594718612032553	-15.237651338074839	2.0346054960530338	1.0367411950055117	3.7210202867815104e-22	1.8885055210891648	0.2398356352830952	-0.2913287496976825	0.5311643849807777	96.13702986641108
18	7.0	ltm	227	diff_vonmises	0.08984119455239618	5.147521274266024	0.8404577027624179	174.14092173405183	0.8268505359654256	175.70943147091364	-0.03198721401727056	-0.33766520343074546	0.3056779894134749	86.29839281787318
19	7.0	perception	227	diff_vonmises	-0.112474462372769	-6.444311996962647	2.929572169486196	1.5413238131593254	4.4235419227066525e-15	2.5115009635724372	0.5960910162774019	-0.39687556817198066	0.9929665844493826	80.30302101518427
20	7.0	wm	227	diff_vonmises	0.6280126244003346	35.98247285907375	1.2752911933286974	0.8112092711645413	1.966789892770933e-15	2.4271156594561303	-0.06751124051619023	-0.36141136552787756	0.29390012501168733	115.74272899907828
0	1.0	ltm	228	diff_vonmises	-0.362031772033283	-20.742892587149466	0.24394634380194158	33.902579653282245	0.2142719341665658	35.403588287477305	-0.116506689059241	-0.3306005252022324	0.21409383614299138	146.5207691957218
1	1.0	perception	228	diff_vonmises	-0.09253790200882811	-5.302031230101033	10.849122405374459	0.9891268152611722	0.030416535833964906	2.8158258523225608	0.8220200814732371	-0.451743261484522	1.273763342957759	40.99554187875236
2	1.0	wm	228	diff_vonmises	0.1254671237493838	7.1887366584853085	3.420684414234002	0.3869274751503145	1.4429598960950547e-33	2.1088557538340114	-0.06275230221947037	-0.33534319360058384	0.2725908913811135	74.18289657542147
3	2.0	ltm	228	diff_vonmises	0.13342622081515645	7.644759329089039	0.7596334293295649	78.33122224583147	0.7381857051332323	78.95207522846988	0.13950849421151545	-0.1972171887996561	0.33672568301117156	100.05250664750258
4	2.0	perception	228	diff_vonmises	-0.032852542176217976	-1.8823120129728228	8.95140758351744	1.2894786360550075	0.41940260453812855	1.9946210886958424	1.054076759549841	-0.35759529514194077	1.4116720546917818	43.71583198010407
5	2.0	wm	228	diff_vonmises	-0.05473211796012561	-3.13591936292737	7.773431378016436	0.41165830731907066	0.18842849759304253	1.4172176768939744	0.1800965907024824	-0.23710408234793537	0.41720067305041775	46.83300816689791
6	3.0	ltm	228	diff_vonmises	0.06421450068810428	3.6792198729682957	1.3943448410170032	67.6665748127718	1.369298075077327	67.95287054215596	0.18615215417726105	-0.12907932262957367	0.3152314768068347	75.87719936101257
7	3.0	perception	228	diff_vonmises	0.012699378296749761	0.7276207788437973	3.3458342155187157	2.6066885355277223	0.6550103889445787	2.9843307635737077	0.9920990576760053	-0.36740525982082123	1.3595043174968264	66.34448675918702
8	3.0	wm	228	diff_vonmises	0.010312976031906342	0.5908900008478084	3.3319720147927425	0.5844567267188954	0.3258459922276201	1.2232385181647225	0.14349476148032542	-0.17568336972063245	0.31917813120095784	67.2413434551946
9	4.0	ltm	228	diff_vonmises	-0.27767586833429575	-15.909655328185487	2.9710541425089714	0.6015573433767266	6.232487661921541e-14	1.623774162231495	0.13338815940727683	-0.2574025672800943	0.39079072668737114	79.70799149641617
10	4.0	perception	228	diff_vonmises	-0.024824060680518192	-1.4223139073703466	1.9745865025799454	3.2105801361938178	0.3752489642009916	4.270762280843721	0.6881563172275783	-0.46143297263064	1.1495892898582183	84.93115580373865
11	4.0	wm	228	diff_vonmises	-0.22890621381162288	-13.115359955725223	1.1997502490824892	207.35196966577448	1.1832290294587602	208.64829442667795	0.14613001072544307	-0.35028771817805904	0.4964177289035021	76.40677901584587
12	5.0	ltm	228	diff_vonmises	-0.09498886909377044	-5.442461299793711	2.544085716949749	0.6663106781463517	0.09293246526612649	1.0487163832410247	0.21394797129770954	-0.15082772599705227	0.3647756972947618	82.78799887011846
13	5.0	perception	228	diff_vonmises	0.01655502608827861	0.948533124587337	1.1662914007721776	179.37767749523184	1.1421921132781165	179.93070034835952	0.6000009662988646	-0.33219501604603785	0.9321959823449024	84.72638642178109
14	5.0	wm	228	diff_vonmises	0.05533032535489998	3.1701941219214573	0.7891374480675767	82.2319980810849	0.7609186938339171	82.66673518644515	0.31435692900218726	-0.2325079427620329	0.5468648717642202	102.41331210530623
15	6.0	ltm	228	diff_vonmises	-0.36702073056697615	-21.02873885529586	0.7526404125993749	98.04428946321124	0.7310326189165908	98.65925049972611	0.22572504494321777	-0.23550219480954304	0.4612272397527608	102.41111139869427
16	6.0	perception	228	diff_vonmises	0.294348831250475	16.86494573526069	0.5932068824686845	3.838078937546714	6.00584066906071e-16	4.4887175857939114	0.2998885415622311	-0.4047233584438666	0.7046119000060977	146.03501195687318
17	6.0	wm	228	diff_vonmises	-0.2532440531519551	-14.509815432393719	3.1907796530991157	0.8253810898462811	3.892264287084841e-19	1.1578972921974013	0.3754757013875819	-0.1833374714331002	0.5588131728206821	76.87039297686304
18	7.0	ltm	228	diff_vonmises	0.05298095258484305	3.0355849776942363	1.1787110613527065	267.5955599760286	1.1671496982199667	268.72805813020244	0.15124946388877447	-0.3121992543984362	0.4634487182872107	77.52166385797358
19	7.0	perception	228	diff_vonmises	-0.1336594811154865	-7.658124159825905	2.265539974141826	1.5349191614546467	9.002089529158703e-24	2.044970389266142	0.5278995215385431	-0.3162764650386309	0.8441759865771741	91.33100580181254
20	7.0	wm	228	diff_vonmises	0.3290621520916393	18.853872512342928	1.7884331188886298	0.7414542099111123	2.020059523506142e-15	1.6794072174754369	0.0901281844748063	-0.257291403837802	0.34741958831260833	101.96757102381892
0	1.0	ltm	229	diff_vonmises	0.02642885666745855	1.5142619444015608	1.0296530255130305	0.8609825514697237	7.8391590721058e-15	4.32892563081824	-0.3899508840250279	-0.6508294714086623	0.2608785873836344	127.34943507093398
1	1.0	perception	229	diff_vonmises	-0.05021057066865068	-2.8768537862570476	11.94497893597097	0.7681961154039608	0.01589754022685301	4.694526113984793	0.28854986643330194	-0.7510881380308434	1.0396380044641453	39.05476251423676
2	1.0	wm	229	diff_vonmises	-0.07513981450068653	-4.305194244285241	5.836254851836652	0.44987061094189856	0.08847864085046646	4.268525700479785	-0.3173812972670998	-0.6898801452694768	0.37249884800237704	52.81121699842723
3	2.0	ltm	229	diff_vonmises	0.022197977396443875	1.2718504185430335	1.69664736436956	1.0611140502717589	0.07610441662215658	2.650186407767242	0.04086822597390072	-0.37369592380738487	0.4145641497812856	98.01619398596509
4	2.0	perception	229	diff_vonmises	-0.06713773443023761	-3.84670882892277	11.265265282642238	1.082498975437527	0.20745970128866617	2.8673628202338195	0.8770599715655295	-0.4970438030392454	1.3741037746047748	39.489221654961085
5	2.0	wm	229	diff_vonmises	-0.045971420005496345	-2.6339683445382205	5.38504845214186	0.6293991865591652	0.02995070978735122	2.7871015526850402	0.1106953758086946	-0.4408823480008946	0.5515777238095891	57.82696382145835
6	3.0	ltm	229	diff_vonmises	-0.021130389899586818	-1.210682160712188	3.4605292933289684	0.6297324800625786	0.047988388136737344	1.7946122869063617	0.14750732407311445	-0.2765306873731984	0.42403801144631287	71.64952479472723
7	3.0	perception	229	diff_vonmises	-0.017276180334039718	-0.9898522192473886	4.065209759297872	2.337711755563751	0.21548567474656674	3.70765892492668	1.0897232232194005	-0.552186527203644	1.6419097504230447	64.4923013920097
8	3.0	wm	229	diff_vonmises	-0.026858838837254786	-1.5388981079967625	3.6276314321429597	0.668055310612902	1.4362440373334789e-21	2.4353055818392426	0.09914051188086076	-0.38724699070014273	0.4863875025810035	71.98938258846141
9	4.0	ltm	229	diff_vonmises	-0.1735986871034022	-9.9464721000371	0.23618364248078552	5.415340916944851	7.53099533452584e-09	7.4948364076099505	-0.1164157152383074	-0.5216630751075878	0.4052473598692804	165.89395778138294
10	4.0	perception	229	diff_vonmises	-0.027812895801420653	-1.5935615454585308	2.2262444322107737	2.629406563841672	1.3222067386146384e-14	4.728237093677665	0.6941375828471357	-0.7356674999908539	1.4298050828379896	92.13460444464707
11	4.0	wm	229	diff_vonmises	-0.07996826627948016	-4.581844152792551	1.210416277010578	3.9899481535065147	0.33530531837173944	6.932771634874049	0.019906960367747306	-0.6600064069302778	0.6799133672980251	95.17548498548204
12	5.0	ltm	229	diff_vonmises	-0.023320758287773385	-1.336181024934151	1.5790362026114189	1.742964963094945	0.16721314792113748	3.023268006492418	0.2140602485403259	-0.3726073643926684	0.5866676129329943	97.64524239278998
13	5.0	perception	229	diff_vonmises	0.007848028885892748	0.449658932658412	1.4453275497485785	4.552499604990152	0.4178095784449236	6.16459398383795	0.5010654638759235	-0.5419153917544051	1.0429808556303286	92.56562000258737
14	5.0	wm	229	diff_vonmises	-0.03981289423139002	-2.2811108096593897	1.8066202098253585	1.8024903419214473	0.11719083165556321	3.2555893703551675	0.2936618155831856	-0.43650565278610554	0.7301674683692911	94.81633436877047
15	6.0	ltm	229	diff_vonmises	-0.20623539712156835	-11.816417841270352	0.46524689073993153	74.11651584059358	0.434928300035699	75.31222830149358	0.13585815108063315	-0.3820707224509503	0.5179288735315835	125.71211500685013
16	6.0	perception	229	diff_vonmises	0.22590866476661955	12.943613046563064	0.11912921866498728	20.72138876098359	1.2000653911905945e-10	22.155279111365893	0.17587973860970418	-0.6089479733357575	0.7848277119454616	171.69373995630912
17	6.0	wm	229	diff_vonmises	-0.18311161079275287	-10.491522478266914	0.6537581717391021	122.86855250413642	0.6287837477578307	124.19100992840184	0.22440957862031752	-0.4079338982866201	0.6323434769069376	107.32044323115014
18	7.0	ltm	229	diff_vonmises	0.23068049191104803	13.217018602504778	1.0716599462561853	121.07054557304542	1.0535573079427143	122.11782538752065	0.04363442220193292	-0.25381312751567897	0.2974475497176119	78.96717573202426
19	7.0	perception	229	diff_vonmises	-0.025785992645837166	-1.4774285491618486	1.9537358615719866	1.7738901221135124	1.6893621889476784e-17	3.459938673296831	0.3515294515767303	-0.5325376575700366	0.8840671091467669	98.10662982760977
20	7.0	wm	229	diff_vonmises	0.6970067708012133	39.935546258951824	0.14840490960308989	65.55474387364687	0.13330121135868628	67.13970044694727	-0.11910943630386939	-0.36556554713711975	0.24645611083325036	151.80158412532543
0	1.0	ltm	230	diff_vonmises	-0.21359810325823245	-12.238269828696277	0.47340781095432494	1.6990866155525304	2.1961114317222286e-22	4.256028375688675	-0.2665665800548711	-0.5179861848639236	0.25141960480905245	152.84952488257818
1	1.0	perception	230	diff_vonmises	-0.056407959845417126	-3.231938030085821	10.735908504612166	0.8664171355638657	0.024777522656556722	3.7971049694843027	0.49926919906596867	-0.6085129636128859	1.1077821626788547	41.1680970507048
2	1.0	wm	230	diff_vonmises	0.044260571939899365	2.5359439709913922	3.546227658161881	0.6581193412001257	0.035775185046546296	3.482104033343684	-0.10069450801604851	-0.5434576555125645	0.442763147496516	70.22349307208691
3	2.0	ltm	230	diff_vonmises	0.07147839925576814	4.095410603706559	2.82255833230975	0.7876122869396	0.12042573182549611	1.9533901851308095	0.1487308096407784	-0.2860756894459436	0.434806499086722	76.48700638105933
4	2.0	perception	230	diff_vonmises	-0.03992793113607008	-2.2877019387858057	9.612145319891603	1.1407365213866936	0.20020591164118803	2.360461156183944	0.937082706645759	-0.40010225249747305	1.337184959143232	42.834219973591104
5	2.0	wm	230	diff_vonmises	-0.01591300774947429	-0.9117481834038493	6.458312746336592	0.5076816232436884	4.56764402555604e-22	1.9179417298265524	0.19866325589520217	-0.30524866879987306	0.5039119246950752	53.580362510376574
6	3.0	ltm	230	diff_vonmises	-0.1119004244940728	-6.411422049232711	1.8658769735888106	0.7267468209820874	1.120821606280061e-19	1.4864785243137995	0.12287510024618473	-0.22797033310881182	0.3508454333549965	100.2216118974631
7	3.0	perception	230	diff_vonmises	0.02781514252519337	1.593690273248439	4.432815904046116	2.042925273442607	0.255387023145121	2.660723804969448	1.1227030240076321	-0.3973745805762312	1.5200776045838633	62.0294411088955
8	3.0	wm	230	diff_vonmises	-0.027568391301981	-1.57955246956868	2.7869421612110736	0.7410002060726865	1.5481557045661205e-18	1.74336711307822	0.1877435079894535	-0.27569943111820033	0.46344293910765383	82.36655148126707
9	4.0	ltm	230	diff_vonmises	-0.40262721530143486	-23.068840153877336	1.3888246369433754	1.1625909956114173	1.558034340690499e-12	2.6720414944156325	0.05544322862762069	-0.39537571964704893	0.4508189482746696	113.36622767131607
10	4.0	perception	230	diff_vonmises	-0.010135584180140541	-0.5807261964216177	3.0223126945501173	2.2028302103678654	4.445440767168982e-16	3.6799134464823666	0.8630702613668244	-0.5822415057497434	1.4453117671165678	79.03893523498348
11	4.0	wm	230	diff_vonmises	-0.19594161552127573	-11.226627600344163	0.9861442997081079	7.6483681923374895	0.5600831635696789	9.603305877358935	0.11564639697779722	-0.47927368438512585	0.5949200813629231	94.79690799296966
12	5.0	ltm	230	diff_vonmises	-0.08606886476305356	-4.931382698405217	1.2339454020300693	1.4293175419465691	2.6257090947924736e-17	2.084437651692334	0.2190977043390669	-0.28505684193836206	0.504154546277429	119.4062728448548
13	5.0	perception	230	diff_vonmises	0.000987831786891587	0.056598592257754494	1.9511688939895737	2.7868435068432853	0.3704228242633135	3.487227523777869	0.639383487764649	-0.3704757041919461	1.0098591919565951	86.08803655939607
14	5.0	wm	230	diff_vonmises	-0.026610068955976063	-1.5246446437295211	1.8076686976299452	1.443774943016278	1.5224673648626271e-18	2.0955607937643355	0.3669500721833872	-0.3146684040554406	0.6816184762388278	101.72254983867734
15	6.0	ltm	230	diff_vonmises	-0.29882308267948055	-17.121301458623087	0.3247820667068413	70.42089208085892	0.3020576122974651	70.97120251114184	0.17157858401484738	-0.2731003507167653	0.4446789347316127	142.51248643680822
16	6.0	perception	230	diff_vonmises	0.23453360831290265	13.437785910303681	0.585167447194238	4.439806206809186	2.4191734934648976e-18	4.884853444134349	0.3890937469293757	-0.41550126583247193	0.8045950127618476	146.90923256239432
17	6.0	wm	230	diff_vonmises	-0.248791471530004	-14.254701297518407	1.8670743080043393	1.0779369284184663	5.6920485306481e-14	1.5222441533713358	0.2911081998799292	-0.22952787264262794	0.5206360725225572	100.1005093278292
18	7.0	ltm	230	diff_vonmises	0.25750498556575685	14.75394887649505	1.025959853642979	170.82450697223882	1.0112820112710081	171.87591721202165	0.11200003552589521	-0.27496427154210323	0.38696430706799845	82.83241842482173
19	7.0	perception	230	diff_vonmises	-0.03717703222636479	-2.130087041392553	2.0967792515703674	1.7164294844652523	4.337163874375267e-17	2.5380362932908085	0.5071345512515244	-0.39019048100527565	0.8973250322568	94.84936336180189
20	7.0	wm	230	diff_vonmises	0.27221793671581246	15.596938881575388	0.6312687198775003	1.5267815056803555	8.620043358609574e-10	2.585069069069078	0.0030618686346896573	-0.29414950783909727	0.2972113764737869	144.3735410684916
0	1.0	ltm	231	diff_vonmises	0.07274704124666277	4.168098435497895	2.639313867031444	0.49107088522805925	1.9433402423284362e-23	2.924348764036563	-0.16668171375528257	-0.46390111013781665	0.2972193963825341	84.65530933244128
1	1.0	perception	231	diff_vonmises	-0.0826797729566045	-4.737202041513318	10.481432367595211	0.9159224015238956	2.526690614110537e-15	3.547615028431534	0.603467617837337	-0.5646204670425501	1.1680880848798871	41.91480466414285
2	1.0	wm	231	diff_vonmises	0.056937973757042376	3.2623055903051674	3.4153676681417426	0.6621836722882319	0.07801622428436554	3.3825590297346313	-0.11455280204566337	-0.5225318810576983	0.40797907901203495	69.29975763820093
3	2.0	ltm	231	diff_vonmises	-0.0018919830813914334	-0.10840264547388566	2.2362342163089814	1.071409396598315	0.23728948944327727	2.2864383031183917	0.13615626650979518	-0.30204774359973063	0.4382040101095258	80.75700357958021
4	2.0	perception	231	diff_vonmises	-0.04614783961134798	-2.6440764433768806	9.411189814670031	1.1531532140007787	0.17943763189859793	2.359728014820032	0.945531632753404	-0.3960278601111853	1.3415594928645893	43.37204237149649
5	2.0	wm	231	diff_vonmises	-0.0351809025735941	-2.015717236927878	6.745163551311745	0.47980657512660374	0.035352989721594924	1.9386803523734646	0.16764046075108152	-0.30851827881325494	0.47615873956433646	51.715855106778946
6	3.0	ltm	231	diff_vonmises	-0.058061560769050495	-3.3266823840089477	1.665515679355566	1.3327417826205252	0.2869815683596293	2.176382905142315	0.16301503758154512	-0.24341023726030742	0.40642527484185254	90.69920528307489
7	3.0	perception	231	diff_vonmises	0.02166757642226044	1.2414606812726952	3.585855207330711	2.2781693150201545	0.28360791276059943	3.0038620835617573	1.0270880379083274	-0.42384273962012775	1.450930777528455	67.93686724362607
8	3.0	wm	231	diff_vonmises	-0.013685761960167995	-0.7841363997383147	3.2746847949747373	0.7350699902716333	0.11991606861755663	1.7909154416896989	0.18570560671619163	-0.2673411792739862	0.45304678599017784	71.67021004461668
9	4.0	ltm	231	diff_vonmises	-0.2463853466235952	-14.116840495399874	1.3208840887332125	1.1402302229756223	1.3068179838012408e-20	2.653126105235075	0.03526303072614084	-0.38966634281759116	0.424929373543732	116.07376987298763
10	4.0	perception	231	diff_vonmises	-0.01811060400277575	-1.0376611737917856	2.152370325478197	2.933712524479437	0.18592353174427526	4.531655690410733	0.7207413716160301	-0.58926657439237	1.3100079460084002	86.22475623036021
11	4.0	wm	231	diff_vonmises	-0.18944643524818922	-10.854481183519676	0.8490669296465677	140.31519810754995	0.824295729295302	142.17139572805277	0.09120532727509811	-0.4454797912645212	0.5366851185396193	89.85751064340714
12	5.0	ltm	231	diff_vonmises	-0.05100249862801317	-2.922227916006926	1.5724286747830327	1.1539632947580811	2.1593736533142235e-17	1.9870659274281546	0.198100240231756	-0.2940965987627317	0.4921968389944877	108.24532410018153
13	5.0	perception	231	diff_vonmises	0.01261738767300638	0.7229230621436564	1.9318412148134931	2.7350662549772	0.34865442915341527	3.6344037281161468	0.586271156131686	-0.3958788554612005	0.9821500115928865	86.35557704842384
14	5.0	wm	231	diff_vonmises	-0.030187889690409083	-1.7296386716669299	1.4575665863956182	1.9348364904809685	0.16584882161621903	2.7783676214965443	0.3052531117014958	-0.3274105248470738	0.6326636365485696	102.82325420456664
15	6.0	ltm	231	diff_vonmises	-0.286248075877103	-16.40080664149855	0.9097286450411747	1.6631842908715149	2.367105039507067e-17	2.50998834340751	0.1403394438117332	-0.31196150238431664	0.4523009461960498	131.72146132850418
16	6.0	perception	231	diff_vonmises	0.24710808076389654	14.158250111349155	0.315316981079895	7.368404740874075	1.9290789730286435e-13	8.148627406237251	0.2713182931392579	-0.46220446571597507	0.733522758855233	160.74576303554284
17	6.0	wm	231	diff_vonmises	-0.2573329686145048	-14.7440930311836	1.2374992097687767	2.1220908595045893	0.3036713063284564	2.8506380020902813	0.21846829309092364	-0.25953343811682833	0.47800173120775197	102.48544298812782
18	7.0	ltm	231	diff_vonmises	0.1879623453025753	10.7694490932182	0.9458165123718728	181.95173288045325	0.9317952248173214	183.1490799351601	0.09118109383586415	-0.2991895614568314	0.39037065529269555	85.54218058044103
19	7.0	perception	231	diff_vonmises	-0.06949500819157768	-3.9817706666044845	2.4823724481843135	1.5912613344517104	1.132032789740041e-17	2.4169543322787366	0.5492648210626624	-0.37815161211483006	0.9274164331774924	87.29909678123238
20	7.0	wm	231	diff_vonmises	0.39649941297444846	22.71774294285057	0.317750758692888	34.57978166103106	0.28266807562307045	35.72956626361882	-0.020933562521015858	-0.29581357081614	0.27488000829512416	139.1973132368518
0	1.0	ltm	232	diff_vonmises	-0.2537355065034196	-14.537973635260194	0.03768318787478712	29.947714568701212	0.015019922363807274	31.334308060623613	-0.11459028688343675	-0.3239555626530555	0.20936527576961872	175.17790121917673
1	1.0	perception	232	diff_vonmises	-0.08224651256278986	-4.712378049517564	10.144362048980739	0.900634166737581	1.1260526823897702e-19	2.4471249028586506	0.7399798697168456	-0.38947202290862054	1.1294518926254662	42.612643380159795
2	1.0	wm	232	diff_vonmises	0.13635948620948204	7.812823056375673	2.178260446618889	0.9779800105874665	0.16300111055986505	2.5453274415625224	0.05745695079558938	-0.35205041235647083	0.4095073631520602	83.00915514268408
3	2.0	ltm	232	diff_vonmises	0.12303852554575437	7.0495882312842895	1.9873699501648479	1.0127152273395779	0.2698519390252033	1.8212775948106044	0.147608810261325	-0.22342875518329547	0.37103756544462047	84.78934336600796
4	2.0	perception	232	diff_vonmises	-0.011274977641058195	-0.6460086329370034	6.436309380660504	1.5882041116087657	0.37878016024110434	2.3685344256287877	1.0420963305556787	-0.3913874818334665	1.4334838123891451	51.16393310161567
5	2.0	wm	232	diff_vonmises	0.006555462117841786	0.3756003121102267	8.323992486431678	0.4238560089562686	0.1071571871719079	1.4836999052330897	0.21790614548730908	-0.24252201616196184	0.4604281616492709	46.024465100289746
6	3.0	ltm	232	diff_vonmises	0.01455588594491427	0.833990831717382	1.3347919374026367	1.3908231324755738	0.24860835599977324	1.8947658620708319	0.18080240812868376	-0.1929594304962046	0.3737618386248883	102.48910420622661
7	3.0	perception	232	diff_vonmises	0.03608697780830216	2.067631523797975	3.515944439815772	2.5523091520199914	0.4917624636388646	2.935929839732091	1.1079159128166443	-0.3864582345168045	1.4943741473334486	66.69014109344266
8	3.0	wm	232	diff_vonmises	-0.038737810610905705	-2.219513055581994	3.414045287266709	0.5549509312047549	2.540120441367435e-14	1.3486030464497571	0.1763183306399117	-0.21421344519231436	0.3905317758322261	74.25926311839896
9	4.0	ltm	232	diff_vonmises	-0.32552617978402876	-18.65127622264171	4.356075819818735	0.6160329602264853	7.493382088860017e-33	1.8560006186309812	0.2006615191619487	-0.2953100223183549	0.4959715414803036	65.53039767632055
10	4.0	perception	232	diff_vonmises	-0.006473915180197592	-0.37092801675099785	2.107866452387165	3.411525396750527	0.3872204818737573	4.86366494534988	0.7179637021315559	-0.5468936080274753	1.2648573101590312	81.87737130613124
11	4.0	wm	232	diff_vonmises	-0.3646708753833219	-20.89410207080553	2.203152069453725	1.4797308344214708	0.41605797053329435	3.129174921512745	0.08576239323933066	-0.3877824107799859	0.47354480401931653	75.10109273363105
12	5.0	ltm	232	diff_vonmises	-0.16591609221841602	-9.506291837418598	1.254665843007882	0.9097482218657436	5.391013363455006e-15	1.1685224553576694	0.16807492800235824	-0.15718110095311666	0.3252560289554749	118.5583137389647
13	5.0	perception	232	diff_vonmises	0.005589133879452503	0.32023378242620903	1.1515947499867871	189.93435130388067	1.129524862692262	190.0758192999669	0.7289878696392975	-0.29052672617419617	1.0195145958134937	87.4622858143787
14	5.0	wm	232	diff_vonmises	-0.01462012262877131	-0.8376713225923065	1.8664034749562137	1.1051355752692487	6.171731932543558e-12	1.4804504416921833	0.31110485801451737	-0.22254007447847723	0.5336449324929946	100.22580499227732
15	6.0	ltm	232	diff_vonmises	-0.4241362950451131	-24.30121964440043	1.0309461888146234	1.0906993586402627	8.325240872968194e-16	1.4233541884199394	0.15254045994049678	-0.17830929732517006	0.33084975726566684	125.97258632375802
16	6.0	perception	232	diff_vonmises	0.12063705138059279	6.911993897010828	1.0505643481801108	2.8232496671966483	0.1733405209746358	3.1212797063495987	0.4052979505559662	-0.2932868325655297	0.6985847831214959	118.10920706252988
17	6.0	wm	232	diff_vonmises	-0.1163285513235384	-6.665135027709737	2.7763301505480023	0.5757335983266741	5.6897665233096785e-18	0.8995686146042475	0.21749653855865167	-0.14177230521629747	0.35926884377494916	82.51919292743148
18	7.0	ltm	232	diff_vonmises	0.24024633927589045	13.76510128397659	1.4636909178759865	189.96631679277402	1.4491208405352853	190.84473919262018	0.1158964443413879	-0.25842869693867243	0.37432514128006034	69.0732598446069
19	7.0	perception	232	diff_vonmises	-0.017313767054527612	-0.9920057796970828	1.5576942519000017	2.0791394168739887	1.4607203644010574e-14	2.72117216922852	0.48835455824819096	-0.39221163896999467	0.8805661972181856	108.69422487877821
20	7.0	wm	232	diff_vonmises	-0.1252930664792934	-7.17876391151556	0.00015518054202421776	4783.650798480679	3.173786503288681e-30	4784.516281598794	-0.019596495203359154	-0.2558861708613449	0.23628967565798575	179.5423052967348
0	1.0	ltm	233	diff_vonmises	0.32626803994551534	18.693781678883784	1.5847449581795092	2.7636923945248006	0.5024122388544529	5.510757486774523	-0.12451126215650676	-0.5706589097306318	0.44614764757412506	77.790237888392
1	1.0	perception	233	diff_vonmises	-0.04296720363235954	-2.461839425613382	8.003230912660433	0.9616181607871298	1.65182364454212e-20	3.534879037549505	0.504384209850761	-0.5625933526967404	1.0669775625475015	48.056846759257695
2	1.0	wm	233	diff_vonmises	0.24415339819149062	13.988959270149438	0.8424223923550518	221.3584456924151	0.8238500795347693	224.73929367470652	-0.2571918447972479	-0.669948834857923	0.4127569900606751	81.25125831441505
3	2.0	ltm	233	diff_vonmises	-0.0598731368492285	-3.4304780476700008	1.1356357232736136	151.14315200714884	1.1133040812654098	152.687632460788	0.06930250906970059	-0.3804961921384624	0.449798701208163	76.77489438766693
4	2.0	perception	233	diff_vonmises	-0.039362902702579854	-2.2553281942419274	7.757887399100242	1.2670179446904253	0.09938701589737861	2.756565091185834	0.9002112174949211	-0.444828508708344	1.345039726203265	48.03512288699284
5	2.0	wm	233	diff_vonmises	0.024364749487036354	1.3959973145007205	4.599957076553353	0.6172726587721802	0.11426342847914125	2.6959804113767905	0.032392507067565635	-0.42483031689650347	0.4572228239640691	60.0875191438889
6	3.0	ltm	233	diff_vonmises	0.0212029046935313	1.2148369523574676	0.7993703471223503	145.03367776020775	0.7849003611418224	145.96508307214987	0.12064726528349468	-0.2542117196197573	0.374858984903252	95.17624875182102
7	3.0	perception	233	diff_vonmises	0.048742407997216144	2.792734261545197	2.2397340272063198	3.4728322605941475	0.507201460504948	4.265486518343399	0.8594849798225808	-0.4452750188067801	1.3047599986293608	79.02591600732461
8	3.0	wm	233	diff_vonmises	0.055790446011028394	3.196557093584406	2.3954318713963607	1.039033559139836	0.3385307699054477	2.318989178352837	0.09387596324071823	-0.3044580427457994	0.39833400598651764	75.0106634723316
9	4.0	ltm	233	diff_vonmises	0.04115965825991094	2.358274704493675	0.9806213301697988	0.9551266870269793	4.202273254138809e-15	2.5790560378285647	-0.08760319955561069	-0.3650458147999679	0.2774426152443572	129.37296131722184
10	4.0	perception	233	diff_vonmises	0.0513690304579259	2.943228642918133	1.0029768223319322	419.20259262297844	0.9875222595927753	421.4643508638611	0.4585515775432327	-0.665900551914838	1.1244521294580707	85.93927555982918
11	4.0	wm	233	diff_vonmises	-0.32015281352750613	-18.34340501436495	1.4937898407440746	1.2692595219243823	1.311896143061587e-16	3.666082785849128	-0.035086224186615556	-0.555829811798943	0.5207435876123274	110.30390365031494
12	5.0	ltm	233	diff_vonmises	0.04387075580779412	2.513609151835648	2.3826065942040184	0.8134510137562521	0.06478615739206392	1.9356375329183018	0.13763052765902578	-0.2859835234249537	0.4236140510839795	85.17083506465664
13	5.0	perception	233	diff_vonmises	-0.024870442892365428	-1.424971412353675	2.578521471584821	1.883717708026057	0.025680459562749173	3.111642279281734	0.6223836043304549	-0.4760874645784578	1.0984710689089128	84.59010276093139
14	5.0	wm	233	diff_vonmises	0.027265849755032563	1.5622181158011754	2.0091873085012835	1.228594785321794	1.073395776846405e-15	2.6536233646513496	0.21319750081548577	-0.410907641174679	0.6241051419901648	96.8093847726227
15	6.0	ltm	233	diff_vonmises	-0.17473945751338546	-10.01183342992255	0.5916861895237434	1.9914669283289774	2.650505928788441e-11	3.012776235332803	0.04621535875686522	-0.3185014762967381	0.3647168350536033	147.0482848382459
16	6.0	perception	233	diff_vonmises	0.18002266724958046	10.314539050088948	0.06308208658619724	258.47026830787826	0.0546145132853328	259.42275687457027	0.19827698459479137	-0.48121293844078394	0.6794899230355753	172.19761174703132
17	6.0	wm	233	diff_vonmises	-0.4497801133999543	-25.770502206732942	0.45884220179793295	154.16139120050374	0.446173513151083	155.2276728281291	0.10967900230628658	-0.3328386044558105	0.44251760676209706	124.47126668290342
18	7.0	ltm	233	diff_vonmises	0.19796856433919555	11.3427632129	0.42729711066316195	3.0145604678737126	6.374601325162256e-17	4.51724677945994	-0.015850986041043957	-0.41980336640088994	0.403952380359846	155.24476475370457
19	7.0	perception	233	diff_vonmises	-0.07048417908860587	-4.03844598422137	2.7632558954921302	2.1562923027946685	0.3121414431217328	2.793305189147553	0.7542851012687624	-0.35886344518335095	1.1131485464521134	75.73555812824384
20	7.0	wm	233	diff_vonmises	0.8646363550761295	49.54001395943707	0.0003502644048418929	2672.0650530463095	3.4368712190058366e-31	2673.6724700618756	-0.10686235298163638	-0.40476829035367246	0.2979059373720361	158.98870070102652
0	1.0	ltm	234	diff_vonmises	-0.26245383839289016	-15.037497256921174	0.21381155328619153	52.22064688159434	0.19747083933325624	53.52778837495956	-0.1028197440358607	-0.28970271280778714	0.18688296877192645	150.8415309683292
1	1.0	perception	234	diff_vonmises	-0.07719012306722267	-4.42266827184728	10.03005315438321	0.9689956501998829	0.05671258888198166	2.5259580367820305	0.7828159412266618	-0.40803811507275334	1.1908540562994152	42.50552915123467
2	1.0	wm	234	diff_vonmises	0.14465730253460138	8.288252910979764	3.325455747981887	0.4397896925978143	9.425594802222597e-27	2.015083869527354	-0.015413330840947703	-0.32031582392832314	0.30490249308737544	75.26447538386265
3	2.0	ltm	234	diff_vonmises	0.1513964484602595	8.67437753004276	0.9444761231127095	36.75244317267512	0.8968454220391979	37.32643884214731	0.14812665286683213	-0.18173604615125516	0.3298626990180873	90.40051289411835
4	2.0	perception	234	diff_vonmises	-0.011134146555410663	-0.6379396061051543	7.458748656521829	1.4115497805222061	0.3991056635896569	2.114528718702847	1.02793964763542	-0.36259454388939355	1.3905341915248135	47.70950049906773
5	2.0	wm	234	diff_vonmises	-0.024292734909986673	-1.3918711831723543	7.122291872325826	0.46270618555415355	0.2540985700898867	1.5371292821725737	0.17288806625239145	-0.260285117991122	0.4331731842435134	48.189226822779005
6	3.0	ltm	234	diff_vonmises	0.17423992193120932	9.983212149347246	1.518812911789117	2.5650938740272746	0.9260243289749026	2.823899599513328	0.19417886982438182	-0.12381496549789187	0.31799383532227365	81.58118515060966
7	3.0	perception	234	diff_vonmises	0.013051420712288375	0.7477913234637505	3.5450788842072374	2.6667263519757225	0.6924559222819983	3.0984246774089756	1.041233820287537	-0.39270876101368	1.433942581301217	64.35553438207583
8	3.0	wm	234	diff_vonmises	0.016878153622807177	0.9670469685602917	4.093661131917379	0.38913150026257537	1.0706133153484206e-16	1.1733491739668687	0.11624081274265499	-0.18666004324123034	0.30290085598388533	67.65103951173757
9	4.0	ltm	234	diff_vonmises	-0.3180538508440112	-18.223143311245238	4.047720298407997	0.6007033056300574	7.139902461301611e-19	1.629155264922299	0.20555034540694678	-0.25914636332355717	0.46469670873050395	68.04266611423652
10	4.0	perception	234	diff_vonmises	-0.007589824959638631	-0.43486493743034393	1.0842419961456442	244.23162803343362	1.0606990158542289	245.4970572714114	0.6329770778271069	-0.5044833284909274	1.1374604063180342	85.76569725649088
11	4.0	wm	234	diff_vonmises	-0.2942203317483144	-16.85758325611736	1.1425493020941455	165.7588782993785	1.120640552668621	167.3186139706803	0.10887926609338194	-0.39638561652683535	0.5052648826202173	77.34006429025382
12	5.0	ltm	234	diff_vonmises	-0.09397521893710603	-5.384383423914065	1.858227328717591	0.9146208204037244	0.30869853793555163	1.0146211109499281	0.23652060843520362	-0.10800504538098116	0.3445256538161848	90.54606300531535
13	5.0	perception	234	diff_vonmises	-0.0004496346668380439	-0.025762168732590792	1.1809587533866708	284.44887310843046	1.1662415523087015	284.5587553746928	0.7352910299390203	-0.28320138083311974	1.01849241077214	86.39096788652711
14	5.0	wm	234	diff_vonmises	0.06176579531158975	3.5389193896230204	2.2586761082367137	1.0722443995603625	9.193231050043154e-18	1.2912551364007838	0.38952750160952254	-0.1990121352149904	0.5885396368245129	91.48014034292777
15	6.0	ltm	234	diff_vonmises	-0.39251030526347813	-22.489183906988877	0.6857296277237309	81.15793410391095	0.6670872581444182	81.36969543092054	0.22908503011965564	-0.16013815307346047	0.3892231831931161	110.60349292563635
16	6.0	perception	234	diff_vonmises	0.14424857753558307	8.264834693554528	1.2029601438529025	1.9724918269342189	5.561069910925613e-17	2.1715658272515768	0.4032980214945569	-0.27807483921182957	0.6813728607063865	120.44357146345448
17	6.0	wm	234	diff_vonmises	-0.17159403532470383	-9.83161401372429	3.166713335899683	0.7351846384639533	1.6902944672348798e-12	0.7782853654545314	0.3726473568941257	-0.12298615861755703	0.4956335155116827	77.17020397120194
18	7.0	ltm	234	diff_vonmises	0.13249272140038404	7.591273752444648	1.4525915529478168	224.35478635061094	1.4398120102091372	225.11874931650078	0.18425360641121813	-0.24863991702695287	0.432893523438171	71.03780397126818
19	7.0	perception	234	diff_vonmises	-0.05637580726951591	-3.230095823186207	1.5981285157548373	2.0216075986912005	4.127523766915892e-14	2.4061719080890613	0.5270433747141143	-0.34572058862289234	0.8727639633370067	107.48530968639128
20	7.0	wm	234	diff_vonmises	0.006587646922333683	0.37744436557206607	0.00045724389202371723	2183.9308393854117	6.625484806108745e-32	2184.7350027035113	0.03095852880738903	-0.28689533124639865	0.3178538600537877	179.95849774383694
0	1.0	ltm	235	diff_vonmises	-0.5888901147194923	-33.740918170401784	0.42269401725093886	10.911424513452952	0.3565580431798616	11.49517442749728	0.0034822292253684495	-0.15226658270640314	0.1557488119317716	127.76495552588469
1	1.0	perception	235	diff_vonmises	-0.083635431726989	-4.791957255711012	10.651131154050885	0.984900322351996	0.0982881037485618	1.8942311113813253	0.9346913008735417	-0.3108073058095198	1.2454986066830616	41.171884404793815
2	1.0	wm	235	diff_vonmises	0.2735350016222886	15.672401142061263	2.352343584532924	0.3270022989877247	3.9369875609469097e-32	1.05791874917516	0.01753999502731332	-0.1666898458264529	0.18422984085376623	89.6056486911283
3	2.0	ltm	235	diff_vonmises	0.40269225345151227	23.07256656538411	0.4684009936992503	63.21041835222185	0.4526930073607432	63.33449189616888	0.15483602292927756	-0.1277890414161229	0.28262506434540047	128.78806711527315
4	2.0	perception	235	diff_vonmises	-0.005399564389394268	-0.30937225072142494	7.685579957273313	1.483371392882426	0.6390624821567186	1.824441963589094	1.11393068006504	-0.3275697410966861	1.441500421161726	46.394036224537786
5	2.0	wm	235	diff_vonmises	-0.08172786892920327	-4.682661958241722	6.69193125158022	0.4971148967692124	0.8385420851195396	1.09755858874265	0.1612928890094481	-0.20977011214676639	0.3710630011562145	46.036634801823965
6	3.0	ltm	235	diff_vonmises	0.22337233372548354	12.798291982457947	2.106912724402283	46.11190299263383	2.086160387951464	45.954525720927826	0.229039392000427	-0.03450824586881218	0.2635476378692392	68.80829119874045
7	3.0	perception	235	diff_vonmises	0.01595024106574293	0.9138814952833181	1.9317386795040146	223.5125291512871	1.902434157840209	223.60401356611663	0.9960136740306922	-0.35404798498428036	1.3500616590149725	67.3745575189466
8	3.0	wm	235	diff_vonmises	0.022628383858974272	1.2965108923211808	2.1950070498961964	1.5487060553883694	1.3052997823041557	1.8497237806886833	0.10795871445791516	-0.11402263763707532	0.22198135209499048	65.58612537278586
9	4.0	ltm	235	diff_vonmises	-0.2901507112484151	-16.624411177253208	5.480567350565003	0.4850984184340071	0.1598911382223983	1.151502079851642	0.22792867790257604	-0.18251133911012143	0.4104400170126975	56.02422156360575
10	4.0	perception	235	diff_vonmises	-0.02135984545515829	-1.2238289956322628	1.1851270989524065	273.4073841480359	1.1666423664103684	274.2453375239668	0.62429078654975	-0.402867840173883	1.027158626723633	82.95819640702214
11	4.0	wm	235	diff_vonmises	-0.388234662835786	-22.244207641175052	1.6784758103376887	201.24177324504606	1.6611064986523156	202.17359479992007	0.15975959490796754	-0.3026557852681684	0.4624153801761359	64.84181205844871
12	5.0	ltm	235	diff_vonmises	-0.21328061540206156	-12.220079114491028	2.819639866739589	1.5548301950777645	2.063093490891969	1.4378204398662016	0.22700569407478677	-0.04226654381237245	0.2692722378871592	62.55902672352914
13	5.0	perception	235	diff_vonmises	0.008461822885993774	0.48482673835465323	1.3358898130621484	224.6574021670767	1.3184278361935973	224.6610546497685	0.708145203741978	-0.24123860994752633	0.9493838136895043	81.80548704981706
14	5.0	wm	235	diff_vonmises	0.18612822604055684	10.664361800380892	2.37337467753916	0.9164251513715702	0.30401560963486607	0.8594095373684237	0.34261156351971644	-0.09992844367904573	0.4425400071987622	82.85804963096226
15	6.0	ltm	235	diff_vonmises	-0.4523286748171578	-25.916524019768588	1.01495595794483	92.59021286704795	0.9951478165618816	92.82565771957466	0.2665595118982935	-0.15046774568219234	0.41702725758048587	90.99128322399957
16	6.0	perception	235	diff_vonmises	0.21835427017359832	12.510778119606497	1.4403741173234816	1.687825262429147	2.27334429981097e-17	1.9045061707556705	0.4102239855051478	-0.26309439715712013	0.673318382662268	112.14955883379815
17	6.0	wm	235	diff_vonmises	-0.17765738674445225	-10.179018459780531	5.23441251077112	0.5752263259927748	1.045712401288918e-18	0.4549550956408051	0.43868676799704687	-0.07239383220991986	0.5110806002069668	59.64448494374011
18	7.0	ltm	235	diff_vonmises	0.04203794734096693	2.4085969620306065	1.7143668535670795	192.6694531457832	1.6984633177140143	193.2227358848429	0.253694077424683	-0.2293029625032652	0.4829970399279482	66.82394420236423
19	7.0	perception	235	diff_vonmises	-0.10655757850805617	-6.105299523645546	1.4288645164119569	1.870284560846424	7.341527628416185e-21	1.9617343107918184	0.47445318066694714	-0.2670652859663521	0.7415184666332992	112.68183369330575
20	7.0	wm	235	diff_vonmises	-0.1463298894485592	-8.384085082018359	0.00033833834194032397	3062.628688828449	6.040754615402113e-23	3063.1671534281895	0.07922804047399268	-0.25059874954990846	0.32982679002390114	179.3697732459833
0	1.0	ltm	236	diff_vonmises	-0.026413009253374895	-1.5133539544583712	0.389510129995804	90.53101922496258	0.3765281021543712	91.83292926997952	-0.07672980444326782	-0.2833924627592648	0.20666265831599695	125.81389783729
1	1.0	perception	236	diff_vonmises	-0.11183125778899423	-6.407459088948884	10.716210007290234	0.9577038435585024	7.51480532696699e-18	2.365709204402757	0.8586217712078084	-0.37651431319060297	1.2351360843984114	41.45254022154543
2	1.0	wm	236	diff_vonmises	0.0409891162254512	2.348503365689557	6.287595699980381	0.2844374770543137	8.51217525143385e-18	1.7751289045283078	-0.00415956836912601	-0.28251957734215183	0.2783600089730258	54.32158798541042
3	2.0	ltm	236	diff_vonmises	0.08307296104073357	4.759730059288748	0.5280473014899139	89.01611781058834	0.5106189953213117	89.80541675623672	0.09447848154936622	-0.24271397059492994	0.33719245214429616	118.23535687554255
4	2.0	perception	236	diff_vonmises	-0.030281463270100527	-1.7350000428571806	6.79740593558217	1.5999708203175222	0.4541867214236214	2.440398322556065	1.0497274219072423	-0.41510670188926135	1.4648341237965037	49.44100512010567
5	2.0	wm	236	diff_vonmises	-0.044306180440844896	-2.53855714560549	8.176947724184886	0.434233104795062	0.29644078891602754	1.659136799116307	0.13969788306373193	-0.2918776935162014	0.43157557657993334	44.68744857284443
6	3.0	ltm	236	diff_vonmises	0.11208967095571551	6.422265072772623	1.2843615020511843	183.59753445684493	1.2712618893172791	184.02923517002773	0.26946827526809614	-0.1896044310353595	0.45907270630345565	78.94601789989716
7	3.0	perception	236	diff_vonmises	-0.014824475666370955	-0.8493798891774443	1.4201714792522278	146.185622452222	1.3723652209107793	146.8865539889126	0.9604348763222674	-0.48257741523272735	1.4430122915549948	77.27974645162766
8	3.0	wm	236	diff_vonmises	-0.007256821072418287	-0.41578522013116775	1.4708899982476118	57.5456963868414	1.4224884679002205	58.492098457931576	0.09554316613563785	-0.2693987879524036	0.3649419540880414	68.68717443315532
9	4.0	ltm	236	diff_vonmises	-0.12211519533883099	-6.9966853073306385	4.800776977943984	0.5122924697607916	1.2442712678364704e-35	1.7856618755495857	0.15048824809044115	-0.284167519221162	0.43465576731160316	62.34280931150303
10	4.0	perception	236	diff_vonmises	-0.05736825530796443	-3.286958907175345	0.9094263125577136	399.14468390821145	0.8957230487545994	400.70417597774485	0.53955652069601	-0.5484065318560951	1.0879630525521051	92.4120383394332
11	4.0	wm	236	diff_vonmises	-0.32494059271518644	-18.617724555059606	1.3068211768159772	199.06419586002366	1.2876941964844322	200.708702086392	0.04244147019635136	-0.4150392216005301	0.45748069179688144	70.58660338187535
12	5.0	ltm	236	diff_vonmises	-0.058384086011836915	-3.3451617192070415	1.6882472138990665	1.3489448589506254	0.535716389546442	1.8811050220330328	0.15108487373016555	-0.16795784853571805	0.3190427222658836	83.97133960965905
13	5.0	perception	236	diff_vonmises	0.03343954760440121	1.915944946558992	1.0689398141678814	233.47424432116452	1.0496989308573894	234.18656436595106	0.5948569899863827	-0.3707511218324484	0.9656081118188311	87.84892347038908
14	5.0	wm	236	diff_vonmises	0.005799404884039094	0.33228142354299667	0.7898372096851157	121.6805409489267	0.7710251380293613	122.48705381532776	0.19669451815592964	-0.259808797758156	0.45650331591408566	98.2523386247326
15	6.0	ltm	236	diff_vonmises	-0.34806216963142844	-19.942493328047384	1.9763990248433592	0.8193634578435579	5.2921888117620806e-14	1.7504779518829499	0.141076401105941	-0.2705390909479483	0.4116154920538893	97.38593152191461
16	6.0	perception	236	diff_vonmises	0.12725274666772216	7.29104531550793	1.0859343796699112	1.972413252256324	1.1646730941918754e-18	3.106436599572993	0.21151188387881892	-0.41395308919205975	0.6254649730708787	124.9491269633905
17	6.0	wm	236	diff_vonmises	-0.089045107557839	-5.101908849352643	3.37058769914274	0.5914196675113819	1.6531701861041574e-14	1.5420668674679827	0.1682554927399969	-0.244938892948914	0.41319438568891087	74.74761033343103
18	7.0	ltm	236	diff_vonmises	-0.0028735687949616117	-0.16464336409179417	1.6467550476054673	185.7834498167672	1.6295757999747043	186.782930903829	0.0865732362270677	-0.29804762829577314	0.38462086452284083	63.99696752727402
19	7.0	perception	236	diff_vonmises	-0.10169301091096469	-5.826580331176108	1.5971223503257101	1.9093208394714336	3.2764765412993547e-16	2.881545612426995	0.40051672009452005	-0.42338959155294226	0.8239063116474623	107.49441864156756
20	7.0	wm	236	diff_vonmises	0.05250327397440593	3.008216009352515	0.0001968356497879828	2248.5400558599385	3.6183359854394776e-30	2249.6176330050025	-0.10105742509881566	-0.24193910066685476	0.1408816755680391	179.8485995316532
0	1.0	ltm	237	diff_vonmises	-0.04052498340847636	-2.3219105141433807	0.7723229380236071	0.8634510915170954	1.3113728774032104e-16	3.225247014390669	-0.2556987434671413	-0.4583408079309845	0.2026420644638432	138.64882599651168
1	1.0	perception	237	diff_vonmises	-0.025620695723587397	-1.4679577331504348	11.082793508129571	0.7821947607003816	0.03364329104450104	3.6246470574393026	0.42978216392015756	-0.5832680374317069	1.0130502013518643	40.447552659768746
2	1.0	wm	237	diff_vonmises	0.06817633390640589	3.90621619551171	5.253465316393809	0.4079141509487301	0.05177117193479135	3.101721762359396	-0.15639338731704805	-0.49305159936514165	0.3366582120480936	57.14098173680418
3	2.0	ltm	237	diff_vonmises	0.0854851583668322	4.897938785426942	2.1417131319389275	0.674424505227698	6.406437354494703e-16	1.8743052230387753	0.06426922650699446	-0.29330308239855113	0.3575723089055456	93.8711050595171
4	2.0	perception	237	diff_vonmises	-0.03987559485768965	-2.2847032909191856	10.056493858909159	1.127373818141208	0.19594991376420576	2.626788530636974	0.9037815223792222	-0.4474905428752041	1.3512720652544263	41.84458678013348
5	2.0	wm	237	diff_vonmises	-0.05952275843711163	-3.4104028434232085	5.515572508461213	0.5764261905385949	0.07401692194446885	2.3475335307570755	0.12472588257950817	-0.3724324728255161	0.4971583554050243	56.27258146700291
6	3.0	ltm	237	diff_vonmises	0.004074353327241829	0.2334432498960412	0.989983018782922	66.35156791112206	0.9632890760662474	66.92791951759516	0.14276051522843503	-0.17913640387214969	0.3218969191005847	87.51349905828093
7	3.0	perception	237	diff_vonmises	0.03505733031282535	2.0086370679209384	3.178426822795448	3.042761879449474	0.5934843978469457	3.6557714205443776	1.0929764901269556	-0.4493322887458441	1.5423087788727998	68.06814663743737
8	3.0	wm	237	diff_vonmises	-0.0872922320559683	-5.001476481083577	3.523675397554223	0.6060117535450775	1.5861308754802247e-11	1.6454740335929368	0.1726336033514556	-0.2615074207350679	0.4341410240865235	73.06452533837341
9	4.0	ltm	237	diff_vonmises	-0.33599412535935846	-19.251045324280746	1.191593383105787	1.2357375900639604	0.1545584482206034	2.7531247888479187	-0.041781076294955255	-0.3305163864438391	0.2887353101488839	105.1807528459026
10	4.0	perception	237	diff_vonmises	-0.0009749821859151074	-0.055862364353375035	2.648938685011227	2.5315840342301623	0.15684467044986944	4.159922664138703	0.7736116028622066	-0.5801885104609437	1.3538001133231503	79.29598984194072
11	4.0	wm	237	diff_vonmises	-0.26877645920210536	-15.399756744750794	0.7790946366942163	135.99212507298094	0.7546375724265767	138.00648563286623	0.040860994503994164	-0.46307426956257913	0.5039352640665733	92.70863086800777
12	5.0	ltm	237	diff_vonmises	-0.009024143218548083	-0.517045320144408	2.1369671571540088	0.720787238432373	2.359218003046047e-14	1.389749597083256	0.1657697018279659	-0.21579561986284868	0.3815653216908146	93.99035459571988
13	5.0	perception	237	diff_vonmises	-0.010592362894700636	-0.6068976889373221	2.0839678451758408	2.556748576637395	0.2910653147357146	3.516699116808615	0.6188788138229415	-0.4148938077073044	1.0337726215302458	85.10196752225255
14	5.0	wm	237	diff_vonmises	0.012573886130501434	0.720430607355814	2.28343603247967	1.0871396319608564	3.099224954671284e-16	2.0654471979959794	0.2785370388176729	-0.3224160752263663	0.6009531140440392	90.99293896148222
15	6.0	ltm	237	diff_vonmises	-0.3538978210236803	-20.276851523533054	0.45852402699132944	130.33294780453843	0.4460451611596303	131.06528177506075	0.12818052087733633	-0.2621295469325169	0.3903100678098532	126.17431783600604
16	6.0	perception	237	diff_vonmises	0.2288077585306004	13.109718883651862	0.6424603566950099	4.0018356932508095	9.212568427068797e-14	4.638133711160283	0.3567503663030622	-0.4352435227946091	0.7919938890976713	144.13722568957797
17	6.0	wm	237	diff_vonmises	-0.22510710245429782	-12.89768690905028	1.748911526489385	0.9834866670470005	1.6274605225734644e-16	1.7215955927107065	0.1936815262641145	-0.25984681972405005	0.45352834598816455	103.1548725520865
18	7.0	ltm	237	diff_vonmises	0.3074743267941457	17.616981233930794	1.0980541411781024	118.38560812800151	1.0815491308790763	119.07943061229156	0.1185030410685215	-0.19740272637809397	0.31590576744661547	81.37063359634388
19	7.0	perception	237	diff_vonmises	-0.030095299062901922	-1.7243336194883017	1.881189822364318	1.639556183427662	1.1868708060837593e-16	2.3962688182960252	0.4336176110452525	-0.3624461589582576	0.79606377000351	99.85899319181186
20	7.0	wm	237	diff_vonmises	0.1915710285580079	10.976211413354017	1.0882890260176559	0.7517436241786309	2.845079903370595e-13	1.793804614872905	-0.01611201632372733	-0.2549372604869441	0.23882524416321677	124.70368602930114
0	1.0	ltm	238	diff_vonmises	0.21108400244957293	12.09422246308966	6.341126332339128	0.39171530223659345	1.3022812924724043e-12	2.2870960899781774	0.021093214346383837	-0.3640014520105315	0.38509466635691536	54.08135241781679
1	1.0	perception	238	diff_vonmises	-0.0960320972596003	-5.502233870764936	8.795650986518506	1.1270406689967063	0.03925005084892391	2.882687821945135	0.8360259504848584	-0.46136710109493556	1.297393051579794	45.4885329783107
2	1.0	wm	238	diff_vonmises	0.2651903927257374	15.194290270601561	0.7101518597702831	164.2068654401629	0.6920104913010915	166.656974629109	-0.12565382781280476	-0.4971319170064845	0.37147808919367975	91.76332792652315
3	2.0	ltm	238	diff_vonmises	-0.02823559199248322	-1.6177802532226715	1.365234763070999	155.97365545243977	1.3458427828482626	156.82783566371918	0.19774726974238632	-0.2700072051973983	0.4677544749397846	73.40883209196323
4	2.0	perception	238	diff_vonmises	-0.02364242476342387	-1.3546111563997716	7.326492399636624	1.2590418399338987	0.18118579282912411	2.015518998203365	0.9531663941661597	-0.32803459172041755	1.2812009858865772	49.1302291320693
5	2.0	wm	238	diff_vonmises	-0.003891720255466619	-0.22297914568381183	5.853609446586933	0.4968121201962574	0.21635942949419565	1.804669473446491	0.11583594567792538	-0.2958340925931747	0.4116700382711001	52.75503804505857
6	3.0	ltm	238	diff_vonmises	0.11259331416459543	6.451121703021869	0.9381867146454842	29.81236958820195	0.8695519537336995	30.500630752733876	0.17145674010321343	-0.216147683247355	0.38760442335056844	91.14519515803983
7	3.0	perception	238	diff_vonmises	0.00397997791375151	0.2280359370132439	3.496861071804338	2.027658138671016	0.3429673528251319	2.738340731355667	0.8512048892479561	-0.37949402220825795	1.2306989114562141	67.83535506964924
8	3.0	wm	238	diff_vonmises	0.1607024654766211	9.207573029157206	3.1069257246868793	0.6135403775500966	0.14110207761865062	1.737459455151311	0.0930625656464335	-0.2579066601204137	0.3509692257668472	72.13778699222806
9	4.0	ltm	238	diff_vonmises	-0.21037522506238956	-12.053612510189742	2.564417089222421	0.8463218158484974	6.893273096229485e-23	1.978226297657601	0.1914402238162256	-0.311845528731072	0.5032857525472976	85.8681509407606
10	4.0	perception	238	diff_vonmises	0.01825091575965842	1.045700445277228	0.9888697798760694	488.19661885096616	0.9778139080010896	489.7835573399043	0.4868678438918721	-0.5271279525112007	1.0139957964030728	87.97288240275688
11	4.0	wm	238	diff_vonmises	-0.19593725861289682	-11.226377967882327	0.8797974201658376	181.50458074845767	0.8601397904261625	183.3382740882781	0.10254656225018266	-0.44440076857382493	0.5469473308240076	88.30002467846403
12	5.0	ltm	238	diff_vonmises	-0.033879114277431545	-1.941130261738237	1.6477429450393017	1.5827253352631547	0.31571237282416315	1.9740217410821568	0.3055562017277491	-0.20175497112388366	0.5073111728516327	93.41000424594716
13	5.0	perception	238	diff_vonmises	-0.00762948944510423	-0.43713754504408076	1.0808219211015895	287.3602961008076	1.065817915002131	287.6964511578437	0.6906180343141557	-0.3242163146925314	1.0148343490066871	89.14979559277208
14	5.0	wm	238	diff_vonmises	0.046828225152165115	2.683059663307428	1.9344792031297262	1.413480578984207	5.267402613873116e-19	1.8785866031889045	0.41563240469259116	-0.28406414494083754	0.6996965496334286	98.55619678619064
15	6.0	ltm	238	diff_vonmises	-0.18847172401137832	-10.798634343406436	1.0593057897454736	1.473350097293946	5.45899913205902e-19	1.808051452574168	0.2321794712065381	-0.22526357731365682	0.4574430485201949	125.90726039267479
16	6.0	perception	238	diff_vonmises	0.13373099506560032	7.662221607343736	0.3419659199332016	5.408361265738571	6.3473163411112524e-15	5.707497174772143	0.2686659698905012	-0.3143996602388762	0.5830656301293774	160.24237552704605
17	6.0	wm	238	diff_vonmises	-0.3347370406186583	-19.179019674148325	0.8920826353928795	91.3062076831363	0.8688653062971259	91.4511331796203	0.35817935184639893	-0.17744422862368392	0.5356235804700828	98.59640736055468
18	7.0	ltm	238	diff_vonmises	-0.03847812010885982	-2.2046338858351313	0.7318872312305793	200.1202607155074	0.7172206008790687	201.55154196757238	0.14796464672812704	-0.3814280177253977	0.5293926644535247	98.95976027330104
19	7.0	perception	238	diff_vonmises	-0.09984577855515432	-5.720741713408166	2.530808980491959	2.1599922377127982	0.21681989102817403	2.217087324695243	0.8489742991416678	-0.2842019096553158	1.1331762087969834	81.58771502090596
20	7.0	wm	238	diff_vonmises	0.40248622999778766	23.06076229100498	0.3788898732917187	146.34670940163326	0.36642434381868516	147.47954408723743	0.0810388859609148	-0.3495388469597245	0.4305777329206393	132.83456413117298
0	1.0	ltm	239	diff_vonmises	0.299378441713373	17.15312118737959	1.1744988050346088	3.2947272914981496	0.4064903524494859	6.474845729250217	-0.25174601854985057	-0.6111327742896072	0.35938675573975665	85.85409931899545
1	1.0	perception	239	diff_vonmises	-0.05129291852395442	-2.9388677503309886	8.259285319950754	0.9284944089849715	1.0180320675732775e-13	4.053433421461397	0.40230486258873244	-0.6451238953408375	1.0474287579295698	47.285956816018796
2	1.0	wm	239	diff_vonmises	0.11235167821473208	6.437276982916064	0.7660265573271375	171.29463675689115	0.7433274543680035	174.8305620202979	-0.2931014567202723	-0.6836580910266186	0.39055663430634624	84.51477506855895
3	2.0	ltm	239	diff_vonmises	0.015903693894176667	0.9112145388042999	0.8676527807523157	88.56457627991051	0.834551120863166	90.298635343761	0.02140147025761152	-0.39320131597197694	0.41460278622958846	87.34005908862227
4	2.0	perception	239	diff_vonmises	-0.04988149834510558	-2.85799933096335	8.44061284676914	1.3229921312830035	0.19070646970813973	2.9258612272981885	0.9508715272308951	-0.48865261480493183	1.439524142035827	45.56586302181583
5	2.0	wm	239	diff_vonmises	0.026298630388610616	1.5068005282418804	6.266892871232731	0.5075293921170015	1.972998845304616e-21	2.550962703242297	0.08977289489870804	-0.40599653684580755	0.4957694317445156	54.41762873841421
6	3.0	ltm	239	diff_vonmises	-0.05904035611115611	-3.3827632261186626	0.7730717359120614	128.9008893082982	0.7550554516110166	130.057860808456	0.10203364892327471	-0.29782519483099534	0.39985884375427005	95.75338778964041
7	3.0	perception	239	diff_vonmises	0.029991666195312364	1.7183958935565817	2.9401124276113015	2.5266934806546404	0.2144119349577944	3.4966995975906667	0.9541350889872607	-0.48015426410232415	1.4342893530895848	75.14337707227543
8	3.0	wm	239	diff_vonmises	0.027190468584249807	1.5578990928605687	2.628091690199809	0.9444262212229347	0.25924138614600895	2.3340677566269123	0.09965386996125397	-0.3243255118890666	0.4239793818503206	74.14991100049255
9	4.0	ltm	239	diff_vonmises	-0.04922264140328756	-2.8202496088942812	0.0006057022708939585	1590.3665083138994	3.8151878530465683e-26	1592.3037811951253	-0.15499195618818362	-0.4616147243015689	0.3066227681133853	179.89622250661586
10	4.0	perception	239	diff_vonmises	0.017810942131820162	1.0204918133050365	1.6953152646474854	4.1763367287479864	0.33190671831999885	6.484420619971273	0.5492674042587624	-0.6980981133732607	1.247365517632023	89.05048312819213
11	4.0	wm	239	diff_vonmises	-0.238296128760503	-13.653362452282854	1.7336663929094727	1.2248793136803122	7.844780540904093e-15	3.918444917798894	-0.04428048171524113	-0.6055626381690318	0.5612821564537906	103.5499572380677
12	5.0	ltm	239	diff_vonmises	-0.008403800133493379	-0.48150227952064845	2.099253955318831	0.8780683303017041	8.284907485959949e-16	2.35619741263238	0.09137436992703202	-0.36799542418370007	0.4593697941107321	94.80045381084176
13	5.0	perception	239	diff_vonmises	0.0023858628596594863	0.136699872355502	2.6139832809076857	1.784517993875305	8.92176966240681e-17	3.3783569947793994	0.541848041506857	-0.5318910727434408	1.0737391142502979	85.07076625902207
14	5.0	wm	239	diff_vonmises	-0.03427584169320507	-1.963861068279192	1.6929944073470267	1.410367327629861	0.015319873035510726	2.9864809725713237	0.1749187344552749	-0.44580555059397065	0.6207242850492456	103.66622995164013
15	6.0	ltm	239	diff_vonmises	-0.2359920314155463	-13.521347398829539	0.48673272201576134	2.6246589616921363	7.79629325964951e-19	4.011284615756719	0.0026757914243561443	-0.3962213478072814	0.39889713923163755	151.99937307701947
16	6.0	perception	239	diff_vonmises	0.2208165413178097	12.651855864186658	0.09657861526543261	120.46352008193865	0.07582303199228997	122.0465764932142	0.1428899040085554	-0.6132915976544169	0.7561815016629723	168.54114589247087
17	6.0	wm	239	diff_vonmises	-0.31227402835342677	-17.89198387619996	0.4612103232127953	118.13111962269303	0.44184986066054116	119.65550482330302	0.06431376380714582	-0.4175098405952564	0.48182360440240224	123.22122261698136
18	7.0	ltm	239	diff_vonmises	0.3265443596699754	18.709613632891564	0.5226785758519396	31.257607774550532	0.4681618645731353	32.93803123369613	-0.0864104936322958	-0.35293238116408165	0.26652188753178585	110.73148071964548
19	7.0	perception	239	diff_vonmises	-0.06260333661833103	-3.5869069716671675	3.3991493442357625	1.5086980542202426	1.3795773144116682e-15	3.0000536895689396	0.5827240243865399	-0.4762903330500504	1.0590143574365904	74.42968460473685
20	7.0	wm	239	diff_vonmises	1.0933890946873581	62.64658049121556	0.00028802010725723743	2830.339540550923	2.3361122996698527e-28	2832.193194246926	-0.16526901046751163	-0.42474860376268	0.25947959329516834	147.70383587005574
0	1.0	ltm	240	diff_vonmises	0.11085669266647236	6.35162062056773	4.30154534971469	0.3506592289743177	1.3717077522943944e-34	3.643712949774714	-0.29946789532175494	-0.5798634462341659	0.2803955509124109	65.95778625331772
1	1.0	perception	240	diff_vonmises	0.006966860597033263	0.39917170866599894	9.231672350961599	0.8437737262189878	0.05199137569138677	4.431331983560187	0.2655395766038656	-0.7156404728301389	0.9811800494340045	44.01699645280661
2	1.0	wm	240	diff_vonmises	0.07939370330800688	4.548924119462637	1.2296729084584201	4.177322035439604	0.43587573553636144	7.999613107942041	-0.2718631942342824	-0.7475920723317503	0.4757288780974679	84.42129664271249
3	2.0	ltm	240	diff_vonmises	0.11934748867682089	6.838107396667219	2.5205781291713296	1.1086583476974121	0.33073410015642235	2.5892968201425695	0.09828008553868195	-0.3482613862023718	0.44654147174105374	73.51912529954691
4	2.0	perception	240	diff_vonmises	-0.03580947556353522	-2.051731816367423	9.30438191960497	1.133035316893435	0.12627967302327786	2.736438985990237	0.8670926066159186	-0.45125411664102805	1.3183467232569466	43.75000180463914
5	2.0	wm	240	diff_vonmises	0.038854843079802664	2.226218522115786	4.937072595998177	0.6435949059808778	2.7824641301945478e-14	2.591997349005633	0.1417767124177587	-0.41250064780271595	0.5542773602204747	61.45731902142879
6	3.0	ltm	240	diff_vonmises	-0.1808703628418963	-10.363108429840489	0.43002212284650815	40.069924907455615	0.39501404749089036	40.98027159986745	0.051104929396515786	-0.2642272181924299	0.3153321475889457	128.6812842654279
7	3.0	perception	240	diff_vonmises	0.040200298696354206	2.3033074504663613	4.5754259867862155	2.0059570576202495	0.19013380541460198	2.799331190866015	1.124654597283202	-0.42448400504865513	1.5491386023318572	61.605584316777936
8	3.0	wm	240	diff_vonmises	0.004561062660028052	0.26132964051432	1.852223478263388	1.0141566602987178	1.904961060500816e-15	2.3702752170788357	0.12215128509950579	-0.3649485883434987	0.4870998734430045	100.5818622182345
9	4.0	ltm	240	diff_vonmises	-0.4178530888353199	-23.94121844676889	0.9152979823613105	1.441847070964706	4.0288197705368635e-11	3.2655816579931467	-0.05021732626637565	-0.44446150454652433	0.3942441782801487	130.6525914639638
10	4.0	perception	240	diff_vonmises	0.02695680877447888	1.5445113719188648	2.9454454817414475	2.4243011820421354	0.0874234644350229	4.437055231192133	0.8018963313406275	-0.6557731220731754	1.457669453413803	77.03530792013936
11	4.0	wm	240	diff_vonmises	-0.3275631061377606	-18.767983505889514	0.8399893868161561	2.996867038627921	3.664435577722516e-11	5.8473341513487345	0.002225080975717386	-0.7567657404945651	0.7589908214702825	134.49221601855717
12	5.0	ltm	240	diff_vonmises	-0.06673847935627365	-3.8238331982354516	1.3325453538365037	1.3494326752468624	4.976906502073069e-15	2.145173487861684	0.20289446838504788	-0.3035343387177641	0.506428807102812	115.92799980325186
13	5.0	perception	240	diff_vonmises	-0.029452451815026957	-1.6875011853134658	2.31802604349617	2.211805979923758	0.10122601031102915	3.093848463494288	0.7031161863448381	-0.43372929603822125	1.1368454823830594	86.58688477460942
14	5.0	wm	240	diff_vonmises	-0.008315530182016539	-0.47644478384320094	2.0030526371961237	1.4665636749725202	4.867673966172898e-17	2.434157735083789	0.3698158787913621	-0.373621699333325	0.7434375781246871	96.9531306476679
15	6.0	ltm	240	diff_vonmises	-0.11631605233871804	-6.6644188886313325	0.0003510574454969436	3667.9550492931744	4.531081179594746e-31	3668.4402246443965	0.12773433268182544	-0.28213447348593945	0.4098688061677649	179.59384629258406
16	6.0	perception	240	diff_vonmises	0.1806955283680262	10.35309115237434	0.5864497135516468	4.6184347327517985	5.925901326495278e-20	5.012023873915045	0.4169143878646825	-0.4217988799510921	0.8387132678157746	147.18831176686703
17	6.0	wm	240	diff_vonmises	-0.3120722470164705	-17.88042265720786	1.1272257284687763	1.7889160538728124	0.07154654617171963	2.341854842558207	0.2542200697697392	-0.27790656355902044	0.5321266333287596	118.987403215196
18	7.0	ltm	240	diff_vonmises	0.367095648492512	21.03303133623894	0.8542320269118076	106.63166392080107	0.8353975115000346	107.63174939555239	0.07284887773961657	-0.2487770066655699	0.32162588440518647	90.3047735791107
19	7.0	perception	240	diff_vonmises	-0.0038450853397659153	-0.2203071618362131	2.369138131136916	1.7424103080802837	0.007177760304215325	2.7109818064495754	0.5602627846947137	-0.4196660047383446	0.9799287894330583	89.0518199166149
20	7.0	wm	240	diff_vonmises	0.427496092494051	24.493721858243394	0.12660440429973668	81.66695521265483	0.11350122506331499	82.98466564810172	-0.054299661109038055	-0.3461313092488112	0.29183164813977314	160.98223781849123
0	1.0	ltm	241	diff_vonmises	0.028195021216139475	1.6154557189666057	0.203162957329307	71.4879213743236	0.18541731663217043	75.0792102415525	-0.46272427793714144	-0.6513980763843765	0.18867379844723509	146.22838822850966
1	1.0	perception	241	diff_vonmises	-0.0076450308037512	-0.4380279993024513	12.028709739254573	0.6525617825868332	1.452224556757069e-13	4.895557110656882	0.11367843764600782	-0.7791521133177595	0.8928305509637673	39.102425747215875
2	1.0	wm	241	diff_vonmises	0.012218003995655207	0.7000400630250196	7.5067722722043575	0.21532846429356567	0.07950767505177515	4.037620566070206	-0.46353691223099874	-0.6624261481635072	0.19888923593250846	45.98741102167321
3	2.0	ltm	241	diff_vonmises	0.12222192874690063	7.002800681146077	0.26250804302488434	128.4342289457351	0.2499755562431922	130.1523687046989	-0.061440826762488854	-0.4295209053961031	0.36808007863361425	146.17927553120074
4	2.0	perception	241	diff_vonmises	-0.07576341722561528	-4.340924048516516	12.304865596651386	1.19690164333964	0.32446257123438466	3.213990194594064	0.9676120384023336	-0.5939293741863872	1.5615414125887208	37.440328333674415
5	2.0	wm	241	diff_vonmises	-0.05491044522553122	-3.1461367626072207	5.563851479996788	0.5685535927315797	9.50019333349055e-16	3.0532597412791147	0.035830425992486536	-0.48593371035088373	0.5217641363433703	57.812556185437074
6	3.0	ltm	241	diff_vonmises	-0.034493234480051586	-1.9763167574620846	1.3280451992383937	79.22657032982501	1.2963136328269351	80.10357130508365	0.10801621133350281	-0.24616002444928853	0.35417623578279134	72.82846792440134
7	3.0	perception	241	diff_vonmises	-0.006560092084714142	-0.375865589671298	2.97792195129145	3.1559142947356764	0.44100325920177985	4.310058224855076	1.0420130971422357	-0.549384759425021	1.5913978565672566	71.05298527959545
8	3.0	wm	241	diff_vonmises	-0.05917294825512775	-3.3903601963648287	3.2877717429175566	0.7244314003761911	0.2266214446705128	2.2139260245837833	0.06331182709557831	-0.32997018919033894	0.39328201628591725	67.61088555644145
9	4.0	ltm	241	diff_vonmises	-0.035128786316718626	-2.0127311953648936	0.0007170315846589295	734.4550861440505	8.226675988656874e-27	736.5272421546987	-0.2459634841657703	-0.413594210610583	0.1676307264448127	179.92359173705694
10	4.0	perception	241	diff_vonmises	-0.020859207499030363	-1.195144553682077	2.414387062821463	2.404713876584078	2.150698252644812e-21	4.473073490437915	0.6765185914933146	-0.7008091156375352	1.3773277071308498	88.51779320852069
11	4.0	wm	241	diff_vonmises	-0.10226009877928516	-5.859072072643941	0.7187973809713677	74.5555080151443	0.6662841668176057	77.43990868764868	-0.05631945598436516	-0.6212731675199938	0.5649537115356287	95.25410543547044
12	5.0	ltm	241	diff_vonmises	-0.023691731411344657	-1.3574362192275702	1.5939974151050857	1.9723980492606246	0.41642867612343654	3.8247205517447145	0.002049585511308183	-0.4060995508199717	0.40814913633127986	82.8692872705746
13	5.0	perception	241	diff_vonmises	0.030065485604495092	1.7226254341489013	2.7334344706694274	1.592848752850923	3.232239508009469e-16	4.091622520828598	0.33770618485666304	-0.6470241002928685	0.9847302851495315	83.17502895980061
14	5.0	wm	241	diff_vonmises	0.0024015212795345372	0.13759703372818619	0.700889454629583	107.8211051535608	0.6685773814666306	110.06280461289394	0.03906832752580769	-0.5184719703555754	0.557540297881383	98.28381473218133
15	6.0	ltm	241	diff_vonmises	-0.1804537785848574	-10.339239910100567	0.6668330795509795	120.76309661986888	0.642724336058816	122.8097072784744	-0.0065521464616651315	-0.4576183342604363	0.45106618779877117	99.34619502987363
16	6.0	perception	241	diff_vonmises	0.3189012958395605	18.271698332859696	0.1091330577679539	23.6472247743211	3.4728235502024143e-10	26.34832603066712	-0.00838878211997418	-0.8290261859965233	0.8206374038765492	170.88422566514046
17	6.0	wm	241	diff_vonmises	-0.22689095211409263	-12.999893965842372	1.330126857941064	1.6226647138466492	3.086803406040715e-11	4.01930725780239	0.014122839678627486	-0.5939709910319441	0.6080938307105715	115.79977234994819
18	7.0	ltm	241	diff_vonmises	-1.7529372338526508	-100.4359052510939	1.0682733679834178	2.6269857221596613	1.068289047467772	3.8523417552627155	-0.05129482580949665	-0.434490193814007	0.3831953680045104	151.31595708017787
19	7.0	perception	241	diff_vonmises	-0.08389691590325338	-4.806939195420416	2.6201290175033414	1.3114093222932905	2.0778635325018504e-24	3.3306652510258288	0.2643163656924671	-0.5258822320765022	0.7901985977689693	84.96761562460594
20	7.0	wm	241	diff_vonmises	1.2938325938489446	74.13114702400851	0.00033992917088493965	2116.3047625687836	2.740700127397169e-31	2118.2949104075465	-0.20223737002055486	-0.43122690212260295	0.2289895321020481	136.35045572333277
0	1.0	ltm	242	diff_vonmises	0.10170736261570833	5.827402623286736	4.170662526357147	0.4605056152901837	6.534815790943153e-19	2.5303666431383767	-0.04051709438470713	-0.40263398621945196	0.3621168918347448	67.00873219228919
1	1.0	perception	242	diff_vonmises	-0.08873122739955092	-5.083924841009838	10.475046695699465	1.0460865243387798	0.12289570730588648	3.4396667805456373	0.7171070003304143	-0.572858205570504	1.2899652059009183	41.14355752114355
2	1.0	wm	242	diff_vonmises	0.005847651049373371	0.33504572519434117	8.403613680917106	0.37740620963922306	0.10557174895460109	3.069625888722995	-0.11191080719340202	-0.5071600679349652	0.39524926074156314	44.843478892317734
3	2.0	ltm	242	diff_vonmises	-0.1363783570607274	-7.813904276507851	1.6945641092667398	3.6541353471931135	0.9111356829423349	4.516918229826719	0.23729505890034397	-0.2769079352837678	0.5142029941841118	76.08332184530704
4	2.0	perception	242	diff_vonmises	-0.05658650684861778	-3.2421680198139273	11.654042111132695	0.8045696279537855	2.2113348895155403e-25	2.075174850629167	0.7531234088383746	-0.3302743351759017	1.0833977440142764	39.72729301610809
5	2.0	wm	242	diff_vonmises	-0.22041975062617586	-12.629121432205961	1.336804931320953	186.20717772077845	1.3146695881858497	187.82377307552133	0.09896831085210067	-0.42690392830397883	0.5258722391560795	70.90869247032703
6	3.0	ltm	242	diff_vonmises	0.06806391479978632	3.899775055165778	1.1702509253133042	140.0435126231925	1.150199859166944	140.68362949980184	0.2848792618147158	-0.24189585251173362	0.5267751143264494	81.94592297011204
7	3.0	perception	242	diff_vonmises	-0.021638302234736603	-1.239783393878905	3.173417245604684	2.997564637520942	0.5944324032003059	4.069076864691122	0.950555111586483	-0.513824067010417	1.4643791785969	67.19463858911473
8	3.0	wm	242	diff_vonmises	-0.019077399916772812	-1.09305449931431	3.3939893092099385	0.8608146301173131	0.17109300896884072	2.1823658681072584	0.19530457015444452	-0.3247422181038258	0.5200467882582703	69.08924839311314
9	4.0	ltm	242	diff_vonmises	-0.16025058449856022	-9.181682156272075	1.7827464519019056	1.4809817740747324	0.16408449437261802	2.7145642095918427	0.2068505897800753	-0.34818476745529836	0.5550353572353737	92.76088846457156
10	4.0	perception	242	diff_vonmises	-0.04223345656821302	-2.4197988156076717	0.9092977570836474	490.53181283253116	0.8977756724419078	491.998265001518	0.6035763740744642	-0.553272413111884	1.1568487871863482	92.98552346035896
11	4.0	wm	242	diff_vonmises	-0.16744664629708522	-9.593986126442877	0.977214665034793	221.30937136885476	0.9607554443330184	222.90791240585528	0.1564228697520491	-0.41195939492332556	0.5683822646753747	84.7965297583676
12	5.0	ltm	242	diff_vonmises	0.026176556195343148	1.4998061921801902	1.693549558152256	1.9361489508285736	0.38685675258931085	2.0844697311882348	0.4321202580350876	-0.19341857080149102	0.6255388288365786	92.1561955817264
13	5.0	perception	242	diff_vonmises	0.0018712702501430868	0.10721588766158871	1.0331900632592832	325.067007229999	1.0196802783986934	325.60254416881634	0.6437795518425844	-0.3539802913150041	0.9977598431575885	90.16395014551941
14	5.0	wm	242	diff_vonmises	-0.010264607899910226	-0.5881187110214994	2.2146154828117526	1.6513794442113727	0.20903439423382605	2.021646720097403	0.5134634472418292	-0.25456437628137163	0.7680278235232009	85.89232685228305
15	6.0	ltm	242	diff_vonmises	-0.1623341775103233	-9.301063242069052	0.7270904450370007	119.74095824559811	0.7086346139431738	120.12046106454767	0.31288396808938046	-0.22962609596664052	0.542510064056021	106.7825866177859
16	6.0	perception	242	diff_vonmises	0.14639963082375257	8.388080968474378	0.00039684812626058266	4553.993183500396	1.1298929783528637e-28	4554.085372694133	0.27298132853059087	-0.30226899247122674	0.5752503210018176	179.21145597290308
17	6.0	wm	242	diff_vonmises	-0.30223438490045046	-17.316754678528266	0.9148103342353193	143.41067064522255	0.9005182362835856	143.42777024152534	0.3846868638182883	-0.15924161695073202	0.5439284807690203	98.40266219103289
18	7.0	ltm	242	diff_vonmises	0.15244872439490842	8.734668499981327	1.2638843583192467	122.81063610612989	1.2439499638400353	122.98308679778096	0.38166136327511424	-0.16924535689830833	0.5509067201734226	82.52684950710906
19	7.0	perception	242	diff_vonmises	-0.04387332848828625	-2.5137565555698824	0.8628467833199155	72.94485737283253	0.8203685000844051	72.82966878175098	0.6267383796250705	-0.2440690880250882	0.8708074676501587	102.96966675239167
20	7.0	wm	242	diff_vonmises	0.04407054226261619	2.5250560725008335	1.6673471062334182	0.9957535267984723	7.307718020133977e-22	1.499115237138732	0.22132765609123056	-0.2222048794500503	0.44353253554128086	105.49982344153443
0	1.0	ltm	243	diff_vonmises	-0.2350757874957171	-13.4688504892188	0.2740721416887587	69.32799606924974	0.2592525724430703	70.73111148070036	-0.10258597977806261	-0.30876119252640066	0.20617521274833805	142.03049814045664
1	1.0	perception	243	diff_vonmises	-0.09199344177155637	-5.270835956392671	11.05475376841842	0.9447401587205673	0.016645855307800914	2.634288490411958	0.8119182425417847	-0.4207979317829755	1.23271617432476	40.69112462267361
2	1.0	wm	243	diff_vonmises	0.05510219642898548	3.157123297281704	5.4578110726271625	0.335308309135419	2.1308529177908255e-28	1.97047011131511	-0.009008459578092431	-0.3136045229474023	0.3045960633693099	58.38402963689094
3	2.0	ltm	243	diff_vonmises	0.10094006900012438	5.783439937466443	0.7632980068987042	66.58908303447924	0.7377166202129822	67.23000850924984	0.13819351103781585	-0.20088155206304847	0.3390750631008643	99.78258176105231
4	2.0	perception	243	diff_vonmises	-0.026140038058797423	-1.4977138570804376	8.24502515992727	1.31842058206923	0.36991219365257094	2.109013121775415	1.0158261209733621	-0.36733489489757293	1.383161015870935	45.587716656693715
5	2.0	wm	243	diff_vonmises	-0.057920345718809836	-3.31859135762643	7.050590993822308	0.4685311472755665	0.2590198080823306	1.5547788988813394	0.17151146477814722	-0.2633599067961161	0.4348713715742633	48.35883986822739
6	3.0	ltm	243	diff_vonmises	0.10164092269655582	5.823595896328107	1.2878026886467577	89.59582776202726	1.267005883149335	89.90964418365856	0.2171545618997186	-0.14491056521062262	0.3620651271103412	79.25596083200017
7	3.0	perception	243	diff_vonmises	0.006122550154142432	0.350796283689533	3.1542468128961167	2.9891686824529273	0.6976249851066958	3.4888592215433216	1.0229912255374036	-0.4112140750834531	1.4342053006208566	67.27624321591767
8	3.0	wm	243	diff_vonmises	-0.010637093504683115	-0.6094605641043639	3.492867784322657	0.5831237878632729	0.2509459405672238	1.356046586817856	0.14297293817035184	-0.20008235292002477	0.3430552910903766	66.87429154621083
9	4.0	ltm	243	diff_vonmises	-0.2548699699789385	-14.602973604419173	3.366594586915955	0.6266286468914413	1.2241602557420875e-18	1.72116464169506	0.16405536079365962	-0.27341025200360064	0.43746561279726026	74.78864787201076
10	4.0	perception	243	diff_vonmises	-0.031003490329977207	-1.7763691460823539	1.016754231593094	229.55075334257367	0.9921696551591385	230.78295403958725	0.6479133968510808	-0.5074369783020423	1.155350375153123	88.87477555653498
11	4.0	wm	243	diff_vonmises	-0.27159658619412524	-15.561338119084459	1.209680543141185	198.79681574726757	1.191520845858956	200.2462292966761	0.11950298084977362	-0.37928039002461134	0.49878337087438496	75.33044620494222
12	5.0	ltm	243	diff_vonmises	-0.07855682326220909	-4.500974424879709	2.019539027865725	0.871669899858106	0.23217906871231844	1.1359825265842274	0.22729311503150537	-0.13731629094627895	0.36460940597778435	88.29197171863885
13	5.0	perception	243	diff_vonmises	0.015007537354837897	0.8598685513171388	1.142060037096005	252.30921239168597	1.1250468239477538	252.71818620603446	0.6509431902509988	-0.32018808325331705	0.9711312735043158	86.3090967834446
14	5.0	wm	243	diff_vonmises	0.03631170466772419	2.0805074243860875	1.3663883645131372	2.34504639985411	0.412287330485197	2.747334593872132	0.3270329099358311	-0.22005551137207782	0.5470884213079089	97.28762113190496
15	6.0	ltm	243	diff_vonmises	-0.3660739054315408	-20.97448977109851	0.6982521454286894	87.9184945488124	0.6770510363437873	88.41578432594709	0.21573573438184468	-0.2130260042291896	0.4287617386110343	107.059790757057
16	6.0	perception	243	diff_vonmises	0.19096261780609539	10.94135204505905	0.9615828907800553	2.37944505538417	2.0975757590803582e-17	2.8850006109855335	0.33659893221068243	-0.34286663128382655	0.679465563494509	129.85140558446489
17	6.0	wm	243	diff_vonmises	-0.18126520113865516	-10.385730997834905	3.1871725787981267	0.733601338906594	7.922966462380446e-15	1.0509993023403519	0.3299501080930135	-0.16642397984451565	0.49637408793752913	76.91800802721176
18	7.0	ltm	243	diff_vonmises	0.1010799378976692	5.791453834980908	1.4217618365302378	215.97818046477795	1.4082051513373408	216.80368884864546	0.17686761871900103	-0.260052475913664	0.436920094632665	71.50765479357861
19	7.0	perception	243	diff_vonmises	-0.08304160625067399	-4.757933562150815	1.6585284751685077	1.8767621115650392	3.0266130564382156e-19	2.3908420450350896	0.4835683997898691	-0.3491822910896045	0.8327506908794736	105.73687925775744
20	7.0	wm	243	diff_vonmises	0.10996718910688799	6.3006558207416825	0.3669103302518214	2.468791137098673	1.35142066296852e-21	3.301434140821103	0.023031938508667693	-0.2621314801804937	0.2851634186891614	159.0158353277857
0	1.0	ltm	244	diff_vonmises	-0.022562746818288317	-1.292750166910147	0.569448644673171	1.2215159475408355	5.802910090146106e-16	3.5369175960681885	-0.2455917001926104	-0.4613174750271196	0.21572577483450922	148.60060351670106
1	1.0	perception	244	diff_vonmises	-0.048922896290967445	-2.8030754790286636	11.91299866754976	0.7786241665650938	0.018309229471792587	3.538070803463109	0.4868944082319102	-0.566359752045635	1.0532541602775454	39.12987726804573
2	1.0	wm	244	diff_vonmises	-0.00010970873965841245	-0.00628584775812655	6.20537484541087	0.392807601796624	0.049057144891148596	3.0211578039519167	-0.12288960184990788	-0.48284274589137843	0.35995314404147055	52.93741479539409
3	2.0	ltm	244	diff_vonmises	0.05490157102006012	3.145628308087195	1.9610682523286862	0.7577542203456061	1.0655714507921091e-11	1.9487040681623724	0.07614480559655573	-0.30249771559281136	0.3786425211893671	97.92048331028732
4	2.0	perception	244	diff_vonmises	-0.04088702826369483	-2.342654156341824	9.612438330316373	1.1478391627253068	0.20341337720078717	2.646087701904413	0.8892435822654893	-0.45011440268584685	1.3393579849513362	42.73269849362865
5	2.0	wm	244	diff_vonmises	-0.06297435478551164	-3.6081647467692957	5.487362779181412	0.6115293785651039	0.11283969802017685	2.382417001502037	0.13393916548497187	-0.37975942276225816	0.51369858824723	55.75826312020578
6	3.0	ltm	244	diff_vonmises	0.029366974963181636	1.682603722456664	1.794904188348102	1.3348818403921152	0.41581470183687763	2.032703066911591	0.1750843578600672	-0.21109101697125657	0.3861753748313238	84.77060685492262
7	3.0	perception	244	diff_vonmises	0.010007943642622823	0.5734129323270712	3.4455076132372633	2.8673198952184307	0.48932354657762006	3.7347473422716715	1.1161606278395262	-0.4974520683626644	1.6136126962021906	66.61973601375934
8	3.0	wm	244	diff_vonmises	-0.08353897671913106	-4.7864307908478505	3.518287036858689	0.6418058414024226	3.870730590146273e-12	1.9101067115160164	0.15577849044955372	-0.3035986960777558	0.4593771865273095	73.12266860559419
9	4.0	ltm	244	diff_vonmises	-0.2385796372738988	-13.669606293556463	1.4364913969381947	0.9313824504875357	3.7040853273779217e-17	2.5599565383093816	-0.01442339409821497	-0.3852120048315464	0.3707886107333314	112.26573306267464
10	4.0	perception	244	diff_vonmises	-0.017871505928730803	-1.0239618632593037	2.401847803867043	2.6420886337981595	0.1250553497663243	4.385077769152448	0.7330271916135366	-0.6123572323713237	1.3453844239848602	83.76461236837557
11	4.0	wm	244	diff_vonmises	-0.23788226018487996	-13.629649529626564	0.8320082497295973	186.87098815550294	0.8122036181995355	189.08102109153003	0.030365925705851282	-0.5018008092831501	0.5321667349890014	89.02432984189866
12	5.0	ltm	244	diff_vonmises	-0.032338307631743016	-1.8528485438945752	2.023292712560231	0.845772990609605	5.446025227667599e-15	1.4511121217989733	0.20843028944950026	-0.22327030408302645	0.4317005935325267	96.48547208179664
13	5.0	perception	244	diff_vonmises	-0.0014173788270096927	-0.0812098247588586	1.0160758972073172	76.09198376797869	0.9526457874693176	76.97257276978	0.6211889213908606	-0.4236840344503783	1.0448729558412388	90.7179895979396
14	5.0	wm	244	diff_vonmises	-0.013276304322376427	-0.7606762052034616	2.2504456940827136	1.181734040123535	0.031393765864353815	2.091414871076422	0.31101679996548554	-0.3152286571873153	0.6262454571528009	90.08551114210198
15	6.0	ltm	244	diff_vonmises	-0.32045162579624553	-18.360525696230447	0.4604427116311102	131.51031092313423	0.4476420006705076	132.19485841671502	0.14995675481534576	-0.2637719650233308	0.41372871983867654	126.6713752863784
16	6.0	perception	244	diff_vonmises	0.16933786966623682	9.702345243611775	0.7791420643540075	3.1860536394464276	8.022656421461082e-19	3.851676022747236	0.3417133727130238	-0.412042006844502	0.7537553795575258	137.97483795254226
17	6.0	wm	244	diff_vonmises	-0.13535988756695042	-7.755550272951604	2.081943007874786	0.9104371126415077	2.1314600424047544e-12	1.6354268757930375	0.22090339652083146	-0.25280492032755614	0.4737083168483876	95.15431014917148
18	7.0	ltm	244	diff_vonmises	0.2665280894722175	15.270934648443252	1.3842903262782158	119.08333637250027	1.3663308906243963	119.69684781164042	0.13229168323747587	-0.19178145385767564	0.3240731370951515	72.62298536196576
19	7.0	perception	244	diff_vonmises	0.007415578972676735	0.42488137778033574	1.4483718660359266	2.042835006067999	4.78497131183808e-16	2.9864124590627155	0.39097471060080097	-0.4274776810555103	0.8184523916563113	112.09534615536016
20	7.0	wm	244	diff_vonmises	0.09819187994626745	5.625980303376389	0.0008624213590653428	799.4031055310626	8.330375552247802e-20	800.4390847556044	-0.05513493496628996	-0.27458018354556657	0.2194452485792766	179.56943003188692
0	1.0	ltm	245	diff_vonmises	-0.30940189711744415	-17.72742287817046	0.19770497920872016	51.18980798882732	0.18399115206450628	52.43660221071491	-0.11524403476889411	-0.26386761659415026	0.14862358182525615	151.7886223134238
1	1.0	perception	245	diff_vonmises	-0.07822967426701669	-4.482230168183238	9.83711225060337	0.9683893672908006	0.0013200829681224227	2.403324728058621	0.8121034554191084	-0.3824382553175559	1.1945417107366643	43.27461303722785
2	1.0	wm	245	diff_vonmises	0.3819191359069151	21.88235460274953	2.019963694990052	0.30492883711278074	8.77656816196436e-33	1.7968631590184112	-0.12772514502527277	-0.2831945485283612	0.1554694035030884	96.3357518027538
3	2.0	ltm	245	diff_vonmises	0.38556626909359054	22.091319941668132	0.5205472489709814	103.17981815060519	0.5086126054022726	103.76853333605446	0.08445548378812617	-0.18997724172886876	0.27443272551699494	118.97800966907107
4	2.0	perception	245	diff_vonmises	-0.018091975934028066	-1.0365938640720638	7.048491296630418	1.7193685915611698	0.6437055390447574	2.366726619768129	1.1382518344507577	-0.4181587801438279	1.5564106145945855	47.91982662905667
5	2.0	wm	245	diff_vonmises	-0.013669588034753495	-0.7832097020739045	9.413932492160672	0.35217982504304834	0.2743411853894859	1.5803277894881744	0.10025564576208856	-0.2812779419435051	0.38153358770559365	41.85461836955409
6	3.0	ltm	245	diff_vonmises	0.20106735567442252	11.520310878000215	1.7207841509797284	99.13064247865644	1.7058254252892762	99.26574061076647	0.1841725618412653	-0.09512859748545566	0.27930115932672095	69.37222160142741
7	3.0	perception	245	diff_vonmises	0.002225902525798158	0.12753482033574431	1.6299284554515683	118.55742178178429	1.576294379878261	118.95217169670096	0.9117684167268365	-0.39625317864724785	1.3080215953740844	72.74185426640639
8	3.0	wm	245	diff_vonmises	0.10057148277684572	5.762321502485909	1.4423657823117146	44.138682263902254	1.4013917148247987	44.874066244750175	0.015690980578277447	-0.19216470108711903	0.20785568166539647	67.14206771802944
9	4.0	ltm	245	diff_vonmises	-0.19631925282675292	-11.248264624134698	11.809795064344534	0.25101275137217355	1.1750873818524525e-31	1.2593364645270824	0.13987477022667144	-0.2004296233265587	0.34030439355323017	39.46142374906887
10	4.0	perception	245	diff_vonmises	-0.013686424944546204	-0.7841743859450693	1.0561135484916704	285.7370011515972	1.0381490248997867	287.0504945212042	0.5084125720779298	-0.4717604353422935	0.9801730074202233	85.95952867451714
11	4.0	wm	245	diff_vonmises	-0.2963120087117381	-16.977427518226275	1.250027593901464	186.7373198204838	1.2306412760044116	188.36609170997295	0.03786165626121374	-0.4031575597606327	0.44101921602184646	72.1576195741427
12	5.0	ltm	245	diff_vonmises	-0.21149369260025716	-12.117695979631945	4.369426887121448	0.5013626965366773	0.5353419736488602	0.9480495138461937	0.16421457542116194	-0.14618072781853894	0.3103953032397009	58.05570624974581
13	5.0	perception	245	diff_vonmises	0.003290405300027964	0.18852633657907972	1.145456344405629	215.20615416967652	1.1239042611076098	215.8975281712702	0.6122432044957122	-0.3677848000495558	0.9800280045452681	84.96894920671079
14	5.0	wm	245	diff_vonmises	0.19531523553050037	11.190738670501291	2.4477712533685265	0.8969298044372233	0.1319845859764015	1.685734361396978	0.21726414201737704	-0.23679119649214392	0.45405533850952096	82.28252917908893
15	6.0	ltm	245	diff_vonmises	-0.3753464122807561	-21.505765279064697	0.865039777085907	128.5291868023325	0.8481616421151374	129.3074227275033	0.1703736984177482	-0.2373898502687375	0.4077635486864857	93.22957295529324
16	6.0	perception	245	diff_vonmises	0.20639409680676113	11.825510663441953	1.0630341037051163	2.133056713586236	7.657138909669601e-17	3.2692716729984506	0.23392381661329908	-0.43033436737180936	0.6642581839851085	125.65649363708641
17	6.0	wm	245	diff_vonmises	-0.19287012825721733	-11.050644343285432	3.74180765207885	0.7193826389011174	2.4531376736372955e-17	1.4595351466251587	0.30093959571569895	-0.23199243812044	0.532932033836139	70.8449865741342
18	7.0	ltm	245	diff_vonmises	-0.1277339225974491	-7.318614665484566	1.4704664091865427	228.15562582338274	1.4556694334016231	229.41292682387294	0.060254192940334406	-0.34166517062685386	0.40191936356718827	66.95780521569904
19	7.0	perception	245	diff_vonmises	-0.16857533746041026	-9.658655366475113	2.4983221036235332	1.4648484008277425	1.2113070627696687e-22	2.249662305950749	0.504901452213293	-0.35221032732691676	0.8571117795402097	87.00875074716072
20	7.0	wm	245	diff_vonmises	0.5323789898012498	30.50306921704991	3.848504433781712	0.40751895032091723	3.4075139999217706e-13	1.721119286936635	0.03280377086933767	-0.2737852907930979	0.30658906166243555	69.82122363062572
0	1.0	ltm	246	diff_vonmises	0.08819184508205197	5.053020510673163	0.00033734553230712624	1762.8975336377089	4.2361487196278576e-27	1765.2121050197914	-0.2737171985472173	-0.46301778974111585	0.18930059119389853	179.6613491819593
1	1.0	perception	246	diff_vonmises	-0.061406575041418186	-3.5183375842266402	13.539263732403448	0.7140576736112422	1.711342138880841e-16	3.563185603998606	0.4705791317949771	-0.567098602028454	1.037677733823431	36.840204782341914
2	1.0	wm	246	diff_vonmises	-0.061896103569650605	-3.5463855028456086	7.303149354423798	0.2849378259168962	0.10850984559208281	2.78251022502361	-0.19066284659436267	-0.4583917345759452	0.2677288879815825	47.336005546345234
3	2.0	ltm	246	diff_vonmises	0.020919888793285494	1.1986213357382876	0.04818978081982199	91.0847300044815	0.03447733854284393	92.37098664587566	-0.009029417918069882	-0.392308402890583	0.3832789849725131	175.12738522841238
4	2.0	perception	246	diff_vonmises	-0.051107662556440184	-2.92825336526281	9.560403449123648	1.3088589925132714	0.34509885381478156	3.011084178103777	0.9352687999959852	-0.5410011388236777	1.476269938819663	42.1869134549184
5	2.0	wm	246	diff_vonmises	-0.0788473588949943	-4.517620890436463	5.787741987620805	0.5934724693545672	0.1403358781706998	2.6341654216086097	0.07596186048618597	-0.42548656368025445	0.5014484241664404	53.68859588092741
6	3.0	ltm	246	diff_vonmises	0.0658044125171458	3.7703151105703006	1.364440124100674	151.19308339727232	1.3467067658773622	151.87261073331612	0.20670965778110428	-0.23008499421879236	0.43679465199989664	74.27730538244867
7	3.0	perception	246	diff_vonmises	-0.03045621742083686	-1.7450127181467654	2.59165797928051	4.5199524453947015	0.693012645480016	5.738542319970051	1.095308023961131	-0.6095974838256526	1.7049055077867836	71.52030805916408
8	3.0	wm	246	diff_vonmises	-0.10351803690132999	-5.931146617925723	3.0310538680230263	0.8473398435970186	0.30425731330464456	2.397470129807155	0.05273982382897502	-0.34799292643082436	0.4007327502597994	68.05636043435575
9	4.0	ltm	246	diff_vonmises	0.05229396611672008	2.9962235524881917	1.4546706734380204	0.7207095566751784	1.690797756820189e-20	2.599743594504904	-0.10732639836592528	-0.3970577395668601	0.2897313412009348	111.8728931485625
10	4.0	perception	246	diff_vonmises	-0.05022347026501652	-2.877592878686233	2.202545165763348	2.5008686337703514	0.023318984139943558	4.474423225242243	0.6384055999524892	-0.6789171580980584	1.3173227580505475	91.42108985919899
11	4.0	wm	246	diff_vonmises	-0.2373037660032669	-13.596504254547261	0.9669339209636202	221.69398175399698	0.9478876624208579	224.3004245105293	-0.0634801073493918	-0.5683224227664851	0.5048423154170933	80.04343554096305
12	5.0	ltm	246	diff_vonmises	-0.050728044572132945	-2.9065028569347415	0.9730042003214772	62.609761835992416	0.9365513540744859	63.52162667696855	0.13265070665545053	-0.25010087683191085	0.3827515834873614	86.68191796791231
13	5.0	perception	246	diff_vonmises	0.021341876679442144	1.2227994606207107	0.9219969421634596	162.30474357861505	0.8903957698961112	163.77783319319482	0.503832616001155	-0.5153094612178837	1.0191420772190387	92.18048658392152
14	5.0	wm	246	diff_vonmises	-0.012703576866728706	-0.7278613391835811	0.8426063558096424	85.85358644827338	0.8067091625042567	87.30168132996418	0.14681321791297108	-0.3767553765288252	0.5235685944417963	92.40557124083844
15	6.0	ltm	246	diff_vonmises	-0.3073570787130471	-17.610263413727836	0.6074639648200281	155.12793946604828	0.593017369552492	156.36668750230876	0.09684343057951139	-0.33231271350700275	0.42915614408651415	108.36554364876207
16	6.0	perception	246	diff_vonmises	0.128498542855452	7.362424179198338	1.0631194394575416	2.4021773478499555	4.72656512745015e-18	4.052930302624724	0.20438584934470339	-0.543715272553938	0.7481011218986414	125.85553290433437
17	6.0	wm	246	diff_vonmises	0.07051540767367918	4.040235250346236	0.8421290732378245	85.92127785238208	0.8059794652277268	87.48646007133758	0.11595016555113347	-0.39066255835594177	0.5066127239070752	91.54207042264332
18	7.0	ltm	246	diff_vonmises	-0.06391971750551101	-3.6623300407342674	1.8780345582498688	21.165517725508067	1.7736954545290902	21.858929602015166	0.02639130252614663	-0.21120306591065674	0.23759436843680337	59.393875109209205
19	7.0	perception	246	diff_vonmises	0.05813619190522124	3.3309584331317974	0.652619008549169	3.669358339868552	6.468690924994359e-19	5.416034622486592	0.14904896587985395	-0.5878823198062149	0.7369312856860688	144.35535649946672
20	7.0	wm	246	diff_vonmises	1.5353081814810337	87.96667905076869	0.9137714292675827	38.11477973503458	0.8739445785289336	39.496774451997275	-0.1499487195383491	-0.2678206730886945	0.11787195355034541	74.05416563112888
0	1.0	ltm	247	diff_vonmises	0.2392051385516669	13.705444876852614	0.6090486157912764	114.93397077232234	0.5884728426412404	117.47023431296824	-0.22045469873172863	-0.479901785178658	0.2594470864469294	94.59944043993573
1	1.0	perception	247	diff_vonmises	-0.04549975521103472	-2.606943942470664	8.387259377792446	1.0186433423475096	0.09582186609954894	3.773985637048657	0.4985432724185467	-0.6151398641479658	1.1136831365665125	45.90921071291868
2	1.0	wm	247	diff_vonmises	0.038408174409230604	2.2006262924512874	7.7776139413768215	0.23574120554259365	0.09021311381650945	3.5506809378162596	-0.35942633060660073	-0.5849192216903577	0.22549289108375697	45.51360841226392
3	2.0	ltm	247	diff_vonmises	0.008523679838768292	0.48837088068217316	0.8948050450124398	108.01567207437681	0.8738430667395242	109.2114111891212	0.051581465022337625	-0.284424239339641	0.33600570436197863	87.03469473924994
4	2.0	perception	247	diff_vonmises	-0.04338389514482056	-2.4857140906363213	9.167809091173838	1.1465313916369781	0.182223388647106	2.7163825080012107	0.850114716823234	-0.4565785537774254	1.3066932706006593	43.79877154436414
5	2.0	wm	247	diff_vonmises	-0.06921912400021886	-3.9659636668052447	2.2057980747216854	1.8164695345710025	0.5041034018092279	4.232305977085472	-0.05356671145325531	-0.5300539218368369	0.47648721038358155	70.51728957843403
6	3.0	ltm	247	diff_vonmises	0.18819804174257906	10.782953504476673	1.2088278424255758	137.94276295437732	1.1905947560611032	138.7159662774558	0.1728032983038048	-0.23602671377055984	0.40883001207436465	78.20897184194541
7	3.0	perception	247	diff_vonmises	-0.03374020797396518	-1.933171516801851	2.7428190566368476	3.400296487525833	0.5799357971530568	4.721925324555871	0.8792832049008543	-0.5563587863792789	1.4356419912801333	70.95029043855033
8	3.0	wm	247	diff_vonmises	0.08900708466262285	5.09973029793189	3.82062320309073	0.49042737910567663	0.12265495789550286	2.4054033561962265	-0.06345392467866745	-0.3743059931299402	0.3108520684512727	64.42753608958321
9	4.0	ltm	247	diff_vonmises	0.07407281650905603	4.244059762615879	0.9459219284602909	2.696052016326466	0.31616447255200547	4.338979441244815	-0.03050053008821152	-0.3609288709657555	0.33042834087754397	103.37427512138174
10	4.0	perception	247	diff_vonmises	0.015454286220071924	0.8854653757973073	0.8841985983012313	554.3469552860258	0.8739434591316624	556.5255239468933	0.39147092170702535	-0.6285843244375329	1.0200552461445582	91.25651883744086
11	4.0	wm	247	diff_vonmises	-0.1514439411171004	-8.677098658837608	0.7131108293572941	229.1575675792964	0.695314851720036	232.13617547116462	-0.06751357296850813	-0.6372143852322871	0.569700812263779	94.15515687919329
12	5.0	ltm	247	diff_vonmises	-0.0024380788196734626	-0.1396916264875267	1.1550758225905409	168.28957611675887	1.1374406229935405	169.06965575830978	0.26569074149933414	-0.2670793527525497	0.5327700942518838	81.56106944615206
13	5.0	perception	247	diff_vonmises	-0.024355713678079777	-1.3954796007830221	0.9263129858875032	433.8144924785145	0.9139871831979808	435.017802220221	0.6257380083927444	-0.5029323785227078	1.1286703869154522	92.91979847575092
14	5.0	wm	247	diff_vonmises	0.07859106092439815	4.502936098423536	3.0939112598068923	1.0972535312110536	1.1660145676212997e-19	2.4982965589826827	0.33365927305547005	-0.3961136411262568	0.7297729141817269	78.10255677654294
15	6.0	ltm	247	diff_vonmises	-0.12517582987907724	-7.172046749118712	0.709388163333165	110.87203238882476	0.6888533598791975	111.67793348675968	0.20631554033192856	-0.2738780743192333	0.48019361465116184	104.18005995051999
16	6.0	perception	247	diff_vonmises	0.09684463703226738	5.548788970425279	0.15278376974541258	12.93480793390151	1.1379194657969345e-11	13.907380824895512	0.17108887380483928	-0.45672560845034016	0.6278144822551794	170.9554325316194
17	6.0	wm	247	diff_vonmises	-0.2765302615304655	-15.844016893344543	0.9853948242325334	4.223508425093793	0.37403329246519823	5.141571498116763	0.2825957259324656	-0.3444839295141082	0.6270796554465738	107.95944660392858
18	7.0	ltm	247	diff_vonmises	0.0777963706398577	4.457403699099318	1.078153301841797	102.50246115638986	1.0572772789212783	103.3342311078002	0.10887665014754333	-0.2252523217760789	0.33412897192362223	81.41003882627851
19	7.0	perception	247	diff_vonmises	-0.06732368596740339	-3.857363067196339	0.9019287404089565	233.58427520462138	0.8827036786841423	234.51174906081698	0.5593226143374324	-0.42194814905725764	0.98127076339469	94.86330616736706
20	7.0	wm	247	diff_vonmises	0.5609667517222804	32.14102732084977	0.3768349716982227	137.7947168519133	0.3650306783630093	139.36288398413635	-0.05141012991587246	-0.37176428527024896	0.3203541553543765	128.08155625435546
0	1.0	ltm	248	diff_vonmises	0.23991799023277086	13.746288269598677	3.904559297376727	0.5935749055829468	0.045107202649388535	3.359067789742241	-0.10862375546352449	-0.5257939171719399	0.4171701617084154	66.50015680889518
1	1.0	perception	248	diff_vonmises	-0.10128469909812643	-5.80318578757514	8.77600211611917	1.032888545288937	5.517312583652743e-14	3.5697221163261674	0.634123554595694	-0.5681388916157936	1.2022624462114875	45.85383933295523
2	1.0	wm	248	diff_vonmises	0.06041274237553442	3.4613951669292655	1.6913787719085247	1.8316819208316315	0.33807515073346395	5.1041648889315026	-0.2538176602922585	-0.6323597433852941	0.3785420830930356	78.46577822421926
3	2.0	ltm	248	diff_vonmises	-0.06480758755054143	-3.7132012470706006	1.041450577189074	251.03185553781168	1.0281356407155677	252.54158068723376	0.10634445001088011	-0.3777594685357961	0.4841039185466762	81.08887133017177
4	2.0	perception	248	diff_vonmises	-0.04815596494290857	-2.759133549608612	7.526559595928721	1.2999074643655146	0.15322379533564964	2.689489930254412	0.9013698975849974	-0.43859271633404207	1.3399626139190395	48.42733785550237
5	2.0	wm	248	diff_vonmises	0.004394458867658489	0.2517839463606702	5.533482740373711	0.5792028188935932	0.1325656320788556	2.528273512342125	0.07257548921767382	-0.4059119513377308	0.4784874405554046	54.95068102265358
6	3.0	ltm	248	diff_vonmises	0.050610664483636485	2.8997774732650226	0.828856297653804	137.21586150579404	0.805901918924204	138.6376366465143	0.1680835239228955	-0.37973366089720706	0.5478171848201026	93.32166089797258
7	3.0	perception	248	diff_vonmises	-0.03647906808222313	-2.0900966416817752	2.992843122069424	2.447248692381543	0.1770878082610105	3.8754423900539416	0.8701047041239337	-0.5476592034072089	1.4177639075311426	74.76244945048768
8	3.0	wm	248	diff_vonmises	0.08735303209714552	5.004960066837253	2.9252622663737844	0.9288849441430245	0.23000712314683527	2.8488721132011117	0.03648031761365933	-0.41544968239438806	0.4519300000080474	70.56295581404672
9	4.0	ltm	248	diff_vonmises	0.04953545414044049	2.8381724585110795	1.2167133303096709	1.4461043810894536	4.399549017879133e-16	3.3424247540036	0.0207646615509659	-0.48346897852626736	0.5042336400772333	120.05292835652104
10	4.0	perception	248	diff_vonmises	-0.00131669786905299	-0.07544123079060545	0.7806887073155534	529.3746978809796	0.7696118211325917	531.8064637133432	0.3954954260209149	-0.7002131320183054	1.0957085580392203	97.07018186840037
11	4.0	wm	248	diff_vonmises	-0.140587676278059	-8.055080502284262	1.3273485746577547	2.9339414691451045	0.2972263237754874	5.809679677018076	-0.036944442015171663	-0.6191032522946478	0.5821588102794761	92.73613514015298
12	5.0	ltm	248	diff_vonmises	-0.008317476250665331	-0.47655628536341943	1.432508645132836	2.434304084750065	0.3516054486919617	3.5712219474568796	0.24198359157507066	-0.3429539031722256	0.5849374947472963	94.04064359793611
13	5.0	perception	248	diff_vonmises	0.002920366367390579	0.16732466748343178	0.8930878408849929	311.07129840853815	0.8769098342030242	312.22649251816046	0.5913963650658758	-0.48458607202562476	1.0759824370915005	94.72850964612218
14	5.0	wm	248	diff_vonmises	-0.026537469947494948	-1.520485026946719	1.8971318486297282	1.5069912881053744	0.04684339246885558	2.7796552045955836	0.28955580370158596	-0.4049772401278967	0.6945330438294827	96.71418931619928
15	6.0	ltm	248	diff_vonmises	-0.10896075401662554	-6.242991337715776	1.0209187824044326	1.58875817493627	3.515795697174594e-17	2.638355624297883	0.12926429425379088	-0.3486290473542567	0.4778933416080476	127.63225509253135
16	6.0	perception	248	diff_vonmises	0.07066570022007089	4.048846378946755	0.20241853667007936	9.48681714489431	2.127529053483106e-12	10.685209637596195	0.12923392344236495	-0.47994547355694683	0.6091793969993118	168.28249161526463
17	6.0	wm	248	diff_vonmises	-0.24416709456026955	-13.989744014275127	0.6297457530697106	170.16444862203662	0.6148451572735011	171.30696545123382	0.17426597274396016	-0.3464389904021612	0.5207049631461214	108.59986312474653
18	7.0	ltm	248	diff_vonmises	0.032947370184785676	1.8877452576433824	0.8805758919031762	150.77160528288346	0.8642275083751356	152.2965489249903	-0.0117338797318709	-0.33597696328541815	0.32424308355354725	85.08322969635736
19	7.0	perception	248	diff_vonmises	-0.04852996139898966	-2.7805619680949074	0.9983537589630794	84.48624310760852	0.9325092561397053	85.84545886046548	0.6081409132836342	-0.5239736549935428	1.132114568277177	90.16387337043224
20	7.0	wm	248	diff_vonmises	0.932262193337498	53.41468907784781	0.0016430601024440376	550.7055264879581	1.06535232171328e-24	552.4509652435743	-0.13372974064374432	-0.42174237479612486	0.28801263415238054	155.80792265868504
0	1.0	ltm	249	diff_vonmises	-0.5747006212500176	-32.927920081172445	0.0014506189926040871	373.1774142180223	7.3149808748414e-17	373.7359587085705	-0.0027072973561956815	-0.1750204458338871	0.1723131484776914	170.71500883386798
1	1.0	perception	249	diff_vonmises	-0.09662468936236197	-5.536186897225963	10.020225449619888	1.0111111726999464	2.5889923733378234e-18	1.668079461271204	0.9942639567860718	-0.26548308923614394	1.2597470460222158	42.88361309045061
2	1.0	wm	249	diff_vonmises	0.37641448842734154	21.56696153446264	1.535263496034441	0.7141483287949522	1.5241427231326403e-11	1.4293240200831911	0.08622691973140156	-0.21292755663281682	0.2991544763642184	108.8711318655931
3	2.0	ltm	249	diff_vonmises	0.302425445754245	17.327701659080862	0.8597421263120598	58.14203138291784	0.8390687011555655	58.344341714467475	0.16641575956978016	-0.11221190480805188	0.27862766437783204	98.17705860203165
4	2.0	perception	249	diff_vonmises	0.004962599882829427	0.284336028698243	5.64871330355809	2.014775273673848	0.87325000326131	2.0582828340103925	1.20998910167783	-0.3243431509649931	1.5343322526428231	52.5327562666447
5	2.0	wm	249	diff_vonmises	-0.0006477279369452349	-0.03711207705967787	10.05348252388521	0.34968551426003813	0.5950758868861705	0.8677168094876425	0.2069405125540099	-0.1736582600188927	0.3805987725729026	39.98827522051428
6	3.0	ltm	249	diff_vonmises	0.24564393288704833	14.074360617422712	1.621119623201834	44.07402086432974	1.596160368139451	44.046705841109976	0.20027889056851222	-0.05943655113367852	0.25971544170219074	74.82428766028451
7	3.0	perception	249	diff_vonmises	0.031344153205656596	1.7958876910955728	2.6654179957418727	4.066682392981519	1.1823435710633212	4.07363642764894	0.9570095508077527	-0.3026039723203348	1.2596135231280876	67.95661106043599
8	3.0	wm	249	diff_vonmises	0.1415996610568835	8.113062959042388	1.5011734339853966	40.307303327512734	1.468736682214362	40.629088589438105	0.09181295147497792	-0.10998356471258841	0.20179651618756633	70.54651995064961
9	4.0	ltm	249	diff_vonmises	-0.28409455412527707	-16.277418934029306	11.808009306401512	0.37455731425328914	2.602630298309045e-28	1.0498406714170054	0.3406563055048829	-0.16708733228678202	0.5077436377916649	39.46511543578134
10	4.0	perception	249	diff_vonmises	-0.008906530501398108	-0.5103066078346485	1.1984255052430057	338.58026245317564	1.1833508013590828	339.509808171601	0.5944266959537572	-0.4128694300995406	1.0072961260532978	81.98019023444158
11	4.0	wm	249	diff_vonmises	-0.36160312152491264	-20.718332722133706	1.6050712766156756	111.90297195126233	1.574439310225505	112.89220849964146	0.1469426499894695	-0.3073023989946506	0.4542450489841201	66.20810377651148
12	5.0	ltm	249	diff_vonmises	-0.22291352401337206	-12.772004122354348	4.71961586784186	0.28930943658595126	1.067340380650316e-17	0.2842526899086237	0.1980014601641922	-0.04522087143345194	0.24322233159764414	62.89182735428099
13	5.0	perception	249	diff_vonmises	0.009693704201493632	0.5554083385938189	1.3677040936550453	219.7329850479824	1.3505121430695555	219.58294496925362	0.7403860502746369	-0.21716143812519206	0.957547488399829	81.76699645646715
14	5.0	wm	249	diff_vonmises	0.14403029088359098	8.25232778967134	1.6423308642200556	1.320498488115702	0.3182247344233558	1.329724107381772	0.3206519160816489	-0.12855711203794162	0.4492090281195905	95.87714461584977
15	6.0	ltm	249	diff_vonmises	-0.522675936191774	-29.947125196837767	2.20163497577959	0.7832945653267886	0.15221246366402086	0.9850018362889634	0.24663694470926179	-0.1299803077926664	0.3766172525019282	87.50990923968848
16	6.0	perception	249	diff_vonmises	0.17432316943535053	9.987981879989535	1.5335200027646938	1.6078623420440048	3.974346280103106e-12	1.8822109671769467	0.4062822841479305	-0.26669988424187574	0.6729821683898063	109.31129987336016
17	6.0	wm	249	diff_vonmises	-0.20201957618426256	-11.574869094379844	4.931901816607925	0.5490638878697414	8.375725833118695e-20	0.5277951260534096	0.38857805030712705	-0.08397661106797633	0.4725546613751034	61.49506123387661
18	7.0	ltm	249	diff_vonmises	0.02686564863690997	1.5392882807763344	1.439753712780496	264.051704902126	1.4260420376665066	265.2191448044924	0.1515514838260259	-0.34051633079042176	0.49206781461644766	69.63884869061903
19	7.0	perception	249	diff_vonmises	-0.1467969673498899	-8.410846674468436	2.0826068312407635	1.660865295545769	8.355748296141182e-20	1.8371383928364537	0.5855589482291067	-0.27875681789857454	0.8643157661276812	95.13722975192255
20	7.0	wm	249	diff_vonmises	-0.0068750804394955576	-0.3939130929960426	0.0002833597981614063	3390.3685598610414	8.411105095147154e-25	3391.151248721853	0.028337637617596556	-0.27745357912158397	0.3057912167391805	179.98191535016753
0	1.0	ltm	250	diff_vonmises	0.18539380699521968	10.622282688689046	0.4882216074254484	110.61327790339365	0.47478721212668873	112.6033546290134	-0.2047571790762781	-0.3651829396080153	0.16042576053173718	102.50736043732408
1	1.0	perception	250	diff_vonmises	-0.03935918871600478	-2.2551153984860077	8.783706936434134	0.9355708020221013	0.023348420549500627	3.1338884223300854	0.5789547593012789	-0.5001346065646955	1.0790893658659746	45.57345675223948
2	1.0	wm	250	diff_vonmises	0.2841172957842189	16.2787219351058	5.489975128474963	0.17419317906154036	1.1763397785380498e-08	2.5429000809926916	-0.24598836554500925	-0.40471240787136287	0.15872404232635362	58.21158917531028
3	2.0	ltm	250	diff_vonmises	0.3175649042896618	18.195128737273553	0.5672204236825964	122.28903041931657	0.5549921610281059	123.31045309358296	0.01927751916008802	-0.24721716398133253	0.26649468314142055	109.41633640134307
4	2.0	perception	250	diff_vonmises	-0.0285588341330332	-1.63630066363696	7.799419753281576	1.557811098635074	0.444920105576787	2.7350280754840566	1.0589048039697968	-0.48366153045775834	1.542566334427555	46.2482911506678
5	2.0	wm	250	diff_vonmises	0.009184790656557121	0.5262497403319154	7.091221311840619	0.42535264118654775	0.13157081319079011	2.3067685121833374	0.026263031340273912	-0.37906456803828337	0.4053275993785573	48.738860196006385
6	3.0	ltm	250	diff_vonmises	0.17310032262003958	9.917917918481205	1.4058919230715616	91.40573688213127	1.3876323884418025	91.79569361216343	0.13691554293400543	-0.13874934242023507	0.2756648853542405	73.55800970284943
7	3.0	perception	250	diff_vonmises	0.00833141939449491	0.4773551686579982	1.8916377166014422	8.241692809655381	1.1069754245756935	8.86777289283873	0.9018222597010856	-0.44065219222534935	1.342474451926435	74.80414677776085
8	3.0	wm	250	diff_vonmises	0.08257278355193509	4.731072000173143	2.0673130438467426	1.1063791709672297	0.6276596741774904	2.1797841440851635	-0.008007522845715043	-0.2459188477557283	0.23791132491001327	70.2705609379606
9	4.0	ltm	250	diff_vonmises	-0.06563217960719585	-3.7604468917369114	4.688298356009402	0.23463099698768042	1.201735268838031e-47	1.575157742793346	-0.05412781003760714	-0.25067749374127857	0.19654968370367143	63.107234750205606
10	4.0	perception	250	diff_vonmises	0.012140892100301531	0.6956218768709995	1.0190257631711432	266.0874249196131	0.997723407014218	267.84386399263855	0.4720270052431488	-0.5581297763908921	1.030156781634041	86.35846778494857
11	4.0	wm	250	diff_vonmises	-0.27579445795175794	-15.801858453733978	0.8703614792039482	122.86022866364722	0.8425525143668249	125.13591717998187	-0.05767271983569344	-0.48739361375487	0.42972089391917656	84.7455356108438
12	5.0	ltm	250	diff_vonmises	-0.07038571692413134	-4.032804517755256	1.244812320978523	72.54081969718352	1.2137539948745435	73.39126822338051	0.08972776853942221	-0.22977316879705967	0.3195009373364819	74.98437777421464
13	5.0	perception	250	diff_vonmises	-0.01750002258759877	-1.0026774356530195	1.4889900322521443	5.526912928268098	0.6186772060644702	6.765398005711076	0.5628120647175694	-0.47061295991675106	1.0334250246343204	87.15065797763143
14	5.0	wm	250	diff_vonmises	0.17167420281833778	9.836207272763657	3.025799615856329	0.7838563650032677	0.009442824366548514	2.187931449714697	0.16438071423550488	-0.343725224596142	0.5081059388316469	78.40371348691738
15	6.0	ltm	250	diff_vonmises	-0.31226920155775	-17.89170732117911	0.7017648522597782	145.6923232956679	0.6874776325709097	146.77149277219388	0.0921376987061393	-0.2815950436066412	0.37373274231278053	100.5731702111391
16	6.0	perception	250	diff_vonmises	0.21845205180409524	12.51638059434788	0.6356514201850467	3.573582397059706	2.0354607899574907e-11	5.052808709176518	0.16893760867416818	-0.5312408822506896	0.7001784909248577	144.53757828102658
17	6.0	wm	250	diff_vonmises	-0.23155611680807708	-13.26718821354112	2.191420930237646	0.9702600656422048	1.1024435223766249e-12	2.238552171679486	0.1725533384457007	-0.3496713406968745	0.5222246791425752	92.79039368210921
18	7.0	ltm	250	diff_vonmises	-0.09392638713243906	-5.3815855676006406	1.142098043311146	144.16618127148	1.124641307709225	145.51942502185796	-0.024924524259937186	-0.3103134638646381	0.2853889396047009	73.70933388096816
19	7.0	perception	250	diff_vonmises	-0.13514078746196612	-7.742996761645131	2.8848693251150066	1.4259537802741904	2.722639075807335e-18	2.52388768255539	0.5115535847192056	-0.3988391943171665	0.9103927790363722	80.9275854233411
20	7.0	wm	250	diff_vonmises	0.6298243331769862	36.0862761256827	2.0385260984983002	0.6174842916851041	0.06913346705228844	2.3287554979766294	-0.07444612418525176	-0.34280285118686427	0.2683567270016125	88.67800517488192
0	1.0	ltm	251	diff_vonmises	0.18134314096821283	10.39019662112453	6.173147015723453	0.36959012299868205	1.1091842155752914e-15	3.5828693582360778	-0.2120155036213529	-0.5702298116251098	0.35821430800375686	54.8317836141743
1	1.0	perception	251	diff_vonmises	0.0036214926372352325	0.20749624365128091	8.352801604055339	0.894392395284315	0.0414751364349719	4.264248173344343	0.3076897744447543	-0.6839818939973251	0.9916716684420794	46.39477642470018
2	1.0	wm	251	diff_vonmises	0.16390365118935388	9.390987459934372	0.7920559849720193	149.81345232735285	0.7631264084566237	153.58142733151402	-0.28997206302016565	-0.7378821475804962	0.44791008456033055	84.03742499257362
3	2.0	ltm	251	diff_vonmises	0.04920925818339947	2.8194828068783977	2.579811849453822	1.0544097690322598	0.3189013243346218	2.6019846877757438	0.07751601252631579	-0.3558577466691177	0.4333737591954335	72.76961673214856
4	2.0	perception	251	diff_vonmises	-0.04097216841890322	-2.347532327902354	9.47101126226738	1.129743167884074	0.10252089434426184	2.728871697500635	0.8875922743832312	-0.4466529536238998	1.334245228007131	43.50355345151638
5	2.0	wm	251	diff_vonmises	0.026664911867670157	1.5277869111058016	5.074050366313824	0.5867504579173297	6.62400474973016e-16	2.5837559102141148	0.10148744599388237	-0.4111974453458406	0.512684891339723	60.60861718992646
6	3.0	ltm	251	diff_vonmises	-0.09988673512589119	-5.723088352054717	0.6488508293047204	79.90719274105916	0.6294963295530391	80.72395781317114	0.0722423433516255	-0.21905027738156946	0.29129262073319495	105.19596129230716
7	3.0	perception	251	diff_vonmises	0.0617625986992112	3.53873623722499	3.538667694813645	2.221958394319708	0.2711404199617064	2.881861105512669	1.006146579299892	-0.40574627283533504	1.4118928521352272	68.5617955434723
8	3.0	wm	251	diff_vonmises	0.007157020189561139	0.4100670507517737	2.908926320644413	0.6612145268493569	4.403096204374599e-14	1.8053058497901762	0.13814910473526354	-0.2860578127450635	0.424206917480327	80.59386687939207
9	4.0	ltm	251	diff_vonmises	-0.2713671912790486	-15.548194758608807	0.5371739998886508	1.7400250116930969	2.9126023350073818e-18	3.431424020330784	-0.10468160557590478	-0.3953600975770603	0.29067849200115553	149.15397384809603
10	4.0	perception	251	diff_vonmises	0.03951019614417275	2.263767486795157	2.211865804848194	3.4375411175711665	0.34264505953343843	5.4471954685152095	0.6978681510174582	-0.6542561593234939	1.3521243103409522	80.53793295280977
11	4.0	wm	251	diff_vonmises	-0.3224312555776472	-18.47395012770317	1.0264710726844235	2.139697127012825	2.2693731453727568e-17	4.630173193010845	0.004918102106098665	-0.6416890177264495	0.6466071198325481	126.72544959054687
12	5.0	ltm	251	diff_vonmises	-0.005943697487431726	-0.34054878073234957	1.7356713378507347	0.9962866356662942	1.030524744757904e-17	2.032041255654658	0.14815946290503496	-0.3087543777069226	0.45691384061195756	103.62322313676529
13	5.0	perception	251	diff_vonmises	-0.029223863766102042	-1.6744040548629382	2.731466650777011	1.7963572562895842	4.589512319514082e-16	2.9600928376342277	0.6436630041074	-0.4663851151007746	1.1100481192081746	83.20621757625207
14	5.0	wm	251	diff_vonmises	0.0075473287046050695	0.43243008137180927	1.9173415735576465	1.39112528988014	1.3280437454772012e-16	2.62243861381042	0.28214107997699145	-0.4022571653978335	0.684398245374825	98.97566980969998
15	6.0	ltm	251	diff_vonmises	-0.17995903087251738	-10.310892954259732	0.14479578796372283	8.463927117746962	1.2553117789135884e-09	9.263316960414041	0.07452025835702547	-0.31489652688930514	0.3894167852463306	170.93156254065127
16	6.0	perception	251	diff_vonmises	0.23722452455279006	13.591964053872443	0.2841904219556812	9.0888820233562	3.9612554569531423e-17	9.767253341039133	0.3292500458549916	-0.4874526343670236	0.8167026802220152	162.52573243030204
17	6.0	wm	251	diff_vonmises	-0.41032955894474743	-23.510151936998565	0.5110057855047903	22.337431441992653	0.42069269853358016	23.171262117448798	0.1813693308408988	-0.31772813148839196	0.49909746232929075	125.1491067608477
18	7.0	ltm	251	diff_vonmises	0.2918259816304141	16.72039709968502	0.896433955732157	1.9689680694821	0.16129962404037523	3.2060800591066307	0.038390379138716346	-0.3258768202797486	0.36426719941846497	119.32861532359001
19	7.0	perception	251	diff_vonmises	-0.04789012569536232	-2.743902082695278	2.9796084023057485	1.5628369703220946	0.033841056322279156	2.3499980290640994	0.6328109529213256	-0.3591884491446109	0.9919994020659365	78.49482587552379
20	7.0	wm	251	diff_vonmises	0.5316726417583875	30.462598455326575	0.2576406843202875	78.93867627853842	0.24147700404096076	80.34203569989778	-0.055415321254058014	-0.3479793762672454	0.2925640550131874	143.30582838112218
0	1.0	ltm	252	diff_vonmises	0.06897022831300566	3.95170299438892	0.3690187258029749	97.34639023830117	0.35213779238859927	100.27080329636023	-0.34309708602176414	-0.5260875743417603	0.1829904883199962	114.88579971681672
1	1.0	perception	252	diff_vonmises	0.0029419056503646114	0.16855877749158182	8.463417676568671	1.0267686978053672	0.18567919164542615	4.73133366571843	0.2740809090770068	-0.8021718442678557	1.0762527533448625	44.62782751744572
2	1.0	wm	252	diff_vonmises	0.10314240596627683	5.909624550692624	9.504931410212444	0.1622033335231172	0.1385225549442117	3.9215506226884687	-0.5167010035141492	-0.6731207314523237	0.1564197279381745	39.41046295020814
3	2.0	ltm	252	diff_vonmises	0.13308397178033632	7.62514990385142	0.6955239018770544	70.56739961286891	0.6703037805248349	71.64507825356623	0.03835848568408551	-0.2579918193270556	0.2963503050111411	99.3905471309854
4	2.0	perception	252	diff_vonmises	-0.059867298472889026	-3.4301435333465395	12.306465448905707	0.955308420603428	0.22849463955926896	2.696525697131875	0.7900364039089084	-0.47625311071416987	1.2662895146230784	37.74438650877596
5	2.0	wm	252	diff_vonmises	-0.17465138612218764	-10.006787310911069	1.4723404125276438	5.592617038309128	0.7779619819432806	8.11196211926307	-0.03369221390345345	-0.5693941041559794	0.5357018902525259	75.04257749085795
6	3.0	ltm	252	diff_vonmises	0.11626113480181786	6.661272345545698	1.5826665838434295	68.23940642710618	1.5522933647369788	68.71787580784087	0.1457902457455198	-0.1696286204951445	0.3154188662406643	68.72490668280588
7	3.0	perception	252	diff_vonmises	-0.021284784433492063	-1.219528315884848	3.3287802994124074	3.1896246241774366	0.701879802578744	4.3537615655317445	0.9750303927996737	-0.55310870042331	1.5281390932229837	64.59499626957
8	3.0	wm	252	diff_vonmises	0.01954051064834259	1.1195887896804742	4.107242396705919	0.4040423727108669	6.741869121304054e-23	2.0862075290582607	-0.016870240399782632	-0.331944923983686	0.3150746835839034	67.53682507505354
9	4.0	ltm	252	diff_vonmises	-0.1780113483013872	-10.199298963102782	0.600652732683681	146.82257740526228	0.5882552001375072	148.35143696306992	-0.058274441968563906	-0.3217292025331986	0.2634547605646347	101.64476786534581
10	4.0	perception	252	diff_vonmises	0.008079320277957857	0.4629109532614484	0.9562250312672745	231.84874144960472	0.9307091452087117	233.60991231732595	0.5451889260151859	-0.5899019871350966	1.1350909131502824	89.92378453759778
11	4.0	wm	252	diff_vonmises	-0.08947007634291167	-5.12625776716211	0.725433098045113	248.1947361153128	0.7081943090775283	250.93273340966647	0.032649870922170976	-0.6234619380904256	0.6561118090125966	95.60547736383484
12	5.0	ltm	252	diff_vonmises	-0.039534146519791605	-2.2651397422358706	1.2605756629887934	135.18174547387434	1.2376272871588039	135.85178905092675	0.3100049849275024	-0.2579613491890118	0.5679663341165142	78.960545573471
13	5.0	perception	252	diff_vonmises	-0.038636348992649866	-2.213699733073367	0.9521714632698819	360.66831630926026	0.9370643532050486	362.04654733533283	0.5805821488616658	-0.5199196055511521	1.100501754412818	90.96440311679726
14	5.0	wm	252	diff_vonmises	0.10621786616925546	6.085835440383748	3.6976631650222975	1.0766785423001803	2.6550890204439457e-13	2.370323044657539	0.4156175142634435	-0.3767617132652373	0.7923792275286807	71.27898800864867
15	6.0	ltm	252	diff_vonmises	-0.14478299786971957	-8.29545472318652	0.8309239959701615	156.69740780499797	0.8140945861253973	157.38582733888455	0.2925955228915953	-0.2708244578018455	0.5634199806934408	97.67799624736055
16	6.0	perception	252	diff_vonmises	0.22968306549521056	13.15987027850243	0.00035121643186532275	6538.470702505128	5.214074513856669e-31	6539.2285453493805	0.24490256124408916	-0.48606724934120393	0.7309698105852931	178.23978673226168
17	6.0	wm	252	diff_vonmises	-0.35174549158931656	-20.153532130822235	1.4511093260736698	1.9771593082496253	2.5271936996651166e-14	2.507785838438237	0.4402859346063354	-0.35304121610768896	0.7933271507140244	111.54560439127758
18	7.0	ltm	252	diff_vonmises	0.274318255060794	15.717278258376732	0.9111683838395771	28.31191146297256	0.8488753384297079	28.78113958731511	0.18930671804717925	-0.17671205295470482	0.36601877100188407	94.18575314697426
19	7.0	perception	252	diff_vonmises	-0.06491458042967892	-3.719331487483132	1.787917773846209	1.930598103816161	0.07933940488198278	2.6573159662966996	0.47333053986329626	-0.3640067545435265	0.8373372944068227	98.63215860328502
20	7.0	wm	252	diff_vonmises	0.294439890544307	16.87016304848271	0.7450088082243154	165.7732020110386	0.7298426527041074	167.0710602487453	0.10311482480170753	-0.3312438312412542	0.43435865604296175	97.2476898646253
0	1.0	ltm	253	diff_vonmises	0.07841103601153285	4.492621430709144	4.190026119259047	0.4444740828065204	1.391160921480574e-21	2.897591208230098	-0.11073933515993761	-0.4610855517922145	0.3503462166322769	66.85435643207802
1	1.0	perception	253	diff_vonmises	-0.08137810587123857	-4.662622011190756	10.061992772528516	0.9966748967843638	0.043344110494233666	3.689129269509872	0.6317461980197049	-0.5941865626223368	1.2259327606420416	42.41317021633182
2	1.0	wm	253	diff_vonmises	0.08297220213117157	4.753956999022505	3.3078536541208403	0.6698016752791044	0.07655397507874415	3.5110399475200613	-0.13878173586205478	-0.541555046632236	0.4027733107701812	70.24250748532916
3	2.0	ltm	253	diff_vonmises	-0.03268042860460843	-1.8724506317226732	2.677856564441403	1.0703199548232813	0.3337529498180583	2.151385930501625	0.19162362089820917	-0.2881135437844437	0.4797371646826529	73.22572063887415
4	2.0	perception	253	diff_vonmises	-0.050709942139090344	-2.9054656639224827	10.728428274694082	0.9984805469855889	0.11040790306666497	2.1140571974585702	0.9142118478092467	-0.3489993885518566	1.2632112363611032	40.9452190060359
5	2.0	wm	253	diff_vonmises	-0.06364680482314652	-3.6466932958591878	5.848610721897999	0.5185723993193533	0.08849704408115444	1.8779671258965183	0.16265224141445223	-0.2990916641481802	0.46174390556263245	54.63962353843473
6	3.0	ltm	253	diff_vonmises	-0.05252261981980964	-3.009324444645261	1.7447281948269238	1.2342391014230851	0.3340364715506159	1.9581702103858933	0.16271029359927514	-0.2142735677177751	0.3769838613170502	87.8239699937057
7	3.0	perception	253	diff_vonmises	0.023566418359769213	1.350256310254392	3.704108042350071	2.142816790596546	0.3298015597560512	2.7732519739316066	0.9819258432265974	-0.3907297904090747	1.3726556336356721	66.47683489525002
8	3.0	wm	253	diff_vonmises	0.0010582436234868931	0.06063289332243033	3.4102494160926327	0.6802838129073012	0.0803886224334444	1.6080295409235752	0.2020625837445969	-0.24374003139128184	0.4458026151358787	71.50292098657926
9	4.0	ltm	253	diff_vonmises	-0.2877815360830525	-16.48866743935072	1.6515961210230041	1.008471981068122	2.0635423216437076e-18	2.3288252523132162	0.0924646341357564	-0.3536155291789105	0.4460801633146669	105.73875225783547
10	4.0	perception	253	diff_vonmises	-0.013069433801632025	-0.7488233974591337	1.8811734452241358	3.7081409686100857	0.35166871680715245	5.082886067485472	0.7281050077833908	-0.5493132337620694	1.2774182415454602	86.77732978548516
11	4.0	wm	253	diff_vonmises	-0.16232205638993652	-9.300368753027918	0.8631362204446851	192.93017600791816	0.845827961470327	194.50321086180375	0.14568871949553852	-0.40277005651393694	0.5484587760094755	90.42674349186761
12	5.0	ltm	253	diff_vonmises	-0.01611045457575565	-0.923061053228024	1.6537624354845974	1.2301719167125995	3.160153635601857e-14	1.9381989681038827	0.2569274366156937	-0.28777642406325366	0.5447038606789474	105.88653403271626
13	5.0	perception	253	diff_vonmises	0.004214852889013907	0.24149328180901883	1.631190579025323	4.000314462218891	0.5666870544588902	4.785999459523603	0.5824328254357811	-0.37578671412639963	0.9582195395621808	86.95210892061735
14	5.0	wm	253	diff_vonmises	-0.004887661593151298	-0.28004238097575745	1.6134740188339978	1.769891485844008	0.10265126605384631	2.4286602287773253	0.37413756476183496	-0.316110308057231	0.690247872819066	102.08438894568229
15	6.0	ltm	253	diff_vonmises	-0.2497463269137953	-14.309410481054993	1.0063781872276925	1.8063543109056146	0.05304932990247256	2.5027133994533006	0.19969542311109256	-0.29470476328378603	0.4944001863948786	124.60627553157191
16	6.0	perception	253	diff_vonmises	0.30138503382204734	17.268090446410884	0.0006550327550326639	3482.803677995359	2.123039186298491e-31	3483.2791438624176	0.2874709325740241	-0.43869750648173067	0.7261684390557548	177.07687505172788
17	6.0	wm	253	diff_vonmises	-0.351814201013635	-20.157468890848453	0.7878319154518805	111.40564211300051	0.7674159540002233	111.82193804075075	0.31052333755811645	-0.22651898702690865	0.5370423245850251	102.33082533689864
18	7.0	ltm	253	diff_vonmises	0.13133803322381787	7.52511499327375	0.7506576750320614	226.4101855097275	0.7389938371879123	227.58748773984502	0.16028403537809766	-0.32864115150422535	0.488925186882323	98.47132144734795
19	7.0	perception	253	diff_vonmises	-0.08879850275230315	-5.087779434787795	2.7958841737800713	1.5154276007144758	7.04024637274928e-15	1.9152014949344005	0.6484187468709921	-0.3012597019178434	0.9496784487888354	82.22479953919157
20	7.0	wm	253	diff_vonmises	0.2954394224776492	16.927432009751765	0.5542484569578258	100.02912641331493	0.5362446838293615	101.01306502272881	0.08930080142107855	-0.2804318700711015	0.36973267149218003	114.46360924042003
0	1.0	ltm	254	diff_vonmises	0.2633484795256347	15.088756418006241	0.6142413535766525	167.7806838808826	0.5983197132680622	170.756900710315	-0.2834965501119342	-0.5540163327741183	0.2705197826621841	92.35598805603985
1	1.0	perception	254	diff_vonmises	-0.0014318796400485392	-0.08204066014549279	8.766156661881771	0.9060325239480107	0.09217076340121597	4.341871823363254	0.29789473015612766	-0.7103302341624612	1.0082249643185888	44.76004047616544
2	1.0	wm	254	diff_vonmises	0.19950053565003378	11.430538703346155	6.399033339633345	0.30892609015365013	0.15478880271685022	3.973145634552433	-0.42869932657583876	-0.6672924077143005	0.23859308113846178	47.84606305646153
3	2.0	ltm	254	diff_vonmises	0.0019109117541230873	0.10948717853319379	1.7561755872774794	0.9712010676093491	0.17817920053127556	2.389483835304271	0.012120912029892406	-0.3119597819151751	0.3240806939450675	89.52008793244852
4	2.0	perception	254	diff_vonmises	-0.061769244578878627	-3.539117018081085	11.967009748541185	0.9913671001153863	0.14261726442732928	2.860263023427938	0.8304269806896855	-0.4836657669565103	1.3140927476461957	38.56849106990458
5	2.0	wm	254	diff_vonmises	-0.13212502137116983	-7.570206092643836	2.597950267235641	1.3380290321023274	0.3407731891891789	3.8711302848079665	-0.03517431197057164	-0.5415996246620327	0.5064253126914611	70.23200126832347
6	3.0	ltm	254	diff_vonmises	0.057540757549005964	3.296842557543573	1.24090192956485	141.29045119776112	1.225527968393099	141.95926718360843	0.1424861641080284	-0.20293286650140274	0.34541903060943113	76.92131352114401
7	3.0	perception	254	diff_vonmises	0.008302878374349471	0.47571988866066667	2.303069161327735	4.710820783141036	0.7835280695083915	5.716408255381084	0.9269828102126751	-0.5203180709077575	1.4473008811204326	73.50843189554675
8	3.0	wm	254	diff_vonmises	-0.03285647556258252	-1.8825373794107054	3.1023360820005084	0.7785696502238716	0.24812394681217703	2.236055108940949	0.07058187043684477	-0.3275821526396083	0.3981640230764531	68.92847311848203
9	4.0	ltm	254	diff_vonmises	0.09100861693762533	5.21440964984875	1.832602004046977	0.44020063906419055	7.930526295296528e-16	2.089662568479409	-0.11721311817347882	-0.3270668167388314	0.2098536985653526	101.05791098978074
10	4.0	perception	254	diff_vonmises	0.014034321047649798	0.8041073643619533	0.9711970678338465	218.18504426809037	0.9422744428851921	220.1869497040184	0.5356531799641573	-0.6379581941315635	1.1736113740957208	88.73933703154574
11	4.0	wm	254	diff_vonmises	-0.16979287527432663	-9.728415144610105	0.660964177922757	221.94472323823277	0.64542043371145	224.4065781075012	-0.019146822879385184	-0.5456269936617488	0.5264801707823636	99.14956015610342
12	5.0	ltm	254	diff_vonmises	0.030049307856005895	1.7216985174384463	1.6016159470634714	2.5450094852208007	0.6220735430295186	3.678012799855162	0.15501886204683846	-0.3034869122830527	0.45850577432989115	81.26146763235013
13	5.0	perception	254	diff_vonmises	-0.03017361758132889	-1.7288209400518844	1.5466343075683722	4.336957659298152	0.4298822162276292	6.047693560079701	0.5003374336576778	-0.5547910579016354	1.055128491559313	89.71830205068449
14	5.0	wm	254	diff_vonmises	0.07774645730683173	4.454543875775499	3.0070599854400233	0.9855483183906006	8.150365527254787e-18	2.7455454220902884	0.2093294548903072	-0.43538727876011235	0.6447167336504196	79.24236969644124
15	6.0	ltm	254	diff_vonmises	-0.14397863706891162	-8.24936824409446	0.7084608842438662	124.65202963077463	0.6885248484918483	125.88447751799917	0.12561126453424976	-0.33042746951011814	0.4560387340443679	100.83692554251574
16	6.0	perception	254	diff_vonmises	0.25383623444407555	14.543744921138826	0.000277853233049318	8321.440072195734	1.1877240551767878e-32	8322.639979236885	0.17703110725847182	-0.5589222640649041	0.7359533713233759	177.89075228822873
17	6.0	wm	254	diff_vonmises	-0.44579835850151195	-25.54236445599666	0.847922891774687	2.5658998570055815	0.057340891654274175	3.8642589825454676	0.15179969487104128	-0.4330307188867165	0.5848304137577578	129.40556705821928
18	7.0	ltm	254	diff_vonmises	0.7331129093130404	42.00427561019428	0.00025760456593143424	4455.034052079443	3.180893276934581e-29	4455.8347365901145	0.05523098319633846	-0.31007325264795327	0.3653042358442917	164.5464703607959
19	7.0	perception	254	diff_vonmises	-0.08352690143830585	-4.78573892822013	2.7374864250679916	1.4028547523350174	6.164610644203214e-15	2.1939794472342644	0.522527586141624	-0.34552976984179334	0.8680573559834173	83.11065165857926
20	7.0	wm	254	diff_vonmises	0.34548831621760334	19.795022390349864	0.7105076305851263	127.82020201761293	0.6938449322941522	129.2588569494372	-0.0017084862123084577	-0.32040064404236546	0.318692157830057	95.8448005018447
0	1.0	ltm	255	diff_vonmises	0.2771318248388584	15.878483932025382	0.3489489691134548	117.89023233182017	0.3356038224715206	120.73896870566163	-0.331994813755351	-0.5170877131908913	0.1850928994355403	118.84890962257819
1	1.0	perception	255	diff_vonmises	-0.009997398703038066	-0.5728087517936442	9.571079907507919	0.7805413726981361	0.014608806459641828	3.96842419679311	0.3090142083433788	-0.6331829977359421	0.9421972060793209	43.67839603454274
2	1.0	wm	255	diff_vonmises	0.045839476503861644	2.6264085387603746	6.070324316706265	0.27738175115186897	0.09201620143199507	3.60584264473122	-0.3613816346025413	-0.5874370029055149	0.22605536830297362	50.90034156825183
3	2.0	ltm	255	diff_vonmises	0.18292391501625047	10.480768302440895	0.514577100387609	135.59819456652983	0.5011337659724292	137.14139797881086	-0.03999532067291511	-0.34465590747894836	0.30466058680603325	112.01182075055854
4	2.0	perception	255	diff_vonmises	-0.04324494638207877	-2.4777529129626523	8.715403958003261	1.3796273893965367	0.28894954116743704	3.2949635664905914	0.914017945153127	-0.5729857836871911	1.487003728840318	44.27471643909996
5	2.0	wm	255	diff_vonmises	0.005431273327240135	0.3111890390328358	4.725639403549353	0.6737265521801336	0.10859062808591839	3.322283339198219	-0.020859106758879697	-0.5258556740719638	0.5049965673130841	59.183156512893845
6	3.0	ltm	255	diff_vonmises	0.14021702873973213	8.03384396265122	1.1229939649299046	109.53322814512461	1.1019483790005522	110.40347854978852	0.11685846488121854	-0.23787991631171934	0.3547383811929379	79.73614377392286
7	3.0	perception	255	diff_vonmises	-0.012478585013556013	-0.7149702555719587	2.5870393235679106	3.9543888819784545	0.587735878093632	5.227101251312103	1.0017397265080514	-0.5856503641481684	1.58739009065622	72.82795836518267
8	3.0	wm	255	diff_vonmises	-0.015342963751877648	-0.8790870682047961	3.398562300370597	0.5617589431229109	0.13103879676673552	2.4244917440846048	-0.0432588650314783	-0.3711249284228431	0.3278660633913648	67.90625863691247
9	4.0	ltm	255	diff_vonmises	0.27689668910036985	15.865011646597296	0.5698531118039489	1.1804676249451511	6.713597953791582e-15	3.212613194547656	-0.20454873745669755	-0.4131681997194505	0.20861946226275296	147.33228509653048
10	4.0	perception	255	diff_vonmises	0.013571657017599811	0.7775986681075752	1.5177469180587149	4.952495931903271	0.40097843166948105	7.4162060064542965	0.46672326257757946	-0.7081270536305488	1.1748503162081283	89.97487026526105
11	4.0	wm	255	diff_vonmises	-0.2377212486861575	-13.62042425029669	0.7301246228166167	11.274581365896784	0.4423020291995063	14.709124480896971	-0.19841348970185946	-0.6934306028876085	0.49501711318574904	100.97956591977947
12	5.0	ltm	255	diff_vonmises	-0.013878106247390502	-0.7951569156096165	1.0013008625090705	95.42529784372344	0.9742384165770679	96.55016287265815	0.11013341205376292	-0.29022584639063176	0.4003592584443947	83.94454948925187
13	5.0	perception	255	diff_vonmises	-0.017868060503482008	-1.0237644549339198	1.3423316076753866	5.976155750931255	0.4857090937199978	7.692711171713786	0.5435654188268171	-0.582894665927888	1.126460084754705	92.919275488013
14	5.0	wm	255	diff_vonmises	0.06331541137437018	3.627705849886018	3.047550483410937	0.9162209539960953	8.012012562596765e-14	2.8066173103606076	0.15875645638527458	-0.44532224422744404	0.6040787006127186	78.70246615208407
15	6.0	ltm	255	diff_vonmises	-0.2487795401159404	-14.254017677848939	0.49984402112265597	124.76379895988713	0.484628931273913	125.97781015902204	0.05829886441383536	-0.32786215839109545	0.3861610228049308	118.77601558491952
16	6.0	perception	255	diff_vonmises	0.11389719920411033	6.525828812756321	0.6937804974736489	3.5581518556821154	6.709063763811395e-14	5.238605249735567	0.17450976203728186	-0.5819921092594962	0.756501871296778	142.2058419377069
17	6.0	wm	255	diff_vonmises	-0.10772262436177148	-6.172051734002649	1.4582627891574917	1.5947445546739245	0.10508133317699382	3.3287636589567935	0.09220089887730465	-0.4388770494006401	0.5310779482779447	103.25582655737426
18	7.0	ltm	255	diff_vonmises	-0.057009551118718305	-3.26640667103788	1.321428470842025	88.24077257122883	1.3002446877496083	89.20618981253631	-0.044625656003631775	-0.22775601634361387	0.1831303603399821	66.99784182859736
19	7.0	perception	255	diff_vonmises	-0.03171912373505834	-1.817371919872079	1.9728678088524498	1.758312952756777	3.2991208778247284e-19	3.5580854098259143	0.33332957103855443	-0.548890661035374	0.8822202320739284	97.649504938179
20	7.0	wm	255	diff_vonmises	1.1390648962248084	65.26361114518862	0.24874220477363668	75.60603104037433	0.2357956718265539	77.51772592308917	-0.20777658139812338	-0.3720211449467534	0.16424456354863004	125.94929524381493
0	1.0	ltm	256	diff_vonmises	0.33671787107278156	19.292512899100572	0.9019744936172873	98.58738363342844	0.8637803256373386	101.25149874505281	-0.12369749783245254	-0.5555694496885799	0.43187195185612737	81.80633860565112
1	1.0	perception	256	diff_vonmises	-0.08855663454859905	-5.0739214075171395	7.763917799453584	1.0758364093545132	7.157809986189567e-14	3.367705143823584	0.639380734824132	-0.5359867084226357	1.1753674432467678	48.79373698387241
2	1.0	wm	256	diff_vonmises	0.20262894388568947	11.609783291843195	0.7323961171604828	194.41947871189018	0.7151660984909937	197.53811369166752	-0.25740516504022537	-0.6004856436225552	0.3430804785823298	86.388061320482
3	2.0	ltm	256	diff_vonmises	-0.0463918095877979	-2.658054893355367	1.0242358132878557	196.78000417820908	1.008343614945532	198.33478632211708	0.05697723168589164	-0.37142584600916706	0.4284030776950587	80.63971880158374
4	2.0	perception	256	diff_vonmises	-0.040526051215774454	-2.321971694994895	6.339468408502557	1.618916255585835	0.2764621141641821	2.913295999773288	0.9913906345894945	-0.47565269823373135	1.4670433328232257	51.83229029633878
5	2.0	wm	256	diff_vonmises	0.052006832555226916	2.9797720112580732	6.371724898497215	0.48180811083126324	0.09139035223945606	2.4545385843715204	0.04772274670990995	-0.39518998001145034	0.4429127267213603	51.950173861991345
6	3.0	ltm	256	diff_vonmises	0.07355032517579367	4.214123214387782	0.8546208915899919	181.08177715115156	0.8395157523968638	182.32160061307096	0.136148652078262	-0.32578061594382746	0.46192926802208945	91.3571213336491
7	3.0	perception	256	diff_vonmises	-0.014402702545177714	-0.8252140694210118	2.144421997381843	3.337658483379694	0.36707342268468424	4.466153415030767	0.8033474540560822	-0.5053744185945273	1.3087218726506094	82.47869933436638
8	3.0	wm	256	diff_vonmises	0.1212610574346128	6.9477468102967865	1.8171847409079962	1.950170130739537	0.597696223668544	3.558618543823452	0.005777766240425697	-0.3660264224698331	0.3718041887102588	74.54836453628775
9	4.0	ltm	256	diff_vonmises	0.1713243469443579	9.816162007746751	1.5007237943704155	0.8886632548942851	5.929024296321733e-20	2.6918039616268272	-0.0433772790557313	-0.4092714956710924	0.3658942166153611	110.31900232042179
10	4.0	perception	256	diff_vonmises	0.030784452158939716	1.763819183329641	0.8342219875231135	467.8089617250344	0.8220138184788077	470.2970421413467	0.32433517556629	-0.6753606582396969	0.9996958338059869	93.01041080429948
11	4.0	wm	256	diff_vonmises	-0.2267379934257027	-12.99113007855777	2.0676160707663565	1.0552734597534288	0.03845131225086708	3.8772972820685982	-0.08560920477703338	-0.5849543999198822	0.4993451951428488	91.22888138386242
12	5.0	ltm	256	diff_vonmises	0.03207731897275339	1.8378949952336907	0.9080546097815199	40.66265204831301	0.8375375253721408	42.04294508649586	0.11769224702250902	-0.34925682187262286	0.4669490688951319	89.20247228969117
13	5.0	perception	256	diff_vonmises	-0.002475998628163881	-0.14186427147397201	1.7550449154185985	3.1702496009947767	0.2877966247538361	4.555779389470437	0.5636138451842408	-0.5068143457687608	1.0704281909530016	90.55592102441176
14	5.0	wm	256	diff_vonmises	0.003123165064979622	0.17894417694603384	1.7661038751713187	1.3455687354823118	0.019425294811908585	2.887153671416316	0.17520843676385023	-0.4318006516067686	0.6070090883706188	101.40781842093696
15	6.0	ltm	256	diff_vonmises	-0.12989080071088738	-7.44219467830872	1.0510398739182836	1.3031024024119033	1.7748123792371365e-15	2.6549969676215945	0.035265919157057124	-0.3666056412395037	0.4018715603965608	126.37283860741876
16	6.0	perception	256	diff_vonmises	0.1119011689921276	6.411464705829108	0.1032790662044923	196.12005178523694	0.0926139872745663	197.77367756623585	0.06024133756216088	-0.5552227611049148	0.6154640986670756	167.97910644869802
17	6.0	wm	256	diff_vonmises	-0.31201795223466744	-17.877311795360956	0.5244646925942473	131.89420972405182	0.5060621526342857	133.41336522106707	0.0781355743314407	-0.40694459735281363	0.4850801716842543	116.23285761911046
18	7.0	ltm	256	diff_vonmises	0.02888664491580633	1.65508283796874	1.5434051463585003	0.6960457107464926	0.03693804117971979	2.841347077457137	-0.16232357246707269	-0.421663976262914	0.25934040379584133	103.4273535840511
19	7.0	perception	256	diff_vonmises	-0.08316763233954579	-4.76515432515171	2.7233382648817175	2.412574660556854	0.25305273930334343	3.9135684713913337	0.7051093233409866	-0.5259128690383568	1.2310221923793434	76.10965441477421
20	7.0	wm	256	diff_vonmises	1.2937100860858881	74.1241278462278	0.00233629954779036	443.15566894646435	2.0767711907292494e-19	445.3192455343835	-0.17946795008288063	-0.5090273814008413	0.3295594313179606	136.3091790794908
0	1.0	ltm	257	diff_vonmises	-0.31752089426902286	-18.192607148834657	0.2028544729442663	56.983200950991595	0.1887595625677659	58.4138316210067	-0.13357057358869362	-0.3010969263352017	0.16752635274650807	150.8624859033515
1	1.0	perception	257	diff_vonmises	-0.08761137994469002	-5.019762308147842	11.533746551126855	0.8803213888836251	9.643202225872916e-20	2.6978272242786305	0.7498720577344071	-0.4293725382387166	1.1792445959731237	39.9302113333317
2	1.0	wm	257	diff_vonmises	0.029088412700797404	1.6666432804904314	8.801272263992825	0.15727887649102548	5.959167400523004e-24	1.744675059732516	-0.0943499422500173	-0.2776736556897255	0.1833237134397082	45.791469289327665
3	2.0	ltm	257	diff_vonmises	0.29216311667574557	16.739713514908463	0.24713961173010643	103.54105385635319	0.235257534141884	104.26004541809806	0.07341825314167494	-0.2589856532474055	0.33240390638908046	149.51113414283157
4	2.0	perception	257	diff_vonmises	-0.036301680940361764	-2.0799331071132308	8.583842231522295	1.4692629951333074	0.5247144988225041	2.4156707896815166	1.0836063095746553	-0.4445918297572697	1.528198139331925	44.043385120192
5	2.0	wm	257	diff_vonmises	-0.06496232029099827	-3.722066780051271	8.159651231173223	0.40863213597480447	0.2496305410389408	1.6923110883888979	0.11766028963639652	-0.29282969441364476	0.4104899840500413	44.964367951702684
6	3.0	ltm	257	diff_vonmises	0.08497987169403917	4.868987991631694	1.7442889207707581	121.84644865474147	1.7283936482598896	122.05699089136077	0.22211474995135205	-0.1277237799707578	0.34983852992210984	68.34052226158789
7	3.0	perception	257	diff_vonmises	-0.010136284739371015	-0.5807663355088227	1.5848031926155932	116.5262390765947	1.5234839492284846	117.07851257096745	0.994092835512582	-0.46078725943783105	1.454880094950413	73.5595780555307
8	3.0	wm	257	diff_vonmises	-0.016156196841370443	-0.925681891993118	2.0165140142588767	2.225694496176681	1.0768802306350655	3.028732772986632	0.0750837758351921	-0.22677656371577448	0.3018603395509666	66.75786830484813
9	4.0	ltm	257	diff_vonmises	-0.10247600978048395	-5.871442861763076	5.951269804736084	0.3262629183830957	3.886899335393874e-29	1.5403477353993833	0.06508321516701487	-0.24515185481352617	0.31023506998054107	55.859776706787784
10	4.0	perception	257	diff_vonmises	-0.04614049665432101	-2.643655722930089	1.5337391735702939	4.877092202833781	0.5055240597587075	6.201513378787922	0.6046053795492548	-0.5070461643179413	1.111651543867196	89.1482654999464
11	4.0	wm	257	diff_vonmises	-0.29401586674190516	-16.845868274191993	1.2957012799055976	224.7777790343349	1.278932830574362	226.3906346112084	0.051752381642771184	-0.4085340654121197	0.46028644705489086	71.0869124028523
12	5.0	ltm	257	diff_vonmises	-0.17055272224025247	-9.771951168833478	3.6430980110153937	0.5520145549454861	0.4103602005225448	1.1622830075036448	0.1357130161036496	-0.1707452227015008	0.30645823880515044	63.42159334206491
13	5.0	perception	257	diff_vonmises	0.023576546181506296	1.3508365916955878	1.0862722553719912	160.12892486107668	1.056966101822382	161.13812069634764	0.5257343356917232	-0.40983240470340476	0.935566740395128	85.93233836267734
14	5.0	wm	257	diff_vonmises	0.09454637079062221	5.417108014581617	0.8526783663830882	106.20433683448334	0.8305424050637105	107.16284345085434	0.15203262164252607	-0.2702943064245815	0.4223269280671076	92.9079697637975
15	6.0	ltm	257	diff_vonmises	-0.3439144833060363	-19.704848406858286	0.8208189269641544	116.48525779194173	0.7996529370931222	117.57597282857296	0.13967385401725352	-0.2959704860368646	0.4356443400541181	94.0200623073639
16	6.0	perception	257	diff_vonmises	0.2323456233280711	13.312423605034839	1.0165043774747635	2.30168066733637	3.626427752291004e-18	3.740565521781939	0.19834801661501666	-0.4914014577772544	0.6897494743922711	127.43691235440662
17	6.0	wm	257	diff_vonmises	-0.12819545379301586	-7.34505845510417	3.74912079901648	0.6670313711488173	5.346735908541768e-17	1.7558156795819833	0.21547947535579715	-0.27917248955575497	0.4946519649115521	70.7770572700357
18	7.0	ltm	257	diff_vonmises	-0.10333623534447374	-5.920730156008952	1.6698211534535832	182.03103290250192	1.6528214641234782	183.01257171745766	0.07165235298883488	-0.2913649577672395	0.36301731075607435	63.22871121135756
19	7.0	perception	257	diff_vonmises	-0.1270045520386388	-7.276824810763639	1.5427557728008452	1.7550087380858481	9.931257029512562e-22	2.8295966698082005	0.322896785608216	-0.41500076702987565	0.7378975526380916	109.09759881179811
20	7.0	wm	257	diff_vonmises	0.46715865264212014	26.766219159411527	4.59313205822116	0.2683999326357378	5.392210227976938e-14	1.4492435031994944	-0.008258629449121202	-0.23063148402886788	0.22237285457974668	63.77019328163365
0	1.0	ltm	258	diff_vonmises	-0.5302214583914396	-30.37945177310088	0.0004854240117601886	899.9004649459274	1.6645675618496073e-27	901.3885399295176	-0.1673034008882439	-0.30634870489930677	0.13904530401106285	172.10361277834198
1	1.0	perception	258	diff_vonmises	-0.017280924619549505	-0.9901240467839044	10.510564122917618	0.8074139318354396	0.05157169659998331	2.874909309467531	0.5498353805217007	-0.46494055961442926	1.01477594013613	41.45943459616177
2	1.0	wm	258	diff_vonmises	0.20468947556817488	11.727843060802599	5.603185721119101	0.219448011379074	7.529022953147966e-24	1.868654851044037	-0.09527231406214659	-0.29740290967286603	0.20213059561071944	57.60748188073114
3	2.0	ltm	258	diff_vonmises	0.489420538011817	28.041731235099192	0.49728665917743275	128.90520956579738	0.48661504556902685	129.64662230035432	0.07570158964844964	-0.22466256095305503	0.3003641506015047	120.0643368041898
4	2.0	perception	258	diff_vonmises	-0.02085636073797095	-1.1949814462880903	8.924672498191878	1.418316046609197	0.47317877296924055	2.4767275695500603	1.0665550745115961	-0.4542226654486466	1.5207777399602427	43.38730050128484
5	2.0	wm	258	diff_vonmises	-0.04363718909888457	-2.50022676518037	8.008328964223532	0.37936627930713623	0.09886871401944296	1.6944970507324917	0.12406501602508097	-0.2764332107301877	0.40049822675526864	46.73174272113758
6	3.0	ltm	258	diff_vonmises	0.11913024476146598	6.825660237192485	1.630620258857539	51.02653084025704	1.609174660206389	51.13306861725668	0.1383803876506775	-0.07192895461469195	0.21030934226536946	71.36982363924977
7	3.0	perception	258	diff_vonmises	0.04568052188596162	2.6173011100205885	2.2179309162557903	8.306185186069296	1.3876816186825653	8.438731278217968	1.0723183728378092	-0.3808571399075904	1.4531755127453996	69.60500125159572
8	3.0	wm	258	diff_vonmises	-0.12730913691088108	-7.294276238446653	4.678216267316849	0.33094941576556636	0.030710591239047954	0.8884907690301866	0.13114978637045713	-0.13950259803738185	0.270652384407839	62.34129325930493
9	4.0	ltm	258	diff_vonmises	-0.47987947385535373	-27.495068526870302	0.9347903911325999	113.51878618327686	0.9193140703204928	114.62748614655501	-0.027776895827578585	-0.24013419796721358	0.212357302139635	81.34737426095397
10	4.0	perception	258	diff_vonmises	0.0065989289576922705	0.37809077858243045	3.0057044843393617	2.207342412223583	0.230144566947876	3.4023434051424597	0.7744975858621348	-0.47108481536281743	1.2455824012249521	73.6770441083373
11	4.0	wm	258	diff_vonmises	-0.3781158089569671	-21.664440020409145	1.1047891727837926	102.81915117549495	1.0739497523731139	104.33597186123431	0.054929183301659634	-0.3670482742222738	0.42197745752393345	77.74043693831034
12	5.0	ltm	258	diff_vonmises	-0.13411734957519644	-7.68435809013944	4.478082584374179	0.30072289727122703	0.17217051103107697	0.750833405128603	0.10488920739835855	-0.11631858347571808	0.22120779087407663	61.16358028250173
13	5.0	perception	258	diff_vonmises	-0.014791518444792288	-0.8474915794765093	2.305392606937217	2.4094887154261064	0.4030165274844549	3.197319394626559	0.6221902893328262	-0.36612925823866216	0.9883195475714883	79.50565665148397
14	5.0	wm	258	diff_vonmises	0.17915718925979296	10.264950814012657	2.314685239366362	0.9616539623345293	0.21537855955953525	1.7879200182184736	0.19264515751809919	-0.2370670666198697	0.4297122241379689	81.51474679922
15	6.0	ltm	258	diff_vonmises	-0.5216242678189904	-29.88686903762988	0.7281404467737134	134.06425538418353	0.7147757817965366	134.78293032508475	0.1352585027177966	-0.21906473432453666	0.35432323704233326	101.319341398784
16	6.0	perception	258	diff_vonmises	0.276008959216942	15.814148470929242	1.079400723019972	2.6482129465514643	3.8364232837644816e-17	3.4360016720826776	0.39768709726385054	-0.43779515361544585	0.8354822508792964	124.76402222831123
17	6.0	wm	258	diff_vonmises	-0.1834762578741382	-10.512415217042058	3.3345782939447166	0.6294380047191335	4.100501409249635e-18	1.3428598698653622	0.22386316788725139	-0.2131671502092804	0.4370303180965318	75.16152609475898
18	7.0	ltm	258	diff_vonmises	0.18130802221564365	10.38818446482055	1.2569393893333434	129.1133814765862	1.2409668697613236	129.86904507646412	0.08584870223667451	-0.2068930578327972	0.2927417600694717	74.55005493191874
19	7.0	perception	258	diff_vonmises	-0.07946746635138374	-4.553150430532171	1.7305150593107486	1.5070900984133655	5.87418062429874e-23	2.1905396450718086	0.3634038567887467	-0.3262766821688751	0.6896805389576218	103.75115219665273
20	7.0	wm	258	diff_vonmises	0.3187808221497906	18.26479569889351	2.3032515629759542	0.41603788769801364	1.654216420154908e-12	1.4445413235754403	0.003686477992653564	-0.22757296525306042	0.23125944324571399	90.51165182238404
0	1.0	ltm	259	diff_vonmises	-0.3611326219295172	-20.691375081054932	0.0002543065022782063	2146.5541345029196	3.7750952147416217e-26	2148.0419495975693	-0.14990893846822928	-0.3236662685483793	0.17375733008015004	176.29068993524555
1	1.0	perception	259	diff_vonmises	-0.024332268669871628	-1.3941363007620458	10.730224744968591	0.8179240501864624	0.05762367644408877	2.808256619447895	0.5825238924196757	-0.4554530634745291	1.0379769558942047	41.018469040916585
2	1.0	wm	259	diff_vonmises	0.18995238049746035	10.883469710967606	3.8180756307811343	0.4975021554276575	0.08828797414201922	2.2132707828132174	-0.011138962986366407	-0.34337556742018877	0.33223660443382236	66.0211180473346
3	2.0	ltm	259	diff_vonmises	0.18550222978548242	10.628494856974132	1.7312574071399667	0.7036607933874166	0.025101944296883037	1.4757935006615024	0.09173113255296436	-0.21859504753380465	0.31032618008676904	101.88775230355802
4	2.0	perception	259	diff_vonmises	-0.018848948585361326	-1.0799652022002875	9.429745451495428	1.1764633254701717	0.237789149545795	2.2541915604073095	0.9724134644263374	-0.3859818663101541	1.3583953307364913	43.131390306621
5	2.0	wm	259	diff_vonmises	-0.07698069102921483	-4.410668699974607	6.31388260869727	0.47789634827148486	0.13283793495722374	1.6928306307167502	0.16234565735100998	-0.2735030603675423	0.43584871771855227	52.131472716642634
6	3.0	ltm	259	diff_vonmises	0.037239377681966085	2.1336591728703276	1.1120416707112264	68.0908109300657	1.0946797127163952	68.29007028076245	0.1496021073474374	-0.09690737623591605	0.24650948358335345	85.74674915513862
7	3.0	perception	259	diff_vonmises	0.0708980988673143	4.0621618405983515	1.964064706056375	16.63222418268904	1.5628769106213052	16.685638780225165	1.0769733621945248	-0.36628872131560297	1.4432620835101277	70.59414732846199
8	3.0	wm	259	diff_vonmises	-0.12167274993383086	-6.971335052959175	3.6200825137375907	0.510705414185446	7.195104091889429e-15	1.0023991288391578	0.21216762507727274	-0.15927019212311758	0.3714378172003903	72.05619921544596
9	4.0	ltm	259	diff_vonmises	-0.47469798146579717	-27.198190881369555	0.9833782887796214	82.29769574198932	0.957790174264486	83.3531126212156	0.04710945941549127	-0.2532218900476231	0.30033134946311435	82.93289541997399
10	4.0	perception	259	diff_vonmises	0.012166234308540295	0.6970738784466224	2.582581952733025	2.9976430474511506	0.42981188393502234	4.133627360192298	0.834584567298096	-0.49709646812133423	1.3316810354194302	75.26766711064698
11	4.0	wm	259	diff_vonmises	-0.41400246835346177	-23.720594144651788	1.8171576127089932	1.874404047308694	0.5426915238600469	3.121909858298694	0.11705395828823473	-0.31446681824919276	0.4315207765374275	78.64401118332523
12	5.0	ltm	259	diff_vonmises	-0.017674458325334794	-1.0126718672215447	2.281141716932714	0.45849304134681945	5.062842356062239e-17	0.7538088694005695	0.1359899913827285	-0.1173006215239941	0.2532906129067226	91.0373908658238
13	5.0	perception	259	diff_vonmises	-0.019784262053075603	-1.1335547164220612	2.394013109814109	2.226637834899919	0.36922620637681275	2.675299988658857	0.68371872955316	-0.3115438482719636	0.9952625778251236	79.80959024904678
14	5.0	wm	259	diff_vonmises	0.07112513090347244	4.075169818084475	2.327206993413926	0.8893102176099583	1.0614172817222477e-10	1.3956813797826875	0.280281697713355	-0.217346872079624	0.497628569792979	90.13751290725853
15	6.0	ltm	259	diff_vonmises	-0.49011732217049153	-28.081654026622818	0.627851241844052	74.68792513569268	0.6087813178013793	75.14257621547668	0.14853958369834785	-0.18006449582221506	0.3286040795205629	111.80517336837828
16	6.0	perception	259	diff_vonmises	0.2637953377475686	15.114359508163773	0.9211916606607026	2.851106003215802	1.22372137328749e-19	3.0260904678280043	0.4499992652956282	-0.33401198549128164	0.7840112507869099	131.256585607347
17	6.0	wm	259	diff_vonmises	-0.2565421012806166	-14.698779670797043	2.4635187052740677	0.6190592562685839	3.4788035294284046e-18	0.9431948790190323	0.21158216560270976	-0.14749239424517344	0.35907455984788317	87.59567184793401
18	7.0	ltm	259	diff_vonmises	0.2846682472632653	16.310289129571647	1.1373810139118266	115.77098022404857	1.1206844913603018	116.31890893586453	0.16091598936649376	-0.17881154876783434	0.3397275381343281	81.7010106714097
19	7.0	perception	259	diff_vonmises	-0.050487399625814694	-2.892714917149554	1.8652477480094134	1.442125483143626	1.6658932471706274e-17	1.6810593843352695	0.44562516568479976	-0.25044620662841366	0.6960713723132135	100.24998848660557
20	7.0	wm	259	diff_vonmises	0.03462242749824404	1.983718972147069	0.47935404808740284	33.46854102601484	0.44451187621006555	34.150762523596605	0.05527852973525782	-0.20219954372175053	0.25747807345700835	123.65909622595427
0	1.0	ltm	260	diff_vonmises	-0.8405901171160673	-48.162266011158245	5.079374445639689	0.2288671754399823	4.3989784330461594e-18	0.879301171793575	0.06018205033473861	-0.1399373755751912	0.20011942590992982	60.56203621944488
1	1.0	perception	260	diff_vonmises	-0.08992328323891301	-5.152224609549211	13.556366659022057	0.8304208605888809	0.02933419496520866	1.9735453069965136	0.8846952479972932	-0.31750611721452393	1.202201365211817	36.69947062469123
2	1.0	wm	260	diff_vonmises	0.005581951329435739	0.31982225262410685	9.25809842250405	0.21027159467579	2.730156295648873e-28	0.9483015100494817	0.10064667976342007	-0.1509268705786626	0.2515735503420827	44.63073281720122
3	2.0	ltm	260	diff_vonmises	0.2537703358112208	14.539969207600567	0.11222265274636031	69.34888790123868	0.09636834609110259	69.55951369086148	0.14677366564580652	-0.19578338348352098	0.3425570491293275	166.3224244374362
4	2.0	perception	260	diff_vonmises	-0.016229070077395175	-0.9298572208567958	8.564075304343111	1.3004390268982056	0.45727501385698804	2.018976833216829	1.0126703502706575	-0.36291242176075433	1.3755827720314118	44.46498803082352
5	2.0	wm	260	diff_vonmises	-0.1415645263082742	-8.111049886232822	4.648766376384959	0.8327665093633737	0.9946190083833645	1.5166981246497064	0.17779880286440009	-0.2463037942595462	0.42410259712394627	52.148354768502685
6	3.0	ltm	260	diff_vonmises	0.1431540036037063	8.20212022689295	1.9308239367465918	79.47676750786654	1.9131502024050482	79.29032310058642	0.3167802719088755	-0.05712936071433106	0.37390963262320653	70.97772511400737
7	3.0	perception	260	diff_vonmises	-0.00243013675171111	-0.13923657951267784	1.8285139077447523	297.94642996737565	1.8021568999601902	298.278534506342	1.118882979842823	-0.45525612446828134	1.5741391043111044	68.56812737333607
8	3.0	wm	260	diff_vonmises	-0.12835710625598098	-7.3543204589799664	1.8280887923657771	3.5739652137416478	1.2828917818374939	3.9872389478773345	0.1735631585430204	-0.15928212629525346	0.33284528483827386	70.14802283002547
9	4.0	ltm	260	diff_vonmises	-0.25365571066558923	-14.533401670529805	4.897649178708378	0.5651050291407397	0.08920869303684276	1.453965336611973	0.23207189056937622	-0.22737401974371688	0.4594459103130931	59.92906181981749
10	4.0	perception	260	diff_vonmises	-0.06201440743281447	-3.5531638149049916	1.0582885732158882	245.39206998338096	1.0357690332049638	246.36623329708098	0.7012021739514296	-0.46725030950894464	1.1684524834603742	87.9649022503801
11	4.0	wm	260	diff_vonmises	-0.4318727710162495	-24.744487065850922	1.7448881609408855	196.0892000068888	1.7249426307698177	197.15719843485442	0.1458464890188651	-0.3433517752430859	0.489198264261951	62.98748251407331
12	5.0	ltm	260	diff_vonmises	-0.1266223228975717	-7.2549246941735825	1.7458553115683506	3.5600025620999753	1.4613454141432392	3.4545012885419633	0.21822546239695217	-0.047340305731366855	0.265565768128319	76.82773557889186
13	5.0	perception	260	diff_vonmises	0.026657559492201804	1.5273656510220694	1.2367186812689703	261.5212926975533	1.2213945392912788	261.6532355189841	0.6863951565790813	-0.2668412722241058	0.9532364288031872	84.26735391165798
14	5.0	wm	260	diff_vonmises	0.06520176802913324	3.7357861248603585	1.1973000322299705	68.94769634519578	1.171528851914164	69.01939939668667	0.30215561498482657	-0.12167181724325005	0.4238274322280766	85.67481115108524
15	6.0	ltm	260	diff_vonmises	-0.4324291631975334	-24.776365989592566	0.8712395360676594	90.7238929153689	0.851292090872003	91.09630243946515	0.22847512669368797	-0.17313860617543675	0.4016137328691247	96.63481594159764
16	6.0	perception	260	diff_vonmises	0.17455590114484035	10.001316424702166	1.60086141662222	1.5656676326070105	1.0529658013773188e-14	1.8735575453978814	0.40731856523589816	-0.2694775282026778	0.6767960934385759	107.31014030664065
17	6.0	wm	260	diff_vonmises	-0.06692589739026131	-3.8345714605875836	5.8459344910832325	0.47127171278518426	5.564132960733897e-18	0.6340173537373647	0.34301902042235694	-0.10090328377118161	0.44392230419353856	56.3717158955524
18	7.0	ltm	260	diff_vonmises	0.14393766969803987	8.247020986645763	2.2462968890840105	18.451598102236503	2.1152631153919343	18.63619781890937	0.2624023576107266	-0.14437909389127634	0.40678145150200296	60.99292262801879
19	7.0	perception	260	diff_vonmises	0.1440095103182918	8.2511371509838	0.07418485071779586	57.06395606124979	0.035725373304757085	57.41344004116179	0.3009728412130155	-0.393076994336516	0.6940498355495315	173.02349225577427
20	7.0	wm	260	diff_vonmises	-0.5473446183863684	-31.360536572737548	0.00019710899619820955	4807.45997040003	1.4739174326137593e-31	4807.796264926143	0.09729571556192695	-0.20432672565152643	0.3016224412134534	171.61333375156175
0	1.0	ltm	261	diff_vonmises	0.19219713586114484	11.012084719346083	1.0828418447278567	0.799093113159296	3.277435230704733e-17	3.9184717220428418	-0.33811232612018344	-0.5909017781959502	0.2527894520757668	124.91611050435216
1	1.0	perception	261	diff_vonmises	-0.028412579163287408	-1.6279208711377124	12.436436596878517	0.7004533677338273	0.0050766171372093934	4.209747904368217	0.3015051185543237	-0.6708890697122122	0.9723941882665359	38.38884782335495
2	1.0	wm	261	diff_vonmises	-0.038692781432475176	-2.2169330737029833	4.495237719766693	0.6277541163053847	0.16126612809307414	4.214505291927578	-0.26887515713436116	-0.677546578130324	0.4086714209959629	57.700763386767505
3	2.0	ltm	261	diff_vonmises	0.00040849233960762755	0.023404887022941773	2.106430882309133	0.7773517207984286	7.323057948034308e-11	2.4397096129341667	0.02546770843089674	-0.3821665698918614	0.4076342783227581	94.64033518106407
4	2.0	perception	261	diff_vonmises	-0.05425965163971572	-3.1088490368058075	10.007143311483281	1.0905422595303613	0.1305115505471059	3.08704978223725	0.80078163548847	-0.5134287433166967	1.314210378805167	42.1143045521855
5	2.0	wm	261	diff_vonmises	-0.0503163552456346	-2.8829147960558035	4.509074051071935	0.7811059454763838	0.10048171993212024	3.2085115880045723	0.07763769247917585	-0.5034404238018214	0.5810781162809973	61.133158500049035
6	3.0	ltm	261	diff_vonmises	0.00903756011055152	0.5178140514303877	2.0205374119218806	1.1115083299795465	0.16208402343140707	2.309951900644763	0.14741808014032076	-0.3089638333954379	0.4563819135357587	87.33866197653896
7	3.0	perception	261	diff_vonmises	-0.007390643456050545	-0.42345267791767677	3.542969157727678	2.81116926651377	0.31715645265860243	4.256428063454768	1.1142807471372338	-0.6022263999455552	1.716507147082789	67.31512608896082
8	3.0	wm	261	diff_vonmises	-0.07308971934775425	-4.187732444421995	3.1985299855703904	0.7881968131832473	2.1373482825138698e-12	2.765001978320303	0.09526466961651009	-0.43917160413220524	0.5344362737487154	76.78077113719021
9	4.0	ltm	261	diff_vonmises	-0.021399783026810455	-1.2261172499319333	0.0005921899049201537	2072.219401070564	7.331660364298538e-24	2074.399397111635	-0.15162318252981777	-0.5422332816974631	0.39061009916764533	179.95340609492126
10	4.0	perception	261	diff_vonmises	-0.014296899972638114	-0.8191520285528661	2.1283371422589132	2.935473698974172	0.09417639568365624	5.3363227758879	0.6410813513149483	-0.7518315909749952	1.3929129422899433	89.29256665294687
11	4.0	wm	261	diff_vonmises	-0.17264622092462056	-9.89189980786396	0.5985567867149695	101.62594237533551	0.5600965381476367	104.81291943418168	-0.08412251591214215	-0.6912644018880023	0.6071418859758602	104.21545598493726
12	5.0	ltm	261	diff_vonmises	-0.011201921488683158	-0.6418228237384491	1.9474701875430216	1.094495111330257	0.029735532358000718	2.050689331103502	0.21943832456797913	-0.30544122706445964	0.5248795516324387	96.50923301267937
13	5.0	perception	261	diff_vonmises	-0.005912657826115606	-0.33877033914142035	1.1847420776498203	8.372568427215393	0.5859949847689085	9.718550019055549	0.5956115542460743	-0.5281243504092012	1.1237359046552755	94.86399733431782
14	5.0	wm	261	diff_vonmises	-0.03910158751300272	-2.2403559367564965	2.534472706177176	1.204041703392221	2.1971842142551252e-20	2.6098667731852574	0.2999527995819632	-0.4108742768616783	0.7108270764436415	86.39944189005666
15	6.0	ltm	261	diff_vonmises	-0.22063097494639414	-12.641223694284989	0.3345990849400243	48.06448486183155	0.29990796339142833	48.957817252975744	0.1120916352333694	-0.3209906406240677	0.4330822758574371	141.31201283718536
16	6.0	perception	261	diff_vonmises	0.10971704813483324	6.286323798759645	0.5996670406871287	4.102314430188984	7.049571569603707e-19	5.079355490524274	0.2807230561729014	-0.4801421720226685	0.7608652281955699	146.84934854215146
17	6.0	wm	261	diff_vonmises	-0.10904530395626173	-6.247835692415015	0.6559508653090794	82.06922655204623	0.6257429965575957	83.22260146195238	0.1589516195023286	-0.33736346489307234	0.49631508439540095	106.57260518488488
18	7.0	ltm	261	diff_vonmises	0.34146682071236956	19.56460767056914	1.362312593034584	80.86147936812789	1.3392137814329355	81.46166267871101	0.09362239162481245	-0.17587724825126294	0.2694996398760754	72.3622566855716
19	7.0	perception	261	diff_vonmises	0.04710780307511451	2.6990782983374624	1.5613310885272809	2.073501423559357	2.430327698986746e-16	3.53153615619803	0.3581652866965319	-0.521533116801303	0.8796984034978349	108.57435356403042
20	7.0	wm	261	diff_vonmises	0.3668731334585771	21.020282163916256	0.00023367218104268647	2297.1368569400456	4.70027190505961e-28	2298.5055112728583	-0.13239240787112294	-0.3032538156438136	0.17086140777269065	175.80691727818294
0	1.0	ltm	262	diff_vonmises	-0.24541801131280272	-14.061416264717488	0.0004830256354767081	886.1379897727559	1.5302951144712203e-29	888.224069938683	-0.26387911330584757	-0.40012437442086934	0.13624526111502178	178.25627379584876
1	1.0	perception	262	diff_vonmises	0.013849828336537362	0.7935367106642844	8.64554462350518	0.9550226085519189	0.14998083180023997	3.5773933068421555	0.4452748830518103	-0.5962518883678103	1.0415267714196206	44.78087998128379
2	1.0	wm	262	diff_vonmises	0.2117882203590275	12.134571177158932	4.60646273724465	0.26415613763510043	1.5721340067310327e-23	2.828893077966849	-0.23100639392398276	-0.45021045028788953	0.21920405636390677	63.676365777553684
3	2.0	ltm	262	diff_vonmises	0.35345239363727704	20.251330414212607	0.8932763949692948	117.77370391143502	0.8778704363372434	118.61387889591113	0.07818850247548426	-0.2149115716984582	0.29310007417394246	88.75689024333883
4	2.0	perception	262	diff_vonmises	-0.013250786985543791	-0.7592141694985378	8.562500206964039	1.349285643655167	0.3818766975474578	2.5606455240958175	0.9747849112533614	-0.4543322535178453	1.4291171647712066	44.490758866932595
5	2.0	wm	262	diff_vonmises	0.024815741414906993	1.4218372485621766	5.116765531353242	0.5685657525025298	0.11155630245271406	2.3361549045932692	0.08465454057399269	-0.3706930294932745	0.45534757006726717	57.485118055230885
6	3.0	ltm	262	diff_vonmises	0.27097909027031314	15.525958208783493	7.336523390036622	0.1927908324257233	2.3058354807766994e-22	0.45827236094468243	0.1315360981539514	-0.07293622474475678	0.20447232289870818	50.22610836370137
7	3.0	perception	262	diff_vonmises	0.02648040758258362	1.5172155942682644	3.9538171356358394	2.529209495674218	0.7138025211840433	2.9973498141327757	1.071245788552209	-0.40482560681881236	1.4760713953710214	61.29514462297104
8	3.0	wm	262	diff_vonmises	0.02518082375568961	1.4427549258637775	1.6621008673114364	0.589855111100229	1.1530746844310156e-20	1.6115215923576633	0.01544089865552678	-0.24669110594248528	0.26213200459801206	105.65218047156691
9	4.0	ltm	262	diff_vonmises	-0.5523888503737129	-31.649549776497274	0.8715201087680383	134.06912834705128	0.85586933375606	135.3144767103721	0.0087861658297399	-0.2803333053883108	0.2891194712180507	86.38532180663479
10	4.0	perception	262	diff_vonmises	0.03513313272507245	2.012980226219608	2.4413188534331067	2.889807427284085	0.3955275603160739	4.405219735335828	0.6777881607478746	-0.5342700407243853	1.21205820147226	76.72443935382833
11	4.0	wm	262	diff_vonmises	-0.3227793625476024	-18.49389518790069	0.9106477898996652	6.206037076514007	0.43843651962507535	8.552387245132516	0.003076215482738842	-0.5285876419938066	0.5316638574765454	99.46031471896912
12	5.0	ltm	262	diff_vonmises	-0.07987862608151736	-4.576708147774565	1.1032739092601216	35.042485999517496	1.0574097785981633	35.359549343350096	0.18979106646065347	-0.13742049087155594	0.3272115573322094	86.01477739196619
13	5.0	perception	262	diff_vonmises	-0.04334763561757889	-2.4836365727582344	1.112637217761504	239.84030757286334	1.0919265871385093	240.36361274925093	0.7417609679637565	-0.3798425366560245	1.121603504619781	87.32197163866903
14	5.0	wm	262	diff_vonmises	0.1349752914586924	7.733514539131263	3.2193891666379635	0.987896422370456	2.3721029051054103e-19	1.6667147987149837	0.4081461017485579	-0.26418947041817537	0.6723355721667332	76.5232135624772
15	6.0	ltm	262	diff_vonmises	-0.3917875580891532	-22.447773544245056	0.6335894068129687	129.3912861533274	0.6223349658354096	129.63296249098997	0.2110946436756791	-0.16475814556189228	0.37585278923757137	113.96766309332769
16	6.0	perception	262	diff_vonmises	0.18555129406456705	10.631306033090535	1.0133113826995896	2.723763249832152	3.109560519766493e-18	2.9997308677880286	0.4601516927902699	-0.353863517617663	0.8140152104079329	127.72764250914852
17	6.0	wm	262	diff_vonmises	-0.23375366431839953	-13.393098411162079	2.1494850195278747	1.1356822281426793	3.133893972260193e-12	1.3002189760750889	0.4049122892065324	-0.19862497783761748	0.6035372670441499	93.66361810608161
18	7.0	ltm	262	diff_vonmises	0.23569871059567393	13.504541353807534	1.0897194452981758	132.73038721433855	1.0746098139524336	133.489374714586	0.10620539212181512	-0.2080967529307287	0.31430214505254384	81.03817548877018
19	7.0	perception	262	diff_vonmises	-0.043397040453021826	-2.486467261316653	1.8502578826505403	1.7600777372662846	3.81231412847824e-18	2.421364838585731	0.48072745259655764	-0.36396733228039807	0.8446947848769557	100.63268588079946
20	7.0	wm	262	diff_vonmises	0.2695113032691141	15.441860208390624	0.47494279666448985	110.95203801272734	0.45995861614726435	112.15389436872405	0.021474644401564547	-0.307462073624583	0.32893671802614755	120.24300332656924
0	1.0	ltm	263	diff_vonmises	0.2735071053276606	15.670802802115025	0.563253464829229	147.08783387403705	0.5472088097007283	149.78132998882953	-0.24396270765131334	-0.5061408125495355	0.26217810489822213	97.75784760214768
1	1.0	perception	263	diff_vonmises	-0.06358501384169804	-3.6431529334102186	9.553153137971876	0.8909495015822292	0.016350371306694395	3.776453082684952	0.4723617482225313	-0.6026457586901511	1.0750075069126823	43.728600471071786
2	1.0	wm	263	diff_vonmises	0.0007765778364043065	0.04449463248936766	7.285584197245402	0.2659826278573187	0.12658330962638992	3.5193553434951124	-0.35202062593973904	-0.5875162236941448	0.23549559775440576	46.13364470379321
3	2.0	ltm	263	diff_vonmises	0.00530957032733815	0.30421597078437096	0.6274477931488501	129.21991471710328	0.6115567164886966	130.67761531935741	-0.0009463655575885355	-0.3305201685873538	0.32957380302976524	102.51144247014076
4	2.0	perception	263	diff_vonmises	-0.055184862444850234	-3.161859711099916	9.163951973564023	1.2385006865939385	0.2271114993224787	3.0201450013847597	0.878620038463201	-0.516635471061989	1.3952555095251902	43.538277795310194
5	2.0	wm	263	diff_vonmises	-0.0712560498869127	-4.082670923293745	3.3864279752913484	0.9814240354995666	0.29412345509523974	3.552949081941989	-0.05439752577863344	-0.541427675368413	0.4870301495897795	63.83908400601959
6	3.0	ltm	263	diff_vonmises	0.1325758210256797	7.596035010253207	1.227308858146235	221.141095110599	1.2133714370228053	222.12832917111064	0.19082222502920843	-0.29280774096393003	0.48362996599313846	77.03692804306476
7	3.0	perception	263	diff_vonmises	-0.05653324881246652	-3.2391165591173046	1.9740764007483873	6.096560736930449	0.7400063685599525	7.655353731985521	0.8835576268685701	-0.6358873497061254	1.5194449765746953	77.2354088536859
8	3.0	wm	263	diff_vonmises	3.772344954070614e-05	0.0021613944473571857	2.8103205714824386	0.9754932402010197	0.387937712574093	3.0466541513235734	-0.07311688205251599	-0.44004747843726943	0.36693059638475345	66.22307534540502
9	4.0	ltm	263	diff_vonmises	0.2868099609649343	16.43300028560262	2.1107091253351937	0.7218782728496432	0.045672227081744725	2.662362050550447	-0.058618887355575466	-0.3997027244877775	0.34108383713220203	89.64212721674033
10	4.0	perception	263	diff_vonmises	-0.018771596762950617	-1.0755332692385084	0.784168035736775	523.5764549562177	0.77318954479152	526.0098596046998	0.37126571082185933	-0.689660794314257	1.0609265051361163	96.60886285849736
11	4.0	wm	263	diff_vonmises	-0.15320160120294962	-8.777805163575369	0.759388595273227	190.0398824528549	0.7376258422286978	193.17828436275417	-0.126088946927716	-0.6503556745600569	0.524266727632341	89.71430219442408
12	5.0	ltm	263	diff_vonmises	0.008076486442609512	0.46274858645615324	1.1005892906780812	211.58429904327988	1.0853435265557545	212.76982193540584	0.18023561942477784	-0.3300978334847642	0.510333452909542	80.87254157300453
13	5.0	perception	263	diff_vonmises	-0.00415932341864849	-0.2383116775184837	0.862901722314177	358.7274737403606	0.8475773197739662	360.4357526610841	0.5145750260469981	-0.5775510294344031	1.0921260554814012	94.49568266590072
14	5.0	wm	263	diff_vonmises	0.03698581269175605	2.1191309690990163	2.3553296540472997	1.2996325755712406	0.1207969862048069	3.158107531097949	0.17436987161336315	-0.4499976262457756	0.6243674978591387	82.80449905032683
15	6.0	ltm	263	diff_vonmises	-0.08832304053614394	-5.060537456483935	0.943358839994602	7.525005600388999	0.5992176747280586	8.897924770913503	0.12898010854872188	-0.3563467216867766	0.4853268302354985	95.89896867755797
16	6.0	perception	263	diff_vonmises	0.09410004180584611	5.391535247479587	0.18043336518018702	10.947679151645735	1.2904534625934477e-10	12.67652850092617	0.052485245296152616	-0.57456905847179	0.6270543037679426	169.4116379371805
17	6.0	wm	263	diff_vonmises	-0.14059495308944597	-8.05549743286505	0.6919929696304511	64.04960153955429	0.6436365316628722	65.76561009657811	0.11942258722412191	-0.4394117460059235	0.5588343332300454	102.09723399899754
18	7.0	ltm	263	diff_vonmises	-0.1962312210856028	-11.243220776903609	1.4746190776107566	122.43159323453514	1.4552160511971666	123.3988229943636	0.00722216920543417	-0.25308227874537437	0.26030444795080854	65.63908241222103
19	7.0	perception	263	diff_vonmises	-0.07132445965259769	-4.086590514144974	0.7878704105344789	97.53800592174545	0.7418285822531816	99.15733849818488	0.38375175170494913	-0.519858807532291	0.9036105592372401	99.17416677784139
20	7.0	wm	263	diff_vonmises	1.0704874215553681	61.33441127696438	0.23044515824157197	81.93903991148383	0.2174596596023725	83.75956649889542	-0.16997547352155706	-0.3789454903552052	0.20897001683364813	131.09584210659727
0	1.0	ltm	264	diff_vonmises	0.13297879070598503	7.619123472206439	4.107040537466651	0.40333516932414604	2.453788053818098e-22	1.8337299576777686	0.02272703641033541	-0.2917619807284671	0.3144890171388025	67.54238476618735
1	1.0	perception	264	diff_vonmises	-0.09189470571391152	-5.265178797003861	11.674956974218253	0.8950852897750226	5.073904052731554e-17	2.5749247311835424	0.7965513853436924	-0.409811998970164	1.2063633843138564	39.69209282321475
2	1.0	wm	264	diff_vonmises	0.09983450644745227	5.720095869210621	3.1504556247372335	0.7930068430605939	0.19842571439385576	2.513651312670138	0.05089994228506256	-0.3733755877137853	0.4242755299988479	69.36043650467747
3	2.0	ltm	264	diff_vonmises	-0.10074342993110934	-5.772173348724499	2.6061227606861364	1.0480557536114297	0.36374474385706934	1.8294753033036733	0.2275050885379058	-0.2357624078731555	0.4632674964110613	74.42158052971169
4	2.0	perception	264	diff_vonmises	-0.034453846426535616	-1.974059988232384	9.33211301541553	1.0246747946007246	0.05069937242473466	2.012126010356045	0.8944816529509484	-0.3231450038414919	1.2176266567924403	44.15506768184662
5	2.0	wm	264	diff_vonmises	-0.12313642034191802	-7.05519718994076	5.26115066321291	0.6202998249774132	0.3249337152348972	1.7063756962931431	0.1865295267231613	-0.27832529489251184	0.46485482161567315	54.663393112551375
6	3.0	ltm	264	diff_vonmises	-0.01618046152957673	-0.9270721562185391	0.9697678133426381	140.47209535527887	0.9541087482564645	140.9420402104516	0.2608806084717372	-0.2005191328653737	0.4613997413371109	91.04429221923064
7	3.0	perception	264	diff_vonmises	0.04671484354161911	2.676563375548746	2.198656115260624	5.605431542887433	0.9977651528360242	5.988145601473112	1.0175321485957771	-0.41386776302965045	1.4313999116254275	73.47580100370826
8	3.0	wm	264	diff_vonmises	-0.07342315712062465	-4.20683702153771	2.643886795114981	1.1737128645663726	0.4454004347645785	1.8206071980912768	0.2840264916830167	-0.2253227823883558	0.5093492740713725	73.30571462544643
9	4.0	ltm	264	diff_vonmises	-0.2583450520450958	-14.802081140271586	3.406648853927115	0.6910404116888607	6.926836986982921e-18	1.7883363287722065	0.20161887788720895	-0.2840881351586523	0.4857070130458612	74.33416029562778
10	4.0	perception	264	diff_vonmises	-0.02648166160348688	-1.5172874443734423	1.065795480732849	314.88114415877016	1.04621803311647	316.0879877690651	0.7368779343482856	-0.5300439475465524	1.266921881894838	87.08988969522537
11	4.0	wm	264	diff_vonmises	-0.34027524829843236	-19.49633560026632	1.1844079562972754	127.83802469973934	1.1615154407932076	128.9138448894602	0.14245347129373442	-0.29619294352991155	0.43864641482364597	77.50119296106433
12	5.0	ltm	264	diff_vonmises	-0.014329065227622556	-0.8209949619104367	1.6023260805610111	0.926953565611462	1.285453236914536e-15	1.1739985480012987	0.23107540569475418	-0.16989100882439545	0.4009664145191496	107.37060781716629
13	5.0	perception	264	diff_vonmises	0.010039314969703615	0.5752103769665251	1.1461618845509436	116.89830782565869	1.1112088126088302	117.239138135811	0.6386034445401378	-0.3015122968393573	0.9401157413794952	86.78340023250692
14	5.0	wm	264	diff_vonmises	-0.021850639729122868	-1.2519494361396206	1.4632194881881015	1.99503222778056	0.34919022159631247	2.332818226086432	0.3405027179912121	-0.21145519268754176	0.5519579106787539	97.27775267065334
15	6.0	ltm	264	diff_vonmises	-0.3455185456830486	-19.796754411136813	1.2305060695406962	1.1092646941840294	5.274311793123556e-13	1.5969717314931735	0.17263058929258013	-0.21773892733475358	0.3903695166273337	118.93271658971109
16	6.0	perception	264	diff_vonmises	0.21319260730628609	12.215036622040111	0.6033644871249033	3.381999821313336	2.0002716136634805e-18	3.5157517321323777	0.3407113135019587	-0.2902121601690737	0.6309234736710324	146.1520209349897
17	6.0	wm	264	diff_vonmises	-0.2570692218176196	-14.728981452861984	2.258130671850441	0.6305192252167563	0.06455673573648939	0.8862090939494269	0.19957659908935477	-0.12826509398052618	0.327841693069881	88.96417929113737
18	7.0	ltm	264	diff_vonmises	0.2102870031662337	12.04855776787937	1.255764221035444	123.68602153178324	1.235821519655753	124.18736723288059	0.25904323969735543	-0.20196355736207217	0.4610067970594276	79.42097660747245
19	7.0	perception	264	diff_vonmises	-0.054409290364400925	-3.11742270418199	1.9255513355371299	1.6285226033045819	2.1317457731724128e-17	1.6091453632404056	0.564950585713111	-0.23865073936880188	0.8036013250819128	98.77148374286708
20	7.0	wm	264	diff_vonmises	-0.051877785263614994	-2.972378146091116	0.8528734060403127	1.1480000688063168	2.6104634338063245e-15	1.6303507710299123	0.10069321991951607	-0.19405799428095183	0.2947512142004679	134.94015582634626
0	1.0	ltm	265	diff_vonmises	0.22560317497371413	12.926109770745256	1.3589318798534105	1.9564417678237387	0.2818053174662106	4.7826224919651965	-0.19075404791960282	-0.5494728412162975	0.35871879329669465	88.47743399331728
1	1.0	perception	265	diff_vonmises	-0.08686178771284947	-4.976813836907587	9.883995698086128	0.9484629465560428	0.020844394386223035	3.8620084651259314	0.5462550614639766	-0.6172935099408963	1.1635485714048728	42.949035292514424
2	1.0	wm	265	diff_vonmises	-0.017336408014494542	-0.9933030111473126	6.128921666425571	0.43184549473618766	0.13266261733910112	3.8624206277233837	-0.2818146860854467	-0.6353379626001899	0.35352327651474325	50.648727707920926
3	2.0	ltm	265	diff_vonmises	-0.11231595749892956	-6.4352303366593935	0.940594023453028	147.51069831197373	0.9202144154478096	148.97901421301341	0.09207278178777045	-0.3599579070058141	0.45203068879358455	85.48747924338986
4	2.0	perception	265	diff_vonmises	-0.06247989262031736	-3.579834151574763	9.946690265326502	1.036078659777352	0.08929371652926255	2.695935969077086	0.8178415407778352	-0.4405629919371112	1.2584045327149465	42.50844242428224
5	2.0	wm	265	diff_vonmises	-0.09954351535035698	-5.703423307471179	3.2798966220127954	1.0538567391700921	0.3211077282395802	3.3059276313046637	0.018894531306119955	-0.494226430784945	0.513120962091065	64.93802894880218
6	3.0	ltm	265	diff_vonmises	0.07115650156470739	4.076967224573772	1.042326338594909	222.71670395817486	1.0271151681650226	223.93809256453534	0.21520244917530817	-0.348455014110737	0.5636574632860452	83.72331144406499
7	3.0	perception	265	diff_vonmises	-0.048461079303310076	-2.7766153147284514	2.7636414245444447	3.1121230628532386	0.3752952494262732	4.688363443354997	0.8957396240434474	-0.6010275337738871	1.4967671578173345	73.64063001980807
8	3.0	wm	265	diff_vonmises	0.009575383785462476	0.5486290781250016	3.029585361154782	1.0162368356282003	0.27994413179362776	3.0345908376549127	0.042606783355567	-0.4433084196775848	0.4859152030331518	68.34091172487643
9	4.0	ltm	265	diff_vonmises	0.0956474656775312	5.4801961044449365	1.675017663349715	1.057196814364768	4.883278345693594e-21	2.9423142950419328	0.021380539302358947	-0.45110289044832547	0.4724834297506844	105.26186370350075
10	4.0	perception	265	diff_vonmises	-0.032301981461450996	-1.850767207650969	0.7739175460957851	577.0297787250288	0.7637065254433807	579.3334526659214	0.4415717382198636	-0.6932434458846686	1.1348151841045322	98.09661797827567
11	4.0	wm	265	diff_vonmises	-0.11481291807055495	-6.578295639024102	0.7601108591347935	216.92681603256358	0.7411707045403408	219.65901660868866	-0.014609986580467194	-0.6015460156480295	0.5869360290675623	92.2486832900631
12	5.0	ltm	265	diff_vonmises	0.028948696981562536	1.6586381594466388	0.951682597568069	85.28622862489517	0.9132905001285843	86.35125102595173	0.2760768768001647	-0.33709909059176635	0.613175967391931	89.81821434043792
13	5.0	perception	265	diff_vonmises	0.002288702792195662	0.13113301055261853	0.8801464370280377	358.8012913641794	0.8657590369183189	360.1683930912468	0.5520390438735916	-0.5161664270359658	1.0682054709095574	94.57079154580575
14	5.0	wm	265	diff_vonmises	-0.022727948795149756	-1.3022155429515254	1.9100356973330654	1.8310221081753295	0.18677532067294342	3.2569249376339884	0.29922168396636517	-0.4161804605340297	0.7154021445003949	89.47391616125475
15	6.0	ltm	265	diff_vonmises	-0.07661987271876507	-4.389995333614794	1.8019478708033183	1.1426338234650264	1.471367143098302e-11	2.271845367248134	0.19173389678648317	-0.34651447567974436	0.5382483724662275	101.85898660488817
16	6.0	perception	265	diff_vonmises	0.1065530437459139	6.105039700913698	0.000293887513888464	6565.575338886505	5.737224613949244e-32	6566.741211684794	0.12156355217166492	-0.4926272643745051	0.61419081654617	179.54339638074993
17	6.0	wm	265	diff_vonmises	-0.24328753221994923	-13.939348804356122	0.6444842175011869	171.796778493776	0.6287064610521766	172.9802615051648	0.19394863061776846	-0.3625812475115815	0.55652987812935	107.59011433079033
18	7.0	ltm	265	diff_vonmises	0.10621861059929479	6.085878093083143	1.1010927086211117	114.87965703811838	1.081327921119109	115.75000116997317	0.11480397914237983	-0.23659851243693275	0.3514024915793126	80.4982588760941
19	7.0	perception	265	diff_vonmises	-0.05189807273271206	-2.97354053244738	0.8883121586976883	65.77674252445797	0.8198669449446931	66.8873490361648	0.5174675739862309	-0.45026934803977436	0.9677369220260053	96.1441376660064
20	7.0	wm	265	diff_vonmises	0.6806634848276775	38.99914494929286	0.13199397377854832	73.74555906583234	0.11830581723344653	75.18967394802387	-0.08776242110677401	-0.3535042745141368	0.2657418534073628	154.20402563053074
0	1.0	ltm	266	diff_vonmises	-0.1683240429225133	-9.644257250038926	0.18409428267207228	54.418960675318445	0.16702480161781652	55.94449899890206	-0.12537539817743415	-0.3378706353788896	0.21249523720145547	155.85330370545813
1	1.0	perception	266	diff_vonmises	-0.08053372794250391	-4.614242719560261	13.621483245799826	0.7881291345933502	1.0828842429194716e-16	2.7969030158686152	0.703915039895024	-0.44514094032242496	1.149055980217449	36.72410391815848
2	1.0	wm	266	diff_vonmises	7.9957899467024e-05	0.00458125017819181	7.510468280031935	0.32615999216076397	0.0037964438123454843	2.0164024618830494	0.028109969935827706	-0.3207298534941051	0.3488398234299328	49.49873627879444
3	2.0	ltm	266	diff_vonmises	0.05257493366872459	3.0123218073981723	1.1007799097966684	1.1801658229636172	2.0736018004957952e-14	1.9976459641328463	0.1077287951181749	-0.27084382040303845	0.37857261552121335	124.46723772144105
4	2.0	perception	266	diff_vonmises	-0.037806617285856235	-2.1661596081459056	9.691477670392691	1.1412690149957019	0.23983185142147556	2.314945038660088	0.9364980171911803	-0.39850069276651223	1.3349987099576925	42.51432823951609
5	2.0	wm	266	diff_vonmises	-0.11806240521444607	-6.764477537951082	5.87915509927674	0.5789938637203434	0.25664652023216333	1.8040666366252527	0.1819155468494248	-0.2971200204454534	0.4790355672948782	52.559537079869614
6	3.0	ltm	266	diff_vonmises	0.021926717964586794	1.2563083979445062	1.2183642770798158	118.91197369959484	1.200195299567765	119.28822838490295	0.25586167376911106	-0.1722313542150662	0.42809302798417725	81.50356999492536
7	3.0	perception	266	diff_vonmises	0.01420442244412973	0.813853456469535	2.6562637791967636	4.325520841513958	0.8465992254518898	4.887570752485913	1.1136862405585675	-0.4717968592286276	1.585483099787195	70.13050687341553
8	3.0	wm	266	diff_vonmises	-0.11752474793065966	-6.733672044765654	2.859753777652378	0.9681470868571961	0.35310518851900835	1.7669066342405162	0.22883076895330184	-0.23735094135253484	0.46618171030583666	71.73575933326376
9	4.0	ltm	266	diff_vonmises	-0.23630991820421335	-13.539560970183127	2.913055338258134	0.6405040515328237	1.8285580756579686e-17	1.9412397012988556	0.10351496982277975	-0.3077410657078866	0.41125603553066636	80.52231113660115
10	4.0	perception	266	diff_vonmises	-0.047103157134903824	-2.6988121055715197	2.2353879046508274	2.8634188571224635	0.19472891839641623	4.166124203996201	0.7812914721882059	-0.5407519218847312	1.3220433940729373	84.94242473047504
11	4.0	wm	266	diff_vonmises	-0.330859350165666	-18.956844376933695	1.224295473669861	189.33765234875273	1.2055897333257348	190.77426652078782	0.10660273350505634	-0.3736842185145228	0.48028695201957916	74.62305758611689
12	5.0	ltm	266	diff_vonmises	-0.04014108745938397	-2.2999148964882177	2.064749254182213	0.6879058065482997	1.670860007048572e-12	1.045285941715019	0.19539856684544174	-0.16054101855998062	0.35593958540542237	95.55462570072478
13	5.0	perception	266	diff_vonmises	0.020499602571762494	1.1745407090575193	1.0919613410168931	158.78323686322537	1.0641866023509092	159.40320498021694	0.6084305701295776	-0.3543573568511196	0.9627879269806972	87.48362941523786
14	5.0	wm	266	diff_vonmises	-0.023960758997619437	-1.3728503644937067	0.878429896857196	86.4067590719855	0.8506936065278968	86.98422541265616	0.2761531029772577	-0.23610793505127603	0.5122610380285337	95.63457518920066
15	6.0	ltm	266	diff_vonmises	-0.39000038838083073	-22.34537626268455	0.6008966605912363	75.84797836377567	0.5772385681245348	76.52589658644457	0.16213762298246692	-0.24249685992083236	0.4046344829032993	113.41675384704321
16	6.0	perception	266	diff_vonmises	0.2035590014603735	11.663071665576762	0.954154550370451	2.5227458268119194	9.049835622723045e-16	3.0775497341765017	0.3503077536331982	-0.36518805261757703	0.7154958062507752	130.1223723330961
17	6.0	wm	266	diff_vonmises	-0.10161763470448297	-5.8222615926689985	3.0435928918451296	0.6023951700714386	1.1280270679161522e-17	1.1787409695019493	0.21018909438846003	-0.18669872530464088	0.39688781969310094	78.75211893223457
18	7.0	ltm	266	diff_vonmises	0.21926144432177141	12.562755369580191	1.6538080504179076	122.41171328746132	1.634739393013391	122.85567398329404	0.19308840548691109	-0.17813605988073888	0.37122446536764997	68.02392441763166
19	7.0	perception	266	diff_vonmises	0.025325524727515644	1.4510456808408505	0.9408279468219214	2.6071465969343994	1.130148966084316e-15	3.228154413158385	0.34783500287730373	-0.38251317898235343	0.7303481818596571	131.07969138458574
20	7.0	wm	266	diff_vonmises	-0.24982414803380087	-14.313869302788294	0.00021226908268311904	3396.6532819943377	8.27354011887578e-32	3397.3168708274607	0.009142350393858578	-0.22035705797895844	0.22949940837281702	178.21024665177072
0	1.0	ltm	267	diff_vonmises	-0.16108442406131138	-9.22945764400875	0.2564710853617393	89.48194978648128	0.24502137808360633	91.5604959219958	-0.2357735443734299	-0.39554480813448833	0.15977126376105844	138.94624065009515
1	1.0	perception	267	diff_vonmises	-0.034531112420063535	-1.9784870035614188	8.589539640814863	1.0226308453079929	0.1142491771203272	3.4792986207747036	0.5585058452880141	-0.5709929627170783	1.1294988080050925	45.297069311279756
2	1.0	wm	267	diff_vonmises	0.15621536245789536	8.95048096394381	5.498772490774499	0.19543035520880953	1.356893010279093e-22	2.717305333313514	-0.2542321453175658	-0.432469591438854	0.17823744612128817	58.15968905715417
3	2.0	ltm	267	diff_vonmises	0.2589281947872183	14.835492758248892	0.7726202577943303	139.84809986496938	0.7604722880831359	140.69924212047542	0.07237513397574702	-0.2178743783937609	0.2902495123695079	95.47946019007315
4	2.0	perception	267	diff_vonmises	-0.027107224524708623	-1.553129559579323	8.576348541108612	1.3672502137703806	0.41543979133857756	2.4721065394320436	1.001152006375266	-0.44246594419584745	1.4436179505711133	44.386146398960165
5	2.0	wm	267	diff_vonmises	-0.007458600553926194	-0.4273463328139089	5.8144280854125805	0.5136973249524859	0.15389793113412267	2.2282048107676795	0.07125777710659958	-0.3610952390157879	0.43235301612238747	53.401044594693246
6	3.0	ltm	267	diff_vonmises	0.18667055681338576	10.695435064764057	1.532561298209932	7.368503101244546	1.3263355614956776	7.7154106951748656	0.13004931705586742	-0.126599494273555	0.2566488113294224	72.89122286632033
7	3.0	perception	267	diff_vonmises	0.0033809995786802773	0.1937170063938894	3.509388021429722	2.6117871742320893	0.6373711126855803	3.2722763507936867	0.9762726313196072	-0.42435542220229006	1.4006280535218973	64.6807468186285
8	3.0	wm	267	diff_vonmises	0.08581809722899156	4.917014777064561	3.9544955249777485	0.3216362108247921	0.030339511718145046	1.4366089335682697	0.010118047871257335	-0.22511037275250256	0.2352284206237599	67.19512182412629
9	4.0	ltm	267	diff_vonmises	-0.2902950565759669	-16.632681555314356	0.7049516580112755	84.76925461238166	0.6833133812605043	86.0293089253207	-0.005043287107870498	-0.2794425962854312	0.2743993091775607	96.24976897401066
10	4.0	perception	267	diff_vonmises	0.013123307936260648	0.7519101579982734	1.3503149415253044	8.90112035859602	0.7479495341005072	10.43560913313228	0.5539159493000074	-0.5341878088196719	1.0881037581196793	86.10710085584913
11	4.0	wm	267	diff_vonmises	-0.20111279218197575	-11.52291419811883	0.8636302806737224	189.69411721503354	0.8435381961622418	191.95292678433387	0.022501658756823417	-0.5104003640010326	0.532902022757856	87.08196251545088
12	5.0	ltm	267	diff_vonmises	-0.08051887186719454	-4.613391529144906	1.1946474405133671	76.63307945087779	1.1665131758466667	77.15048171393033	0.2064088112483411	-0.1875393156708105	0.3939481269191516	80.84413383553843
13	5.0	perception	267	diff_vonmises	-0.02187087652990085	-1.2531089194150462	1.0611552958978396	276.4071873440497	1.0432395972811996	277.2228759254698	0.6467178688423303	-0.412593058788552	1.0593109276308823	88.01203492361611
14	5.0	wm	267	diff_vonmises	0.1277189326188304	7.317755802974725	2.799064641383067	1.021032322164623	3.6900821685784827e-19	1.899842737007918	0.3402749518979306	-0.29998829686699197	0.6402632487649226	82.1769700611184
15	6.0	ltm	267	diff_vonmises	-0.31406759804521717	-17.994747849802128	0.7031966672421602	155.50088131912335	0.6906958345206569	156.05391911742728	0.2140697882097342	-0.22287528710503857	0.4369450753147728	105.91822426918615
16	6.0	perception	267	diff_vonmises	0.20260419866956308	11.608365495396013	0.7249469066113434	3.30265658769426	4.3189781321156936e-15	4.093505589818612	0.30399179134492416	-0.4273398842951659	0.73133167564009	140.34945609826332
17	6.0	wm	267	diff_vonmises	-0.23882097612135533	-13.683433990948274	2.327856092532401	1.1655076585720014	2.2052454157421646e-13	1.6568460020004736	0.3948393730845569	-0.25743400557104335	0.6522733786556003	90.09037219554418
18	7.0	ltm	267	diff_vonmises	0.057087998751655274	3.2709013893179595	1.1231514781617573	175.72477976973832	1.1088542701388822	176.79553143757104	0.08162893310303332	-0.2733929701833908	0.35502190328642413	78.10285459622835
19	7.0	perception	267	diff_vonmises	-0.10265237256263719	-5.881547704843642	2.2085576459806844	1.6670489213455952	1.2164180209335109e-17	2.5084937921858965	0.5136302827699467	-0.3882216632586072	0.9018519460285539	92.48066645629875
20	7.0	wm	267	diff_vonmises	0.4413984453868377	25.290268004301563	1.0225384477591388	2.1197560704026546	0.26432682348374026	3.5187631847619807	0.016474109722909636	-0.32907516493759637	0.345549274660506	105.61490451718822
0	1.0	ltm	268	diff_vonmises	-0.725926955729924	-41.5925507981048	0.28951978278696106	29.086142641916123	0.26516229245595346	29.074236808701578	0.12834465850077326	-0.09390968696232527	0.22225434546309852	141.68836707502496
1	1.0	perception	268	diff_vonmises	-0.11680569328199548	-6.692473248157935	11.353805861351036	0.9997146818479866	5.069583179184368e-22	1.220891059556646	1.133913069607891	-0.19431084692249045	1.3282239165303813	40.25677730195906
2	1.0	wm	268	diff_vonmises	0.2598229524491301	14.886758595963432	1.1269827802669652	1.9223861616084048	0.3625876596674546	1.9647565428500469	0.26783203780171116	-0.13684068306340147	0.40467272086511263	108.55857376151039
3	2.0	ltm	268	diff_vonmises	0.21957168774574728	12.580531008395695	2.054371156885137	0.6960356852358079	0.11647572316006558	0.5485256341775132	0.2671637804202419	-0.07144372770644387	0.3386075081266858	93.08455708484854
4	2.0	perception	268	diff_vonmises	0.01207370981969655	0.6917726157342705	5.369824636858102	2.00014118736239	0.9768828474761767	1.723208408937532	1.220009967758739	-0.25314562651516265	1.4731555942739016	53.861778996096064
5	2.0	wm	268	diff_vonmises	-0.03136857760234934	-1.7972871059432203	5.122375983812564	60.851869727676196	5.0723842223640565	60.79609469147607	0.32696957855441866	-0.10283095946986265	0.4298005380242813	41.33373427312341
6	3.0	ltm	268	diff_vonmises	0.11322554702107245	6.487345977367502	1.2890283437684018	25.485154061601108	1.248517386505678	25.326415318532092	0.2502342232160224	-0.053190372342486913	0.3034245955585093	86.98196094836564
7	3.0	perception	268	diff_vonmises	0.0415057569116046	2.37810469653089	3.3854330258469223	2.931296403483112	1.0946704545167614	2.6537714012316402	1.1011643296138285	-0.260839901940805	1.3620042315546335	64.05057659082948
8	3.0	wm	268	diff_vonmises	-0.05145680592797073	-2.9482578068964784	4.877571098877739	0.3386702472662223	3.6234774617758454e-13	0.2803390192386424	0.24519571268626691	-0.04460053268415705	0.289796245370424	61.837246821032466
9	4.0	ltm	268	diff_vonmises	-0.32711310642679714	-18.7422004216692	7.976744324850897	0.590774628201254	1.3229758488688205e-25	1.0949864418126913	0.48022260373602743	-0.17427242766026144	0.6544950313962888	48.13035972301452
10	4.0	perception	268	diff_vonmises	-0.02665580425466354	-1.5272650833190837	2.3579302797652533	2.9130872997983346	0.5125300231397578	3.4327021058254177	0.8034489450621086	-0.3643593968975418	1.1678083419596503	77.85070864541964
11	4.0	wm	268	diff_vonmises	-0.42061801914959895	-24.09963728442486	2.1862676375370445	116.89778859399416	2.1573847540421807	117.35322764626788	0.2591493917109702	-0.22853390223560766	0.48768329394657783	59.13777015154943
12	5.0	ltm	268	diff_vonmises	-0.28266109849668514	-16.195287976391718	1.1304475496928958	0.7087140956839401	1.5693424684546847e-12	0.44940741742335866	0.1880220023274357	-0.044465390012855835	0.23248739234029153	122.84158721063946
13	5.0	perception	268	diff_vonmises	0.031000381375498716	1.7761910161120382	1.5936914641201891	165.48416082844145	1.575926959971877	164.88873646391042	0.7707644612785458	-0.1204236999534416	0.8911881612319874	79.32252984803296
14	5.0	wm	268	diff_vonmises	0.03655844990469907	2.0946448850797035	0.863059280303676	42.39121109494287	0.8356524777881081	41.94513610787426	0.360178118307136	-0.06647775572083114	0.4266558740279671	108.68564067261818
15	6.0	ltm	268	diff_vonmises	-0.603784978532463	-34.59433100330715	2.711992514754897	0.5921465787032365	2.408654280688806e-13	0.5807882350815066	0.27350761292949066	-0.09082145932033103	0.3643290722498217	83.33817740118799
16	6.0	perception	268	diff_vonmises	0.17460207321208907	10.003961889286913	1.8938508585233629	1.3922071809621672	3.1090255390509632e-15	1.2181826109454568	0.5010014931002622	-0.17814239586478342	0.6791438889650456	99.48448611850293
17	6.0	wm	268	diff_vonmises	-0.1902572632627365	-10.90093820666421	3.743690186831446	17.089002493544832	3.672486066925239	16.783815489339542	0.3573651265363811	-0.01988731010054945	0.37725243663693053	55.04544531522714
18	7.0	ltm	268	diff_vonmises	0.14950703847986915	8.566122312396498	1.6873444142126095	214.05294654577975	1.66942528515213	214.90331103989965	0.2521448001533173	-0.30807767729098146	0.5602224774442988	66.16244340805187
19	7.0	perception	268	diff_vonmises	-0.05478407844468204	-3.138896479393908	1.0342621164759571	2.5761112902783547	6.340355589015493e-13	2.498045761868742	0.4993764309888889	-0.28422580209659	0.7836022330854788	127.1498357669463
20	7.0	wm	268	diff_vonmises	-0.37137397167822667	-21.278161198173354	0.00017072521136951742	6592.433061286858	1.5525673691531043e-29	6592.6761167698405	0.14045006962373918	-0.21780174263449226	0.35825181225823144	176.08479307849927
0	1.0	ltm	269	diff_vonmises	0.22157963601011732	12.695577969424718	3.3230312978165184	0.42349767228509066	3.807937287639614e-20	2.570825426378018	-0.11529367590292977	-0.4087777694266746	0.2934840935237448	75.2887043634882
1	1.0	perception	269	diff_vonmises	-0.09073616203084721	-5.1987991335827335	9.28113696360619	0.9531232618151065	2.031495349066944e-15	3.0746383296978594	0.652555893938918	-0.48934387847871796	1.141899772417636	44.57269229813656
2	1.0	wm	269	diff_vonmises	0.10283775384447158	5.892169269893477	1.8336011229628748	1.4183580571401746	0.2902969876557303	3.8329200369843126	-0.10442206141404864	-0.4879200105606788	0.38349794914663016	80.59645872911304
3	2.0	ltm	269	diff_vonmises	0.006184097732006179	0.3543227001403785	0.8598878290659713	110.59336216200771	0.8368853928544203	111.88850527874406	0.08303950081250377	-0.3179073366719809	0.4009468374844847	89.79213081007532
4	2.0	perception	269	diff_vonmises	-0.034761080581971956	-1.9916632086611525	6.922225885923862	1.4930398500665907	0.2773134687808822	2.6846604779658514	0.9835306567029509	-0.4448791037839828	1.4284097604869337	49.75566373430004
5	2.0	wm	269	diff_vonmises	0.004310970668891908	0.2470004249321958	7.416510573003305	0.4607029370683724	0.07183713262627553	2.0580343422966245	0.13998184592574264	-0.3315601232839107	0.47154196920965336	48.798086637522715
6	3.0	ltm	269	diff_vonmises	0.010099807462524972	0.5786763414974142	0.8196114122282189	119.2248321977053	0.7991455304728243	120.18633316421436	0.17411863125739302	-0.2817127081328561	0.4558313393902491	95.30350060189028
7	3.0	perception	269	diff_vonmises	0.013843881099275307	0.7931959590694058	2.8286466763464393	2.868994034419207	0.3678507253735116	3.7311099563536456	0.9872283093954152	-0.47316500980947834	1.4603933192048935	74.03903227087997
8	3.0	wm	269	diff_vonmises	0.013217101396448027	0.7572841274129386	2.673677045417387	0.9764326722300433	0.31959715979625847	2.246156901764924	0.1187164669556447	-0.30723609199309165	0.42595255894873635	72.49423498076123
9	4.0	ltm	269	diff_vonmises	-0.08245762120893428	-4.724473683960359	1.2788809795722764	1.1006360228226408	1.7474002954802632e-22	2.743484590533482	-0.0034139437411582207	-0.40307274359241285	0.39965879985125463	117.79413306065791
10	4.0	perception	269	diff_vonmises	-0.012388616846901554	-0.7098154593321285	0.9052485405991788	320.1529660380238	0.885819652546755	322.1382157814703	0.5495840211819996	-0.6456734338135384	1.195257454995538	91.96513234490291
11	4.0	wm	269	diff_vonmises	-0.26577022484364954	-15.227512203784057	1.6883945517805103	1.906941516773914	0.3317234053149727	4.130776489335649	-0.0037824653009225218	-0.48162088124241786	0.47783841594149534	83.85628857863547
12	5.0	ltm	269	diff_vonmises	-0.07200710662840222	-4.125703304755942	1.8439596391474473	0.8629898345979135	1.1161422651197314e-11	1.7029853472944694	0.15276912829443606	-0.2604330721614567	0.4132022004558928	100.78158204157036
13	5.0	perception	269	diff_vonmises	0.012417327835062981	0.7114604777794284	1.7360807453795195	3.3499106660926334	0.40289586976950753	4.2370626245817755	0.6166512501248171	-0.41246873990947586	1.0291199900342929	88.80850126494406
14	5.0	wm	269	diff_vonmises	-0.03621375392389096	-2.074895260164276	1.5140732236332592	1.628777502736404	0.136723571104055	2.634183130729734	0.23108428314103124	-0.32962157915007484	0.5607058622911061	101.80322129843005
15	6.0	ltm	269	diff_vonmises	-0.29793870096226277	-17.070630118747975	0.7554737751250998	1.6723979726932294	6.621078590759374e-17	2.5791313400383	0.08311272431774197	-0.3015447588473546	0.38465748316509657	138.4695668223224
16	6.0	perception	269	diff_vonmises	0.1214619204321391	6.9592554123153905	0.7525489380675436	2.976147832305955	1.1467660410531476e-10	4.007120651146855	0.23897045937513295	-0.44312425244577913	0.6820947118209121	139.3814763082116
17	6.0	wm	269	diff_vonmises	-0.1491058074478254	-8.543133467650712	1.655689170272619	1.0287703287393244	0.08299331381387215	2.017404079029677	0.1248824791720029	-0.27774524725292826	0.40262772642493116	100.08785838890948
18	7.0	ltm	269	diff_vonmises	0.16897103118531487	9.681326946891957	1.1327315417566124	148.83036083704295	1.1155566854313825	150.11070639893808	0.011795815001271137	-0.30236070750207134	0.3141565225033425	75.3681868880428
19	7.0	perception	269	diff_vonmises	-0.05891762299961243	-3.375731136820702	2.328382526920834	1.7308864599769258	1.4382876076658193e-16	2.9043215952306247	0.5158646505088473	-0.45294704283918347	0.9688116933480309	90.12357655174674
20	7.0	wm	269	diff_vonmises	0.5641567837121837	32.32380269038295	0.000337262640682026	1652.894434227913	1.8502100781454102e-25	1654.2835515062216	-0.1323563772073726	-0.3097984251205048	0.17744204791313223	170.55311519531563
0	1.0	ltm	270	diff_vonmises	0.13329274924828693	7.637111971622418	6.023619161020696	0.45020138475357296	5.051118436923539e-19	3.891301616447073	-0.188548436221317	-0.619317362078641	0.43076892585732396	55.5220519215498
1	1.0	perception	270	diff_vonmises	0.0005305592859427336	0.03039880786599326	12.647725717061556	0.666387999423568	0.009284143194907973	4.491877816327947	0.21420333373890144	-0.7170780973313482	0.9312814310702496	38.00296844532008
2	1.0	wm	270	diff_vonmises	0.09912961134803079	5.6797083550143155	0.9692178474550056	66.63863694814121	0.8922673125528613	70.61070489986078	-0.30112003998018366	-0.8057793168389669	0.5046592768587832	76.91757631102769
3	2.0	ltm	270	diff_vonmises	-0.08668112722761859	-4.966462753579071	4.385924243541161	0.6525638874550009	0.026617881043930407	2.5153111180285865	0.11640317424432767	-0.3954153262922154	0.511818500536543	64.18080815838408
4	2.0	perception	270	diff_vonmises	-0.0705613524103193	-4.042867689846554	12.707401790835862	0.8611347487881706	1.3415380795091104e-21	2.9319967798429993	0.7454961491965407	-0.46664178063041445	1.2121379298269552	38.02397889133172
5	2.0	wm	270	diff_vonmises	-0.10729776944801377	-6.147709340538937	3.996723455887317	0.8331988843540664	0.08261797808960372	3.101051973118766	0.10517430570381237	-0.4810537787299151	0.5862280844337275	65.34096293547839
6	3.0	ltm	270	diff_vonmises	-0.14915543156430217	-8.545976720086896	0.7628287198961763	156.32932276539682	0.7473054975760905	157.39122601218097	0.15152586496326137	-0.2985102524282883	0.4500361173915497	97.93773783674452
7	3.0	perception	270	diff_vonmises	0.06503656168558788	3.726320498626421	2.790398614104842	3.24036426808397	0.43316391636677887	4.109283004206535	1.073015409359129	-0.5033652542606737	1.5763806636198028	73.56714920053454
8	3.0	wm	270	diff_vonmises	-0.09506945421248311	-5.4470784869875075	2.9849412536066375	1.024033407585708	0.08441048245589598	2.3095629973911573	0.26947525593773736	-0.3445003438785407	0.6139755998162781	76.10213755952162
9	4.0	ltm	270	diff_vonmises	-0.10134185915770935	-5.806460817745958	0.06660152649488194	15.0498764231053	5.232043142623419e-07	16.970645237365524	-0.14357855509708584	-0.46251229449389974	0.3189337393968139	175.91191970420442
10	4.0	perception	270	diff_vonmises	0.0004733460086686957	0.02712072854607914	2.457058458209359	3.0169137982249055	0.15968067415790163	5.068521963118786	0.8196784734133633	-0.6960865512048167	1.51576502461818	81.78902824776185
11	4.0	wm	270	diff_vonmises	-0.20947469986917752	-12.00201621727349	0.527631800831783	155.6655298061104	0.5082762752506362	157.78742332184456	0.03781615330213128	-0.5251292434410377	0.562945396743169	114.18851118144985
12	5.0	ltm	270	diff_vonmises	0.06159728368990161	3.5292643849013845	1.5741339815461246	1.221389083174168	1.5202819212777012e-24	2.390703021478191	0.16424340551064043	-0.3571061730610992	0.5213495785717397	108.18965920375877
13	5.0	perception	270	diff_vonmises	-0.015126165072793388	-0.8666654188892567	2.6183063257423576	1.7742512197465155	2.163084607123446e-16	3.227413741133494	0.5606959125327677	-0.5079450916358719	1.0686410041686396	85.00016029495382
14	5.0	wm	270	diff_vonmises	-0.05820925960863537	-3.3351449041561407	2.21954501428237	1.2624623887318889	1.4978827386924592e-19	2.6582000979665374	0.27028484665444186	-0.41487889758354735	0.6851637442379892	92.26637110193784
15	6.0	ltm	270	diff_vonmises	-0.24007068957051778	-13.755037297186018	0.4127513291637961	3.13889058074585	4.097348371894325e-18	4.175720004242328	0.059093566892711835	-0.34760154232058604	0.4066951092132979	155.8104728003666
16	6.0	perception	270	diff_vonmises	0.24422878902215261	13.993278846560356	0.06819641540619563	36.96454390127014	4.619175063843119e-19	37.59822643008329	0.3070321177898512	-0.4950684097235474	0.8021005275133986	174.27444441739365
17	6.0	wm	270	diff_vonmises	-0.4156463517408175	-23.81478172475894	0.4045921478069059	189.29113894097992	0.39550273481858117	190.26131688822636	0.09504291920730168	-0.3110377341159847	0.40608065332328636	130.29108956538954
18	7.0	ltm	270	diff_vonmises	0.42525822117517925	24.365501276578666	1.680368303709385	0.9021900294593247	0.14132091677411973	1.512874972722729	0.1427415964266977	-0.1937867713453576	0.3365283677720553	96.97501197143009
19	7.0	perception	270	diff_vonmises	-0.010740372646427777	-0.6153780230380664	2.6008279747982486	1.38030847880199	3.9977383916352384e-13	1.9927248315884087	0.5153573905842914	-0.31256647685335665	0.8279238674376481	85.28891507290743
20	7.0	wm	270	diff_vonmises	-0.12394745643419362	-7.101666135060935	10.28320714683106	0.2522102936982049	5.047981837816889e-24	1.2239448868333809	0.12374258564808016	-0.1947968784389365	0.31853946408701667	42.3172456131507
0	1.0	ltm	271	diff_vonmises	-1.0064498227681569	-57.665327136305095	3.234923011165918	0.37012382405578387	2.3765408194495686e-30	0.390575019817001	0.1908173974555862	-0.0617699193266508	0.252587316782237	76.03040910095125
1	1.0	perception	271	diff_vonmises	-0.09497881349254339	-5.441885156282934	12.668514193006965	0.9023396088218417	1.9194398673656033e-18	1.4303518930008747	1.0400306390677727	-0.2276475741193612	1.2676782131871338	38.09750753933895
2	1.0	wm	271	diff_vonmises	0.16880038763936642	9.671549791907966	1.3981979665629714	0.8000596396800053	8.225930250628751e-27	0.8239458672092979	0.2010089940780825	-0.11086350041994453	0.311872494498027	113.59436962553102
3	2.0	ltm	271	diff_vonmises	0.4463413196792991	25.573473839923313	0.4092921123296139	70.20788602581666	0.3946853326050694	70.06803611485883	0.21998859057389097	-0.11114542615443757	0.33113401672832854	135.64723821538996
4	2.0	perception	271	diff_vonmises	0.0009031533926313308	0.051746877650697	7.680760199751023	1.5475651930928975	0.8004415229089814	1.523530553200139	1.2185831214209337	-0.27422252065202957	1.4928056420729634	46.293648142610095
5	2.0	wm	271	diff_vonmises	-0.0647080825215934	-3.707500028871551	4.9481685925864385	49.53364721563817	4.890149623036585	49.48694062111357	0.30808452360567884	-0.09995238949245255	0.4080369130981314	41.98312315410976
6	3.0	ltm	271	diff_vonmises	0.08623276970977724	4.9407737600938	2.151950456569146	22.2640921743092	2.1252760369093515	22.033886277986387	0.2127400578936971	-0.013015535182773208	0.2257555930764703	72.57672835843394
7	3.0	perception	271	diff_vonmises	0.05341331749517708	3.0603576622659285	2.143498047344229	172.0886932625878	2.108971812276411	171.6825807426609	1.1149177960679282	-0.26057423080921893	1.3754920268771471	66.02252725611467
8	3.0	wm	271	diff_vonmises	-0.13313710337360066	-7.628194119904272	4.872391300938105	0.32750704121499413	0.2107688553860324	0.2081133194841047	0.23962998296603388	-0.030758602904217322	0.2703885858702512	60.677766092986246
9	4.0	ltm	271	diff_vonmises	-0.36769401286942205	-21.06731508964686	4.2990484628879315	0.6216788167398968	0.29887565712417025	1.1632885692117798	0.25292985048615846	-0.17651733581559093	0.4294471863017494	61.357414387955856
10	4.0	perception	271	diff_vonmises	-0.018840292559443066	-1.0794692484478154	3.5753590090236775	1.8303301975702475	0.15737449694104264	2.1938228185072592	0.9168687517920799	-0.3184690144087544	1.2353377662008342	69.92484780201676
11	4.0	wm	271	diff_vonmises	-0.4490069734531769	-25.726204550809634	2.1960229220081917	124.53591741568002	2.171450204398255	124.94677333004778	0.23373474211729217	-0.20678324372213197	0.44051798583942414	58.962677710386444
12	5.0	ltm	271	diff_vonmises	-0.25006225819011374	-14.327512009804222	4.055346404780377	0.22268734962039502	1.64908851949168e-22	0.06187732691404621	0.16264340966224894	-0.00979627453112581	0.17243968419337474	67.98082311577187
13	5.0	perception	271	diff_vonmises	0.02492192665139624	1.427921214459609	1.5970266174782055	138.7564780990718	1.5722278049530751	138.51604167814395	0.6982502012458625	-0.1741935395874279	0.8724437408332903	76.46496196175383
14	5.0	wm	271	diff_vonmises	0.10940020017131766	6.2681697477028875	0.9525679388652399	77.54136545628664	0.9391419107618697	77.2344511369223	0.29908809032300354	-0.058903870321097784	0.3579919606441013	102.26897388956297
15	6.0	ltm	271	diff_vonmises	-0.6171597476245698	-35.36064882424689	2.6711744480991406	0.6963397217765627	0.08401688304994669	0.920414736482656	0.26752135406228883	-0.13333467153029868	0.4008560255925875	81.59372403890472
16	6.0	perception	271	diff_vonmises	0.2693799966698482	15.434336894430473	1.7430457689521235	1.7177359309108422	1.0045040608451427e-13	1.7381902141864072	0.5384938932138299	-0.2516793583421689	0.7901732515559988	103.24192964256869
17	6.0	wm	271	diff_vonmises	-0.20265159511861733	-11.611081111890728	6.983757556861774	0.4203094998913538	0.26992251280257	0.2845738017989341	0.3762641933607803	-0.04532709525335011	0.4215912886141304	50.632810492805504
18	7.0	ltm	271	diff_vonmises	0.1264254695621465	7.243645828870647	1.636762925703395	179.33127182404777	1.6192203244187477	180.01250734909982	0.2261906114447072	-0.250842619573703	0.4770332310184102	67.58793056023237
19	7.0	perception	271	diff_vonmises	-0.03502502210623583	-2.006785944039722	0.7930995872183951	2.660990934125567	6.878270003204632e-23	2.7562021647078234	0.3658254432652063	-0.27398262427593767	0.6398080675411439	137.6839922112656
20	7.0	wm	271	diff_vonmises	-0.3505090257927283	-20.082687859165446	0.0002117769447640942	4591.872324273241	3.4232618681749566e-31	4592.192320709638	0.10384967059076189	-0.20569131147942699	0.3095409820701889	176.50432726513714
0	1.0	ltm	272	diff_vonmises	0.3466559925063653	19.861925313533426	0.6703438697697037	143.49520608153657	0.6507664718927362	146.37494915618402	-0.25815581977796853	-0.5438492294050832	0.28569340962711465	89.37491810226345
1	1.0	perception	272	diff_vonmises	-0.024969337108054653	-1.430637633530924	8.477779789647228	0.8693873302361919	6.573935200203932e-20	3.8166746444196344	0.386408362671791	-0.6074425927977384	0.9938509554695294	46.67035786395752
2	1.0	wm	272	diff_vonmises	0.1586993793787119	9.09280464974568	3.084896151197453	0.5945854716329892	0.13770486566192094	3.949532146181896	-0.32232589248292737	-0.6099279861550165	0.28760209367208917	67.45713996697705
3	2.0	ltm	272	diff_vonmises	0.08857224898761983	5.074816048972495	0.7379545224626248	137.02331272763806	0.7209937890332716	138.62482143878765	-0.01869563325536916	-0.3490272534463692	0.33033162019100004	93.22020194098974
4	2.0	perception	272	diff_vonmises	-0.04192883401669055	-2.4023452290609275	8.160366284017003	1.392638686837201	0.23698339335442473	3.096368241760331	0.9450475754315811	-0.5231894661960519	1.4682370416276331	46.03768769197296
5	2.0	wm	272	diff_vonmises	0.031475185875214945	1.8033953100395985	5.43631143491787	0.5660763482611484	0.06028493311044239	2.9267330400401965	0.01885788955737333	-0.4645585751467425	0.4834164647041158	56.61306323270239
6	3.0	ltm	272	diff_vonmises	0.0695631143565438	3.9856728624158655	0.9371443712847142	125.0266593887627	0.9199016124401674	125.95813934475541	0.10582164410941886	-0.2449683335144428	0.35078997762386166	87.16188302686518
7	3.0	perception	272	diff_vonmises	0.01828568186598814	1.0476923964400242	2.423438682508037	3.5804066083211272	0.5082031405329825	4.577552649468509	0.9353700978294164	-0.5059747017787039	1.4413447996081201	76.32944330792955
8	3.0	wm	272	diff_vonmises	0.03214314494062055	1.8416665453748426	2.6109886477460202	0.8594049765697251	0.2784695886673255	2.378404789858763	0.029012898662985842	-0.3331645227512557	0.36217742141424153	72.70363243016158
9	4.0	ltm	272	diff_vonmises	0.172878667365776	9.905218007905003	0.5270616149710029	1.344555819834349	1.8794481101362274e-16	3.2199596683123035	-0.17390476398498617	-0.3944822016810443	0.22057743769605814	150.23442446281317
10	4.0	perception	272	diff_vonmises	0.029675491995376526	1.7002804463093328	0.9406785533700651	134.7906566262947	0.8928759195447074	137.1793205138062	0.45841847776744515	-0.6971169783990856	1.1555354561665308	89.51767693380444
11	4.0	wm	272	diff_vonmises	-0.2902233029628565	-16.628570376118315	1.632967226440538	1.214251341867657	0.014925028544501468	4.18138450991852	-0.12167305745717238	-0.6344584888378443	0.5127854313806719	104.49006435862384
12	5.0	ltm	272	diff_vonmises	0.017780054747528744	1.0187220965449395	1.749697627598252	1.3963637661524733	0.3454740849063372	2.6576000295020377	0.08412784248632166	-0.3020958260700643	0.38622366855638596	84.5929075740979
13	5.0	perception	272	diff_vonmises	-0.01410171489293097	-0.8079687472617222	2.3865734734722888	2.0785111504657254	0.06288477643991326	3.699685536034378	0.5654755415742648	-0.543213771658996	1.1086893132332607	86.08327076912525
14	5.0	wm	272	diff_vonmises	0.03593730098293534	2.05905567341354	2.282047446544621	1.0688717589564787	2.561527858275364e-13	2.8366679094795293	0.1453885128956378	-0.44525085634582023	0.590639369241458	91.01756854185453
15	6.0	ltm	272	diff_vonmises	-0.24353217580876507	-13.953365849480205	0.3853960090088361	47.37545494874605	0.3507180885794286	48.65478033025042	0.018749248708173738	-0.34571997444577285	0.3644692231539466	132.65996186755677
16	6.0	perception	272	diff_vonmises	0.16984797280179528	9.731572000395666	0.1915373190413562	196.4891853633807	0.17820554232609534	198.06627808443443	0.15393603809302903	-0.5835977747203884	0.7375338128134175	157.2257580162287
17	6.0	wm	272	diff_vonmises	-0.2993215121393355	-17.14985936305776	1.0935401778888107	1.5335040070932684	8.818406678640015e-13	3.1410736883170913	0.05110782712990253	-0.43806767463189816	0.4891755017618007	124.19087179569114
18	7.0	ltm	272	diff_vonmises	0.8139190319390207	46.634125395479536	0.0003212070297569844	2143.6159988444615	1.2630731092660428e-29	2144.9966792996333	-0.11015029017511324	-0.32931635002370285	0.2191660598485896	161.2176933290533
19	7.0	perception	272	diff_vonmises	-0.0681781542239328	-3.9063204920233754	2.979849497400292	1.5358826577105789	8.168139521328504e-19	2.998249301509829	0.5248885427378693	-0.4746001334436865	0.9994886761815558	79.60635603147821
20	7.0	wm	272	diff_vonmises	1.135673016055808	65.06927072689078	0.0004188748247055429	1736.070967482919	2.1998744600576496e-24	1737.9862183959524	-0.1890727113761841	-0.4205463491982755	0.2314736378220914	145.40941693596287
0	1.0	ltm	273	diff_vonmises	0.10409370048837567	5.964129711882802	2.434288325946686	0.49329451848675787	4.557933743363873e-24	3.957008920737864	-0.3435724373307265	-0.6275782431551412	0.2840058058244147	88.14616134989421
1	1.0	perception	273	diff_vonmises	-0.044289769134056814	-2.5376168469902383	8.801515540848229	0.8921952573327294	4.8883983907801754e-17	4.474915097097325	0.3276065760569091	-0.7122048340525899	1.039811410109499	45.79595466596365
2	1.0	wm	273	diff_vonmises	0.059832096689383225	3.428126619720324	1.6717630948532567	1.6537915796642633	0.23163619255170587	5.4079955469363545	-0.30555239130068435	-0.7083956298861468	0.40284323858546245	82.91153858600768
3	2.0	ltm	273	diff_vonmises	0.10730249679476894	6.147980197556304	0.9563714962008503	15.038753076175723	0.7708079300059923	16.666010317366883	0.0469231070594649	-0.37836947521543696	0.42529258227490185	87.58916231076611
4	2.0	perception	273	diff_vonmises	-0.050199827497191374	-2.876238247873844	9.093361933826891	1.2919192984737844	0.24204228757101176	2.803693319790521	0.9714471842914701	-0.4803870733887699	1.45183425768024	43.74221227989571
5	2.0	wm	273	diff_vonmises	0.040395506331890936	2.314492024111344	5.908453425048419	0.5472652078563502	6.500507902569046e-18	2.4130389315972347	0.13432500128737895	-0.3840432482200597	0.5183682495074386	56.07065539698684
6	3.0	ltm	273	diff_vonmises	-0.10658366644500154	-6.1067942523287195	1.9660404432592642	0.7078451649535246	0.00044240115609483154	1.8273309166938623	0.07044508361800988	-0.2836155360289923	0.3540606196470022	97.75848863207406
7	3.0	perception	273	diff_vonmises	0.023295288132079008	1.3347216925093222	4.233091373306724	1.9203554411556198	0.04872733938681971	2.879526513890482	1.0416808429924491	-0.44525469620206526	1.4869355391945143	65.60124021725909
8	3.0	wm	273	diff_vonmises	0.03527114346790853	2.020887659311581	3.218575436542505	0.6183067163520872	0.004615913912912964	1.9882337177516411	0.10353153687297278	-0.3143035702030808	0.4178351070760536	76.22174592986059
9	4.0	ltm	273	diff_vonmises	-0.23074407905508992	-13.22066187748967	0.0004977877911344458	2341.3630433416483	1.4887269202547999e-25	2343.3165316693758	-0.12539022492279628	-0.49637825503737076	0.3709880301145745	178.4540417277717
10	4.0	perception	273	diff_vonmises	0.009281985399878016	0.5318185889150601	2.627498247309846	2.2940123707714055	2.4845991567576597e-16	4.389880721406438	0.6931409986577983	-0.6914027823273589	1.3845437809851573	84.85338345969109
11	4.0	wm	273	diff_vonmises	-0.18633078643410392	-10.675967656027648	1.740922152024661	1.465635949217039	9.253402355870696e-16	4.3141512484989075	0.008384750482541503	-0.66524550816807	0.6736302586506115	103.4046306095923
12	5.0	ltm	273	diff_vonmises	-0.07112923267239228	-4.0754048321321195	1.5582674055520251	1.2486122885132451	1.6374895868311056e-14	2.6593863758007936	0.1302341676724545	-0.398729091525872	0.5289632591983264	108.6627404448042
13	5.0	perception	273	diff_vonmises	0.0067112007350877976	0.38452347758562644	2.5986844955321735	1.7846113114266084	4.3479425409869815e-19	3.252796013084751	0.5581412393698527	-0.5117472928048094	1.069888532174662	85.32419270530997
14	5.0	wm	273	diff_vonmises	-0.038291848490209675	-2.193961308243408	1.6581329282627295	1.5587037411972804	4.1038354654864235e-16	2.9239663441226513	0.25218092993392077	-0.4393248826237993	0.69150581255772	105.76107273439418
15	6.0	ltm	273	diff_vonmises	-0.21929216142711863	-12.564515330075444	0.3683837691156898	3.8895530757154932	5.106679065975549e-10	5.064226318773612	0.05915294905455326	-0.3918764866036498	0.4510294356582031	158.33701184338423
16	6.0	perception	273	diff_vonmises	0.24824221143293626	14.223231012101479	0.23887519796917117	10.881925777039603	1.233178133972282e-10	12.341151870071394	0.20401742284010793	-0.6194996293042021	0.82351705214431	164.85535316256713
17	6.0	wm	273	diff_vonmises	-0.2755627269271721	-15.788581244042966	0.8880758249655067	3.735493461699379	0.25388961554334427	5.036365437695304	0.1802515669490159	-0.409287324973106	0.5895388919221218	116.03623420960672
18	7.0	ltm	273	diff_vonmises	0.27971432808737773	16.026450468744365	0.6504571868018542	158.6754888259264	0.6372399916709744	160.42771003579335	-0.07925215024346244	-0.36047370111182886	0.2812215508683664	96.65976625605413
19	7.0	perception	273	diff_vonmises	-0.05185483266733173	-2.971063059195217	3.077553107132858	1.5660086505885535	3.236730030485185e-16	3.256041532482283	0.5224531951374958	-0.5160061643870822	1.0384593595245781	78.30723277676327
20	7.0	wm	273	diff_vonmises	0.942145105866366	53.98093825504891	0.0006453811032588094	1430.3887891813536	6.861814257052247e-22	1432.244569558039	-0.14840969574979113	-0.4422561340095683	0.2938464382597772	155.3704446691933
0	1.0	ltm	274	diff_vonmises	0.4046926831551794	23.187182744616845	0.6214166127937687	116.2940848707615	0.6017811178765009	118.87669012594718	-0.2540316278661905	-0.4780843907853196	0.22405276291912912	91.28515384691983
1	1.0	perception	274	diff_vonmises	0.0016278444146558952	0.09326861466372673	8.514778073407275	0.8382468342718274	0.021335574619167595	3.609200818585883	0.3738881546335303	-0.5758188028573598	0.9497069574908901	46.24355386602534
2	1.0	wm	274	diff_vonmises	0.23525229672005107	13.478963722818266	4.929524934409132	0.3053153050465487	0.11112351050477386	3.4836203061638473	-0.35498137740683616	-0.5642101265412377	0.20922874913440154	55.055866101756806
3	2.0	ltm	274	diff_vonmises	0.21820020667576373	12.501950931403552	0.6025036386379155	133.47054080126085	0.5890123038877172	134.94442128788782	-0.04767436542750403	-0.3140724791546212	0.2663981137271172	102.09687169336044
4	2.0	perception	274	diff_vonmises	-0.03378211852344618	-1.9355728144041866	7.937175067313006	1.463335385700825	0.2816501828481066	3.2709162593252983	0.9406656649566053	-0.5588214233171063	1.4994870882737117	46.357381466877
5	2.0	wm	274	diff_vonmises	0.04612601859244033	2.642826191088797	3.4513710941203772	0.8415823143853006	0.20164891054912568	3.5319442767255675	-0.08431024165703749	-0.5418603821016201	0.45755014044458264	65.18165334035137
6	3.0	ltm	274	diff_vonmises	0.1870225651501405	10.715603656813524	1.1251702601029219	110.11498494259992	1.1069261247250037	110.83193158110912	0.11596244792035293	-0.20240817166646785	0.3183706195868208	80.17951047508345
7	3.0	perception	274	diff_vonmises	0.006492735579561291	0.3720063462032885	1.5581933876218663	16.45446305577849	1.1237266815061615	17.47985677747039	0.9140488880135393	-0.5401793836471038	1.4542282716606432	78.05427373392416
8	3.0	wm	274	diff_vonmises	0.038833845984449805	2.2250154771700332	2.5715900193001184	0.7549128005877016	0.3031520864062769	2.4048634778771216	-0.05424475722916833	-0.34092157833788184	0.2866768211087135	70.7326268446592
9	4.0	ltm	274	diff_vonmises	0.49167961266034765	28.171166678065	1.160359055469189	0.476247493265908	3.5133906920584686e-15	2.2906102247629656	-0.18749717511134917	-0.3471734617814639	0.15967628667011474	120.59558784190136
10	4.0	perception	274	diff_vonmises	0.04015298449162832	2.30059654622455	0.9631018438571488	324.23958281900417	0.9435374723816699	326.7069017556945	0.387670496465887	-0.687031443165175	1.074701939631062	87.00982357816795
11	4.0	wm	274	diff_vonmises	-0.36191112032288647	-20.73597975335271	0.9700107733008766	2.9381716084796405	0.20556119298161646	6.188236804558055	-0.20966887477817409	-0.654561758668513	0.4448928838903389	106.06703526503674
12	5.0	ltm	274	diff_vonmises	0.0070467003916615135	0.4037461919353889	1.0957568795964485	99.8628144289187	1.07143363820636	100.92429672063778	0.07860082529671786	-0.26877847658141896	0.3473793018781368	79.2608757549553
13	5.0	perception	274	diff_vonmises	-0.03237677135082238	-1.8550523526621994	1.858204550702975	3.163360167259923	0.26241720992588424	4.810451305919053	0.5823565697821154	-0.5639788508284725	1.1463354206105878	88.93377911742141
14	5.0	wm	274	diff_vonmises	0.13020781806860804	7.460358434938502	3.5409317896324475	0.7906262215809269	1.1395426773789946e-13	2.7558025864536546	0.129765682919685	-0.43812195077775967	0.5678876336974447	72.88411009901182
15	6.0	ltm	274	diff_vonmises	-0.24615694710883426	-14.103754167161235	0.5089840393734129	124.91650804191	0.49516499788174984	126.09283950933067	0.03355715293990613	-0.301751594241658	0.3353087471815641	116.68776105693644
16	6.0	perception	274	diff_vonmises	0.1301822466786501	7.45889330221763	0.26372200235679777	274.6098883925347	0.25387575586369204	276.17529986315145	0.1618184644277889	-0.5588415195331962	0.7206599839609851	148.44861315081067
17	6.0	wm	274	diff_vonmises	-0.2731248406091454	-15.648900647087347	1.1085911899145524	1.5009717142115282	6.9799117015190676e-15	3.1887174497323945	0.03605522415828444	-0.4482960426484797	0.48435126680676416	123.71254543457772
18	7.0	ltm	274	diff_vonmises	1.2439349180513606	71.27222079329488	0.00016036771835378018	4499.212812481181	2.849007841265178e-26	4500.315023060246	-0.06058412833283455	-0.29025118815604856	0.229667059823214	139.29570021679373
19	7.0	perception	274	diff_vonmises	-0.07042976153112317	-4.0353280878462	2.119717874249256	2.086731424379056	0.16145397793555005	3.5156180098983842	0.4616038984996592	-0.46706208766889395	0.9286659861685531	87.0933814596757
20	7.0	wm	274	diff_vonmises	1.1926912108473482	68.33617264390084	0.008854188271498418	71.55976333872687	7.045111864649525e-10	73.53660352384503	-0.21356194362619974	-0.41523943328960833	0.2016774896634086	141.9978673852892
0	1.0	ltm	275	diff_vonmises	-0.3207412538834605	-18.37712016325631	0.0004126089059913949	1091.253843456264	4.787625148406224e-25	1093.663959747197	-0.3119148105290037	-0.4552342489692762	0.1433194384402725	177.05645013422202
1	1.0	perception	275	diff_vonmises	0.012764828190071199	0.7313707815006971	9.907392975201722	0.7798868178874914	0.04675553187090033	3.808835349326593	0.3313721319240026	-0.6147952662877288	0.9461673982117315	42.6041130951115
2	1.0	wm	275	diff_vonmises	0.17473136733209266	10.011369896678977	6.311663678352119	0.19298766527181058	0.016481602537778813	2.8636513618486696	-0.27404128602532407	-0.45602337826348355	0.18198209223815948	53.021705746409936
3	2.0	ltm	275	diff_vonmises	0.39412381961542714	22.581631469539342	0.5084332691809476	142.35744282254845	0.4970263629010475	143.5253590529967	0.0161015069702799	-0.28910770377613026	0.30520921074641016	115.66471700190445
4	2.0	perception	275	diff_vonmises	-0.040244043631068725	-2.3058138506005785	9.96056178661411	1.3302289801118277	0.38808386129430866	2.8311039360066976	1.0126603700295211	-0.5188129687193758	1.531473338748897	41.31992484124808
5	2.0	wm	275	diff_vonmises	-0.02330753492382652	-1.3354233819890302	6.781282207583489	0.4415798767364609	3.608528119337179e-05	2.350996695741789	0.07539295927806816	-0.37415971105952617	0.44955267033759433	52.268867353219974
6	3.0	ltm	275	diff_vonmises	0.05591381092703444	3.203625382611538	1.3803651447567395	62.58851212186208	1.3580749785539683	62.95085076292366	0.10262954790169232	-0.12062676499059322	0.22325631289228554	73.6528433427221
7	3.0	perception	275	diff_vonmises	0.03608837937600271	2.0677118277119186	2.9148837720799676	3.4289338251039934	0.7555469717432474	3.8919975326127423	1.060422788230572	-0.422069159166906	1.4824919473974778	68.8779540661638
8	3.0	wm	275	diff_vonmises	-0.08853760180592532	-5.072830911689376	4.1584872035839755	0.39436188555993457	0.04298473510904117	1.2931036513827068	0.09494766694606491	-0.2018398247187419	0.2967874916648068	65.52267041969912
9	4.0	ltm	275	diff_vonmises	-0.507490393566035	-29.07705769476691	0.5989691455370947	106.31070845240767	0.5863957393184006	107.76753408258962	-0.1303079396135658	-0.27422118694840414	0.14391324733483835	94.63129338662308
10	4.0	perception	275	diff_vonmises	0.010094284389856363	0.5783598927435589	3.1682230851618898	2.0072713776620215	0.06696477315521762	3.5740992258287885	0.7483514332076865	-0.537783740876874	1.2861351740845604	75.00908871994233
11	4.0	wm	275	diff_vonmises	-0.2770581390561269	-15.87426204766475	0.7837460904097175	80.26601214877289	0.7435128355194633	82.41917583430305	-0.01397044198373365	-0.4729225178304013	0.45895207584666764	91.34273661733307
12	5.0	ltm	275	diff_vonmises	-0.07692290189580808	-4.4073576265286825	2.513184720306055	0.6709960901970087	0.28988926489763533	1.6034643263160833	0.06269552331070116	-0.21798324852084383	0.280678771831545	74.65925650330036
13	5.0	perception	275	diff_vonmises	-0.012329550047871247	-0.7064311810383446	2.7114278442554083	1.8254997379289017	0.12430205973844499	3.2737844884367107	0.5403187264586903	-0.4686749303490363	1.0089936568077267	79.02641236918393
14	5.0	wm	275	diff_vonmises	0.12507563261794138	7.166305868936857	2.5154929924707576	0.9176317102786695	0.05672283878689345	2.3444538650725675	0.1481858077551832	-0.35079598850233384	0.49898179625751704	83.23348317007361
15	6.0	ltm	275	diff_vonmises	-0.43193527106258456	-24.74806805472529	0.5870703235831759	184.83338227245477	0.5765880243876809	185.9474811239874	0.07509778097433895	-0.2955961189780858	0.37069389995242474	109.73474242512614
16	6.0	perception	275	diff_vonmises	0.3051572184218989	17.484220703526624	0.657035744546126	4.268601958587539	1.436477089350834e-13	5.637047069789707	0.28255612222283144	-0.580130273497678	0.8626863957205094	142.8757486416854
17	6.0	wm	275	diff_vonmises	-0.23224850432983823	-13.306859096325557	1.8432949881036738	1.057738185025099	8.057198748308966e-18	2.3283401476666064	0.14875501194526436	-0.3575533508262996	0.5063083627715639	100.70860058049148
18	7.0	ltm	275	diff_vonmises	0.3305244259332622	18.9376546319603	0.8542549395828596	98.70510666534965	0.8368639798465176	99.70963995201406	0.015497373282453708	-0.2288199417868615	0.2443173150693152	87.80049843294958
19	7.0	perception	275	diff_vonmises	-0.09132727547946044	-5.232667439401696	2.307033323484051	1.3584421491840422	1.212283107145866e-19	2.465382044212386	0.3710941056498933	-0.3848103533530332	0.7559044590029265	90.52680637871018
20	7.0	wm	275	diff_vonmises	0.46025301245590633	26.37055512190554	2.1701473643783262	0.546945131067752	0.08555244339185364	1.9958055951273386	-0.04901735975657184	-0.2923664576402728	0.24334909788370096	85.29037252722088
0	1.0	ltm	276	diff_vonmises	-0.2343509538616464	-13.42732058113742	0.18905258723651938	54.44492432671758	0.17513844892584882	55.65539963523459	-0.0973330574556801	-0.26917270337098476	0.17183964591530465	154.50989547782285
1	1.0	perception	276	diff_vonmises	-0.08520918386439665	-4.882126611184162	9.588219331488025	0.9681108310958805	2.2988723793917107e-18	2.2583953055818724	0.820069063358879	-0.3594347707990686	1.1795038341579476	43.84170565579757
2	1.0	wm	276	diff_vonmises	0.27782557287224463	15.918232766383914	2.138604988464783	0.5279920703847003	5.16183274625825e-16	1.987919362744863	-0.03278289231715914	-0.3124503689265807	0.27966747660942154	93.85095401427569
3	2.0	ltm	276	diff_vonmises	0.2091084733660554	11.981032984298757	0.8621395604579893	85.50269756324712	0.8429620416464443	86.12534179554187	0.11869558570507621	-0.18309577104879082	0.30179135675386703	92.9429064897941
4	2.0	perception	276	diff_vonmises	-0.007001959940916747	-0.40118275293420086	6.103923781260935	1.8036748005723269	0.578790747761149	2.373445981349826	1.117077268178333	-0.3941290575976911	1.511206325776024	51.525641859142866
5	2.0	wm	276	diff_vonmises	0.0175473251621729	1.00538767353622	8.88283214919908	0.3881124042864221	0.23570937205655773	1.5027021360596584	0.15603711494921757	-0.26027124203295976	0.41630835698217733	43.51175724520073
6	3.0	ltm	276	diff_vonmises	0.2245344247421726	12.864874893124298	1.251341677347637	54.80188698251326	1.2218296077640458	55.082522264719344	0.1895506750701621	-0.12797286459420398	0.3175235396643661	80.54101500136119
7	3.0	perception	276	diff_vonmises	0.013553375194967158	0.7765511968289175	3.004333416671442	2.9892503320430586	0.717825457144101	3.4131001792208986	0.9765784009662212	-0.384273782201236	1.3608521831674572	68.48932020793004
8	3.0	wm	276	diff_vonmises	0.13597323236768039	7.790692341419724	1.9646231992016419	1.0120476238186147	0.5654739158686624	1.8326408728584058	0.04177532338736922	-0.197522680995417	0.23929800438278623	74.85588033081066
9	4.0	ltm	276	diff_vonmises	-0.26959805971674866	-15.446830986685633	9.22705629927001	0.39415254680942785	1.708515542022256e-41	1.4553451510087385	0.23906773540996554	-0.23162537013313528	0.47069310554310084	44.711129403583044
10	4.0	perception	276	diff_vonmises	-0.003601668198837167	-0.20636038699985465	1.0624834191500845	317.92882857069	1.0450903853264386	319.363228710684	0.5383260027317078	-0.508932450371173	1.0472584531028808	85.57013001302823
11	4.0	wm	276	diff_vonmises	-0.31424721674537914	-18.005039243243033	1.1601848788128273	101.5626750925554	1.1245905684427293	103.29097859050347	0.04214526252692252	-0.41731929394976497	0.4594645564766875	75.37164777112197
12	5.0	ltm	276	diff_vonmises	-0.11343267749701139	-6.499213679447339	2.1579152820706122	0.731108091208667	0.3444006807762252	0.9853005656543591	0.17993049690608912	-0.11353522020096365	0.29346571710705277	82.7655540023938
13	5.0	perception	276	diff_vonmises	0.0019301593559362341	0.11058998488283546	1.1628450426695272	273.8294228361783	1.1470152032475491	274.05819237649547	0.7213731858544321	-0.3050501445724372	1.0264233304268693	86.47992469078369
14	5.0	wm	276	diff_vonmises	0.08609469703755111	4.932862778709151	2.222168274323034	0.9651054775124099	4.125749187820989e-10	1.428828652622979	0.30302913835640344	-0.2211752285300496	0.524204366886453	92.20245054787549
15	6.0	ltm	276	diff_vonmises	-0.41941201677166984	-24.03053843808678	0.7045766569860223	46.8499027689401	0.6716740389876157	47.24076865702782	0.18452675678996755	-0.17470041664792957	0.3592271734378971	107.32206661934133
16	6.0	perception	276	diff_vonmises	0.10943457798020259	6.270139451060902	0.6669887883624454	13.683731239647981	0.48193143576156205	14.251828138759068	0.33936712653712364	-0.3198340162183606	0.6592011427554842	118.00731918796568
17	6.0	wm	276	diff_vonmises	-0.1545004207735888	-8.852222043321987	3.336029111182065	0.6814970458644394	2.6739551787329386e-15	1.0494810613513519	0.30691479975965824	-0.16643017019481673	0.47334496995447495	75.14169958437247
18	7.0	ltm	276	diff_vonmises	0.04821689114570169	2.7626243638904153	1.4178137990160866	232.50779524102788	1.40425438831771	233.65905693368592	0.0822786355623748	-0.3149901702164044	0.3972688057787792	68.88667758106578
19	7.0	perception	276	diff_vonmises	-0.09897531054581615	-5.670867570271934	1.9390698808614746	1.8558927184755136	6.415887559701938e-15	2.5177420425464687	0.5389260863417868	-0.38126943425876836	0.9201955206005552	98.43814446598437
20	7.0	wm	276	diff_vonmises	0.1639003069623837	9.390795849843247	0.00023078499163439986	3354.6515344150516	1.6193062686410266e-30	3355.7771433236107	-0.05592370948181724	-0.30235451694818494	0.2464308074663677	179.0486778984012
0	1.0	ltm	277	diff_vonmises	0.05409365823980909	3.0993383155641308	0.30836694706573226	110.69718722367824	0.2953596900293967	112.97863873978697	-0.21964617408222153	-0.4548243664538276	0.2351781923716061	133.42460260780672
1	1.0	perception	277	diff_vonmises	-0.09384210414411615	-5.376756508084988	11.363308853741295	0.8496018062775468	1.6926836613376587e-17	3.3745873724893145	0.5920922606543175	-0.5370822610747849	1.1291745217291025	40.242635524483006
2	1.0	wm	277	diff_vonmises	-0.04781535674463918	-2.73961813738022	6.078596670613549	0.3859863925065211	0.08596407775964518	2.8488111324430223	-0.12207383529645449	-0.45927228198704445	0.33719844669058996	52.52794338440512
3	2.0	ltm	277	diff_vonmises	-0.006589310423560337	-0.37753967717156817	0.43404849475211477	105.41143807793972	0.416383893885772	106.75372456950168	0.03303944793075786	-0.3587165563415198	0.39175600427227764	126.07739773717266
4	2.0	perception	277	diff_vonmises	-0.05085599620158005	-2.9138339452838826	8.585212090367866	1.3420443347259174	0.2934659291883028	2.8320125014342445	0.9528960973984896	-0.490113797764044	1.4430098951625336	44.71621210238345
5	2.0	wm	277	diff_vonmises	-0.049778861001206834	-2.8521186443375193	6.735906927333808	0.5287681210901847	0.11630727208494213	2.3544470622785707	0.11699269716582122	-0.38223871737889	0.4992314145447112	50.44882342302435
6	3.0	ltm	277	diff_vonmises	0.03838042745485767	2.199036509071376	1.1023491008518174	139.53087717357576	1.0811256056561689	140.4745802695274	0.21806844917048096	-0.28752717686084495	0.5055956260313259	82.31431804206437
7	3.0	perception	277	diff_vonmises	-0.02829837470224596	-1.621377437518471	2.6012518991743634	3.7810553186207683	0.5129441465088045	5.0040331834670875	1.0339085275785969	-0.5791436042154552	1.613052131794052	73.9380374622935
8	3.0	wm	277	diff_vonmises	-0.05178730903715607	-2.9671942401687494	2.659241116218044	1.1799320666257782	0.425295130983175	2.70852321768858	0.0902506020773669	-0.36436620632582295	0.45461680840318985	69.73341903349427
9	4.0	ltm	277	diff_vonmises	0.03183204850417247	1.8238420325448077	1.4483675080816432	0.9775902294001546	2.5255182763194783e-19	2.83424762616382	-0.036518324414013426	-0.4281988408337566	0.39168051641974316	112.08505253152143
10	4.0	perception	277	diff_vonmises	-0.05907557354053671	-3.3847810361874715	1.037556370459782	11.92568017326667	0.5556447871621473	13.955557384818222	0.5705651247375796	-0.684454238576867	1.2550193633144466	98.3844688800447
11	4.0	wm	277	diff_vonmises	-0.2201327149671017	-12.612675500371257	0.9679394006597954	180.51623781098263	0.9453143100901389	182.9435485602942	-0.02904791132618101	-0.5380793055823823	0.5090313942562013	80.8413661524814
12	5.0	ltm	277	diff_vonmises	-0.039985840562400586	-2.2910199045085675	1.4644481163475915	1.7586546859158332	0.35047498439032687	2.7473774843118757	0.14861636203878426	-0.27251377619692035	0.4211301382357046	92.30691030878128
13	5.0	perception	277	diff_vonmises	0.030981872820255642	1.7751305540117253	0.9325440412563726	115.35272208316856	0.8897278285738414	116.65666126348432	0.5218394472339227	-0.4851517626267956	1.0069912098607183	92.48833703077764
14	5.0	wm	277	diff_vonmises	-0.05695889973642295	-3.263504560605852	0.7615922145566707	144.00061941274055	0.7411421324150097	145.29136045258565	0.18475164230193286	-0.36348349472981134	0.5482351370317442	98.19735571008918
15	6.0	ltm	277	diff_vonmises	-0.2812848177940642	-16.11643290070624	1.18837022647811	1.4718884083405948	0.0749064972356737	2.7225897099310306	0.08851763107244975	-0.34995565520246136	0.4384732862749111	114.91835070354122
16	6.0	perception	277	diff_vonmises	0.11369602260910576	6.514302242925746	0.8563594674386725	2.685774050236347	1.0506441127074386e-13	4.242492356154225	0.16917704192110372	-0.52289754408415	0.6920745860052537	134.64861471946904
17	6.0	wm	277	diff_vonmises	0.006754913376598262	0.38702802745554443	0.8546790007772606	13.39481077705021	0.6593553026638677	14.844451929473767	0.09783201902100469	-0.36126345952296135	0.45909547854396604	95.62526127905761
18	7.0	ltm	277	diff_vonmises	0.0418535836333493	2.3980336996887326	1.581509756882678	141.55103368479593	1.5632318200170965	142.4998726959236	0.024234802808464906	-0.26191608226457674	0.28615088507304165	63.85018889794995
19	7.0	perception	277	diff_vonmises	-0.027739367288408284	-1.5893486719890493	1.332806763140962	2.168809045516446	1.6624605726867572e-13	3.858430923183053	0.26080413410811754	-0.5532295832410266	0.8140337173491441	115.93873035381564
20	7.0	wm	277	diff_vonmises	1.6917828361856633	96.93201636611083	15.47955568904922	0.1712140736079202	0.14093332516766874	1.5680877175795085	-0.019420306895042982	-0.27151736329988263	0.25209705640483965	33.39788423059247
0	1.0	ltm	278	diff_vonmises	0.13222986883702675	7.57621340993008	3.7340476576911477	0.497937924736117	8.751006886185959e-20	2.798476508058173	-0.07676114689432817	-0.4451808330431885	0.36841968614886034	70.92437473429786
1	1.0	perception	278	diff_vonmises	-0.0955910240359109	-5.476962236591303	11.717207057043604	0.8864943174133237	2.8036235628935376e-17	3.38058993548787	0.658621682394671	-0.538037598720011	1.1966592811146821	39.62890422291693
2	1.0	wm	278	diff_vonmises	0.0009149841365362513	0.052424729344949066	4.7929701102701125	0.6269934043138866	0.1255695909783796	3.2979899963247066	-0.06123387905908839	-0.5249087012245982	0.4636748221655098	58.17867448283144
3	2.0	ltm	278	diff_vonmises	-0.10976023541877773	-6.288798247858298	2.169233464137878	1.4158861259718216	0.35308421275099056	2.6567084378842636	0.18347807682253414	-0.3255015975864297	0.5089796744089639	79.01247413399258
4	2.0	perception	278	diff_vonmises	-0.055455928045517355	-3.1773906259893208	10.222136244278067	0.9702794880577431	0.030096664855313187	2.355386888383711	0.8354334668557353	-0.3772443627991259	1.212677829654861	42.25763216482676
5	2.0	wm	278	diff_vonmises	-0.10854299803871734	-6.2190556833152755	4.760559650358048	0.7064534419524896	0.21782419888464985	2.287626699463231	0.14934744689222523	-0.36315834013734477	0.51250578702957	58.018883864065
6	3.0	ltm	278	diff_vonmises	-0.03983688142774972	-2.2824851747731523	0.8981119597092229	77.08429032379442	0.8600076674099136	78.07541504417787	0.24760583855249152	-0.3129613790056238	0.5605672175581153	92.47269539433285
7	3.0	perception	278	diff_vonmises	0.00307627613656485	0.17625763924197638	3.0793308553530796	2.8366539321889124	0.38480598095003316	3.844169123180827	1.0190653040243314	-0.5042214664270396	1.5232867704513708	70.9790833018414
8	3.0	wm	278	diff_vonmises	-0.05214638381014124	-2.9877677091904182	2.8285245837072823	1.177244136798468	0.27441813342170496	2.4587211141753547	0.24015707971577738	-0.3406028314448397	0.5807599111606171	72.89985754197917
9	4.0	ltm	278	diff_vonmises	-0.14284103969888484	-8.184188716006744	1.6282534092885164	1.193188991639015	1.8676653011306853e-19	2.7686135188281877	0.10259720329150324	-0.41971125145241805	0.5223084547439213	106.56370623584608
10	4.0	perception	278	diff_vonmises	-0.04641723801261641	-2.6595118347771334	0.877766707329255	342.56246372357305	0.8592659276441456	344.2827472294204	0.6667765901105867	-0.6391915966220587	1.3059681867326454	94.67293491131497
11	4.0	wm	278	diff_vonmises	-0.20358836196676036	-11.664753898677096	0.9089736191727048	195.35020265422037	0.8910396064092209	197.12607777004143	0.09714765844277196	-0.42984075995471827	0.5269884183974902	86.69137030683743
12	5.0	ltm	278	diff_vonmises	-0.01061113077002184	-0.6079730089836548	1.667630431474117	1.256606028597352	2.641402957048387e-15	1.9112919365419583	0.27628104725988006	-0.28352204628368394	0.5598030935435641	105.49932117983985
13	5.0	perception	278	diff_vonmises	0.015750390811890922	0.9024309192029799	0.9871179865832732	166.7191670318557	0.9599328738430697	167.52465647057284	0.5901047217927058	-0.39705257126893123	0.987157293061637	91.33558020659225
14	5.0	wm	278	diff_vonmises	-0.06121590755986562	-3.5074131422432897	1.5899438168117495	2.0824945626001967	0.2731134412138715	2.8516853934290536	0.3490194563997431	-0.30536793977057847	0.6543873961703215	95.064044454347
15	6.0	ltm	278	diff_vonmises	-0.23035120324356492	-13.198151751616509	1.0468133265095798	1.5201995055497277	1.5285770232641892e-14	2.294659285029757	0.16769218048231693	-0.299531460053605	0.4672236405359219	126.28276888675855
16	6.0	perception	278	diff_vonmises	0.17472321412706537	10.010902752441408	0.23034100529512816	8.87449720158867	2.0897969454871903e-13	9.410667295484906	0.25716898683164957	-0.39065520116997177	0.6478241880016213	166.06618446291907
17	6.0	wm	278	diff_vonmises	-0.22410815233062636	-12.840451283019835	0.733628163346239	148.97056902154165	0.7206211960661456	149.59228225358996	0.19033237793730962	-0.22255192283133418	0.4128843007686438	102.77982408488137
18	7.0	ltm	278	diff_vonmises	0.22122827086918875	12.675446229781492	1.2298918979604638	133.5937389494254	1.2114526830784238	134.24100288916205	0.20682748278379393	-0.21820273292550674	0.42503021570930066	78.69243854359996
19	7.0	perception	278	diff_vonmises	-0.030424423810240304	-1.7431910784441005	1.9379224651081122	1.7980868621842467	1.7697875158725176e-15	2.3347113125499273	0.5384742042086659	-0.35270847331131455	0.8911826775199805	98.47788918593517
20	7.0	wm	278	diff_vonmises	0.13341313266041965	7.644009433061006	0.487540939234748	1.7324179465641807	5.961506029870243e-14	2.5545131643885353	0.01685633820103971	-0.24686278136795872	0.2637191195689984	152.4886899909336
0	1.0	ltm	279	diff_vonmises	-0.2501615009034922	-14.333198198428233	0.060166374180647915	12.008174456437189	0.010976611584039233	13.465011504491217	-0.13877032116399457	-0.3216272707846397	0.18285694962064514	174.17573852013126
1	1.0	perception	279	diff_vonmises	-0.046963853660075904	-2.690830604392373	11.46867767354881	0.8103381077415345	0.03645675363057277	2.7346554051889926	0.6309343738821072	-0.44040395731824583	1.071338331200353	39.81370021603436
2	1.0	wm	279	diff_vonmises	0.08796071972005833	5.039778002892494	5.382542950202007	0.37329600567806187	8.551887840567131e-13	2.045961342738277	0.011007313722343204	-0.3256177499295353	0.3366250636518785	58.80059187448799
3	2.0	ltm	279	diff_vonmises	0.13886126035885696	7.956164156429787	1.7980798679942003	0.7070424819240156	1.526834911202732e-14	1.464182137671162	0.10891344265255753	-0.22365264794002235	0.3325660905925799	101.91715614590024
4	2.0	perception	279	diff_vonmises	-0.020054216073910173	-1.1490219424784687	8.988242026574861	1.2012035915550698	0.24851109063683102	2.280091326880731	0.9573939516488772	-0.389577611835922	1.3469715634847992	44.08853822583359
5	2.0	wm	279	diff_vonmises	-0.0788402269940008	-4.517212262609631	6.19812438842055	0.5165571556037655	0.18977086448136857	1.730245477639546	0.17173966827336012	-0.28272700719519844	0.45446667546855857	51.97087950203442
6	3.0	ltm	279	diff_vonmises	0.05975683968447797	3.4238147109604578	1.109981355776792	78.24738089467725	1.090982602754308	78.50318724731463	0.18649653156919044	-0.12248084741338516	0.3089773789825756	85.78288542183273
7	3.0	perception	279	diff_vonmises	0.04562735419991737	2.6142548260037763	2.6460121665502077	4.594749286763959	1.0368133250252136	4.85309486678447	1.1071520818544849	-0.4068073685201804	1.5139594503746654	68.84401079212722
8	3.0	wm	279	diff_vonmises	-0.12095520259964845	-6.930222619109659	3.593185409548892	0.5536897795643506	1.4097235682361936e-12	1.1948859395317755	0.21115606151616742	-0.1898682646404882	0.4010243261566556	72.33405411683026
9	4.0	ltm	279	diff_vonmises	-0.3674721400771148	-21.054602715058873	3.107693811396984	0.5833850895657751	0.07547869700878222	1.7283515849700046	0.09360894437723977	-0.2616816571019547	0.35529060147919445	74.2393422324757
10	4.0	perception	279	diff_vonmises	-0.003325310039542934	-0.190526230838291	2.461571155531965	2.928548176959011	0.3465112775049198	4.164765504175815	0.8004691209692846	-0.5112788741665812	1.3117479951358657	78.11785904393412
11	4.0	wm	279	diff_vonmises	-0.37932349119509123	-21.73363511564657	1.1059112292705755	137.37287694229812	1.082432961465219	138.76949650485494	0.10532096318254958	-0.35485732998292363	0.4601782931654732	78.89498921808243
12	5.0	ltm	279	diff_vonmises	-0.04303534659382407	-2.465743729708822	2.1002720090812184	0.5629247328255457	3.2220043481811186e-15	0.8013752020744569	0.17153613208990873	-0.1230597802856947	0.29459591237560345	94.77601267608165
13	5.0	perception	279	diff_vonmises	-0.008672256722064477	-0.49688370902825235	1.4681480420643267	7.195425535895605	0.866089996393121	7.571310945886106	0.6819024025344085	-0.3204556526382416	1.00235805517265	85.47812523208967
14	5.0	wm	279	diff_vonmises	0.03644231694306448	2.0879909565156867	2.275918332393597	0.9722976868782708	0.031157738831896275	1.418010809452066	0.30929208947566944	-0.2129893926426359	0.5222814821183053	89.87456717451525
15	6.0	ltm	279	diff_vonmises	-0.44796029520345454	-25.6662343045924	0.6058622539399011	86.96925521138571	0.5892741841852895	87.38388180681194	0.16371295507168426	-0.18250179610592276	0.346214751177607	114.29024889309551
16	6.0	perception	279	diff_vonmises	0.21179394259356016	12.134899037047038	1.034000987479316	2.4485600241208263	3.938620359716385e-17	2.662055181257826	0.4287421787722023	-0.3159000305910855	0.7446422093632878	126.80143823999
17	6.0	wm	279	diff_vonmises	-0.1708222044197329	-9.787391360371693	2.8010806447883687	0.6008974710980053	1.226673717373949e-16	0.9115427915181814	0.23329825170112753	-0.14368032960666616	0.3769785813077937	82.1422988857118
18	7.0	ltm	279	diff_vonmises	0.25642268911930416	14.691937857931304	1.4127360638061264	122.83295036131317	1.3956240375032012	123.30632097728392	0.17852729103380938	-0.17252202464749544	0.3510493156813048	73.57828464339741
19	7.0	perception	279	diff_vonmises	-0.007209487322842235	-0.4130731960519309	1.3997009091514594	1.8795015569508453	6.1924345490403305e-19	2.2388186644078782	0.4244481476989434	-0.30880868891212504	0.7332568366110684	113.68355492087325
20	7.0	wm	279	diff_vonmises	-0.125171721571709	-7.171811360445569	0.2214130756770506	3.646042384253305	1.0549750455911402e-12	4.313440804284576	0.0288031364029252	-0.2271198716229848	0.25592300802591	167.03859049329787
0	1.0	ltm	280	diff_vonmises	0.34593831945423614	19.82080567657615	0.6128609983606853	175.8893086788748	0.5965359465057843	179.16092725023915	-0.3229395036934548	-0.6049398806087787	0.28200037691532387	91.74739623116696
1	1.0	perception	280	diff_vonmises	0.00012947299827284427	0.0074182563619385735	9.396270968057244	0.748590196243503	1.8917848596806084e-16	4.300793890034512	0.21812853257932463	-0.6844926005952919	0.9026211331746166	44.292856252600984
2	1.0	wm	280	diff_vonmises	0.13425094203925023	7.6920123745044755	3.5509546838246138	0.6100343893604083	0.16831857909575124	4.23120922469924	-0.35199066531646866	-0.6668809732164767	0.314890307900008	62.414784382016904
3	2.0	ltm	280	diff_vonmises	0.07314468447979329	4.190881714508211	0.536203528107646	69.49142165850786	0.50583502178194	71.34996309370335	-0.06494203579179114	-0.403179312178529	0.33823727638673784	109.5568373202666
4	2.0	perception	280	diff_vonmises	-0.059901929835858715	-3.4321277642834884	10.440688259611226	1.1939096321031966	0.1811423745042428	3.2154397795668164	0.9109081616208552	-0.5475854276502836	1.4584935892711388	41.05953791424696
5	2.0	wm	280	diff_vonmises	-0.026553906920524124	-1.5214267961292611	5.469168683081345	0.5696681054200599	0.004542657277627266	3.050127426435842	0.03033031341840997	-0.4843561426634038	0.5146864560818138	58.1047878687132
6	3.0	ltm	280	diff_vonmises	-0.0435856075510994	-2.4972713601915273	0.9748197846513063	164.52815391060346	0.9608387358274797	165.49219800470175	0.11397776955878669	-0.2552143181536728	0.3691920877124595	85.4101956671777
7	3.0	perception	280	diff_vonmises	0.03692032313286896	2.1153786937726125	2.2388587608007904	4.27501132849244	0.5712426919856047	5.218249686619429	1.0027432346989922	-0.5239264703437329	1.5266697050427251	77.89052296578413
8	3.0	wm	280	diff_vonmises	-0.055932563655764635	-3.204699834822132	2.839607850427184	0.9405471257304898	0.2925289108468943	2.3067690010263124	0.1153932406196787	-0.3245843862730316	0.4399776268927103	71.15276867347347
9	4.0	ltm	280	diff_vonmises	0.17485685103282492	10.018559583128617	0.00037635315312354396	1468.5668660714218	1.5824715807218153e-30	1470.578343584316	-0.23216341774374882	-0.40809320751665723	0.1759297897729084	178.92255308869483
10	4.0	perception	280	diff_vonmises	0.007186892860355502	0.4117786287110744	2.357417986060962	2.6707098564371745	0.12992193059769788	4.987472197642525	0.6202007997493362	-0.6965898517653378	1.316790651514674	83.76557870614505
11	4.0	wm	280	diff_vonmises	-0.25129669682974437	-14.398240133922927	1.127325560506519	2.364252998800253	0.17879260194648822	5.034518301218246	-0.08607036408637803	-0.5754340169958742	0.4893636529094961	105.18919118126294
12	5.0	ltm	280	diff_vonmises	0.05755611682326465	3.2977225791349793	3.1079661633788502	0.5573035419430991	2.6280532883421872e-14	2.1442043854112374	0.03114309368751539	-0.3405168425164376	0.371659936203953	77.91780840349341
13	5.0	perception	280	diff_vonmises	-0.001975460036825537	-0.11318552270686146	2.7384762810893113	1.715300087013595	9.956661682253388e-15	3.790861785728851	0.46276191413485823	-0.5988758709027311	1.0616377850375893	83.09742994312
14	5.0	wm	280	diff_vonmises	-0.013420898035947105	-0.768960814735185	1.62138833885373	1.554630167980969	0.1251267551265389	3.588372576732019	0.06126746673682626	-0.47659201298072984	0.5378594797175561	96.51424208922018
15	6.0	ltm	280	diff_vonmises	-0.31363349559123643	-17.96987561131276	0.33469653182850123	91.52927423753327	0.3160356013552792	93.2068927277803	-0.0495254006609116	-0.41183397193252524	0.36230857127161364	136.01048399061295
16	6.0	perception	280	diff_vonmises	0.26228342751983336	15.02773343311188	0.10784074483329938	164.1930000316086	0.09118398414565043	166.08581031152508	0.12646849042166508	-0.687029853147223	0.8134983435688881	166.455017554182
17	6.0	wm	280	diff_vonmises	-0.3269016801352586	-18.730086587485943	0.5262606462240788	4.423871933889226	0.13824012195060123	6.3853274935362405	-0.04807218949465164	-0.49222993767386913	0.4441577481792175	137.71651562491377
18	7.0	ltm	280	diff_vonmises	0.7902113964648099	45.275777940572624	0.5085185993592494	1.5351458050317985	1.5802739226867673e-35	2.703174332300912	-0.04900064558676881	-0.292346988263791	0.2433463426770222	141.35838753053534
19	7.0	perception	280	diff_vonmises	-0.05790760172729295	-3.317861180698362	3.0954110451873857	1.3192326024112315	2.0031618729921475e-17	2.7901220214677456	0.4354561460126194	-0.4422601621941266	0.8777163082067461	78.07990222836582
20	7.0	wm	280	diff_vonmises	1.1720241797767132	67.15203898848772	0.0002917363195872702	2009.832044013874	1.5057664911825655e-19	2011.5712382880192	-0.18347581985131	-0.3701132995143439	0.1866374796630339	143.3986759184094
0	1.0	ltm	281	diff_vonmises	-0.0013609636156679365	-0.0779774712486374	0.43723835735421307	1.754680368842337	6.315652417009058e-16	4.178422561021215	-0.2525448339451299	-0.49298265086811316	0.24043781692298327	155.51836487917018
1	1.0	perception	281	diff_vonmises	-0.0517159834948229	-2.9631075876215776	11.91192908979577	0.73678126291524	3.1590609985806106e-23	3.4635047229987928	0.4521579397651827	-0.5512338970422082	1.0033918368073909	39.288941983544106
2	1.0	wm	281	diff_vonmises	0.010571392584404857	0.6056961786622942	2.946924731530638	0.9825871614639615	0.2072368258565836	3.5847269379758857	-0.057441465493732746	-0.5316005744780882	0.4741591089843554	69.89647034693638
3	2.0	ltm	281	diff_vonmises	0.017934078723059892	1.0275470202867005	1.9980619760555847	0.8306022717980316	1.5975889266384864e-19	2.3223523815166267	0.058630598120235244	-0.3617398255589154	0.4203704236791506	97.06382050634073
4	2.0	perception	281	diff_vonmises	-0.03935904844538853	-2.255107361571707	8.461396537661727	1.2556652349761386	0.17168627621282048	2.866063633956917	0.8966006842072111	-0.47608813042219505	1.372688814629406	45.59147032032652
5	2.0	wm	281	diff_vonmises	-0.025748641677199056	-1.4752884962981594	6.638348907998944	0.5418358587997103	6.76576152512686e-21	2.282090835203612	0.18227877393846226	-0.3632051016351869	0.5454838755736491	52.8427264096816
6	3.0	ltm	281	diff_vonmises	-0.13013814910380517	-7.456366697292252	1.1995633194026205	1.8648208086374904	0.1853831876861293	2.8691873364615814	0.16188611038902223	-0.311953634532933	0.47383974492195524	108.4187088586135
7	3.0	perception	281	diff_vonmises	0.03594949769503948	2.0597544935410435	3.3418269224896497	2.8315243245082873	0.33360025159018003	3.663968339938605	1.1792416285160565	-0.4989738307666895	1.678215459282746	69.49098147978302
8	3.0	wm	281	diff_vonmises	-0.11253323738810653	-6.447679557282304	3.1841963916586464	0.8251490510542981	0.003179030633201372	2.096280395626556	0.22426763044610687	-0.3316148739371133	0.5558825043832202	76.78853468998236
9	4.0	ltm	281	diff_vonmises	-0.13960153256709953	-7.998578629652916	0.16899227480478735	7.291868389828629	1.5732358326518591e-18	9.179319410404691	-0.09648855379178967	-0.48780291867411263	0.39131436488232296	169.8858234137516
10	4.0	perception	281	diff_vonmises	-0.021710116664338825	-1.2438980576032517	2.8583134222340645	2.3696599204807542	6.447614380909428e-22	4.336885788031654	0.8193629902971521	-0.685268773692403	1.504631763989555	81.31329508797046
11	4.0	wm	281	diff_vonmises	-0.31154408162532315	-17.850161009410236	1.8202621329506679	1.4530172073244507	0.17267131065734245	3.759387399006945	0.002152007847944115	-0.4989622812817268	0.5011142891296709	88.18610872829638
12	5.0	ltm	281	diff_vonmises	-0.12177403467528	-6.977138241173284	1.0431515958107207	1.339348911705488	2.5971463658458916e-10	2.089760297804635	0.1359856259161234	-0.27442353751041615	0.41040916342653955	126.70308008875126
13	5.0	perception	281	diff_vonmises	0.011000164999518806	0.6302630284199549	2.314973626644296	2.074254202816034	0.10298119091483936	2.9861965158667085	0.6426965727602979	-0.41846682065434304	1.061163393414641	86.48398981471453
14	5.0	wm	281	diff_vonmises	-0.08343412072672143	-4.7804229850261235	1.9707269268759553	1.1541751226507642	2.8068442360418573e-13	2.1296947029294078	0.25117576017798454	-0.3274908606796726	0.5786666208576572	97.69169664959553
15	6.0	ltm	281	diff_vonmises	-0.34021213505858405	-19.492719477991617	0.39626330757273853	2.8747757561852105	2.3507918564865515e-11	3.641330234213506	0.07454062680294904	-0.2834269663382526	0.35796759314120163	155.6235310639447
16	6.0	perception	281	diff_vonmises	0.1432452819611936	8.207350091537856	0.9333417068416525	2.813669061395431	1.2482300200032384e-19	3.566194495867805	0.3583038654610682	-0.4244014449168261	0.7827053103778943	131.19793217214962
17	6.0	wm	281	diff_vonmises	-0.047890974528310655	-2.743950717240729	1.6703692134130548	0.8081924505660426	0.01634321249014812	1.7063360850616855	0.09768721257929303	-0.25391774044793886	0.3516049530272319	104.21489131743219
18	7.0	ltm	281	diff_vonmises	0.37582252475493233	21.533044514408527	1.4286864360069549	111.81218748688046	1.4099838280292196	112.49962905847974	0.08496159058851305	-0.19854314631034242	0.28350473689885547	69.86930771308533
19	7.0	perception	281	diff_vonmises	0.04614971828056675	2.644184083194217	1.4476834905355922	2.0682161233885124	2.583923924050896e-16	3.2689139403980767	0.35653495802533297	-0.47179277905875366	0.8283277370840867	112.10383084735463
20	7.0	wm	281	diff_vonmises	-0.06670266245237712	-3.8217810408069544	0.00017798033481235717	2555.105799122529	3.1190999733169234e-32	2556.176807804577	-0.09807637899166366	-0.2428298319695159	0.14475345297785225	179.86268466593663
0	1.0	ltm	282	diff_vonmises	0.23607384119763566	13.526034754066144	0.549335114988256	1.180296466805728	4.2706934026487284e-17	4.122426577565992	-0.35396324236987314	-0.5553928419051903	0.2014295995353172	148.68505937207993
1	1.0	perception	282	diff_vonmises	0.014868245213749362	0.851887699513425	11.522970390062065	0.6617138688302625	7.531837854398533e-20	3.9383939317580605	0.2591339470056888	-0.6268148619955807	0.8859488090012695	39.95212068286878
2	1.0	wm	282	diff_vonmises	0.022588678685214438	1.2942359534399088	3.261840405445483	0.7664032746079202	0.17465052985540366	4.188380050559746	-0.2614977717768603	-0.6463964339814341	0.3848986622045738	65.7638440610651
3	2.0	ltm	282	diff_vonmises	0.15276622269542683	8.752859812603608	1.8210110785956664	0.940599679640264	0.12015785410855008	2.6182662709315117	-0.009809115078465547	-0.3614543687036932	0.35164525362522764	90.94262577861704
4	2.0	perception	282	diff_vonmises	-0.03325839894520689	-1.905565892922704	8.371439352359145	1.3055680964196914	0.18486511110314616	3.337789426750804	0.8494370095029233	-0.5577223998631943	1.4071594093661175	45.63186074114131
5	2.0	wm	282	diff_vonmises	0.029787065135933155	1.7066731163702475	4.845704997425471	0.7095567226460312	0.04141700362780712	3.2528520996486976	0.06566628777389771	-0.5127401274199682	0.5784064151938659	60.50065461705577
6	3.0	ltm	282	diff_vonmises	0.020223246187406948	1.1587066545924511	1.2658249351860162	1.5218530154055792	0.22499153069352473	2.5756189460172534	0.08848419178442168	-0.27712101488794555	0.36560520667236723	102.15559837645975
7	3.0	perception	282	diff_vonmises	0.022191643450701907	1.271487510184354	3.5498160207245837	2.829221923798709	0.3455124477518948	4.010988191992983	1.1613495012479584	-0.5612400568049346	1.722589558052893	67.15604874096522
8	3.0	wm	282	diff_vonmises	-0.08330421965554134	-4.772980201893275	2.3277553106099793	0.8473382771197583	1.593704329343606e-19	2.7178807549782307	0.04619448292821343	-0.42801144757241844	0.47420593050063187	90.130045211109
9	4.0	ltm	282	diff_vonmises	0.04683820493065197	2.6836314624952005	0.0001718248166828125	5433.256947151266	2.673131397340719e-32	5435.451527370941	-0.20069215102944327	-0.49785166465562725	0.297159513626184	179.8726751381822
10	4.0	perception	282	diff_vonmises	0.02252601795797451	1.2906457582278406	2.5882419422936778	2.594991944406715	0.10975109696345639	5.169596519105463	0.645288566186073	-0.7443473994398456	1.3896359656259185	80.77616450992417
11	4.0	wm	282	diff_vonmises	-0.387189205942896	-22.184307373549593	0.9835750326531248	2.0733816764451016	7.515401268256655e-13	5.622487894478902	-0.1928008948311667	-0.7966612138417997	0.603860319010633	128.0817087232336
12	5.0	ltm	282	diff_vonmises	-0.03738846264797575	-2.1422011122115325	1.9328245190943538	0.7985304190502012	0.016032440036816514	1.590924621667593	0.14623711847783033	-0.2407069241554075	0.38694404263323784	97.5932708973674
13	5.0	perception	282	diff_vonmises	-0.022353486887366946	-1.2807604560471535	1.9923327880672537	2.768509640651129	0.15889798596264718	3.969279512256786	0.6890146943860589	-0.5136334772939557	1.2026481716800146	90.5399372042709
14	5.0	wm	282	diff_vonmises	-0.005080805049678421	-0.29110868587533006	2.640746769635208	1.0770863284998968	1.750854276734775e-19	2.5031856110754114	0.25704308086215766	-0.3950613478216801	0.6521044286838378	84.63635556772911
15	6.0	ltm	282	diff_vonmises	-0.2209806219568072	-12.661256992301023	0.12328216701353496	31.466671727553916	0.08754845797769398	32.16059184571768	0.06753926757382	-0.2700428532092207	0.33758212078304073	166.4844862860645
16	6.0	perception	282	diff_vonmises	0.08599317338791454	4.92704590206421	0.43699636815835247	150.30082123633395	0.41697844663703443	151.1699198306813	0.3540381041635712	-0.4483421408786583	0.8023802450422295	131.44670147777586
17	6.0	wm	282	diff_vonmises	-0.0763828442580773	-4.376414603192903	1.451316483260888	1.214073997963413	0.059910922798776654	2.331544418614137	0.12183788246465571	-0.3208950501777751	0.4427329326424308	107.58886966490238
18	7.0	ltm	282	diff_vonmises	0.425967097591141	24.406116903409636	1.3225864614138714	76.8560103378247	1.3015553836284108	77.47638441740226	0.04642534313051527	-0.1655445805670226	0.21196992369753787	71.67863699563298
19	7.0	perception	282	diff_vonmises	0.06487249639361485	3.7169202498317846	1.6206091246846726	2.0458013823019296	5.721879432949861e-13	3.578185897958803	0.35925384843987407	-0.5331557513364487	0.8924095997763227	106.82155548349795
20	7.0	wm	282	diff_vonmises	0.35192930978972015	20.16406413790305	0.0001911424044866858	2119.0154456141127	7.711218280822817e-32	2120.51414438878	-0.17405938565673296	-0.3029850900148858	0.12892570435815287	176.12461801563748
0	1.0	ltm	283	diff_vonmises	0.2516988617567196	14.421282486906795	0.4591530663531457	132.3773346594369	0.4458682382025062	134.9993525700533	-0.294499348379059	-0.4708570934769192	0.17635774509786017	102.98885642754973
1	1.0	perception	283	diff_vonmises	0.01761890589400949	1.0094889473649142	8.158388016215119	0.9822972967560898	0.15078946915907834	4.152361203412182	0.33702440701520775	-0.690888091418674	1.0279124984338819	45.8485979244351
2	1.0	wm	283	diff_vonmises	0.26007935867325727	14.901449590446804	7.476189483843856	0.17312874605340403	0.14356518502518154	3.631195247542551	-0.4782465726800512	-0.6177183823572283	0.1394718096771771	43.47408348642492
3	2.0	ltm	283	diff_vonmises	0.20836285435458796	11.938312161816956	0.6356106166422322	99.82270782052252	0.6193810512636205	100.97031621074328	-0.0015785082460375577	-0.25923230320467994	0.2576537949586424	101.75748709164884
4	2.0	perception	283	diff_vonmises	-0.04306620298585957	-2.4675116707434577	10.300400803238789	1.1255169372048328	0.24256209438012252	2.8981632981127143	0.8429542746195244	-0.5057067810967828	1.3486610557163072	41.084681544988314
5	2.0	wm	283	diff_vonmises	-0.09610807866084704	-5.506587284377864	1.3368384090014158	6.620304327750675	0.7740974395477603	9.320083737119232	-0.10841311316404312	-0.5837053423744745	0.47529222921043135	75.73427514311791
6	3.0	ltm	283	diff_vonmises	0.186734640272898	10.699106776530705	1.4645721554179394	94.79949684353373	1.4450630492038659	95.25457183448547	0.13381286691851102	-0.1557110403891766	0.2895239073076876	71.4208642969555
7	3.0	perception	283	diff_vonmises	-0.008032320937248956	-0.46021808939893094	2.436874470353856	4.939898868690032	0.9151449017837242	5.990116046706607	0.9172956708927431	-0.535950878401089	1.4532465492938322	70.14403155071702
8	3.0	wm	283	diff_vonmises	0.03178549191988209	1.821174536756424	3.933972531863909	0.37963246921195	0.08704301122531076	2.0290428139014165	-0.062399616661826474	-0.3168421431758067	0.25444252651398025	64.61948797875061
9	4.0	ltm	283	diff_vonmises	0.009925870970867997	0.5687105146221572	0.5865605112233148	100.64335609791334	0.571767518627151	102.1816816212384	-0.1191275392833937	-0.29720146551764515	0.17807392623425145	97.96785900707377
10	4.0	perception	283	diff_vonmises	0.033153139918408216	1.8995349949314853	0.9978119567185545	368.85677986075245	0.981582776714681	370.8669839846036	0.4535241289952978	-0.6082999284775283	1.0618240574728262	86.57193551465511
11	4.0	wm	283	diff_vonmises	-0.19140104393615864	-10.966472011939928	0.6522430550225347	242.8900497954879	0.6367446242813878	245.8291839008252	-0.08578810098330791	-0.6247169543114559	0.538928853328148	98.1490374187104
12	5.0	ltm	283	diff_vonmises	-0.0456628867398286	-2.61629069057607	1.324354329013491	134.68416073360237	1.3032499454222441	135.46294696691976	0.2054048799193211	-0.25196169709326455	0.45736657701258565	75.062925253873
13	5.0	perception	283	diff_vonmises	-0.04781743147221358	-2.7397370105138728	0.9478712526123831	345.07350893812054	0.9315255157242603	346.5251208059626	0.5946858623707527	-0.5417613887220938	1.1364472510928465	91.1123240155591
14	5.0	wm	283	diff_vonmises	0.1547605031323437	8.867123664804451	4.3170720690282645	0.8680653575835111	1.8220593695835055e-18	2.506719088117753	0.29669965488058314	-0.39883295574678496	0.695532610627368	65.83063396360916
15	6.0	ltm	283	diff_vonmises	-0.16930720150162168	-9.700588087213916	0.7699108633902176	151.10932541227555	0.7547716993738647	151.95516060728917	0.18726578654844417	-0.266039125746552	0.45330491229499614	99.0780867824136
16	6.0	perception	283	diff_vonmises	0.18653044669333213	10.687407346217913	0.19164785612971083	11.670670415207221	5.3914267129440225e-22	12.679310682882274	0.21132048772138834	-0.49845330768936824	0.7097737954107566	168.1017945259128
17	6.0	wm	283	diff_vonmises	-0.3796293671288706	-21.75116051570675	1.1475028551079993	1.9927018532898744	9.098521741377457e-22	2.9744343381150617	0.2627060982495553	-0.3992240802179345	0.6619301784674898	121.7969575820241
18	7.0	ltm	283	diff_vonmises	0.9713597822424694	55.654815911240185	0.00015819110592543928	6638.769158442733	1.8863848773630583e-31	6639.421790628744	0.0632775413409945	-0.27100359883456804	0.33428114017556254	153.97010294290206
19	7.0	perception	283	diff_vonmises	-0.07995560832641543	-4.581118905504668	1.6545811333441942	2.634297362805524	0.29157349054326026	3.4619075377219155	0.48899716360570156	-0.3673352062879738	0.8563323698936753	93.47273867345714
20	7.0	wm	283	diff_vonmises	0.3867099618455741	22.15684870941649	0.6807414644883784	142.46910360817645	0.6648525179338902	144.0273259406363	-0.002109857471957355	-0.3484672948445464	0.34635743737258906	98.03829444492806
0	1.0	ltm	284	diff_vonmises	0.03460307674073499	1.9826102554114193	0.2679984250206004	2.0893907052607683	5.719710731469206e-15	4.320774206948219	-0.260634447388181	-0.43781864202582255	0.17718419463764157	164.72320324988567
1	1.0	perception	284	diff_vonmises	-0.0023910303511517073	-0.13699594780867602	11.603282390089044	0.6805948322896962	6.314114659638021e-20	3.327658629130404	0.38486510205118785	-0.5296133196721697	0.9144784217233576	39.81167855829102
2	1.0	wm	284	diff_vonmises	0.10230639379868256	5.861724581867889	3.74073013541911	0.5977270494661842	0.1477702032391153	3.117149217392715	-0.1290044856389731	-0.48610433134168907	0.35709984570271597	63.79534370972044
3	2.0	ltm	284	diff_vonmises	0.14798620251052508	8.478984830021394	1.4563323721298607	0.8226591380607442	2.8749517079740447e-13	2.201591999152475	-0.0003875446105850999	-0.33137618380375045	0.33098863919316535	111.74505472496156
4	2.0	perception	284	diff_vonmises	-0.028437362625747326	-1.6293408589383866	8.623354617519036	1.289069038732387	0.21049972530350616	3.002102235172591	0.9034616621983802	-0.5065464352361113	1.4100080974344915	44.94960658649683
5	2.0	wm	284	diff_vonmises	-0.0245881011564951	-1.4087944225079077	5.895787634764868	0.5536576349370071	0.039849819131713655	2.5505330124142693	0.10153822212074332	-0.4047946228325788	0.5063328449533221	55.05901876457324
6	3.0	ltm	284	diff_vonmises	0.01408774218854708	0.8071681702721413	0.8607382801962746	95.86961212176398	0.8424361730864922	96.492482978022	0.14061350200154976	-0.19188906740276934	0.3325025694043191	93.62380053569075
7	3.0	perception	284	diff_vonmises	0.05245612380929037	3.0055145038880493	2.567206063701512	4.330769378408087	0.7520102220872906	4.928139268762995	1.1411530022026364	-0.48517602020464196	1.6263290224072784	72.16431412613102
8	3.0	wm	284	diff_vonmises	-0.1378739258716538	-7.899594057345333	3.383446756275	0.640460244746611	3.3414978253506206e-13	1.7743272544270707	0.16654771821314823	-0.28187609793072427	0.4484238161438725	74.6003542433879
9	4.0	ltm	284	diff_vonmises	-0.24423458093018044	-13.993610698445679	1.3395652449729571	0.5722519489719535	8.014697786077455e-54	2.280702567947006	-0.1314335458621184	-0.3470953728471772	0.21566182698505879	115.44324149480974
10	4.0	perception	284	diff_vonmises	0.010148700787558099	0.5814777226681738	2.747105766954914	2.6076764026675123	0.18691757621602142	4.564202974140083	0.7554601977223306	-0.6351839896846756	1.3906441874070063	76.9937046089158
11	4.0	wm	284	diff_vonmises	-0.43972062223502206	-25.194135818933187	2.187777059244531	0.9770609056334622	0.07365156862203392	3.3109439084575745	-0.0344479070130278	-0.48745709309415336	0.45300918608112556	86.32603262592977
12	5.0	ltm	284	diff_vonmises	-0.015339617772984405	-0.8788953577358734	2.164050861313458	0.5400868409303341	9.111317527916075e-17	1.1872828837538414	0.10320411378004249	-0.18510748232860194	0.28831159610864443	93.41209795260372
13	5.0	perception	284	diff_vonmises	-0.015988511395358444	-0.9160742236508617	2.592901555344918	1.9325167427880279	0.06182805818689824	2.9326863953423974	0.667507199618023	-0.4328723634413025	1.1003795630593254	83.13029681641606
14	5.0	wm	284	diff_vonmises	0.007228674326976747	0.41417253041033847	2.5088098553762173	0.8926843823276579	6.135803566440234e-14	2.0732056178029166	0.1972063653368764	-0.32647047684073427	0.5236768421776107	86.84313897615928
15	6.0	ltm	284	diff_vonmises	-0.4173074731336003	-23.909956969824286	0.3563012697376166	101.87162274886286	0.34407699296465083	102.59903006118746	0.06722736527750683	-0.2385073517164784	0.30573471699398524	135.80226760963222
16	6.0	perception	284	diff_vonmises	0.16894231345404379	9.679681542092935	0.44080929673991576	183.00367466186717	0.42472251174185577	183.74181890517232	0.37194203844356366	-0.42504378123002695	0.7969858196735906	131.09718723460784
17	6.0	wm	284	diff_vonmises	-0.08785535827966458	-5.033741237034513	1.6505632874271101	0.7717058944934809	3.5044302577064516e-15	1.737625133871442	0.07771602210960976	-0.26349982085006746	0.3412158429596772	105.95787081219703
18	7.0	ltm	284	diff_vonmises	0.390603290061994	22.379919984476548	1.2866636648244247	88.72631121303168	1.268711798195951	89.27336436713139	0.07629892362140112	-0.15496620310199205	0.23126512672339317	74.21217399872316
19	7.0	perception	284	diff_vonmises	0.026543382593872056	1.5208237966298805	1.5501110515686007	1.8152297916566562	3.137718927928978e-13	2.7781754205054536	0.3598973608043189	-0.4060323981692514	0.7659297589735703	108.92069545561006
20	7.0	wm	284	diff_vonmises	-0.023204645633896147	-1.329528259918922	0.0003745947217285521	1163.465955795556	1.3162589603537435e-21	1164.5724269267223	-0.10673078918514989	-0.24545691976766193	0.13872613058251204	179.9640669538673
0	1.0	ltm	285	diff_vonmises	-0.564543948828481	-32.34598561752148	0.00027592425187689606	2175.9114013680173	4.90709468793818e-31	2177.5647174603687	-0.16757406525522356	-0.35867960998444914	0.19110554472922558	171.08800784478206
1	1.0	perception	285	diff_vonmises	-0.04443573250351198	-2.545979932023528	11.34213598805524	0.799492403177075	2.678230564247616e-16	2.9905866870515982	0.5854776434491913	-0.47596665383960746	1.0614442972887987	40.28392986300685
2	1.0	wm	285	diff_vonmises	0.1363646899645985	7.813121209581465	3.629301478209723	0.40972090536062966	4.4575884156349133e-20	2.1761910768809223	-0.047731968557210847	-0.3461413035099185	0.29840933495270766	71.96422028653518
3	2.0	ltm	285	diff_vonmises	0.2991778730415139	17.141629448979515	0.5177122713508583	103.8442761231019	0.5029575416313341	104.67708720238623	0.08087483096117509	-0.246557425904399	0.3274322568655741	118.41607011209925
4	2.0	perception	285	diff_vonmises	-0.02992575523306931	-1.7146194735964086	9.33771318052287	1.3336673548043614	0.407296855799836	2.307547402771996	1.0730324434442289	-0.41752932999435105	1.4905617734385799	42.770444229677366
5	2.0	wm	285	diff_vonmises	-0.0369522937543614	-2.1172104754525396	8.642046298625175	0.37515078680419484	4.876527496020617e-19	1.5035875997246997	0.19392476979485399	-0.23930338536747287	0.4332281551623268	46.21050444161702
6	3.0	ltm	285	diff_vonmises	-0.005160348006654326	-0.2956661616000401	1.2323317077404432	60.299681223778514	1.2112428039304963	60.55854139840725	0.1354392487617666	-0.10475756759081989	0.2401968163525865	80.27712063687898
7	3.0	perception	285	diff_vonmises	0.05467517072860004	3.1326565269060005	3.0545289413924785	3.1270703516306995	0.7934715426993284	3.235524464848849	1.0907753550368677	-0.3469775597757944	1.4377529148126622	68.08558029526168
8	3.0	wm	285	diff_vonmises	-0.0988073338372058	-5.661243213812062	4.051627669872715	0.4321827045225406	0.037255005244989536	0.9314182434723008	0.1807825466937297	-0.14486055140029108	0.3256430980940208	66.96649117194775
9	4.0	ltm	285	diff_vonmises	-0.482868700272262	-27.666338584568155	0.7962582451266571	95.21493964173625	0.7769913390641591	96.36860329656676	0.005093909295048604	-0.2580072819824615	0.2631011912775101	90.59028461371821
10	4.0	perception	285	diff_vonmises	-0.006618654405002403	-0.37922096346230877	3.535985467662189	1.899710886594916	0.01759537337399869	2.9842729368379888	0.8812994121670223	-0.4659378170724354	1.3472372292394579	72.42061552049412
11	4.0	wm	285	diff_vonmises	-0.315368292464665	-18.06927215047271	1.0744246362424752	72.55458757924396	1.0329694162547904	73.89361248462268	0.10015947180578166	-0.3377680801919265	0.43792755199770816	80.45815581315782
12	5.0	ltm	285	diff_vonmises	-0.08022687252003884	-4.596661198932308	2.4071725772531547	0.4401004652533667	1.5632573655378057e-17	1.0217209969769279	0.09103220090579486	-0.1605540051855416	0.2515862060913365	88.64837095988085
13	5.0	perception	285	diff_vonmises	0.00657948509222941	0.3769767271539884	2.7849307999722988	1.747086322788929	0.2177807569833503	2.5333335477933945	0.601000095061405	-0.34389970797611863	0.9448998030375235	76.70162091768904
14	5.0	wm	285	diff_vonmises	0.04789939954642443	2.7444334352209694	0.7267537253493138	72.43525672634718	0.6968961472376722	73.16087247845684	0.20635919819117987	-0.2545482449910157	0.46090744318219556	103.62678273649038
15	6.0	ltm	285	diff_vonmises	-0.5236731870055134	-30.00426345958102	0.630598237444789	76.30186984202386	0.6070340177405618	77.09764513320133	0.1285118619538963	-0.24554748298952855	0.37405934494342485	109.1363686316855
16	6.0	perception	285	diff_vonmises	0.31400292699873905	17.991042471782237	0.8572372758712133	3.2917992984646274	1.0900264704658712e-16	4.066041831970472	0.38837369427018875	-0.4606794920102476	0.8490531862804364	133.71503149152915
17	6.0	wm	285	diff_vonmises	-0.23672620938027408	-13.563412697619944	2.9122829459743516	0.6745461172969585	1.8771115813194803e-18	1.3654550827504892	0.2170145496718808	-0.21603565045812467	0.4330502001300055	80.53246039951284
18	7.0	ltm	285	diff_vonmises	0.22764900670739835	13.043327294679294	1.080710443853741	166.9550865435284	1.0668621720427325	167.9565229336821	0.07935778536609206	-0.2547887142633911	0.3341464996294832	79.794383261533
19	7.0	perception	285	diff_vonmises	-0.09552361128358124	-5.473099770397453	2.115636245745199	1.3910745210044622	3.861712307827884e-23	2.0924170096168275	0.4092965004070732	-0.3222282331170434	0.7315247335241166	94.4364705601196
20	7.0	wm	285	diff_vonmises	0.30132486746035236	17.264643167817102	1.912796708394844	0.4954652360404489	1.0651588841201033e-16	1.4849173365132837	0.012458602844402367	-0.23090671275010918	0.24336531559451155	98.91554739026174
0	1.0	ltm	286	diff_vonmises	0.33165109573385837	19.002208056439308	0.37817249699817235	113.94778337632752	0.36284780174252423	116.79321963559711	-0.3118310655653467	-0.5244642137861408	0.21263314822079415	116.44941093075914
1	1.0	perception	286	diff_vonmises	-0.03081239415711111	-1.765420141896024	10.545951100165198	0.7314466455087075	4.2683519590152755e-14	3.902093373938942	0.31474929479982616	-0.6210374482211112	0.9357867430209373	41.78381998560815
2	1.0	wm	286	diff_vonmises	0.006647395285506075	0.38086769461465897	5.784650777489775	0.3571578127169861	0.15824625434006834	3.622975190751537	-0.33673026423883434	-0.6017155971579182	0.2649853329190839	50.64539812033357
3	2.0	ltm	286	diff_vonmises	0.05114473422091548	2.9303774151767694	0.32268209477183485	107.81775684052246	0.3075663052800199	109.53479095762043	-0.07022188113570138	-0.40964979041080163	0.33942790927510025	137.57780358775474
4	2.0	perception	286	diff_vonmises	-0.05338402890528009	-3.0586795496769414	9.044730662426291	1.3129557091199098	0.24206226259503202	3.4412282341182614	0.8647210962862859	-0.5923383320337786	1.4570594283200644	43.644171223939054
5	2.0	wm	286	diff_vonmises	-0.04473925269253182	-2.563370357851378	4.317968734891705	0.7727758843405145	0.154883969650262	3.58631068271086	-0.04312401500418639	-0.5656970058109593	0.5225729908067729	60.477655567179085
6	3.0	ltm	286	diff_vonmises	0.10752758642348041	6.160876883293638	1.1308797386270761	227.97837335769114	1.1180605197359592	229.0344117286346	0.16120123777126594	-0.29534429941734075	0.4565455371886067	79.67694304392319
7	3.0	perception	286	diff_vonmises	-0.033838373842560374	-1.9387960067645915	1.7817091904377258	9.009701943176323	0.8667671074100619	10.569016626512983	0.989241571564655	-0.6787844491563859	1.668026020721041	78.08963773841563
8	3.0	wm	286	diff_vonmises	-0.06875945220008536	-3.9396264126964144	2.7709694709357633	0.992081951158141	0.31384752558991597	3.0967245286476954	-0.03743386751947608	-0.44526338977668006	0.407829522257204	68.95164337815163
9	4.0	ltm	286	diff_vonmises	0.4488308243736973	25.716111951990335	1.9005608180324172	0.5445583471272916	9.068616413584528e-19	2.785386702579228	-0.17092938506385436	-0.43722128755946665	0.2662919024956123	98.99542748060466
10	4.0	perception	286	diff_vonmises	-0.016772489001851014	-0.9609928317356539	0.8057100504147305	166.43026856990272	0.7672354416053474	169.10215007668003	0.42824785914483954	-0.7643059435408137	1.1925538026856533	96.28894394805559
11	4.0	wm	286	diff_vonmises	-0.22902686146320916	-13.122272556969284	0.6622678063124422	141.1206174592578	0.6352436090138301	144.58392671619245	-0.21808055332762422	-0.6873738344363716	0.46929328110874735	94.23580199677652
12	5.0	ltm	286	diff_vonmises	0.010404900877069797	0.596156906508068	0.9916875340818238	92.79818395390019	0.962164289450572	94.04556907588601	0.10193145770832857	-0.3147896584216241	0.41672111612995266	83.95173213545257
13	5.0	perception	286	diff_vonmises	-0.002421846473086213	-0.1387615815364837	1.068482089143504	11.322493896276708	0.6019627610098143	13.247222216410128	0.49241746541226616	-0.6196185206374353	1.1120359860497016	95.57733422999465
14	5.0	wm	286	diff_vonmises	0.015161292103920749	0.8686780495196792	2.3086733673198543	1.2323299686012492	0.13481590467613797	3.3030157474513673	0.09405799746461141	-0.46853611514204996	0.5625941126066614	82.25080736592591
15	6.0	ltm	286	diff_vonmises	-0.2073746291852549	-11.881691030405571	0.5480569835268054	86.4840561710389	0.5237183219794234	87.92749918669875	0.03289245672776886	-0.35740974359022637	0.39030220031799523	112.40808485189085
16	6.0	perception	286	diff_vonmises	0.08068941610662436	4.6231629942845025	0.6594273375109515	3.5586441067608385	5.004519503216269e-15	5.452843215934656	0.11728846621502453	-0.604373407384617	0.7216618735996415	143.97102697459533
17	6.0	wm	286	diff_vonmises	0.0315826113642462	1.8095503371732182	0.7065525217327764	67.14388903970674	0.6610990780246861	69.18590368216837	0.015279066663872243	-0.463561606782914	0.47884067344678627	97.76874295412017
18	7.0	ltm	286	diff_vonmises	-1.5000809390846062	-85.94830673756907	1.9167422422501843	0.7748890817664555	1.9168804203303376	1.460906864371838	-0.007458158785309886	-0.3449433057316123	0.33748514694630244	137.0633297331014
19	7.0	perception	286	diff_vonmises	0.0026403290258542123	0.15127970970733437	1.5990922459335004	1.9291891625615845	2.698016148773131e-14	3.9183173390643744	0.24510191142682725	-0.5881438279303286	0.8332457393571558	107.46450096776135
20	7.0	wm	286	diff_vonmises	1.6342989407948347	93.63843177024484	13.434354967372427	0.14400573531358557	7.450273053958342e-15	1.9852486469628978	-0.10747583270935321	-0.31596213543019275	0.20848630272083954	36.98036596178852
0	1.0	ltm	287	diff_vonmises	0.1479368728225412	8.476158447095221	1.709713061393034	0.5467393749825051	1.4890391977279423e-13	3.4747835560921523	-0.29661346395666344	-0.5446351971352886	0.2480217331786252	104.26920133744375
1	1.0	perception	287	diff_vonmises	-0.04569500986933761	-2.6181312103216885	9.075494755680023	0.9168480277970995	0.04557450335919317	4.060210046775127	0.40968618113399957	-0.6532894390141575	1.062975620148157	44.537669589463206
2	1.0	wm	287	diff_vonmises	-0.010009082566809019	-0.5734781878761256	5.672062984758624	0.4060254502355548	0.058185251981136936	3.8867817800965323	-0.2787311712173721	-0.6218904034727587	0.3431592322553866	54.50357847561327
3	2.0	ltm	287	diff_vonmises	0.08708385185171387	4.989537174845724	0.8799049002487915	59.4436431728251	0.836893273596264	60.83158869872295	0.05652340273523038	-0.3287453674557579	0.38526877019098826	88.3030318774297
4	2.0	perception	287	diff_vonmises	-0.04144899482026404	-2.3748524682607397	8.726903981129414	1.2309969566009524	0.20696520440723537	2.8237015605123674	0.8816515067321724	-0.4762726396434576	1.35792414637563	44.73071640742046
5	2.0	wm	287	diff_vonmises	0.0070979958442859165	0.40668520487898047	5.0209382421606765	0.6579942048535138	0.09784905696242253	2.833615069309762	0.07561695139670777	-0.4485911748911226	0.5242081262878304	58.175710591730706
6	3.0	ltm	287	diff_vonmises	0.10740526776667743	6.153868540503118	2.8929082736748115	0.6461523123891603	0.04133823250574924	1.699415695596178	0.13272780727324274	-0.259693006202405	0.3924208134756477	78.54460411061461
7	3.0	perception	287	diff_vonmises	-0.014513754495559621	-0.8315768774845914	3.9431542803871813	2.3154271258906047	0.2623141077653776	3.622568723304809	1.0295862639537745	-0.5326862780708854	1.56227254202466	64.82378858976844
8	3.0	wm	287	diff_vonmises	0.06686380826250928	3.8310140156137433	3.124134088968815	0.6024668591473336	1.8190001287117213e-16	2.4904177694724665	0.007417201219144409	-0.3955814482637854	0.4029986494829298	77.70850630666644
9	4.0	ltm	287	diff_vonmises	-0.10405874772304477	-5.962127065947031	0.5364082372431535	2.4178570949640927	3.2112777785625566e-16	4.330743131536144	-0.07618357623863747	-0.479560418302565	0.40337684206392754	150.141302761557
10	4.0	perception	287	diff_vonmises	0.012422660842943573	0.7117660366230963	0.8746281241525596	146.35498467947755	0.8310209814022114	148.6131974599039	0.5185843478375176	-0.6990155506860738	1.2175998985235914	93.62250246495765
11	4.0	wm	287	diff_vonmises	-0.15737913086825417	-9.01715998218802	1.2584735340780697	2.888618499530975	0.20825475451240075	6.113252534239745	-0.05908889165282538	-0.6994543454226478	0.6403654537698225	99.41921541164744
12	5.0	ltm	287	diff_vonmises	-0.034488083250527504	-1.9760216137510513	1.297918841439914	2.848392837027044	0.45904431719230215	3.710527564665959	0.24383796406854152	-0.2842933655671851	0.5281313296357266	94.52886238520043
13	5.0	perception	287	diff_vonmises	-0.014183276009099872	-0.8126418549905764	0.9162192483069613	319.31838435081204	0.8998119317517331	320.4209914848416	0.6416336286862929	-0.4895609767710525	1.1311946054573454	93.91422752381087
14	5.0	wm	287	diff_vonmises	0.007852721822111657	0.44992781809727955	2.378061523839211	1.3112056890095982	9.52339601114704e-14	2.5347340013237134	0.3468457499120227	-0.3969630918847174	0.7438088417967401	89.18940687812125
15	6.0	ltm	287	diff_vonmises	-0.17888949491176692	-10.24961305767126	0.6685748265371958	2.764750094653753	0.0976205537368316	3.486733730585849	0.15979960491892264	-0.29987543744136413	0.4596750423602868	136.92518137829956
16	6.0	perception	287	diff_vonmises	0.09344023167889871	5.353730911925511	0.613714805888211	3.8287120726806245	4.811866224555637e-14	4.764852326146321	0.2683208247428498	-0.4574822240873129	0.7258030488301628	146.19996339202106
17	6.0	wm	287	diff_vonmises	-0.18475799709035934	-10.585853464567935	0.7886351709470727	13.638874863444437	0.59273125978829	14.548390136680313	0.2683382281328961	-0.32806648468437716	0.5964047128172733	105.52912947903857
18	7.0	ltm	287	diff_vonmises	0.19467656345990256	11.154145456363155	1.1131706278999647	124.15381529661953	1.0953913671858955	125.17601071371305	0.04540036774956491	-0.2506123910181568	0.2960127587677217	77.48847951206298
19	7.0	perception	287	diff_vonmises	-0.020782763057374302	-1.1907646098079507	1.1290759452872858	6.418982302278062	0.4669237118937543	7.838279548173278	0.46346567207134304	-0.5081423606067703	0.9716080326781134	99.39109272684874
20	7.0	wm	287	diff_vonmises	0.6249517941190114	35.80710020214809	0.015916878729803175	52.327986010725965	8.69911475180456e-09	53.94073147449629	-0.12359271683262918	-0.38870520141232845	0.26511248457969927	167.81643958264178
0	1.0	ltm	288	diff_vonmises	0.19937285784017864	11.423223303703981	1.4794473650584838	0.5389777399536216	8.446522805583888e-21	3.5180783015208084	-0.32841108261141466	-0.5479087974655499	0.21949771485413522	110.94368408753866
1	1.0	perception	288	diff_vonmises	0.01361493964771659	0.7800785801394925	10.530268363048627	0.7469977744634971	0.04390555456685877	4.116349290034216	0.27075071705074105	-0.6649731464376678	0.9357238634884089	41.32480850236391
2	1.0	wm	288	diff_vonmises	0.0528380523525102	3.027397397490125	3.6498232884751567	0.6744046028554652	0.14572512672256888	4.25166576997627	-0.285614431669188	-0.6664251183297658	0.3808106866605778	63.43008345455385
3	2.0	ltm	288	diff_vonmises	0.1054206048118423	6.040155729435102	2.305372503140116	0.8220962478452315	0.1395949638211111	2.34821948236108	0.03421262123742036	-0.33364935271821855	0.3678619739556389	81.63357384171869
4	2.0	perception	288	diff_vonmises	-0.036935601258159374	-2.1162540658706255	9.310950923947162	1.140633676709795	0.13220491752085498	3.0427620315262267	0.8185477551426109	-0.5035974818683057	1.3221452370109166	43.638619111353194
5	2.0	wm	288	diff_vonmises	-0.001093930906688137	-0.06267762403214973	4.228395726322584	0.7820293908350273	0.0874100893207628	3.18999197963363	0.06668702789222625	-0.4978137834429104	0.5645008113351366	63.319215170024705
6	3.0	ltm	288	diff_vonmises	0.03612374068965616	2.0697378817422996	1.7281463325826205	0.9087705488347969	0.1250842669921851	1.826329079192385	0.10090689978450396	-0.24284343797154917	0.3437503377560531	95.32964177041814
7	3.0	perception	288	diff_vonmises	0.024170469077799742	1.3848658670093883	3.6782385405662916	2.6700977628583895	0.38282955741982055	3.7294195786891224	1.1210359341929863	-0.5239213950563474	1.6449573292493338	65.74150259338893
8	3.0	wm	288	diff_vonmises	-0.053472437620486715	-3.0637449959304552	2.3220601610188547	0.8580837806007099	1.3837847522970286e-17	2.5557570226856363	0.07737191378036035	-0.40210496271117174	0.4794768764915321	90.2402519441024
9	4.0	ltm	288	diff_vonmises	-0.05035107639543751	-2.8849041713993513	0.0003489322325070672	2808.87635827114	1.454177735994101e-30	2810.8366735786853	-0.1559916270913959	-0.4679689007710408	0.3119772736796449	179.90753230290093
10	4.0	perception	288	diff_vonmises	0.026434843471291367	1.514604962993954	2.294652205708219	3.098708134061491	0.2328648233802966	5.3939085624431	0.6668449146063846	-0.7022769759426574	1.3691218905490419	81.73035186086312
11	4.0	wm	288	diff_vonmises	-0.30182814025404237	-17.2934785748393	0.8846351603690749	3.2818690924091043	0.11237653115230352	6.435233221418686	-0.09288563967251062	-0.7335514409395293	0.6406658012670187	121.75469026181881
12	5.0	ltm	288	diff_vonmises	-0.012135486313535407	-0.6953121481043529	2.0500770740464107	0.8512842332001354	2.1272004988908344e-14	1.5866020262765133	0.19324322765817303	-0.24512885002863263	0.43837207768680564	95.88420157819775
13	5.0	perception	288	diff_vonmises	-0.030099812685361584	-1.7245922310055557	1.7975759397752977	3.314700284795366	0.2929801267398585	4.3869346391414545	0.6866612053452568	-0.48302140555898015	1.1696826109042369	90.46106830226222
14	5.0	wm	288	diff_vonmises	0.01013590455517719	0.5807445525590791	2.6545276962107196	1.1652368896573997	4.1484640483937124e-16	2.4235694758685518	0.3254818172627582	-0.38220451794588056	0.7076863352086388	84.41758468906593
15	6.0	ltm	288	diff_vonmises	-0.20767532303572955	-11.898919518963307	0.20641170342184328	54.24135267499593	0.18267845374487537	54.83804373261905	0.10961809406204459	-0.261706151446373	0.3713242455084176	156.25661609261383
16	6.0	perception	288	diff_vonmises	0.125504808117468	7.190895813730151	0.7059678118945614	3.64122621745116	1.9116185315131097e-19	4.237856053903287	0.3658031352706901	-0.42098778145573534	0.7867909167264254	141.57820986077058
17	6.0	wm	288	diff_vonmises	-0.2226791895373321	-12.758577745882848	1.3046889631351861	1.3251117544409754	0.000592675002393613	2.151514980816798	0.18518136910371452	-0.30338411505034213	0.48856548415405665	116.6467340889967
18	7.0	ltm	288	diff_vonmises	0.40594661379065067	23.259027677831504	1.129026788239988	72.6164724987127	1.1060661365207147	73.22746839747266	0.09050516714773593	-0.1698390279385702	0.26034419508630613	79.84646725605086
19	7.0	perception	288	diff_vonmises	0.027247188204698146	1.5611488877278423	1.604794533935523	2.348414359131989	0.11838245555727647	3.4351757149728788	0.44646622466642316	-0.44120176952933066	0.8876679941957538	101.15907541179405
20	7.0	wm	288	diff_vonmises	0.34108093129696526	19.542497835707703	0.0008297582634905658	814.7930004524653	2.959361177683049e-19	816.1118877560164	-0.10228688327032387	-0.3174833482222823	0.21519646495195843	176.31318192387369
0	1.0	ltm	289	diff_vonmises	0.17803519888438388	10.20066550084742	4.7623587411562225	0.5113497277544463	8.70496857989644e-17	3.4403557616166176	-0.11553897785703149	-0.5475180763123013	0.4319790984552698	62.60142531417429
1	1.0	perception	289	diff_vonmises	-0.09407537222788727	-5.3901217847801774	9.465951326128861	0.9968492294068197	0.016048216974811562	3.875314474948977	0.5795666966914284	-0.6182199455311373	1.1977866422225656	43.94874815214513
2	1.0	wm	289	diff_vonmises	-0.00459755545576618	-0.26342052369274777	3.8998107363831584	0.729215017986991	0.1446432063348312	4.244495500480801	-0.22367858361414106	-0.667349232291788	0.44367064867764694	62.31396311993436
3	2.0	ltm	289	diff_vonmises	-0.072060181072733	-4.128744246416098	1.0940649217557792	170.26536018303014	1.0732353102716865	171.7286789337077	0.14503878628160294	-0.3820405213410325	0.5270793076226354	79.97830172076596
4	2.0	perception	289	diff_vonmises	-0.05529605430434233	-3.168230535365025	9.131194394516523	1.04698702261217	0.048256191523754634	2.5193566673703978	0.8233426111116855	-0.40449477209498286	1.2278373832066682	44.598158416356
5	2.0	wm	289	diff_vonmises	-0.04243699260642975	-2.431460571576304	4.589134487330369	0.7056624291765945	0.17133240429101135	2.6290112400818146	0.09139351186145228	-0.415022823574871	0.5064163354363234	59.34050154729749
6	3.0	ltm	289	diff_vonmises	0.009956850057109954	0.5704854855169931	1.5222843939087185	2.0869955391548696	0.29699214771222127	3.477785999416018	0.18331867839611216	-0.3738229227715172	0.5571416011676293	92.64070300901446
7	3.0	perception	289	diff_vonmises	-0.029578312350378996	-1.6947124627963948	3.588438656561484	2.221187205267898	0.15087362526287745	3.6689225357877957	0.9335447702668788	-0.5417540618306498	1.4752988320975287	69.17135031749024
8	3.0	wm	289	diff_vonmises	0.05378523022551456	3.0816666920614533	3.498364513558925	0.7930674818827123	0.06700473157587471	2.7021687201347726	0.10701295431617375	-0.41536150235502495	0.5223744566711988	70.23427068992297
9	4.0	ltm	289	diff_vonmises	-0.060262802562380466	-3.4528042484545636	1.0278890023283922	1.8520852439553224	3.803791494826621e-19	3.712011346152351	0.05183053864881915	-0.5085292494954279	0.560359788144247	127.40899490174846
10	4.0	perception	289	diff_vonmises	-0.014507235976900932	-0.8312033938767712	0.7983742235166256	593.5928902574992	0.7880084420740442	595.8347611969463	0.4994604532341498	-0.6989176964251556	1.1983781496593053	97.08599036116226
11	4.0	wm	289	diff_vonmises	-0.11255117137787296	-6.448707099205751	0.7109388493440397	165.71267800960973	0.6859790267518883	168.39529116326426	0.032072655482181744	-0.6125787638235423	0.644651419305724	96.93847802973427
12	5.0	ltm	289	diff_vonmises	-0.012173971003032755	-0.6975171583884224	1.7294006329976905	1.657770691845624	0.10329626052748633	2.6003245418049823	0.32527697754744916	-0.3476071473608825	0.6728841249083317	98.30624572772487
13	5.0	perception	289	diff_vonmises	0.0007643257185395629	0.04379263784562101	0.906818908826295	346.4663474434169	0.892658135024378	347.4767408902439	0.6097799795108045	-0.45860537430134585	1.0683853538121504	94.46703440400213
14	5.0	wm	289	diff_vonmises	-0.03626655593627234	-2.077920592623527	2.125273770206358	1.4844433076185932	0.01485646583809956	2.5461782721576145	0.38308190251119245	-0.38791414763269433	0.7709960501438868	93.48536015787008
15	6.0	ltm	289	diff_vonmises	-0.10938888338554559	-6.267521343640494	0.9419343717978085	1.8499937930308554	2.0742455722219768e-15	2.666347492340929	0.18742541314997696	-0.33136816942351977	0.5187935825734967	130.94649163282577
16	6.0	perception	289	diff_vonmises	0.1076866258616766	6.169989171878411	0.0071681480797065765	275.5189058331679	4.8092001191111e-10	276.3002787674123	0.1905258486953585	-0.4381180437505421	0.6286438924459006	179.14470595672884
17	6.0	wm	289	diff_vonmises	-0.27062423316197376	-15.50562639414543	0.6590209013788482	193.36654072194605	0.646392113486228	194.15808010099408	0.24702302970820966	-0.2992023581437966	0.5462253878520063	108.7060941671289
18	7.0	ltm	289	diff_vonmises	0.13419749320939592	7.688949982133911	0.9337747805246611	121.2265489100666	0.9135280311540124	122.31551597423771	0.11263094061214218	-0.28244061014375177	0.39507155075589395	87.12071046849792
19	7.0	perception	289	diff_vonmises	-0.03059118361418987	-1.7527457114028395	0.9526128168493725	98.62442652919192	0.903132003015108	99.58108649624984	0.6186890076021925	-0.4463037169035129	1.0649927245057054	93.21931136201295
20	7.0	wm	289	diff_vonmises	0.589917147545254	33.79976281673933	0.0010162928602137189	975.3153419956348	1.3122779050838997e-29	976.6780924695973	-0.059094033199102114	-0.37460275422350264	0.31550872102440053	169.69069543811364
0	1.0	ltm	290	diff_vonmises	2.650211030317784	151.8459068562265	1.6096758876854367	23.934570334764658	1.5754097425165197	24.607601782105434	-0.037526673979320135	-0.17045288909820222	0.13292621511888209	174.64526145915357
1	1.0	perception	290	diff_vonmises	-0.05928942723753129	-3.3970339504585305	11.032997214569049	0.911005752133334	0.12406454070174225	2.0994678076504254	0.815775389106961	-0.3494347727779996	1.1652101618849606	40.30692994896583
2	1.0	wm	290	diff_vonmises	0.17006292309680887	9.743887745105036	5.114137680939128	0.24887211550787267	1.7625854600419537e-23	1.0132013764093288	0.057148678600922986	-0.1612481147542	0.218396793355123	60.35962913991327
3	2.0	ltm	290	diff_vonmises	0.4422880303319809	25.341237467176644	0.43298049892893165	71.5782131442424	0.4183093376914007	71.76128541511525	0.15129154383099674	-0.14451054058680235	0.2958020844177991	131.25772726088712
4	2.0	perception	290	diff_vonmises	-0.006211996092724916	-0.3559211584648957	8.643329186523633	1.3482624304867976	0.5400265259094815	1.8843630033235859	1.07779741485626	-0.3451549477214406	1.4229523625777005	44.13116391642831
5	2.0	wm	290	diff_vonmises	-0.10677690133946127	-6.117865796235917	6.287084022184251	0.5053989674811579	0.6834659426320956	1.1181020135183395	0.17998955586065218	-0.2024444318428026	0.3824339877034548	48.32920820488391
6	3.0	ltm	290	diff_vonmises	0.1820813255763704	10.432491483673477	2.1268421167645735	34.73237691826773	2.103608603482169	34.58183965973391	0.20240467225943348	-0.02758374077728476	0.22998841303671824	69.01793484761723
7	3.0	perception	290	diff_vonmises	0.033797102320731374	1.9364313227497076	2.028492473183138	215.67534578103468	1.9969704896223743	215.63748391238875	1.0762446271029802	-0.34773384166415866	1.4239784687671388	66.1998091329701
8	3.0	wm	290	diff_vonmises	-0.12301480998556252	-7.048229429776508	4.723795158356547	0.3169072600162581	0.08737067419862775	0.5457911953448139	0.1719653188523909	-0.08447361571425652	0.25643893456664746	61.50515510960952
9	4.0	ltm	290	diff_vonmises	-0.3999903960722413	-22.917761540705605	1.2974445956088547	52.436538395010245	1.2530655867580944	53.15427001858816	0.14564974601386282	-0.21706055515269007	0.3627103011665529	75.41018251331505
10	4.0	perception	290	diff_vonmises	-0.00839143986568347	-0.48079408834148923	2.2072781138523236	3.367903325436899	0.5924943359387196	4.134998862792948	0.75129804586178	-0.4069517782059837	1.1582498240677637	77.81505139275811
11	4.0	wm	290	diff_vonmises	-0.4210115888441152	-24.122187166864894	1.629284054193327	152.244932527419	1.6074579335083774	153.12325067374485	0.1698694823731728	-0.28646571669179366	0.45633519906496645	66.2556887905991
12	5.0	ltm	290	diff_vonmises	-0.1735328732081165	-9.942701241603913	3.6533843797083807	0.3869971691512085	0.7852676310044481	0.29988649076705637	0.19288084509088105	-0.03399289957423582	0.22687374466511687	65.22118644886501
13	5.0	perception	290	diff_vonmises	-0.0034559749695079437	-0.19801277985565854	1.3529176927273534	203.46678588973663	1.3332358254374148	203.50262578786865	0.7079200465361026	-0.2474678987999006	0.9553879453360032	81.12492268417785
14	5.0	wm	290	diff_vonmises	0.1754409524277421	10.052026127865076	2.3383258609507016	0.9420141466232956	0.37855334932612644	0.9006106308838954	0.3317003945629616	-0.09871558835680763	0.43041598291976924	82.04674893157147
15	6.0	ltm	290	diff_vonmises	-0.5084457175356757	-29.131793726295008	0.956661726416503	89.94455079356128	0.9379585203191233	90.17812757260025	0.24245734857246504	-0.14385255389795493	0.38630990247041996	93.53089703954497
16	6.0	perception	290	diff_vonmises	0.2490536112941727	14.269720799647828	1.4176351167705352	1.8912643161480411	1.6424806463599554e-13	1.9647293049924845	0.47901699241751605	-0.26621923946723075	0.7452362318847467	112.81591563675457
17	6.0	wm	290	diff_vonmises	-0.17090635629983017	-9.792212907939357	5.290194085403445	0.5212958205325672	7.490655537853166e-14	0.4214422879594154	0.398711849573229	-0.06706278714048701	0.46577463671371605	59.32350423902429
18	7.0	ltm	290	diff_vonmises	0.1324429465761806	7.588421865091785	1.6686160948832525	206.6635820884704	1.656567608148805	207.05876337740318	0.23855461691047708	-0.1800503566812992	0.4186049735917763	68.54749747002518
19	7.0	perception	290	diff_vonmises	-0.027122945934763897	-1.5540303300234848	1.0491649115257546	2.1575801948660733	2.6515950497105136e-20	2.2864629256836686	0.39336350182949137	-0.2710089506288097	0.664372452458301	126.56167665853364
20	7.0	wm	290	diff_vonmises	-0.23027869268641793	-13.193997202721844	0.0003014485270171443	3285.6426911185067	3.1982369379313756e-31	3286.1138416153326	0.08266039967111283	-0.2326085017632522	0.31526890143436503	178.470988616618
0	1.0	ltm	291	diff_vonmises	0.06982396691677412	4.000618613192244	0.44866270170228245	100.96942676680202	0.43093936269786287	103.49257752438577	-0.2591923314365836	-0.4662817799025891	0.20708944846600552	107.83990139488341
1	1.0	perception	291	diff_vonmises	-0.05014844797335434	-2.8732944180045905	9.974863013275103	0.8406340690202974	4.456697210132548e-19	3.719562140957639	0.45324011409336484	-0.5919866986053203	1.0452268126986852	42.976214902835096
2	1.0	wm	291	diff_vonmises	0.11754501899083668	6.734833490960053	5.287016412088269	0.29946171541627803	0.016239480703556863	3.0196987857910247	-0.22095322656632582	-0.4792208105260739	0.2582675839597481	58.16735535519794
3	2.0	ltm	291	diff_vonmises	0.1629021837241034	9.333607600855856	0.47820335114493795	115.570173827467	0.46295063871073494	116.90154219611829	0.0085622444741702	-0.3304310757466382	0.3389933202208084	119.28945669054397
4	2.0	perception	291	diff_vonmises	-0.05515969954580043	-3.1604179831840487	10.506771880226	1.2478819706206756	0.30344520668080316	2.63904883985941	1.0374775450483167	-0.4709773588823197	1.5084549039306363	40.63613800178467
5	2.0	wm	291	diff_vonmises	-0.0412288658903878	-2.3622400096301	7.4656837516069015	0.42150479320288964	5.462039020810152e-20	2.1356775995372512	0.1112613857817959	-0.33990349895568794	0.45116488473748384	49.77887214913767
6	3.0	ltm	291	diff_vonmises	-0.04072376013691135	-2.3332995817481237	1.1954637932781174	125.57047807417632	1.1797917281701322	126.17463033505399	0.1373708882406106	-0.1848952685238867	0.3222661567644973	78.68849730690897
7	3.0	perception	291	diff_vonmises	0.03630296785343189	2.080006841800749	2.50523931466625	3.530036111934421	0.618478957106474	4.071675897094857	0.9875113524005605	-0.42252447414259986	1.4100358265431603	74.60371240405269
8	3.0	wm	291	diff_vonmises	-0.03379718152067615	-1.9364358605722811	2.729444251851218	0.9044598680565874	0.47653851499406885	1.7604351215414082	0.13440767287724986	-0.22975606954224626	0.3641637424194961	69.66180815654076
9	4.0	ltm	291	diff_vonmises	-0.14269268445261266	-8.175688586526725	1.3552391107349853	0.5216267177780056	3.773614531799294e-15	2.035623955287871	-0.11144031842222843	-0.309844509805056	0.19840419138282758	115.08532242689915
10	4.0	perception	291	diff_vonmises	-0.012686459911017552	-0.7268806098632197	2.7478453754552956	2.134304513162001	0.03824672361657551	3.7190258539916483	0.7143536269561165	-0.56452490282595	1.2788785297820664	81.38317285573851
11	4.0	wm	291	diff_vonmises	-0.22144007547557343	-12.687581739808763	0.8657645995553173	109.48827639112953	0.8373408249634228	111.30027534045271	0.03066680773221009	-0.41380127938109545	0.44446808711330554	87.55539332725694
12	5.0	ltm	291	diff_vonmises	-0.018072191939258297	-1.035460324669847	3.457684344788829	0.4399972093045831	1.4908078288980464e-15	1.7733386298328437	0.029947371556747482	-0.28192579307554644	0.3118731646322939	73.77519020948412
13	5.0	perception	291	diff_vonmises	0.02839499514837657	1.6269133812964263	3.253352542273925	1.3848614383191133	3.027628750545627e-14	3.037992756951946	0.46605798340215154	-0.48209328893556563	0.9481512723377172	76.11971741921224
14	5.0	wm	291	diff_vonmises	0.008925338992102804	0.5113842549710387	0.6379345104815423	145.58286931864237	0.6197117683285249	147.08632820986304	0.09851634066592396	-0.3880603332749004	0.4865766739408244	105.22837393058337
15	6.0	ltm	291	diff_vonmises	-0.3563755086311578	-20.418812566393385	0.5368102594587527	66.02276313719264	0.5045799016892806	67.61133463633901	0.0056033800715979964	-0.37925905949041283	0.3848624395620108	112.91661219701494
16	6.0	perception	291	diff_vonmises	0.3794501917478397	21.740894522581033	0.1546419943547871	16.14286681886507	4.292197525028035e-10	17.934366718395083	0.12669616369574	-0.6663359356011487	0.7930320992968887	167.36618956647706
17	6.0	wm	291	diff_vonmises	-0.2960674682662494	-16.963416382779524	1.7064499376602897	1.040018670433584	8.844632426850455e-15	2.623746987618929	0.0696380165855166	-0.40153056271334736	0.47116857929886397	104.20729991198061
18	7.0	ltm	291	diff_vonmises	0.2927756604485533	16.774809687857367	0.6731054146110856	120.98738256064767	0.6570034934075277	122.43020409236789	-0.02812614618167686	-0.31178324246270783	0.283657096281031	97.32082315769156
19	7.0	perception	291	diff_vonmises	-0.1178815834736807	-6.754117215361019	3.4436748611977457	1.201817518574078	7.373072389313939e-19	2.372170389652311	0.4732067594010126	-0.3766743005508967	0.8498810599519093	73.93049102161012
20	7.0	wm	291	diff_vonmises	0.5363461770006077	30.730372300111444	1.936527662422202	0.6224659884384215	0.10218158938673881	2.1344294966000246	-0.06036442635522077	-0.3047012597497888	0.24433683339456802	88.3885518836216
0	1.0	ltm	292	diff_vonmises	0.12059151402661555	6.909384798817739	4.840131285469243	0.3947381696420145	5.785884187271099e-25	3.4423780987187023	-0.2114686047123127	-0.5478504632552893	0.3363818585429766	62.08199268069322
1	1.0	perception	292	diff_vonmises	-0.0074571942615363875	-0.4272657581952116	10.091360496468834	0.859456506199376	0.10210670724977476	4.3930875652934205	0.30242294957818994	-0.7269878457000378	1.0294107952782277	41.72047670932565
2	1.0	wm	292	diff_vonmises	0.061949070446122426	3.549420281321435	4.961341168592902	0.5862183439952967	0.15362266593960833	4.413828217138362	-0.30816096644882174	-0.716973706630356	0.40881274018153424	55.2389572935071
3	2.0	ltm	292	diff_vonmises	-0.03892663638724625	-2.2303319756295887	3.500832019687592	0.7241168107571484	0.14059059379569855	2.1252822228978814	0.12992172210581976	-0.3211264874777499	0.45104820958356967	68.38214377045895
4	2.0	perception	292	diff_vonmises	-0.057848732055839056	-3.314488196982732	12.083400235152443	0.8338075371713517	6.1064540770195886e-21	2.6724793618449754	0.718314720926737	-0.425338300712147	1.143653021638884	39.01010580517365
5	2.0	wm	292	diff_vonmises	-0.1221174240431156	-6.99681300267993	2.7515918098546335	1.3639853091334762	0.32379585443734904	3.661879248136822	0.06515631518520049	-0.5151143732766269	0.5802706884618274	70.25806482490401
6	3.0	ltm	292	diff_vonmises	0.009603504776796903	0.5502402922441882	0.9030375903168062	37.15494710070954	0.8445962262977417	38.0095780134765	0.14719121693545567	-0.244317644683536	0.3915088616189917	91.40234695308837
7	3.0	perception	292	diff_vonmises	0.01728834439667529	0.9905491686981397	3.4100235107283714	2.8452601403335236	0.49021348937447295	3.917948610731793	1.0436302320501203	-0.5242813351637672	1.5679115672138875	66.56176124913193
8	3.0	wm	292	diff_vonmises	-0.05224110302209306	-2.9931947202740625	2.916712005175566	0.8625363033239216	2.4319897128058382e-17	2.4470120407103817	0.16645505582602943	-0.38782634112071224	0.5542813969467417	80.47971905203565
9	4.0	ltm	292	diff_vonmises	-0.22516358204463033	-12.900922951204961	0.7618888133724826	2.8211480231152204	0.19299393568694728	4.533693492747936	-0.030976055488912357	-0.4072411138548819	0.3762650583659695	121.26594742964197
10	4.0	perception	292	diff_vonmises	0.01561835114904649	0.8948656037936636	1.451242217396759	7.60895579070131	0.6089048566362548	9.564848211724394	0.6744780465277826	-0.6685734919273961	1.3430515384551787	87.29434836994562
11	4.0	wm	292	diff_vonmises	-0.16452088856261773	-9.426352556380133	0.584678765577651	237.26535687454572	0.5692776883208939	239.72401148780483	0.05130922515669312	-0.5931268572501658	0.6444360824068589	107.90970887127743
12	5.0	ltm	292	diff_vonmises	0.042454200370316234	2.432446503821857	2.138317610770998	1.0788895887047156	1.1815705590157449e-14	1.7350615364134025	0.3032875709884069	-0.2680947356110293	0.5713823065994362	93.95669714253091
13	5.0	perception	292	diff_vonmises	-0.0315528083652211	-1.8078427511122475	0.959585945496858	115.98287460140776	0.915748571765234	116.98949205597519	0.6384198090746196	-0.4632240623480328	1.1016438714226524	92.66262740369203
14	5.0	wm	292	diff_vonmises	0.002006855202449757	0.11498433319424348	2.7371547799441545	1.2882858719123054	1.985207620733124e-21	2.3273813398854934	0.43005961390359837	-0.3670577226332675	0.7971173365368659	83.11765931723929
15	6.0	ltm	292	diff_vonmises	-0.17751370376389142	-10.170786031406534	0.41065927961191234	65.94412080661262	0.38501728413767483	66.4954384125411	0.1857589472878729	-0.26530589675894856	0.45106484404682146	134.02496687355853
16	6.0	perception	292	diff_vonmises	0.170479926693166	9.767780291218077	0.13807802914808046	16.402915424383135	8.122867977938892e-11	16.662646943655	0.33096398937207505	-0.3888225869079487	0.7197865762800237	171.2348860055982
17	6.0	wm	292	diff_vonmises	-0.3744040134369071	-21.45176980269414	0.5386887348653082	153.1600161680899	0.5252503888380802	153.63583070850007	0.2668121505420089	-0.26748876509316766	0.5343009156351766	121.24189749699629
18	7.0	ltm	292	diff_vonmises	0.35730761683964357	20.47221843278912	2.441299357351944	0.6806644200324541	0.03891475627891454	1.0958638284563094	0.21428901326344824	-0.1646943112549814	0.37898332451842964	86.37107325474642
19	7.0	perception	292	diff_vonmises	-0.0037588370413007433	-0.21536549834397412	1.4948154576364991	2.9048449391968836	0.32390590909393097	3.3411733391642793	0.5393314592004338	-0.31466203796573655	0.8539934971661703	97.63484714627566
20	7.0	wm	292	diff_vonmises	0.1065324045906313	6.103857164423291	0.5967403151392765	66.91888294672884	0.5715473323185863	67.85694255292796	0.07450809019104554	-0.25460699446045254	0.3291150846514981	109.98754078077891
0	1.0	ltm	293	diff_vonmises	-0.010618259339510118	-0.6083814459292989	0.3734708271034513	68.31989416518445	0.3565297772171985	69.65246078651788	-0.08289719830441555	-0.2898040038267933	0.20690680552237772	128.1970038813112
1	1.0	perception	293	diff_vonmises	-0.0888630503473746	-5.091477739563109	11.66853148468788	0.8564157174329853	1.553322290742801e-17	2.466662280672103	0.7614664270873774	-0.39258149482275	1.1540479219101274	39.69870891879509
2	1.0	wm	293	diff_vonmises	0.03556328443010532	2.037626103468348	7.097812226607205	0.3157507304859706	0.01440191656348048	1.8828507279453313	0.025252194766179736	-0.2995293987162649	0.3247815934824446	50.656226739264866
3	2.0	ltm	293	diff_vonmises	0.01884580323398851	1.0797849868415395	1.5853022915732993	0.8638890624678238	0.03432974557308273	1.6364240626529722	0.1175091387017701	-0.23533717886548364	0.3528463175672537	105.52568010161036
4	2.0	perception	293	diff_vonmises	-0.02908637207181916	-1.6665263610624261	8.212718033139016	1.251460436087575	0.24350834840809088	2.3123213811849426	0.9448498005067629	-0.3896541938344713	1.3345039943412342	46.07348721877028
5	2.0	wm	293	diff_vonmises	-0.09996988455640822	-5.727852463492259	5.664537022985847	0.5955239061081374	0.3561009956352007	1.866276887403041	0.14075176205268541	-0.31361515993042727	0.4543669219831127	52.167403821355464
6	3.0	ltm	293	diff_vonmises	0.0892780511980096	5.115255536798833	1.1999060649216204	166.38203151834742	1.1865685455418924	166.74064628319653	0.2752542942265279	-0.17500913786751582	0.45026343209404374	82.41287950956098
7	3.0	perception	293	diff_vonmises	0.011533153325127495	0.6608010100070772	1.8014637739045238	13.590416692010477	1.264375111213743	14.191610081247239	1.031650082789917	-0.4811590414414513	1.5128091242313684	74.11441814982439
8	3.0	wm	293	diff_vonmises	-0.0785346369518289	-4.499703242931957	2.390674716466673	1.3581908999747763	0.6258948288552462	2.221682517275337	0.17869996085965933	-0.2514350825115913	0.43013504337125064	71.32167910543319
9	4.0	ltm	293	diff_vonmises	-0.19156433133144352	-10.975827690537436	4.069774767696328	0.5578021981500394	1.58778698670291e-22	1.7899177298444846	0.1480594061669343	-0.2847479378929991	0.43280734405993343	67.8524473162976
10	4.0	perception	293	diff_vonmises	-0.042202780587127155	-2.4180412113590286	0.9885348820822539	418.968532386193	0.9743448952645426	420.42306498540734	0.6363714205795077	-0.5536561933904594	1.190027613969967	89.32431662247731
11	4.0	wm	293	diff_vonmises	-0.3751857174192963	-21.49655814171361	1.2652640445970373	170.0316092592906	1.2441822204598643	171.521912263719	0.07933103327452784	-0.3826406458022049	0.46197167907673276	72.75422725868793
12	5.0	ltm	293	diff_vonmises	-0.03533121966829351	-2.0243297720428224	2.2461038003898834	0.6694512029834717	0.12040596872655167	0.9696674463360745	0.1968558835345988	-0.13322776820753338	0.33008365174213217	87.08579692708847
13	5.0	perception	293	diff_vonmises	0.01584741336273186	0.9079899018837592	1.0913743525607336	254.4729855045543	1.0741236051294418	254.97563817288236	0.644761822320433	-0.34195699165403326	0.9867188139744663	87.90370849971731
14	5.0	wm	293	diff_vonmises	0.000666144377469757	0.03816726137538668	1.1594656196277466	4.437328821806629	0.6527308638409907	5.023150158992679	0.2648559474717529	-0.23033026422031777	0.49518621169207067	93.60862930953283
15	6.0	ltm	293	diff_vonmises	-0.3632836348374951	-20.81461904236023	1.1742325171311363	1.4821316431954257	0.18423855962637894	2.0999507697063375	0.15641772840999624	-0.2226390347814446	0.3790567631914408	110.2702342756512
16	6.0	perception	293	diff_vonmises	0.15369636600345274	8.80615309849583	0.9725730719806867	2.2390057191200565	2.097501333110799e-13	2.7684625336134383	0.31284277482672795	-0.33289427822990636	0.6457370530566343	129.50533037418023
17	6.0	wm	293	diff_vonmises	-0.10008724808774103	-5.73457689850638	3.1962292208154435	0.5466950566634805	2.204062461685395e-18	1.105878511294804	0.19514189642502858	-0.17538463703568843	0.370526533460717	76.80887410856138
18	7.0	ltm	293	diff_vonmises	0.17614596922801803	10.092420615006706	1.6823977635754315	137.62056868189975	1.6646711967520742	138.0874230318572	0.19543890804607855	-0.18624209977669892	0.3816810078227775	67.26282336491792
19	7.0	perception	293	diff_vonmises	-0.018798628036509727	-1.077082047128309	1.284917152171415	2.139544020595377	6.3512632437292666e-15	2.625172989581634	0.4267104136036606	-0.3531626229971469	0.7798730366008075	117.60930687559977
20	7.0	wm	293	diff_vonmises	-0.24299790396058607	-13.922754327466894	0.00018550748293529777	3794.054099967786	7.790866024891068e-31	3794.7511055842233	0.0010904993047233802	-0.2229438877566281	0.22403438706135148	178.30635532086495
0	1.0	ltm	294	diff_vonmises	0.36407390606332757	20.85989824827106	0.5891236311930312	162.8377518946634	0.5749004182995212	165.64275346045522	-0.294017900489834	-0.5118674406922992	0.21784954020246516	92.14678331688731
1	1.0	perception	294	diff_vonmises	0.04432924922012936	2.5398788892970083	8.662000549678806	0.8441195790760283	0.08165092301144748	4.061844004669741	0.2754133083977386	-0.6614822906705364	0.936895599068275	45.12875358386515
2	1.0	wm	294	diff_vonmises	0.3176628445075007	18.200740298400316	4.750887891794255	0.40550037646894327	0.17024501827525573	3.90476007076581	-0.3893492693643204	-0.6410527890917408	0.2517035197274204	54.30475846510504
3	2.0	ltm	294	diff_vonmises	0.19505085527123944	11.175590797459066	0.6531099476815659	110.75890997842292	0.6361922645605316	112.191905688904	-0.0343760729395477	-0.30782808775254544	0.27345201481299775	98.58586454548595
4	2.0	perception	294	diff_vonmises	-0.03918318119680567	-2.245030910473331	9.819807026839884	1.1820186886090394	0.19019727569336	3.083733748125154	0.8695374028850121	-0.5241654708103286	1.3937028736953407	42.25693697219219
5	2.0	wm	294	diff_vonmises	-0.015709702937491805	-0.9000996757225521	2.8975428159712453	1.0316647878198795	0.2226398284067393	3.683052577755455	-0.06095638709868112	-0.5433212081446646	0.48236482104598344	69.91115063176619
6	3.0	ltm	294	diff_vonmises	0.12028300719641684	6.891708659496394	1.1127832272026061	86.0728903194837	1.094354958078327	86.62848949307939	0.09711575571136777	-0.1590085933611931	0.2561243490725609	80.90663930531542
7	3.0	perception	294	diff_vonmises	0.03830077583694481	2.1944728075335806	2.214523738178964	5.347269210958099	0.8928644709189169	6.130452752398775	0.9627532290370973	-0.48649503254990856	1.4492482615870057	73.55281215912069
8	3.0	wm	294	diff_vonmises	-0.03220027024639841	-1.8449395842993084	3.4324808319391797	0.5215777533917302	0.08754979062509066	1.8809344190786408	0.04242961767949255	-0.2877849892259652	0.33021460690545773	69.93659648389539
9	4.0	ltm	294	diff_vonmises	0.35405673442078084	20.285956590495005	0.0002652607755676891	1461.899539931768	4.4584256887401103e-26	1463.5481364371158	-0.2006611225241386	-0.32409525820332874	0.12343413567919015	176.07694259622122
10	4.0	perception	294	diff_vonmises	0.046977850142158016	2.6916325437437085	1.3279572793503835	12.884694737262784	0.830263119125422	15.041938105629164	0.53217035007546	-0.6651651374177914	1.1973354874932514	83.38646686310767
11	4.0	wm	294	diff_vonmises	-0.32957162744294793	-18.883063299738858	0.4981846943940504	99.46810463390683	0.46754526608576447	102.26801777914035	-0.10586629586945406	-0.6137508228813537	0.5078845270118997	113.93374970308969
12	5.0	ltm	294	diff_vonmises	0.01722110001537031	0.9866963494533958	1.900480861233899	1.3150764918570625	0.4813519507486527	2.285562662191223	0.1017953979039461	-0.24612718581159893	0.347922583715545	79.0759203119546
13	5.0	perception	294	diff_vonmises	-0.04470501382433124	-2.5614086152081796	2.356866325921148	2.266182762470643	0.1259601718410875	3.831119520188649	0.6009840318393195	-0.533418682945628	1.1344027147849474	84.37457111935089
14	5.0	wm	294	diff_vonmises	0.1263941164172445	7.241849425993299	3.565259757279462	0.8463613206710214	5.188141322020369e-18	2.643365414068769	0.19009389616867073	-0.4202158167561797	0.6103097129248505	72.62554993883668
15	6.0	ltm	294	diff_vonmises	-0.26805536111974515	-15.358440868016578	0.49465282987107395	146.6779622183579	0.4832802983363488	147.68013419924503	0.06707381733065887	-0.28281889750718747	0.34989271483784634	119.87400000962259
16	6.0	perception	294	diff_vonmises	0.21738539589818326	12.455265712746419	0.18220392851566866	203.22136477658955	0.16908541179247935	204.29814727703854	0.25646357807634956	-0.527802847634149	0.7842664257104985	158.37198457347282
17	6.0	wm	294	diff_vonmises	-0.4533162146004944	-25.973105881455037	0.6361709121628204	2.623056186922064	1.1923162151033403e-16	3.9082802913437447	0.09253338267198619	-0.4218217001200259	0.514355082792012	142.51053322894478
18	7.0	ltm	294	diff_vonmises	0.6847686247579502	39.23435214160812	0.4830576543804644	1.8748153565601138	6.390081858245948e-25	2.711810327817236	0.02506018248408043	-0.25781144364265063	0.28287162612673106	145.00860165557853
19	7.0	perception	294	diff_vonmises	-0.06582028493422083	-3.771224533079371	2.6666882160755034	1.4205344479900963	0.005267924753763509	2.2898301723655052	0.5030174185351787	-0.35832319906612264	0.8613406176013013	84.00984400851297
20	7.0	wm	294	diff_vonmises	0.42244905098292335	24.204547680628448	0.5617876771375091	99.53524276271816	0.5446024871707973	101.09671038601624	-0.07625219838247688	-0.3237429029093022	0.2474907045268253	104.49418359294899
0	1.0	ltm	295	diff_vonmises	-0.1557622297536185	-8.924518372429397	0.8945034748143333	0.9146200426049116	1.238633507826423e-25	2.408050741923212	-0.089042254002686	-0.3340827921792011	0.2450405381765151	132.89327307459973
1	1.0	perception	295	diff_vonmises	-0.09557829901470456	-5.476233146581966	11.008121865201462	0.9403451785399688	1.0151316028709466e-19	2.660336812716705	0.8060371706292886	-0.4234057536955213	1.22944292432481	40.89400209785154
2	1.0	wm	295	diff_vonmises	0.0938898208885955	5.379490476155759	3.5061604734725154	0.5818001670305412	0.01814087901112264	2.2905096060593255	0.04478440405697881	-0.35908260866006003	0.40386701271703884	72.05525506136019
3	2.0	ltm	295	diff_vonmises	0.011325204262848351	0.6488864063847791	2.3714253621491537	0.8888970474390121	0.21041093801797855	1.6550648160844237	0.18626437698192688	-0.22137065661626265	0.40763503359818953	80.8687023444445
4	2.0	perception	295	diff_vonmises	-0.02748296048695378	-1.5746576444272573	8.187370054540231	1.2512073629915932	0.24692488134886195	2.0508530190067567	0.9932712017751921	-0.34452406942986347	1.3377952712050556	46.252337717221224
5	2.0	wm	295	diff_vonmises	-0.051004305109904155	-2.9223314197950465	7.494965528684991	0.44179162649729486	0.14897020718528195	1.433758747698435	0.21052717795345982	-0.23560487520491744	0.44613205315837723	48.06792077235056
6	3.0	ltm	295	diff_vonmises	-0.013075859818666926	-0.7491915811143128	0.9454471068157388	34.113975791506746	0.8898005243465652	34.599945498776506	0.20530884455302711	-0.1847303647935159	0.390039209346543	92.34458254121685
7	3.0	perception	295	diff_vonmises	0.03311447104189066	1.8973194315085165	3.235163607186424	2.6744123400181326	0.5564029894257218	3.048859885562366	1.0435847863487488	-0.37803675761750916	1.421621543966258	68.366940814287
8	3.0	wm	295	diff_vonmises	-0.03508902602289721	-2.0104530983367264	3.282234499682344	0.7010329494570025	0.18473447613510327	1.3723652176152308	0.22260213981278304	-0.19958777613932283	0.42218991595210587	70.82009083122247
9	4.0	ltm	295	diff_vonmises	-0.29354731056132705	-16.819021982580097	3.0496743355499727	0.7225544521716065	1.282173039402952e-22	1.8556852593961835	0.1823387909980404	-0.2942693775270672	0.4766081685251076	78.6554187955129
10	4.0	perception	295	diff_vonmises	-0.023691148347478062	-1.3574028121288277	1.895804709920993	3.8654963760472394	0.43068088002918137	5.068238407067205	0.7452524587953389	-0.5133407419942609	1.2585932007896	84.88562174978765
11	4.0	wm	295	diff_vonmises	-0.2862890728169387	-16.40315559312409	1.1337574935247037	147.92353877918558	1.1119638917122339	149.19963004675378	0.13890477843820292	-0.33908707623354317	0.4779918546717461	78.74811603877771
12	5.0	ltm	295	diff_vonmises	-0.08885039249022171	-5.090752497770569	1.4578043371585399	0.9787558527014031	3.072944036930243e-14	1.312733113511561	0.2077659857940263	-0.18635513326808364	0.39412111906210995	111.76247687217702
13	5.0	perception	295	diff_vonmises	0.015167472804889823	0.8690321775996396	1.1601674959587531	106.88428232892306	1.1214193948878777	107.22778481404539	0.646187428471805	-0.3038997299429127	0.9500871584147177	86.32064557969005
14	5.0	wm	295	diff_vonmises	-0.01082748548807873	-0.6203692212060574	1.2015046608957767	2.6290501116774525	0.37670810966002516	2.9908551569042197	0.327680843918872	-0.22568504074385182	0.5533658846627239	103.4785957398548
15	6.0	ltm	295	diff_vonmises	-0.3832892574041341	-21.960856781960324	1.2346901838065116	1.159500009206166	1.7997829913934123e-13	1.6548250687435715	0.18364634773768007	-0.22553901321202038	0.4091853609497005	118.63273594753628
16	6.0	perception	295	diff_vonmises	0.21217019647838367	12.156456796672826	0.8106563973387722	2.819871675100576	3.0683258522795144e-16	3.150929327455043	0.36048832118918683	-0.33112514989696834	0.6916134710861552	136.3474645787677
17	6.0	wm	295	diff_vonmises	-0.22200223023364454	-12.719790834879436	2.7220609545781955	0.6597522568265927	1.9918099643342877e-15	0.9685417742944632	0.2544657470940489	-0.15238221638013824	0.40684796347418717	83.33232845015448
18	7.0	ltm	295	diff_vonmises	0.17583975406003607	10.074875778258448	1.2262120267243497	184.32988908598247	1.2107877575369157	185.24403729054563	0.17531958145023907	-0.27061397364959205	0.4459335550998311	77.07187702642128
19	7.0	perception	295	diff_vonmises	-0.07211403191552193	-4.1318296724311265	1.9652730592725418	1.708656486466713	3.105980645434447e-16	2.0675834165016913	0.5431101101144058	-0.3119425524995464	0.8550526626139522	97.82122000175373
20	7.0	wm	295	diff_vonmises	0.0714346126463308	4.092901815786612	0.2987148796574937	2.989940107825853	6.076298197999963e-12	3.7309102436292765	0.0336556946888108	-0.24855529387523723	0.282210988564048	162.91032012993085
0	1.0	ltm	296	diff_vonmises	0.14345539809456911	8.219388859187882	0.5109769475770105	150.1170093020125	0.4982142067629078	152.2850747225273	-0.17588131742938629	-0.41944322042149906	0.24356190299211278	104.91298871234898
1	1.0	perception	296	diff_vonmises	-0.10157410069356958	-5.819767277578385	10.148569704163025	0.9466921205254188	1.8742717885701408e-15	3.201768516760978	0.6779793104571582	-0.5095772842598095	1.1875565947169677	42.60233849778348
2	1.0	wm	296	diff_vonmises	0.004019854525218972	0.23032069855161247	6.766281805451524	0.28735488630686157	0.028313916426337387	2.6897746879036832	-0.1480564639037344	-0.4292180290384905	0.2811615651347561	51.196829498111214
3	2.0	ltm	296	diff_vonmises	0.022463177901549714	1.2870452882103356	0.5821050817035839	129.1291526306947	0.566932140549299	130.3820311577807	0.04495916168239944	-0.31257132005306687	0.3575304817354663	108.99524148400087
4	2.0	perception	296	diff_vonmises	-0.04749485239596852	-2.721254590885802	7.975216512455585	1.4380085175438875	0.3397160198923685	2.717612965583039	1.0025915924955109	-0.46993056305008934	1.4725221555456003	46.18788713338904
5	2.0	wm	296	diff_vonmises	-0.03125257929271577	-1.790640892370565	7.251698822423869	0.472152939221791	0.13597796989236613	2.22560244171221	0.09390231844871555	-0.36589701488924664	0.4597993333379622	48.41493539221909
6	3.0	ltm	296	diff_vonmises	0.06626276589626441	3.7965768247193563	1.163628173402202	203.55226558632302	1.149663338497857	204.41162752650854	0.21053865629471602	-0.2670389477997297	0.4775776040944457	80.04549568470512
7	3.0	perception	296	diff_vonmises	-0.029782771249129033	-1.7064270947786644	2.157441438172849	4.641106984299921	0.6444869395892868	5.724142739470169	0.9376384983552655	-0.5384047545184861	1.4760432528737515	77.36050656254349
8	3.0	wm	296	diff_vonmises	0.0009766421310969681	0.05595747220651873	2.321813786302732	1.50567073276287	0.6422280199263427	2.903881938337755	0.05505396933048223	-0.3426609534516676	0.3977149227821498	68.74671198970836
9	4.0	ltm	296	diff_vonmises	0.06872971920893643	3.9379228377912807	2.1457990121692143	0.6960942176037962	5.541924032900051e-19	2.3745600199241084	-0.003269906352090013	-0.3727965583982328	0.36952665204614277	93.78777259001586
10	4.0	perception	296	diff_vonmises	-0.045261809311434885	-2.5933106466711497	0.8146269370437835	417.3368173037349	0.8008977182782268	419.3058492329062	0.49586394372801124	-0.6350114795782602	1.1308754233062714	96.64160914148218
11	4.0	wm	296	diff_vonmises	-0.21259271110515732	-12.1806651015695	0.9860845940828866	188.29802026989202	0.9653008538905689	190.57460232656123	-0.021159303324544965	-0.5082617693859	0.487102466061355	80.16527256180851
12	5.0	ltm	296	diff_vonmises	-0.015030688915753116	-0.8611950380467209	0.9398499564452993	53.41946331224856	0.8937799882218329	54.493121966440874	0.1230790884965991	-0.282801867208474	0.4058809557050731	87.77635680369963
13	5.0	perception	296	diff_vonmises	0.02603440006130667	1.4916612456680038	0.9542136425828395	104.26547972759492	0.9069212661344667	105.59520640256596	0.5065932296029274	-0.48263515347339414	0.9892283830763215	91.32083204468603
14	5.0	wm	296	diff_vonmises	-0.02042772892666182	-1.1704226525350294	0.728121563221906	157.44531680470038	0.7099745746161439	158.79029703743953	0.15969866266498656	-0.3682140649469279	0.5279127276119144	99.81857302914707
15	6.0	ltm	296	diff_vonmises	-0.23486912368034832	-13.4570095248201	1.7994606544034333	0.9600716055006647	0.010782320420518524	2.325760890140015	0.090349592688939	-0.35346888878523164	0.44381848147417063	100.97666097658002
16	6.0	perception	296	diff_vonmises	0.1467553006881373	8.408459350603612	0.5863737510352169	3.536768029757783	4.144618982527162e-12	5.262185019350112	0.09257805456527213	-0.5496198644431698	0.6421979190084419	147.36672393212461
17	6.0	wm	296	diff_vonmises	-0.09389024094612852	-5.379514543679553	1.5171416107112567	1.6665154575205807	0.22966786218030869	3.174847697361958	0.09937460155960065	-0.3703687968795432	0.46974339843914387	94.25891240872346
18	7.0	ltm	296	diff_vonmises	-0.09253422137043374	-5.301820345055122	1.4004581988022717	177.082166402979	1.3839213037805422	178.38563539254093	-0.014392343383789807	-0.3269280298576298	0.31253568647384	66.66402070375855
19	7.0	perception	296	diff_vonmises	-0.10106225051310203	-5.7904404224945845	2.1444714129565625	1.6653738400780063	1.9458865977114605e-19	3.2233973873998307	0.3829762310962078	-0.5007267303039504	0.8837029614001582	93.81460039227316
20	7.0	wm	296	diff_vonmises	1.0683969055370643	61.21463353211108	0.4644079391177748	104.86244966914425	0.4522041966366583	106.44020788229665	-0.1377418150676597	-0.30355940467934417	0.16581758961168447	108.2098161699011
0	1.0	ltm	297	diff_vonmises	0.37020739492720184	21.211321273861547	0.7673504846052068	90.49161815207924	0.7410761521152539	92.49897107701308	-0.1330226742702756	-0.3983476883900341	0.2653250141197585	86.68898843741351
1	1.0	perception	297	diff_vonmises	-0.04286582990301176	-2.4560311387682527	9.112693281969596	0.8458983948991685	4.507184964479824e-21	2.9649715730662436	0.5317924695384435	-0.4718898697719489	1.0036823393103924	44.99333272914956
2	1.0	wm	297	diff_vonmises	0.22291966495107202	12.772355972166807	2.8449973815521563	0.7107320554414329	0.23625450653595834	3.0674996409306585	-0.15821185187924214	-0.458628323474347	0.3004164715951049	68.13472791810821
3	2.0	ltm	297	diff_vonmises	0.08483715044500104	4.860810666414973	0.606025228615058	106.71313819684	0.588936000567816	108.05263725509175	-0.007833066339848926	-0.30240715650760386	0.29457409016775493	104.14910805465442
4	2.0	perception	297	diff_vonmises	-0.03351097302218253	-1.9200373215478204	7.5798906051389325	1.4250053954443407	0.24365888441129882	2.9039530843701167	0.9565332460373626	-0.4857123616314274	1.44224560766879	47.72058600724449
5	2.0	wm	297	diff_vonmises	-0.02542021914438211	-1.4564712712707517	6.030440344318547	0.5054016201797703	0.1301085498530468	2.4894057620140635	0.03449435306694193	-0.4033325337323415	0.43782688679928344	52.65502982608635
6	3.0	ltm	297	diff_vonmises	0.07617412249071927	4.364455726830776	1.045847822271414	162.96672387595177	1.0332042030305597	163.58314641892804	0.1738317788847752	-0.1985261089287924	0.3723578878135676	85.16803695948482
7	3.0	perception	297	diff_vonmises	0.04432014996771267	2.5393575405368076	1.3289547464588287	376.5437554729702	1.3111696109693667	377.1572015716542	0.9678583818333664	-0.4657593772078883	1.4336177590412547	79.83945137091405
8	3.0	wm	297	diff_vonmises	-0.03685882817766449	-2.1118552923780505	2.134127871493372	1.5937734303999833	0.6776522169758147	2.6673558344825747	0.10733606742851509	-0.2811111037795062	0.3884471712080213	71.69188902822162
9	4.0	ltm	297	diff_vonmises	0.05002331121151962	2.8661246096895274	2.438773033639242	0.34550456809723534	8.30432020414644e-48	1.8791889349463593	-0.09840701623999137	-0.29755390971147955	0.19914689347148817	88.07289341832438
10	4.0	perception	297	diff_vonmises	0.011030762722922836	0.6320161488337144	1.0330119868273935	323.0483731735781	1.013088732209763	325.06470378129643	0.5209658524214262	-0.6328961781840903	1.1538620306055165	85.56886756433227
11	4.0	wm	297	diff_vonmises	-0.4214990381521094	-24.150115954939533	1.9778523613732686	1.234570797324614	0.2653098816199342	3.299427563046855	-0.040159917483165386	-0.43082462840045427	0.3906647109172889	80.42637588040922
12	5.0	ltm	297	diff_vonmises	0.033969609926992834	1.946315280522394	2.461984814140973	0.6194547754900227	0.22431866864166725	1.5062922757723038	0.06552580299107313	-0.20759421574594442	0.2731200187370175	77.28647565256199
13	5.0	perception	297	diff_vonmises	-0.007643570631745799	-0.4379443376091786	2.694166846522651	1.8052963492372558	0.05881257014977823	3.044672452523117	0.597906755529287	-0.4533040727000075	1.0512108282292945	81.48995401639758
14	5.0	wm	297	diff_vonmises	0.05117527547460706	2.9321273001143355	1.992039191117338	1.052085650669236	0.10500007992059672	2.4983396226690835	0.10101835385868507	-0.35014811145892066	0.45116646531760574	89.87973212412442
15	6.0	ltm	297	diff_vonmises	-0.3675301103185298	-21.057924165229306	1.1282412967069604	0.9577039361989567	3.83440160804316e-18	2.0701567940584593	0.020865485275803675	-0.29278855659322356	0.31365404186902723	122.57067701876166
16	6.0	perception	297	diff_vonmises	0.18870458460710657	10.811976272756567	0.28815655531534173	235.72054169148174	0.2772205736450793	236.91228465757885	0.2133895950058431	-0.4866133774343062	0.7000029724401493	145.89028787028434
17	6.0	wm	297	diff_vonmises	-0.21335995508371836	-12.224624943397874	1.4484741166666664	0.813491805677989	1.0510058420677867e-13	2.119921521472643	0.007594923894234884	-0.31835503560549083	0.3259499594997257	111.92455293562725
18	7.0	ltm	297	diff_vonmises	0.28882920211094726	16.548694281088327	0.9011437578335068	69.96706621669072	0.8765627057789409	70.93528331412344	0.01956810311362389	-0.22268803172413065	0.24225613483775454	85.76876537229336
19	7.0	perception	297	diff_vonmises	-0.0836890846253201	-4.795031340344028	2.7115750335619366	1.3967168392928297	6.501505560350972e-16	2.252535558042304	0.5046268719758733	-0.35469285562090447	0.8593197275967778	83.51024061950045
20	7.0	wm	297	diff_vonmises	0.6227904637417735	35.683265093398944	0.30776411547957894	48.040476297973235	0.29029528169184476	49.409594609757285	-0.13514775750956964	-0.2708077285230317	0.13565997101346206	130.56684423207685
0	1.0	ltm	298	diff_vonmises	0.19632674317221185	11.24869378931659	0.6887598924802343	127.87206132060989	0.6695631280846316	130.10484754313632	-0.1550223251968177	-0.43790761055138994	0.28288528535457225	91.15438991595539
1	1.0	perception	298	diff_vonmises	-0.08282847393727766	-4.745721980115347	9.926295392358064	0.9619135639511214	3.676668741902048e-20	3.3453599055905574	0.6605078503141005	-0.5324305625462559	1.1929384128603564	43.08377705750209
2	1.0	wm	298	diff_vonmises	0.10443299249638673	5.983569711964354	6.285554204744173	0.26518713643469305	0.010672868951589427	2.8544096333751234	-0.19964709780085105	-0.45386931356984395	0.2542222157689929	53.67547109221067
3	2.0	ltm	298	diff_vonmises	-0.006299743577346099	-0.36094871899657854	0.8124683515953135	109.42710703234893	0.7925376166273592	110.55285387123693	0.07625189143631417	-0.2788099194060596	0.35506181084237376	92.59447159107066
4	2.0	perception	298	diff_vonmises	-0.05015136465551748	-2.873461531582719	9.643564537473535	1.2056611848117413	0.25319028911265495	2.3924878039841277	0.9905564217899345	-0.4134683230301645	1.404024744820099	42.5793433471938
5	2.0	wm	298	diff_vonmises	-0.060912633136051525	-3.4900367977244806	6.110567008263203	0.4930348225774002	0.1494857925860837	2.138410417609053	0.08226059905006039	-0.34766873522725145	0.42992933427731184	52.301632750520184
6	3.0	ltm	298	diff_vonmises	0.03536627166017652	2.0263381032412457	1.2219304533439972	186.69038845470052	1.2098271985550575	187.3140129805127	0.17882337550246064	-0.2034677969922143	0.3822911724946749	78.48874983736798
7	3.0	perception	298	diff_vonmises	0.006651222175088227	0.38108695923637886	2.316764154648545	3.897868923611539	0.6863174270194852	4.613247170848405	0.895407749117888	-0.4399794315626844	1.3353871806805724	75.33625300364955
8	3.0	wm	298	diff_vonmises	0.011303558156645516	0.6476461758564648	2.470206595483126	1.1967094088484014	0.614333493382166	2.2131101687986283	0.10660071747747635	-0.26644047860882936	0.3730411960863057	69.14467718867618
9	4.0	ltm	298	diff_vonmises	-0.04843000771646712	-2.7748350439395755	2.511707740047453	0.5231648621419547	3.1416779839818454e-16	1.8917155669021182	0.008098489246255003	-0.2990408163990708	0.3071393056453258	86.79039385823168
10	4.0	perception	298	diff_vonmises	-0.01813465013157087	-1.0390389154853739	0.9395067924366955	340.26206334100215	0.9228373522427047	341.8741105627003	0.5511928301487785	-0.5608892746417595	1.112082104790538	90.89288915119553
11	4.0	wm	298	diff_vonmises	-0.20178000561192813	-11.561142711689548	0.940299159117889	194.69094797953983	0.9232792152784002	196.4558379259249	0.052591210177553194	-0.4131212458353346	0.4657124560128878	84.10710159875448
12	5.0	ltm	298	diff_vonmises	0.0066489233325276184	0.38095524525989094	1.562305366587273	1.9844049639092687	0.5183606656467494	3.0185224219062943	0.125858095882465	-0.27026629309732136	0.39612438897978636	84.29744295801274
13	5.0	perception	298	diff_vonmises	0.010755360172713594	0.616236745039585	1.836639534491354	3.0495327302437545	0.4009620793627857	4.3286113792944	0.5053383043805344	-0.45017994643397385	0.9555182508145083	85.60941870928136
14	5.0	wm	298	diff_vonmises	0.03618125274481452	2.0730330797739973	0.7383543346166512	58.197830195477856	0.6899546104151358	59.429319079192	0.18909018822966317	-0.35708799587746576	0.5461781841071289	101.10065580439024
15	6.0	ltm	298	diff_vonmises	-0.21568857805182004	-12.358045211547328	0.720613323360939	53.540828198708546	0.6746165777002445	54.814218084795314	0.11311748225469032	-0.3339573687510802	0.4470748510057705	100.4779538426678
16	6.0	perception	298	diff_vonmises	0.31240222617284646	17.89932907019549	0.0003743410583562862	5641.181049134788	5.377771692899409e-29	5642.536611748267	0.12037802081795235	-0.5518040959801738	0.6721821167981261	176.89042711325806
17	6.0	wm	298	diff_vonmises	-0.32073558494477084	-18.376795356995075	1.9512125995301222	1.048888552828583	7.232517422345733e-11	2.2067410859105525	0.1818444704907931	-0.34044886269885616	0.5222933331896493	98.00450332036797
18	7.0	ltm	298	diff_vonmises	0.07889349502271266	4.520264295837802	0.8313122820139183	150.36729237495194	0.814867262491711	151.74627310849493	0.04945476964712725	-0.3242936760155999	0.37374844566272714	90.06265254197561
19	7.0	perception	298	diff_vonmises	-0.1320737029635071	-7.56726576447343	3.3341422371774523	1.3519544806351524	1.3508361793914857e-20	2.1540599790277843	0.5970061039880034	-0.3416349333958226	0.938641037383826	75.16709391320751
20	7.0	wm	298	diff_vonmises	0.5113099134736453	29.29590006523918	0.6355924862116425	67.68950415957056	0.6073587144833976	69.08354831764113	-0.009720141544192984	-0.3117546447241475	0.3020345031799545	101.89173535939761
0	1.0	ltm	299	diff_vonmises	0.06360470474554587	3.6442811390954972	2.9361196014951383	0.4321056026245774	8.790949753214801e-37	1.834995010285753	-0.012510795342051573	-0.29126110269671335	0.2787503073546618	80.21144385604697
1	1.0	perception	299	diff_vonmises	-0.0938631130913658	-5.377960232094406	10.989753141480811	0.9569757673777207	0.025739112790561614	2.5794543106656924	0.8291254158641683	-0.41319143698297767	1.242316852847146	40.767351934951904
2	1.0	wm	299	diff_vonmises	0.07916345743065496	4.535732002440085	4.146621867072548	0.5578983332903307	0.026437200152901828	2.2598434214301406	0.06814288677904168	-0.35478620946863143	0.4229290962476731	65.94099614513581
3	2.0	ltm	299	diff_vonmises	-0.037717980125917726	-2.161081072973403	2.496686866880704	1.1250262254201118	0.44909676023381745	1.794855962924663	0.23666954127737505	-0.2175883982588399	0.45425793953621496	74.50174028662533
4	2.0	perception	299	diff_vonmises	-0.02550169537911321	-1.4611395156514608	8.58425425553471	1.098919346299572	0.11681541977616312	1.9138172955403272	0.9231537638974701	-0.311475525074764	1.2346292889722341	45.75179170262035
5	2.0	wm	299	diff_vonmises	-0.0837175736163722	-4.7966636392939	5.906463519094139	0.5503923845069582	0.2898035457121586	1.5431409790833641	0.19989248384188357	-0.25513739349115333	0.4550298773330369	52.370364623183434
6	3.0	ltm	299	diff_vonmises	0.014037815632909387	0.8043075893484763	0.9280048825670097	58.75500629041139	0.8942449362895557	59.204493265619234	0.2329973516084145	-0.18808341737015954	0.42108076897857405	93.37664436225288
7	3.0	perception	299	diff_vonmises	0.029603860247157214	1.6961762494572226	3.142310085757564	2.906281034516445	0.668769090203123	3.324259104263031	1.0280020674771688	-0.39210327688904334	1.4201053443662122	67.86295074182556
8	3.0	wm	299	diff_vonmises	-0.03683677249421938	-2.110591594802369	3.3840278810781936	0.7065131111612873	0.10199418904496468	1.3992682354825232	0.2493152602048728	-0.20935676355936514	0.45867202376423793	71.61770818983786
9	4.0	ltm	299	diff_vonmises	-0.29831649742829053	-17.092276261766322	3.291930057891924	0.7883595123229628	6.206711353360852e-20	1.824185746010527	0.2538609528863056	-0.2895758294115286	0.5434367822978342	75.64480402677538
10	4.0	perception	299	diff_vonmises	-0.020185146021988114	-1.1565236759152018	1.0649806340127368	337.74654160350923	1.0472194907766414	338.9177386488042	0.7180356631454714	-0.5154029732752328	1.2334386364207042	87.09381823189736
11	4.0	wm	299	diff_vonmises	-0.2965937781986749	-16.99357172062332	1.146025411443329	157.58862780616735	1.1257087914949184	158.77443960682157	0.16351519223420752	-0.326570533868761	0.4900857261029685	78.94483984128682
12	5.0	ltm	299	diff_vonmises	-0.05635770547114909	-3.229058666538192	1.5502755560113377	1.0277422165778505	1.1450039497084547e-15	1.1343156963604955	0.2736233132574263	-0.1600833833459656	0.4337066966033919	108.90983810744646
13	5.0	perception	299	diff_vonmises	0.008140121602851004	0.4663946125666294	1.1697470605450855	229.7171491616603	1.1525178077414646	229.8461704794087	0.6873278101598856	-0.2713021302971761	0.9586299404570617	86.71287124959562
14	5.0	wm	299	diff_vonmises	-0.004243474773633636	-0.24313319499943972	1.8826113403175908	1.3298493740462058	0.08132026535356782	1.4717430580944673	0.4076925779250765	-0.2002655792893364	0.6079581572144129	96.98194017752479
15	6.0	ltm	299	diff_vonmises	-0.3333542435549456	-19.099791238474506	1.1805200492353962	1.1935700128938178	4.845255692821169e-18	1.4657984146475154	0.2149356943043405	-0.19101142584096228	0.40594712014530276	120.7829899422042
16	6.0	perception	299	diff_vonmises	0.18235891606955745	10.448396247366048	0.7610153071394439	2.708598475679883	1.8323100456592428e-14	2.711833119279232	0.37066602297250734	-0.2564839494180833	0.6271499723905907	138.7600234568176
17	6.0	wm	299	diff_vonmises	-0.24002401903308376	-13.752363272363443	2.62201771490197	0.6530731912115578	0.0016796203686222492	0.6897321936608828	0.2858137438617565	-0.10750063796990136	0.3933143818316579	84.87033761282618
18	7.0	ltm	299	diff_vonmises	0.18059437643677462	10.347295573624027	1.2883519017346816	160.7415943589415	1.271245818520014	161.3393165215724	0.26706922035837977	-0.22753900107370129	0.49460822143208105	77.8477840100822
19	7.0	perception	299	diff_vonmises	-0.051132926083452705	-2.929700858736242	1.8293380796554337	1.813451091718651	9.590531565200511e-14	1.7948337440309552	0.6006186947699441	-0.2628202959686738	0.863438990738618	101.15760105566748
20	7.0	wm	299	diff_vonmises	-0.01794232527823954	-1.0280195130940162	0.5408179828168088	2.0175676563217686	9.940538845881183e-15	2.5245209974934393	0.11145975453188284	-0.22777756577738625	0.3392373203092691	150.07208797199047
0	1.0	ltm	300	diff_vonmises	-0.12867632601003445	-7.372610403624434	0.18664042629903607	77.55865673080541	0.17490148689080348	79.7615568983551	-0.257736790521486	-0.4228621160512205	0.16512532552973447	151.93131586549794
1	1.0	perception	300	diff_vonmises	-0.0531387452136309	-3.0446258293620545	9.931526768449789	0.8792223746433709	0.019408714397129535	3.455395946008646	0.5301173566029789	-0.5520586535588028	1.0821760101617817	42.86581726149521
2	1.0	wm	300	diff_vonmises	0.018695445625923356	1.071170130481724	8.389145065740324	0.15751219361433333	3.1914256031035863e-31	2.6405457036414632	-0.24112793275576486	-0.4202558919380334	0.17912795918226856	46.91384605149858
3	2.0	ltm	300	diff_vonmises	0.2678015111691597	15.343896337218426	0.5048431116648405	129.94759144869627	0.49267290036478867	131.01528215575817	0.03354291198972703	-0.27635624009789694	0.309899152087624	117.20690671583733
4	2.0	perception	300	diff_vonmises	-0.038652347464127663	-2.214616377967705	8.578431833465824	1.4679697465620754	0.45063524196761273	2.756919583775298	1.0337954193041168	-0.5000143892598746	1.5338098085639915	44.14996496493637
5	2.0	wm	300	diff_vonmises	-0.012710899421997376	-0.7282808906957272	7.151951592629971	0.45271550686942474	0.09933552892517901	2.2916158719090327	0.07208258928394556	-0.3722098210828579	0.44429241036680345	49.11959753702584
6	3.0	ltm	300	diff_vonmises	0.1215275114047767	6.963013498221684	1.4398415905263973	93.99766411878839	1.4185894755323134	94.4892007100637	0.14866491007600047	-0.16853424596596867	0.31719915604196913	72.19050319107862
7	3.0	perception	300	diff_vonmises	-0.010636386630399038	-0.6094200631912399	2.892767887971416	3.3327437161527467	0.6428085607516368	4.16818163598223	0.9969970443851259	-0.48245683018599417	1.47945387457112	69.61699459174741
8	3.0	wm	300	diff_vonmises	0.02139914486585119	1.2260806860023175	3.2106545806714157	0.5573469392793631	0.28708105111342	1.7930611439590745	0.0067907722518781855	-0.26716064267309	0.27395141492496816	66.16325522439723
9	4.0	ltm	300	diff_vonmises	-0.07433051348815828	-4.258824711911708	1.9426266421052683	0.48020943794264204	1.6444451327616424e-14	2.001892055201357	-0.07520824135614917	-0.31361068598179076	0.23840244462564159	98.35878354561157
10	4.0	perception	300	diff_vonmises	-0.009450221389306084	-0.5414578010714959	1.9239486545264037	3.0718550757515253	0.27170572876922805	4.80827181435073	0.5619831083576144	-0.5697635559808134	1.131746664338428	87.1676683897494
11	4.0	wm	300	diff_vonmises	-0.1995994827394311	-11.436207953963725	0.920140411578532	204.40751378024527	0.9009147369428412	206.82831654627847	-0.03362693697880559	-0.5311410054854733	0.4975140685066677	82.83049521750846
12	5.0	ltm	300	diff_vonmises	-0.08012446599869058	-4.590793737464437	1.1192501289921049	67.65569552842284	1.084604947804035	68.53694079680831	0.12353396413157469	-0.24222740631747008	0.3657613704490448	80.2739723002856
13	5.0	perception	300	diff_vonmises	-0.0013897756706651146	-0.07962828039907452	0.9930886063564691	149.1047943522138	0.9588327632061074	150.40515307092915	0.5339348240102524	-0.4823439309098294	1.0162787549200818	89.35973422750618
14	5.0	wm	300	diff_vonmises	0.08936473007900098	5.120221870852555	2.0869764918654248	1.2199635017094432	0.13148776108282512	2.546661811405605	0.18545137470011014	-0.35005880151886504	0.5355101762189751	87.56782568618343
15	6.0	ltm	300	diff_vonmises	-0.3105186419755916	-17.791407645335244	0.6811098408621258	176.49600627348678	0.6683715217832176	177.59506396865726	0.12185082463952313	-0.3019470073615196	0.4237978320010427	102.96715467997514
16	6.0	perception	300	diff_vonmises	0.19211567836896173	11.00741754883427	0.819022506129579	2.9486222293730537	1.3882797237256274e-15	4.5371225248468585	0.18393818717230903	-0.5460071527268073	0.7299453398991164	136.058675551504
17	6.0	wm	300	diff_vonmises	-0.1418849644148942	-8.129409637337309	2.4605623004456127	0.9996439231224695	1.2348748686084683e-12	2.2848581568719415	0.2200164582567002	-0.35939097279829196	0.5794074310549922	87.67410745508192
18	7.0	ltm	300	diff_vonmises	-0.12586559226615013	-7.211567222764858	1.4194080453979936	169.99324037257375	1.4032794056916336	171.1898821472778	-0.009610294509684536	-0.3029706612905656	0.29336036678088107	66.32055797710646
19	7.0	perception	300	diff_vonmises	-0.104180488560499	-5.969102302127546	1.990312557811493	1.6566397786903635	1.9250131382469707e-18	3.116934360504146	0.3560554165954646	-0.4801628407423569	0.8362182573378214	97.22948914944779
20	7.0	wm	300	diff_vonmises	0.711743102667793	40.77987588041098	0.5708501957193504	76.06899083125886	0.5488800481099597	77.70631390398664	-0.10406361530583297	-0.3273014337991569	0.22323781849332391	101.9192196960291
0	1.0	ltm	301	diff_vonmises	0.15164918711423445	8.688858388235342	4.6816815187411835	0.4872508416579641	3.5747333569902243e-22	3.6095587658872623	-0.16659650006811677	-0.5744441143124541	0.40784761424433735	63.15339872496145
1	1.0	perception	301	diff_vonmises	-0.066942509167962	-3.8355232453400427	9.973233205755095	0.8964013307598929	0.025574365150134296	4.146893195697525	0.43746992004271323	-0.6641164236501478	1.101586343692861	42.684538859826716
2	1.0	wm	301	diff_vonmises	0.0026534090018938863	0.15202913713053995	3.068649347327251	1.0202257820845708	0.21120767344995692	4.706866176692504	-0.2382020669414483	-0.7149081013516506	0.4767060344102023	66.92265169486066
3	2.0	ltm	301	diff_vonmises	-0.051527033858098856	-2.95228157089676	2.304697760872115	1.4151410690284663	0.35841469005401627	2.9829361087453754	0.13678462584472795	-0.3810091893828307	0.5177938152275586	75.96529415301615
4	2.0	perception	301	diff_vonmises	-0.05832267910667102	-3.341643362708076	10.208750214583837	0.967944838483782	0.017270589802092274	2.6327563574775144	0.7914665655184829	-0.4202367621601541	1.211703327678637	42.35077628997087
5	2.0	wm	301	diff_vonmises	-0.056556345670259696	-3.240439911588868	4.4514387138544755	0.7463408573571987	0.12991936254553532	2.7673189721679976	0.10864703997407593	-0.4334062502327206	0.5420532902067965	61.050396025535235
6	3.0	ltm	301	diff_vonmises	-0.05204292737721196	-2.981840092220092	1.5614454035876355	1.62052441078625	0.18068499547468125	2.9333323105712523	0.16446951952145683	-0.3575903901863345	0.5220599097077914	96.81443184337681
7	3.0	perception	301	diff_vonmises	-0.002308608265350061	-0.13227351015357655	3.6846777863369815	2.3279006143050323	0.19134622309233645	3.6376793532256633	1.016261406411168	-0.5331066782711263	1.5493680846822944	67.8362409013703
8	3.0	wm	301	diff_vonmises	-0.005850393995201257	-0.33520288441371204	3.394729966501889	0.828471579779625	0.0009598989293334536	2.5934946776146606	0.16861714697616526	-0.4117164695791895	0.5803336165553548	74.41742491053432
9	4.0	ltm	301	diff_vonmises	-0.12417708067266724	-7.114822634799379	0.6488020414302488	2.5391079633131906	1.5558741302173515e-16	4.466144820159107	-0.01303063801041382	-0.5201855629878932	0.5071549249774794	144.41670860229257
10	4.0	perception	301	diff_vonmises	-0.008665654095244783	-0.49650540637778395	0.8586650890920725	249.3257381077257	0.8317336084605423	251.51052496932493	0.6046933245227422	-0.7190918886648525	1.3237852131875947	94.76078857939726
11	4.0	wm	301	diff_vonmises	-0.13856677358076558	-7.939291306922745	0.6377559506211053	171.3511993369255	0.6150457624169766	173.96878680542707	0.03570062679624897	-0.6100586658053757	0.6457592926016247	102.83134386124411
12	5.0	ltm	301	diff_vonmises	-0.009444558459929364	-0.5411333391185292	1.7178970383774417	1.4172256235912697	1.427322741381879e-14	2.3510064121737115	0.2924289492397819	-0.35270741487665974	0.6451363641164416	104.10838732198918
13	5.0	perception	301	diff_vonmises	-0.005790563564076196	-0.33177485322379785	0.920944670422468	103.77276034132227	0.8733335895093528	104.83352083828989	0.6041217831230554	-0.4675218135127466	1.071643596635802	94.42720867876059
14	5.0	wm	301	diff_vonmises	-0.04661775603805684	-2.671000671351167	2.210954080154428	1.4147488296516035	3.06950016270055e-18	2.4944954646856603	0.3781776242967378	-0.38769958542962896	0.7658772097263667	92.44193602225226
15	6.0	ltm	301	diff_vonmises	-0.1482624417547375	-8.494812172850649	0.6419189925460644	2.443022494414759	5.387303252465986e-20	3.2244821180277925	0.1549705808679247	-0.32812084516573214	0.48309142603365685	144.67338129778307
16	6.0	perception	301	diff_vonmises	0.14241228373509357	8.15962280884044	0.11898137109415073	18.2407893615763	1.5191363855438466e-17	18.88085680495517	0.2533916251454591	-0.43662501320113556	0.6900166383465947	172.5497124307614
17	6.0	wm	301	diff_vonmises	-0.28142726491768455	-16.124594519693463	0.5987438974897247	170.49703200349154	0.5858463593429549	171.26148958863817	0.2149251829359855	-0.2903274048813209	0.5052525878173064	113.76469760508319
18	7.0	ltm	301	diff_vonmises	0.2610874104538162	14.95920670300348	0.9692397212227688	78.2764476970284	0.941166563158546	79.12547727833272	0.13650805624588358	-0.23750595217414805	0.37401400842003163	86.99643488924573
19	7.0	perception	301	diff_vonmises	-0.010050985561440299	-0.5758790526174573	1.8179365590577183	2.555404441275515	0.21247002748330313	3.4481158300297396	0.5729874964519749	-0.41110485459463353	0.9840923510466084	92.58706623719141
20	7.0	wm	301	diff_vonmises	0.4380163834629208	25.09649013000923	0.05726213343338807	67.95073978429181	0.04337842428914473	69.1583793528922	-0.046801107617822524	-0.33023351847800164	0.2834324108601791	168.7887177949648
0	1.0	ltm	302	diff_vonmises	-0.9220881294495352	-52.831758156571084	7.417619736295621	0.19814088307841882	0.07626081420620787	1.4940378580379805	-0.04485605758634553	-0.24232553688493944	0.1974694792985939	48.1237090495713
1	1.0	perception	302	diff_vonmises	-0.016991522229195567	-0.9735425112356263	10.574315962087043	0.802210262855734	0.08480749656094401	2.6818388143494567	0.5640534148254279	-0.4396050307281821	1.00365844555361	41.15981214678911
2	1.0	wm	302	diff_vonmises	0.1518771930268568	8.70192216473263	8.271773341591386	0.1002610581379928	3.775528084085199e-12	1.5951800879871032	-0.14070059598697643	-0.2538807887262546	0.11318019273927815	47.25210000681892
3	2.0	ltm	302	diff_vonmises	0.6609745755926588	37.87105354691015	0.6272893992306996	83.80563358694563	0.6102709965479267	84.44663194790326	0.09894265513442235	-0.19540916364970862	0.29435181878413097	108.87689653660561
4	2.0	perception	302	diff_vonmises	-0.012547615440606725	-0.7189254076999502	8.213655788507317	1.5435866355413614	0.5507644631280705	2.6902887754197184	1.0467491679772714	-0.4956275206420167	1.542376688619288	44.692640042339605
5	2.0	wm	302	diff_vonmises	-0.061941440366079195	-3.548983109937611	6.17989395856181	0.47056830082814993	0.2948873421106703	1.983161559700591	0.04151364160256066	-0.3375401819977055	0.3790538236002662	50.05808746112248
6	3.0	ltm	302	diff_vonmises	0.24478602940319474	14.025206368568332	2.0971606513550713	68.68626770696068	2.0807259286894793	68.66816572582357	0.18182980310292152	-0.05575570935203089	0.2375855124549524	65.2150609016631
7	3.0	perception	302	diff_vonmises	0.01314325665212932	0.7530531352242541	1.8088042490040948	248.58618043271397	1.7776150889875986	248.9630164552177	1.0890538578065332	-0.45631676375382213	1.5453706215603553	68.84618443228484
8	3.0	wm	302	diff_vonmises	-0.14100676642573926	-8.079092598981855	5.266214359823578	0.24749725798104769	0.1192484808991203	1.0319575787101058	0.03623079392368381	-0.1643846560342654	0.2006154499579492	56.548185372389895
9	4.0	ltm	302	diff_vonmises	-0.380343213036263	-21.792060873423022	1.0175648166434081	92.50316697780895	0.997492942524859	93.66100019981975	-0.0440903721396424	-0.2508690163240992	0.2067786441844568	77.05738011740219
10	4.0	perception	302	diff_vonmises	0.00033326923432753814	0.019094920568524392	2.207257102473532	3.1185975887511317	0.44468526042150314	4.515345445894002	0.6394972213141394	-0.5055273019624571	1.1450245232765965	78.97143024350123
11	4.0	wm	302	diff_vonmises	-0.4221742117821956	-24.188800554382002	1.205092387658736	174.1638651113698	1.1836173646291512	176.04149344236782	-0.014730639938875356	-0.44336294150890865	0.4286323015700333	72.26857715267374
12	5.0	ltm	302	diff_vonmises	-0.1851629779142986	-10.609057156563384	1.7120716001143708	39.32819137457312	1.6730284443586594	39.61395721682374	0.12519932858026905	-0.11624141047050696	0.241440739050776	66.98958311630494
13	5.0	perception	302	diff_vonmises	-0.02039734147582618	-1.168681579851986	1.136060707902432	237.85459187416242	1.1154549878544195	238.562171047538	0.6575308072671788	-0.3878321763796748	1.0453629836468536	85.43677322438575
14	5.0	wm	302	diff_vonmises	0.24284835761333567	13.914185952927848	3.4181500482294878	0.8095076092456077	0.32516315675824714	1.6670382395260464	0.21293332293553907	-0.24067617344050193	0.453609496376041	66.66433592282164
15	6.0	ltm	302	diff_vonmises	-0.4744843989912453	-27.18595350699977	0.8084612655303379	152.08063359593382	0.796745340656526	152.68064854421976	0.1584355482370725	-0.19691249162440627	0.3553480398614788	97.13927194674149
16	6.0	perception	302	diff_vonmises	0.1899663542583	10.884270348487643	1.4204869891545993	1.9952428583482469	7.907646914745668e-12	2.821886050941668	0.3871458689755266	-0.4003051739251564	0.787451042900683	112.83269435044667
17	6.0	wm	302	diff_vonmises	-0.05419333630069542	-3.105049447762965	4.479111079407926	0.5940436483709657	4.791764078532664e-18	1.3091029750538934	0.27727522315068875	-0.20828772079309354	0.4855629439437823	64.59978739539076
18	7.0	ltm	302	diff_vonmises	0.017382353826160206	0.995935512242058	1.8847066702630988	116.65080287440136	1.8664209445662003	117.1404815585237	0.10040940928629993	-0.17418529727633825	0.2745947065626382	61.34225063903864
19	7.0	perception	302	diff_vonmises	0.03506301499453267	2.0089627761906432	0.7902628100098751	2.8541521121737445	2.2753663738420465e-17	3.6935730012550954	0.2734897841220827	-0.41052899638756124	0.6840187805096439	137.7992514555409
20	7.0	wm	302	diff_vonmises	-0.22707655618893258	-13.01052829599113	0.0001772608684108086	3220.306804062873	1.5402012495532375e-30	3221.3585506305258	-0.07653552744170611	-0.2582377506288367	0.18170222318713058	178.5191727322323
0	1.0	ltm	303	diff_vonmises	-0.05970684313925619	-3.4209501199290147	1.190023209917686	0.580000822512787	5.266832478619306e-15	2.783689149947407	-0.2242148013781605	-0.4227853243904076	0.19857052301224712	121.05126341393486
1	1.0	perception	303	diff_vonmises	-0.03934541524856667	-2.254326236932543	8.82887178061381	0.9823620500151812	0.0737339298416191	3.474511708046586	0.5524692874893293	-0.563115431645844	1.1155847191351733	44.99777572452828
2	1.0	wm	303	diff_vonmises	0.16963660061984034	9.719461266463176	3.8224134123816484	0.38909321336956015	4.459597673944625e-16	3.002504359788767	-0.18606620299658694	-0.4777237689127592	0.29165756591617226	70.07613261371264
3	2.0	ltm	303	diff_vonmises	0.14671853092295187	8.406352598244801	0.9172342008582595	82.55000960123999	0.8915140150635432	83.52896343153316	0.08992412564904484	-0.24988255215454203	0.33980667780358687	87.75008801993863
4	2.0	perception	303	diff_vonmises	-0.028005383746362515	-1.6045902923108462	8.678519482640592	1.2813331805054111	0.29664146760552673	2.3932032503082072	0.9813092440559101	-0.41347823796146627	1.3947874820173765	44.63094195201714
5	2.0	wm	303	diff_vonmises	-0.00044613934195197115	-0.025561901368591777	6.347549360527331	0.48061901799567497	0.07332904478642883	2.058772934636234	0.12063119801733435	-0.3292361089848066	0.44986730700214095	52.587400665525024
6	3.0	ltm	303	diff_vonmises	0.1049134232375838	6.011096365783289	2.1477254014300144	0.7212036198881502	0.3701539096434017	1.2019536947304077	0.12063717070228364	-0.1422018823883595	0.26283905309064315	80.10114427786507
7	3.0	perception	303	diff_vonmises	0.026824946245922823	1.5369562055566794	3.629357143814966	2.348792195800331	0.5038305722550303	2.891440452491109	0.9962422040422625	-0.389384577742491	1.3856267817847536	65.34027809354461
8	3.0	wm	303	diff_vonmises	0.03343382804057604	1.915617239691154	3.5546889146530525	0.4478330301408236	1.6141940837946682e-15	1.430269452351057	0.0950329377564367	-0.22737070183946007	0.3224036395958968	72.73713329355388
9	4.0	ltm	303	diff_vonmises	-0.33394129138390005	-19.133426601445915	2.0477197903276396	0.6317806127699204	0.010918111977902293	1.9278349629060432	0.020414658960235588	-0.2979797054590543	0.31839436441928987	94.82023684445976
10	4.0	perception	303	diff_vonmises	0.017477685483813343	1.0013976138795688	1.9256856578859167	3.8166317915218784	0.46198963474809424	5.345884920030011	0.6431511422524081	-0.5457921918413787	1.188943334093787	82.71704588604246
11	4.0	wm	303	diff_vonmises	-0.23617762311312138	-13.531981019813259	0.7891760573221899	101.4936647025013	0.7553054902392433	103.53347599954293	0.05443422848568247	-0.47383120013850544	0.5282654286241879	92.70043118071453
12	5.0	ltm	303	diff_vonmises	-0.0473547776321213	-2.7132288981010646	1.9158154020578657	0.9975943166409521	0.21704401219232058	1.577148694095988	0.19319034378093786	-0.19444267041699811	0.38763301419793594	89.16296954641487
13	5.0	perception	303	diff_vonmises	-0.019741237702431268	-1.1310896027138497	1.336519180739166	8.788800204247718	0.8072461008282784	9.519278824160676	0.6477422110680919	-0.39199828162229367	1.0397404926903855	87.72940578362667
14	5.0	wm	303	diff_vonmises	0.06648560819366249	3.8093447478572657	2.1688063631362495	1.1980898705424938	3.1131185493561513e-16	1.9957222831366097	0.3313398752103421	-0.3091483396482033	0.6404882148585453	93.30607521750866
15	6.0	ltm	303	diff_vonmises	-0.32457853817129523	-18.596980357741106	0.5343352864693309	122.5944655042149	0.5206131135895876	123.14718735948682	0.17717030577861337	-0.23406625572299689	0.41123656150161025	120.3149384051464
16	6.0	perception	303	diff_vonmises	0.2233590078139893	12.797528463971162	0.6088085753471334	4.007579880278653	1.4429770159905815e-18	4.592427207259346	0.3400096816301915	-0.41398374904331897	0.7539934306735105	145.8174393710717
17	6.0	wm	303	diff_vonmises	-0.28745801157541456	-16.47013085049402	1.9738285235046298	1.1186808681352367	2.9588152231046245e-12	1.5971258450575723	0.31830342873253453	-0.2431399480871213	0.5614433768196558	97.51031329711417
18	7.0	ltm	303	diff_vonmises	0.17351803190827483	9.941850897760498	0.8865367477977205	181.58597178903375	0.8736510768356907	182.7319206289735	0.08196563225645548	-0.28416830199423515	0.36613393425069063	88.3363276670963
19	7.0	perception	303	diff_vonmises	-0.08651434453338756	-4.956906809103812	2.4708071933305558	1.592054494306172	6.616152399485789e-17	2.263894929404107	0.5715261206098363	-0.3536538999624972	0.9251800205723335	87.50072531128237
20	7.0	wm	303	diff_vonmises	0.3795230448477497	21.74506869773032	0.49114219324725505	89.94662125576524	0.4722237332836414	91.20271754578337	0.01368312484386891	-0.3129918414892412	0.3266749663331101	117.9858578116818
0	1.0	ltm	304	diff_vonmises	-0.026025146190856788	-1.4911310379470648	0.9780663448961074	0.6415111880549293	2.797231967838744e-18	3.800945088781037	-0.38840013951130564	-0.5743174621631401	0.18591732265183442	129.504550635284
1	1.0	perception	304	diff_vonmises	0.007881027375678572	0.45154960685344525	7.7577028689820615	0.9639256734684837	0.05919984902684034	4.372698708304304	0.3146872720058099	-0.7032379311019087	1.0179252031077186	47.90848636963824
2	1.0	wm	304	diff_vonmises	0.2060519159702923	11.805905145682033	3.233172912862434	0.41811068306180305	8.469709087083589e-21	4.050470216190228	-0.3589506274996748	-0.6442081034429095	0.28525747594323464	76.35117665059627
3	2.0	ltm	304	diff_vonmises	0.26096776440708763	14.952351489490505	0.9199231950682083	157.89433508134206	0.9043155303900223	159.2258124753591	0.03827793622382103	-0.3106361112350804	0.3489140474589014	85.00368382337663
4	2.0	perception	304	diff_vonmises	-0.032920090761288955	-1.8861822618094704	8.387863706502454	1.4335823228523406	0.34894393150126274	2.8514910214280405	1.0059830588305032	-0.49983071890554903	1.5058137777360523	45.00315314856681
5	2.0	wm	304	diff_vonmises	0.08651501498027092	4.956945222880617	5.598458201798914	0.5403836157854685	1.8544106827902886e-19	2.561040186976692	0.08995335341789212	-0.40759538050833605	0.49754873392622817	57.62951365407335
6	3.0	ltm	304	diff_vonmises	0.17740786625521007	10.164721988844914	4.896526645953622	0.2673223013014166	1.0502534402873134e-35	0.9613497512092887	0.0762246047954776	-0.15299076475095444	0.22921536954643204	61.7158309168247
7	3.0	perception	304	diff_vonmises	0.02761269569740729	1.582090924440485	4.38795369424442	1.8940369899127472	0.2172706870391975	2.6513982035923624	1.0128616158744108	-0.3980845362895143	1.410946152163925	62.53992162454023
8	3.0	wm	304	diff_vonmises	0.18794329266078785	10.768357457255204	0.7299351355363067	35.49392791111919	0.6763768814173928	36.771911642749394	0.004449033825494553	-0.2870625969952556	0.29151163082075016	96.08744551683074
9	4.0	ltm	304	diff_vonmises	-0.33638619233464856	-19.27350910725133	0.2366154833264616	59.46194971370113	0.21701146424890322	61.15750293724051	-0.12744825919150315	-0.3771203201037059	0.24967206091220273	147.25500950289245
10	4.0	perception	304	diff_vonmises	0.04147548235184329	2.3763700920299504	2.679880848502088	2.267862283640856	0.12706003990422432	4.259970572452337	0.6251301794631599	-0.6092118793073109	1.2343420587704708	79.18920615338487
11	4.0	wm	304	diff_vonmises	-0.33060060883928316	-18.942019590946344	1.0023846572630601	2.256221885737626	8.543809683744306e-22	5.343165141248761	-0.07839914465048248	-0.7464103822863781	0.6680112376358956	127.64702923870536
12	5.0	ltm	304	diff_vonmises	-0.05801749296538372	-3.3241574848464306	1.5802758409143485	1.4902580083472585	0.28448134501711564	2.5710968848794553	0.1332250127651119	-0.28561813998405744	0.41884315274916933	91.61257696891917
13	5.0	perception	304	diff_vonmises	-0.027800795572272892	-1.592868253397223	2.2552226066516057	2.3492358600317624	0.16299109960202382	3.6441267837021596	0.6243912702625204	-0.4872661766417396	1.11165744690426	85.22319388859381
14	5.0	wm	304	diff_vonmises	0.0601451486584204	3.4460631763144143	2.0782450552209735	1.336783473020086	6.123953117096962e-19	2.7091421764063384	0.27456437644426995	-0.4201184049424699	0.6946827813867398	95.25284609849408
15	6.0	ltm	304	diff_vonmises	-0.24710849235872934	-14.158273693995945	0.31356131528531545	93.30901785502928	0.2966918183436295	94.15141801933312	0.10556224088584898	-0.30512218917438894	0.4106844300602379	142.60043332692055
16	6.0	perception	304	diff_vonmises	0.217371997230659	12.45449802564618	0.533247662122173	5.096970808001111	1.967824153916691e-10	6.325928392618809	0.28254544325011977	-0.5629777728626524	0.8455232161127721	149.63368700222884
17	6.0	wm	304	diff_vonmises	-0.31733182719193104	-18.18177440327242	1.3850375291971346	1.7441502966878044	9.479210213388453e-12	2.7970226808036815	0.2748306914629812	-0.40004668367567053	0.6748773751386518	113.75202146023437
18	7.0	ltm	304	diff_vonmises	0.3171954480714987	18.17396045525794	0.5442608049404783	155.76950454974653	0.5325732806098732	157.46069653233198	-0.08545056049941024	-0.35063678390322117	0.26518622340381093	105.8426128318369
19	7.0	perception	304	diff_vonmises	-0.07229307941361482	-4.142088338404226	2.9411551736782973	1.6041468463274502	2.5294451195419702e-15	3.083457630152542	0.5480741553923383	-0.487850887578442	1.0359250429707803	80.13777640050733
20	7.0	wm	304	diff_vonmises	0.8416676451729875	48.2240038211267	0.16311421404538862	56.76019931115722	0.13947469949064367	58.73779380556943	-0.13171866945758204	-0.4687294240363089	0.33701075457872687	146.51644068432293
0	1.0	ltm	305	diff_vonmises	0.09260348244357998	5.305788712230949	3.032089494323595	0.3905522355069066	1.2282205449275092e-17	2.8168719357400014	-0.19098027712619797	-0.4477208142161274	0.25674053708992944	78.9050541246142
1	1.0	perception	305	diff_vonmises	-0.020041960968066697	-1.1483197766361515	11.161989514838423	0.7941294872137381	0.06126392109060307	3.7790807435247693	0.40718620327711397	-0.6156835768796718	1.0228697801567859	40.07891104076941
2	1.0	wm	305	diff_vonmises	0.14274593757014975	8.178739765407514	4.842549363667062	0.4963511447522656	0.1433814694097231	3.3310256770224553	-0.18564432092969063	-0.5364949972159757	0.3508506762862851	56.56720949257348
3	2.0	ltm	305	diff_vonmises	-0.04232192662612449	-2.4248677765392768	3.277343173760636	0.563562342939326	2.0757479560580094e-15	1.771215499176975	0.10611595583772954	-0.28134529244000467	0.3874612482777342	75.83529711595003
4	2.0	perception	305	diff_vonmises	-0.054847837054636916	-3.1425495786519435	12.540921046599195	0.9200306833058763	0.09092361151902792	2.505875841765675	0.8504172174489633	-0.41414413446557663	1.2645613519145398	37.90288444040823
5	2.0	wm	305	diff_vonmises	-0.14548669683468687	-8.33577370392687	4.0607509680448715	0.7716923614976964	0.19148556964721555	2.560752599411935	0.10910236821123859	-0.39666314475105735	0.505765512962296	62.499239438484864
6	3.0	ltm	305	diff_vonmises	-0.03689694652930864	-2.114039313049256	1.0923081523951832	121.55520791420587	1.0772619214622807	122.06016524396188	0.16313251711694932	-0.16971588322929776	0.3328484003462471	83.76443056622873
7	3.0	perception	305	diff_vonmises	0.052395651008760355	3.0020496676423427	2.451259829130194	4.567565448326147	0.8888218364282813	5.0609826390658466	1.0384233200397384	-0.4382826911596609	1.4767060111993993	71.79010734731872
8	3.0	wm	305	diff_vonmises	-0.09687483063835975	-5.550518936622653	3.205572310105798	0.7757752961015034	0.15456450820322706	1.6374421688378553	0.2251454957242926	-0.2399394363702033	0.46508493209449586	71.96840106659062
9	4.0	ltm	305	diff_vonmises	-0.3346436539819641	-19.17366901400283	0.648829502458656	107.94339308202052	0.6320566250539684	109.32235921235554	-0.03070092613760167	-0.29748299196981876	0.2667820658322171	99.07670117569072
10	4.0	perception	305	diff_vonmises	-0.001322107650540873	-0.07575118843794916	2.3259890190651564	3.1243364604224677	0.309147433354716	4.572254061517624	0.796483021903761	-0.5618848700410077	1.3583678919447686	80.52655204648872
11	4.0	wm	305	diff_vonmises	-0.25641491072259914	-14.691492188628729	0.8159846806577206	148.34540355318435	0.7962008599170852	149.9086429462226	0.08689116137375663	-0.37964455661311014	0.46653571798686677	91.90542297679102
12	5.0	ltm	305	diff_vonmises	0.06370077361030158	3.649785479588612	2.3399618737179977	0.7002655712894973	1.9899902384859248e-19	1.4309626692612847	0.16913584261013823	-0.22406151854940623	0.39319736115954446	89.90026269154842
13	5.0	perception	305	diff_vonmises	-0.012406009754278175	-0.7108119995182709	2.4279931510282116	2.0044492173278248	0.18447302573671254	3.1023511350107174	0.5723921739263341	-0.4162297650354991	0.9886219389618331	81.91881487389915
14	5.0	wm	305	diff_vonmises	0.01762927355904461	1.010082970814832	2.144760379247248	1.1855022804801032	0.05866346370447531	2.199497865673547	0.2669866585440281	-0.32109021858550135	0.5880768771295295	90.64915224033663
15	6.0	ltm	305	diff_vonmises	-0.32192886977685764	-18.445165541630626	0.5168043499387466	122.15333662735617	0.5019774276982949	123.0151713979167	0.12601471925664853	-0.28062289381991157	0.4066376130765601	119.73387600563487
16	6.0	perception	305	diff_vonmises	0.30306387232204673	17.364280806944922	0.2743919042819699	9.039696619834203	7.83983887850757e-11	9.552351631193982	0.3375090703286592	-0.4471228035726391	0.7846318739012983	162.25672644140698
17	6.0	wm	305	diff_vonmises	-0.37122975885288656	-21.26989841192971	0.6141409653603526	62.836604646756506	0.5838913124551285	63.53497092542566	0.1763881480052163	-0.2529144265926009	0.4293025745978172	112.70483815908855
18	7.0	ltm	305	diff_vonmises	0.3277958528258752	18.78131890881413	0.8461010855880448	60.486307694078505	0.8158085164345866	61.065063001601764	0.17229031316289323	-0.19625606241211369	0.3685463755750069	95.86644274489308
19	7.0	perception	305	diff_vonmises	-0.06164951580092846	-3.532257064418282	2.3216371328491614	1.3301594584693037	8.123420350467232e-18	1.699442975093478	0.4798667553405703	-0.2632507493622328	0.7431175047028031	90.25431811184407
20	7.0	wm	305	diff_vonmises	0.1448362340136129	8.298504929549159	0.7089154686531084	72.84101483811023	0.6868938513364226	73.67791915317312	0.06964633112260188	-0.21733484556432536	0.28698117668692724	100.24975368542948
0	1.0	ltm	306	diff_vonmises	-0.49110190428370226	-28.138066426293864	0.03673915769220526	32.01748971097452	0.01552874763830638	32.76970687016996	-0.01211037473516452	-0.22451827549841585	0.21240790076325133	170.53664668775428
1	1.0	perception	306	diff_vonmises	-0.08628803396062068	-4.943940168425082	11.7410201002979	0.8633257469100969	7.293193680684156e-20	1.982510386282602	0.8515367284112074	-0.31552632763394206	1.1670630560451496	39.575371198365644
2	1.0	wm	306	diff_vonmises	0.11171846158487009	6.400996342507474	2.7501311242700455	0.7092958111545256	1.6545796930458726e-15	1.5067730443331655	0.20208966402699613	-0.23800466397224984	0.44009432799924597	82.91535074925244
3	2.0	ltm	306	diff_vonmises	0.179766355923722	10.299853492875856	2.238345116665545	0.6773345203209838	1.0525460335354741e-12	1.0703486123908688	0.2035258673731888	-0.16609966003681848	0.3696255274100073	91.85361343958098
4	2.0	perception	306	diff_vonmises	-0.0002054847987374845	-0.011773411721753009	6.616105238764095	1.5702407404608394	0.47832659837181296	2.0172314910250595	1.0888333653649027	-0.33780426202671093	1.4266376273916137	50.281848872730734
5	2.0	wm	306	diff_vonmises	-0.0216551990599007	-1.240751510647978	8.99089182723769	0.4026275606845302	0.24206448705930078	0.8927465513275503	0.29614889021388535	-0.15285830118806656	0.4490071914019519	43.957764646298244
6	3.0	ltm	306	diff_vonmises	-0.0268755385478945	-1.539854930935508	1.6946909943580721	0.7690995040269766	1.3420471063270158e-19	0.9333918270284671	0.21021489304788987	-0.13645150194281172	0.3466663949907016	104.74332869734324
7	3.0	perception	306	diff_vonmises	0.04440887756681535	2.5444412574917203	3.724615364256592	2.6852637785232196	0.7301309866213783	2.6753078522127183	1.2085015605490177	-0.3338246479893362	1.5423262085383538	63.702716907914066
8	3.0	wm	306	diff_vonmises	-0.13291227783525164	-7.615312565430116	2.672754767270801	0.6499483802785708	2.9340862937220084e-19	0.9720661037820919	0.24357431620545175	-0.15280927556165566	0.3963835917671074	84.11962454048168
9	4.0	ltm	306	diff_vonmises	-0.37281885981658935	-21.36094719037005	5.063378073335362	0.6477990883375991	1.5919670840538833e-25	1.584503054922243	0.31327440999149714	-0.2521588735820647	0.5654332835735618	60.66946314433477
10	4.0	perception	306	diff_vonmises	-0.01608470398421197	-0.9215856530126059	3.4446781534256155	2.028887545375207	0.07846832877483079	2.947246306824888	0.9299162423831414	-0.44238453631867725	1.3723007787018187	72.0955813045162
11	4.0	wm	306	diff_vonmises	-0.40161008505897555	-23.0105628837693	1.4922725649741966	61.368915029347015	1.4369847717058868	62.355047572611554	0.1816700139866647	-0.3056491178860741	0.4873191318727388	69.76373729569305
12	5.0	ltm	306	diff_vonmises	-0.23307378034354478	-13.354143928844323	0.4466707785982694	18.028428109391076	0.3971989747458638	18.01228533424803	0.16804410937059533	-0.10580266695131169	0.273846776321907	134.48708252920483
13	5.0	perception	306	diff_vonmises	0.014271309390256452	0.817685796187115	1.3289750209127678	183.89980413556214	1.30916854252698	183.64590590883083	0.7612166101500719	-0.20453184555209347	0.9657484557021654	83.63555576101103
14	5.0	wm	306	diff_vonmises	-0.020794880043624762	-1.19145886198052	1.7017925886668435	1.1081827170746006	0.05395083190745811	1.05624594205176	0.3409890805889116	-0.1419264811436493	0.4829155617325609	102.80218068728003
15	6.0	ltm	306	diff_vonmises	-0.5699969251923049	-32.65841814895318	1.7472433684049844	0.6957351587004756	2.786727427775861e-12	0.8342418536553643	0.19787096338875257	-0.12273328734680301	0.3206042507355556	102.52921788339951
16	6.0	perception	306	diff_vonmises	0.15864773799555976	9.089845816442844	1.6065497737700185	1.6844345084169847	8.167853342256891e-13	1.641629897696867	0.4993862047549199	-0.23067074351170755	0.7300569482666275	107.16152630542072
17	6.0	wm	306	diff_vonmises	-0.11856194569987813	-6.793099099462256	4.486408190501194	0.40683011914907263	8.0014274394193e-20	0.4225787221793535	0.2656090873547112	-0.06721327927301053	0.33282236662772174	64.54613191657825
18	7.0	ltm	306	diff_vonmises	0.25296019621836235	14.49355162811333	1.7102334598572873	169.85911082857103	1.6937491367194029	170.4700776404762	0.18354460344689016	-0.2234706055275204	0.40701520897441057	65.70415267636358
19	7.0	perception	306	diff_vonmises	0.047453855670619986	2.718905651549474	0.860480808069493	2.995195581902523	5.7251488412720735e-15	3.3421007583689324	0.4121331443107309	-0.3630243362751999	0.7751574805859308	134.5846642352402
20	7.0	wm	306	diff_vonmises	-0.4067769517031173	-23.306602535785544	0.00019063596151698916	4794.05123352609	2.6439385621429283e-30	4794.507238080444	0.07288412733760197	-0.2180210214833096	0.29090514882091156	175.31408356082795
0	1.0	ltm	307	diff_vonmises	0.2350662070781546	13.468301571726498	0.5179984198355804	106.3438797651035	0.4979637026388689	109.0642148516698	-0.2714940182476049	-0.5018092685738456	0.23031525032624067	100.3887869749181
1	1.0	perception	307	diff_vonmises	-0.01361413936789769	-0.78003272748344	8.79133573310965	0.9285064871498533	0.10277187868840869	4.045837883947518	0.36999367751256684	-0.6640530756855731	1.0340467531981399	44.681888491276
2	1.0	wm	307	diff_vonmises	0.0813600591725414	4.661588011521263	6.782449789854842	0.2941438760766794	0.1142889205938817	3.775565919109327	-0.3719601002272922	-0.6240985777814938	0.2521384775542016	47.95276460273638
3	2.0	ltm	307	diff_vonmises	0.04991097806513843	2.85968839450246	0.9919091671936199	5.280037732728264	0.6174551126314332	6.5704506128109905	0.029610230212227195	-0.2969504105616674	0.3265606407738946	91.02909616817911
4	2.0	perception	307	diff_vonmises	-0.04577342732670694	-2.6226241996690978	10.089402001812278	1.068145247560779	0.15139953030147713	2.8387513396334194	0.8130135728359799	-0.47604718094246884	1.2890607537784486	41.89239371712392
5	2.0	wm	307	diff_vonmises	-0.08262642540716907	-4.734145452083302	2.459812122525566	1.513019605956887	0.3953683116020579	4.027878317675033	-0.03255043087555698	-0.5453302540019842	0.5127798231264272	70.46320876204607
6	3.0	ltm	307	diff_vonmises	0.14826239303172414	8.49480938122762	1.1565457395168623	109.27962780574552	1.136184230016094	110.00065903412752	0.1492802439692369	-0.21488006402753967	0.36416030799677657	79.8598901356192
7	3.0	perception	307	diff_vonmises	-0.008167109336035214	-0.4679408957767098	2.8807663496562523	3.442283866789373	0.6150051782275622	4.632617623093966	0.9592804510537467	-0.550622469765193	1.5099029208189396	69.45292963589145
8	3.0	wm	307	diff_vonmises	0.009441685240389484	0.5409687157652796	3.832528055370041	0.50546271659978	0.03288775404419764	2.276136977329035	0.005319886169710186	-0.3560417080558847	0.3613615942255949	68.09827475852461
9	4.0	ltm	307	diff_vonmises	-0.0015682533844367185	-0.08985430013533136	1.0223635349896436	1.2458534717061063	0.10420508942913517	2.9476594750991367	-0.08826197069865088	-0.36578768537171746	0.2775257146730666	115.4682403697144
10	4.0	perception	307	diff_vonmises	0.020181956884468284	1.1563409517950287	0.9430393376529477	417.412234204163	0.9280146998368317	419.5541173978791	0.48944783770434697	-0.653082532642209	1.142530370346556	89.200652226172
11	4.0	wm	307	diff_vonmises	-0.18234263192855635	-10.44746323481369	0.6388420070936164	214.41359269620548	0.6210597624739116	217.32294481936984	-0.06066868144583992	-0.6307316593294807	0.5700629778836408	100.07890814803997
12	5.0	ltm	307	diff_vonmises	0.0069383880635387005	0.3975403526647156	1.0700659717130514	116.13704612778795	1.0470511211321574	116.9074223742201	0.2326651520806351	-0.2533878248613366	0.4860529769419717	84.60797812146279
13	5.0	perception	307	diff_vonmises	-0.03196489828954303	-1.8314537645557596	0.9299053942791575	317.58950455305484	0.9128786909781851	318.8475582169292	0.6196510973459795	-0.5120943367749007	1.1317454341208801	92.67260560702678
14	5.0	wm	307	diff_vonmises	0.06899070286152573	3.9528760996065557	3.2212417044259065	1.0584432440830276	6.82833725091841e-22	2.480942457504086	0.32690510867705325	-0.3937048895497382	0.7206099982267915	76.50192311305594
15	6.0	ltm	307	diff_vonmises	-0.17597684202448632	-10.082730340043488	0.6023452787729833	114.14069856702329	0.5848870421879138	114.91433216164117	0.17368737250456334	-0.2695002068428387	0.44318757934740205	112.82037136473271
16	6.0	perception	307	diff_vonmises	0.13947817220284212	7.991510601421769	0.2586669956489153	8.497007863417664	1.334833762186009e-19	9.316653053964778	0.23982844865773512	-0.4559245023774159	0.695752951035151	164.7711372886944
17	6.0	wm	307	diff_vonmises	-0.30553665940514296	-17.5059610704408	1.1889166580174086	1.9764964138299497	0.09229245795712568	2.874062490079001	0.2447012285967327	-0.3470770942683837	0.5917783228651163	115.12550730830029
18	7.0	ltm	307	diff_vonmises	0.27261214313843707	15.619525245848727	0.9578754419219675	37.846628028720666	0.9125751479151559	38.47528416543936	0.12148833667960979	-0.18347799517918917	0.30496633185879896	88.61680302737403
19	7.0	perception	307	diff_vonmises	-0.04265449767043139	-2.4439226937663205	0.8548115306249152	83.02717905212498	0.806952333395053	83.88219610662618	0.4977283339059113	-0.3917453288081054	0.8894736627140167	98.2448397222665
20	7.0	wm	307	diff_vonmises	0.38256650735309206	21.91944625439275	0.4566636387594037	110.80645577652272	0.4422586797019758	112.20686136401562	-0.03472746231303603	-0.32445091413602256	0.28972345182298653	119.48390192090528
0	1.0	ltm	308	diff_vonmises	-0.42535564610565707	-24.3710833139144	0.00041316926748567176	1612.444804325044	3.247500731326946e-28	1613.8433154904963	-0.11654020441068269	-0.3285978229467901	0.21205761853610738	174.87228446054147
1	1.0	perception	308	diff_vonmises	-0.06611160036817881	-3.7879156779521854	9.237823529641794	1.0159821589396998	0.06424687364172456	2.6043404831095396	0.7727274794613874	-0.42048589740818254	1.1932133768695699	44.22502016035651
2	1.0	wm	308	diff_vonmises	0.24568114936327426	14.076492964438808	1.177522313554953	2.74912748514458	0.3754161388804848	4.422334675059489	0.041526430030634165	-0.38715496397027416	0.4286813940009083	95.15033026506478
3	2.0	ltm	308	diff_vonmises	0.13039659915275817	7.471174794312209	1.9241329905206968	1.8080162255480208	0.7702348556131186	2.4080014012560462	0.1936167665094478	-0.1990905420028358	0.39270730851228364	75.81230284038341
4	2.0	perception	308	diff_vonmises	-0.0034837439601850093	-0.19960382582279254	7.238370682414662	1.3994583117355188	0.34797908116762755	1.9455365245781724	1.0486606019290594	-0.32637661749523333	1.3750372194242928	48.7346109782157
5	2.0	wm	308	diff_vonmises	0.01621383987392033	0.9289845944765617	7.9701720651770165	0.39659365587226103	0.08220903130601225	1.2891113361138096	0.21684313501548966	-0.20834613947623865	0.4251892744917283	47.27113815279506
6	3.0	ltm	308	diff_vonmises	0.05322447716356215	3.049537908262542	1.9749758078952455	0.5152343058047516	7.917424634360612e-18	0.8334583703923564	0.13113632685205215	-0.127569658078823	0.25870598493087515	97.59410510355559
7	3.0	perception	308	diff_vonmises	0.04633725780738696	2.654929306572896	4.090851653849414	2.0715335015689043	0.5723804822417986	2.217637134894682	1.0348895403601361	-0.3051092904924724	1.3399988308526085	62.13179979249014
8	3.0	wm	308	diff_vonmises	0.04456095818281156	2.5531548349340527	2.5328419615929727	0.56440623006865	2.2292371613326437e-17	1.130635731716405	0.15522488840315657	-0.1778311457682412	0.33305603417139773	86.43031871329492
9	4.0	ltm	308	diff_vonmises	-0.41083711006117013	-23.53923247385674	3.74842318481233	0.646512763674628	3.633915211528424e-19	1.5797009348448332	0.2282098626357007	-0.2511510357331636	0.4793608983688643	70.77652693402457
10	4.0	perception	308	diff_vonmises	0.01779511461339351	1.0195849632990237	2.11931297308518	3.7325628985061745	0.5648698798146156	4.834988605853328	0.7421496184188199	-0.4794985027233063	1.2216481211421262	78.7526846175509
11	4.0	wm	308	diff_vonmises	-0.32953362299712874	-18.880885805390683	2.182799358555374	1.3250744188619343	0.287517279085153	2.665051867637246	0.1665881803762489	-0.3398207987074754	0.5064089790837243	80.24627999828508
12	5.0	ltm	308	diff_vonmises	-0.12409330176350736	-7.110022456892307	1.4729107007069675	0.86459253520587	1.8868635373195376e-15	0.9662427796388119	0.216608747292807	-0.13431487314836482	0.3509236204411718	111.25786858104374
13	5.0	perception	308	diff_vonmises	-0.013221464079465657	-0.7575340907372022	1.2603218192894783	183.6513245717983	1.2388068821669949	183.5621144319053	0.7587384343839148	-0.24334262022549247	1.0020810546094072	84.82781762006417
14	5.0	wm	308	diff_vonmises	0.04915780270377219	2.8165346250629333	1.820498544226411	1.279793218177409	2.442590802607147e-14	1.3432721760456992	0.4098317103070108	-0.19743292731726067	0.6072646376242715	101.38029887867364
15	6.0	ltm	308	diff_vonmises	-0.41650446060130936	-23.863947740827903	0.5906294266521311	33.345875276299815	0.5531857636114382	33.40797818547778	0.21967441768799922	-0.13725714345991724	0.35693156114791647	120.22090775392368
16	6.0	perception	308	diff_vonmises	0.18392118817034817	10.537907845192393	1.079721292956941	2.2638355413736946	5.7312674532182324e-15	2.148855426989123	0.4655585017518102	-0.2488105981464892	0.7143690998982994	125.06417674879492
17	6.0	wm	308	diff_vonmises	-0.2668611658712482	-15.290018520363127	2.675844649497981	0.7378414922256361	2.8693241088239424e-19	0.5969369934353498	0.3574536370911346	-0.09286060812948436	0.45031424522061897	84.04590166788701
18	7.0	ltm	308	diff_vonmises	0.16107743277709757	9.229057072929923	1.0556342394673577	175.6471360192905	1.0394982023915738	176.70794132429296	0.16334317834362366	-0.2948793879693561	0.45822256631297975	82.7387847527551
19	7.0	perception	308	diff_vonmises	-0.07270450659875997	-4.165661379689991	2.171500043497862	1.7315112794166259	2.394784588938379e-14	1.8527606467952098	0.6437318609073241	-0.2826762604065966	0.9264081213139208	93.2515883180836
20	7.0	wm	308	diff_vonmises	0.13068094220577575	7.487466451183981	0.2819777907178079	41.260399278796896	0.24926574536107646	42.03792681713675	0.08269090333303986	-0.27810178063909685	0.3607926839721367	147.64928426332767
0	1.0	ltm	309	diff_vonmises	-0.25991015010255597	-14.891754653488178	1.3198180044042769	0.7523360691747234	3.2348568330255936e-25	2.3306218565776	-0.06919779805204807	-0.3493900563932941	0.28019225834124606	116.07846644253581
1	1.0	perception	309	diff_vonmises	-0.08808849600027747	-5.047099044470932	10.49976462365199	1.0900048357459462	0.14078752267974506	3.094593142844069	0.8273138049976515	-0.5185295898090739	1.3458433948067254	41.096799078818805
2	1.0	wm	309	diff_vonmises	0.06060732660522788	3.4725440220505046	3.874777185196951	0.6037716469350138	3.640219477714173e-29	2.492218159127408	0.05949832099786334	-0.39645221790892404	0.4559505389067874	69.5943527318442
3	2.0	ltm	309	diff_vonmises	0.00805796707891622	0.46168750507725975	3.4142993308022818	0.8678305183459272	0.38394423757325186	1.3665632090000015	0.30350446073106335	-0.1898933979035994	0.4933978586346628	67.21809802558627
4	2.0	perception	309	diff_vonmises	-0.03060474357842828	-1.753522640124049	10.365418031120754	0.934683718816541	0.1108331026469029	1.619879854783561	0.8980932427206119	-0.2663659062080109	1.1644591489286227	41.71966857669477
5	2.0	wm	309	diff_vonmises	-0.09211478159997222	-5.277788216447741	5.672108198593691	0.5473709529149896	0.2519750477080707	1.342956327044804	0.2367729865850255	-0.21734335233840132	0.45411633892342684	54.07471297062972
6	3.0	ltm	309	diff_vonmises	-0.01600291696473444	-0.9168996019775891	2.6277594064343335	0.5752119061412766	4.313568038997689e-13	0.9440812038655989	0.19878449432789613	-0.14843366841243752	0.3472181627403337	84.84592638071331
7	3.0	perception	309	diff_vonmises	0.01562789106150343	0.8954122005143705	4.40552189174658	2.1158475720324366	0.5985168089109217	2.4555080953965382	1.0629192317437905	-0.3532320555194985	1.416151287263289	59.644351589041605
8	3.0	wm	309	diff_vonmises	-0.009961974955879228	-0.5707791205869043	2.734229500181512	0.7446163519345728	1.1465940187663016e-17	1.3202727798814424	0.2522186912131913	-0.20817758818878995	0.46039627940198125	83.16527609987938
9	4.0	ltm	309	diff_vonmises	-0.39703139253019865	-22.748223126182303	2.512751273856671	1.0654224568530477	0.031290274657106175	1.9429957812279977	0.3107941545713283	-0.2955010302993658	0.6062951848706941	85.28675431363085
10	4.0	perception	309	diff_vonmises	-0.017651581777351058	-1.011361137572248	2.2597193898913854	2.9816753787764774	0.3267676906686888	3.7886859320485278	0.841091959516155	-0.4454493145045636	1.2865412740207187	82.15148716060912
11	4.0	wm	309	diff_vonmises	-0.19452989286851854	-11.145741850498164	1.0988488074944551	203.55146396469374	1.0825486287835135	204.55774587182475	0.26236756742382283	-0.3166930167635442	0.5790605841873671	82.77593972099345
12	5.0	ltm	309	diff_vonmises	-0.05888799208684729	-3.374033410576139	1.3222086804042277	1.4924260636008733	8.587428046140866e-15	1.3439047210641724	0.3852945887085493	-0.17131663656134402	0.5566112252698934	116.29186360343861
13	5.0	perception	309	diff_vonmises	0.005624651910555481	0.3222688157050241	1.2428668561064913	228.60314583029927	1.2266718465767297	228.5449040053181	0.7025862466210953	-0.23152184928949993	0.9341080959105952	85.17504267493231
14	5.0	wm	309	diff_vonmises	0.014572242042954297	0.8349279671043777	1.90137313415988	1.5035730817927602	6.337793418586422e-17	1.2204925424990534	0.5580204861506542	-0.17746449558121175	0.735484981731866	99.36127843857449
15	6.0	ltm	309	diff_vonmises	-0.31522254734065136	-18.060921569982114	0.597252020279303	70.50133556472053	0.5740514724135977	70.43197023557751	0.3272125217804316	-0.1649643314650291	0.4921768532454607	120.6284478329747
16	6.0	perception	309	diff_vonmises	0.24619905126137087	14.106166557401558	0.5958679112090033	3.6913945589367407	2.4955393954425658e-12	3.2977782577005543	0.4525269059149907	-0.22803160384038013	0.6805585097553708	146.29381176156977
17	6.0	wm	309	diff_vonmises	-0.3028342491086473	-17.351124365938905	2.1509356994645006	1.2410137557928629	0.5456290419387068	0.7291870824164003	0.4827174239043491	-0.05643211704429533	0.5391495409486444	86.33055166401657
18	7.0	ltm	309	diff_vonmises	0.1357638282866288	7.778694371362653	1.1147969596527136	189.52102092283403	1.0987878394453285	190.14695085537014	0.34204598409277764	-0.259012789129649	0.6010587732224266	84.65723838981273
19	7.0	perception	309	diff_vonmises	-0.05738133455269428	-3.287708292697584	1.8144506386278252	1.8371506290167918	5.130104009614289e-16	1.6442494023461043	0.6316980730564505	-0.23797403876965376	0.8696721118261043	101.53866306747135
20	7.0	wm	309	diff_vonmises	0.06333023723303038	3.6285553090149056	0.505953075218177	34.18210564730955	0.4560560138720855	34.55674540619837	0.22840579390161686	-0.23145632865388643	0.4598621225555033	126.80543479889911
0	1.0	ltm	310	diff_vonmises	-0.48472422322768477	-27.772652218703524	0.6123982478838526	0.8332729063066979	1.2319173992712899e-17	2.299624717016389	-0.1427605458865472	-0.30040533999634683	0.15764479410979962	143.19991659670058
1	1.0	perception	310	diff_vonmises	-0.04139569568052639	-2.371798652502094	10.516786433788866	0.8944911119695692	0.10093354034549797	2.940779009911469	0.6261731782603501	-0.4852064943356572	1.1113796725960072	41.1905673974635
2	1.0	wm	310	diff_vonmises	0.10952759369662896	6.275468859040518	6.895151913880187	0.19974971788166518	8.882199578763455e-34	1.8837077712823531	-0.09465053879128132	-0.29980119271889677	0.20515065392761545	51.82837679041128
3	2.0	ltm	310	diff_vonmises	0.3412154302668126	19.55020405902881	0.4945827677303621	98.00793083484034	0.48121942557070496	98.62105577321967	0.09517613250301693	-0.20623849504578118	0.3014146275487981	122.08572659884959
4	2.0	perception	310	diff_vonmises	-0.026161932436229902	-1.4989683125023852	9.538951731472814	1.2670282363994285	0.42615010727026836	2.245042649102881	1.0159425182468416	-0.410878037590572	1.4268205558374136	42.257022989298264
5	2.0	wm	310	diff_vonmises	-0.08873446951264659	-5.084110600406924	6.110030671728756	0.4908115563947733	0.2401467567630548	1.7167596434324026	0.13077090666409363	-0.2843933024306634	0.41516420909475704	51.572604945844375
6	3.0	ltm	310	diff_vonmises	0.116273069027159	6.661956126289503	1.7110868518242328	62.77905302783217	1.6906736906119468	62.87926844702786	0.16779292875626695	-0.08057479092808872	0.24836771968435567	70.01539851065405
7	3.0	perception	310	diff_vonmises	0.025101057342424425	1.438184647036786	2.7247956250490466	4.601280915281231	1.1458228465506062	4.8722225995322646	1.0530724075260458	-0.3977235459883207	1.4507959535143664	66.94608159037892
8	3.0	wm	310	diff_vonmises	-0.08686997460630787	-4.977282911350076	4.298463523760403	0.3750164729348423	0.060603179623538124	0.9868942643362255	0.1331059035142869	-0.1533669229993658	0.2864728265136527	64.31740472710504
9	4.0	ltm	310	diff_vonmises	-0.3946007819628549	-22.60895939903361	0.9466666277852409	120.50091715122494	0.9299246323618469	121.53381103455564	0.0441780803307239	-0.24638118420812383	0.29055926453884773	84.34847026091151
10	4.0	perception	310	diff_vonmises	-0.004874221664601697	-0.27927232979290795	2.5270399076755963	2.5362931221375877	0.3043188668398193	3.630247274083117	0.7387594925962659	-0.459370535867317	1.198130028463583	78.14851385337303
11	4.0	wm	310	diff_vonmises	-0.31085345110518675	-17.810590795403495	1.1601387355279795	183.52939157960208	1.1417811489386243	184.94627143018877	0.10480309959497447	-0.36326997682706974	0.4680730764220442	76.77546046743856
12	5.0	ltm	310	diff_vonmises	-0.1120125916033574	-6.417848751194902	2.3795148745853814	0.775369452572441	0.5470398440155909	1.0550896372390737	0.17418965878045212	-0.11537557291727796	0.2895652316977301	75.44958915933668
13	5.0	perception	310	diff_vonmises	-0.010664104095542226	-0.6110081569627456	1.1750977041547015	178.15249706712967	1.1494315166254923	178.74818209146054	0.6289018796110923	-0.3513389294029725	0.9802408090140649	84.36556269839747
14	5.0	wm	310	diff_vonmises	0.13067044870795438	7.486865218046487	2.476444552426854	0.9400708452486591	0.10191235504963425	1.4662526814167518	0.2931896908380201	-0.20858411491517237	0.5017738057531924	83.5815645586078
15	6.0	ltm	310	diff_vonmises	-0.4288677625617022	-24.57231276400423	0.7816081765128113	152.19562821673517	0.7690490626772354	152.7268616793144	0.2068297215227588	-0.20522366043380913	0.41205338195656793	100.34729083668019
16	6.0	perception	310	diff_vonmises	0.27117305448215717	15.537071539498738	0.9600628158626004	2.7176408492084025	1.6033282202425127e-16	3.2199162823656495	0.3955868141778345	-0.3793471690994078	0.7749339832772423	129.59214521164552
17	6.0	wm	310	diff_vonmises	-0.20483813248012975	-11.736360474453061	3.289603013036308	0.7473828805994477	7.270930819230914e-17	1.0783645995639295	0.3440561560797658	-0.1709107475388219	0.5149669036185878	75.68103816677171
18	7.0	ltm	310	diff_vonmises	0.1464648396277652	8.391817157731397	1.3450798978491878	157.74585287516297	1.3303059420993193	158.3804376893679	0.1650788971372421	-0.20548212768943586	0.37056102482667796	74.30292768979481
19	7.0	perception	310	diff_vonmises	-0.07530536022086363	-4.314679315367843	1.5889856589697546	1.6765985838532145	3.7712964582338613e-20	2.1655582719630853	0.407400733131063	-0.3133193808780044	0.7207201140090674	107.74866616758888
20	7.0	wm	310	diff_vonmises	0.21511984367600415	12.32545913214907	1.7132560552410336	0.6665429775317036	4.5953303651521345e-06	1.5212649953128905	0.07088840105906444	-0.231942430864435	0.30283083192349947	104.10664636940928
0	1.0	ltm	311	diff_vonmises	-0.32274749513787665	-18.49206931981939	0.005936796035084756	113.49220189906067	3.4499542155987893e-12	114.18273160959505	-0.0025109259300890585	-0.21697323880168184	0.2144623128715928	176.72048533711848
1	1.0	perception	311	diff_vonmises	-0.10369299871328404	-5.941171191326651	11.547027266137759	0.8839580009928591	7.401061150376027e-18	1.829904365213526	0.8935691387634723	-0.29123832499849894	1.1848074637619712	39.90756840000395
2	1.0	wm	311	diff_vonmises	0.10054229675193453	5.760649266437734	3.3830462616943953	0.5992386394536636	0.07454046794967104	1.387252905485656	0.1824632433930443	-0.21045606689710614	0.3929193102901504	71.98468233405586
3	2.0	ltm	311	diff_vonmises	0.05896526927286367	3.378461067187525	1.396530105519092	0.9261690526342912	2.7557749686090864e-14	1.4330304566554546	0.1561456668963461	-0.2045453243879271	0.3606909912842732	113.76537423253677
4	2.0	perception	311	diff_vonmises	-0.01731067566618798	-0.991828656192386	6.233441311557464	1.5678460824252691	0.4019120116525944	2.1625256707331992	1.0333130368163292	-0.35413831794946304	1.3874513547657923	51.93184706740419
5	2.0	wm	311	diff_vonmises	-0.06914112710733769	-3.9614947740280195	8.623170185428943	0.42225626962006724	0.4095536907555918	1.034467447130914	0.24919151334013137	-0.1878185215707113	0.43701003491084267	43.76952538776291
6	3.0	ltm	311	diff_vonmises	0.0014317230787733958	0.08203168984519188	1.0157645613523383	119.89418287299176	0.9999328061588955	120.09843610782575	0.28903586526718783	-0.1522310273073213	0.44126689257450913	91.33903203019486
7	3.0	perception	311	diff_vonmises	0.058883161876166455	3.373756659889968	1.56485678277241	274.03120836038664	1.5411147337059812	274.0832332354492	1.1024385910551757	-0.37612465435510956	1.4785632454102853	75.36891246663299
8	3.0	wm	311	diff_vonmises	-0.10068307986121838	-5.768715544426428	1.656740925775253	6.787757382736528	1.3125894107391114	7.116069893969229	0.27848816873055693	-0.17026137724112556	0.4487495459716825	73.81136467433888
9	4.0	ltm	311	diff_vonmises	-0.26004720952472876	-14.899607579921181	6.841547244440482	0.49756022832149693	7.557636012340565e-20	1.5006720599307914	0.27013311697886544	-0.2388387952512315	0.508971912230097	52.03018848060711
10	4.0	perception	311	diff_vonmises	-0.04151376693410553	-2.3785636370139978	1.7698359718918513	4.948771706642836	0.5956241637114267	6.012156347005912	0.7787603449382481	-0.496568602546582	1.2753289474848302	83.78151566717361
11	4.0	wm	311	diff_vonmises	-0.45856963393782335	-26.2741046374964	1.6457985314414056	97.92162764521605	1.6128607829772117	98.81687080770796	0.1433962935292996	-0.2843978699828096	0.4277941635121092	65.52759437102213
12	5.0	ltm	311	diff_vonmises	-0.18710600738637181	-10.720384544782712	0.9662048983193788	0.8357245543648052	3.614553214981993e-17	1.0186792238586373	0.11809441857769337	-0.12155104253093345	0.23964546110862683	129.7277081167231
13	5.0	perception	311	diff_vonmises	0.02860360715177738	1.6388659686470612	1.7238625848187399	4.267997575934929	0.8090961915562056	4.40878020008299	0.6654314140942532	-0.2565257922979561	0.9219572063922092	83.22673968682298
14	5.0	wm	311	diff_vonmises	-0.04304873066026016	-2.466510580228333	0.7708046087988246	69.59228127203436	0.7471717228132386	69.87658663914335	0.2305323895774194	-0.1650302101973642	0.3955625997747836	103.8190289553863
15	6.0	ltm	311	diff_vonmises	-0.5295162882843605	-30.339048502126456	1.692886888543906	0.712560756710377	1.1908027027011416e-19	1.2337481437095679	0.13583036466372828	-0.18511142484295998	0.3209417895066883	104.06536136139356
16	6.0	perception	311	diff_vonmises	0.1846935074918089	10.5821584827485	1.2912922084341683	1.8299464540099795	6.520376074739443e-14	2.1775833131710467	0.3778432000194111	-0.29181914133982084	0.669662341359232	117.19379765003274
17	6.0	wm	311	diff_vonmises	-0.1311365025687991	-7.513568137298667	5.307904668294055	0.2886189889605227	6.877447044820285e-22	0.7029782381273781	0.14642063213671125	-0.11187612412451897	0.2582967562612302	59.22798897210268
18	7.0	ltm	311	diff_vonmises	0.21678876687608944	12.421081387845426	1.6672746185138794	142.22345842628405	1.6483378115286544	142.82416010765758	0.17964610407261716	-0.21690130715899159	0.39654741123160875	66.62935543366893
19	7.0	perception	311	diff_vonmises	-0.015630119480993923	-0.8955398795461605	1.1559868006000864	2.1789470443312218	3.8064221968926316e-18	2.4752699782479866	0.41439477591113305	-0.31387188707595454	0.7282666629870875	122.35471375368523
20	7.0	wm	311	diff_vonmises	-0.510613714647727	-29.2560108108121	0.00020570774155639833	3409.011303547233	6.016986640027731e-28	3409.4911162047274	0.03524906671725603	-0.18796670015490236	0.22321576687215838	172.67670437428316
0	1.0	ltm	312	diff_vonmises	0.2036642269697624	11.669100643161862	3.8058404473792695	0.4783921467465703	6.002658621225199e-16	2.6441237148397763	-0.0629208087013074	-0.4206483030818504	0.357727494380543	70.23286434677013
1	1.0	perception	312	diff_vonmises	-0.10418834331917107	-5.969552346648549	10.16123098308538	0.9539599418668253	2.7574323078194203e-18	3.123649834195451	0.7003544394978272	-0.4971443098124853	1.1974987493103124	42.57454314103825
2	1.0	wm	312	diff_vonmises	0.04367087196577149	2.502156651294891	3.5101892396349625	0.7010324185136573	0.15582461198609535	3.1902859269713346	-0.08826449600003683	-0.49135524248632184	0.403090746486285	65.85869926626401
3	2.0	ltm	312	diff_vonmises	-0.10671201084798207	-6.11414784494363	0.9580548617173561	118.45979368071112	0.9334120363923907	119.75452061206924	0.12845386257461655	-0.33396516041919355	0.4624190229938101	85.92390719851895
4	2.0	perception	312	diff_vonmises	-0.04806871102236137	-2.754134268215287	8.16741643201529	1.215636786596534	0.13996802468899183	2.501752745596611	0.9075900540291639	-0.4093806266206654	1.3169706806498294	46.64043660336307
5	2.0	wm	312	diff_vonmises	-0.05695930758201706	-3.2635279284370875	6.02565215146268	0.5517083103947515	0.16070107493236546	2.1667474901588375	0.12565657622270915	-0.35197979318814077	0.4776363694108499	52.6707724660468
6	3.0	ltm	312	diff_vonmises	-0.0016072663451179154	-0.09208957812867376	0.9101866577938412	189.51530083660393	0.8945454606985173	190.53631798962587	0.23605397238989667	-0.31371037091463805	0.5497643433045347	90.93551734590352
7	3.0	perception	312	diff_vonmises	0.000678965343578196	0.0389018486226805	2.4980692095404815	3.400858937572398	0.45545589456570335	4.394055718105784	0.9556912660356638	-0.5072678495364905	1.4629591155721542	76.31411563995636
8	3.0	wm	312	diff_vonmises	-0.020542882381468664	-1.177020459491812	2.4946053367491747	1.4115435483937577	0.4804200203701957	2.7196859376760782	0.16973214425616223	-0.3412466801871119	0.5109788244432741	71.71961575992921
9	4.0	ltm	312	diff_vonmises	-0.047035398471884045	-2.6949298201550373	1.7675507224022722	0.9965297293377421	1.8526208009925705e-22	2.6080532156437695	0.061857059326929476	-0.4011782502027223	0.4630353095296518	102.76538905622938
10	4.0	perception	312	diff_vonmises	-0.038254181467063435	-2.1918031467903067	0.8619949947724793	491.5811055809661	0.8496183251199206	493.49537603945646	0.5613628249091107	-0.640929905464283	1.2022927303733937	94.3628741370668
11	4.0	wm	312	diff_vonmises	-0.23746016543531948	-13.605465281922116	0.9232896887780805	158.67351342915092	0.9013134879009782	160.60797191936078	0.03891429144718472	-0.4457548593443903	0.484669150791575	84.5976987671859
12	5.0	ltm	312	diff_vonmises	-0.01811292680973344	-1.037794260827085	1.9986255888477285	0.9477954380936287	1.5158721819047036e-10	1.7967335598521101	0.2027914638323931	-0.2769826014172081	0.4797740652496012	97.05209902122627
13	5.0	perception	312	diff_vonmises	0.01864366596589895	1.0682033744977033	1.163622276768631	11.436577562134415	0.7690485426326578	12.380052987734183	0.5730149228895556	-0.42071964662099803	0.9937345695105536	91.31689729822912
14	5.0	wm	312	diff_vonmises	-0.05013579759307364	-2.8725696046052707	1.141075239525484	3.6140070131149415	0.42927232609985266	4.6040115107180215	0.2552094815690895	-0.3272094653268762	0.5824189468959657	99.67012257878915
15	6.0	ltm	312	diff_vonmises	-0.24233383701681743	-13.884706094274799	1.1092930654648727	1.3316191020470598	2.6371812614291333e-16	2.325862044983292	0.11223805904930417	-0.3177039002961948	0.42994195934549895	123.78607613746284
16	6.0	perception	312	diff_vonmises	0.15084175482874917	8.642595926034433	0.3582024678493486	5.600489954725137	3.394290166999709e-14	6.5301592290274995	0.19603616582550187	-0.43582695307274877	0.6318631188982506	159.25743754617724
17	6.0	wm	312	diff_vonmises	-0.1914566001493219	-10.96965514847991	0.6888439135222006	105.57106666581599	0.6696955765108936	106.51048219628095	0.12301526110492134	-0.26648554841750816	0.3895008095224295	103.18654859136726
18	7.0	ltm	312	diff_vonmises	0.15801257470410907	9.053453640541083	1.1490307586922877	142.93257098915527	1.131236653049477	143.94567538094242	0.10260316461083363	-0.2675998718714254	0.37020303648225905	77.9181103524945
19	7.0	perception	312	diff_vonmises	-0.06281978142471682	-3.5993083455705994	2.311702852465198	1.687716403813599	1.1678104051844186e-16	2.525643006590212	0.5476673102492475	-0.392642757536405	0.9403100677856525	90.44330413238237
20	7.0	wm	312	diff_vonmises	0.40383678733020517	23.13814352614295	0.0006519412145971255	973.4799557022827	9.728704586605723e-20	974.6160720580577	-0.07979441255099573	-0.2818097301073692	0.20201531755637347	174.9543836544173
0	1.0	ltm	313	diff_vonmises	-0.31558184897808944	-18.081508037379457	0.0003168678352323919	1250.1237161118993	5.292884131057394e-28	1253.0551775642684	-0.4035065587362965	-0.5295966140791677	0.1260900553428712	177.1528926970055
1	1.0	perception	313	diff_vonmises	0.05626352529807183	3.2236625401070533	7.751362721546894	0.9973244832242778	0.13717907286185282	4.4472454424787635	0.2805557559671148	-0.7341588047810682	1.0147145607481831	47.02099441918725
2	1.0	wm	313	diff_vonmises	0.5212156614857816	29.863457619254696	0.00032045653700451724	2188.6162869465047	5.14268658748726e-33	2192.1818079077816	-0.45583732370909047	-0.6790853624899569	0.2232480387808664	171.8638080052396
3	2.0	ltm	313	diff_vonmises	0.4646502265173693	26.62249692924295	1.1239602898685404	156.23698648994198	1.1088972138081121	157.24182868227732	0.075756273929251	-0.25632519436069856	0.33208146828994956	78.06370192597814
4	2.0	perception	313	diff_vonmises	-0.011904655252598734	-0.6820865025321544	7.719958068984995	1.6105983061254234	0.5011944223457232	2.9410476790081894	1.0279095253881745	-0.5283483308221489	1.5562578562103235	46.08744077750586
5	2.0	wm	313	diff_vonmises	0.2092386828318928	11.988493437143894	2.625084310575962	1.0656476347822037	0.17868449575527715	3.1898549858103635	0.04406561204652415	-0.45880984765619326	0.5028754597027174	75.57574530301241
6	3.0	ltm	313	diff_vonmises	0.2613737724078397	14.975614034382144	36.24732065697044	0.10932273624205775	1.5286720762892678e-13	0.5402535423698926	0.1756764560474966	-0.08598402179107552	0.2616604778385721	22.45262831395476
7	3.0	perception	313	diff_vonmises	0.018102527626299526	1.0371984315059393	5.60478154101414	1.8043976117806528	0.3679577255708588	2.504692132632793	1.1054541619689484	-0.39794773409364087	1.5034018960625892	54.71431001570815
8	3.0	wm	313	diff_vonmises	0.36459019154867145	20.88947922760513	0.487315238968266	90.43020245538813	0.47037079576936036	91.84018945469984	-0.05469716808615743	-0.30888713313767546	0.25418996505151803	114.34070579083254
9	4.0	ltm	313	diff_vonmises	-0.7785545842554144	-44.607891798397695	0.7918774583258558	107.57632958947235	0.7711028917141982	109.15722710980518	-0.04453393429817254	-0.33484714396585247	0.29031320966767993	88.69686438915011
10	4.0	perception	313	diff_vonmises	0.056380363340763	3.230356866839826	3.2756928210198404	1.9380698178631264	0.1087445795176132	3.8408161098630584	0.654574896448579	-0.5710621210527743	1.2256370175013533	72.55115897773481
11	4.0	wm	313	diff_vonmises	-0.6418473546746233	-36.77514451449236	0.00029644519228597355	8568.380521404377	4.521458702903989e-31	8572.053375740043	-0.18026373676821095	-0.9887821898200855	0.8085184530518745	168.56507169975097
12	5.0	ltm	313	diff_vonmises	-0.10914614453068029	-6.253613431732874	0.9851801551051826	61.76040705803107	0.9528144929125274	62.34629702321321	0.18411290973838135	-0.19655067250677316	0.3806635822451545	88.73755018828442
13	5.0	perception	313	diff_vonmises	-0.05793311178538824	-3.319322799362356	1.0392102389655886	162.69315225910864	1.005392948907808	163.49686048746693	0.7631969533738072	-0.45610894354588893	1.2193058969196962	89.79409967971918
14	5.0	wm	313	diff_vonmises	0.1360706854249735	7.796275990303266	3.0547406447192853	1.199911426268616	5.0461304059392033e-20	2.2537383760361838	0.43531258448619947	-0.3569294889762693	0.7922420734624688	78.60250714509712
15	6.0	ltm	313	diff_vonmises	-0.25163372937466105	-14.417550676305206	0.35020805175645037	50.95922008788691	0.32337010497104807	51.18206546719874	0.19938931150092998	-0.20121016661480073	0.4005994781157307	141.41086816741847
16	6.0	perception	313	diff_vonmises	0.13565538664579024	7.77248112301913	1.1296884995135439	2.8103852608255826	2.223640333599107e-09	3.466025472590202	0.4771923746602311	-0.44420762213917836	0.9213999967994095	123.22461475730671
17	6.0	wm	313	diff_vonmises	-0.24616865857744502	-14.104425184884532	1.7516347061315771	1.7557598637425758	6.035846649523781e-14	2.121545781158716	0.49806118661833015	-0.31250029830002823	0.8105614849183584	103.06053164847194
18	7.0	ltm	313	diff_vonmises	0.268300713970435	15.372498550852608	0.8272912712429894	147.59481955377237	0.8141357590620772	148.9528540133768	-0.045307688393762646	-0.28613819815942776	0.2408305097656651	86.04680127624101
19	7.0	perception	313	diff_vonmises	-0.04408760669803295	-2.5260337926299874	1.8627975544303332	2.364769165671744	0.1257287338954745	3.839388255100606	0.4782543771393557	-0.5097226635067864	0.9879770406461421	93.83426000064478
20	7.0	wm	313	diff_vonmises	0.6125596323040181	35.0970816311058	0.8513485575502778	1.4648148274569985	3.5463110961523337e-15	3.4588678329965115	-0.09135408650179316	-0.46684398459545073	0.37548989809365757	131.07262337003525
0	1.0	ltm	314	diff_vonmises	-0.09848245825530717	-5.6426292141024135	0.2593658004647921	2.551177797149735	6.056561645972639e-12	4.82306706121565	-0.2500957607876776	-0.4595455517733329	0.2094497909856553	165.05517805250417
1	1.0	perception	314	diff_vonmises	-0.05344983822100131	-3.0624501457204114	10.771730895656626	0.8615903451766479	0.0486362490081112	3.5501236729034016	0.5215951840968173	-0.5742261989519998	1.095821383048817	40.93362335711731
2	1.0	wm	314	diff_vonmises	-0.02015371672394405	-1.154722909784218	6.872385529881355	0.35264323447371065	7.672488962303108e-18	2.9589850856834765	-0.10936317742458634	-0.4709367148244016	0.36157353739981524	51.91247560875729
3	2.0	ltm	314	diff_vonmises	0.12338448172418705	7.069410060204956	1.8284387863163756	1.0263822165098875	0.19012868886548148	2.0774895607691044	0.10517521934922242	-0.26569488206839836	0.3708701014176208	89.64252188724612
4	2.0	perception	314	diff_vonmises	-0.032065525559067	-1.8372192824034086	8.84895853815337	1.2302348175163633	0.2672319958684321	2.537801634538041	0.9197843450147547	-0.43668097996145266	1.3564653249762073	44.24230773058676
5	2.0	wm	314	diff_vonmises	-0.02492620103973094	-1.4281661188711872	5.9873681410422686	0.5665386751439915	0.0932789069880765	2.2129501147158517	0.15454959412717717	-0.35368545442256005	0.5082350485497372	53.86221088509285
6	3.0	ltm	314	diff_vonmises	0.08062790892398977	4.6196388923098	3.245874420533558	0.5265796399611963	1.8217829307227982e-11	1.2014936736004487	0.16937253464342333	-0.19067695285436106	0.3600494874977844	76.20843703809678
7	3.0	perception	314	diff_vonmises	-0.0008834380538448852	-0.05061727194656309	4.236291101209315	2.370000140788516	0.3975673248026336	3.2639441063795576	1.1365653645175904	-0.4789344639202447	1.615499828437835	61.74630270626153
8	3.0	wm	314	diff_vonmises	-0.027876983201121093	-1.597233482981334	2.7469053548759916	0.66185662285148	1.1152898663380375e-19	1.9918665083064624	0.09504936760081778	-0.3153207010530436	0.4103700686538614	82.97030916804374
9	4.0	ltm	314	diff_vonmises	-0.3075204457991172	-17.619623658271003	1.5439074830128614	1.0332195819523147	4.655651627149099e-15	2.594133305645428	0.042557101115441365	-0.3920996119135699	0.43465671302901127	108.81488018238309
10	4.0	perception	314	diff_vonmises	-0.009547950542032162	-0.5470572690580896	2.433674555836639	2.5387363741592317	0.11767046600756403	4.229956029364694	0.7179538023573434	-0.5951676856600467	1.3131214880173903	83.49976152104236
11	4.0	wm	314	diff_vonmises	-0.2015657537156589	-11.548866982280646	0.8249318129632613	161.93323452512848	0.8003076638590607	164.2995338489962	0.04271202574449262	-0.540995414428096	0.5837074401725886	89.80256938963939
12	5.0	ltm	314	diff_vonmises	-0.07124174221851996	-4.081851154280168	1.4376103716322826	1.5667764486165645	0.2674299471401634	2.0177255576130455	0.24925528038839578	-0.20503799036670417	0.45429327075509995	99.69823062854492
13	5.0	perception	314	diff_vonmises	-0.003337293637841128	-0.19121284044415768	1.022928871248044	285.20801455618044	1.006279461229613	285.83564168010366	0.6819067337137312	-0.3891370974737747	1.071043831187506	90.46317836604328
14	5.0	wm	314	diff_vonmises	0.003363911649351988	0.19273794016276058	2.3051765402321482	1.2277997866203612	2.2420871290449897e-14	1.9127791620717902	0.3852937812121778	-0.29756651438818366	0.6828602956003614	90.5689093742455
15	6.0	ltm	314	diff_vonmises	-0.30391191044169524	-17.41286981206699	0.4642927549352295	114.28822128126242	0.44996918070421316	114.72775030919034	0.19939602751198748	-0.2339863759966203	0.4333824035086078	128.0988939896579
16	6.0	perception	314	diff_vonmises	0.13345307035893467	7.646297694629383	0.9858451398910674	2.5877010809302865	2.6141048338824156e-16	3.085656524222739	0.3861972925267962	-0.36895474981592363	0.7551520423427198	129.0028108116387
17	6.0	wm	314	diff_vonmises	-0.1342672680954186	-7.692947788619017	2.194945405939452	1.0603854551366223	0.044291877334242315	1.5001759800259111	0.32905287527012184	-0.221129111237998	0.5501819865081199	90.97827624426564
18	7.0	ltm	314	diff_vonmises	0.2291835609706119	13.13125077739524	1.4229463476856123	212.90281660628315	1.4115703571717482	213.6208217692261	0.13103161332897173	-0.21951684912705716	0.3505484624560289	70.97113676887804
19	7.0	perception	314	diff_vonmises	0.007271820519955735	0.41664462517009143	1.4099670421175832	2.230491111024177	7.93420890212901e-19	3.2292364456998164	0.4167056285008357	-0.45846860671435885	0.8751742352151946	113.34233874851283
20	7.0	wm	314	diff_vonmises	0.13087218866712985	7.4984240662663835	0.00033421162262445514	2509.2795411981015	1.511506500257515e-30	2510.3663015300035	-0.0394850084150562	-0.3064192485422268	0.2669342401271706	179.35411029897563
0	1.0	ltm	315	diff_vonmises	-0.4540070621964825	-26.012688532991916	0.00025458830788789615	1988.2871898241037	4.224136921974223e-27	1989.6445608792958	-0.13546380373429656	-0.29659056710619325	0.1611267633718967	174.18005021406054
1	1.0	perception	315	diff_vonmises	-0.03899602970896736	-2.2343079200906018	9.456530245342043	0.8928304507892214	0.024780892370210347	2.5282370748543053	0.6675910291162228	-0.4039350720163172	1.07152610113254	43.944447514454055
2	1.0	wm	315	diff_vonmises	0.26472579616850694	15.167670848695947	3.0689295189354016	0.47239833530089176	0.00039787027660191264	2.055691113020036	-0.01388186226951832	-0.3263663778211601	0.3124845155516418	78.36725065189825
3	2.0	ltm	315	diff_vonmises	0.30902556983043156	17.70586091290903	0.7813958604569523	98.43226814832285	0.765252845382791	99.14322396030633	0.0922677635448963	-0.19496416738851963	0.2872319309334159	96.3879443961319
4	2.0	perception	315	diff_vonmises	-0.005494436533608598	-0.3148080241782626	7.171795053643532	1.5752703158930372	0.4555297157318214	2.341064680303902	1.0930886807474223	-0.4028839231043796	1.495972603851802	48.30609530192723
5	2.0	wm	315	diff_vonmises	0.015167479330965116	0.8690325515162106	8.822563154666335	0.36613366337314734	0.08657581938045199	1.5251745759252864	0.1631549302462414	-0.24869505504100678	0.41184998528724814	44.79135160986701
6	3.0	ltm	315	diff_vonmises	0.14580781956397207	8.354172681020636	1.1449774766738545	32.63196917084121	1.111869154547158	32.832740796861366	0.12871909817275018	-0.0896014301025021	0.21832052827525228	84.30656232723106
7	3.0	perception	315	diff_vonmises	0.05927225038712533	3.396049789424941	2.785685192668193	3.630699337457877	0.9711413432102642	3.7214216199568524	1.0275444137639396	-0.33643240602920693	1.3639768197931466	68.70809458543707
8	3.0	wm	315	diff_vonmises	-0.03939434448268752	-2.2571296755424752	4.018827585614632	0.35069291719539286	7.98341089364571e-12	0.9110030751945024	0.125323122977734	-0.14490330644152433	0.27022642941925834	68.29723199503078
9	4.0	ltm	315	diff_vonmises	-0.3393122033428883	-19.441157188832282	6.324328543951149	0.3176895575707222	2.9638317939050466e-39	1.3475333365121862	0.09736477405208743	-0.21446558954948347	0.3118303636015709	54.16402864715488
10	4.0	perception	315	diff_vonmises	0.01975487203128653	1.1318707922137496	2.236090858347029	3.476697429058228	0.5521782666444394	4.748306748951247	0.699900902155461	-0.4996528994501636	1.1995538016056246	76.92674999998181
11	4.0	wm	315	diff_vonmises	-0.44739619391568775	-25.63391368158547	3.281688540769455	0.7398858402239522	0.1615961005502454	2.2516933222080873	0.0913209894517355	-0.3369620969403488	0.4282830863920843	69.54203027335616
12	5.0	ltm	315	diff_vonmises	-0.09923222598298512	-5.6855877405134745	2.8481742917989417	0.36410304309285857	3.240451988564237e-14	0.6753699195941496	0.1239873175468077	-0.10671105125836634	0.23069836880517403	81.45815216104543
13	5.0	perception	315	diff_vonmises	-0.019372675284429798	-1.1099725316752291	2.1457031724058107	2.7532957511824616	0.503408133078182	3.090002003160325	0.7174498427314613	-0.306241823460986	1.0236916661924473	81.34759151108517
14	5.0	wm	315	diff_vonmises	0.11181496664049402	6.4065256748964	2.3108687819430975	0.8831152511795428	5.999663410325784e-13	1.4212976456872652	0.2705929609262976	-0.22131961096577268	0.49191257189207027	90.44936244005581
15	6.0	ltm	315	diff_vonmises	-0.5253695318011614	-30.101456856970636	0.7055750628234861	59.660151802459495	0.6817292068420291	60.076523216453666	0.15404677771099173	-0.16473018822590468	0.3187769659368964	106.00884966175143
16	6.0	perception	315	diff_vonmises	0.20813261412767967	11.925120368540977	0.6317825807993589	12.197977792988526	0.40831800065125484	12.590264200563333	0.42026105559577287	-0.3419021813258035	0.7621632369215764	124.02469587306004
17	6.0	wm	315	diff_vonmises	-0.22122145770063975	-12.675055863978523	2.8949240234876585	0.6365692251751635	1.3229446655340716e-18	1.0137529627651278	0.2471501268976731	-0.16009432180012784	0.40724444869780096	80.77646366395302
18	7.0	ltm	315	diff_vonmises	0.19780371242702	11.33331789408768	1.1160539285605178	164.26987438527516	1.101860621714462	165.25021608990764	0.08224115302071766	-0.25229510552359	0.3345362585443077	78.59008299476841
19	7.0	perception	315	diff_vonmises	-0.08913372817558661	-5.106986436727424	2.1972802591556624	1.5171844742574998	4.310413630940763e-18	1.9788525918631643	0.51332036419966	-0.30471974390132595	0.8180401081009859	92.71473332136267
20	7.0	wm	315	diff_vonmises	0.20966917058334222	12.013158568434022	0.8762934645347796	0.9553867595832957	7.003099530704696e-16	1.9655641562967223	-0.008820130102616563	-0.26013687304922073	0.25131674294660417	133.4396918446484
0	1.0	ltm	316	diff_vonmises	0.21796118855267685	12.488256201723535	0.3808652741713044	72.56615483791286	0.355107267653888	75.61439586115533	-0.3302634535701934	-0.564918689779712	0.23465523620951867	117.42691220622729
1	1.0	perception	316	diff_vonmises	-0.020313373670080893	-1.1638705789678068	11.872079910872758	0.7485611241390769	0.058426733784473155	4.38829454333475	0.2778324329439479	-0.7159374720471378	0.9937699049910856	38.82352213634914
2	1.0	wm	316	diff_vonmises	0.02578263193163764	1.4772359944220659	6.908254615600096	0.3769364989470671	0.1715363791913392	4.034066091738702	-0.36915428024713426	-0.6830954901049582	0.3139412098578239	46.7350367171951
3	2.0	ltm	316	diff_vonmises	-0.01958416884157868	-1.122090219894069	1.7586257040340096	0.8035940381548813	5.1982284089064254e-14	2.3194456585007397	0.014275749925942827	-0.3577706912335616	0.3720464411595044	103.00545732025243
4	2.0	perception	316	diff_vonmises	-0.06668369611293644	-3.820694349604191	12.139501389582257	0.9526092314256298	0.1289048909169394	3.0233607580480806	0.7647429067710625	-0.5088405716450662	1.2735834784161288	38.2991950363384
5	2.0	wm	316	diff_vonmises	-0.15571720510031076	-8.921938649820824	2.67775477067572	1.4657711672834948	0.3483332572682494	4.0985852891221475	0.0025193655939507176	-0.5747741471797333	0.577293512773684	69.70209030244376
6	3.0	ltm	316	diff_vonmises	0.05612095491984647	3.215493859151156	1.180067727739747	147.37507204423213	1.1612481384774955	148.27442747077257	0.17997858408948986	-0.26676886539301137	0.4467474494825012	78.86300798489523
7	3.0	perception	316	diff_vonmises	-0.01981435151122385	-1.1352787153817911	2.876577576158537	3.7265422822637753	0.5740833410944517	5.161134097037811	1.0374655806350939	-0.6247817789286068	1.6622473595637006	69.84267147593766
8	3.0	wm	316	diff_vonmises	-0.08642817104905745	-4.951969432145761	3.208133915534197	0.830226647055121	0.12884415008025993	2.734009457453308	0.07191809104370617	-0.4112250524039795	0.48314314344768566	70.90232858406048
9	4.0	ltm	316	diff_vonmises	0.05070573620505117	2.9052246816531277	1.0552896914602372	0.9948424818285817	5.0150527456031e-18	2.965713834114513	-0.12168165324585639	-0.42955963897882393	0.30787798573296754	126.28274516616287
10	4.0	perception	316	diff_vonmises	-0.02237583146429329	-1.2820407060000383	1.4500610270233292	5.51781612307925	0.3975149431094734	7.716068384722427	0.5841966868726838	-0.7020692378552713	1.286265924727955	92.6484886505879
11	4.0	wm	316	diff_vonmises	-0.13396788373387747	-7.6757943282504915	0.6792237360505083	217.43410364066975	0.6610360558475458	220.30186819995689	-0.0421857004256907	-0.6251096871063382	0.5829239866806475	97.29741839014277
12	5.0	ltm	316	diff_vonmises	0.02445363962905659	1.4010903444787985	1.7179303745940533	1.901985188198821	0.4159994288540555	2.8767358169205695	0.22968119367020057	-0.29134155253105504	0.5210227462012555	86.02915412622878
13	5.0	perception	316	diff_vonmises	-0.014031439477265798	-0.8039422625405802	0.8798949973484504	234.9059637719328	0.856803001778487	236.50588047425245	0.531315779593811	-0.5587626471556995	1.0900784267495105	94.1184644378875
14	5.0	wm	316	diff_vonmises	0.002648124120910625	0.1517263357549701	2.682904497665099	1.2580650926847634	0.09142124632509412	2.8696954202622296	0.27326699468358373	-0.4216355885569668	0.6949025832405505	79.63649405559778
15	6.0	ltm	316	diff_vonmises	-0.16888645761466414	-9.67648123823532	0.6251604336782212	110.96031395361791	0.6042140910800298	112.02916281660762	0.1558018898563347	-0.32190281302368895	0.47770470288002365	109.13260461688071
16	6.0	perception	316	diff_vonmises	0.16638738216137303	9.533294762076995	0.13292388950221234	17.28858207334671	2.664433539046089e-19	18.363987079653917	0.20616464388583644	-0.5242340023343881	0.7303986462202245	171.5626435586254
17	6.0	wm	316	diff_vonmises	-0.20526123570457844	-11.760602503512347	0.6175180266954442	78.70575683897434	0.5840078661266882	79.94109083226527	0.17489597120558287	-0.37270994504620436	0.5476059162517872	110.34426038729215
18	7.0	ltm	316	diff_vonmises	0.3104133200329505	17.785373142531792	1.2432253492352727	55.99808759903123	1.213974769759047	56.40563844478171	0.14567974356176094	-0.14254400688378777	0.2882237504455487	78.80030333107078
19	7.0	perception	316	diff_vonmises	0.006827675424631708	0.39119698571658906	1.5944620636259081	1.888920756802951	2.873469310220742e-15	3.005312572348734	0.37075272462216957	-0.4433126047117193	0.8140653293338889	107.60292677017169
20	7.0	wm	316	diff_vonmises	0.29723034932025744	17.03004455924991	0.4393517587822346	34.087575031842476	0.4028943631294585	35.358252678869256	-0.061656044403491705	-0.27968457321935647	0.21802852881586476	121.17798561357105
0	1.0	ltm	317	diff_vonmises	0.14351032579193468	8.222535984425301	7.587836032784249	0.3565071031287611	3.237787576782626e-19	3.5991803034893377	-0.1879675483370139	-0.5728272376055507	0.38485968926853675	49.365961830459355
1	1.0	perception	317	diff_vonmises	0.039341555934925075	2.2541051145490623	9.563115943168267	0.8148504192867487	0.07593852960021251	4.41589333467357	0.23419835702495684	-0.721075237705764	0.9552735947307208	42.998381773588704
2	1.0	wm	317	diff_vonmises	0.16402367340357524	9.397864226257072	0.879063137366781	159.75153635354283	0.8477918590798735	163.6851117698309	-0.27747555155636405	-0.7904203808478982	0.5129448292915342	80.42878840067769
3	2.0	ltm	317	diff_vonmises	0.014902338343124096	0.8538410919369908	3.895233025228129	0.7491740536838445	0.20606375889667636	2.290019269059642	0.12454863814000167	-0.35126715647285456	0.4758157946128562	63.614558015433175
4	2.0	perception	317	diff_vonmises	-0.04293291403097661	-2.4598747761729545	10.77056479223759	0.9386022878313502	5.019629225004408e-24	2.7162105510827166	0.7812559685517445	-0.4322983351471729	1.2135543036989174	41.3484937998667
5	2.0	wm	317	diff_vonmises	-0.017542470817897168	-1.005109540096917	4.075633732067172	0.7487364135330231	0.04275622133996451	2.84682766192921	0.10891840510685064	-0.4446631982652352	0.5535816033720858	65.96469353518094
6	3.0	ltm	317	diff_vonmises	-0.13872157549023098	-7.948160802995679	0.5868996956267142	93.62292523638278	0.5716633832265083	94.35050895275309	0.08009506203707772	-0.21022547809767111	0.29032054013474884	111.54902389464183
7	3.0	perception	317	diff_vonmises	0.07668043687660718	4.393465404248912	3.419124987587069	2.55991574041013	0.44079695844866096	3.1338160076920754	1.0661023986427018	-0.4163368875738689	1.4824392862165707	67.74309059830333
8	3.0	wm	317	diff_vonmises	-0.04858812114090063	-2.783894275843976	2.3516005464230276	0.9013807884192313	1.536394041995069e-14	2.0119306988113337	0.19217499424062318	-0.31556318274975403	0.5077381769903773	89.68043017817317
9	4.0	ltm	317	diff_vonmises	-0.5169896633570428	-29.62132576224778	0.5759361389329779	89.95892239347552	0.5538241382433104	91.60511275000427	-0.047738184438685494	-0.35650956997099925	0.30877138553231376	105.40336530488062
10	4.0	perception	317	diff_vonmises	0.043618705451090915	2.499167730171787	2.3500192092527725	3.684056622937308	0.4001782691612469	5.583488776399463	0.8188121979003986	-0.6640557548985673	1.4828679527989659	77.77156278853408
11	4.0	wm	317	diff_vonmises	-0.32842572026735195	-18.817407654863448	0.8883679306579128	2.5790221797519233	1.4882910215913363e-11	4.888602346164294	0.04854515965944883	-0.6381935479203596	0.6867387075798085	132.39474366964657
12	5.0	ltm	317	diff_vonmises	0.013678972025475725	0.7837473651372783	1.4719650724436846	1.1406270335098898	3.097584545050241e-20	1.904002461330546	0.18541915870103837	-0.2773098553125534	0.4627290140135918	111.33830700168052
13	5.0	perception	317	diff_vonmises	-0.04438535555121296	-2.543093545272062	2.7280178337217156	1.8326144485135887	6.1195451276160965e-12	2.769963696171732	0.6955430338747448	-0.4359996462896256	1.1315426801643704	83.2614228776203
14	5.0	wm	317	diff_vonmises	0.005770080032647769	0.33060123332342545	2.1856582233051767	1.3507885818865024	4.392763657828618e-17	2.380093249719586	0.3562604218461846	-0.36951569222561587	0.7257761140718004	92.96323578008489
15	6.0	ltm	317	diff_vonmises	-0.14302497697336633	-8.194727545529673	0.00047376047427285015	2426.6752611958573	3.20989934943033e-31	2427.187345003077	0.10149446277370089	-0.2644524591212871	0.365946921894988	179.3884143957452
16	6.0	perception	317	diff_vonmises	0.2240106688459215	12.834865890774017	0.35761287199295805	7.173212293487957	4.825418592525967e-16	7.319756228184095	0.41651569997613946	-0.39149475194557926	0.8080104519217187	158.715701354442
17	6.0	wm	317	diff_vonmises	-0.4470712625158073	-25.61529648374104	0.4607202310877325	100.33123375072547	0.44382587050742217	100.81269842713661	0.20047395016483804	-0.245986051107133	0.44646000127197105	127.74957774705615
18	7.0	ltm	317	diff_vonmises	0.349439909624545	20.021432014919345	1.3022119736103284	1.2059584259495173	0.16130883791970504	1.8997459497289073	0.126830754686173	-0.2201663392061037	0.34699709389227673	106.49739397643935
19	7.0	perception	317	diff_vonmises	-0.01724640187492759	-0.9881460392198608	2.4456100030870047	1.5843808940400446	0.08529454148604979	1.9816086088258154	0.5789230180258412	-0.28280294877046386	0.8617259667963051	85.22455839804309
20	7.0	wm	317	diff_vonmises	0.15022026213156103	8.60698701748735	0.5610960119432015	101.77084796145762	0.5461359870594947	102.74396157021013	0.03815914753143801	-0.24737623931455133	0.28553538684598934	111.36105954124969
0	1.0	ltm	318	diff_vonmises	0.19466809483078393	11.153660239656396	4.578190127954606	0.5178744165745407	4.694175901506097e-21	3.495935810099	-0.1280272783585117	-0.556350251621211	0.4283229732626993	63.87802555995353
1	1.0	perception	318	diff_vonmises	-0.06307616287718872	-3.613997920742673	11.159068300343982	0.7859745091079494	5.858843616620258e-18	3.8718915324400633	0.41871089983575605	-0.6162306762933577	1.0349415761291136	40.6116457673688
2	1.0	wm	318	diff_vonmises	0.006886508673956211	0.39456788259792397	2.5039688686451727	1.5639033590237783	0.36576273129489945	5.115353868591137	-0.21285552363081583	-0.7228870821992425	0.5100315585684266	68.47982240214822
3	2.0	ltm	318	diff_vonmises	-0.12218011285327199	-7.000404806924587	2.152032820245139	1.5535669987135596	0.337546843312668	3.33375611218854	0.11474331169145568	-0.4201488763243272	0.5348921880157829	78.14928603403303
4	2.0	perception	318	diff_vonmises	-0.06417921385425365	-3.6771980863162756	9.53052650205935	0.9725078889043373	4.772122052305944e-18	2.9362642988606056	0.7137102368638713	-0.4673209711608699	1.1810312080247412	43.98240920276615
5	2.0	wm	318	diff_vonmises	-0.09915480318035687	-5.681151740684801	3.635864184302875	0.9955194452556916	0.21918039097645253	3.302001085172631	0.0797459099584743	-0.5036054143662647	0.583351324324739	64.71941936957663
6	3.0	ltm	318	diff_vonmises	-0.052469543410074156	-3.0062833903757102	0.7411897353360766	202.75766191042607	0.7245545072268068	204.23181222285112	0.21725429573580612	-0.42039399325897264	0.6376482889947788	99.58742472011085
7	3.0	perception	318	diff_vonmises	0.0034193629822575154	0.19591506750662221	2.8261057977976938	3.197857459252383	0.32640265129482643	4.678114963507137	1.0190162673905665	-0.6119900444922708	1.6310063118828373	74.0746136463035
8	3.0	wm	318	diff_vonmises	-0.06874822381380694	-3.938983073551918	2.646470052163817	1.3895643854047874	0.19857355046269484	3.3351394439841537	0.20561727815888353	-0.4698816595918013	0.6754989377506848	76.10203665164627
9	4.0	ltm	318	diff_vonmises	0.01835614804197847	1.0517298109226962	0.5873846171251973	2.7148450054763997	5.476687897681316e-17	4.824877762681563	-0.05343815795402096	-0.5472117694135897	0.4937736114595688	147.675646736862
10	4.0	perception	318	diff_vonmises	-0.02177645920036721	-1.2476992049198727	0.8337324447309665	366.46147798866116	0.8147512764893562	368.922218896315	0.5738762999528575	-0.7707378988902818	1.3446141988431393	95.34570518002852
11	4.0	wm	318	diff_vonmises	-0.18198642928579079	-10.427054326731817	0.615460945946856	178.76840266190717	0.59544535583032	181.40502237852374	-0.02033352405503308	-0.5913851658623699	0.5710516418073368	103.27552032268078
12	5.0	ltm	318	diff_vonmises	0.019952943285733347	1.1432194391364143	1.8188519164959183	1.255066240558636	4.0346011509558e-20	2.188125474942647	0.2629859207655207	-0.33216751360273566	0.5951534343682563	101.42806485702991
13	5.0	perception	318	diff_vonmises	-0.002230250230521392	-0.1277839254669547	1.2933548709450842	5.991883915917564	0.5061930895841366	7.146718798239185	0.6026717207281609	-0.48861267293601995	1.0912843936641807	95.04121603775658
14	5.0	wm	318	diff_vonmises	-0.07647492828185405	-4.3816906291158935	2.3327310901718574	1.334237170775551	0.046658796154913876	2.5781286655961573	0.325108422604839	-0.3843330789309333	0.7094415015357723	87.58307327872342
15	6.0	ltm	318	diff_vonmises	-0.1660100081178404	-9.51167282208479	0.5984433298425823	2.282137107177376	6.75420807846775e-14	3.1426581767586033	0.10518014944127707	-0.3172652636291161	0.4224454130703932	146.75450153947142
16	6.0	perception	318	diff_vonmises	0.08784117537092281	5.0329286162223905	0.2107797664024888	9.678142688653262	2.231151678358413e-12	10.318030988642336	0.23863271282913856	-0.4083187017376575	0.6469514145667961	167.73689833066456
17	6.0	wm	318	diff_vonmises	-0.23383588535059877	-13.397809329294304	0.5258761173872862	162.59972691590983	0.515001749385188	163.50838030210826	0.10472421203466808	-0.27680241485870916	0.38152662689337724	117.92390285613766
18	7.0	ltm	318	diff_vonmises	0.3504336666853599	20.078370100365365	1.2389572309151995	62.393818005761986	1.2082951607969004	62.88713243746116	0.16433999119191256	-0.16853350058614858	0.33287349177806114	78.73150193978222
19	7.0	perception	318	diff_vonmises	0.026799754586374392	1.535512829785624	0.8332274149422343	54.67402479424152	0.7601237292094041	55.52484553469997	0.5112907910794	-0.4036428109341186	0.9149336020135186	100.46043785389767
20	7.0	wm	318	diff_vonmises	-0.18312141314203687	-10.4920841115102	15.593599912836627	0.2189296906477798	1.2765952466335394e-25	1.2722295953293354	0.13936937255615423	-0.20248162884445564	0.34185100140060987	34.31436919507016
0	1.0	ltm	319	diff_vonmises	0.31333161312283164	17.952579019964173	0.7792949499313884	122.46166928881189	0.7591134071120123	124.41982969984954	-0.10736177695427074	-0.3965425920767167	0.289180815122446	87.04960033788953
1	1.0	perception	319	diff_vonmises	-0.08927057432986238	-5.114827143810022	9.029251218891094	0.9867773897230829	1.9291797834094856e-17	2.8879251534790855	0.7059863731891177	-0.4596275467114895	1.1656139199006073	45.197930724259635
2	1.0	wm	319	diff_vonmises	0.16185567949874835	9.273647325500404	4.150701844268235	0.3475817509767669	0.05922791984584369	2.6331597172960444	-0.17159595776883657	-0.41471429055596964	0.24311833278713307	63.25168366494063
3	2.0	ltm	319	diff_vonmises	0.009921493942769538	0.5684597293853052	0.736211266435056	120.61025985621473	0.7194477556078742	121.81444030934196	0.03862240899314173	-0.2838188442835783	0.32244125327672	95.91857225940169
4	2.0	perception	319	diff_vonmises	-0.03813267177855615	-2.1848411544688897	6.9871666240104755	1.5693803967622917	0.3542628463737956	2.7365569182521177	1.0213989410196356	-0.4619257706527736	1.483324711672409	49.130792771703796
5	2.0	wm	319	diff_vonmises	-0.012503066876543076	-0.7163729629957349	7.2316797427812265	0.44485390981476164	0.1669736451750915	2.237369422185078	0.050485280740216576	-0.3724381939256349	0.42292347466585145	47.961770481118606
6	3.0	ltm	319	diff_vonmises	0.10919527112013608	6.256428177970562	1.1561640490685703	210.2016959993597	1.1443084450131682	210.9205999091939	0.19844960364621045	-0.23065057590278926	0.4291001795489997	80.69048692578039
7	3.0	perception	319	diff_vonmises	-0.009556736262092658	-0.5475606537375395	1.2545632196942362	254.008276075015	1.2289438197950497	254.8597540798788	0.8669006882203121	-0.4874035452921177	1.3543042335124298	81.4593247189504
8	3.0	wm	319	diff_vonmises	0.029146582728233707	1.669976177556692	1.4949966130728127	8.700259851554316	1.1776527132650867	9.926985922168761	0.038261323816831005	-0.3138404192163389	0.3521017430331699	69.7870888031228
9	4.0	ltm	319	diff_vonmises	0.1361966342297009	7.803492325248864	1.5462625909557235	1.0775937899800827	0.20915695910580498	2.571771783430739	-0.02362064329697594	-0.31799691000348407	0.2943762667065081	91.62216403104085
10	4.0	perception	319	diff_vonmises	-0.014259573388288324	-0.8170133728059841	0.9012323420749857	464.7901979085616	0.8892907801830489	466.7751016554567	0.42080670556032373	-0.5959432480554696	1.0167499536157933	90.99108292268187
11	4.0	wm	319	diff_vonmises	-0.2775298387398765	-15.901288448741258	0.9470924561393472	162.88385348609978	0.9259857772085813	165.0079648172553	-0.042549857619917475	-0.46403089222978267	0.4214810346098652	81.23899860004708
12	5.0	ltm	319	diff_vonmises	0.020465757532067932	1.172601531125568	1.044217693083489	90.22951209151853	1.0180432857184263	91.26578758933795	0.08784772607947389	-0.2639423925270936	0.3517901186065675	81.6861270437293
13	5.0	perception	319	diff_vonmises	0.00987644976828745	0.5658788882958308	1.5551107839765315	4.332214275220613	0.5014662284700075	5.600348505102219	0.5346146054479679	-0.46815449088374256	1.0027690963317104	88.58642915265622
14	5.0	wm	319	diff_vonmises	0.03864794897475607	2.2143643630904797	1.0317249758571776	4.131860257800295	0.45202223558509613	5.54533193363984	0.11793994110760586	-0.3641818561972606	0.4821217973048665	98.51164417851993
15	6.0	ltm	319	diff_vonmises	-0.23804166428844215	-13.638782711997743	1.9970527316982385	0.7751269366893212	8.849518886463312e-11	2.106187346346628	0.0642943838864301	-0.32784910384784965	0.39214348773427976	97.0102284897346
16	6.0	perception	319	diff_vonmises	0.16743684189259517	9.593424375444958	0.2094912375952995	107.30558676287063	0.18846910125628874	108.91645621674714	0.0839797105576352	-0.5306529874218775	0.6146326979795127	155.22050680058794
17	6.0	wm	319	diff_vonmises	-0.20317510664672617	-11.641076112977808	2.0293236881496703	0.8373450493580642	5.9637403445665935e-12	2.3042373836958747	0.06904077778043477	-0.3592033644361609	0.4282441422165957	96.29797837373428
18	7.0	ltm	319	diff_vonmises	-0.09581562135270247	-5.489830714933423	1.1377081744492084	137.59750160564323	1.1181386409618033	139.0696894413273	-0.03340714494343899	-0.3354493369748752	0.30204219203143623	73.66316875968494
19	7.0	perception	319	diff_vonmises	-0.12752957955187866	-7.306906671400531	3.1075256010601535	1.460457513398211	1.5389667017792525e-15	2.6187669992392757	0.5590426624028902	-0.4148387386373794	0.9738814010402697	77.92168790268289
20	7.0	wm	319	diff_vonmises	0.9842533438995509	56.393562577082655	0.37741402399722	105.4613386563035	0.36538677289520793	107.11809488640463	-0.13642211788385694	-0.3361504894244973	0.19972837154064038	119.04019829885499
0	1.0	ltm	320	diff_vonmises	-0.8389478492745778	-48.06817099501083	6.454961833260027	0.21805141463888536	6.058363196469312e-25	0.9324528087530063	0.06797024268900795	-0.14840393853050446	0.2163741812195124	53.59365383525106
1	1.0	perception	320	diff_vonmises	-0.07555130309932155	-4.328770804304781	12.411860536635198	0.8738909192499441	0.07125598282660617	2.1686901272308905	0.8449709510839218	-0.3548031601501939	1.1997741112341158	38.1999634085455
2	1.0	wm	320	diff_vonmises	-0.39006687183657723	-22.34918548410627	0.00019992330631086027	2655.8337411999323	2.1761934786355708e-32	2656.6405899662886	-0.04390591978597058	-0.21291357252908938	0.1690076527431188	175.68545634176337
3	2.0	ltm	320	diff_vonmises	0.4068673015779904	23.31177920229531	0.1998876081610068	93.10439459434868	0.18829359767605505	93.32422404633986	0.14482166015422848	-0.18243289846745903	0.3272545586216875	154.47053715378811
4	2.0	perception	320	diff_vonmises	-0.023057752158762802	-1.3211118837557714	9.781909154802527	1.2466252918443639	0.5022763827623145	1.87398771105164	1.0711603161110035	-0.3506727779958142	1.4218330941068178	41.714650992209556
5	2.0	wm	320	diff_vonmises	-0.14530748913416963	-8.325505859030988	5.696188936117726	0.5656850420501068	0.7327118497660522	1.187292992416907	0.18032812929514525	-0.20889018413611168	0.3892183134312569	50.0323944034113
6	3.0	ltm	320	diff_vonmises	0.08423462020008907	4.826288226352534	2.1334124075369805	53.988164421022915	2.1135732248120567	53.86398251353517	0.22832467475032914	-0.04248077596951916	0.2708054507198483	67.25698044598349
7	3.0	perception	320	diff_vonmises	0.02811232006510882	1.610717292051675	1.9072132158284698	262.19764920980407	1.8815301884066953	262.21323088888806	1.0690653326716415	-0.35737709562287634	1.4264424282945178	68.12079029709497
8	3.0	wm	320	diff_vonmises	-0.09244503026689918	-5.296710071252478	2.4630976138896434	1.2607028147686377	1.1354647085059983	1.4848393924577978	0.19134779952298908	-0.11715050872466694	0.308498308247656	67.19781292974102
9	4.0	ltm	320	diff_vonmises	-0.33898580865793093	-19.422456150928724	1.208075095260718	60.88093229369627	1.1718656381340202	61.65474212780316	0.11843312253822447	-0.21863278494039484	0.3370659074786193	77.34092695654533
10	4.0	perception	320	diff_vonmises	-0.02888668357967743	-1.6550850532453736	2.3509365882111597	2.768852086656785	0.4062106832646928	3.4944487089865586	0.7721802154812558	-0.39904254700110714	1.171222762482363	79.28113951200879
11	4.0	wm	320	diff_vonmises	-0.40328268042405857	-23.1063955390217	1.6692497798077477	152.31720165909147	1.648366070305947	153.13328406573558	0.16319653035698423	-0.2708652042581754	0.4340617346151596	65.4716045851629
12	5.0	ltm	320	diff_vonmises	-0.17949244784390533	-10.284159715927828	5.35455522938126	0.3021919378583134	0.4683597788203328	0.33888014501739827	0.19012693052226112	-0.052543499232141334	0.24267042975440245	55.722918494331395
13	5.0	perception	320	diff_vonmises	0.012779800866400076	0.7322286526623571	1.3061847938504385	165.5498220775706	1.2812078419211819	165.8924504906816	0.6173954442513576	-0.2866561541841044	0.904051598435462	80.90278112888456
14	5.0	wm	320	diff_vonmises	0.15214089274045284	8.717031045380493	1.076903623485226	65.93687129516876	1.0517379535292364	66.09350477068095	0.2568743190819731	-0.12761281474705477	0.3844871338290279	89.15123278661122
15	6.0	ltm	320	diff_vonmises	-0.45862522170590597	-26.277289582000087	0.9254928919864349	105.4526504531936	0.9058135716866007	105.97717250013365	0.22506172522680146	-0.20083904747774461	0.42590077270454607	92.49666829925624
16	6.0	perception	320	diff_vonmises	0.30464663770965517	17.454966583614272	1.183097195176454	2.1762131525418242	1.338327185283827e-17	2.5623425495998364	0.4104397601291612	-0.331021573389217	0.7414613335183782	120.73472280337981
17	6.0	wm	320	diff_vonmises	-0.190809545106167	-10.93258162539448	5.580271068714981	0.5006746076152435	2.9587649527447612e-12	0.6839003784297163	0.3513546062909233	-0.10883957961633638	0.4601941859072597	57.7248834617487
18	7.0	ltm	320	diff_vonmises	0.10708333036846017	6.135422886317846	1.64849624953527	145.43965360685502	1.6308399811701688	145.8745337823364	0.23762847022787525	-0.1894074173796092	0.42703588760748445	68.7796973438432
19	7.0	perception	320	diff_vonmises	-0.05412121860152386	-3.1009174079722404	1.0463189495557137	2.070075742405173	4.45379971540271e-20	2.2964552070816002	0.35997340897248264	-0.27599753303820457	0.6359709420106872	126.65883895044308
20	7.0	wm	320	diff_vonmises	-0.21096238501841627	-12.08725429756916	0.0006697257447749514	1333.9262179801333	4.604347158512127e-22	1334.4190800407753	0.06376561519422808	-0.22060086989941396	0.28436648509364204	178.69222058090315
0	1.0	ltm	321	diff_vonmises	0.1471618515231307	8.431752997606253	3.156011493576835	0.5771983123777937	2.1774667223230462e-14	4.066454847722336	-0.2581535038179698	-0.6464903998657414	0.3883368960477716	77.30753675067922
1	1.0	perception	321	diff_vonmises	-0.08354917491513922	-4.787015104437765	10.771534407887197	0.847635492596133	6.043375911576837e-17	4.484152059241907	0.38261424343432626	-0.7136749653210434	1.0962892087553695	41.338876645236724
2	1.0	wm	321	diff_vonmises	-0.03502438670749764	-2.0067495383737164	3.4156678652155232	0.8676946141559994	0.18142414078225788	4.655349945744737	-0.2695878597101402	-0.7222438663480473	0.45265600663790706	64.5410710308374
3	2.0	ltm	321	diff_vonmises	-0.08699685167015696	-4.984552431625641	1.923319074640264	1.3702867320354581	0.2016850237907042	3.198479539359157	0.07385323751185324	-0.4181679952532098	0.49202123276506304	85.98831230569806
4	2.0	perception	321	diff_vonmises	-0.07486856832406676	-4.289652983155868	11.437656843128993	1.0219780607468076	0.09639118053720883	2.8021758521774154	0.8729833722232724	-0.46247392073041843	1.3354572929536908	39.63728895467415
5	2.0	wm	321	diff_vonmises	-0.05779138401631193	-3.3112023963544783	5.599549569786252	0.5960440197895476	0.026915359382205944	2.6302833917698516	0.11885171740884476	-0.4165159098079156	0.5353676272167603	56.80475122001792
6	3.0	ltm	321	diff_vonmises	-0.10451194426798589	-5.988093315262067	1.751953305269245	1.7289952795627712	0.26774731735883006	3.195297900376015	0.17014390929222467	-0.3780282912168788	0.5481722005091034	88.38167806858101
7	3.0	perception	321	diff_vonmises	-0.005103503036343789	-0.2924091847146999	3.2930259730923885	2.4745460792421508	0.14285121711585727	3.8286718709932126	1.0090345986480163	-0.5572484571704244	1.5662830558184406	72.30286109449102
8	3.0	wm	321	diff_vonmises	-0.030904437983876685	-1.7706938646999248	2.913630390928219	1.1281012711383995	0.22993922882008092	2.785481169661707	0.17598086215566477	-0.39842595826574706	0.5744068204214119	72.14028624725921
9	4.0	ltm	321	diff_vonmises	-0.09890015500089826	-5.666561474741132	0.21590145893371906	6.498490688837528	6.600847025124977e-17	8.628447552186461	-0.1045875513181751	-0.5494576148900205	0.44487006357184544	167.48072902476457
10	4.0	perception	321	diff_vonmises	-0.04281542364464695	-2.453143072902903	1.8805735825727663	3.1845097080894735	0.07187101284003325	5.4155593524667305	0.6576493426094356	-0.7642963699566376	1.4219457125660733	95.9635683938547
11	4.0	wm	321	diff_vonmises	-0.10276748650581138	-5.888143247950632	0.7100585128160751	86.85072049560995	0.6660431515636295	89.37634701349779	0.025837403333166975	-0.5758926320128914	0.6017300353460584	97.61492307615025
12	5.0	ltm	321	diff_vonmises	-0.0016403789634100339	-0.09398679140543983	1.7151529482959746	1.3640828648159928	1.7626451790000435e-15	2.953437223257373	0.1709626087129389	-0.449299815770003	0.6202624244829419	104.17698343093204
13	5.0	perception	321	diff_vonmises	0.030172241007643076	1.7287420681894985	2.2672846562847657	1.9553587530445695	0.05202476070478746	3.6652184449079943	0.47355997595213506	-0.5417636249243527	1.0153236008764877	88.59156195191662
14	5.0	wm	321	diff_vonmises	-0.0824757905707375	-4.72551471170813	1.12885698873622	3.9964451174443023	0.3651222525260646	5.513346308177609	0.23933276944174398	-0.4428872809632706	0.6822200504050147	101.13432389010966
15	6.0	ltm	321	diff_vonmises	-0.17247976176357407	-9.882362400474706	1.0019383584997854	1.7065302597753516	2.6083846779703255e-17	3.2409689950863965	0.06794753125386399	-0.4371177514041881	0.5050652826580522	128.27892776345917
16	6.0	perception	321	diff_vonmises	0.24254898510206516	13.897033171529815	0.00023131697672457212	10073.357548215043	8.047758951215609e-29	10074.913784468863	0.12319123152315115	-0.6185137243226109	0.741704955845762	178.06141712505126
17	6.0	wm	321	diff_vonmises	-0.2522112207712794	-14.450638496036552	0.5340681735888249	208.20427558816647	0.521722744015652	209.72366008730611	0.10129366662353334	-0.41704600520596813	0.5183396718295015	115.4902405042336
18	7.0	ltm	321	diff_vonmises	0.26704989783242233	15.30083206519763	0.8395704709301539	102.08220440494537	0.818414887508993	103.33595396328748	0.027169408079135593	-0.28828956780645143	0.315458975885587	89.0429936092734
19	7.0	perception	321	diff_vonmises	-0.037989492625236536	-2.1766375932694193	2.750600497297014	1.5312228711147076	7.766169509064668e-18	3.0596504603599746	0.46715821072291386	-0.48306381635809387	0.9502220270810078	82.91178640154877
20	7.0	wm	321	diff_vonmises	0.8631876885481924	49.457011481464406	0.0005854034828015838	1245.0443231219767	2.914128882090664e-21	1246.5779303680874	-0.1280672899766273	-0.3600611087271375	0.23199381875051017	159.04461258904337
0	1.0	ltm	322	diff_vonmises	-0.001196557164633721	-0.06855767547965262	1.5194900194971526	0.6485151391464282	1.620358957515753e-23	2.1395702961374066	-0.0574106489597353	-0.3269666821474827	0.2695560331877474	109.85506318000967
1	1.0	perception	322	diff_vonmises	-0.10756034260212612	-6.162753674083013	11.8330462296239	0.912233316516784	1.7752759023423567e-19	2.6301630488870447	0.8194578173164271	-0.41860345030275103	1.238061267619178	39.42126348915497
2	1.0	wm	322	diff_vonmises	0.020091465369985857	1.1511561699334387	5.404837004556734	0.47471295737972613	0.0159408668706649	2.1567041753493585	0.08027573879903954	-0.34156425487377745	0.421839993672817	58.094374280670934
3	2.0	ltm	322	diff_vonmises	-0.067019145916168	-3.8399142075678534	2.157939834567979	0.9391647915183704	0.12965732119716297	1.8069651241277636	0.18116047360966625	-0.24889109206343765	0.4300515656731039	86.9002305202234
4	2.0	perception	322	diff_vonmises	-0.03799118951912458	-2.176734818127486	8.437078277460333	1.1930980429272222	0.18526267900905555	2.1707376574232637	0.9485309328753764	-0.36028603981214125	1.3088169726875176	45.77507864312548
5	2.0	wm	322	diff_vonmises	-0.08582826146649981	-4.917597144975753	6.86831924040371	0.5035662574251873	0.21711395739640296	1.587950600036223	0.2058234419860958	-0.2640662924620244	0.4698897344481202	49.437093645690965
6	3.0	ltm	322	diff_vonmises	-0.023950310332617443	-1.3722517000875463	0.9732938768286187	131.97613034919814	0.9543484708540219	132.5821124282073	0.27251562915852645	-0.23421546463486287	0.5067310937933893	90.25529654919058
7	3.0	perception	322	diff_vonmises	0.02050529693930544	1.1748669722847265	2.6716354726331817	3.5413144923185786	0.631220148691466	4.115630870175718	1.0523845245875456	-0.4447279211672146	1.4971124457547602	72.57255718875038
8	3.0	wm	322	diff_vonmises	-0.06804035728703509	-3.8984253091093066	2.541433772472908	1.3177282458807946	0.5189207171716026	2.112995284788016	0.2553019125782481	-0.25305524612077535	0.5083571586990234	72.51011510535054
9	4.0	ltm	322	diff_vonmises	-0.20924438765527253	-11.98882029944642	2.9451772740533113	0.7841013789163558	6.565510830458868e-26	2.063011185003905	0.17983553841141653	-0.32693282051097217	0.5067683589223887	80.07070955006785
10	4.0	perception	322	diff_vonmises	-0.055029727714768044	-3.1529711458103056	1.1140248773949997	17.872537154302275	0.7829418018783791	19.21918794847574	0.7173737926837847	-0.564889574867953	1.2822633675517376	91.72160711785418
11	4.0	wm	322	diff_vonmises	-0.31108857510636845	-17.824062408333436	1.214341216798048	167.49834517456742	1.1944099186632622	168.80810150475935	0.12105234626681494	-0.3468743802332206	0.46792672650003553	75.46765743655632
12	5.0	ltm	322	diff_vonmises	-0.07337041224769485	-4.203814962927879	1.4470998712232812	1.021337264102653	1.4780082196428624e-14	1.4382989942467828	0.20397566545373655	-0.20495450371888413	0.4089301691726207	112.11540672079347
13	5.0	perception	322	diff_vonmises	0.030270094319173366	1.734348649951563	1.098681635809394	126.5466247412683	1.065444495380824	127.05026029309025	0.6107851671710947	-0.3298904002027214	0.9406755673738161	87.81396184849305
14	5.0	wm	322	diff_vonmises	-0.05440599248076091	-3.1172337493680917	0.7980772460909576	120.71588067199549	0.7787745803363557	121.2191608702467	0.2942121368769648	-0.23620625219300528	0.5304183890699701	100.88627834253606
15	6.0	ltm	322	diff_vonmises	-0.36151294858456456	-20.713166193225476	1.2317418171840837	1.1725168270267852	2.5980256712769387e-16	1.8632868898931716	0.15484477772659394	-0.25811924180320495	0.4129640195297989	118.82716010029259
16	6.0	perception	322	diff_vonmises	0.1879957513924833	10.771363121179963	0.7737020336381065	2.7958153934032235	4.414759350066037e-17	3.3124497505550266	0.3076950708777786	-0.3495267086777585	0.6572217795555371	138.14606800291793
17	6.0	wm	322	diff_vonmises	-0.14953447181620255	-8.567694126786364	2.697407439787727	0.5801613175229424	1.4704367836485062e-15	1.113430574730279	0.18020527930501626	-0.17558505263910845	0.3557903319441247	83.73017824608831
18	7.0	ltm	322	diff_vonmises	0.20036281637433856	11.479943749604303	1.4568651295393293	154.9815412748785	1.4390370742361225	155.68228531189317	0.19246093115084761	-0.23527349473155112	0.42773442588239874	71.39565230503806
19	7.0	perception	322	diff_vonmises	-0.04291825220704521	-2.4590347155417214	1.5591149258051085	1.9193030036722836	1.4657644382835692e-16	2.408149358679642	0.46776520447484243	-0.34561927166784756	0.81338447614269	108.65040763080559
20	7.0	wm	322	diff_vonmises	-0.11679743490119399	-6.692000077792397	0.00030602680823151935	2400.03079262637	2.2562015574420384e-31	2400.7031837559634	0.009888010870554353	-0.2238988693147803	0.23378688018533467	179.59304661855913
0	1.0	ltm	323	diff_vonmises	-0.6321560829358288	-36.21987554574503	0.0007102996839595672	837.023662772392	1.398578123710282e-21	837.7100241610882	-0.014598101445812972	-0.2038439095050535	0.18924580805924052	168.87732082101485
1	1.0	perception	323	diff_vonmises	-0.08922385983529552	-5.112150600429254	10.972200861812933	0.9397795039937538	1.777979397185165e-17	1.943550643808886	0.9177615407549444	-0.30932569174974267	1.227087232504687	40.95476414840539
2	1.0	wm	323	diff_vonmises	0.2337521222610896	13.393010057786451	2.1656888065208753	0.5383589782087607	8.503331711037166e-18	1.3312369002714148	0.07947710797454052	-0.2080414585994542	0.2875185665739947	93.31418865000109
3	2.0	ltm	323	diff_vonmises	0.3453956720923179	19.78971427297433	0.5163164671290632	91.54581015096937	0.5033836233974515	91.849902908695	0.14639015508132047	-0.1598630934961136	0.3062532485774341	122.9598492813171
4	2.0	perception	323	diff_vonmises	-0.009122489599949591	-0.5226801527290983	7.227518812040802	1.6013382057038037	0.6362292490755084	1.9222590652243854	1.161532423554394	-0.33737145601848945	1.4989038795728835	47.76083785926153
5	2.0	wm	323	diff_vonmises	-0.03902050997544016	-2.2357105360408487	9.869286162539987	0.34604736735025243	0.4167781221472701	0.8881583973950097	0.2224696766556834	-0.16567507344452684	0.3881447501002102	41.090545138792436
6	3.0	ltm	323	diff_vonmises	0.11048636056555095	6.330402154166721	1.5588624562481685	66.0639571074993	1.541829174994733	66.06623885921366	0.19374871226150958	-0.06449409975980558	0.25824281202131516	75.58157980184407
7	3.0	perception	323	diff_vonmises	0.04559080129260351	2.612160498685759	2.119282727636152	10.005242212433435	1.5128460389655531	9.93264375309598	1.020228157207291	-0.3146641067103423	1.3348922639176335	70.07598281458255
8	3.0	wm	323	diff_vonmises	-0.023821603876703047	-1.3648773633675648	2.8028885855965315	0.7244547349564339	0.7840355425034453	0.9700534873671552	0.1647400023374942	-0.10761302931342573	0.27235303165091995	67.66812294690794
9	4.0	ltm	323	diff_vonmises	-0.27952462899225433	-16.015581511216343	7.386572879007648	0.36881385493513025	2.7860757734319258e-27	1.1498809954242188	0.20963561627386257	-0.18300909369224042	0.392644709966103	50.04007728454283
10	4.0	perception	323	diff_vonmises	-0.016075984423522066	-0.9210860589858662	2.374737599552214	2.7728053987493153	0.43586495809772535	3.591944459584298	0.741931356344776	-0.4081807982111315	1.1501121545559077	78.15941212802664
11	4.0	wm	323	diff_vonmises	-0.37958288069949164	-21.748497039498705	1.5855155587509293	140.2425762209814	1.5631231787517408	141.1137485701013	0.15380733739703345	-0.27635669042880906	0.4301640278258425	67.00003514430615
12	5.0	ltm	323	diff_vonmises	-0.18450286890077847	-10.571235696070136	4.560666695663242	0.2686871194946991	2.1966999119381137e-23	0.4165484303683143	0.15547070224685489	-0.06627149450814385	0.22174219675499873	64.01082847596695
13	5.0	perception	323	diff_vonmises	0.014810807142755544	0.8485967404621064	1.34563375102604	98.78138637255202	1.3051111332540695	98.9501771410177	0.65712674010841	-0.2603546206545335	0.9174813607629435	80.88230537419071
14	5.0	wm	323	diff_vonmises	0.10442689232531484	5.983220197907627	0.8348945434652925	72.38070012760069	0.8120986833431046	72.5753589523718	0.2554621727906934	-0.15044445189357347	0.40590662468426686	100.82817362722244
15	6.0	ltm	323	diff_vonmises	-0.537626939459321	-30.803754583554518	2.4252737700909583	0.6834596293477518	1.678621553075847e-16	1.1577403262562398	0.21140447338033896	-0.18116429152284694	0.39256876490318593	88.10562543137793
16	6.0	perception	323	diff_vonmises	0.2545055435904624	14.582093510416296	1.3106320085470085	1.9961746544985572	3.553104175918826e-15	2.4426006073680067	0.4084843728194753	-0.33078014983913256	0.7392645226586079	116.36724974921464
17	6.0	wm	323	diff_vonmises	-0.21731923744244905	-12.451475112453744	5.2759800076619765	0.48271805968297044	3.2037726864133736e-16	0.7335118365619894	0.31390366614437243	-0.1167307728943099	0.4306344390386823	59.41054987097897
18	7.0	ltm	323	diff_vonmises	0.08879791124898319	5.087745544143993	1.3895605970877754	202.6026230404786	1.37433087655356	203.5895587148319	0.14709483218751984	-0.2894208703535348	0.43651570254105465	71.35657553756914
19	7.0	perception	323	diff_vonmises	-0.13120579860870377	-7.517538507922175	1.91185293947717	1.5264139436732973	6.375417710759871e-25	1.843896245965986	0.47273528289857186	-0.2767239887121206	0.7494592716106925	99.08269420355349
20	7.0	wm	323	diff_vonmises	-0.07286457300575377	-4.174832509252559	0.0003573039906586241	2293.6115181706286	1.8469454689114964e-22	2294.3267307207843	0.01661153888892386	-0.24424746316117307	0.26085900205009693	179.82781359553803
0	1.0	ltm	324	diff_vonmises	0.12869306210657894	7.3735693113219565	3.9740715913221707	0.4455112064161195	1.3176545713768888e-32	3.5023338194029585	-0.2161224141512605	-0.5572931351099406	0.3411707209586801	68.69179525535927
1	1.0	perception	324	diff_vonmises	-0.03999089814303431	-2.291309682533427	11.072948585224308	0.8012006236307312	0.036889464410716034	4.108438670321331	0.3727075291749755	-0.6622224840383345	1.0349300132133101	40.40320553090072
2	1.0	wm	324	diff_vonmises	-0.021241638132202603	-1.2170562149193622	3.0854442675208227	1.1511171383964665	0.22950512511912094	4.821223729678608	-0.18663108048514854	-0.7282812046503024	0.5416501241651539	66.8741154988144
3	2.0	ltm	324	diff_vonmises	0.010245294739137309	0.5870121484201535	3.070040881392011	0.9417157440022594	0.1985986369118561	2.4796182486527445	0.1482563712792218	-0.3620380942020413	0.5102944654812631	71.14212257976862
4	2.0	perception	324	diff_vonmises	-0.04709589615368093	-2.6983960819923243	9.630336504969279	0.9676681990271323	0.0012100383749361228	2.734571086276088	0.7457459778457429	-0.4351464594390524	1.1808924372847953	43.73589700697295
5	2.0	wm	324	diff_vonmises	-0.03796002724180864	-2.1749493511572666	4.320482373455348	0.8191483690263629	0.11796393531050191	2.920005568029771	0.13562494767434796	-0.45518400461004194	0.5908089522843899	62.25823868306546
6	3.0	ltm	324	diff_vonmises	-0.10394335812137308	-5.955515728771546	1.2551131791145902	1.5014535617875928	1.1874314507700728e-14	2.827792932356815	0.134420629900304	-0.4025684519801773	0.5369890818804813	118.62254258642601
7	3.0	perception	324	diff_vonmises	0.0011369852544822687	0.06514445645044185	4.321599535728161	2.312748604186964	0.2052622608052321	3.6810860498085485	1.1426419122297995	-0.5552788307541827	1.6979207429839822	62.82361456524217
8	3.0	wm	324	diff_vonmises	-0.038018558696261376	-2.1783029564661702	2.116082639218569	1.227833398035222	9.528775514532753e-20	3.175787591356005	0.14988647899031748	-0.4959261251840913	0.6458126041744088	94.43030554807805
9	4.0	ltm	324	diff_vonmises	-0.1746418313872526	-10.006239864924924	0.41857181379862685	4.306887933010753	1.0930576370769238e-12	6.3380917858172765	-0.011155480082541303	-0.5768395839871081	0.5656841039045668	155.98360198076927
10	4.0	perception	324	diff_vonmises	0.0009244984322859895	0.05296985833644832	1.8259759434253744	4.0653604642922705	0.2677043858582828	6.336154354298684	0.6899371157222909	-0.7382206880700937	1.4281578037923846	89.07231451486919
11	4.0	wm	324	diff_vonmises	-0.18420807990943497	-10.554345531019235	0.5418324146996911	122.1122653588061	0.5091817537774521	125.09480240851346	0.006929662016045057	-0.708044247807365	0.71497390982341	112.26863492245485
12	5.0	ltm	324	diff_vonmises	-0.05073225836155228	-2.9067442892842266	1.4055329062715174	1.5695558063061148	1.2218850149614412e-18	2.1652612240932236	0.3090554705385724	-0.30529975550419436	0.6143552260427667	113.47784069820736
13	5.0	perception	324	diff_vonmises	-0.013837336422701412	-0.7928209767234434	0.9258807475507652	263.7750682800222	0.9071732157506844	264.4900589459518	0.707296210538999	-0.4321070564596532	1.1394032669986522	94.97620729656097
14	5.0	wm	324	diff_vonmises	-0.049358080247086246	-2.8280096830260772	2.4108223176256187	1.3885150087853	1.7524421518810634e-16	2.2237653918000637	0.44707867295225695	-0.3474722202956902	0.7945508932479471	88.58154977369182
15	6.0	ltm	324	diff_vonmises	-0.10809432926782178	-6.193348856343638	0.08164711325205465	16.336960807215824	3.2796566560807345e-09	16.732231661088203	0.15359192024817236	-0.27075266713554	0.4243445873837124	175.01887428739286
16	6.0	perception	324	diff_vonmises	0.07823016204799785	4.482258115974785	0.6071265031345687	3.6794576779743493	9.30237561388164e-15	3.9257339539779506	0.35724574433922895	-0.3331868828151915	0.6904326271544204	146.57394363754042
17	6.0	wm	324	diff_vonmises	-0.19677130706748036	-11.274165424239373	0.6663510608404715	114.87777537712074	0.6496642248169994	115.32896758967614	0.24046138008739604	-0.22047897877077105	0.4609403588581671	110.19026915955051
18	7.0	ltm	324	diff_vonmises	0.3656733028972607	20.951536936622016	1.3834236014731027	104.50609771704191	1.3632914528046884	105.00564842768118	0.17314642430660854	-0.1763176222544427	0.34946404656105123	74.18163554344633
19	7.0	perception	324	diff_vonmises	0.059161963152890504	3.389730796369115	0.7318820119502205	165.06206930586222	0.7073325886833295	165.94784747026713	0.5196093499071424	-0.43517304519710365	0.954782395104246	105.64716089191941
20	7.0	wm	324	diff_vonmises	0.14499208317694823	8.307434428848918	0.00041700987057207567	2064.277106563629	2.332331354232243e-22	2065.2965751362954	-0.025236771247875822	-0.29924158964087155	0.27400481839299573	179.2229110736793
0	1.0	ltm	325	diff_vonmises	0.229613009394792	13.155856359619303	3.244147419024138	0.6286453178909882	0.07700511898763047	2.6404226431153037	-0.022816596082862295	-0.4044862906190197	0.3816696945361574	71.64520382150317
1	1.0	perception	325	diff_vonmises	-0.12401370254735836	-7.10546175775442	9.838659649216869	1.0475236173435767	1.926333404961678e-16	2.897645369033869	0.8321297511458994	-0.4611745801280947	1.293304331273994	43.275565488170884
2	1.0	wm	325	diff_vonmises	0.03917795213532598	2.2447313073197304	4.341277062491575	0.5186366738681237	0.08890778398409133	2.878513209878767	-0.0828623250791713	-0.4529967326699645	0.3701344075907932	61.70130818472148
3	2.0	ltm	325	diff_vonmises	-0.12876453585776315	-7.37766445561078	1.04441610620936	186.8740984850826	1.0281729281980854	188.0743818802443	0.1557263480732871	-0.32364955733053336	0.47937590540382047	82.67125178078606
4	2.0	perception	325	diff_vonmises	-0.046254297461647	-2.6501760288950496	7.17765895173137	1.3438927476526739	0.2026309357174562	2.4317517223535536	0.9402131854058067	-0.3980791937598233	1.33829237916563	49.367035611044685
5	2.0	wm	325	diff_vonmises	-0.041303222887793534	-2.3665003517587135	6.319908715986329	0.5228138606140608	0.2156910176418903	2.0648921534482456	0.10997097711362036	-0.3425537667905387	0.4525247439041591	50.81569875886939
6	3.0	ltm	325	diff_vonmises	0.05128114265553399	2.9381930427703966	0.9694249167453979	216.34715936221656	0.954331576743171	217.42678645149925	0.26002659679907936	-0.3332564389411381	0.5932830357402175	88.10739933022097
7	3.0	perception	325	diff_vonmises	-0.032470586898742874	-1.8604275876107512	2.3517297075869577	3.4057250806421084	0.42909631814021587	4.5405769234781665	0.8755219536965715	-0.5185503837531829	1.3940723374497543	78.32249389746207
8	3.0	wm	325	diff_vonmises	0.022701359528938623	1.3006920902172778	2.333614790287339	1.691342537000801	0.6300288230503419	3.124965275056615	0.10941625588792925	-0.3645303417441542	0.47394659763208347	69.75062732268532
9	4.0	ltm	325	diff_vonmises	0.004198878530304847	0.2405780184745617	2.1005646183644395	1.0077577630571264	2.2974337622411555e-17	2.553929060690414	0.12901809043831525	-0.3984492405602534	0.5274673309985687	94.76842720221262
10	4.0	perception	325	diff_vonmises	-0.04759292743620403	-2.7268738767668728	0.8098962453222965	543.3061617855919	0.7996729272708102	545.280525455423	0.4612836447754205	-0.6222705237548993	1.0835541685303198	96.53926695367244
11	4.0	wm	325	diff_vonmises	-0.21318199877732538	-12.214428798103821	0.9922859760259747	180.86843497137943	0.9717261400321666	182.8595263685678	0.03479433292115175	-0.4612346608836866	0.49602899380483834	81.26756147115822
12	5.0	ltm	325	diff_vonmises	-0.01007187561152534	-0.577075964321147	1.5501588760195006	1.8071593193800528	0.32510635255776577	2.662331771587849	0.22720911751494854	-0.2729201005406284	0.500129218055577	92.78625092315792
13	5.0	perception	325	diff_vonmises	0.026262668354608224	1.5047400554708372	0.9697890981670517	259.91455920964285	0.9520236819247762	260.80977672669576	0.5783759753162485	-0.41323935806509837	0.9916153333813469	91.57527064259631
14	5.0	wm	325	diff_vonmises	-0.03909249269057552	-2.2398348418159975	0.7650670005802978	92.02278871135378	0.7340712896483117	92.9955216636978	0.26136783861208457	-0.3279586060668658	0.5893264446789503	100.69385511871828
15	6.0	ltm	325	diff_vonmises	-0.18466157915577897	-10.58032912384711	1.5064872881796105	1.1254206034332257	2.1813149799717365e-17	2.1668671762885077	0.143868187036845	-0.3208466251328499	0.4647148121696949	110.15013793906377
16	6.0	perception	325	diff_vonmises	0.10598118130590678	6.072274396639237	0.2800138571718521	6.392745588295535	2.668636857328777e-18	7.470563958202346	0.1312366327686043	-0.4348796482332392	0.5661162810018435	163.7908512628299
17	6.0	wm	325	diff_vonmises	-0.1902939121092369	-10.903038030892704	0.7535507491484769	129.87431799209546	0.7359895787082972	130.85112463023154	0.15068550201804243	-0.2803895510714334	0.4310750530894758	98.91988265554072
18	7.0	ltm	325	diff_vonmises	0.01642096058532079	0.9408517370895553	1.1693174047390098	167.98726716234262	1.1516715150159054	169.26037034030463	0.07939765732806592	-0.3226858068277707	0.4020834641558366	76.088428487606
19	7.0	perception	325	diff_vonmises	-0.09324211994324573	-5.342379945600583	2.526940101132017	1.7282967661798545	3.6800255499377327e-13	2.6193762912927627	0.6080874329700536	-0.4103421343901821	1.0184295673602357	86.52612179007056
20	7.0	wm	325	diff_vonmises	0.6369571535448084	36.49495662878387	0.11164227774389192	54.53282440241831	0.09656096601071276	55.80652103927594	-0.08542076163525181	-0.30737211257183894	0.22195135093658713	157.6549883016818
0	1.0	ltm	326	diff_vonmises	0.13410552366106246	7.683680515170679	3.1343028156650186	0.3838693371691633	4.1285187434707944e-32	3.14992426195048	-0.2435879482080846	-0.5008375901495299	0.2572496419414453	77.5794747385385
1	1.0	perception	326	diff_vonmises	-0.02956336757724484	-1.693856190370027	8.010996631706982	1.0541582299137269	0.12282477414685558	4.06074139306285	0.4424167966246968	-0.6667413287816212	1.109158125406318	46.6297315112875
2	1.0	wm	326	diff_vonmises	0.05558340840933483	3.1846947128068543	5.182931409456182	0.3989430769592673	0.027751335703274805	3.9395471769427153	-0.29190930965773243	-0.6252974103966867	0.3333881007389543	58.112104076136575
3	2.0	ltm	326	diff_vonmises	0.09898798283242162	5.671593638811207	1.4226760198988417	4.23654132814872	0.8405108026783318	5.3657859800468115	0.10649600278843518	-0.29249649560057656	0.39899249838901174	78.54043676131514
4	2.0	perception	326	diff_vonmises	-0.030094128608447047	-1.724266557387925	8.796780136621907	1.1321053241638135	0.15762676197642758	2.525202910520909	0.8516880986319886	-0.4187302979501752	1.2704183965821638	44.845513457253304
5	2.0	wm	326	diff_vonmises	0.016312745994367037	0.9346514977461706	3.9342295061616985	0.7928745136804548	0.17817484198033692	2.8230614149776025	0.07140985713451242	-0.43652085868990653	0.507930715824419	63.354160067781976
6	3.0	ltm	326	diff_vonmises	0.17336655992508734	9.933172192409378	3.2634181856892295	0.49136774530566923	1.8496018636490737e-18	1.314398753318942	0.12833552500603004	-0.20869903999763656	0.3370345650036666	75.98870367719621
7	3.0	perception	326	diff_vonmises	-0.003565738344811496	-0.20430175800566258	4.424614262640447	2.0781942905513464	0.32243141444770024	3.1687403898617	1.0092403229619904	-0.4765921792237263	1.4858325021857168	60.99122756402585
8	3.0	wm	326	diff_vonmises	0.17226714132106732	9.870180146480866	1.8376430647029485	0.8185855542918259	2.481475825387259e-18	2.557089508154395	-0.005810027953922492	-0.39680699465740504	0.39099696670348255	100.88424627464582
9	4.0	ltm	326	diff_vonmises	-0.2556954303324898	-14.650268998833038	1.2199062469835216	1.2428290183215631	2.9107095607716594e-16	2.8602187776363914	0.020536983828233435	-0.41374108985126806	0.4342780736795015	119.6097551253062
10	4.0	perception	326	diff_vonmises	0.03809505346496228	2.1826857838675617	0.9623295616355511	459.4841905841879	0.9485047106384589	461.5026041036034	0.5358671753670592	-0.6417597369044898	1.177626912271549	88.7734086272167
11	4.0	wm	326	diff_vonmises	-0.188892076887427	-10.822718789110212	0.5773958808216044	104.94771270234855	0.5383701160104841	107.99020041543189	-0.0009726304251600482	-0.7061747363889772	0.7052021059638172	108.49840645278351
12	5.0	ltm	326	diff_vonmises	-0.034325576500098376	-1.9667106628090765	1.2817083586727365	3.115464316795986	0.5357130600701243	3.627927998846405	0.30848398061153215	-0.23236434138489795	0.5408483219964301	94.84687178986837
13	5.0	perception	326	diff_vonmises	-0.03230671935303901	-1.851038668842753	0.981105254816887	413.893669681452	0.9689308706404771	414.5463407669081	0.7359896831851529	-0.42031532951592965	1.1563050127010825	92.37974827736429
14	5.0	wm	326	diff_vonmises	0.04361813544044958	2.4991350709677613	2.5179821823219357	1.4053588463044249	3.392540687730296e-20	2.2269361342069027	0.4772498517886789	-0.3490210161389491	0.826270867927628	86.68571980728453
15	6.0	ltm	326	diff_vonmises	-0.12955310628659136	-7.422846213031458	0.6136743027170211	2.4296727398955285	1.0835184235465666e-09	2.699942586193041	0.22178655974227302	-0.2387698807055737	0.4605564404478467	146.14188220802566
16	6.0	perception	326	diff_vonmises	0.09742550661923512	5.582070346206038	0.5677328172728296	3.990560881136161	6.080315169662913e-19	4.307616302814983	0.34979252330116084	-0.35293217513244085	0.7027246984336017	148.50605134922523
17	6.0	wm	326	diff_vonmises	-0.2835106536072023	-16.24396389868812	1.217097843561041	2.6056568021638924	0.2820744069039742	2.8530596805301633	0.4058576680535678	-0.24843373408677302	0.6542914021403409	107.68762913265168
18	7.0	ltm	326	diff_vonmises	0.19378960270827167	11.103326348700955	0.9431867331028835	118.02714127582173	0.9242736982954801	118.95018921870854	0.12220906092972683	-0.24894842299350906	0.3711574839232359	87.38870799907818
19	7.0	perception	326	diff_vonmises	-0.02361829986270221	-1.3532289014072483	0.8917509895931627	275.10536766751704	0.8751773317572611	275.8846956220091	0.6211770602486553	-0.41712451331999034	1.0383015735686456	96.17323140235666
20	7.0	wm	326	diff_vonmises	0.39901439052348087	22.861840541980285	0.24576884288124803	135.1395109053341	0.23427569604491508	136.5183624449814	-0.0007536004275081609	-0.38577422496954483	0.38502062454203667	147.27592549207463
0	1.0	ltm	327	diff_vonmises	-0.3130275463789525	-17.935157278849616	0.7239361140528408	1.1750655138953665	6.5268224358396195e-15	2.7453910165165474	-0.09720468174203545	-0.3570803192837161	0.25987563754168064	139.81388651128395
1	1.0	perception	327	diff_vonmises	-0.0888321484265875	-5.0897071899231605	11.180122339111135	0.9877233250314478	0.0746258000028366	2.9491020382885647	0.7971378843789517	-0.4819694419937204	1.2791073263726722	40.14552900770832
2	1.0	wm	327	diff_vonmises	0.03932315449727001	2.253050789834454	4.072847976736617	0.5922879237222692	1.5623254140436253e-27	2.400241643836292	0.07786010589310116	-0.3818769580567858	0.45973706394988695	67.83078635019763
3	2.0	ltm	327	diff_vonmises	0.0397983334230141	2.280276536793151	3.18321978073969	0.7680993594052852	0.1939221450028748	1.3735928046580794	0.257337586623223	-0.1969977518846311	0.45433533850785407	71.94368640704721
4	2.0	perception	327	diff_vonmises	-0.02595440085754414	-1.4870776289280037	9.199592794256404	1.0800627757187078	0.19391179356481045	1.8318247648045602	0.9371287537444578	-0.30713509866536665	1.2442638524098244	43.93017296377161
5	2.0	wm	327	diff_vonmises	-0.06227500337954719	-3.5680948628109923	6.595779755614186	0.4971651687302786	0.16585845624793993	1.3642321038903127	0.2443131034358158	-0.22176577573775696	0.46607887917357277	51.10971899650281
6	3.0	ltm	327	diff_vonmises	-0.02565128896828161	-1.469710596953024	2.3274176255340593	0.6733416063430302	3.7271086754105305e-18	1.119491173084756	0.20221982121912258	-0.17455237139194518	0.37677219261106776	90.14624789372746
7	3.0	perception	327	diff_vonmises	0.01414969970955181	0.8107180747348055	4.4643435109637135	2.1382899973856726	0.48823048549381554	2.553816097741931	1.1203856979662286	-0.37361654112019116	1.4940022390864196	60.06419816956756
8	3.0	wm	327	diff_vonmises	-0.031854814567063496	-1.825146431864593	2.7403529958820054	0.7460123692925176	5.51510483297116e-20	1.4260472426908057	0.23688089532609352	-0.22502986737214145	0.46191076269823494	83.06863364281605
9	4.0	ltm	327	diff_vonmises	-0.382772159849316	-21.931229274472713	2.5579734933946052	1.0111369753974022	1.7116993422607238e-15	2.047373741305496	0.2781400071692254	-0.32222552304335816	0.6003655302125835	85.91952281064408
10	4.0	perception	327	diff_vonmises	-0.022856573831112427	-1.309585214651905	2.5722413287778876	2.5035794899055652	0.16001081150889754	3.4943882681456677	0.851807399624753	-0.478454507527175	1.330261907151928	80.94143233822984
11	4.0	wm	327	diff_vonmises	-0.22104599958013035	-12.665002854192036	1.0994585388796598	185.39160629598447	1.0804780656926356	186.62272538015557	0.2202079449988048	-0.3535650874083025	0.5737730324071073	81.51565097393039
12	5.0	ltm	327	diff_vonmises	-0.09596269956909527	-5.498257675991042	1.2540851466060177	1.4087579216218082	1.4060666887582075e-14	1.4141042372758614	0.323041061569042	-0.18043252647583075	0.5034735880448727	118.67151636124225
13	5.0	perception	327	diff_vonmises	0.010721272567222391	0.6142836691112322	1.2012326045055595	241.46770848435335	1.1852345071441373	241.4821831757549	0.708797087310785	-0.2521407802558109	0.9609378675665958	86.18956938735641
14	5.0	wm	327	diff_vonmises	-0.007902637126669712	-0.4527877543815662	1.9154703697408013	1.3828042514942298	1.2721361011183494e-14	1.3181223787416254	0.4851300749272496	-0.1947117205367754	0.679841795464025	99.02208104634806
15	6.0	ltm	327	diff_vonmises	-0.3432460266438357	-19.66654866132679	0.5441682295337196	55.869348015594866	0.5162759173097524	55.94782554953732	0.2729308229519454	-0.17808589525345386	0.45101671820539924	123.87275663154844
16	6.0	perception	327	diff_vonmises	0.19856079825635223	11.376695716837578	0.9101220863864606	2.5689632061269143	7.502447586136843e-17	2.409753960825293	0.4504737080342345	-0.24842278438875587	0.6988964924229903	132.01751242851796
17	6.0	wm	327	diff_vonmises	-0.22874870728155014	-13.106335496306306	2.7427305967275397	0.8008807605115934	5.36903626603904e-16	0.5758888681538762	0.40655696969226357	-0.08958964136401416	0.4961466110562777	83.01302764041338
18	7.0	ltm	327	diff_vonmises	0.19200372202911145	11.001002923071116	1.3292277664991998	203.3469216886475	1.314585355892679	204.0167068958792	0.2711685203434513	-0.24697797923392173	0.518146499577373	76.20797885709194
19	7.0	perception	327	diff_vonmises	-0.02789466341660412	-1.5982464847093933	1.526683624684739	2.0728836936718453	5.507969382056948e-17	2.222597355466838	0.5537533070958469	-0.31090083219294495	0.8646541392887919	109.63713064747316
20	7.0	wm	327	diff_vonmises	-3.236074612029302e-05	-0.001854134174587143	0.44900998175985796	2.7391179765325857	6.014735959827464e-17	3.2435778644634015	0.1336194163651454	-0.2514981415101918	0.3851175578753372	154.88966997279476
0	1.0	ltm	328	diff_vonmises	0.16924342524615885	9.696933976942747	5.495042340374237	0.4544132141268097	1.3133320474419442e-19	3.386732069912386	-0.12475157260625797	-0.5390081609292587	0.4142565883230008	58.18499907329084
1	1.0	perception	328	diff_vonmises	-0.07767946052234671	-4.45070524278356	8.46815938799713	1.0804764513175527	0.05416844632540386	3.9730067286299833	0.567377785422379	-0.6390103046502376	1.2063880900726165	46.08548895575072
2	1.0	wm	328	diff_vonmises	0.08267738430338223	4.737065181764962	1.7987552942301646	1.6135311611705438	0.2643947494103601	5.192506831268041	-0.277435764026014	-0.6834200529572588	0.40598428893124483	79.55518832919367
3	2.0	ltm	328	diff_vonmises	-0.00992550830722154	-0.5686897355258322	1.1815524678693305	136.168312283942	1.1565370658694483	137.47119127624876	0.1485165706602274	-0.3510635723319311	0.49958014299215847	77.21494882927806
4	2.0	perception	328	diff_vonmises	-0.044603533811262516	-2.5555942387544097	8.839836583203471	1.0895555826848882	0.0891616487694367	2.384975795209227	0.8585478792886465	-0.3867679375530441	1.2453158168416907	45.121735099040166
5	2.0	wm	328	diff_vonmises	-0.00432876210397497	-0.24801979907393623	4.981931145943395	0.611518406024335	0.12134360700058022	2.3896713158535325	0.10140427438654726	-0.37841232190015556	0.4798165962867028	58.094799299604745
6	3.0	ltm	328	diff_vonmises	0.031248631205799165	1.7904146836530928	2.166020768362082	0.8762826771821619	0.034910994188671426	2.0263487836510916	0.14042967079375612	-0.30511130644298157	0.4455409772367377	91.02904816406982
7	3.0	perception	328	diff_vonmises	-0.01149869272817323	-0.6588265632420964	4.082708734321771	1.9227326844135668	0.13961905630110663	3.0983445535568124	0.9305380311355035	-0.4671599390719758	1.3976979702074792	65.3405431522907
8	3.0	wm	328	diff_vonmises	0.11640020832546884	6.669240671492912	3.268603214608756	0.6668883853026165	3.2507067365576076e-17	2.3432339303671132	0.08554439466782787	-0.3722730663227068	0.45781746099053466	75.93458851267616
9	4.0	ltm	328	diff_vonmises	-0.160587957467286	-9.20101220350186	1.0012594892705384	1.7486956190050122	1.0541452728797455e-16	3.4250435618671813	0.05284796351847654	-0.4643900465813801	0.5172380100998566	128.3378199546708
10	4.0	perception	328	diff_vonmises	0.016176244192843373	0.9268305206229323	0.8740267940718319	514.238383392094	0.8621369881044584	516.2902822110198	0.5186546711956908	-0.6517995444453248	1.1704542156410156	93.11708652530729
11	4.0	wm	328	diff_vonmises	-0.12768893728338632	-7.3160371968487	0.6792868888465153	108.28065027601812	0.6412167147416424	110.93820392216203	0.05748770178336926	-0.6231869438379452	0.6806746456213144	100.45084018098899
12	5.0	ltm	328	diff_vonmises	-0.026728565802618516	-1.5314340129277428	1.6935153049059382	1.6381150108199	0.11389523908309072	2.4688636589648634	0.32491515440945906	-0.32367335811086967	0.6485885125203288	98.89439053353254
13	5.0	perception	328	diff_vonmises	-0.012218473805544123	-0.700066981148828	0.9483953360723684	299.14411725308327	0.9321813682485636	299.9854322988963	0.644999642847651	-0.4302330781601533	1.0752327210078043	93.08937928152525
14	5.0	wm	328	diff_vonmises	-0.001949734216804852	-0.11171154179516304	2.0453701488236025	1.545274899152768	2.1030407401850512e-18	2.4569550992622085	0.4170164930497932	-0.37752026500977204	0.7945367580595653	95.98660172056194
15	6.0	ltm	328	diff_vonmises	-0.10933590743839271	-6.264486045452926	0.7080120630914577	2.3626949939452877	2.733273577574283e-19	2.95788683848749	0.20516544443353363	-0.3067277475590614	0.5118931919925951	141.58162022973056
16	6.0	perception	328	diff_vonmises	0.1406673052625353	8.059642907021667	0.07615013660411962	27.18474234927842	7.13268385040715e-13	27.781959542466694	0.24052780085207903	-0.41809396546833355	0.6586217663204126	174.97908368067573
17	6.0	wm	328	diff_vonmises	-0.32363864077824844	-18.543128203944175	0.6795463035996864	149.78650356427084	0.6628218553999466	150.32034474415303	0.3286140648924345	-0.2801499939607286	0.6087640588531631	109.562441989072
18	7.0	ltm	328	diff_vonmises	0.08814303616992354	5.050223966005579	0.7108829749957076	134.109570531237	0.6924763999500392	135.45636070511227	0.08922588665912201	-0.33912191965565697	0.428347806314779	99.32311914143858
19	7.0	perception	328	diff_vonmises	-0.04446496594838045	-2.54765488503512	1.4633736797937227	6.0461436156013	0.6496243497638415	6.828672851381599	0.7022653563407715	-0.42366537288692957	1.125930729227701	88.77653970051838
20	7.0	wm	328	diff_vonmises	0.5715888745341333	32.74963012743858	0.144618778475719	138.81359776642577	0.13433757725062204	140.24948116675944	-0.018419692090539286	-0.4091918549412057	0.3907721628506664	155.92606479304612
0	1.0	ltm	329	diff_vonmises	0.3224255442290088	18.473622891530862	1.1000047347910227	14.291333963439715	0.8760206538977239	16.29022489330009	-0.030280669660895043	-0.4431977359439496	0.4129170662830546	79.42563612285932
1	1.0	perception	329	diff_vonmises	-0.07519570205181654	-4.308396365092313	8.728215957915479	0.9805708421083958	9.073343808221916e-17	2.869905872798533	0.6813079812820863	-0.45675967600736805	1.1380676572894544	45.98451871583583
2	1.0	wm	329	diff_vonmises	0.26558920775223543	15.217140688426296	0.9145983440400802	191.48441996230247	0.8962581295164979	193.92437040081816	-0.11701203120773584	-0.509997726569086	0.3929856953613502	80.62223920221595
3	2.0	ltm	329	diff_vonmises	-0.12953480298402015	-7.421797511042977	1.1705610601357124	144.32922432999408	1.1489619822515287	145.58312250050312	0.1156019633233214	-0.32894159071368634	0.44454355403700774	76.98521025997928
4	2.0	perception	329	diff_vonmises	-0.03710570403011328	-2.126000236787061	7.402704075850106	1.3048178146825453	0.13977650101350203	2.4835516443788	0.9383265770113545	-0.40237510513699554	1.34070168214835	48.973663231479094
5	2.0	wm	329	diff_vonmises	-0.0356882698392055	-2.0447872399105043	5.8506953619681585	0.5025630125206201	0.1592887531451977	2.153176129223552	0.07428950569086074	-0.34951072512459397	0.4238002308154547	53.18951408026217
6	3.0	ltm	329	diff_vonmises	0.02417237805915047	1.3849752435839542	0.9349270787998663	171.72164895391072	0.9221188322414944	172.43242600209885	0.18586502675874783	-0.2257123914891217	0.41157741824786953	90.04854557734629
7	3.0	perception	329	diff_vonmises	0.05605358935059406	3.211634096348497	1.2731858750734035	227.8689292968782	1.2473126145494964	228.40010017300935	0.8728294193979025	-0.41703498022206986	1.2898643996199723	81.83484797221374
8	3.0	wm	329	diff_vonmises	0.0061006977120007895	0.34954423098276305	1.982976906785523	2.0235230555701778	0.7898336578244942	2.943833757055927	0.150335523863649	-0.2619732265878577	0.4123087504515067	72.75856769233783
9	4.0	ltm	329	diff_vonmises	-0.08683615525953253	-4.9753452055139595	3.126003409766526	0.4641968860964249	1.10088869504873e-34	1.788563934672301	0.026560269976901196	-0.2840592012443278	0.310619471221229	77.6840518828742
10	4.0	perception	329	diff_vonmises	0.017944352005584488	1.0281356360171054	1.040362129431031	429.6428266501462	1.0261919842803977	431.4620495689284	0.5175248291008643	-0.5875891425068787	1.105113971607743	85.46553213737243
11	4.0	wm	329	diff_vonmises	-0.33725764917889706	-19.323439906454556	1.4946137419462866	1.9580934622101365	0.40461837443365634	3.5545060781443025	0.032101919958258174	-0.3603530129774894	0.39245493293574757	86.07132622434222
12	5.0	ltm	329	diff_vonmises	0.04511405520407244	2.584844959913559	2.703878433497389	0.5946862954387344	0.02806085416864969	1.4778513249155056	0.12502013945110813	-0.227153090877315	0.3521732303284231	81.9653213122368
13	5.0	perception	329	diff_vonmises	-0.0050890709365420395	-0.29158228630654803	2.5726713911558683	1.8386947525843762	0.11530626675300482	2.803597898011899	0.6028945502396719	-0.39704205875442633	0.9999366089940982	81.78755466485009
14	5.0	wm	329	diff_vonmises	0.02258341109724235	1.2939341428808944	1.649703626484123	1.3426007353774845	0.09139426223852808	2.462341861350317	0.18763750103449878	-0.3341800585919489	0.5218175596264476	100.0932704119144
15	6.0	ltm	329	diff_vonmises	-0.27472330877861906	-15.740486126884191	1.1220020881467714	1.0782415393932234	8.178455775380879e-17	2.0913645574508704	0.060324543708567324	-0.2911604336237285	0.35148497733229583	123.19157231826709
16	6.0	perception	329	diff_vonmises	0.2156356723799776	12.355013939838452	0.11430822846306092	164.75244196964027	0.10159119847972209	165.59267404540233	0.2027698645649707	-0.4350417893655596	0.6378116539305303	166.2029393796143
17	6.0	wm	329	diff_vonmises	-0.40129384673019763	-22.992443762210055	0.599213354425539	132.00666291893742	0.5860185277116967	132.9192206796227	0.08950942210735491	-0.25550604659533427	0.3450154687026892	109.82189246469233
18	7.0	ltm	329	diff_vonmises	0.16112055278791446	9.231527667562288	1.4712417738413026	1.0033434464955764	3.492548690014683e-13	2.30056148478294	0.06338754342478897	-0.3434939237875542	0.4068814672123432	111.25297560315275
19	7.0	perception	329	diff_vonmises	-0.10806725299559208	-6.191797500219929	3.59165855493107	1.3835264487050576	4.539895382595064e-19	1.6757509024033397	0.7358565995104166	-0.26594291948631493	1.0017995189967315	72.35083928070674
20	7.0	wm	329	diff_vonmises	0.45789847555826485	26.235650094962857	0.43443797739097334	78.84737611171903	0.4174571146529425	80.05894950562258	-0.033417153132472066	-0.2824549811947117	0.24903782806223962	122.07891976931612
0	1.0	ltm	330	diff_vonmises	0.16448997736859325	9.42458147542282	3.6765883515523923	0.49221321326972384	5.725324710707813e-23	2.6429375557688304	-0.05934736329722845	-0.42040510420652705	0.3610577409092986	71.49190199145812
1	1.0	perception	330	diff_vonmises	-0.09418412535311832	-5.396352879864774	11.765670186131622	0.8560689519925347	3.0378555059087607e-15	3.16165063858316	0.6549838290412034	-0.5031923273902542	1.1581761564314577	39.54221600857696
2	1.0	wm	330	diff_vonmises	-0.009894240422970758	-0.5668982177239589	4.427816184813531	0.7289600648305775	0.18575476814628267	3.275324606843361	-0.030150051054594673	-0.5200309014429549	0.48988085038836027	59.1983624659255
3	2.0	ltm	330	diff_vonmises	-0.12571056685136173	-7.202684920780217	1.8519314600315404	1.8764131853021306	0.44789947353766785	3.146457504097225	0.17806231453856258	-0.33580222524161335	0.513864539780176	81.38809191414131
4	2.0	perception	330	diff_vonmises	-0.05139981874262442	-2.944992681689805	9.20126054603455	0.9942646535187278	0.0015073709454817036	2.4751027507785013	0.7914380687126317	-0.3938202174395159	1.1852582861521475	44.75099604697533
5	2.0	wm	330	diff_vonmises	-0.11225523287907915	-6.431751072229429	4.324518677876104	0.8237213773768164	0.28209088797064963	2.513385341018173	0.14067898776801757	-0.3950991952596719	0.5357781830276895	59.48245371664325
6	3.0	ltm	330	diff_vonmises	-0.017116450758964064	-0.9807003887321356	0.8328548193763861	138.16440800880386	0.8097794533907791	139.24067225901277	0.2799070326376878	-0.3492997638972284	0.6292067965349162	95.93221382231596
7	3.0	perception	330	diff_vonmises	-0.004296311464508477	-0.24616051439000552	2.923514864418578	3.176039387190647	0.42263685999155903	4.354558538211475	1.0377685875504374	-0.5540715730948256	1.591840160645263	71.83952414601987
8	3.0	wm	330	diff_vonmises	-0.07334026775459257	-4.202087810697557	2.5634906681868825	1.4083832441577318	0.2986496541785163	2.889375323514434	0.23601916508486198	-0.38632531569730216	0.6223444807821641	75.18371971115025
9	4.0	ltm	330	diff_vonmises	-0.10457357352770316	-5.991624411738383	1.6220839420866933	1.3024396110692547	3.535582207185326e-22	2.9684730389789404	0.11916506825126688	-0.44937368587723564	0.5685387541285025	106.76679159392792
10	4.0	perception	330	diff_vonmises	-0.051025917491276045	-2.923569718032883	0.8542256760928625	502.0759453998013	0.8414154254592552	503.99151798452925	0.6305505147276165	-0.6707909198476827	1.3013414345752992	95.25039057120782
11	4.0	wm	330	diff_vonmises	-0.24788685786675393	-14.20287075252431	0.916186737797066	184.13823009556125	0.8962299489456229	186.10476750488473	0.06643901376314432	-0.4619371452594905	0.5283761590226348	85.51993496922971
12	5.0	ltm	330	diff_vonmises	-0.020834779784929022	-1.193744948760918	1.650160877776505	1.2402275111159557	3.774245901377403e-18	1.749891777365795	0.29075861783736384	-0.2575140790472446	0.5482726968846084	105.98992489014364
13	5.0	perception	330	diff_vonmises	0.014797906288595947	0.8478575759666477	0.9706526586204646	296.65490971692674	0.9553807820070268	297.31689387862	0.6389604328334855	-0.3866496593115514	1.0256100921450368	92.58319883256482
14	5.0	wm	330	diff_vonmises	-0.07463899112114471	-4.2764991783560165	1.928831510334117	1.6051399203459806	0.19556930163504063	2.331852932524659	0.36308084003127883	-0.2901288255415208	0.6532096655727997	90.37607230656181
15	6.0	ltm	330	diff_vonmises	-0.22692921678330194	-13.00208636989253	0.8812846123306792	1.6057637657656614	5.8015308209027946e-18	2.23468428360531	0.15682935511078222	-0.26771594915682073	0.42454530426760295	133.22254631330787
16	6.0	perception	330	diff_vonmises	0.0938170901376144	5.375323311083725	0.49623474795996597	3.8928582805303127	1.5986830836996358e-16	4.302696743217231	0.2729730410839335	-0.3297812180843578	0.6027542591682913	152.20242399830062
17	6.0	wm	330	diff_vonmises	-0.1439195508290802	-8.245982851924824	0.7632773598723251	75.58053181499643	0.7404836039850115	76.1438608094906	0.1642314819467181	-0.19547398178341346	0.35970546373013157	100.84514286229891
18	7.0	ltm	330	diff_vonmises	0.2722094239923723	15.596451138450105	1.5616649211416143	143.74412480323466	1.54528823011648	144.14742015673298	0.22926725919842994	-0.17553433344070513	0.40480159263913507	70.92057078187861
19	7.0	perception	330	diff_vonmises	0.022156461850229868	1.2694717529607906	0.6924837907942659	109.77216828022797	0.6611983831161294	110.31388445655166	0.5036536399676841	-0.3681375236752311	0.8717911636429152	110.27138241422438
20	7.0	wm	330	diff_vonmises	-0.07417812345124503	-4.250093405956736	0.00037970860677344576	1995.0731371390766	5.20006153780966e-27	1995.798305639412	0.005163404004292715	-0.23596881746965437	0.24113222147394708	179.82128762596173
0	1.0	ltm	331	diff_vonmises	0.1308683872322262	7.498206260090311	4.340866425490678	0.4662842190267927	1.5365740244087461e-24	3.531282526555963	-0.18729168358002835	-0.5619574732891428	0.37466578970911446	65.65449207325292
1	1.0	perception	331	diff_vonmises	-0.07094943761791352	-4.065103334333162	9.194638219623409	0.9835932051238063	0.052861373425279815	4.157593628654152	0.4756568416905709	-0.6707335560502025	1.1463903977407734	44.197055735895134
2	1.0	wm	331	diff_vonmises	-0.010801491262917878	-0.6188798618126279	3.882588320609679	0.7579966931019	0.12068962409317575	4.418811954256541	-0.21728216052220906	-0.6924050224885051	0.47512286196629605	63.32900360199025
3	2.0	ltm	331	diff_vonmises	0.0037710383007004624	0.21606457901232232	2.113968310931168	1.7105624223455138	0.4871918672632685	3.1108076681912493	0.15230831787521637	-0.35683181754184884	0.5091401354170653	75.91961772785916
4	2.0	perception	331	diff_vonmises	-0.048754072004958356	-2.7934025599610335	9.402936366635185	1.027567697048595	0.061639512890331996	2.5057524355803236	0.8156227964548455	-0.40436712638243794	1.2199899228372835	43.87246286556402
5	2.0	wm	331	diff_vonmises	-0.02186628519077675	-1.252845855060922	4.858525318308912	0.6741711949375634	0.10680321771547885	2.5497459732621834	0.12542340610963898	-0.4019259335198632	0.5273493396295021	59.137073892029576
6	3.0	ltm	331	diff_vonmises	-0.026245143137794975	-1.5037359345123864	1.943011577886758	0.9964845907357033	1.2222249912775116e-16	2.2749373551132868	0.14305241010758746	-0.35169750990328075	0.4947499200108682	98.3616339604445
7	3.0	perception	331	diff_vonmises	-0.013405732630467685	-0.7680919010066096	4.399768178049597	2.030288215668202	0.14014634850993485	3.3552241214602954	1.0324445825486337	-0.5114878765895373	1.543932459138171	63.01773040680041
8	3.0	wm	331	diff_vonmises	0.05697733931327024	3.264561070535209	2.766706256569172	0.8641762745368076	3.864354117662107e-16	2.7021843301377446	0.11022058059201317	-0.4279303964281647	0.5381509770201779	82.66597761443433
9	4.0	ltm	331	diff_vonmises	-0.18823567249745035	-10.78510958791069	0.7242045155164545	2.5717759399173197	2.500325968902163e-15	4.427895914483249	0.03896498938701132	-0.5299952227748914	0.5689602121619027	140.5337609446934
10	4.0	perception	331	diff_vonmises	0.0014064960783601067	0.08058628919173563	0.8532673657091411	365.8049034943336	0.8353518870420611	367.92706539535044	0.5920030984280231	-0.7005091589729986	1.2925122574010217	94.83671097525252
11	4.0	wm	331	diff_vonmises	-0.12427203000017784	-7.120262830533341	0.6651578528459856	70.83460374122349	0.6052837164305349	73.65364075982995	0.053709671176481066	-0.6624725856813338	0.7161822568578149	102.40636107973043
12	5.0	ltm	331	diff_vonmises	-0.04212787336194461	-2.4137493435010327	1.6517431350731486	1.5361965566673332	1.3477722799231735e-13	2.290134064624873	0.3410134747881362	-0.33855342064783595	0.6795668954359722	105.94521151049648
13	5.0	perception	331	diff_vonmises	-0.008079938701599763	-0.46294638632608065	0.9322974491767496	319.20297465277804	0.9170258444626089	320.0192305859159	0.6610785118337219	-0.4337035864089458	1.0947820982426677	94.03773047098721
14	5.0	wm	331	diff_vonmises	-0.030229572428029424	-1.7320269166111266	2.1650652240916703	1.5164844056963542	3.039004677082478e-20	2.380969797169914	0.4416312374442496	-0.36813905858083806	0.8097702960250877	93.39093334073385
15	6.0	ltm	331	diff_vonmises	-0.11966932984486006	-6.8565475372694245	0.49353214595260336	3.277132018070356	2.56080334553766e-11	3.8028335718221236	0.19939354301747503	-0.3053768361107719	0.504770379128247	152.31042017594672
16	6.0	perception	331	diff_vonmises	0.11120014960781473	6.37129925375112	0.31237219309015857	6.948566202143282	1.2412453138945611e-11	7.4323496880803175	0.29228033283452115	-0.39307841254404674	0.6853587453785679	161.983624348821
17	6.0	wm	331	diff_vonmises	-0.2559196025029554	-14.663113118085004	0.6948609888697473	143.88110223577814	0.6783328025206486	144.38862963678082	0.3106418740132	-0.26204147497720776	0.5726833489904077	108.30279007065008
18	7.0	ltm	331	diff_vonmises	0.21208045720658078	12.151315115141943	1.0138057706964543	125.57224983735911	0.9943459297166617	126.53697214203032	0.13347569523956793	-0.2624128555517018	0.3958885507912697	84.25683916504497
19	7.0	perception	331	diff_vonmises	-0.007149778352607483	-0.4096521240584073	0.8807783190366192	101.5975066070685	0.8351596103629373	102.5415304033445	0.5911209474968437	-0.4444791996635047	1.0356001471603484	96.8909358232732
20	7.0	wm	331	diff_vonmises	0.43587083178327796	24.973559074038487	0.025839713180476495	40.81924043602479	2.295324261684414e-07	42.0856082306097	-0.03260540343419294	-0.36832334263875754	0.3357179392045646	172.873548069172
0	1.0	ltm	332	diff_vonmises	0.16158270281885576	9.258006913837065	4.373411006990018	0.4568645100284284	1.7326769493964285e-18	3.808277367473377	-0.2374178118290471	-0.6060475536928355	0.3686297418637884	65.39633055457273
1	1.0	perception	332	diff_vonmises	-0.04231804201273396	-2.4246452045869593	9.568559296937432	0.8436701396095839	0.0005685931706974388	4.346560020749381	0.3343865343067485	-0.6917124390598746	1.026098973366623	43.885376860429915
2	1.0	wm	332	diff_vonmises	0.06332451438494958	3.6282274139730815	1.3664525771745122	3.3567731081610317	0.4382493424692662	7.134673736334041	-0.30399226176658	-0.732402827190813	0.42841056542423295	80.43245313654532
3	2.0	ltm	332	diff_vonmises	-0.01255989442207573	-0.7196289415148436	2.4800167731021174	1.0285236299900105	0.2068065918007909	2.7166280504437887	0.07724382837164856	-0.3798847756158227	0.45712860398747124	77.06677682586667
4	2.0	perception	332	diff_vonmises	-0.057937766105146005	-3.3195894722409798	10.324544744251352	1.0754880008336065	0.09874087801427518	2.764761767353842	0.876428006064599	-0.45425318541315246	1.3306811914777514	41.69477734610396
5	2.0	wm	332	diff_vonmises	-0.018226434540274616	-1.0442977747292024	5.578357451916383	0.569277796574818	1.1336148661278672e-09	2.584876878087938	0.1117685136169656	-0.4113884616324488	0.5231569752494144	57.73494550646623
6	3.0	ltm	332	diff_vonmises	-0.10315497977853452	-5.910344977067379	0.7515005897546967	73.61536564473394	0.7203382091052231	74.74599414873181	0.11167302610018481	-0.2980633625959097	0.4097363886960945	98.01031310202758
7	3.0	perception	332	diff_vonmises	0.030354059451466783	1.7391594976582334	3.456134952858187	2.3174792140934044	0.19013245554995792	3.3022258929752946	1.0138921832972008	-0.4754797209246493	1.48937190422185	70.14110645893166
8	3.0	wm	332	diff_vonmises	-0.0138635805264907	-0.7943246531076729	3.179940543762762	0.7852355279560508	0.07007912463791409	2.177493414118047	0.1603035660669832	-0.3304850532501741	0.4907886193171573	73.8337169465351
9	4.0	ltm	332	diff_vonmises	-0.15140857447576114	-8.675072299553314	0.15964623932308397	7.14458516698145	5.561251576388652e-11	9.052943352791951	-0.11536044842896853	-0.47765284762974936	0.3622923992007808	170.32936073673602
10	4.0	perception	332	diff_vonmises	0.0037310240040870513	0.21377192869618925	2.1792038596461483	2.987216874803362	0.15674332940176464	5.100303618997222	0.6790427611428337	-0.6848089461757646	1.3638517073185983	86.1633444215619
11	4.0	wm	332	diff_vonmises	-0.18370714928021578	-10.525644320136143	0.8961455984388995	5.018507375142473	0.31437559065698534	7.528162881666329	0.014927509023370478	-0.5871262081710996	0.6020537171944701	107.13126878951142
12	5.0	ltm	332	diff_vonmises	-0.003807669389120087	-0.21816338577773736	1.724968569140487	1.1797527806901746	5.108510070748271e-18	2.4803505953118337	0.1615593162571347	-0.3770977933539465	0.5386571096110813	103.91132693179566
13	5.0	perception	332	diff_vonmises	-0.0006114636038646378	-0.035034283827302996	2.5264199549741364	1.8278927354430416	0.012213708325238505	3.2594944551585594	0.5588375005674439	-0.5055202912599409	1.0643577918273848	85.97600363461797
14	5.0	wm	332	diff_vonmises	-0.03853041213675766	-2.2076299983358583	1.8957532648110504	1.4170401271584145	1.6476824634279749e-21	2.788842459666867	0.2638401562052095	-0.4278908708449605	0.69173102705017	99.4980140098657
15	6.0	ltm	332	diff_vonmises	-0.2109999896562998	-12.089408884610004	0.5268901557927047	2.7095956262838805	6.955142103008383e-14	3.8480084181607026	0.06977678124089537	-0.37460027308114713	0.4443770543220425	150.11583026719114
16	6.0	perception	332	diff_vonmises	0.24350063622030108	13.951558764173638	0.05930153181334339	41.530608057300874	1.9610473535790396e-10	42.622118666120215	0.22394524201085186	-0.559767582222765	0.7837128242336169	174.7766751992178
17	6.0	wm	332	diff_vonmises	-0.33677927058792195	-19.296030832182268	0.4978737625166298	156.8964486730387	0.48334722190814633	158.0520268396571	0.14380954055324935	-0.3662384490892414	0.5100479896424908	121.21934743696357
18	7.0	ltm	332	diff_vonmises	0.31585367356927146	18.097082439222056	0.6566385742605535	52.00727729000812	0.6189832872179034	53.265602739623766	0.033184547797395325	-0.29980683156639376	0.3329913793637891	102.5824479384861
19	7.0	perception	332	diff_vonmises	-0.043091551725465214	-2.468964046538837	2.9477350672630758	1.5279179034349708	1.3416164823417018e-15	2.659646802341476	0.5673373523469991	-0.4205692908759201	0.9879066432229192	80.0545045063858
20	7.0	wm	332	diff_vonmises	0.7311366318519743	41.89104325252836	0.0036485283962781594	228.77732686230604	4.13021671994268e-12	230.25377516960228	-0.10201653913298969	-0.36770920822270625	0.26569266908971656	164.4773342764451
0	1.0	ltm	333	diff_vonmises	0.23506614668030695	13.468298111184735	0.5181838059563875	104.4099070417795	0.49778270714097134	107.13024213892048	-0.27149423972983655	-0.5018091194174819	0.2303148796876453	100.38874985230734
1	1.0	perception	333	diff_vonmises	-0.013614139084519755	-0.7800327112470803	8.791335749335444	0.928506485402864	0.10277187812021235	4.045837879911331	0.3699936775912185	-0.6640530749455598	1.0340467525367782	44.681888456508915
2	1.0	wm	333	diff_vonmises	0.08136007004649778	4.661588634553071	6.782448930870156	0.29414390036743554	0.11428893057171254	3.775565943486031	-0.3719601058213989	-0.6240985800246239	0.25213847420322505	47.95276702735228
3	2.0	ltm	333	diff_vonmises	0.04992093660848022	2.8602589770060423	0.9904594969606363	5.319133835011815	0.618520664001082	6.60954644071605	0.02960350299047909	-0.2969557818235004	0.3265592848139795	91.03350399225104
4	2.0	perception	333	diff_vonmises	-0.04577342737460007	-2.6226242024131725	10.089402154400647	1.0681452377561782	0.15139952418717012	2.83875132914892	0.8130135758403578	-0.47604717853047857	1.2890607543708363	41.89239343753633
5	2.0	wm	333	diff_vonmises	-0.08262642396007726	-4.734145369171049	2.459812243934299	1.5130194911955281	0.39536828794730483	4.027878203122653	-0.032550428698665534	-0.5453302523770359	0.5127798236783704	70.46320800754046
6	3.0	ltm	333	diff_vonmises	0.1482623680932793	8.494807952359983	1.155739437853	118.6521726505448	1.1369814973540768	119.37320388496293	0.1492801542149138	-0.21488027285797884	0.36416042707289265	79.8599768458619
7	3.0	perception	333	diff_vonmises	-0.008167109769581776	-0.46794092061709797	2.8807666535007836	3.4422832830019363	0.6150050697080742	4.63261704174223	0.9592804621060602	-0.5506224579069423	1.5099029200130025	69.45292815096786
8	3.0	wm	333	diff_vonmises	0.009441684781363643	0.5409686894650362	3.8325279184990673	0.5054627297492228	0.03288776077339226	2.2761369898577204	0.005319884061778912	-0.3560417088283457	0.3613615928901246	68.09827565079794
9	4.0	ltm	333	diff_vonmises	-0.0015682201534917785	-0.08985239614243706	1.022378616857258	1.2458155858493352	0.1041991801752007	2.9476215885658124	-0.08826194691971206	-0.36578780711403025	0.2775258601943182	115.46823932329332
10	4.0	perception	333	diff_vonmises	0.020181885355944736	1.1563368535125145	0.9429353567021819	423.229598048798	0.9281167238606933	425.37148137968245	0.48944755806732587	-0.6530825661300028	1.1425301241973287	89.20068693191834
11	4.0	wm	333	diff_vonmises	-0.1823429101966712	-10.447479178402244	0.6384056617505829	225.4652951912827	0.6214895220658138	228.37464733350677	-0.060668765932447855	-0.6307318113772311	0.5700630454447833	100.07896645244874
12	5.0	ltm	333	diff_vonmises	0.006938462947481969	0.3975446431986182	1.0705593237453317	111.37196566688657	1.0465631325280034	112.14234199822721	0.23266516307351992	-0.25338763260798736	0.4860527956815073	84.60792773311081
13	5.0	perception	333	diff_vonmises	-0.03196489828954303	-1.8314537645557596	0.9299053942791575	317.58950455305484	0.9128786909781851	318.8475582169292	0.6196510973459795	-0.5120943367749007	1.1317454341208801	92.67260560702678
14	5.0	wm	333	diff_vonmises	0.06899070322890336	3.9528761206557435	3.221241670419678	1.0584432490629445	6.517157905449335e-22	2.4809424624840086	0.3269051069881812	-0.3937048902655759	0.7206099972537572	76.50192352752242
15	6.0	ltm	333	diff_vonmises	-0.1759774669395709	-10.082766145040388	0.6013988031380387	127.99577844437616	0.5858247193173007	128.7694120900098	0.17368713499919153	-0.26949999258256163	0.44318712758175316	112.8204337560872
16	6.0	perception	333	diff_vonmises	0.13947817465628723	7.99151074199382	0.25866721289904204	8.497000797515213	1.4732086709569423e-19	9.316645987664746	0.23982846704402427	-0.45592448335883784	0.6957529504028621	164.7711252636131
17	6.0	wm	333	diff_vonmises	-0.30553664759757776	-17.50596039391715	1.1889188372062125	1.9764898206243589	0.09229126597745155	2.87405589534272	0.24470125699390788	-0.347077116193178	0.5917783731870858	115.12549768775168
18	7.0	ltm	333	diff_vonmises	0.2726123495053085	15.619537069799492	0.9580305010568004	37.589264479224475	0.9124225888937322	38.21792062951561	0.1214882619020905	-0.18347789467120768	0.3049661565732982	88.61679412803878
19	7.0	perception	333	diff_vonmises	-0.042654525975278385	-2.443924315514593	0.854948290750321	82.55837437033351	0.8068186672290618	83.41339142551448	0.49772864757559887	-0.39174531432982107	0.8894739619054199	98.24479772113776
20	7.0	wm	333	diff_vonmises	0.3825668732621987	21.919467219440243	0.45689091178743996	107.41743951914798	0.4420343839854247	108.81784510291502	-0.03472721738151918	-0.3244511176545135	0.28972390027299433	119.4839148575719
0	1.0	ltm	334	diff_vonmises	0.14298060462875928	8.19218519745659	4.606514723456825	0.3419433041421451	3.831079660110308e-27	2.672783275728137	-0.14160639747587872	-0.4253583668594734	0.2837519693835947	63.67711908240565
1	1.0	perception	334	diff_vonmises	-0.044464507479144044	-2.5476286166828372	9.068238308747008	0.9451151276399875	0.034969379658319574	3.472842226449402	0.5463738397373511	-0.556425586007348	1.1027994257446991	44.729917755620335
2	1.0	wm	334	diff_vonmises	0.17943405881288876	10.28081427088072	1.1320305608950807	4.2798002426373385	0.4802717536222405	6.98638261683516	-0.1294645001156749	-0.5510243034324096	0.4215598033167347	87.41888316158065
3	2.0	ltm	334	diff_vonmises	0.06274727002337542	3.595153748307158	2.4063279048014063	1.0695796300605884	0.3622625304329494	2.1855354363448334	0.13261283266941748	-0.2813982579017038	0.4140110905711213	75.1125049837803
4	2.0	perception	334	diff_vonmises	-0.02924090032025794	-1.675380177513517	8.690348041049251	1.2127817316882625	0.18805522614693346	2.3308223118004787	0.9606200960066342	-0.38884670891173206	1.3494668049183662	45.07501410555213
5	2.0	wm	334	diff_vonmises	0.004028451351631177	0.23081326042223838	6.700720988074972	0.4581101770530644	0.00047675970265094935	1.9025288649751484	0.16059414813334483	-0.30270474416390347	0.4632988922972483	52.56929182709305
6	3.0	ltm	334	diff_vonmises	-0.055197959034665	-3.1626100904223162	0.7444855437383056	35.46061134406894	0.7031397021534638	36.06712562698547	0.10674136665406309	-0.18134491403259556	0.28808628068665865	100.9001475438357
7	3.0	perception	334	diff_vonmises	0.05257272476777763	3.012195246696549	3.6455362965688054	2.200454186522691	0.3871563780341655	2.62686117671929	1.0144675928722768	-0.3608665091455614	1.3753341020178382	66.60680478829772
8	3.0	wm	334	diff_vonmises	0.004101639385464913	0.23500662587177215	3.1716849032435523	0.5782120455841854	1.7192410730389523e-13	1.4349552337302751	0.1624629893974771	-0.2276929361378478	0.3901559255353249	77.11361758596814
9	4.0	ltm	334	diff_vonmises	-0.3791854503059321	-21.72572595529752	1.9233943291302744	0.7340537406443797	1.6647707142552138e-16	2.0665400715030517	0.040930560546642514	-0.3210045076410486	0.3619350681876911	98.58863592553632
10	4.0	perception	334	diff_vonmises	0.01888471451762699	1.0820144391694608	2.28236842255971	3.150989887838976	0.3506666621723564	4.665556199209191	0.7369164963916095	-0.5582863432246673	1.2952028396162767	80.01276645546167
11	4.0	wm	334	diff_vonmises	-0.2830798684823784	-16.219281729158695	1.7308364731024741	1.4331716615398422	0.12315047224007425	3.2627099352505247	0.09211032505789452	-0.4389287360953571	0.5310390611532516	94.3467031673039
12	5.0	ltm	334	diff_vonmises	-0.0530528737293464	-3.039705755732029	1.583355175178616	0.9708588213621573	2.179694967851212e-16	1.6095633452205562	0.1783928101602527	-0.2378566032073186	0.4162494133675713	107.91953152916557
13	5.0	perception	334	diff_vonmises	-0.01457122352125634	-0.8348696101097423	2.3158229830101833	2.1921646036560776	0.2428092990883971	2.84511629717254	0.6659968722005145	-0.35705761475972775	1.0230544869602423	83.09238338782666
14	5.0	wm	334	diff_vonmises	0.01578602644135821	0.9044726903717475	1.808159025302977	1.3487257097115974	1.391462102554148e-17	2.064386462374866	0.32594409325202384	-0.3109632612017385	0.6369073544537623	101.70316347038425
15	6.0	ltm	334	diff_vonmises	-0.30120394325711813	-17.2577147213308	0.33417874321313085	38.565072408536906	0.29730033006065704	39.1121160956183	0.14090870877100947	-0.24940426211640965	0.3903129708874191	142.00752350379696
16	6.0	perception	334	diff_vonmises	0.23887724006961314	13.686657677722188	0.5288491080098389	4.671979448163248	2.1549508758101098e-11	5.071418381980782	0.37085174658534625	-0.39807180495994576	0.768923551545292	149.69319115149352
17	6.0	wm	334	diff_vonmises	-0.3323254287429399	-19.040844491846038	1.731054852125292	1.0369509550246232	1.0658029179145412e-14	1.4839427004575116	0.2538591475610208	-0.22080754761576685	0.4746666951767876	103.49174829510868
18	7.0	ltm	334	diff_vonmises	0.20708833148399958	11.865287380439344	0.7478735599515206	153.09776125704366	0.7329221013315523	154.30171376980178	0.08673389025756961	-0.30328001225791823	0.39001390251548784	96.76954868227006
19	7.0	perception	334	diff_vonmises	-0.07137110109208064	-4.089262871777762	2.7253619362253576	1.5329843375131236	9.69206929076512e-14	2.0473993577163956	0.6242864331889433	-0.3217745634926172	0.9460609966815605	83.29726061746618
20	7.0	wm	334	diff_vonmises	0.32338720922343644	18.528722237017035	0.4168670243909122	85.3277894521618	0.39958912956239345	86.44177142736912	0.016795390371530772	-0.2939128505324273	0.3107082409039581	127.26250898186396
0	1.0	ltm	335	diff_vonmises	0.021214051939450904	1.2154756425018554	0.2755020411292671	44.78764072472659	0.25084063109231924	46.89150320922507	-0.22814355414836918	-0.4066334811884822	0.17848992704011302	138.0139485077003
1	1.0	perception	335	diff_vonmises	-0.02436706039055156	-1.3961297195190037	10.264244884576438	0.8753328614130246	0.11486035886732451	3.5436715736154802	0.47368041024580965	-0.5888411901961976	1.0625216004420073	41.462001422512884
2	1.0	wm	335	diff_vonmises	0.051623631292230736	2.9578161961843095	8.108194180580677	0.250950657159665	0.07075556283964897	2.846822404307765	-0.20529358849288742	-0.4640109206196682	0.2587173321267808	45.71363740821033
3	2.0	ltm	335	diff_vonmises	0.11174752702169181	6.402661669367063	1.600495756424034	0.885866094130256	0.11613777430114246	1.8421578620055439	0.07092198263835997	-0.24412800181684152	0.3150499844552015	98.65715494628125
4	2.0	perception	335	diff_vonmises	-0.03600858242085168	-2.06313979896377	10.277475380361905	1.0634874963754661	0.20471826154936418	2.5509285034045224	0.8497579104163568	-0.43725858571752874	1.2870164961338855	41.34838105585837
5	2.0	wm	335	diff_vonmises	-0.12354834086741111	-7.078798497546325	3.3141466420132053	1.0204378943246157	0.3615912601849448	2.933738662139588	0.05812392955158785	-0.4361402872138995	0.4942642167654874	64.3787129768454
6	3.0	ltm	335	diff_vonmises	0.1345053269949995	7.706587558840532	1.3093135468664765	89.5249966004788	1.2888934652291673	89.9124443057768	0.17912564627619787	-0.14971329746456163	0.3288389437407595	77.3416197420762
7	3.0	perception	335	diff_vonmises	0.006808434014648307	0.3900945341326593	2.993906834771543	3.7638142932993963	0.8278578346173934	4.55336177555059	1.0553151485690122	-0.5027857667724174	1.5581009153414296	66.70802623065364
8	3.0	wm	335	diff_vonmises	-0.0749352127367024	-4.2934714267280185	3.692582985247781	0.5074916096843406	1.8664941057039318e-12	1.7283904806726411	0.0983350445548265	-0.2748502028796508	0.3731852474344773	71.33115354814242
9	4.0	ltm	335	diff_vonmises	-0.28272777802544746	-16.19910843196972	0.7247508001933556	125.05150330903567	0.7080592147629907	126.42996507789354	0.003730910595606929	-0.3086822262956428	0.3124131368912497	95.07697458588251
10	4.0	perception	335	diff_vonmises	0.0001648979133503722	0.00944795448549028	1.431865161359707	7.950332530509611	0.6933889169840486	9.555205119764533	0.6413105125119514	-0.5787796507316136	1.220090163243565	86.0920715914765
11	4.0	wm	335	diff_vonmises	-0.25341645937980634	-14.519693581611367	0.862220971165322	219.47154644782745	0.8454446587982157	221.5890055750573	0.04112906652594006	-0.4854686967283861	0.5265977632543262	87.56063481486545
12	5.0	ltm	335	diff_vonmises	-0.02122101729370675	-1.215874727903529	1.3563483436014199	3.459681013049626	0.8149155774750212	3.8254989661358367	0.23786860358533812	-0.16463317244582307	0.4025017760311612	86.33129664472449
13	5.0	perception	335	diff_vonmises	-0.021819579239464038	-1.25016980117256	1.0359844247849475	284.6143776454299	1.018706346687647	285.38601997730336	0.6615288514507398	-0.4108657447552595	1.0723945962059993	89.30343680481906
14	5.0	wm	335	diff_vonmises	0.06824827503930797	3.9103381188003894	3.1573538808658452	0.9683817237609038	5.549111366912562e-21	1.7718709196611464	0.37091899005998086	-0.2808205492900387	0.6517395393500196	77.29025932976992
15	6.0	ltm	335	diff_vonmises	-0.29488245500689897	-16.8955201243517	0.6373561285780567	152.39569677498295	0.6256894195089354	152.88396688407883	0.20541477846410316	-0.2153948925913891	0.4208096710554923	111.65015358620042
16	6.0	perception	335	diff_vonmises	0.18286831187527694	10.477582477135442	0.6735837429497346	3.482229943093202	2.445041996821813e-17	3.8792500572344175	0.355950349682436	-0.36434216126232244	0.7202925109447584	142.8973819980033
17	6.0	wm	335	diff_vonmises	-0.2009173131965134	-11.511714077268337	2.161848997521249	0.9979412589359188	6.341607772392743e-11	1.4048103626837114	0.31589589292342624	-0.21643287497889802	0.5323287679023243	93.42126666471138
18	7.0	ltm	335	diff_vonmises	0.2392327017644998	13.70702413261776	1.3678925958177732	95.66698900456933	1.347975715447197	96.02886772501786	0.19579151601786293	-0.1499491618810591	0.34574067789892204	76.03469105529126
19	7.0	perception	335	diff_vonmises	-0.009546696810038394	-0.5469854355062062	1.4951512596081333	1.9240973247031343	9.10463499541755e-20	2.4578612609387234	0.44057586571188306	-0.3493626030307906	0.7899384687426736	110.61509775196048
20	7.0	wm	335	diff_vonmises	0.10695914595302564	6.128307643432148	1.2777223077559337	0.8364681460840188	2.646479771455453e-10	1.745459915180245	0.05127356469982258	-0.25224342538668776	0.30351699008651034	117.79134272449905
0	1.0	ltm	336	diff_vonmises	-0.737123475308418	-42.234064115188104	0.5630995979701101	1.0320481509936887	6.348486791823069e-18	2.555706540842853	-0.13988219119347706	-0.3202159789766064	0.18033378778312936	140.85880024756983
1	1.0	perception	336	diff_vonmises	-0.03167901656269649	-1.815073948167541	9.550101711891328	0.921314383356024	0.07250204843874883	2.8956880910692777	0.625290041214872	-0.470160289147863	1.095450330362735	43.3714855843306
2	1.0	wm	336	diff_vonmises	0.21921364035561056	12.560016404075188	1.9918862315279646	0.6583041010909781	3.1483211479523305e-18	2.3441660863777396	-0.03432963436179981	-0.36677884137574873	0.3324492070139489	97.13077905118459
3	2.0	ltm	336	diff_vonmises	0.3768140901314303	21.58985702559316	0.939354811598688	119.65360506626604	0.9241683197779249	120.30013298966537	0.1338449472217178	-0.19204861273579965	0.32589355995751745	89.03243340389403
4	2.0	perception	336	diff_vonmises	-0.006266111437010519	-0.35902173929935816	7.590776091004014	1.5622221759138164	0.5475152188155898	2.265037884108326	1.107598063448969	-0.4030367885567864	1.5106348520057553	46.70073127888992
5	2.0	wm	336	diff_vonmises	0.03288210011606855	1.8840055581773623	8.939794140536652	0.3732124955097898	1.0855326468611057e-14	1.395105127356407	0.21655452877681142	-0.22203786961683944	0.43859239839365083	45.42576189180008
6	3.0	ltm	336	diff_vonmises	0.18573471385625048	10.641815213033164	4.741413894088016	0.22578650863375574	1.2675937027217984e-29	0.4247325987797807	0.12269419321999803	-0.06758379945322425	0.19027799267322226	62.744854746853036
7	3.0	perception	336	diff_vonmises	0.04278856839088121	2.4516043802043734	4.3397098671440695	2.150316274184137	0.636220157311216	2.2425344152790556	1.1169984682209475	-0.3135495687993507	1.4305480370202983	60.211121262928174
8	3.0	wm	336	diff_vonmises	-0.02151543804828777	-1.2327437945420783	2.2463226108080034	0.49296767451965007	6.982332539411531e-20	1.041854914065161	0.10687515867657074	-0.162764555130079	0.26963971380664975	91.7273889386637
9	4.0	ltm	336	diff_vonmises	-0.5583709227523579	-31.99229727653542	0.9385665720612323	101.70693092072794	0.9165327695742177	102.74446046837653	0.08808309574983753	-0.2623008560119864	0.3503839517618239	86.36928237281646
10	4.0	perception	336	diff_vonmises	0.014206898188647553	0.8139953061815588	3.6077818706449096	1.8922831251458985	0.1125476252634986	2.982810695149422	0.8450313961647986	-0.4449961514826739	1.2900275476474725	69.758024614173
11	4.0	wm	336	diff_vonmises	-0.3409773377905349	-19.53656236500428	2.2975805532533533	1.193775060327647	0.24636719118830946	2.752955813695191	0.11711508529910475	-0.368370740170085	0.4854858254691897	78.93995790132563
12	5.0	ltm	336	diff_vonmises	-0.14313892670426154	-8.201256384186621	2.0872481035482955	0.5367508993560257	0.006732668553281029	0.7809852338642455	0.1589875950545099	-0.11909145500882659	0.2780790500633365	94.74592745852799
13	5.0	perception	336	diff_vonmises	-0.018346945304967457	-1.0512025329319963	1.6426486417417065	5.687148497408064	0.8751120421029739	5.894227764711573	0.7289294006616385	-0.2936877147238122	1.0226171153854506	83.14922732240149
14	5.0	wm	336	diff_vonmises	0.08671788353529099	4.9685687348791845	2.062829555464436	1.0835521432056636	1.1983794005829245e-12	1.4024268095973336	0.34631983285379914	-0.21400373699758402	0.5603235698513831	95.58378738844655
15	6.0	ltm	336	diff_vonmises	-0.5555942891041924	-31.833207887241525	0.7845742667462152	91.58128926299271	0.7680243689814505	91.81522074805892	0.21983142300114622	-0.14770786195663366	0.3675392849577799	103.04277666884586
16	6.0	perception	336	diff_vonmises	0.21562803180621073	12.354576167208553	1.2943188831190773	2.3265418861699123	8.368544898168353e-20	2.5556879526358744	0.5155423181536933	-0.3374621839151542	0.8530045020688475	117.02296283877513
17	6.0	wm	336	diff_vonmises	-0.21292024183773345	-12.199431230206942	2.988706168135226	0.7914533950548602	3.1951280281158056e-16	0.8894909099915131	0.3756785544726686	-0.14025541472295464	0.5159339691956233	79.4774528338719
18	7.0	ltm	336	diff_vonmises	0.20406439859818717	11.692028788551477	1.1706222747785902	202.9987174571126	1.1580266188556825	204.0450217037732	0.08617291031606555	-0.2716320168633857	0.3578049271794512	76.55313648569685
19	7.0	perception	336	diff_vonmises	-0.06614925557520362	-3.7900731623913986	1.8225503272235113	1.7168552762882714	2.4083285400964182e-17	2.3445326115791523	0.4640193871943804	-0.35127773362178577	0.8152971208161661	101.32805331595047
20	7.0	wm	336	diff_vonmises	0.19725621767155518	11.301948755294	0.7470804240873027	1.3093146894306338	3.694029398363889e-11	2.3193383248442165	0.015197345159464193	-0.2828742124228573	0.2980715575823215	139.3380383669998
0	1.0	ltm	337	diff_vonmises	-0.17772990961656082	-10.183173714270518	0.6196789552220862	1.2122380001423085	2.7142607251466026e-17	2.578227253747404	-0.08390221048664381	-0.3158110852009034	0.23190887471425958	145.64037407456556
1	1.0	perception	337	diff_vonmises	-0.0971716193337724	-5.56752367627699	10.74112509295976	0.9420474685330439	1.3877293648794308e-22	2.4699436467487557	0.8232460650152835	-0.3931037399687141	1.2163498049839976	41.404787480196944
2	1.0	wm	337	diff_vonmises	0.07923600493389811	4.539888668190129	3.6234186306901117	0.5831369861335306	1.732093503321714e-19	2.1863931338203884	0.07661363311510527	-0.3476727167549192	0.42428634987002445	72.03168126253041
3	2.0	ltm	337	diff_vonmises	0.05852546061591379	3.3532618873509796	2.0813800204035293	1.2251958978671624	0.43045318069535377	1.9020912152674812	0.20269331561483078	-0.2120806601349853	0.4147739757498161	80.11613231815178
4	2.0	perception	337	diff_vonmises	-0.014719896230299595	-0.8433879288666972	7.0797048223655885	1.3705494497246522	0.28919968734262147	2.0856939246431323	0.993056911455177	-0.34542942196097925	1.3384863334161563	49.410260185748996
5	2.0	wm	337	diff_vonmises	-0.022133042053804286	-1.268129897468549	7.301966232848494	0.4726176369231326	0.20673574003237827	1.4522742263370383	0.21890500294392534	-0.24219135298269753	0.4610963559266229	48.21938412934793
6	3.0	ltm	337	diff_vonmises	0.04509419558768805	2.5837070877119843	2.1047261424336994	0.8120016153952616	5.442829569623641e-13	1.3254621279082757	0.2210144187905671	-0.20453646298348557	0.42555088177405265	94.67622558796091
7	3.0	perception	337	diff_vonmises	0.012494394081750517	0.7158760484575383	3.9329537782457704	2.31786371917906	0.44700434958385726	2.8521403203842284	1.0900323017499063	-0.40058262582031806	1.4906149275702243	63.71979758018065
8	3.0	wm	337	diff_vonmises	-0.004240971268418303	-0.24298975471661216	3.3603759131854214	0.5944494189439916	7.124185702009411e-17	1.4514941030509132	0.1840742128203744	-0.23051198957425617	0.41458620239463057	74.86570330390845
9	4.0	ltm	337	diff_vonmises	-0.3134474204979051	-17.95921429379237	3.3812661390593854	0.8476992989111823	1.6672703791133907e-28	1.987612471709781	0.2776582413883523	-0.31565151193475965	0.593309753323112	74.61545104873743
10	4.0	perception	337	diff_vonmises	-0.020742367354935544	-1.1884501065477435	1.0243339033180479	251.4582169771151	1.0003269179367276	252.79866102401166	0.6826001857536994	-0.5430366416229297	1.2256368273766292	88.41365324002831
11	4.0	wm	337	diff_vonmises	-0.2877839215857345	-16.48880411858642	1.1233923149062264	135.37221150208734	1.096342048784278	136.90997161013283	0.13134659399389648	-0.39652729294817846	0.5278738869420749	78.60362487029127
12	5.0	ltm	337	diff_vonmises	-0.12896344278619765	-7.3890609831259875	1.415617429449701	1.0542560844750468	2.4694426272479188e-18	1.1544483193392905	0.2572063417153414	-0.1577452977620134	0.4149516394773548	113.09460624581537
13	5.0	perception	337	diff_vonmises	0.011648491723411916	0.6674094134445735	1.1600487864438433	296.8753652853031	1.146645206795959	296.87366775400244	0.7405241826190121	-0.2634505282686668	1.0039747108876789	87.74185613773409
14	5.0	wm	337	diff_vonmises	-0.01103913941235019	-0.6324960977841937	1.9808145472613452	1.2011660159203787	3.5319381311262803e-16	1.3500775054060998	0.40116607504378643	-0.20314607402643	0.6043121490702165	97.46779738450084
15	6.0	ltm	337	diff_vonmises	-0.3481832493446339	-19.94943068459871	1.0271379072143108	1.2656262998866175	5.099530102720464e-16	1.4515207171455886	0.2079504767793577	-0.17474736742696162	0.38269784420631936	126.56576602835558
16	6.0	perception	337	diff_vonmises	0.11004223797837576	6.304955804335151	1.2096111525741753	1.8692471031671511	4.4960013179821304e-13	1.9672391606646287	0.3989090835671844	-0.24973177921583745	0.6486408627830218	120.25305521268777
17	6.0	wm	337	diff_vonmises	-0.14624065553771462	-8.378972355537519	2.9083678002047666	0.6505549130093833	2.0930731876911029e-16	0.7130831098902332	0.3050810967631007	-0.11224432585646067	0.41732542261956135	80.59545338348465
18	7.0	ltm	337	diff_vonmises	0.20221968924731282	11.586334728318059	1.5288399999535334	180.52506105624684	1.5120031571216639	181.27849134036458	0.2014681272246719	-0.25561401993925514	0.45708214716392703	69.46650052811245
19	7.0	perception	337	diff_vonmises	-0.017248202146666784	-0.9882491871924932	1.460614427120901	2.2831460240605845	0.008174072342360447	2.6679447352094385	0.545061967904918	-0.36873139522556625	0.9137933631304842	111.3411053971731
20	7.0	wm	337	diff_vonmises	-0.10088860328648146	-5.7804911692850744	0.00017425311821376433	5647.473099177392	6.158028790079819e-30	5648.150204288293	0.048863803308222487	-0.26437940849245933	0.3132432118006818	179.69913472950122
0	1.0	ltm	338	diff_vonmises	-0.05358434830850229	-3.070157006036153	1.0079159589753743	0.7823397052760712	2.2448086559831992e-41	4.01654756485894	-0.3707487732847306	-0.6034859679422211	0.2327371946574905	128.23451750460282
1	1.0	perception	338	diff_vonmises	-0.0013769796980224306	-0.07889512517188386	8.448244585839031	0.9376907914818831	0.07954245298050455	4.444855787818603	0.3054694679159823	-0.7224049562668277	1.02787442418281	45.69954679930683
2	1.0	wm	338	diff_vonmises	0.09340837491693031	5.351905653915768	1.5816267213341915	2.027185265198783	0.24598627164160333	5.823223014031948	-0.26077470217583854	-0.7332032556792343	0.47242855350339574	85.2476798975649
3	2.0	ltm	338	diff_vonmises	0.1766312245978952	10.120223699686727	1.8534337230224969	2.2420486089198053	0.6643406042352725	3.5550844851077614	0.11700235172794848	-0.3354620716262834	0.45246442335423187	75.33631753155237
4	2.0	perception	338	diff_vonmises	-0.027233040151530434	-1.5603382639930057	8.680213876166755	1.1991701383355102	0.17872047726464668	2.6158947889847335	0.8937913964164023	-0.4361779820243919	1.3299693784407942	45.0431987041637
5	2.0	wm	338	diff_vonmises	0.06809786026101823	3.9017199868279913	5.0311505599094914	0.6242644725710259	1.952393581649712e-19	2.4303312739730805	0.15631400507758503	-0.38677606726096764	0.5430900723385527	60.86634029442888
6	3.0	ltm	338	diff_vonmises	-0.21718066543491465	-12.44353552126337	0.2580451525159548	27.77277864810469	0.21738422985365538	28.65183716357312	0.026384840686144884	-0.2674606688985821	0.293845509584727	149.90833703607342
7	3.0	perception	338	diff_vonmises	0.026527087896771672	1.5198901792575845	5.349939453447539	1.8093606824279242	0.16149404251632488	2.624364533120569	1.1384049146768231	-0.4085473947191452	1.5469523093959683	57.395156813054825
8	3.0	wm	338	diff_vonmises	0.06301410063921949	3.6104420164398996	1.293424848206562	1.2834513513778152	9.339101247738062e-16	2.7044115319486126	0.07815666401178617	-0.392144313901502	0.4703009779132882	117.28230809196741
9	4.0	ltm	338	diff_vonmises	-0.4836279221921058	-27.709838796289027	1.1358194781698572	1.4933338344497922	0.03139707266645953	3.254916853475805	0.013957535373223307	-0.4453368027852734	0.4592943381584967	118.9558797384551
10	4.0	perception	338	diff_vonmises	0.032027562650358124	1.8350441679563496	3.029943600565936	2.291905617818842	0.06620416451548145	4.246138752161353	0.7883398621325133	-0.6371428808041587	1.4254827429366719	76.58383830423915
11	4.0	wm	338	diff_vonmises	-0.3637713321841502	-20.842562042003298	0.6274313525418025	4.298118150481096	5.030433447542135e-10	7.335402235854307	-0.0037332018367202124	-0.8356664225550519	0.8319332207183316	143.90470998938298
12	5.0	ltm	338	diff_vonmises	-0.09396227705394734	-5.383641908630121	1.3341862746482558	1.4177837641173114	9.688264026051233e-15	2.062878552461319	0.2439692232117382	-0.28861827566626824	0.5325874988780064	115.85533223147984
13	5.0	perception	338	diff_vonmises	-0.03294117202629933	-1.8873901293213615	1.8184296740769974	3.3202774290762425	0.3580461278235579	3.9527166711002337	0.7450278938957801	-0.4039907314803902	1.1490186253761703	89.29405058441054
14	5.0	wm	338	diff_vonmises	0.004553492814515637	0.2608959203148926	1.9904483269181221	1.5560253454463433	1.862205365030861e-16	2.3189087047066006	0.4313285171402492	-0.3541226912540673	0.7854512083943166	97.24173842607598
15	6.0	ltm	338	diff_vonmises	-0.0671691619313349	-3.8485094920962872	0.0002281659282863127	5940.148754642259	3.6461043151828734e-34	5940.411057703774	0.1739737101462424	-0.25744275942554395	0.43141646957178637	179.85795090500616
16	6.0	perception	338	diff_vonmises	0.1490252292223656	8.538516675411213	0.745095445486431	3.680169119461728	1.7000338416446064e-15	3.914818946613072	0.45579145370946095	-0.37995320036939884	0.8357446540788598	139.64047547256726
17	6.0	wm	338	diff_vonmises	-0.28931770119496486	-16.57668321689854	1.4386343989580288	1.5159353888066358	5.3721360844427465e-09	1.81497254332806	0.35136829159503763	-0.2528215615286642	0.6041898531237018	112.09678361318372
18	7.0	ltm	338	diff_vonmises	0.31835047105970704	18.24013839772287	0.8851265468649508	121.90936731298102	0.866958843875257	123.03856817658864	0.06495018932573515	-0.2743144234750847	0.3392646128008199	88.03913282449835
19	7.0	perception	338	diff_vonmises	-0.0021745946585840347	-0.12459509608855739	1.9181652311218818	2.4511072875043363	0.1659306211031817	3.4778040079666956	0.58396199784443	-0.4424424484857486	1.0264044463301787	91.83595275027588
20	7.0	wm	338	diff_vonmises	0.43360638078890523	24.84381558914673	0.08425542597162763	99.95974209106357	0.07246747433946032	101.35373242620277	-0.043640724559985244	-0.38599336722388244	0.3423526426638972	165.76856002391457
0	1.0	ltm	339	diff_vonmises	-0.530955528909533	-30.42151091565261	0.0008776019245479033	675.6508578466968	1.3319882436203608e-30	676.4262445842911	-0.02901716873964233	-0.2177546897131748	0.18873752097353247	172.06304245525482
1	1.0	perception	339	diff_vonmises	-0.07881899073616488	-4.515995514662982	12.917060310326494	0.80377271831107	3.0434344078815162e-21	2.103132178002985	0.8056429792153094	-0.33472388209791515	1.1403668613132245	37.728116459834325
2	1.0	wm	339	diff_vonmises	0.09195222752728834	5.268474554140291	4.578320721741456	0.3773591530606919	2.776828337199143e-20	1.1995857990958119	0.1212129443861582	-0.19088707104269642	0.3121000154288546	63.8800590175033
3	2.0	ltm	339	diff_vonmises	0.2850395074135327	16.331560769283364	0.1522848554304839	99.52326989001433	0.14058278808925173	99.96455738573698	0.11741423139084972	-0.2316008707899595	0.3490151021808092	161.0470297551554
4	2.0	perception	339	diff_vonmises	-0.019376715607785727	-1.110204025151392	8.665807688479937	1.3480977973354018	0.42786174894111445	2.0498144102293256	1.0807119205695073	-0.3657470874756864	1.4464590080451938	44.36921674626842
5	2.0	wm	339	diff_vonmises	-0.09233440392799566	-5.290371648930321	8.69884783309558	0.39288511310224644	0.3304693300948782	1.0204040770381315	0.23524796229685407	-0.18069473644764295	0.415942698744497	43.94809870643962
6	3.0	ltm	339	diff_vonmises	0.01898025770356156	1.0874886604847454	1.4419971144568149	86.67940769886881	1.4262603654744126	86.70070941987699	0.23288829139094247	-0.0825324514252408	0.31542074281618326	78.31237510074709
7	3.0	perception	339	diff_vonmises	0.05424157366017164	3.1078132448758082	1.7507288802105383	237.22713159329572	1.7227446402606585	237.1610660217799	1.133084666020224	-0.3559526372053874	1.4890373032256115	71.59001535588393
8	3.0	wm	339	diff_vonmises	-0.13268254586711312	-7.602149893236545	2.969027954851332	0.8242023264842002	0.6178387372896069	1.0671774580286126	0.24959514852262354	-0.1276401019406536	0.3772352504632771	68.97900866519899
9	4.0	ltm	339	diff_vonmises	-0.2745963304360001	-15.73321080376256	5.973061513550895	0.37407429773170464	8.180331674758922e-15	1.3307289106877478	0.1445748543315376	-0.21178977295336987	0.3563646272849075	55.75892960972212
10	4.0	perception	339	diff_vonmises	-0.027864585394821482	-1.5965231410051455	3.0945620354164047	2.1472163372474857	0.1348118563295287	3.0031448259711246	0.8867936373745645	-0.4320395204255227	1.3188331578000871	74.85590970915652
11	4.0	wm	339	diff_vonmises	-0.4383566005567118	-25.115983133601656	1.6212826091904582	119.384055272955	1.5949628415132149	120.2535105220782	0.1461294216664868	-0.2764115376503611	0.4225409593168479	66.112540695499
12	5.0	ltm	339	diff_vonmises	-0.10535164623881929	-6.036204694239639	2.496720017232895	0.3290714536627891	2.8465448862529557e-20	0.5587294003311299	0.10486781537188716	-0.08761018802889556	0.19247800340078272	87.0449518974803
13	5.0	perception	339	diff_vonmises	0.021192135478331268	1.2142199217778378	2.2014352409401265	2.5298868019521543	0.5726428527197643	2.904906692235302	0.626275207574478	-0.2819639696289853	0.9082391772034633	79.06407842661227
14	5.0	wm	339	diff_vonmises	0.029467632063122248	1.6883709494612875	0.8109827664908716	108.87108801138798	0.7960005861090613	109.2342563527735	0.2014817602081962	-0.1643758532749704	0.3658576134831666	99.76010507785978
15	6.0	ltm	339	diff_vonmises	-0.5607816730967149	-32.13042309672679	2.0163544148590793	0.7170089388059865	2.1068605479677385e-15	1.3614350412932363	0.15503807657706883	-0.2100898967219659	0.36512797329903474	96.16537017629648
16	6.0	perception	339	diff_vonmises	0.26389796377140845	15.120239546198006	1.2830787261947925	2.135410752675291	5.464925074637172e-15	2.6357573212226866	0.42267742490885507	-0.35478925446085346	0.7774666793697085	117.29184511820426
17	6.0	wm	339	diff_vonmises	-0.16023554934827886	-9.180820705616608	5.817397640573558	0.3602272332058008	9.811022411144202e-14	0.859917842312852	0.20158954757534198	-0.1368571789111627	0.33844672648650465	56.51334801372377
18	7.0	ltm	339	diff_vonmises	0.18823826766257923	10.785258279919713	1.587273798259343	209.10680353350318	1.5756555291715473	209.67820333924104	0.16265536488127452	-0.19982531438284212	0.36248067926411665	68.19284308075501
19	7.0	perception	339	diff_vonmises	-0.0011215184511997203	-0.06425827389979276	0.8721688272578605	2.4508993248639905	1.6301182458078565e-23	2.878151939882389	0.31988913005816483	-0.322114906457867	0.6420040365160318	134.09750865642783
20	7.0	wm	339	diff_vonmises	-0.3914201238336197	-22.426721112154453	0.00016593369224339872	4133.816032164008	1.0856449112595296e-28	4134.375315334072	0.020159458558168808	-0.19817576422701677	0.21833522278518558	175.65823178334514
0	1.0	ltm	340	diff_vonmises	-0.4589974074537481	-26.29861425454636	0.00032064226304339425	2222.719663480746	2.899039643555021e-25	2223.459131728384	-0.004253088475081768	-0.23110878112754563	0.22685569265246386	174.05112224563442
1	1.0	perception	340	diff_vonmises	-0.10526868587891605	-6.031451415750297	11.556094955045957	0.9200454672412567	1.8937430891865378e-15	1.954804632808152	0.9225612494450292	-0.31111681997719065	1.2336780694222198	39.89154704554301
2	1.0	wm	340	diff_vonmises	0.1329756567507331	7.618943909797322	2.805309443841354	0.661489810119599	0.07818521638101669	1.5008292622868744	0.1589785537974744	-0.22315693272558154	0.38213548652305596	78.53102669643013
3	2.0	ltm	340	diff_vonmises	0.10538953298986364	6.038375445173943	1.3197194897148699	0.9614067423308023	7.528652105892078e-15	1.4490050234257037	0.15494947992049093	-0.2030863908212976	0.35803587074178855	116.32234752164828
4	2.0	perception	340	diff_vonmises	-0.01993529590087886	-1.142208318464809	7.181943619842241	1.4625845974024114	0.40833822018545474	1.9684891161382605	1.0822183713114402	-0.33334355968302515	1.4155619309944654	48.67714820352498
5	2.0	wm	340	diff_vonmises	-0.06862278377502393	-3.931795888747694	9.482225366056975	0.37246257564136953	0.30787792643448414	0.9258014045470164	0.2554072219031668	-0.16419074111406162	0.4195979630172284	42.42253485500777
6	3.0	ltm	340	diff_vonmises	-0.02728073246609031	-1.563070832332497	1.1009344073095952	112.85274488589576	1.0857555345686958	113.04723377836021	0.2513382815637826	-0.13266172303165824	0.3840000045954408	87.49215264093704
7	3.0	perception	340	diff_vonmises	0.06545501117385853	3.750295888243738	1.597046775104249	203.4075516876377	1.5671285376641113	203.35738094165524	1.0683604872943846	-0.340201514247088	1.4085620015414726	75.05362002913972
8	3.0	wm	340	diff_vonmises	-0.07719627010066943	-4.423020470920305	2.0539621167214683	2.2731813476734746	1.1412064576657381	2.5262645539374713	0.2614163833451927	-0.14546142819322233	0.406877811538415	71.74967175053877
9	4.0	ltm	340	diff_vonmises	-0.2608476931587211	-14.945471913718235	6.048148144275083	0.4662699603904288	1.9015875321893967e-21	1.4041707303748714	0.22367267146569333	-0.22347821749095687	0.4471508889566502	55.40265184302373
10	4.0	perception	340	diff_vonmises	-0.03557919776658125	-2.0385378704863903	2.431002437432829	2.7688424368048645	0.31238324741802653	3.662746943560514	0.8275670908266847	-0.45001800566132694	1.2775850964880116	79.76072984800305
11	4.0	wm	340	diff_vonmises	-0.4158661698930696	-23.827376377143352	1.600497522908017	110.30420591081291	1.5742382967141928	111.0807861633122	0.15092916594687011	-0.2512638632088642	0.4021930291557343	66.9626357982067
12	5.0	ltm	340	diff_vonmises	-0.16748626179814602	-9.596255927456957	1.0315520050925717	0.7744243268212618	8.457606729132029e-15	1.055116751304408	0.10131080996023972	-0.13371621086815835	0.23502702082839808	127.08066390322982
13	5.0	perception	340	diff_vonmises	0.03293387304392488	1.8869719284365654	2.355841570936668	2.1507465495172533	0.4871622178179316	2.4250047735343334	0.6313703471724693	-0.25794176054554	0.8893121077180093	78.72209975211004
14	5.0	wm	340	diff_vonmises	-0.030387044581690198	-1.7410494064067243	0.691561466834175	101.14708549803224	0.6754771540860133	101.4586953564924	0.2226203762234995	-0.1770960615319046	0.3997164377554041	109.0153379896615
15	6.0	ltm	340	diff_vonmises	-0.5362408913321872	-30.724339875667738	1.9520539331056461	0.7245695481914407	5.310448650563491e-18	1.380807134799011	0.14857636033376853	-0.21233663220952045	0.360912992543289	97.65986435289481
16	6.0	perception	340	diff_vonmises	0.25272417122071383	14.480028391888485	1.1131900096333254	2.2024433439075284	2.0571618785624613e-15	2.669340039724404	0.37462378450926204	-0.33855522326610554	0.7131790077753676	123.54806938794283
17	6.0	wm	340	diff_vonmises	-0.2121284931552348	-12.154067372264725	5.499508427500814	0.33315815154599643	6.457255961876454e-20	0.7946466310100649	0.17739793623562983	-0.1264668589987615	0.30386479523439136	58.15722979428506
18	7.0	ltm	340	diff_vonmises	0.1863208208957572	10.675396672739806	1.4008035401478554	171.16739145226245	1.3840463507081462	172.02049118636697	0.16064094241914972	-0.26072046010218486	0.4213614025213346	71.7396590482316
19	7.0	perception	340	diff_vonmises	-0.08913611839247242	-5.1071233860671015	1.710181038449033	1.6012336748222782	3.109126675000625e-25	1.8972456759667657	0.4491744367494708	-0.27739346939868664	0.7265679061481574	104.29580520912225
20	7.0	wm	340	diff_vonmises	-0.2638616576968583	-15.118159361355596	0.000208532686491454	3294.259667400836	1.163255132356475e-31	3294.8271167016487	0.019026315735004573	-0.1996396384148511	0.21866595414985568	178.00544598372943
0	1.0	ltm	341	diff_vonmises	-0.28123499017273856	-16.113577988301103	0.949514849606402	1.0074757220256805	1.7342925222922022e-16	2.6773091135446965	-0.09148400683208247	-0.37600911043946633	0.28452510360738387	130.0627497389262
1	1.0	perception	341	diff_vonmises	-0.1021277932695104	-5.85149152532752	12.6609313841786	0.9505904033920253	0.039535403232009526	3.0611478369749094	0.8288566165735772	-0.4945151029297303	1.3233717195033075	37.89032387975686
2	1.0	wm	341	diff_vonmises	-0.008661950378640256	-0.49629319904783203	5.51356101954784	0.506630392165619	8.724775423429719e-21	2.3783563094937046	0.08410252626096809	-0.37851964002315047	0.46262216628411856	58.091415537150425
3	2.0	ltm	341	diff_vonmises	-0.0139627108392504	-0.8000044016506156	3.364511340895101	0.6835745632778336	0.007016603474296046	1.357195377018681	0.2601307997704859	-0.21392025602755954	0.47405105579804546	74.53549346823425
4	2.0	perception	341	diff_vonmises	-0.04262707106103327	-2.4423512648014545	10.492249205409172	1.0068130491246214	0.17455048060358289	1.8410399216459348	0.9381753383047349	-0.310722581160234	1.248897919464969	41.23752547780407
5	2.0	wm	341	diff_vonmises	-0.09447934057097652	-5.413267465896085	6.4966038378591	0.5077432032329655	0.17247150084060658	1.3855770724348155	0.24536160036783566	-0.2252125644709538	0.47057416483878944	51.41618313562614
6	3.0	ltm	341	diff_vonmises	-0.062142060292948595	-3.560477785033451	2.886509756600453	0.6696322862705114	1.2897324486625865e-12	1.1819995722346455	0.24085647219744646	-0.18678657700925402	0.4276430492067005	80.91005117377244
7	3.0	perception	341	diff_vonmises	0.009727345377407163	0.5573358359915214	4.156394989609853	2.2184716071210455	0.4411293156703772	2.7025219981582027	1.104257877806948	-0.38729888519960187	1.49155676300655	62.30854834636264
8	3.0	wm	341	diff_vonmises	-0.051184204542083646	-2.9326388979957314	3.571291628654533	0.6803842450355229	5.966466162662736e-12	1.3504300906506608	0.2765641820178627	-0.2145389963662571	0.49110317838411977	72.56299646305985
9	4.0	ltm	341	diff_vonmises	-0.3395402738028686	-19.45422466362076	2.2268532535034007	1.064440811690395	3.9125071609477587e-14	2.1681451052471283	0.24065578895691253	-0.33825491455408996	0.5789107035110025	92.01269499487293
10	4.0	perception	341	diff_vonmises	-0.046203017032060756	-2.6472378767081404	2.636994483442309	2.321059885518368	0.026401145099634673	3.275675884865892	0.8760450760915305	-0.5004372381602455	1.376482314251776	83.77667809312157
11	4.0	wm	341	diff_vonmises	-0.20163700341320984	-11.552949289241898	1.15709230204646	191.3192398721791	1.1392649314281542	192.4548029430993	0.21688520001352174	-0.3325829895930781	0.5494681896065998	79.52574022645854
12	5.0	ltm	341	diff_vonmises	-0.073796973650538	-4.228255131013971	1.2281223209437981	1.5133655460289452	8.738172926033987e-13	1.6848694421209076	0.3134569921544504	-0.2182773557005581	0.5317343478550085	119.62952903689076
13	5.0	perception	341	diff_vonmises	0.027051932819355185	1.54996157822049	1.1644986738123313	190.5869730288366	1.143614464049142	190.8795505596245	0.6321260622519844	-0.2870872764084371	0.9192133386604215	86.03700730265501
14	5.0	wm	341	diff_vonmises	-0.027875697700269843	-1.597159829207997	1.0357364733581316	5.836414978697242	0.6181762723867223	5.933402421425195	0.43764879991896044	-0.20935945881622087	0.6470082587351813	102.45264276911738
15	6.0	ltm	341	diff_vonmises	-0.3374294653928804	-19.333284250367715	0.9040878307070668	2.8313831871935236	0.26474761348450243	3.1789533807715653	0.2680484058243533	-0.2313734118263006	0.4994218176506539	118.55952776211915
16	6.0	perception	341	diff_vonmises	0.263321672210819	15.087220472007221	0.5479417198279475	4.1629832482939015	2.1728405840253567e-17	4.2574265396761755	0.3870095741999273	-0.3217536424469014	0.7087632166468287	148.53469549166016
17	6.0	wm	341	diff_vonmises	-0.2394702310200299	-13.72063355647052	2.683454114624518	0.8441026912867177	0.04378933002251837	0.8432617749476856	0.37832693804782935	-0.12597698564279952	0.5043039236906288	82.88840138392183
18	7.0	ltm	341	diff_vonmises	0.17258231499395033	9.8882382677507	1.285475338943016	205.78662954314768	1.270716913719485	206.51363609022857	0.26903952676025256	-0.2585386554676532	0.5275781822279058	77.28475232187111
19	7.0	perception	341	diff_vonmises	-0.051451093793940535	-2.947930525724535	1.5637674100018628	1.9475706771048344	1.1839051276744728e-15	2.2153084998222883	0.5125981031368577	-0.3146603295521255	0.8272584326889831	108.50464424944444
20	7.0	wm	341	diff_vonmises	0.05246968700479489	3.0062916177471686	0.7280864983186506	1.6277667659114712	9.230047545685633e-15	2.1546821369987383	0.1289848248673719	-0.23291273746066007	0.36189756232803194	140.7025350964951
0	1.0	ltm	342	diff_vonmises	0.14410924168465475	8.256851337361471	2.0728940261861553	0.46617428526288474	6.2793667605700716e-21	3.351050195727939	-0.2875969688097929	-0.5294457542728989	0.24184878546310595	95.34366242619544
1	1.0	perception	342	diff_vonmises	-0.0043703371435094875	-0.2504018733723536	9.599223766648285	0.9060146142185945	0.13510564082104864	4.398232866198974	0.30680559990640577	-0.7365194689264839	1.0433250688328897	42.47921361399574
2	1.0	wm	342	diff_vonmises	0.05314952252211334	3.0452433236526093	7.425626879181317	0.3383391526550663	0.1363343462568412	4.053189641159919	-0.3746969588926542	-0.6793112533896769	0.3046142944970227	45.83296714175492
3	2.0	ltm	342	diff_vonmises	-0.004787796848290121	-0.2743205525730612	2.8771874285925976	0.6344020199702224	0.07657931758806924	1.8836034991113295	0.08250596742336563	-0.2831077304511086	0.36561369787447423	76.85217719975586
4	2.0	perception	342	diff_vonmises	-0.055068138819524014	-3.1551719399992573	11.86044998601297	0.8877134983518915	0.08611490183407973	2.7284483669486237	0.7337931875341468	-0.44930747166807733	1.1831006592022242	38.93756719094162
5	2.0	wm	342	diff_vonmises	-0.14583969126797086	-8.355998795145656	2.0184945222983846	2.4011449875619304	0.5349527982492926	4.878586264711041	0.009900218285828988	-0.5610078841755195	0.5709081024613485	73.23477986553087
6	3.0	ltm	342	diff_vonmises	0.10900971509568323	6.245796600906188	1.1565248405583293	50.342193583921734	1.1129109525072993	51.03798298435749	0.1567371006100764	-0.21126737972926346	0.36800448033933986	80.57269327488774
7	3.0	perception	342	diff_vonmises	-0.006252306228503201	-0.3582307591165907	3.3415613280060796	3.117477547103179	0.5983145045906982	4.324062588525339	1.0230471856384005	-0.5629879070196672	1.5860350926580677	65.67234902968636
8	3.0	wm	342	diff_vonmises	-0.03449115340748935	-1.9761975207874078	3.2120205343055144	0.6604761077643373	1.2114818500747006e-16	2.413825097255406	0.06548414328317798	-0.3834428134295286	0.44892695671270655	76.61543925823523
9	4.0	ltm	342	diff_vonmises	-0.17486973079482795	-10.019297539132525	0.5127759883583686	117.33981769578516	0.49608796353383044	119.01107695470984	-0.044904312605346774	-0.37297485910910133	0.32807054650375456	112.33289359834487
10	4.0	perception	342	diff_vonmises	0.01165952964623625	0.6680418398369989	0.9646616673106373	297.27948418165266	0.9427099314728293	299.240706538467	0.5900581028827077	-0.6495183289124071	1.2395764317951148	89.31577268451764
11	4.0	wm	342	diff_vonmises	-0.1392075893795264	-7.976007347637045	0.6409583865470112	248.65379278405976	0.6250681695216506	251.36406834605174	0.017412450186682804	-0.6211735861218664	0.6385860363085492	101.80088923944683
12	5.0	ltm	342	diff_vonmises	0.017824481259093132	1.021267548156068	1.6059867719349754	2.274115471531566	0.5243991282416626	2.8629636012935205	0.307248941874008	-0.2370208292707032	0.5442697711447112	87.56053348593204
13	5.0	perception	342	diff_vonmises	-0.033680808539311824	-1.9297681798907507	0.9447083121662273	347.55016507037095	0.9295124089438801	348.6539111074601	0.6413985866426231	-0.4852171941161778	1.1266157807588009	92.414147693606
14	5.0	wm	342	diff_vonmises	0.04243247773704116	2.4312018886152846	3.255849125906539	1.1699616201241516	1.3688181712598814e-15	2.309350058708069	0.4350004698858584	-0.36635171232028924	0.8013521822061476	76.09111688930005
15	6.0	ltm	342	diff_vonmises	-0.17480431964897636	-10.015549756542113	0.5903888788957613	134.35501415058545	0.5756616423574193	134.91496039200325	0.22773724910390314	-0.2532103118171367	0.48094756092103985	115.95074340559852
16	6.0	perception	342	diff_vonmises	0.1568325800245963	8.985844925557108	0.14846439002977213	15.115558815598899	6.406008180613339e-11	15.53558243949331	0.30287464531033903	-0.4101442236300805	0.7130188689404195	170.77446106442383
17	6.0	wm	342	diff_vonmises	-0.32734422818939835	-18.755442723219875	0.6112095762789487	71.80728252327704	0.5775751111401708	72.30988375455694	0.3255182418878988	-0.2913651406374438	0.6168833825253426	116.14959271129838
18	7.0	ltm	342	diff_vonmises	0.31826721320746054	18.23536807417782	1.7478390182841796	1.2907959231692494	0.5093398973539544	1.622443309472485	0.2104301135555014	-0.14475071060123862	0.35518082415674	85.73849386317679
19	7.0	perception	342	diff_vonmises	-0.010114083154510078	-0.5794942783977896	0.7780397389882378	107.51511515614602	0.7458681331210422	108.0934083593688	0.49077523446897686	-0.3449268493848443	0.8357020838538212	103.74102727787596
20	7.0	wm	342	diff_vonmises	0.16748669031266397	9.596280479530297	0.5976753119742504	85.14554130756368	0.5762557771337679	86.20795411451613	0.06735806594130977	-0.2788069978396335	0.34616506378094325	109.05783162240363
0	1.0	ltm	343	diff_vonmises	0.19227946602751272	11.016801890405572	2.3313053269324486	0.33227067337311517	2.5090462019701686e-25	3.3499708082435493	-0.3452532076279235	-0.5313901965424215	0.18613698891449798	90.03050335123731
1	1.0	perception	343	diff_vonmises	0.030223334960334663	1.7316695360373675	7.993727184607355	0.9092420046738985	0.05811978690702215	4.170217124500943	0.3055815171481199	-0.6712317968562579	0.9768133140043778	47.216403431146176
2	1.0	wm	343	diff_vonmises	0.2386902015926741	13.675941162387026	3.0833664647049535	0.5327737710938215	0.04922018738101955	4.093824584710945	-0.3296002852988912	-0.6361454910485845	0.30654520574969335	72.66647545523386
3	2.0	ltm	343	diff_vonmises	0.2637495609346984	15.111736689986751	0.923509938600284	160.3840499676126	0.9082612178544109	161.74665020152892	0.023527912561689845	-0.31280815466910994	0.3363360672307998	84.28154833285592
4	2.0	perception	343	diff_vonmises	-0.026026668421468304	-1.4912182553365503	8.173504795322716	1.4304741556834422	0.30098002133472523	2.947161399520327	0.9848795444565184	-0.5072709807141718	1.4921505251706901	45.7524165928628
5	2.0	wm	343	diff_vonmises	0.09985355373497233	5.721187198396692	5.093046014656442	0.5720871423965145	1.247429515919699e-15	2.7236394303300155	0.06746288115126342	-0.4334617952491351	0.5009246764003985	60.487635348792054
6	3.0	ltm	343	diff_vonmises	0.17182012656408852	9.844568087525914	3.5688554421651633	0.2927364025298158	2.426783176179321e-35	0.9244556937331531	0.06425118308905867	-0.14696373066114607	0.21121491375020474	72.58614676170816
7	3.0	perception	343	diff_vonmises	0.04432293404046066	2.539517056155125	3.974471956613902	2.0839087251162813	0.3035465307607028	2.7487268260454636	1.0172303527015412	-0.39769056111378354	1.4149209138153247	64.65435859218724
8	3.0	wm	343	diff_vonmises	0.09564860566266514	5.48026142078182	2.3646795064917847	0.5417245538375938	1.9026807217935486e-10	1.781486383069163	0.02540074953463073	-0.28080337292328095	0.3062041224579117	89.43201602773465
9	4.0	ltm	343	diff_vonmises	-0.3463247968001651	-19.842949197375297	0.27904503678131304	45.85637778134139	0.25526831098499875	47.53072373676187	-0.14524539601623765	-0.35090687950813493	0.20566148349189728	139.91515172159544
10	4.0	perception	343	diff_vonmises	0.05139083034309174	2.9444776843320053	2.4597068792968138	2.7788045432150486	0.2795518691326593	4.86070959151136	0.6187167423358593	-0.6327534456672013	1.2514701880030605	78.16291439327867
11	4.0	wm	343	diff_vonmises	-0.5116268683675113	-29.31406024295372	0.2815908682810204	7.407070120621445	2.366296527390779e-14	10.495406831153916	-0.13863409000814086	-0.7982117375584723	0.6595776475503314	158.56627956835698
12	5.0	ltm	343	diff_vonmises	-0.041536286231147274	-2.3798538976920915	1.9085649182585824	0.9313031766920732	0.16499583330430037	1.8733011791428849	0.11775564485773998	-0.24621117174130214	0.3639668165990421	89.46328190024815
13	5.0	perception	343	diff_vonmises	-0.039038172120629086	-2.2367225024173214	2.5606725265721035	2.0561110778407476	0.06615522746530496	3.2633420799942225	0.6746336618621289	-0.4798348703857729	1.1544685322479018	83.38839962065373
14	5.0	wm	343	diff_vonmises	0.07676976670375141	4.398583626328909	2.3131529781741493	1.1973646461603578	5.589147913269155e-19	2.583147522095174	0.2628580419355585	-0.40452112650280403	0.6673791684383625	90.41150422910653
15	6.0	ltm	343	diff_vonmises	-0.2363493223016644	-13.541818658662594	0.22298998393686828	76.95299343218682	0.20594422958601913	77.69782415605646	0.08435514078006534	-0.2797669277073247	0.36412206848739004	153.387655593348
16	6.0	perception	343	diff_vonmises	0.1948804892887451	11.16582954568954	0.30944368703110486	144.51560560582624	0.2885427572844836	145.50813622677123	0.33378335892186684	-0.5161490767492118	0.8499324356710787	144.71603329717223
17	6.0	wm	343	diff_vonmises	-0.34035146187603665	-19.50070231660464	1.1667831750377535	1.7539094485150972	4.81472205915316e-17	2.749207641913829	0.2166052571638396	-0.37412442461604406	0.5907296817798837	121.26293787050649
18	7.0	ltm	343	diff_vonmises	0.39593307196668576	22.685293993340583	0.5531414752825652	104.70692703606464	0.5371922480162342	106.12956893277548	-0.04681007424874295	-0.307292195110648	0.26048212086190503	107.07432933412312
19	7.0	perception	343	diff_vonmises	-0.05921949638432695	-3.393027207712173	2.766292548046835	1.6480115616325215	0.02687038374784667	2.8966173828805277	0.5567372561815456	-0.4446415316619967	1.0013787878435423	81.55210971243923
20	7.0	wm	343	diff_vonmises	0.7776017846194955	44.55330040053794	0.15950869458772807	15.40641845933007	0.08827623243689825	17.2411006718441	-0.13358805979579547	-0.4300133779550497	0.2964253181592542	151.33057437880151
0	1.0	ltm	344	diff_vonmises	-0.14901099958973826	-8.537701377517644	0.27410227289669076	57.70518814617351	0.2575595415408739	59.03993047659262	-0.10126028436979162	-0.29101521646712314	0.18975493209733152	142.26383216833133
1	1.0	perception	344	diff_vonmises	-0.07495100741425384	-4.294376395090486	10.648547051160849	0.9009667693690164	0.020618766932944493	2.514040324557326	0.7499305912365165	-0.4018992661030726	1.151829857339589	41.43862804052213
2	1.0	wm	344	diff_vonmises	0.10287891266113597	5.8945274963781	4.985921868086216	0.3552985620943514	1.0800059973562596e-19	1.9483762839307104	-0.00246675146680414	-0.3100793512796869	0.30761259981288275	61.148208961977446
3	2.0	ltm	344	diff_vonmises	0.10188213871209563	5.8374165559695	1.3902775612773706	1.3457062095213421	0.3208601555733196	2.0229527273179166	0.12421394680598802	-0.1986741629654346	0.3228881097714226	95.88283139001467
4	2.0	perception	344	diff_vonmises	-0.018942269186782944	-1.0853120788033688	7.997099142218344	1.3143937380403217	0.3082336442918336	2.191352095270529	0.9945941514717275	-0.3736172381938833	1.3682113896656107	46.45632775197828
5	2.0	wm	344	diff_vonmises	-0.05991436308244708	-3.432840136838647	6.524185697326689	0.4957791472911707	0.2723850192951242	1.6668929571825088	0.15265079326322523	-0.28080157770036324	0.43345237096358846	49.8687742701932
6	3.0	ltm	344	diff_vonmises	0.11946410637332533	6.844789098493461	1.198640708140145	100.15844014171942	1.181623505105267	100.4349407807516	0.21140531535737495	-0.13468010367411054	0.3460854190314855	82.51378960482049
7	3.0	perception	344	diff_vonmises	0.02558113746319318	1.4656912117849665	2.605445147349875	4.246178919356862	0.9443396736307547	4.644690696366651	1.0255158392939705	-0.41189599313025893	1.4374118324242295	69.80021391572808
8	3.0	wm	344	diff_vonmises	-0.040970085970324775	-2.3474130123877557	3.426462845702933	0.5857318011386605	0.2144063040286425	1.3216122435082838	0.1557927697844842	-0.19451259428701245	0.35030536407149665	68.31901346426429
9	4.0	ltm	344	diff_vonmises	-0.2755178165934771	-15.78600807146572	4.287263569327044	0.5109991461328393	8.377867742065853e-20	1.5998606701616158	0.1533423365259569	-0.25454868219668175	0.40789101872263867	66.06577327593854
10	4.0	perception	344	diff_vonmises	-0.01319102370985978	-0.7557899860319671	1.0844743414668037	299.5974156122337	1.0646848674511933	300.9041192050847	0.6508224332392132	-0.5198312287591698	1.170653661998383	85.66078215692218
11	4.0	wm	344	diff_vonmises	-0.3440170217733721	-19.71072342827437	1.1723946020912297	155.22449955859528	1.1504582112657722	156.67443565442005	0.09604926853440787	-0.3692415479317006	0.4652908164661085	76.17958060567688
12	5.0	ltm	344	diff_vonmises	-0.06030350664531776	-3.455136420615821	2.2665645505574616	0.6346477066172099	0.12076832979804729	0.8623774450983078	0.19862222811335659	-0.11822549612445632	0.31684772423781293	86.97300987644297
13	5.0	perception	344	diff_vonmises	0.0009838164330665626	0.056368529430328884	1.1506029587916637	232.74942484465268	1.1320217335885063	233.08668149291105	0.6818814776944606	-0.315242074241894	0.9971235519363546	86.4146443628992
14	5.0	wm	344	diff_vonmises	0.0497399639631845	2.8498900082232796	2.0421998239976324	1.131725896380452	0.1096367985287635	1.5615098845919737	0.31475784031038695	-0.21228890984579746	0.5270467501561844	91.5654209129716
15	6.0	ltm	344	diff_vonmises	-0.3945910335437846	-22.608400855763954	0.6539427870344318	70.85970514169091	0.6316533556673711	71.29392558964516	0.1821035627564953	-0.1894230742690084	0.3715266370255037	110.64252197179123
16	6.0	perception	344	diff_vonmises	0.17843595833567283	10.223627326006254	1.0079213429337401	2.283679236897427	4.013193600976047e-21	2.6321178723919303	0.36485750367297054	-0.3145081756029411	0.6793656792759116	127.96815548284039
17	6.0	wm	344	diff_vonmises	-0.17497797832414658	-10.0254996657052	3.0556044495801236	0.6357250444050069	1.342435534984811e-17	0.9503288666535584	0.26949846015975143	-0.1503163726024183	0.41981483276216974	78.5890854203264
18	7.0	ltm	344	diff_vonmises	0.16138299907072015	9.246564731915951	1.420819413270809	161.60957937100792	1.4050475250347847	162.26428977858245	0.18116897566795842	-0.21855743095484925	0.3997264066228077	72.35498074145008
19	7.0	perception	344	diff_vonmises	-0.05922526206906431	-3.3933575571136263	1.6745153758169256	1.8221802087197894	3.504736401207175e-18	2.181235681658582	0.49669141291194174	-0.31751760576662097	0.8142090186785627	105.29713553541777
20	7.0	wm	344	diff_vonmises	-0.030436907643160843	-1.7439063493825937	0.047299643745733186	17.862937327160708	9.491697637680427e-07	18.631614379533055	0.013693255055254205	-0.2551916927556377	0.2688849478108919	177.26600711912303
0	1.0	ltm	345	diff_vonmises	0.004371886524105054	0.25049064634133905	2.2703298324562486	0.4676064094054289	1.3966568432603723e-19	3.0000734488060323	-0.21716980967806915	-0.47469987137442554	0.2575300616963564	91.25064621625782
1	1.0	perception	345	diff_vonmises	-0.04354237157986157	-2.4947941215164504	11.544785193239889	0.8224255430980164	0.05692543962227242	3.932009985980588	0.4398371536603781	-0.6399248266182408	1.079761980278619	39.463645308242036
2	1.0	wm	345	diff_vonmises	0.0630387622481208	3.611855022545947	7.0929832612477135	0.33931641878491514	0.05342764302565141	3.2326835884019056	-0.18870673016243128	-0.5203416699848109	0.3316349398223796	49.32968583595246
3	2.0	ltm	345	diff_vonmises	-0.032453584696294474	-1.859453433168031	2.873789790429545	0.6294655226847229	3.763710386983614e-19	1.7984876844428117	0.11601765546524628	-0.28495478805078645	0.40097244351603273	81.09008783684786
4	2.0	perception	345	diff_vonmises	-0.0625748579015937	-3.58527526139217	13.076135649518603	0.925519770593776	0.1362487458016208	2.411499291398124	0.8836952532883329	-0.4081207745308701	1.291816027819203	37.00465307304705
5	2.0	wm	345	diff_vonmises	-0.14172918730685236	-8.120484266501759	4.380290858034504	0.7101940203458527	0.1695673568662959	2.389256376797661	0.12632116637591934	-0.37345880211362376	0.4997799684895431	60.92105638630076
6	3.0	ltm	345	diff_vonmises	-0.04556095527658047	-2.610450447932359	1.1644876845534606	112.36313695482114	1.1465691462202046	112.91699537567796	0.16975729702321019	-0.1833797749411641	0.35313707196437427	80.8580818921688
7	3.0	perception	345	diff_vonmises	0.03212005687949411	1.8403436969151576	2.9543158935586806	3.197374756044387	0.6511821169822811	3.7918857141344606	1.032088140030153	-0.43686376809295296	1.468951908123106	69.41572905809966
8	3.0	wm	345	diff_vonmises	-0.07630173894737231	-4.37176761119341	3.251361227880511	0.7709810789803627	0.17724611390121356	1.6678310252226447	0.21401932060829731	-0.24397667326461073	0.457995993872908	70.8905219850055
9	4.0	ltm	345	diff_vonmises	-0.30636326554902993	-17.55332211380511	0.5975978818619121	116.30683625209772	0.5815056863884163	117.70091461841126	-0.011471001914031831	-0.3139212198754695	0.3024502179614377	104.72689126959693
10	4.0	perception	345	diff_vonmises	-0.019466361837185312	-1.1153403757452498	2.5075943310818563	2.573006668417188	0.13884796865761648	3.9462036767857436	0.8009859907061387	-0.547938250712772	1.3489242414189109	82.05568372348645
11	4.0	wm	345	diff_vonmises	-0.19397622258839145	-11.114018880205055	0.8608608341533504	190.00104393012901	0.8443638831949036	191.56546773728138	0.10977866061742958	-0.3874475673619031	0.4972262279793327	89.77432571565039
12	5.0	ltm	345	diff_vonmises	0.04493570476165718	2.5746262322888733	2.216089280026868	0.8127001414605564	2.4849714926280605e-18	1.6339554334912991	0.1858610077150274	-0.25475017124831945	0.44061117896334684	92.33789674952297
13	5.0	perception	345	diff_vonmises	0.0009840909899443253	0.056384260380660974	2.1775933589798213	2.2818892113044713	0.27176990624932834	3.4627072127339056	0.5290041431429543	-0.4266029700776648	0.9556071132206191	83.35706830565826
14	5.0	wm	345	diff_vonmises	0.006252967315814065	0.35826863662939284	1.535863255496744	2.0224333957545912	0.2550535839168134	3.0130241246845593	0.27972500033089465	-0.32940084155773286	0.6091258418886275	95.9598265266005
15	6.0	ltm	345	diff_vonmises	-0.28862934831660964	-16.537243502153103	0.5821046869985776	146.42304520273964	0.567454747209188	147.3958125383984	0.15257267174706612	-0.30725992657782086	0.459832598324887	113.29650269510215
16	6.0	perception	345	diff_vonmises	0.33944922706478353	19.449008069790054	0.06712527999674164	36.842360266884825	1.9380304415591524e-16	37.53646786003493	0.28956825111064965	-0.4973096433534394	0.7868778944640891	172.78160616462264
17	6.0	wm	345	diff_vonmises	-0.34838010650210427	-19.960709768888705	1.022645378065449	3.149790817498845	0.3676390834563162	3.8870560838945214	0.2257200163131523	-0.2736040276475416	0.4993240439606939	106.86384177195104
18	7.0	ltm	345	diff_vonmises	0.274545269854786	15.730285247959506	0.8474846817931169	110.27085331253102	0.8284904859959079	111.00867307914325	0.17172554987187993	-0.23011984038283373	0.40184539025471366	94.52460172530613
19	7.0	perception	345	diff_vonmises	-0.07901157542162637	-4.527029804338779	2.3882791058514456	1.3672433743993821	2.3208347075115314e-19	1.8734491649313818	0.4861380520341325	-0.29155987777574255	0.7776979298098751	88.99604054675362
20	7.0	wm	345	diff_vonmises	0.21766102759966197	12.471058245941158	0.7172295137577988	105.39650096644918	0.7003105333006625	106.31590758217601	0.07830817139528179	-0.2387654761028486	0.3170736474981304	99.50901412392955
0	1.0	ltm	346	diff_vonmises	0.11528071028795242	6.605098158770043	4.2119642065418805	0.43814958779591523	1.0793512601506712e-24	2.7415886123976754	-0.0898977474536009	-0.4362613033826998	0.3463635559290989	66.67331301933987
1	1.0	perception	346	diff_vonmises	-0.08162120525824894	-4.676550580068667	10.346505813155249	0.952390896755794	0.03167636279994797	3.4553392827281453	0.6389883764439046	-0.5544981749867091	1.1934865514306137	41.92189648122806
2	1.0	wm	346	diff_vonmises	0.05214217523587631	2.98752657564727	3.813992099026912	0.6619794079442415	0.09429702010049788	3.37764445531681	-0.09354832837199945	-0.5256739708107527	0.4321256424387533	65.37211450241577
3	2.0	ltm	346	diff_vonmises	-0.04071355694660813	-2.3327149820061805	2.5042934301990227	1.1811063544888452	0.3663977547385422	2.2896073451118384	0.18832161379472612	-0.29582728082871734	0.48414889462344346	74.49644719608472
4	2.0	perception	346	diff_vonmises	-0.0445812287837861	-2.5543162548180876	9.781807611855609	1.0192171493349123	0.07415886272024176	2.2237294677084547	0.8736240247213072	-0.36061637670008595	1.2342404014213932	43.002300739540516
5	2.0	wm	346	diff_vonmises	-0.06800618420872769	-3.8964673359493225	5.364397075135983	0.5925449978859053	0.14712445393377052	2.0539584286455845	0.15671877960103175	-0.32777753301626417	0.4844963126172959	55.99515475311529
6	3.0	ltm	346	diff_vonmises	-0.030885025637295185	-1.7695816191703597	1.48920232066189	1.737714971798433	0.35613256931094495	2.5497839116197305	0.18793212343550425	-0.24884305658716738	0.4367751800226716	92.73519817924068
7	3.0	perception	346	diff_vonmises	0.01709900767734525	0.9797009737736753	3.5517875684184146	2.368667904385789	0.3602575307147628	3.1390259388709203	1.0123015109878428	-0.4348541562188145	1.4471556672066574	67.24194462454136
8	3.0	wm	346	diff_vonmises	-0.013775395108458228	-0.7892720008398154	3.415138404111575	0.7368454214105302	0.05058557495366627	1.8454931993977586	0.21042920353490424	-0.2832986201529691	0.4937278236878733	72.23474722152469
9	4.0	ltm	346	diff_vonmises	-0.2460217905559282	-14.096010267106182	1.7363455307319133	1.0630791526803516	7.618191710926737e-19	2.472672858502295	0.10977862475188349	-0.377918399715435	0.4876970244673185	103.46731884721272
10	4.0	perception	346	diff_vonmises	-0.014480034942058857	-0.829644889381932	1.161300043700262	15.520659537077684	0.7707033896999257	17.076914816960624	0.6834098564965156	-0.5945434159397149	1.2779532724362306	90.28771628984839
11	4.0	wm	346	diff_vonmises	-0.1933662162652489	-11.079068092412694	0.8504949890412122	209.90995129650005	0.8339903980135518	211.6612567462449	0.11806859116882151	-0.432149592859556	0.5502181840283775	90.25419476374725
12	5.0	ltm	346	diff_vonmises	-0.02628252675682243	-1.5058778581055847	1.643232372529918	1.2246614467208095	6.433442160580786e-14	1.7811646211336793	0.2771698496476678	-0.2625182146122208	0.5396880642598886	106.1918317072101
13	5.0	perception	346	diff_vonmises	0.001495569473423888	0.08568981879579171	1.0370662527078884	146.91475363152657	1.0065924229634209	147.5556473690014	0.6254629073698226	-0.37003366800743365	0.9954965753772562	89.88039354348982
14	5.0	wm	346	diff_vonmises	-0.02091169974595456	-1.1981521378879922	1.9916400808889145	1.3799539648428913	0.011266191934736791	1.999863307552156	0.38820511468750646	-0.30148706057978636	0.6896921752672929	96.71156389063049
15	6.0	ltm	346	diff_vonmises	-0.24110414058744986	-13.81424967878973	0.9231812452930515	1.6739388267208244	1.1905972791273673e-14	2.2419499522685	0.19078436888200356	-0.2703994533924504	0.461183822274454	131.35495258174853
16	6.0	perception	346	diff_vonmises	0.20383054284646984	11.678629840963215	0.2984867297615857	7.213129127739867	1.3760509905515046e-12	7.5666984404471425	0.30911993808906457	-0.3711819727221013	0.6803019108111659	162.08041571521858
17	6.0	wm	346	diff_vonmises	-0.28713150019154476	-16.451423126235305	0.7755831982159208	112.7676749750558	0.7579365249725514	113.1551679766676	0.2654106990759004	-0.20168776480927697	0.4670984638851774	102.80665469048853
18	7.0	ltm	346	diff_vonmises	0.18474628079834915	10.585182170484208	0.9943908430063069	145.95739911123988	0.977057781335787	146.82277959056074	0.18718375180068136	-0.25904424747345267	0.44622799927413404	86.60805962078794
19	7.0	perception	346	diff_vonmises	-0.05381025035811109	-3.0831002400620924	2.2621128633969505	1.7015843054482904	1.1905600982698223e-16	2.1036685423110266	0.6104005046292704	-0.3245601881597509	0.9349606927890213	91.4100863218319
20	7.0	wm	346	diff_vonmises	0.21410151276057668	12.267113068547383	0.38795149377929594	40.472174548907205	0.353950261112028	41.36069582936512	0.05548359438661521	-0.2689245882178195	0.3244081826044347	133.78190447307873
0	1.0	ltm	347	diff_vonmises	0.15947546636408277	9.137271158542463	0.7052422576813153	111.9328217352083	0.6855715456718187	113.79813274469898	-0.10608264351974128	-0.37457700688639406	0.2684943633666528	91.54801446432006
1	1.0	perception	347	diff_vonmises	-0.07520441721563352	-4.308895707196791	9.277706544270407	1.0816758773217412	0.12610502037936958	3.1940439422387215	0.7211808916187161	-0.5280409259549702	1.2492218175736864	43.682313279257016
2	1.0	wm	347	diff_vonmises	0.0746262259041023	4.275767785294918	9.928128186810213	0.19151025644523145	0.08459558894745266	2.680978352042781	-0.2260036362858677	-0.44367942487239215	0.21767578858652445	41.127794078086055
3	2.0	ltm	347	diff_vonmises	-0.10542416401942975	-6.040359657008274	1.1163017034655867	55.08687631253435	1.0754186510118497	55.881794350421174	0.1389200197978866	-0.2273174980752959	0.3662375178731825	81.20774985220211
4	2.0	perception	347	diff_vonmises	-0.04470792942682178	-2.5615756669256258	10.29943635564132	1.001073662941853	0.15287896962040343	2.1820408485489007	0.862718659307774	-0.36559043349841497	1.228309092806189	41.59536623622728
5	2.0	wm	347	diff_vonmises	-0.19313266153119144	-11.065686391865901	1.3074454058380038	168.5907702959569	1.284263492637473	170.38390830413564	0.0033476840002180097	-0.44125798457965715	0.44460566857987516	69.70852547920995
6	3.0	ltm	347	diff_vonmises	0.14487438456736487	8.300690795265234	1.449061810340949	140.7408250307162	1.4326023542784976	141.13902597608168	0.24238696488662725	-0.17536224919416377	0.417749214080791	74.02655713670384
7	3.0	perception	347	diff_vonmises	-0.023010377796433334	-1.3183975327371693	2.161100296862492	5.896467956224723	1.0041045005570663	6.819873761827595	0.8513807543512595	-0.49092410602994013	1.3423048603811996	72.07767199665832
8	3.0	wm	347	diff_vonmises	0.02049083411259626	1.1740383133544612	3.038990241011909	0.8388267842039424	0.465619210641457	2.0968825824271553	0.049499513292384445	-0.29879751759025275	0.3482970308826372	65.0025998335889
9	4.0	ltm	347	diff_vonmises	-0.061257119671661774	-3.5097744223140306	0.8935061727945187	120.99186462948717	0.8733931318182875	122.13649245544225	0.1001986401913797	-0.2904972277850213	0.390695867976401	88.70030297908744
10	4.0	perception	347	diff_vonmises	-0.016029845123818647	-0.9184424718431711	0.9538706448165623	457.07293435484826	0.9426225363990689	458.60764296645533	0.46873118329904173	-0.5112660138904346	0.9799971971894763	89.63311098904859
11	4.0	wm	347	diff_vonmises	-0.20894205061027205	-11.971497662777434	1.0172767093375776	241.7024521583779	1.0021941071993576	243.47892000258284	0.08126620437734289	-0.4290271583322287	0.5102933627095716	81.26853126272397
12	5.0	ltm	347	diff_vonmises	-0.016189062059860027	-0.9275649303053465	1.3446543684104353	123.0950181650351	1.3237822944773157	123.46904505393097	0.3139351701704598	-0.1913505054552349	0.5052856756256947	77.99186433549454
13	5.0	perception	347	diff_vonmises	-0.00867225060302869	-0.4968833584333271	1.0331030364232667	323.7205694005264	1.0184483389184293	324.53586324190064	0.6138193677408168	-0.4027368450856912	1.016556212826508	89.01932918832588
14	5.0	wm	347	diff_vonmises	0.09420406742384023	5.3974954763518905	2.9031813688481343	1.028182903527501	9.28832134868246e-13	1.8103476317600804	0.3727341572041104	-0.28613739695450485	0.6588715541586152	80.67115424726495
15	6.0	ltm	347	diff_vonmises	-0.1517449404998515	-8.694344653105286	0.9071901560184786	160.56130359104233	0.8911389283307645	161.20951762292725	0.28275485425683655	-0.25115526303803115	0.5339101172948677	93.41976562175572
16	6.0	perception	347	diff_vonmises	0.18019265206629906	10.324278462668229	0.00027749323387138777	6530.551244492451	1.2795413541746306e-30	6531.122858084757	0.19745826424264123	-0.37936850729283833	0.5768267715354796	178.86982341763047
17	6.0	wm	347	diff_vonmises	-0.3120570259358861	-17.87955055353074	0.8893131421215461	57.30599655593143	0.8457871451750058	57.67326179795368	0.36095278065920056	-0.22618398521255578	0.5871367658717563	97.60568302580349
18	7.0	ltm	347	diff_vonmises	0.054072369495038144	3.0981185603376242	1.1632042574136572	127.69686086323276	1.1434637340562492	128.21649236284148	0.27718210248105635	-0.21211678697568814	0.4892988894567445	82.78929590588882
19	7.0	perception	347	diff_vonmises	-0.12328008542931722	-7.063428593112112	2.3935931602056266	1.6033941525754531	3.1864318605542794e-12	1.7160906711670945	0.6479318265255094	-0.26544647813901395	0.9133783046645234	88.88894112220339
20	7.0	wm	347	diff_vonmises	0.2768521174218203	15.862457877530593	0.725266254851975	138.13956612221565	0.7096528240311526	139.06986458527064	0.14494267401925498	-0.27034277566106013	0.4152854496803151	100.90296775894839
0	1.0	ltm	348	diff_vonmises	-0.44752679495117986	-25.641396569719205	0.8771275739970379	0.990791149723731	0.10358777003790734	2.4355061225307755	-0.11335019349290937	-0.29396246753594896	0.1806122740430396	119.30998620605274
1	1.0	perception	348	diff_vonmises	-0.06172423762869309	-3.5365383097866987	10.534275165404114	0.987066389062774	0.15044672497471942	3.011383041248268	0.7078295164059603	-0.5073440111926184	1.2151735275985787	40.94286536790841
2	1.0	wm	348	diff_vonmises	0.020867055418281415	1.1955942063331217	9.794737252120646	0.18167156661427286	3.594084294067781e-32	1.9004442845483989	-0.07869247206193292	-0.3024651012611843	0.2237726291992514	43.37412023432498
3	2.0	ltm	348	diff_vonmises	0.21315025693985887	12.212610124783	0.6237252636140632	61.7213301125526	0.6014912741694235	62.21230693548203	0.12952026056924737	-0.1788145527200804	0.30833481328932777	111.63819703303375
4	2.0	perception	348	diff_vonmises	-0.0316507661527222	-1.8134553189065001	10.179929435158959	1.1308263121518336	0.3779297938668061	2.031905294171717	0.9652889515423263	-0.36970619235240326	1.3349951438947296	41.144225023051945
5	2.0	wm	348	diff_vonmises	-0.13593919651349146	-7.788742230622575	4.484400948028788	0.6966107514984152	0.4378808577253031	1.8365569315435426	0.13788678865283088	-0.29406499113760615	0.43195177979043703	56.89276656757366
6	3.0	ltm	348	diff_vonmises	0.11072335374378922	6.343980863053165	1.7934910141662534	69.42953517331426	1.7720664418405245	69.52085020246449	0.20048114185148336	-0.08970562334622656	0.2901867651977099	68.70563078800532
7	3.0	perception	348	diff_vonmises	0.005566436932856474	0.31893334317842276	3.125382490022556	3.630101535061211	1.0227025218554795	4.03874061928124	1.0360114508081841	-0.4169128981511733	1.4529243489593573	64.47371732774772
8	3.0	wm	348	diff_vonmises	-0.049890866352536097	-2.858536078251566	4.331243615076083	0.3893435694161292	0.0415248634112784	1.0553672603279711	0.13755487868184327	-0.1647823072800673	0.30233718596191056	64.48759286626165
9	4.0	ltm	348	diff_vonmises	-0.3459646115392872	-19.822312102084176	0.9657971051280207	136.05293377439776	0.9488316601947723	137.0049016209049	0.12205035406076092	-0.2552833708685789	0.3773337249293398	86.14880651526786
10	4.0	perception	348	diff_vonmises	-0.019090695934628935	-1.0938163050217964	1.8746646519717476	3.8208351339430626	0.5067534597737237	4.817887165495442	0.7004649088829147	-0.4526360256461023	1.153100934529017	83.80284132034481
11	4.0	wm	348	diff_vonmises	-0.2537090855856311	-14.536459828180051	1.208323654231219	224.4287134729488	1.1925112653290268	225.74771115653778	0.1571859248852263	-0.35963168132781576	0.5168176062130421	76.26185451288063
12	5.0	ltm	348	diff_vonmises	-0.08980034087487906	-5.145180530966705	1.3457033842914483	27.678242148753053	1.286920705872298	27.749442637827453	0.26676507739430555	-0.10641214836380364	0.3731772257581092	81.12972623484984
13	5.0	perception	348	diff_vonmises	-0.0016007079696531829	-0.09171381089408244	1.1808410428648934	260.5611565401303	1.1641187238984538	260.98048409267176	0.651882214442125	-0.32030130585180316	0.9721835202939282	84.80088660785714
14	5.0	wm	348	diff_vonmises	0.10293717661402309	5.897865774976281	2.5098157081062427	1.032317386734902	0.05297417541909991	1.2444048698523726	0.4011261170029697	-0.18367383442402205	0.5847999514269917	85.1874512298057
15	6.0	ltm	348	diff_vonmises	-0.3550732513729685	-20.34419872165886	0.8431761191886614	146.13277866504754	0.8292309236203322	146.46120706709755	0.2874106919259347	-0.19074138619728842	0.47815207812322313	99.11627721554454
16	6.0	perception	348	diff_vonmises	0.26580727376322055	15.229634950510997	0.8024937950848223	2.9515385004573056	3.355085390549372e-20	3.1899699589832387	0.3899187864849848	-0.32737278951123366	0.7172915759962184	136.43045790716127
17	6.0	wm	348	diff_vonmises	-0.2218435294144866	-12.710697947736417	3.242793309052316	0.8716631368279876	2.2524780038017877e-13	0.8049916618351537	0.46848641763664606	-0.12720834599143938	0.5956947636280854	76.2375026754888
18	7.0	ltm	348	diff_vonmises	0.1210861070854076	6.937722893662989	1.423463504988594	160.5223243921207	1.407474984190168	161.0018531386982	0.2568275128422499	-0.19922903087254795	0.45605654371479787	74.34788281440103
19	7.0	perception	348	diff_vonmises	-0.07213246321791786	-4.132885708269343	1.4738866587473791	1.8539416294770967	4.878934722393326e-19	2.12990457410178	0.4555602106014047	-0.2973055539067398	0.7528657645081445	111.26260460163813
20	7.0	wm	348	diff_vonmises	0.16364001855346821	9.375882422556215	1.271910252838893	1.2756696419978424	0.13182737767002048	1.9420380794629717	0.14938090480157173	-0.2304145811260666	0.37979548592763834	109.76769772903904
0	1.0	ltm	349	diff_vonmises	0.19887587203558482	11.394748114622843	2.4860954056840265	0.5191931742735062	3.1766271269752297e-22	3.278765856550215	-0.21685883934914107	-0.5197187055033619	0.3028598661542208	87.21142661563061
1	1.0	perception	349	diff_vonmises	-0.0633632875240747	-3.6304489512034244	10.07494957561919	0.8799373781322617	0.04507905355946935	3.8532538531026246	0.4583047518455845	-0.6215014118869352	1.0798061637325196	42.316651981076575
2	1.0	wm	349	diff_vonmises	-0.04074837563227345	-2.334709945742996	5.451322181137471	0.5422933525201673	0.15329949290540384	3.9588151956651543	-0.23786675943835922	-0.6472938373294173	0.40942707789105803	53.32217706171079
3	2.0	ltm	349	diff_vonmises	-0.04398412073460163	-2.5201044836865276	1.545050668714486	2.0870411259106705	0.44274575943601713	3.526617035485887	0.08774847824027199	-0.34536895576572224	0.43311743400599423	85.2609509891436
4	2.0	perception	349	diff_vonmises	-0.050984359676451624	-2.9211886306376575	9.378090702180257	1.037048291283456	0.07165136316459014	2.8012984376952903	0.7708314200078523	-0.45383850673577353	1.2246699267436258	43.82925433589284
5	2.0	wm	349	diff_vonmises	-0.07454290282648554	-4.2709937246114364	3.355770577104556	1.089089495746674	0.29237373051883647	3.422708212742016	0.04550445140681758	-0.5136046010055499	0.5591090524123675	65.15203899857534
6	3.0	ltm	349	diff_vonmises	0.09373563039818157	5.370656011813988	1.3805787321491576	3.1084265031086407	0.5208039404843694	4.332124328561516	0.19489752953931827	-0.33896651958674073	0.533864049126059	88.7457647937114
7	3.0	perception	349	diff_vonmises	-0.035607530240372595	-2.0401612016577992	3.4501207183829488	2.769977345079451	0.3296241535713277	4.416461777688556	1.0116034968693948	-0.6219646024386605	1.6335680993080552	67.66146769633289
8	3.0	wm	349	diff_vonmises	0.004558929346565401	0.2612074106565317	3.6908324113528255	0.6784638376984643	2.1215780163440884e-16	2.889098380138892	0.03927998162156149	-0.4595035465341136	0.4987835281556751	71.34848542263185
9	4.0	ltm	349	diff_vonmises	-0.007548461111672553	-0.4324949635174669	0.9612124122307704	1.7630765218391296	1.2290488995824891e-14	3.7496907597808753	-0.007293535318858124	-0.5105633179128976	0.5032697825940394	130.22269270662133
10	4.0	perception	349	diff_vonmises	-0.01644156882105925	-0.9420325020205795	0.8070049654463605	605.2553838057175	0.7964578274624309	607.6537451735328	0.49245331776154444	-0.7282140561803274	1.2206673739418719	96.23988954905286
11	4.0	wm	349	diff_vonmises	-0.1405188951245854	-8.051139632480183	0.6735147691340232	187.92092190271885	0.6509625084955548	191.04068863350687	-0.05248901862266564	-0.6780051842144701	0.6255161655918045	97.75113608336216
12	5.0	ltm	349	diff_vonmises	-0.004715520040234916	-0.2701793965148208	1.4580332307344923	2.410388575492056	0.40158778055050887	3.1102324615400816	0.315584909955943	-0.27430285713315194	0.589887767089095	93.86141545249669
13	5.0	perception	349	diff_vonmises	-0.006607799930630623	-0.37859904789197285	0.8967643006366028	446.1114028158391	0.8852125693821202	447.1118770148146	0.6618040411387938	-0.4789394890223093	1.140743530161103	95.22232525756743
14	5.0	wm	349	diff_vonmises	-0.023387799535850323	-1.3400222055022493	2.7162934221044144	1.2577617669054795	2.484363059959627e-12	2.4038614946422387	0.39543260383871165	-0.37918479206030353	0.7746173958990152	83.44135363428899
15	6.0	ltm	349	diff_vonmises	-0.1402380002019561	-8.035045538926871	0.9909773041841679	1.6125521129731646	1.8933827808071675e-18	2.2695385883004024	0.18706411862165817	-0.28565652273499653	0.4727206413566547	128.81170169749316
16	6.0	perception	349	diff_vonmises	0.037058077865956315	2.123271458586469	0.45695259316300685	4.486470192843666	8.030442763721184e-17	5.157197661246209	0.25021973600209924	-0.39136409714263326	0.6415838331447326	154.42213376088307
17	6.0	wm	349	diff_vonmises	-0.146333023084822	-8.384264626150747	0.745489207961396	133.6856369656322	0.7268562608204636	134.47541965796148	0.2465741237073118	-0.28357839821247843	0.5301525219197902	102.20776847704204
18	7.0	ltm	349	diff_vonmises	0.24599552230796717	14.094505207362811	1.4624381850275485	139.7332559937844	1.4472212972749603	140.2396328564643	0.1607870088796588	-0.17690851189883006	0.33769552077848886	71.6588507112717
19	7.0	perception	349	diff_vonmises	0.02324474970666961	1.331826054030127	0.7090479494148078	268.5571618400115	0.6935563866658989	269.6552112986691	0.4818859474879673	-0.468543486767949	0.9504294342559163	106.04017814965482
20	7.0	wm	349	diff_vonmises	0.3015772542692806	17.279103866773468	0.00037523464710405096	2023.3447446939667	5.711611038309893e-28	2024.5797744289987	-0.07571613100009245	-0.3173833737179734	0.24166724271788098	177.08871516649072
0	1.0	ltm	350	diff_vonmises	0.31019338790461265	17.772771959798703	1.0323828813559994	0.8376886111209657	1.8832332332233115e-16	3.979819951073623	-0.3420392036747048	-0.596447866466943	0.2544086627922382	126.46187107144593
1	1.0	perception	350	diff_vonmises	-0.0206254031349233	-1.1817485503870022	13.556805873424691	0.6178515493707097	5.208330155150471e-22	4.114158719589218	0.24404280764257236	-0.6547886968857389	0.8988315045283113	36.80835314748322
2	1.0	wm	350	diff_vonmises	-0.03939217981039938	-2.2570056489563357	3.4798082418923078	0.8649510460621666	0.25734993751965396	4.3199287261643065	-0.2589274531781971	-0.6766682591201091	0.417740805941912	61.84663508609441
3	2.0	ltm	350	diff_vonmises	-0.09934952074703525	-5.692308235452529	0.7527472441874259	1.7892610217037264	9.010427257408226e-15	3.800513058202458	-0.07772186390451896	-0.4878896585043602	0.41016779459984126	139.47800178360848
4	2.0	perception	350	diff_vonmises	-0.05963110846012318	-3.4166108424519157	9.666927355272618	1.1662584031521053	0.1357926773768283	3.519456398615637	0.7879150571743847	-0.5858046216439071	1.3737196788182917	42.755973485092454
5	2.0	wm	350	diff_vonmises	-0.05746001767918779	-3.292216503764556	4.836346778568114	0.7494942658810386	0.06397310610542621	3.474572899866016	0.049503773226978076	-0.5478046235607885	0.5973083967877666	59.8929396563814
6	3.0	ltm	350	diff_vonmises	-0.029644910239284828	-1.69852824075518	0.8304820447765748	159.63853488484847	0.8114525493694188	161.0197799619132	0.15757360705998025	-0.36644586417637015	0.5240194712363504	92.9930023930803
7	3.0	perception	350	diff_vonmises	-0.0005393604461737311	-0.030903077202047803	2.529166800183269	4.2423976871378475	0.4668453135673268	5.8089686016862885	1.1199905535574302	-0.6803318263017023	1.8003223798591326	75.23701136800565
8	3.0	wm	350	diff_vonmises	-0.13227640547530753	-7.578879762896295	2.709157731284685	1.1977942489830018	0.18158963018121133	3.281048817007153	0.11873450089028637	-0.47119480088841126	0.5899293017786976	75.13197559051363
9	4.0	ltm	350	diff_vonmises	0.19647996752080857	11.257472897809825	0.0001990921989780888	5097.8557621899945	1.4676812746951972e-30	5100.359000903396	-0.23686316146984154	-0.559926389128691	0.32306322765884943	178.68322307675578
10	4.0	perception	350	diff_vonmises	-0.029762795959759576	-1.705282595003242	2.3112136681205584	2.628448962065344	9.231749226398065e-21	5.3842331327809605	0.621887619918349	-0.8423912914989095	1.4642789114172583	90.45297857988012
11	4.0	wm	350	diff_vonmises	-0.2438317428851405	-13.970529778637589	0.7868533689971221	7.3235511256745776	0.3728895091612824	10.680679090156021	-0.17911966669315627	-0.686875894092502	0.5077562273993458	103.07008076168087
12	5.0	ltm	350	diff_vonmises	0.011375206261598094	0.6517513098803579	2.1668269534727695	0.8299939066506413	7.967065903822206e-16	2.037578034604286	0.1250333210394134	-0.31839522883167826	0.44342854987109165	93.35511547286
13	5.0	perception	350	diff_vonmises	0.011989463522021005	0.6869456584378589	2.094000405870896	2.308261961466403	0.048544149464693744	4.08137398149989	0.5427299103711634	-0.5998466766926461	1.1425765870638096	92.36865479565515
14	5.0	wm	350	diff_vonmises	-0.07976363129792816	-4.570119432008884	2.1564463978890283	1.269022270430869	0.08634929864226386	3.0811244812777496	0.15140065719152251	-0.4432562180473323	0.5946568752388548	87.80714987260154
15	6.0	ltm	350	diff_vonmises	-0.29275890708553287	-16.773849790863647	0.24609756343317166	61.34210493872658	0.22201361312938162	62.59394251094962	0.013306488089405377	-0.3624916737686288	0.37579816185803416	149.49689939908677
16	6.0	perception	350	diff_vonmises	0.09448020791634251	5.413317161124936	0.718001787131631	3.564560560891961	6.887056177714089e-16	5.024993266454198	0.22678827107107746	-0.5555534456906943	0.7823417167617718	141.09725995205886
17	6.0	wm	350	diff_vonmises	0.06311012214322065	3.6159436433616645	0.6373893621119486	54.96866405593164	0.5935843530265072	56.692685420748795	0.0006380064877458125	-0.39222818334073306	0.3928661898284789	102.95371537216647
18	7.0	ltm	350	diff_vonmises	0.3834025312170989	21.96734689337256	1.5094330883852667	62.900293337845895	1.4841686273937844	63.4328614113535	0.048976395149509244	-0.15257796986205108	0.20155436501156032	67.25494908438145
19	7.0	perception	350	diff_vonmises	0.09330126385879775	5.345768642345592	1.2812761963145904	2.227893886260426	9.550239138242947e-17	4.085020755840323	0.22774362937679016	-0.5824556500492074	0.8101992794259976	117.68378425562439
20	7.0	wm	350	diff_vonmises	-1.6492334819861036	-94.49411794946882	69.90219388574859	0.1954327694583697	0.2664550904246851	1.6725561479680808	0.30761250656813444	-0.33209160163016577	0.6397041081983001	16.057952304795393
0	1.0	ltm	351	diff_vonmises	-0.5907393942864543	-33.84687408472849	0.8100679410184365	0.8772272305920499	1.623438021484535e-17	2.478555581564611	-0.12642335848926745	-0.34143432631880744	0.21501096782954	133.23737153730156
1	1.0	perception	351	diff_vonmises	-0.06906356630822863	-3.9570508675834084	10.508111116815089	0.9745098828925169	0.0847250381804424	3.0770984501684664	0.712480209551832	-0.5040172666425935	1.2164974761944256	41.31269304303504
2	1.0	wm	351	diff_vonmises	0.12518303558495045	7.17245960565366	2.433209870873425	0.5233814207793134	7.550622103807272e-32	2.3065006909732673	-0.06351231626080628	-0.3647531095953561	0.30124079333454984	88.16351354831747
3	2.0	ltm	351	diff_vonmises	0.216517235653387	12.40552379477855	0.8306282885440598	72.87394806689038	0.8067496876436939	73.46703407773914	0.15138431743180547	-0.19146048838369456	0.34284480581550003	96.0250760757416
4	2.0	perception	351	diff_vonmises	-0.026855236709008624	-1.5386917212509927	9.069188710406081	1.287260706320781	0.45424328921857826	2.0127602741908674	1.0441297136937213	-0.36592943120270416	1.4100591448964255	43.31675739222115
5	2.0	wm	351	diff_vonmises	-0.034290012462648366	-1.9646729935607459	7.899950316534922	0.4068008330151249	0.08063321231539793	1.3616201043317127	0.21393469701135315	-0.2199352975186912	0.4338699945300444	47.46718332779176
6	3.0	ltm	351	diff_vonmises	0.07002857587689286	4.012341843057609	3.4260210984254207	0.4128324557416484	0.26017681710088236	0.6620693139455517	0.15701121382206318	-0.09428947492144421	0.2513006887435074	68.913301945749
7	3.0	perception	351	diff_vonmises	0.0190554833765456	1.0917987740577622	4.2637611933815105	2.183097271404743	0.5983895951956254	2.464783695106851	1.084001884623086	-0.3477038801014269	1.431705764724513	60.60112504738518
8	3.0	wm	351	diff_vonmises	-0.0156802668729776	-0.8984131134604135	3.5155960034407747	0.4451098335197029	1.5341556712925271e-13	1.0394999537211413	0.15329984538572158	-0.16515982449142924	0.3184596698771508	73.15134131269431
9	4.0	ltm	351	diff_vonmises	-0.4416636161997855	-25.305461172733523	0.8476595272377769	66.5867882104656	0.813048169710786	67.6063397909429	0.12782259678736452	-0.2746467742036902	0.40246937099105473	92.75218602162413
10	4.0	perception	351	diff_vonmises	-0.010713541342452141	-0.6138407025614299	3.246130437537179	1.8761510726831852	0.016702388306803026	2.831060321781557	0.8266886521195318	-0.4411634037747372	1.267852055894269	75.68239332276832
11	4.0	wm	351	diff_vonmises	-0.21507317813517182	-12.322785393610683	1.1174634082408963	187.43145870429558	1.0986327122852932	188.78033964537175	0.17416015251222916	-0.3662739295801991	0.5404340820924283	79.78858209182314
12	5.0	ltm	351	diff_vonmises	-0.10619424298797	-6.084481931797418	2.044126013121703	0.7668361331049083	0.046582360369570745	1.0054917702056132	0.2332774785082599	-0.1459409670913526	0.3792184455996125	94.17282695930972
13	5.0	perception	351	diff_vonmises	0.0043250886412893996	0.24780932516585424	1.2069484026438606	180.71758279215553	1.1833875206436448	181.07122869556804	0.6540641662604685	-0.30553039226273526	0.9595945585232037	84.28386768368657
14	5.0	wm	351	diff_vonmises	0.05457022458108632	3.126643555577307	1.6282342846475206	1.584088607047526	0.15930534422319012	1.8140491470071336	0.38476603633290585	-0.21685906183296533	0.6016250981658712	100.33673564523275
15	6.0	ltm	351	diff_vonmises	-0.42780159293375586	-24.511225744077873	0.7255363053481141	117.2390243101869	0.7096443183867044	117.56127830221106	0.26305032469813483	-0.19377892853147394	0.45682925322960877	106.77794251285202
16	6.0	perception	351	diff_vonmises	0.26877859580190216	15.39987916290166	0.9082972327491725	2.8971277966867155	2.0566976275202833e-20	3.195559354275958	0.4309367479287186	-0.3558356341118711	0.7867723820405896	131.78262546189765
17	6.0	wm	351	diff_vonmises	-0.2403305492798314	-13.769926161795187	3.0703576795993635	0.8974404628733289	5.806350489943223e-17	0.9145798825915027	0.45001457416795376	-0.14427734592657646	0.5942919200945302	78.39120535037527
18	7.0	ltm	351	diff_vonmises	0.1304291756978253	7.473041292855674	1.1951263514618995	243.49486392557156	1.1831310325670565	244.50360024223406	0.16105271735236215	-0.2870686520896051	0.44812136944196723	77.50017579775997
19	7.0	perception	351	diff_vonmises	-0.09008138120642652	-5.161282955837331	1.7948172184142188	1.7354358051201546	1.3778262103299912e-19	2.2638747622325264	0.4780654630928976	-0.3371603935804513	0.8152258566733489	102.03601006877965
20	7.0	wm	351	diff_vonmises	0.23762935042406588	13.615158867734253	1.2955288950988841	0.9845397169855651	4.4281228121229716e-17	1.8495323513019797	0.09614611332980649	-0.2650955276705268	0.3612416410003333	116.92943840414375
0	1.0	ltm	352	diff_vonmises	0.14790769074685634	8.474486437321048	5.594772831751621	0.4259014217044669	5.943103200661527e-15	2.8168709255277076	-0.056383276273760496	-0.44831351404328684	0.39193023776952635	57.65818688091542
1	1.0	perception	352	diff_vonmises	-0.05839215903323431	-3.345624269261031	10.424952715749757	0.8753460792924009	0.017653328167378277	3.5258294362736367	0.5420575596035567	-0.5633593008034657	1.1054168604070225	41.85586204324255
2	1.0	wm	352	diff_vonmises	0.16424240613652333	9.410396688696359	0.9366469150445267	57.60411753613984	0.8693617936728485	60.40952783892593	-0.1509821651333283	-0.5813859712735638	0.43040380614023555	80.24741423161188
3	2.0	ltm	352	diff_vonmises	-0.09471548578731738	-5.426797590144619	3.0875539449010474	0.9197538770796974	0.2587017448102669	2.181132305365208	0.1700865125669297	-0.31347984112644556	0.48356635369337525	70.01217619149722
4	2.0	perception	352	diff_vonmises	-0.052983126778285226	-3.035709549802318	11.384721563757841	0.933692409283643	0.014136148238268573	2.3210850502943803	0.867783089969137	-0.37053470752412954	1.2383177974932664	40.11201098019404
5	2.0	wm	352	diff_vonmises	-0.10602096879112904	-6.074554051619912	4.8504953472663574	0.6283412977297644	0.13905519843616584	2.2093603652368654	0.13395420384702378	-0.3487636570410326	0.4827178608880564	58.70566266271146
6	3.0	ltm	352	diff_vonmises	-0.07564902702272576	-4.334369972673302	0.9144461585944472	140.6618845319195	0.8994046366644947	141.3530654637877	0.17983166774649817	-0.2198865576042799	0.39971822535077806	91.13536836333822
7	3.0	perception	352	diff_vonmises	0.06098131690603822	3.493972087865765	2.4924580519950106	3.615256071666323	0.6638781567420723	4.120138754621162	0.982666166819224	-0.41455432059164354	1.3972204874108676	74.1984176876824
8	3.0	wm	352	diff_vonmises	-0.05506708262118152	-3.1551114242919036	2.883700703771671	0.9587743703425101	0.2801443379408646	1.8007733103359411	0.24197667436874065	-0.24757646585347468	0.4895531402222153	72.88777505846704
9	4.0	ltm	352	diff_vonmises	-0.23943501172807555	-13.718615639684097	1.926270069241851	0.7063383173314915	3.770224847032395e-15	2.0702114644378056	0.026704718017482365	-0.3219236550872536	0.348628373104736	98.66742800605833
10	4.0	perception	352	diff_vonmises	-0.0019271175299770155	-0.1104157010933589	1.728960089142239	5.14658017262733	0.5391816677052403	6.639094902035123	0.7434624363226319	-0.5801813982508615	1.3236438345734933	84.76537522256592
11	4.0	wm	352	diff_vonmises	-0.2464583836384382	-14.12102520809861	0.8157814747637813	148.2253974808619	0.797174259235188	149.63829751649365	0.09842255524841192	-0.3508386303275426	0.4492611855759545	92.42341169726662
12	5.0	ltm	352	diff_vonmises	0.04707801835076916	2.6973717593385134	1.804136009272878	0.9483657381488848	1.1453260129860333e-20	1.7507346504499208	0.18094557147175805	-0.26618335856853415	0.4471289300402922	101.80398429582101
13	5.0	perception	352	diff_vonmises	-0.0016774475557634987	-0.09611066529978428	2.5478414567720904	1.81367052937302	0.1302424214060184	2.7659692659098507	0.5815220206740581	-0.3872241320473658	0.9687461527214238	81.726651994805
14	5.0	wm	352	diff_vonmises	-0.015037420606738083	-0.8615807355291458	1.7031018716938993	1.5205722525816159	0.10400379001601517	2.4187681144206965	0.28549262161957906	-0.3223990179264799	0.607891639546059	98.84407327568624
15	6.0	ltm	352	diff_vonmises	-0.28650672309090225	-16.415626035232066	0.9727581701621566	1.439156810360582	1.3374111025220093e-13	2.31331210788682	0.11616248540765356	-0.29895318279959054	0.4151156682072441	129.0747480392904
16	6.0	perception	352	diff_vonmises	0.28490476396561604	16.3238405384007	0.1141422364166115	20.06705448649836	1.1948433393983032e-11	20.546415226936936	0.29823281687072756	-0.4300539070238787	0.7282867238946062	171.15957796047493
17	6.0	wm	352	diff_vonmises	-0.40715427135655813	-23.328221359455043	0.6454751411670951	145.34876702721368	0.6330093158604294	145.9918519588902	0.16929439735422847	-0.2293385584020804	0.39863295575630886	109.20909091177408
18	7.0	ltm	352	diff_vonmises	0.237474086798365	13.606262917269694	0.7945975312266146	9.732259518420129	0.5835975748534306	10.588089500846454	0.16620217622829792	-0.26761084734879703	0.43381302357709495	104.07352869549197
19	7.0	perception	352	diff_vonmises	-0.07632377914976557	-4.373030421770157	2.8844079129493707	1.343186482437439	1.1013798735496978e-13	1.5817412709705405	0.6083864969395862	-0.24905504183039132	0.8574415387699775	80.93869816942032
20	7.0	wm	352	diff_vonmises	0.17899086236678072	10.255420985023532	0.6417433469301567	95.84554821425225	0.6253516632825026	96.69678388298897	0.06809104150189427	-0.22532789803008946	0.2934189395319837	105.3778061849757
0	1.0	ltm	353	diff_vonmises	2.3668468002278398	135.61033240709872	2.262067743392489	59.51444228084183	2.2280133276682066	60.42446825422763	-0.02762548537488202	-0.2770583452486264	0.24943285987374436	186.2904927579614
1	1.0	perception	353	diff_vonmises	-0.11595340204950311	-6.643640557620118	13.197227434577803	0.9408035268634337	6.023549604650721e-19	2.321560778768776	0.9802707348808797	-0.36948787362467017	1.34975860850555	37.313734398033176
2	1.0	wm	353	diff_vonmises	0.0803584229591563	4.604198483886831	2.3140966374096523	0.7357501210873038	2.149926272132486e-23	1.6576960116035575	0.15041299900218047	-0.2597819143461553	0.41019491334833574	90.39277667585506
3	2.0	ltm	353	diff_vonmises	0.13450686594356379	7.706675734098153	1.3464092662698426	1.071167872027251	4.719458304889825e-12	1.4575172683388218	0.2027727146938236	-0.20254228249430042	0.405314997188124	115.3732714995808
4	2.0	perception	353	diff_vonmises	-0.028067295248206846	-1.6081375600698427	8.432826432664228	1.393889811960697	0.5468484645409698	1.768338759518618	1.1372878604719034	-0.3203409442813089	1.4576288047532122	44.76426902207851
5	2.0	wm	353	diff_vonmises	-0.05246291369448352	-3.005903535652995	10.257214163204122	0.346953121698207	0.09964308908746125	0.7397168575802836	0.307894046313673	-0.12131654955871368	0.4292105958723867	41.89543287078541
6	3.0	ltm	353	diff_vonmises	-0.07845018615520503	-4.494864568708891	3.232495505370855	0.5131374675139772	7.430788702522384e-13	0.7460118814100793	0.23182644290286109	-0.11818552637254334	0.35001196927540446	76.37285602919673
7	3.0	perception	353	diff_vonmises	0.028380251318456794	1.6260686220681644	4.070271381261292	2.2027391380539743	0.4976941784593786	2.2555066589609076	1.1540619645064827	-0.31111765475058734	1.46517961925707	63.04976042512831
8	3.0	wm	353	diff_vonmises	-0.07466575354163955	-4.278032552099925	3.7742026104760464	0.5498161125707591	0.1541970904580204	0.8221143603282975	0.2577096996791668	-0.12176045524250918	0.37947015492167596	67.74374175705964
9	4.0	ltm	353	diff_vonmises	-0.36308983674733525	-20.803515229716375	2.925396976077109	0.7776347733047559	3.055998750838288e-20	1.7193851822503596	0.2283863536658975	-0.2722039383942017	0.5005902920600992	80.32256126740073
10	4.0	perception	353	diff_vonmises	-0.049778297753123216	-2.852086372599509	3.1191445011392593	2.087406458168988	1.7148716775936649e-18	2.7196147450269663	0.9648999155479281	-0.4301100149475374	1.3950099304954655	77.7725554394801
11	4.0	wm	353	diff_vonmises	-0.2764438474796478	-15.839065732942059	1.531056506336024	167.35733141282319	1.5116632652215363	168.16700323382236	0.21286595963532307	-0.27366767981208895	0.486533639447412	69.3890962700035
12	5.0	ltm	353	diff_vonmises	-0.21230514561199226	-12.164188812477546	0.44070630102646074	31.984241268324414	0.4028107065231523	32.205590823079326	0.17274613619610069	-0.16868329583547226	0.34142943203157294	132.82054835466022
13	5.0	perception	353	diff_vonmises	0.051229870382062635	2.935255357894447	1.4815683961725512	10.674504301719702	1.1260354012121743	10.89270824243772	0.6089869900056724	-0.2551557289034545	0.8641427189091269	81.25645501543573
14	5.0	wm	353	diff_vonmises	-0.046384418816597134	-2.6576314333582163	0.6691158908161465	118.30652842942649	0.6540270192812395	118.39173142123155	0.3160328562618133	-0.17951675209508267	0.495549608356896	113.59325512045717
15	6.0	ltm	353	diff_vonmises	-0.5236491074715169	-30.002883803910382	1.9111458095085565	0.9468516204337025	7.144224586267445e-17	1.4825487903402275	0.23925332779306813	-0.22555854736123931	0.46481187515430744	98.63272733663524
16	6.0	perception	353	diff_vonmises	0.2712475998571285	15.541342674866813	1.2269137236481942	2.2324695894810547	5.837906834568688e-23	2.7049968415289634	0.42694099612373565	-0.35679765136517516	0.7837386474889108	119.26010620283768
17	6.0	wm	353	diff_vonmises	-0.21449524908428846	-12.289672498137065	4.799069322776422	0.5513700369065134	4.076252022469723e-12	0.7862115153291089	0.34259567717593103	-0.12509770763501085	0.4676933848109419	62.35712565741713
18	7.0	ltm	353	diff_vonmises	0.1516877208369582	8.69106620791634	1.4146065330511424	260.19141550414054	1.401084069441421	261.32481773349605	0.1558710538615884	-0.3308315102768731	0.48670256413846147	70.44177356306616
19	7.0	perception	353	diff_vonmises	-0.08160610769791837	-4.675685553580781	1.1212550761709132	2.2755598143475395	4.1270043604906236e-22	2.893194005179391	0.3689829683231264	-0.37238242605990346	0.7413653943830298	123.6567353719276
20	7.0	wm	353	diff_vonmises	-0.11347585118851679	-6.501687349756598	0.0002031516275339019	4245.795568443133	3.857552779889756e-30	4246.413539993129	0.03892610091486404	-0.235618612689791	0.27454471360465504	179.62210178147672
0	1.0	ltm	354	diff_vonmises	0.08551895152289479	4.899874990645756	7.110521921627357	0.5172200911028694	1.810585690305429e-16	3.9022613657374157	-0.08123622346937387	-0.621063825725053	0.5398276022556792	51.022300650700885
1	1.0	perception	354	diff_vonmises	-0.05077418949783663	-2.9091467664235076	11.799545464809176	0.8543979264320511	0.07495416730709989	4.660596894202033	0.3595561114571173	-0.7662187142001701	1.1257748256572873	38.85000652428627
2	1.0	wm	354	diff_vonmises	0.016753244892958992	0.9598902255156508	3.7214528957164372	1.0165769622644023	0.23057247310612664	5.129522740098326	-0.26330412863081887	-0.8078643341096541	0.5445602054788352	61.28062234613523
3	2.0	ltm	354	diff_vonmises	-0.10939301187942223	-6.267757888915371	3.5048876456338176	1.12315593856505	0.2931290816899832	2.6624415240349015	0.24683595655187185	-0.39289576696599404	0.6397317235178659	65.82712607884477
4	2.0	perception	354	diff_vonmises	-0.08191130502078602	-4.693172072099789	13.716956220795709	0.7312656239415903	1.0148869299161559e-18	2.5186175953873184	0.6692248690333852	-0.40085044006281123	1.0700753090961963	36.59250156507167
5	2.0	wm	354	diff_vonmises	-0.18251857946127256	-10.457544285854068	2.6395850646580548	1.5122921387992863	0.38262682779593155	3.5248776355281763	0.12679703151121635	-0.47670708459237865	0.603504116103595	70.9176224244265
6	3.0	ltm	354	diff_vonmises	-0.10257085218562992	-5.87687693129681	1.4229680076809377	2.365506885332904	0.36783785196784924	3.5279499409778023	0.20811837156491586	-0.33433099490441365	0.5424493664693295	93.16672105337331
7	3.0	perception	354	diff_vonmises	0.013001852420540302	0.7449512695489128	3.549325785063952	2.5258630767430863	0.3196630898891566	3.704935981651733	1.0269115670020719	-0.5226129942122533	1.5495245612143251	67.3593165005978
8	3.0	wm	354	diff_vonmises	-0.059861406784364364	-3.429805964459871	3.147139041381554	1.0784174680352645	0.02217415937566775	2.5936671616940585	0.3037205869286219	-0.40299402653372723	0.7067146134623492	76.33310391084703
9	4.0	ltm	354	diff_vonmises	-0.21318568599052476	-12.21464005985831	1.1013705154852123	1.6565433470997526	1.7364797268778564e-12	3.397978505555039	0.05685807451545721	-0.47476236087231327	0.5316204353877705	124.18104948348666
10	4.0	perception	354	diff_vonmises	-0.024555092367385734	-1.4069031582051037	1.5820599335238508	5.3268790569648585	0.3923750492044473	7.119148886175567	0.7683632345016596	-0.6742720452084099	1.4426352797100694	91.1613503496205
11	4.0	wm	354	diff_vonmises	-0.09417687178877154	-5.395937281241277	0.6520799974589903	200.98080671443012	0.6347619885849002	202.89568722798188	0.14006342212910994	-0.49826630341511446	0.6383297255442244	104.26076248754619
12	5.0	ltm	354	diff_vonmises	0.05620437128538551	3.2202732648388634	1.582418015121376	1.778875133342089	1.2865180515621408e-17	2.5717512658965744	0.38663372345174796	-0.37570067909106586	0.7623344025428138	107.9420313944278
13	5.0	perception	354	diff_vonmises	-0.01176804009504727	-0.6742590305869408	1.233511737770238	7.62935176315818	0.6404737317776594	8.672234195058195	0.570126111914945	-0.4446892094867109	1.014815321401656	92.74035237955212
14	5.0	wm	354	diff_vonmises	-0.0595549674059787	-3.41224828140176	2.364458160317267	1.5524433283900352	0.031045395611230705	2.4373434577022066	0.48524274399596107	-0.36814355807615046	0.8533863020721115	88.12781067611152
15	6.0	ltm	354	diff_vonmises	-0.13026226409260305	-7.463477962324685	0.9406443457280661	1.9434157963662444	6.947746947735353e-12	2.6368039624965327	0.22253226136884874	-0.32178831731093865	0.5443205786797873	130.96137137604217
16	6.0	perception	354	diff_vonmises	0.20837512061130056	11.939014966557012	0.0002603161059808611	8443.654381852642	4.765759460195953e-32	8443.825501200348	0.32261370136984624	-0.37703714894382756	0.6996508503136738	178.53062022851833
17	6.0	wm	354	diff_vonmises	-0.42216920765543603	-24.188513839038528	0.5860340600722379	199.37169629831527	0.5758216291929649	199.78549652287202	0.27661673348519145	-0.2475650272838692	0.5241817607690606	117.21696861289806
18	7.0	ltm	354	diff_vonmises	0.2915976011049831	16.707311859454844	2.067952092042583	0.9663301445092338	5.668180084988683e-17	1.3829437540078882	0.28855404645458527	-0.21196939446729487	0.5005234409218802	95.36388227334729
19	7.0	perception	354	diff_vonmises	-0.0107983337210384	-0.6186989479892979	2.2895215893194183	1.6141818913938832	1.0491379546680102e-16	1.8107650206449861	0.6148790074873608	-0.27892149693112717	0.893800504418488	90.87537441163275
20	7.0	wm	354	diff_vonmises	-0.1323764242669025	-7.584610417526686	7.856143363822526	0.4295171948041439	7.219363489811905e-34	1.1341659736208003	0.2915342940842426	-0.18050805012841784	0.47204234421266045	48.508126389202545
0	1.0	ltm	355	diff_vonmises	0.1780420118551676	10.201055855319272	0.38054337050149223	94.55996990062451	0.36655120833467175	96.70100945736712	-0.23423752464407954	-0.3944664258252981	0.16022890118121857	115.96890145237302
1	1.0	perception	355	diff_vonmises	-0.02631784027881044	-1.50790117387524	10.22751881516007	0.7754644796742846	2.2597617991181923e-20	3.3065835638593435	0.4500656561451425	-0.52625911765698	0.9763247738021225	42.446056922594295
2	1.0	wm	355	diff_vonmises	0.1691940463395589	9.6941047739976	6.3592637436266175	0.24046417661065478	0.0932696584956181	2.6886617299210114	-0.23198978090780514	-0.4381497208396697	0.20615993993186454	50.31242604777253
3	2.0	ltm	355	diff_vonmises	0.2763818631641941	15.835514293270554	0.3097140138142938	112.47583157876672	0.2976997214019034	113.72223146418415	-0.019305714544884722	-0.32251471521412434	0.3032090006692396	139.6932520811399
4	2.0	perception	355	diff_vonmises	-0.039551744886652904	-2.266148054383346	9.086302957892162	1.3534996992903707	0.3224443847848118	2.943197182333153	0.9737014777046067	-0.5193868861342331	1.4930883638388397	43.37622698666323
5	2.0	wm	355	diff_vonmises	-0.05502049398094692	-3.1524420918332074	5.661052882568673	0.5271655410747587	0.13704586145259057	2.61537529897496	0.013079461993236174	-0.4224808891134709	0.4355603511067071	54.00505782593672
6	3.0	ltm	355	diff_vonmises	0.09314995535621201	5.337099303742985	1.3353085053030322	128.70956723736668	1.3202349007427474	129.17940632833714	0.162459485654189	-0.1645148176220932	0.3269743032762822	75.5205759107318
7	3.0	perception	355	diff_vonmises	0.016718738707681875	0.9579131667321756	1.4453432906635055	303.57769312481827	1.4212453524966726	304.2855325213271	1.0004565260441893	-0.4977801208732622	1.4982366469174515	76.29192707691902
8	3.0	wm	355	diff_vonmises	-0.059549374522351	-3.411927832774585	2.6849664174973498	0.9400593662282247	0.4938976501603167	2.0759852863755346	0.06773156813204961	-0.2761843485878568	0.3439159167199064	68.17900675999698
9	4.0	ltm	355	diff_vonmises	0.022566318783749997	1.292954825455668	8.922499212989313	0.16431458047477038	2.747621796296937e-35	1.7299171497653703	-0.08243720732188833	-0.2753248620935959	0.19288765477170758	45.47274807577571
10	4.0	perception	355	diff_vonmises	-0.0035390969554349953	-0.20277531883402442	1.7821130778308925	4.121394305479313	0.43880728593039187	6.0019680941930975	0.5697939713302211	-0.6030631277383679	1.172857099068589	84.90756784895879
11	4.0	wm	355	diff_vonmises	-0.33786620168239495	-19.358307396517105	0.8803483447731182	144.10324360869066	0.8570015161936754	146.34485307157792	-0.06346391661925566	-0.47875278549090083	0.4152888688716452	83.91186302396855
12	5.0	ltm	355	diff_vonmises	-0.028606720337622432	-1.6390443410568227	1.73090459130201	1.5697865383783178	0.6388564000813302	2.5102337541249846	0.056683178636530274	-0.23029618613433137	0.2869793647708616	76.8961979448058
13	5.0	perception	355	diff_vonmises	-0.004748261204673442	-0.2720553270534922	2.2620593193776566	2.2547429966079693	0.20015505407861392	3.7503957472842893	0.530525185110425	-0.49293558249346847	1.0234607676038934	83.52916151804007
14	5.0	wm	355	diff_vonmises	0.10979724700114771	6.290918855321198	2.259613129409756	1.0333062597356324	0.16109969742931646	2.6386804651278464	0.08341354641485538	-0.36723688833284956	0.45065043474770494	82.06942096832077
15	6.0	ltm	355	diff_vonmises	-0.34483207282245504	-19.75742241347453	0.6021893083861927	160.3206602531084	0.589874224716246	161.58119346091382	0.04121127608763686	-0.3091484317666193	0.3503597078542562	106.70217329673405
16	6.0	perception	355	diff_vonmises	0.22567633503056436	12.930301533231711	0.6671910365742794	3.649719468897696	1.845176326828355e-10	5.172715092326961	0.19248869484912412	-0.5557942777994025	0.7482829726485266	142.96388852938165
17	6.0	wm	355	diff_vonmises	-0.13838640580019598	-7.928956994335966	1.9865461597256795	0.8184470097918218	6.296194993950907e-16	2.3595547877966006	0.044969830094574614	-0.36762292151305587	0.4125927516076305	97.30494608585911
18	7.0	ltm	355	diff_vonmises	0.10361642509118686	5.936783845958454	1.2254987425178818	92.67906516021499	1.2051476801407686	93.538232019515	0.0210447789471786	-0.21146697446276796	0.23251175340994656	72.97670107994773
19	7.0	perception	355	diff_vonmises	-0.08458992844673185	-4.846645889311358	2.137044472096173	1.4592842212212973	3.801783557685628e-18	2.613765588153858	0.3674947151465929	-0.40508368225520164	0.7725783974017946	93.97481181012603
20	7.0	wm	355	diff_vonmises	0.5972044062936234	34.21729198724068	0.6753886073183747	5.332099661380292	0.45461447147495376	6.7911107015913466	-0.1259423824921886	-0.27662874026023565	0.15068635776804706	98.22386180227008
0	1.0	ltm	356	diff_vonmises	0.008513952525262493	0.48781354667229027	1.847497375241226	0.5170662995564719	2.497037845631658e-12	3.8478062949222145	-0.35819005183629443	-0.6060801076838481	0.2478900558475537	100.70426920983417
1	1.0	perception	356	diff_vonmises	-0.037207548512570646	-2.131835495798562	8.166462193887675	1.0253614956287973	0.07105459732575052	4.649121481522675	0.3565208373754749	-0.7519768323712227	1.1084976697466975	46.58453597513716
2	1.0	wm	356	diff_vonmises	0.04485837167550558	2.570195372835665	5.578355456670399	0.29585234538076005	3.354758548536699e-25	4.095555863238658	-0.37998288410204656	-0.6518240774111718	0.2718411933091252	57.74344964808671
3	2.0	ltm	356	diff_vonmises	0.1248776468959036	7.154962122660241	0.8788458256055434	132.96957696876336	0.8599575845326491	134.29311061079343	0.06192244671608904	-0.3164153594797572	0.3783378061958462	87.96420432840083
4	2.0	perception	356	diff_vonmises	-0.05373740382848583	-3.0789264413623902	10.068952188810911	1.19593387532374	0.2851474262455924	2.5971793490239126	0.9554775091155104	-0.4580087962630095	1.41348630537852	41.50403470370097
5	2.0	wm	356	diff_vonmises	0.013908345664708577	0.7968895065968771	6.064223673307635	0.5041770016606646	1.2615532030006322e-14	2.4183433328381443	0.0992728088627221	-0.3848886790916993	0.48416148795442143	55.328868471743306
6	3.0	ltm	356	diff_vonmises	0.055952177574896254	3.205823629608085	3.4544463864750896	0.45959370312421594	0.11238075869945302	1.294005859163265	0.09619314309954649	-0.19574656584109176	0.29193970894063825	69.71782615224859
7	3.0	perception	356	diff_vonmises	1.0015707084424806e-06	5.7385774477682026e-05	4.2954540964238435	1.9207158606929378	0.20602284644369706	2.8891224407242553	0.9760115805641992	-0.4340636567302792	1.4100752372944785	63.12050768779653
8	3.0	wm	356	diff_vonmises	0.09092494219882803	5.209615440463805	3.4434634415289844	0.49041931425400437	1.467064537479532e-13	1.87189402399078	0.04923074517004983	-0.29756671214875896	0.3467974573188088	73.93229503486145
9	4.0	ltm	356	diff_vonmises	-0.2735553006483458	-15.673564190582567	0.2831352295106049	98.37470149925147	0.26760043987290233	100.06691623113872	-0.07427958457289208	-0.4083943557017218	0.3341147711288297	142.45615902461753
10	4.0	perception	356	diff_vonmises	0.014324645014507534	0.8207417023543976	2.2751866627350297	2.4692149302486235	0.1007963657773535	4.3117325451458814	0.6192410972566635	-0.6090959029834343	1.228337000240098	86.51831703873378
11	4.0	wm	356	diff_vonmises	-0.10025462088590892	-5.744166653446696	1.0194046517316764	6.083511696316183	0.42232447469603623	8.83080018432809	0.04955905127027238	-0.6334915800131942	0.6830506312834665	97.50260004704056
12	5.0	ltm	356	diff_vonmises	-0.03270159724957653	-1.8736635057373563	1.3771865946572537	2.6294306380733112	0.4037644820769998	3.8732378599461117	0.1951521500187242	-0.34686992728735844	0.5420220773060827	92.602267729363
13	5.0	perception	356	diff_vonmises	-0.012854101892384003	-0.7364857878647281	1.539232161890218	4.363808387898394	0.46057270164331543	5.804677230112807	0.5303997604120572	-0.5067223940228421	1.0371221544348992	89.65401698395215
14	5.0	wm	356	diff_vonmises	0.03168583173935756	1.8154644290268565	1.957128835907871	1.5075637672612447	9.189220458954376e-15	2.8462524321230003	0.3145981193354456	-0.4376772356125268	0.7522753549479724	98.01829172279275
15	6.0	ltm	356	diff_vonmises	-0.19716258115815033	-11.29658377826758	0.505945212845455	103.13635545422228	0.4845533365255531	104.16591999356373	0.1609793935267625	-0.3451218128167959	0.5061012063435584	121.61819283359353
16	6.0	perception	356	diff_vonmises	0.30446134541940195	17.44435011740645	0.00028834200845785337	8511.762504047198	4.311472599483824e-30	8513.118144445465	0.17487330350741104	-0.6063307359818282	0.7812040394892392	177.04248632012246
17	6.0	wm	356	diff_vonmises	-0.3374149249022194	-19.332451141620794	1.5357237976488005	1.8189821159051656	1.960104179445739e-12	2.8546120621849758	0.34487615398355354	-0.4172775022438524	0.7621536562274059	108.99548214966042
18	7.0	ltm	356	diff_vonmises	0.19010033816943075	10.891947061118092	0.6005157348131688	146.03708539075555	0.5853945271631663	147.73938049660586	-0.029686984099150493	-0.37519006156052015	0.34550307746136966	103.67212427013257
19	7.0	perception	356	diff_vonmises	-0.08905099497551526	-5.102246173537724	3.0364502480424163	1.5655404589109239	2.103493350370021e-13	2.952420487853006	0.5625415490545005	-0.467513069176631	1.0300546182311314	78.84685365679735
20	7.0	wm	356	diff_vonmises	0.7030424728665484	40.28136651369392	0.3462950010133811	87.46049094010529	0.3248756618035255	89.30099122034794	-0.05644925760769581	-0.4477712041922359	0.3913219465845401	130.91847239763314
0	1.0	ltm	357	diff_vonmises	0.16062905794651186	9.203367087497467	0.17997310113771445	86.43480209554818	0.16621137593787608	89.82141945852096	-0.427939359392127	-0.624986360535944	0.197047001143817	151.23196712677225
1	1.0	perception	357	diff_vonmises	-0.012291477701393393	-0.7042497962690037	12.693335087906283	0.6427560670655291	1.869220581574007e-19	4.6211437648964	0.16860771266161567	-0.7354778729130214	0.904085585574637	38.0533896767476
2	1.0	wm	357	diff_vonmises	-0.007596179195723738	-0.4352290083400503	6.503017186035069	0.2964039715454943	0.11707483598996214	3.958940032087172	-0.41070542349442773	-0.6543676669274529	0.24366224343302512	48.56215957026336
3	2.0	ltm	357	diff_vonmises	0.05127018447606813	2.9375651853358558	0.1949166007794034	96.38955138634225	0.17941677284735766	98.14400880840225	-0.0736888155789508	-0.44519251833228424	0.37150370275333344	155.9405514020605
4	2.0	perception	357	diff_vonmises	-0.0690221446394507	-3.954677580782044	11.339567201957129	1.2077451543464612	0.284842536650158	3.334669110692854	0.9123055297134058	-0.599958847700252	1.5122643774136577	39.02015913517141
5	2.0	wm	357	diff_vonmises	-0.060423266493811106	-3.461998154489616	5.194292979675713	0.62951979677089	0.03615827091584248	3.2546988122654814	0.020076216002483993	-0.5147818662246924	0.5348580822271763	58.531911461312234
6	3.0	ltm	357	diff_vonmises	0.0009851490261882773	0.0564448813920113	1.2319464649960565	140.5223014332422	1.2128290391784124	141.49498335779458	0.12347818781543651	-0.2686617852319948	0.3921399730474313	75.70046737537095
7	3.0	perception	357	diff_vonmises	-0.015091992634430139	-0.8647074823953717	2.752270439623416	3.700241586517987	0.5038563261014215	5.033468617938519	1.0608938096404334	-0.6058239065337544	1.6667177161741877	72.28869789227181
8	3.0	wm	357	diff_vonmises	-0.08077162772817116	-4.627873373226061	3.2595996932389246	0.7786329333408389	0.2034364668521308	2.520712202033115	0.04782468353988262	-0.3769801706565729	0.42480485419645553	68.16461204994985
9	4.0	ltm	357	diff_vonmises	0.12033692420422443	6.8947978764877424	0.0009651850141560349	640.0697209815602	2.9580084466996625e-19	642.2697449008062	-0.2517974817211268	-0.44844443168612713	0.19664694996500032	179.4022409873155
10	4.0	perception	357	diff_vonmises	-0.023820218038231995	-1.3647979606720868	2.3386018664136197	2.4515245802326193	3.589096447526521e-18	4.7465198809051286	0.63350295987272	-0.7425068399550179	1.3760097998277379	89.93091003291678
11	4.0	wm	357	diff_vonmises	-0.1335475147770688	-7.651708961187038	0.6967058700590555	58.365658379035914	0.6303081271313401	61.49889510671936	-0.11291724318164142	-0.6553928248652623	0.5424755816836209	96.04912444393696
12	5.0	ltm	357	diff_vonmises	-0.009836785277304215	-0.5636062803659566	1.5210919139717427	2.140035857694019	0.4427217888845564	3.7437573761203646	0.05097116757782172	-0.36890953969505264	0.41988070727287435	84.73577843515892
13	5.0	perception	357	diff_vonmises	0.020288663220942426	1.1624547745223	2.360590362824421	1.9227640718461911	0.03711450442299444	4.216814545831564	0.39920142117478363	-0.6367060281656777	1.0359074493404612	87.30637995851592
14	5.0	wm	357	diff_vonmises	-0.007810545940834835	-0.4475113181028728	1.2609154481195608	3.2267978994440325	0.36532153631526265	5.388803430599366	0.0638688046787117	-0.5015776348300859	0.5654464395087976	93.4969479343647
15	6.0	ltm	357	diff_vonmises	-0.22416332634099642	-12.843612520952849	0.5742780369062586	132.22448309073377	0.5553904675789341	134.01649643367742	0.010118418957105746	-0.4202870295241041	0.4304054484812099	108.1788971349912
16	6.0	perception	357	diff_vonmises	0.2204587288396081	12.63135471932859	0.38799822800069855	6.590868543507071	7.021298067219545e-12	8.936540723970639	0.06731026132394735	-0.7367005064961771	0.8040107678201245	157.13507363808765
17	6.0	wm	357	diff_vonmises	-0.0874623951917734	-5.01122611059392	0.5828216287162343	141.13859550107435	0.5605074068893615	143.3945857711946	0.012047613339753127	-0.5271543865249679	0.5392019998647211	107.45996520419008
18	7.0	ltm	357	diff_vonmises	-1.6173486240790012	-92.66725016101752	1.4644999367410343	1.2208104951287182	1.4644643630255225	2.120386670888958	-0.020530727926194366	-0.3840241619710556	0.36349343404486123	144.16874242287054
19	7.0	perception	357	diff_vonmises	-0.04016913792774212	-2.301522069938505	1.8451848793986663	1.6101139681975372	2.3764350899496696e-20	3.648858187190703	0.21028332174218878	-0.5609868290540322	0.771270150796221	100.75794178683364
20	7.0	wm	357	diff_vonmises	1.2551789034215401	71.91645369991302	0.16357695492925145	65.04319107214673	0.15142789443776364	66.92025396478239	-0.21077864582026606	-0.3704569684423884	0.15967832262212234	128.5837401447078
0	1.0	ltm	358	diff_vonmises	0.22692516619687322	13.00185428838561	6.886197645383468	0.35443839096956825	3.7482927543697286e-12	3.1763717131047313	-0.14173071298111006	-0.50553487940286	0.36380416642174995	51.85743025681117
1	1.0	perception	358	diff_vonmises	-0.01994612854085165	-1.1428289830162346	7.640569212850221	1.0161290543080141	0.05843554852305263	3.797301508788196	0.4607484438315781	-0.6093131100332922	1.0700615538648703	48.397636538898126
2	1.0	wm	358	diff_vonmises	0.22132720222706942	12.681114579049552	0.7436654473590496	148.2430159488534	0.7170031729991673	151.7440258277632	-0.2534303562736042	-0.6859228065898293	0.4324924503162251	87.38684973484342
3	2.0	ltm	358	diff_vonmises	0.08057781527561045	4.616768737677253	1.19576263849819	78.19141322144559	1.1559044421644922	79.50042455192529	0.09208774400717701	-0.33598150476172783	0.42806924876890484	75.81309803009555
4	2.0	perception	358	diff_vonmises	-0.024074563081131175	-1.3793708581702837	7.7313980461594625	1.2938073232467802	0.15384762958669765	2.6075831728434204	0.9290212678497582	-0.4261372516523129	1.3551585195020712	47.83075896406285
5	2.0	wm	358	diff_vonmises	0.07920328051228495	4.538013696944689	4.730175538496061	0.5982507777563159	0.06183760029979854	2.48020611438321	0.08401815569514715	-0.3899690962415686	0.47398725193671576	60.76971034923662
6	3.0	ltm	358	diff_vonmises	0.0046549029243853875	0.2667062916103873	0.6196745796357565	35.97803363113272	0.5795465489741689	36.77066440389827	0.06580911447687043	-0.21473242825482597	0.2805415427316964	108.61786079905421
7	3.0	perception	358	diff_vonmises	0.04529270090049261	2.59508060434661	3.8115484429284514	1.9706619315200253	0.23741748769714244	2.681226335816394	0.9419663887596861	-0.38886712643259164	1.3308335151922777	66.56644042402263
8	3.0	wm	358	diff_vonmises	0.14154257594367312	8.109792222982405	2.1327500845409437	0.7708461990828974	0.0636897474035188	2.056245397397119	0.06493916989743653	-0.3018038234182056	0.36674299331564214	89.20361522274072
9	4.0	ltm	358	diff_vonmises	-0.25556104133028035	-14.642569076193462	0.9273585869369801	1.2053779330512953	1.877004262460474e-22	2.771183844077195	-0.04577536975425822	-0.3791863769362482	0.33341100718198996	131.1160085272089
10	4.0	perception	358	diff_vonmises	0.061511477850072216	3.5243480724215845	1.0543801511149034	338.3742697718999	1.0344829579162076	340.45738974275656	0.5428311998553568	-0.6551963317405551	1.198027531595912	84.68081476216423
11	4.0	wm	358	diff_vonmises	-0.3985590724392625	-22.835752737418588	0.7600745574921836	2.9111423395702603	2.2865803436780885e-16	5.669743805931396	-0.04061352948162167	-0.7139187859347906	0.673305256453169	137.47388644884956
12	5.0	ltm	358	diff_vonmises	-0.034042076006892304	-1.9504672810584913	1.9700911578019302	0.8997552228746791	2.4383300879909913e-10	1.6725952019698092	0.19375756290661356	-0.2572580233346739	0.45101558624128746	97.71370370693506
13	5.0	perception	358	diff_vonmises	-0.03802894396031152	-2.1788979882653727	2.1207406582223816	2.561839006403894	0.21624123012512064	3.3431884341343774	0.7162565722574126	-0.4159334139990694	1.132189986256482	86.92843065846026
14	5.0	wm	358	diff_vonmises	0.040493178226243216	2.3200882114347774	2.021910907322466	1.3888185766877197	2.997302523758461e-18	2.4006100883566917	0.3391115069601875	-0.3694256206781553	0.7085371276383428	96.51556629075606
15	6.0	ltm	358	diff_vonmises	-0.08209481690050423	-4.703686528298155	0.00047418188337905486	2541.4712148299654	3.8417965243979804e-26	2541.9729964207995	0.11195988932973933	-0.27163645861281793	0.38359634794255726	179.78072110640105
16	6.0	perception	358	diff_vonmises	0.15161690260316268	8.687008622007287	0.23887887386203446	147.21614499079297	0.2222910929127134	147.70379649728702	0.331927957736319	-0.4008163303192944	0.7327442880556134	153.09170711479106
17	6.0	wm	358	diff_vonmises	-0.3899292854048403	-22.34130236224948	1.2263309938211862	1.542036934453366	0.01212226973131749	2.1054985539604463	0.25294107213579226	-0.28008856501988644	0.5330296371556786	118.26056592003778
18	7.0	ltm	358	diff_vonmises	0.1385943731789653	7.940872647415847	1.012664257421484	1.2928403978893372	1.837040702533065e-15	2.75719933002585	0.006050583106480822	-0.38012069742283094	0.38617128052931177	127.87720181262344
19	7.0	perception	358	diff_vonmises	-0.04692121422988238	-2.688387545001442	1.8785105615373527	3.7257100291431082	0.5380588768033069	4.428886658813873	0.7260141109412879	-0.3976892120150983	1.1237033229563862	83.86866435761453
20	7.0	wm	358	diff_vonmises	0.6236484906677282	35.732426414964735	0.11509463645708336	104.35126343027915	0.10297388438205057	105.91613642073554	-0.06370158997458475	-0.4138595979418973	0.35015800796731256	157.69981907979343
0	1.0	ltm	359	diff_vonmises	0.12941510056515848	7.414939067644696	0.4438103987972401	96.14522919725435	0.4275879137781135	98.09305972130116	-0.16615688073819257	-0.3798437044441414	0.21368682370594883	112.98260636764675
1	1.0	perception	359	diff_vonmises	-0.0705821445680059	-4.044058992728967	10.764623931388961	0.8937096817977203	0.0651735058111262	3.206756044638703	0.611417584902626	-0.5219027712654527	1.1333203561680787	40.8878726005027
2	1.0	wm	359	diff_vonmises	0.007591460619733965	0.43495865385052457	8.35910736700537	0.2706304970785143	0.12794107645194042	2.7015689529072566	-0.1795299692085629	-0.4522892529834836	0.2727592837749207	44.20971103748269
3	2.0	ltm	359	diff_vonmises	-0.0036841124916948734	-0.2110840970255418	0.7026185033071265	23.874561079548076	0.6266309914220428	24.863180836600126	0.07756936682396542	-0.25759637106816324	0.33516573789212867	102.71798838295734
4	2.0	perception	359	diff_vonmises	-0.04396828204004591	-2.5191969933354876	9.720077927308962	1.0845878682967902	0.18547666002678187	2.560026866888162	0.8440261926955002	-0.4330803378239741	1.2771065305194742	42.576313122695126
5	2.0	wm	359	diff_vonmises	-0.16076370676813578	-9.211081896692928	2.488626131139336	1.7173300315052442	0.6138637135641832	3.6916283643583996	0.01937891371633127	-0.4686291961030392	0.4880081098193705	66.66596865944462
6	3.0	ltm	359	diff_vonmises	0.1423174662241795	8.154190165641129	1.3470558123182654	180.67672919081645	1.3324903936964956	181.2039979159952	0.2623274591568645	-0.21061945708604668	0.4729469162429112	76.31789872112068
7	3.0	perception	359	diff_vonmises	-0.031693054254702854	-1.8158782486736103	2.349657400293876	5.357195164745106	0.8676703905453257	6.534496539542414	0.9752247185583585	-0.5807496695791067	1.5559743881374652	71.57466370889904
8	3.0	wm	359	diff_vonmises	-0.05152942785343037	-2.9524187367254293	2.9357905569069094	0.887148057872046	0.356322555618015	2.415325503638835	0.04196304127821282	-0.3456190451253367	0.3875820864035495	67.69634123893687
9	4.0	ltm	359	diff_vonmises	-0.02531232654798435	-1.4502894808564515	1.5505731532989802	1.369244113503894	0.22217732543057953	2.848774481012744	0.045841328023507266	-0.3416718486532247	0.38751317667673196	92.76144065602952
10	4.0	perception	359	diff_vonmises	-0.03918544631405025	-2.2451606921315475	0.8870021215619697	463.93565688195366	0.8746069884249065	465.76219030085446	0.515521423497745	-0.5997826052072739	1.1153040287050189	92.8289062133907
11	4.0	wm	359	diff_vonmises	-0.2558573459289295	-14.659546079146375	1.0041702733729208	249.07267768514933	0.9879198057986363	251.28955269039878	0.013463497563336091	-0.5070354684161771	0.5204989659795132	80.12095020019784
12	5.0	ltm	359	diff_vonmises	-0.01117759369351106	-0.6404289437502292	1.1692853162226555	105.92174942478471	1.1473019426310878	106.36509594134283	0.268917464496532	-0.19213434796643725	0.4610518124629692	83.00653607265863
13	5.0	perception	359	diff_vonmises	0.0013460751273176596	0.07712442370283684	0.982453203403151	381.7282401061809	0.9695987372075549	382.6311078995632	0.626766309104994	-0.43154014763099013	1.0583064567359841	91.05957506474394
14	5.0	wm	359	diff_vonmises	0.029378060254094167	1.6832388628406265	2.438006951324074	1.2902978555339883	0.19744580475196985	2.2556061357383768	0.3161451239086226	-0.30392062096028044	0.6200657448689031	80.73334196142042
15	6.0	ltm	359	diff_vonmises	-0.20835209909486063	-11.937695930827013	0.743199715761138	147.22115836022863	0.7282876360411632	147.93799185088793	0.2111169562492492	-0.2516475033611183	0.4627644596103675	102.01144783934873
16	6.0	perception	359	diff_vonmises	0.11080503599292517	6.348660911189791	0.5273804465702383	3.7777667645712825	6.999063915457803e-13	4.508706992969373	0.2339001882813847	-0.386198065309392	0.6200982535907766	150.52287360898794
17	6.0	wm	359	diff_vonmises	-0.11368847567481029	-6.513869835442353	2.075500941111676	1.2031683186884155	0.19564354948799276	1.9151223484284392	0.26754216052812735	-0.24566902895034742	0.5132111894784748	87.02132270470699
18	7.0	ltm	359	diff_vonmises	0.14300399236252095	8.193525215893509	1.697231510390539	110.80202717374776	1.6778158264223653	111.12559447403318	0.21113639264416406	-0.15316276217679814	0.3642991548209622	68.20661058810543
19	7.0	perception	359	diff_vonmises	-0.019095415029552927	-1.0940866892440628	0.6157236845589419	164.056091566325	0.5960257549822177	164.75648591952947	0.4265131055757365	-0.3871827359339246	0.8136958415096611	115.14137805400824
20	7.0	wm	359	diff_vonmises	0.12093378497319754	6.928995479506835	0.6505524432301913	1.2119028443783573	1.547453569021518e-14	2.162546642167615	-0.010730600130327728	-0.25340468930169496	0.24267408917136724	144.28218065751292
0	1.0	ltm	360	diff_vonmises	-0.39350664007324976	-22.546269686570763	0.08665806767885031	32.982902681356585	0.06627707257894631	34.37943645244137	-0.12632404451152013	-0.31052835820848745	0.18420431369696733	166.80286985492225
1	1.0	perception	360	diff_vonmises	-0.07841978853960815	-4.4931229136279285	10.30260762773662	0.9289594653194222	8.873117461764065e-17	2.5818570870850746	0.7630598173465748	-0.41091531644434764	1.1739751337909223	42.29007189484085
2	1.0	wm	360	diff_vonmises	0.18632232100643298	10.67548262275033	2.3391745253670386	0.5187805164720712	1.427211229546571e-27	2.100456871807832	-0.04033234003102015	-0.331565669519933	0.29123332948891284	89.88795175010554
3	2.0	ltm	360	diff_vonmises	0.2498639222049711	14.31614819492998	0.7793142833298711	90.1513385391283	0.7608098973279716	90.8139045449865	0.12231518272492536	-0.19729451083257388	0.31960969355749924	97.8756808287952
4	2.0	perception	360	diff_vonmises	-0.013657943820962384	-0.7825425377679258	7.021599567290693	1.6273972945894422	0.54410065513715	2.31010742084377	1.0982708525653564	-0.40129416516993105	1.4995650177352875	48.416848937363596
5	2.0	wm	360	diff_vonmises	0.005947108388914716	0.3407442109916598	8.920787251596463	0.3866230251332192	0.1389153711761581	1.4602913886444957	0.18802632249429724	-0.24289021723256543	0.43091653972686267	44.20630066016753
6	3.0	ltm	360	diff_vonmises	0.15350511141312362	8.795195017657468	2.0802800748237096	0.9648276918576286	0.6222153931755082	1.26065705086776	0.16961414810667585	-0.1198268032429756	0.2894409513496514	77.87591035830062
7	3.0	perception	360	diff_vonmises	0.01650865034052059	0.9458759899690392	3.6654667832150962	2.4619603407021633	0.5812541993867898	2.850614355509358	1.0573676815749327	-0.37614340173776056	1.4335110833126932	64.59997071818387
8	3.0	wm	360	diff_vonmises	0.009449767120709723	0.5414317733981591	4.284560480343989	0.3541060661882784	0.030753209975447345	1.1124575821654412	0.10004265873720147	-0.1743232306237344	0.27436588936093587	64.98412299856028
9	4.0	ltm	360	diff_vonmises	-0.3107687024785164	-17.805735056775756	3.884245670947694	0.5263955876392727	6.06962450231479e-27	1.6508364043859427	0.13552699247617433	-0.26257035950674207	0.3980973519829164	69.49648353002988
10	4.0	perception	360	diff_vonmises	-0.0077855554574138884	-0.44607946887486094	2.1687853875515968	2.9327394067942865	0.3450190140047232	4.227943832666963	0.6660052574506495	-0.4943304425237043	1.160335699974354	81.97484918013359
11	4.0	wm	360	diff_vonmises	-0.27701668807067764	-15.871887081141848	1.1342951809649586	132.50280687850105	1.106804277843717	134.17031508596256	0.07693918063257144	-0.4110721270656974	0.48801130769826884	76.95826093363135
12	5.0	ltm	360	diff_vonmises	-0.13195249221331268	-7.560320900055675	2.282680829577515	0.6208156266811933	0.10289538045915853	0.9276248595035168	0.18349454622380149	-0.12993064700225074	0.3134251932260522	86.91812860077084
13	5.0	perception	360	diff_vonmises	0.005946490679540927	0.340708818851576	1.162920876929358	227.5793888360266	1.1437268363182103	227.9175018090717	0.6875630640230952	-0.316576331021853	1.0041393950449482	85.97142422564664
14	5.0	wm	360	diff_vonmises	0.056886211874620604	3.2593398529027477	1.8064269562533604	1.2569979812103589	0.10960528534332158	1.7112697690394818	0.3066279094060746	-0.22690687759831193	0.5335347870043865	96.88461150101915
15	6.0	ltm	360	diff_vonmises	-0.4461323108793525	-25.56149851780528	0.6862247314971015	84.81310480743043	0.6665725102652376	85.24631469491405	0.19678177205358338	-0.19151846302948705	0.38830023508307043	108.12583829063499
16	6.0	perception	360	diff_vonmises	0.15906179004383414	9.113569251307714	1.3135269788060122	1.9956721749531272	6.363996760737974e-18	2.5907858596578794	0.38577298208113914	-0.3546398576863361	0.7404128397674752	116.46369252395064
17	6.0	wm	360	diff_vonmises	-0.15679234671151054	-8.983539726521466	3.2506269146035076	0.7379339151679564	9.959239067885282e-14	1.108895759218575	0.3292953964466851	-0.17572678214122953	0.5050221785879146	76.143211207012
18	7.0	ltm	360	diff_vonmises	0.09501774189689798	5.444115589555631	1.3945651897399813	217.9393829987388	1.3807693458066843	219.03913976396447	0.08471095792836536	-0.30048844352205606	0.3851994014504214	69.64567412404398
19	7.0	perception	360	diff_vonmises	-0.08087314913398126	-4.633690121309215	1.6879228351490523	1.9076140487932618	2.2689525068328436e-18	2.7139966931852824	0.455768326762226	-0.4015936588953106	0.8573619856575366	104.91548248047148
20	7.0	wm	360	diff_vonmises	0.1271972326467374	7.287864596401703	0.00028426264688579067	2789.7522550753083	1.954408098400136e-30	2790.8294541692717	-0.04522075671860648	-0.2976444263023268	0.2524236695837203	179.38621539572574
0	1.0	ltm	361	diff_vonmises	0.31804785836844784	18.222799967686623	0.5083591469839066	116.13438567623085	0.4907937503561287	118.87885422204974	-0.29120239028595307	-0.49889842967631814	0.20769603939036507	99.55084932299005
1	1.0	perception	361	diff_vonmises	0.01343867880242886	0.7699795776110971	8.99438251706754	0.8347718697237095	0.0667297762274041	3.9594224865344443	0.3111433891573818	-0.6420401593620132	0.953183548519395	44.47557561855453
2	1.0	wm	361	diff_vonmises	0.1696006555610981	9.717401766302896	5.427654449034129	0.33429866443283146	0.12905653034159104	3.747489137564114	-0.3729935178970882	-0.6141727613721149	0.24117924347502667	52.42548015158226
3	2.0	ltm	361	diff_vonmises	0.14987430846356173	8.58716533240392	0.6506161567029116	97.1070294915929	0.6307619820750436	98.53922871777058	-0.022505238489795687	-0.31313650241907354	0.29063126392927785	99.58670170127928
4	2.0	perception	361	diff_vonmises	-0.04025366716415073	-2.306365238430182	9.428553419217462	1.2010520652217846	0.19588823708495898	3.0998666331130686	0.8561469403159118	-0.5260645567809727	1.3822114970968844	43.06429832815638
5	2.0	wm	361	diff_vonmises	-0.028082428336070154	-1.6090046221354108	3.094739421930756	1.0203328764864739	0.23640927918504262	3.6723889975098705	-0.04996952472956573	-0.5483285912030438	0.49835906647347805	67.75022835634906
6	3.0	ltm	361	diff_vonmises	0.14358520519173895	8.226826258006557	1.1094749872042882	106.4255626926475	1.0908883551591462	107.11883128004577	0.12156767446590777	-0.19847251762962692	0.3200401920955347	81.04975774630518
7	3.0	perception	361	diff_vonmises	0.012303768695715542	0.7049540183696822	2.4565664298078134	4.377671235206909	0.7324756132569045	5.417826899202066	0.9782530306838455	-0.5384754357040259	1.5167284663878715	72.5241158335748
8	3.0	wm	361	diff_vonmises	-0.02481505551472744	-1.421797949376721	3.4945323591076374	0.5398430772928415	0.08071048811294748	2.183518049996646	0.009140203374744083	-0.3359206435651919	0.345060846939936	69.28066991771581
9	4.0	ltm	361	diff_vonmises	0.20768746059162504	11.899614949689722	0.4838137879313981	1.2242179254998609	3.775658733663112e-18	3.011560024005073	-0.18094221326758225	-0.36593170194094876	0.1849894886733665	152.22745286232418
10	4.0	perception	361	diff_vonmises	0.0322971273217265	1.8504890859315886	0.9897655861735342	229.74333096776743	0.9609526173124576	232.02474767639373	0.4920585264284938	-0.6827123342804846	1.1747708607089784	87.0751588455098
11	4.0	wm	361	diff_vonmises	-0.27772666652039735	-15.912565849856028	0.5509956816634078	164.20925652309765	0.5303396881095113	167.25215622947246	-0.13043885063049743	-0.6424644559857668	0.5120256053552694	106.5021998874025
12	5.0	ltm	361	diff_vonmises	0.008876963800514427	0.5086125606598879	1.319426796453297	4.082942523299717	0.7792228425003629	4.999690326341813	0.13889410768256605	-0.25250895445780436	0.3914030621403704	83.09106205546178
13	5.0	perception	361	diff_vonmises	-0.036318801463251046	-2.0809140408178437	1.5338730299828718	4.633486081446146	0.4370016395036903	6.111076234298298	0.5981039477414665	-0.5421287493745457	1.1402326971160122	90.72722200660004
14	5.0	wm	361	diff_vonmises	0.09107805664481108	5.218388252001119	3.400912514610245	0.9065364239022764	5.6580891431161376e-18	2.6188949704112714	0.22045938099144013	-0.41610156426358025	0.6365609452550204	74.40471222332442
15	6.0	ltm	361	diff_vonmises	-0.2364771087742937	-13.549140284223117	0.5089049830200044	130.12424187607937	0.4954919104831357	131.07607685777208	0.09225872573175309	-0.2833489547054544	0.3756076804372075	119.39795656388705
16	6.0	perception	361	diff_vonmises	0.1570795511713745	8.999995329929005	0.4535244514948033	5.257238081712384	1.848031292586031e-11	6.354638656011289	0.24029752420527117	-0.5060557483064102	0.7463532725116814	154.13910877826837
17	6.0	wm	361	diff_vonmises	-0.3085661575719458	-17.679538529441224	1.0896267664439683	1.632310155800597	6.469222862406934e-12	2.904989214335619	0.12298033553916982	-0.396125836693196	0.5191061722323658	124.30611010885013
18	7.0	ltm	361	diff_vonmises	0.5666953534179247	32.46925202052167	1.5410224031049553	0.5592716356363204	1.140203418337261e-32	1.3106714619079352	0.03763383220633801	-0.19730507473298003	0.23493890693931804	108.04197096037984
19	7.0	perception	361	diff_vonmises	-0.043525015256237885	-2.49379967742495	1.8975216167540667	2.0642550288424313	0.14172448170977	3.145277837861887	0.45753707444686864	-0.41080615525110253	0.8683432296979712	92.77190726962803
20	7.0	wm	361	diff_vonmises	0.5637253143097669	32.29908131463544	0.3320123087241482	76.77814017666441	0.31629396095827167	78.36227981160323	-0.12006632130657735	-0.3362128352755249	0.21614651396894757	130.6548164464317
0	1.0	ltm	362	diff_vonmises	-0.35822325162532204	-20.52468044158386	0.00035261634772303584	819.6449935771172	5.143387851478552e-22	820.99972829052	-0.16961125779621966	-0.261606085753499	0.09199482795727931	176.34521832482386
1	1.0	perception	362	diff_vonmises	0.016116402647350266	0.9234018526266371	10.579706277873179	0.7469631030517997	0.07697635587689011	2.753833774001002	0.48462598773443505	-0.45024977596278726	0.9348757636972223	41.15147255195211
2	1.0	wm	362	diff_vonmises	0.4667102760320538	26.740529072022344	8.172757809723402	0.20432365843538122	0.2695999178671423	1.7567913719981774	-0.13033274898444833	-0.3142871832032739	0.1839544342188256	42.756829684990606
3	2.0	ltm	362	diff_vonmises	0.7899426985214606	45.26038268245487	0.5409656273154086	95.15782273848838	0.5258594336945825	95.9226498650231	0.07755559052020544	-0.22460235665820605	0.3021579471784115	114.64954776762877
4	2.0	perception	362	diff_vonmises	-0.019310522443206746	-1.1064114361884014	9.41388413582511	1.3835950535476276	0.44658784519902417	2.7312872720787875	1.0231012162105557	-0.5048754780187275	1.5279766942292832	42.26146880097366
5	2.0	wm	362	diff_vonmises	-0.12429006804032436	-7.121296334104424	5.226357808305389	0.48887705978591006	0.27579218857078813	2.116451019282994	-0.001471891793978164	-0.350223652569366	0.34875176077538783	53.739546029619135
6	3.0	ltm	362	diff_vonmises	0.18202456908386697	10.429239576193062	1.969806725827445	59.53662442743283	1.9540650221394662	59.525949651321014	0.15287835633187186	-0.047827281121478826	0.20070563745335068	67.2533982671905
7	3.0	perception	362	diff_vonmises	0.04796461057600553	2.7481697519936694	1.7523456107248734	354.3683949037678	1.7326758446430832	354.5056859699147	1.0905093346762271	-0.39316687622589797	1.483676210902125	70.69740653227947
8	3.0	wm	362	diff_vonmises	-0.1489119924139658	-8.532028684204372	3.579388616914189	0.5042093669090054	0.4555819213181313	1.0783649016007701	0.10749246797380968	-0.1578952899718224	0.2653877579456321	62.98240745571303
9	4.0	ltm	362	diff_vonmises	-0.4703040505083271	-26.94643718203464	1.0789985472773005	103.94810396673694	1.064080374807559	105.06278727067561	-0.1030839477687806	-0.23208089283675193	0.12899694506797132	70.11143872675498
10	4.0	perception	362	diff_vonmises	0.01314841302708858	0.7533485737470066	2.336864113998154	3.2679439921442235	0.5261772504390513	4.606983078266333	0.6914180094693296	-0.5084063796984192	1.1998243891677487	75.93647053915922
11	4.0	wm	362	diff_vonmises	-0.5066869076219456	-29.031021341272506	1.237697425912635	58.03084139789343	1.181140221905507	59.60731213977951	0.013197497476305386	-0.38052498421108893	0.3937224816873943	72.52279243950395
12	5.0	ltm	362	diff_vonmises	-0.20660538721936703	-11.83761671233585	1.9627594730527924	3.603978405042606	1.5405115096388042	4.067862923773701	0.047503417619947585	-0.14468291226477137	0.19218632988471895	62.161546757298
13	5.0	perception	362	diff_vonmises	-0.030026774339971345	-1.7204074420720763	2.5021825252065963	2.194744072127922	0.3204684069956417	3.2637490737490915	0.5964792501220173	-0.4107611337444368	1.007240383866454	77.84451550245558
14	5.0	wm	362	diff_vonmises	0.3357223845388017	19.23547572214142	3.1362932890364283	0.87903019936825	0.4678142156420059	2.081555294330689	0.0893161221665909	-0.29676976815514244	0.38608589032173335	64.84128280910855
15	6.0	ltm	362	diff_vonmises	-0.504084330783542	-28.881904672573476	0.7580325458950596	141.10324147904439	0.7451969181626076	141.99349693003646	0.08475497566900003	-0.23240877030952412	0.31716374597852415	96.81317044456128
16	6.0	perception	362	diff_vonmises	0.28680528358955404	16.432732291734137	0.4956440997263832	95.38639748699956	0.46247656587978364	96.37287610463787	0.35277037850761417	-0.4571375576140806	0.8099079361216948	125.39948204193416
17	6.0	wm	362	diff_vonmises	-0.11582512867928789	-6.636291034882867	4.354230518183867	0.44907871920721987	3.953636504047459e-17	1.5116177685085264	0.12094850179284791	-0.2405217111088128	0.3614702129016607	65.54692244507257
18	7.0	ltm	362	diff_vonmises	0.15718386284246091	9.005971948436214	1.45512001224727	69.90594342499486	1.4324230886121345	70.35530821282696	0.09147069993487023	-0.14110739105259107	0.2325780909874613	70.59003059035797
19	7.0	perception	362	diff_vonmises	-0.05198112413813409	-2.978299027460692	1.4470395529268905	1.493089934959253	6.227490215432556e-29	2.107894760061094	0.29734571027608336	-0.30045487373378005	0.5978005840098635	112.1253397630691
20	7.0	wm	362	diff_vonmises	0.3634931481662993	20.826623271852448	1.7301351836893173	0.7607801300383482	0.32847369459111814	1.7738600805377043	-0.022324485081368917	-0.21249745645134116	0.19017297136997224	82.20733127460628
0	1.0	ltm	363	diff_vonmises	-0.3228256540584126	-18.4965474960974	0.3103023567041432	2.2358109127058348	6.38072638201073e-18	3.604056892754512	-0.09977548788034085	-0.31885849629113333	0.21908300841079248	160.32542958044937
1	1.0	perception	363	diff_vonmises	-0.0838614433557937	-4.804906768162398	9.719307044969716	1.0075013086933242	0.0454459420070914	2.5378887566513333	0.8135788403382792	-0.40797272145381647	1.2215515617920958	43.24108904655819
2	1.0	wm	363	diff_vonmises	0.20543336915955415	11.770465023995461	1.5888062539108587	1.3461178816436623	0.17680142717764152	2.9755204579234364	0.04302131238447138	-0.3750792258150983	0.41810053819956966	94.07434222269274
3	2.0	ltm	363	diff_vonmises	0.12550675439876532	7.1910073274342325	1.8395260785798297	2.002381171670078	0.7768579739185555	2.5893587172960553	0.20711303464251307	-0.20044179005209875	0.4075548246946118	77.1399312026899
4	2.0	perception	363	diff_vonmises	-0.005146677349016399	-0.29488289061421863	6.9768060703831445	1.4273984979749494	0.36320998010821376	1.9760967589046343	1.0373215214500986	-0.3299707520959133	1.367292273546012	49.509953277605604
5	2.0	wm	363	diff_vonmises	0.010460833915339638	0.5993616335362736	7.802704526151077	0.4236061135424031	0.1404520587283536	1.3153700965953876	0.22417703401176506	-0.21606930437075728	0.44024633838252236	47.296394739668244
6	3.0	ltm	363	diff_vonmises	0.07119537198148641	4.079194335403124	2.069264692657025	0.6281405494952105	6.000260810648289e-23	1.0323442382008534	0.16647232947299956	-0.15902803488616735	0.3255003643591669	95.44527326932513
7	3.0	perception	363	diff_vonmises	0.023236825522993033	1.3313720317493727	4.468341077153261	2.0004545642411613	0.45433858192829546	2.3439362574539997	1.0747183802081306	-0.3429710448006987	1.4176894250088292	60.38221344252926
8	3.0	wm	363	diff_vonmises	0.0595705155271424	3.4131391231237975	2.46792458234461	0.6147988702562236	1.2760727362907308e-15	1.3430966953075807	0.14581388508870116	-0.21117683578209948	0.35699072087080064	87.55697901786084
9	4.0	ltm	363	diff_vonmises	-0.37677322227210136	-21.587515469735877	3.5696133863463584	0.7848969616484279	3.0784974841231496e-22	1.7899853460446788	0.281905258080149	-0.2844352609426967	0.5663405190228457	72.57277073379343
10	4.0	perception	363	diff_vonmises	0.003549831585435718	0.20339036782770034	1.7088238043679442	5.256954312529042	0.6385686006034931	6.456049126729661	0.7031528278017061	-0.5018937605965023	1.2050465883982082	83.35643376028852
11	4.0	wm	363	diff_vonmises	-0.2760035922349003	-15.813840965509527	1.1461742714048535	14.585907883599562	0.9148240168697024	16.070462490814766	0.15280284396909227	-0.38640214228113345	0.5392049862502257	82.32415944366166
12	5.0	ltm	363	diff_vonmises	-0.13961178983685588	-7.999166327919282	1.448765568476405	0.9860826292867858	1.182916533791843e-12	1.0293859745253673	0.2544079512018129	-0.14076207878392172	0.39517002998573464	112.00838803088409
13	5.0	perception	363	diff_vonmises	-0.0016604263536361527	-0.09513542225564826	1.2222008863908744	281.1451884109078	1.2083813465144944	280.99696568154036	0.7724724921172452	-0.2385307420178009	1.0110032341350461	86.33577826947922
14	5.0	wm	363	diff_vonmises	0.02572188979252894	1.473755726212541	1.8863908739928297	1.286880718690744	1.2557522856408016e-13	1.3043696127744342	0.4331354773349151	-0.1928657989619265	0.6260012762968415	99.73260844832859
15	6.0	ltm	363	diff_vonmises	-0.36771368630304263	-21.06844229436185	0.5349324812965791	29.61282874792028	0.49213230187210394	29.638489820871595	0.231069659598778	-0.14360352912529528	0.3746731887240733	125.5369185615174
16	6.0	perception	363	diff_vonmises	0.1323313281133163	7.582026598253923	1.231597605727582	1.9335013786907567	9.1878228852294e-15	1.8625651847709834	0.4478596815667701	-0.2330462531312205	0.6809059346979905	119.41598906580802
17	6.0	wm	363	diff_vonmises	-0.20401975989235485	-11.689471179104359	2.849574502277637	0.7350243711845155	1.703055693405827e-18	0.5779028691557263	0.37544269714758194	-0.09041066858953888	0.46585336573712083	81.42802570946168
18	7.0	ltm	363	diff_vonmises	0.17292127752010822	9.90765938991264	1.3011923656889368	218.97970621244153	1.28699520848129	219.94442440375184	0.18452689968272296	-0.289357901885154	0.47388480156787693	74.63841262579106
19	7.0	perception	363	diff_vonmises	-0.04674738887496401	-2.6784280857922553	1.7766602472691917	2.0408742922812326	6.641404541878263e-13	2.2944997071489563	0.6146443100148844	-0.33712757301378493	0.9517718830286693	102.52517449016632
20	7.0	wm	363	diff_vonmises	0.03445643679323098	1.9742084053114195	0.0004951635617011054	2292.079031107431	2.588055822084595e-25	2292.8282137793003	0.0614197552252449	-0.2998472846844038	0.3612670399096487	179.8944906471341
0	1.0	ltm	364	diff_vonmises	0.14937493755274261	8.558553486802381	0.0019442935282389566	237.68386924557183	1.5791487059682838e-15	239.6627109817577	-0.2413590741575362	-0.3884543209628575	0.14709524680532127	179.09636308113835
1	1.0	perception	364	diff_vonmises	-0.021004379096311133	-1.203462273511438	9.816581564621048	0.9191155911200456	0.15512736040064767	3.5509900045837366	0.47736492029740385	-0.5987941869632825	1.0761591072606862	42.11121776379156
2	1.0	wm	364	diff_vonmises	0.04637270665142638	2.656960375724972	9.775653776383152	0.1494425377708962	0.10826494809400722	2.6539364044434275	-0.2854384598584174	-0.4459380222734898	0.16049956241507235	40.505275536127044
3	2.0	ltm	364	diff_vonmises	0.2543197556157681	14.571448643582029	0.508663630110102	85.22822324333416	0.4925924266350933	86.05553989460995	0.05303382210197327	-0.2301830998038259	0.28321692190579917	118.44240941386218
4	2.0	perception	364	diff_vonmises	-0.034304435796350584	-1.9654993897083917	10.04272748780553	1.143497471287928	0.31691230993487113	2.6263755367912984	0.8670733861889616	-0.4697768447526254	1.3368502309415868	41.362315320564164
5	2.0	wm	364	diff_vonmises	-0.1525272737511311	-8.739169046576356	2.3273382578448842	1.8102883110996109	0.6024566372353296	3.866102505229065	-0.005733369838476277	-0.47635795190481633	0.47062458206634006	68.05003112836911
6	3.0	ltm	364	diff_vonmises	0.18691765613847183	10.709592813212021	1.7285526194075889	78.8763934952753	1.7054591957727683	79.10919431351688	0.19470704032688957	-0.12446131835964636	0.3191683586865359	68.21153636467764
7	3.0	perception	364	diff_vonmises	-0.015833703412709354	-0.9072043796101342	2.7947897575265834	4.674531259515335	0.9953148001487414	5.597123526121339	1.0320716805954524	-0.5462541280812214	1.5783258086766738	66.30508602572064
8	3.0	wm	364	diff_vonmises	-0.05042448381661181	-2.8891101068175784	4.857080557538914	0.2987671998925073	0.000689456665464476	1.6601570485741517	-0.00931422403811577	-0.26403588827608954	0.25472166423797377	61.91733162409167
9	4.0	ltm	364	diff_vonmises	-0.22182879850096415	-12.70985392856321	0.7847923172319133	155.4325490425682	0.7717024782480558	156.77287374751452	-0.01120745128609002	-0.2934251625140796	0.28221771122798955	90.30627281143356
10	4.0	perception	364	diff_vonmises	-0.005788361615107269	-0.33164869084117515	1.0059065038362145	309.13064292754257	0.9869546650207286	310.74457164569634	0.5610752602087672	-0.5594503133005766	1.1205255735093438	87.82287717440863
11	4.0	wm	364	diff_vonmises	-0.24016168994861475	-13.76025123478507	0.9324971255721647	278.8701522673225	0.9180249580328965	281.2104097494187	0.004333864593647263	-0.5261726638306641	0.5305065284243113	83.04282705032482
12	5.0	ltm	364	diff_vonmises	-0.07886937708259605	-4.518882439658571	1.4184610030966598	101.70447343423237	1.397138384478476	102.00915135783	0.25999441615908125	-0.15789696030199352	0.41789137646107477	75.87304032657508
13	5.0	perception	364	diff_vonmises	-0.023700945100469974	-1.3579641247281964	1.0309891061578114	375.5790564717621	1.0174670432403665	376.43804833810606	0.6622186558539624	-0.43020094970340494	1.0924196055573674	89.1523930129388
14	5.0	wm	364	diff_vonmises	0.12456749558559012	7.137191761568827	4.02929971984606	0.849882367046139	0.01758186599275632	1.72520468903042	0.37661463216853797	-0.2706420079714038	0.6472566401399418	67.6705100517265
15	6.0	ltm	364	diff_vonmises	-0.27020879660801594	-15.481823632948188	0.7911673731062319	159.80523271337245	0.7783139669122019	160.29598539018002	0.24525412219728793	-0.2124748356952768	0.45772895789256474	100.61104238701535
16	6.0	perception	364	diff_vonmises	0.16552241955963282	9.483736055560627	0.7801945029998602	2.9795764726802725	9.184272407343947e-16	3.5565507285087206	0.3273948644730639	-0.37836176612185823	0.7057566305949221	137.94390477167798
17	6.0	wm	364	diff_vonmises	-0.14215678357464065	-8.144983727981574	2.720155775461178	1.0161845043475184	1.5648272165881546e-08	1.4211298402721808	0.40294819548349814	-0.22345054761257635	0.6263987430960745	83.37211557811813
18	7.0	ltm	364	diff_vonmises	0.1533841982711353	8.788267204933872	1.6403167315996843	98.55837747441433	1.620854147299776	98.83997288444321	0.19835375307924608	-0.13647603328312918	0.33482978636237526	69.683351712496
19	7.0	perception	364	diff_vonmises	-0.004351626257239244	-0.24932981855811936	0.5780523181089189	42.92349715031302	0.5094976857967507	43.60528794417621	0.38391452568323814	-0.3803408042263481	0.7642553299095862	120.62661894610243
20	7.0	wm	364	diff_vonmises	0.18205282371053544	10.430858447052884	1.5319771044820356	0.7455325192280159	2.219956358012319e-14	1.7630736841618637	0.046470053377549336	-0.2653254394551765	0.31179549283272584	109.35142343695344
0	1.0	ltm	365	diff_vonmises	0.23360008099220525	13.384298734767565	0.5344102438701651	173.87350507096	0.5203552621650048	176.8320788616633	-0.28268162191988466	-0.5505394202732319	0.2678577983533472	99.39873127380375
1	1.0	perception	365	diff_vonmises	-0.07090168399744103	-4.062367253423618	8.97062197010926	0.9272776642313627	1.7072396914499608e-20	3.924388597788347	0.46708482403850415	-0.6245858263190229	1.091670650357527	45.34664135832338
2	1.0	wm	365	diff_vonmises	-0.00093805375197612	-0.05374652094464338	5.325201380164693	0.3643198191406117	0.06297865837980847	3.7016889129672923	-0.30013974795641	-0.5919647457329608	0.29182499777655074	55.72538953316621
3	2.0	ltm	365	diff_vonmises	0.05161493942508632	2.957318188880846	0.7049689615570814	165.5145464962085	0.6906280333749905	167.0792241248532	0.009928922454456313	-0.35360738301884	0.3635363054732963	96.64224097921266
4	2.0	perception	365	diff_vonmises	-0.04953052598832747	-2.8378900961942044	8.154736163034695	1.4149575216624872	0.28707456239060253	3.013187089629853	0.959606815151548	-0.5167683425063732	1.4763751576579212	45.819263049781426
5	2.0	wm	365	diff_vonmises	0.018235575689864184	1.0448215240205823	6.2066998885905615	0.5380033838164062	0.06560275257852101	2.7629089328053396	0.05396494387471851	-0.4415524670673636	0.4955174109420821	53.0704199840317
6	3.0	ltm	365	diff_vonmises	0.08097593590007947	4.639579369196441	0.9925475429030324	84.37297061686317	0.9599784945101618	85.55994672810242	0.12422572197099058	-0.30876419346700956	0.43298991543800014	84.6561463220107
7	3.0	perception	365	diff_vonmises	-0.030601191990820054	-1.7533191491435265	2.9013231517440348	2.8572479821350605	0.3119944355040488	4.239079767105735	0.9362189316759734	-0.5631946119427418	1.499413543618715	73.45318866562195
8	3.0	wm	365	diff_vonmises	0.0608298256624111	3.4852922789727434	2.850937400145929	0.8177894064912445	0.2475463277166339	2.6884729406907235	-0.019599018682596947	-0.3920685809852905	0.37246956230269357	70.09315579974907
9	4.0	ltm	365	diff_vonmises	0.1167179521146992	6.687446049582306	1.0015376451706373	1.1692387474298107	2.852611296240941e-20	3.201053375681652	-0.10958819401442976	-0.4555107969931233	0.34592260297869354	128.3868937566122
10	4.0	perception	365	diff_vonmises	-0.0005696929868841445	-0.03264100376666324	0.7819292135865992	341.7873284954538	0.7643061387755234	344.21868518153894	0.42852296631109255	-0.714594621995154	1.1431175883062465	97.49951020668027
11	4.0	wm	365	diff_vonmises	-0.13409553952423853	-7.683108466268587	1.800131035024413	1.6476209831036497	0.15336534874044566	4.867378610887338	-0.10041374724831731	-0.6602113603880363	0.559797613139719	88.33264576351795
12	5.0	ltm	365	diff_vonmises	-0.011690457170708293	-0.6698138564600346	0.8905043989180311	78.01638616590206	0.8525423888274761	79.37316816440512	0.13913150908652838	-0.35204925164542544	0.4911807607319538	89.79751257945199
13	5.0	perception	365	diff_vonmises	0.0019376551351198447	0.11101946139421835	0.9300981082987524	36.20580336580716	0.784608269163132	37.83199525857714	0.5155465920968076	-0.5598801952992569	1.0754267873960646	94.60965324441995
14	5.0	wm	365	diff_vonmises	-0.007188968499568214	-0.41189755407775464	1.763426514884323	1.607965510560531	0.10745437709715404	3.286572010394756	0.1877345613700413	-0.4466107760350775	0.6343453374051188	95.51100370578627
15	6.0	ltm	365	diff_vonmises	-0.16551128498539358	-9.483098091450044	1.3059532170240729	1.223507130414938	1.1516766206515033e-12	2.5985732637273573	0.07402633687888488	-0.3777851491654325	0.45181148604431737	116.74753389795548
16	6.0	perception	365	diff_vonmises	0.10470239979138538	5.999005612937813	0.4784897212543303	4.603694687822623	1.2297481170555477e-18	6.479113286282609	0.08624835645079099	-0.6020321063069037	0.6882804627576947	153.0879493528974
17	6.0	wm	365	diff_vonmises	-0.15117990816682805	-8.661970685134614	0.6377314179391412	90.7793503780779	0.6044119986457385	92.4903715971225	0.1177651030313207	-0.44602487835597415	0.5637899813872949	106.0613411301344
18	7.0	ltm	365	diff_vonmises	-0.11172210910636288	-6.401205330094694	1.137018625208322	142.35530938092717	1.1197044210779168	143.88560179721543	-0.09754082083626514	-0.3336994035638732	0.23615858272760804	70.96887668429036
19	7.0	perception	365	diff_vonmises	-0.0652966523832163	-3.741222597891143	2.5065000694683883	1.7140386979369815	1.773552094389919e-11	3.738787179303082	0.4166578431570971	-0.5883173526482998	1.0049751958053967	86.87975866254627
20	7.0	wm	365	diff_vonmises	1.2651183229355905	72.48594048887807	0.25199041041954456	98.04601407004331	0.238890458953149	100.11138120445291	-0.18548834554393423	-0.43194287941087595	0.24645453386694172	122.60696652805649
0	1.0	ltm	366	diff_vonmises	0.2427048475820431	13.905963433816993	0.48374754627254735	163.443605677091	0.4712267920296585	166.30230515258128	-0.3089197231588372	-0.5179014917243769	0.20898176856553974	101.41719784419445
1	1.0	perception	366	diff_vonmises	-0.0415033805679007	-2.3779685420659837	8.61704797534624	0.9249869947526038	0.015240360519943513	3.972200021385313	0.42454052565809974	-0.6330070061089971	1.0575475317670968	46.05504977040343
2	1.0	wm	366	diff_vonmises	0.037543215471662957	2.151067795876542	7.44238205339412	0.1650123209344545	0.0363028193465842	3.4826834045115675	-0.39822988087427097	-0.560294244393918	0.16206436351964698	47.644154205939486
3	2.0	ltm	366	diff_vonmises	0.1872060249907697	10.726115131391719	0.6005695705932418	149.60389373957048	0.5880209283376863	151.00958435234966	-0.014986941918103014	-0.3143523186350663	0.2993653767169633	104.0865227868934
4	2.0	perception	366	diff_vonmises	-0.04712189251015407	-2.699885563500953	8.481232464667528	1.4659004896125254	0.3700827452024369	3.0625165138801242	0.9941772600956084	-0.5427785273085023	1.5369557874041107	44.593878340764775
5	2.0	wm	366	diff_vonmises	0.022634317385285565	1.2968508583364478	5.723812924318709	0.5429701322484005	0.09633383058729747	2.9499285386391327	-0.009998694197317803	-0.4730071215290206	0.4630084273317028	54.3662712728692
6	3.0	ltm	366	diff_vonmises	0.13745245312437368	7.875445447746398	1.2528807001063098	117.10539194560035	1.2324857218176755	117.94506972460857	0.11490990284474378	-0.23541933721042874	0.3503292400551725	75.25585257798059
7	3.0	perception	366	diff_vonmises	-0.032520584098420555	-1.8632922161397552	2.519417659778426	3.6061011177697955	0.5492398769799834	4.836563165938044	0.896923093179286	-0.54392922148351	1.4408523146627958	74.04194132093045
8	3.0	wm	366	diff_vonmises	0.0924766955382919	5.298524357660416	2.6302621337315566	0.7468722732457608	0.33016407891034916	2.4878440251846587	-0.08269473711470648	-0.35652713828094884	0.27383240116624236	68.73503378104087
9	4.0	ltm	366	diff_vonmises	0.2700717267711827	15.473970109799096	2.2124347521699352	0.44336181464141766	8.612007740777421e-14	2.29755454796759	-0.12264644764013713	-0.3627563615065993	0.24010991386646216	92.33636519143096
10	4.0	perception	366	diff_vonmises	0.012907369977602178	0.7395378243304728	0.8322861268043255	300.7400475368727	0.8132427107542783	303.0231087081244	0.3944191225849778	-0.6590875811976034	1.0535067037825812	94.31902524105718
11	4.0	wm	366	diff_vonmises	-0.13849384383542954	-7.935112740314026	1.239506770097121	3.4034146180347453	0.34516179510361816	6.65441038362199	-0.13696044149446163	-0.6646096544615645	0.5276492129671029	90.7315746460954
12	5.0	ltm	366	diff_vonmises	-0.029846684021510535	-1.7100890268931048	1.0840565038076437	164.21472445816758	1.0650129061236893	165.58028755846982	0.10383877108836259	-0.34611316237198153	0.4499519334603441	79.67137170663418
13	5.0	perception	366	diff_vonmises	-0.01360190922900313	-0.7793319921419228	0.8868394230072176	171.59927333014346	0.8544854619755071	173.438496618326	0.4810796035859468	-0.5903109083371358	1.0713905119230827	93.10426460168026
14	5.0	wm	366	diff_vonmises	0.08898512268400582	5.098471969247378	2.6365469879492727	1.0180520233402646	0.007628756711530959	2.9590831628364107	0.144405737646584	-0.46419293451985777	0.6085986721664418	84.14798317492492
15	6.0	ltm	366	diff_vonmises	-0.15463292985029212	-8.859814254164263	0.6948160273886241	97.73053109354812	0.6686715143997105	99.21022101355528	0.07434476721214978	-0.3640634847294901	0.4384082519416399	100.16963683946418
16	6.0	perception	366	diff_vonmises	0.15681193983443362	8.984662329772439	0.3801662082193882	5.710229322231657	5.727475845534478e-10	7.879514325728786	0.02834228442908704	-0.6545247631721369	0.682867047601224	158.0351900168785
17	6.0	wm	366	diff_vonmises	-0.2118582992893232	-12.138586404097667	1.6957247248689296	1.417312237499729	1.0501573581215833e-08	3.3193338082752786	0.13313648950786006	-0.5060246925872383	0.6391611820950983	104.60580439618313
18	7.0	ltm	366	diff_vonmises	-0.44402572962974346	-25.440800303001286	1.3989608584364395	127.3925902245754	1.3759768139354165	128.97279627891464	-0.12594074513182107	-0.3726058922757822	0.24666514714396115	63.14198835018425
19	7.0	perception	366	diff_vonmises	-0.1040159591311689	-5.959675460221235	2.740771048417956	1.578151045262126	1.9123384860054246e-16	3.5386796622404053	0.4181370622872179	-0.5591131484410705	0.9772502107282884	83.05827756974767
20	7.0	wm	366	diff_vonmises	1.290962175684229	73.96668417773263	0.11337240696816721	120.10170195654983	0.10380247343427725	122.3541232176155	-0.2043393387190484	-0.49476157106050067	0.29042223234145226	130.6153162072771
0	1.0	ltm	367	diff_vonmises	-0.20103382682923046	-11.518389816678763	0.24452830027607453	64.12930664122204	0.23214376641655582	65.3766059417634	-0.10759935147477506	-0.2651052161529126	0.15750586467813754	145.49972751579662
1	1.0	perception	367	diff_vonmises	-0.07051787408207659	-4.040376565137962	10.32259728369256	0.9330465003932091	0.07010374185529823	2.51677615118488	0.7516436529704855	-0.4090531381090925	1.160696791079578	41.81431353924049
2	1.0	wm	367	diff_vonmises	0.06478807931517885	3.712083507518577	7.745969845089194	0.19257496335694	2.1619856869000147e-24	1.714677848902047	-0.06278003365888207	-0.27289941615437086	0.21011938249548878	48.853042703207734
3	2.0	ltm	367	diff_vonmises	0.25060467307016215	14.35859009317609	0.5518589800815681	93.21894112917458	0.5380127800154478	93.77815817094275	0.10081235938846689	-0.18825656340486585	0.28906892279333274	116.81150553001831
4	2.0	perception	367	diff_vonmises	-0.01756126207036226	-1.0061861995549315	8.006115374689175	1.3940880283090544	0.4349964407135685	2.261824697163511	1.0167731810339338	-0.3992403698063595	1.4160135508402933	45.88156088704591
5	2.0	wm	367	diff_vonmises	-0.0717570286908242	-4.111374894383386	5.724557603712541	0.5536872164228444	0.40053733593290725	1.825403965167038	0.09907279025824173	-0.3122492284886841	0.4113220187469258	51.19633965202223
6	3.0	ltm	367	diff_vonmises	0.20480101434180614	11.734233761783736	1.6149662338593174	88.1830340427393	1.5965784960047285	88.2973882490217	0.22582199961235716	-0.10228375686167013	0.3281057564740273	72.44954770470179
7	3.0	perception	367	diff_vonmises	-0.00088259486942534	-0.05056896103797196	2.3754209370574153	6.054102431216112	1.1712842453302197	6.580079400419401	1.0023068193144424	-0.4494848599218714	1.451791679236314	69.10398443368803
8	3.0	wm	367	diff_vonmises	-0.005548426893039084	-0.3179014439080238	3.60528724384012	0.47001985138639524	0.3209459095439103	1.3113143893442938	0.06088656514419771	-0.19783834026441094	0.25872490540860865	63.57260363746053
9	4.0	ltm	367	diff_vonmises	-0.2376072091779856	-13.613890267780695	4.885544728360962	0.43505065050487735	7.140505507624078e-16	1.4862669432652718	0.1360271280859692	-0.2365254602354542	0.3725525883214234	61.79248270767488
10	4.0	perception	367	diff_vonmises	-0.019550447483279578	-1.120158128384082	1.0503111232568534	359.56679161878367	1.035001045776412	360.8958784039179	0.5742803935178102	-0.4989842376389859	1.0732646311567962	86.52983690483558
11	4.0	wm	367	diff_vonmises	-0.3305797700073962	-18.940825613829237	1.2476955680031836	210.64538900694282	1.2297291448160765	212.27898338510167	0.06663801517363765	-0.41197095688650265	0.4786089720601403	72.83212008443942
12	5.0	ltm	367	diff_vonmises	-0.09702703075853755	-5.559239361150224	1.3932053652313598	71.52204468806087	1.3713170561396322	71.68723723877204	0.21254344477275566	-0.10914183724162907	0.32168528201438473	77.56162880667307
13	5.0	perception	367	diff_vonmises	0.00033282264978968477	0.019069333159309594	1.1416625464920898	298.2398518115972	1.1266671238039343	298.6434501406805	0.6862181247018952	-0.33155745121051083	1.017775575912406	86.40318905339987
14	5.0	wm	367	diff_vonmises	0.11689515232130653	6.697598873549752	2.7196451817136893	0.9006184820743559	0.08632372285735704	1.3738163536747374	0.31958404821286224	-0.20006867991778363	0.5196527281306459	80.49317347120913
15	6.0	ltm	367	diff_vonmises	-0.3696158158502607	-21.177426289504577	0.7994591831961142	147.65664593293795	0.7870694950598849	148.09343626025282	0.2178158115826747	-0.188061900937198	0.4058777125198727	100.05049148325392
16	6.0	perception	367	diff_vonmises	0.15891475944095051	9.105145018303219	1.1670754926860902	1.9884462570455386	5.445964265940371e-17	2.5075447370856234	0.3426815312275366	-0.3272157831139296	0.6698973143414662	121.7524198145486
17	6.0	wm	367	diff_vonmises	-0.13250210105455415	-7.591811167041888	3.6399187355014857	0.7009719145187007	1.3394520913915014e-13	1.0166108935847071	0.3498840039592916	-0.16144588213291935	0.511329886092211	71.86191462296071
18	7.0	ltm	367	diff_vonmises	0.06722274104771706	3.851579349335025	1.6776280077182255	149.8895994267552	1.6598760961314	150.46369681005373	0.18416953159780292	-0.21163200574572372	0.39580153734352663	66.59075675191494
19	7.0	perception	367	diff_vonmises	-0.06229736328443348	-3.5693759909912908	1.3969141815581816	2.0471359495445434	1.9246239251944498e-14	2.557632961506337	0.44232348009800915	-0.3550850118436201	0.7974084919416293	113.76132242944382
20	7.0	wm	367	diff_vonmises	-0.03528063991217931	-2.0214317654886775	0.00043836968892306755	1920.3053926686118	6.915204370383436e-28	1921.1658654106245	-0.0029566025160079334	-0.27091101229211745	0.2679544097761095	179.93924517402763
0	1.0	ltm	368	diff_vonmises	0.07160979211611052	4.102938860062329	0.32069216897899805	69.76106432083326	0.30322223260984293	72.08313013539615	-0.2703837834825258	-0.42668675850594706	0.15630297502342128	125.324290460033
1	1.0	perception	368	diff_vonmises	0.013061401250361634	0.748363166172618	10.614212048824601	0.7546020080372003	0.06294761317127594	3.716562221824469	0.3392825522147229	-0.6051777834849829	0.9444603356997058	41.05017794299343
2	1.0	wm	368	diff_vonmises	0.26328161720971294	15.084925489495452	5.9106301211060845	0.32234560593673445	0.16730937300595253	3.009699064552869	-0.2568918049578406	-0.5013302455028766	0.24443844054503605	50.31626657136928
3	2.0	ltm	368	diff_vonmises	0.2805757569602933	16.075806707513138	0.3486075051645359	139.04635993040614	0.338558144991749	140.25160212884705	-0.008600924280347755	-0.311997723179136	0.30339679889878823	134.7224322172556
4	2.0	perception	368	diff_vonmises	-0.046747288885935906	-2.6784223568429475	11.386248688463912	1.0995690560478468	0.23501247827886448	2.797004601525165	0.9076111075652723	-0.4910876908026912	1.3986987983679635	39.215935731462764
5	2.0	wm	368	diff_vonmises	-0.12472319098144725	-7.146112450641059	4.273432633338245	0.6810956337681136	0.16164141382433206	2.725187633591764	0.036321261671096616	-0.4273124147011291	0.4636336763722257	61.133919272182965
6	3.0	ltm	368	diff_vonmises	0.03206967462218088	1.8374570062087674	1.3440431238141237	99.13336392295136	1.3281795570206183	99.4912189798002	0.13997622806725474	-0.13062919239584048	0.2706054204630952	75.66641881947382
7	3.0	perception	368	diff_vonmises	0.04529538016015362	2.5952341146174054	1.598777169936134	130.94720503352758	1.5434754378566453	131.42251408106029	1.0381667915546302	-0.456806881491147	1.4949736730457772	73.43979050616352
8	3.0	wm	368	diff_vonmises	-0.1120663974724127	-6.4209316004048045	3.3793855559419983	0.6382718569391201	0.21322773622723293	1.5373801620239425	0.14764841866927936	-0.22668809149808897	0.37433651016736835	68.44961607735462
9	4.0	ltm	368	diff_vonmises	-0.350637272625491	-20.090035861418666	0.6546108455226919	102.24869964737177	0.6409017227975989	103.66679351710567	-0.12120620688460804	-0.26955558064972784	0.1483493737651198	91.01176270112582
10	4.0	perception	368	diff_vonmises	0.008243683582990591	0.4723282769466454	2.451977629426959	2.8527400662031877	0.3013189755765334	4.437551664298347	0.7287848594246629	-0.562841315995817	1.2916261754204799	78.59086630643861
11	4.0	wm	368	diff_vonmises	-0.3183421337084742	-18.23966070268491	0.8249689466685475	154.95014032463786	0.8051946462141074	156.82199094041255	0.01481854218697265	-0.4210327121741031	0.43585125436107575	89.10715829456318
12	5.0	ltm	368	diff_vonmises	0.0032007498826549345	0.18338945955312125	3.587747554128541	0.4415164883299168	0.10702522857623764	1.2781591538589172	0.09399096096918094	-0.19450950102359926	0.28850046199278023	68.60242454218113
13	5.0	perception	368	diff_vonmises	-0.01917837432503488	-1.0988399067465575	2.634877845160428	1.878379419391066	0.13437632257891602	3.294543424938306	0.5445439209594969	-0.46633588825336636	1.0108798092128632	79.84219777069032
14	5.0	wm	368	diff_vonmises	0.10760319397559232	6.165208876928966	2.770344118114121	0.8463098136073576	0.06201830995920187	2.2642448548861736	0.14647367383332305	-0.34073932339755214	0.4872129972308752	79.17796551049025
15	6.0	ltm	368	diff_vonmises	-0.3706515267693963	-21.236768153966658	0.5927076731541765	170.63625868992648	0.5815450428772563	171.71324574382234	0.07779980246943552	-0.28765789736106306	0.3654576998304986	109.40496108080325
16	6.0	perception	368	diff_vonmises	0.30963985626492607	17.741056933017706	0.488424819278504	5.375408322850828	1.1058588188969504e-17	6.380531813089682	0.2992008460815374	-0.5205120808541006	0.819712926935638	151.07996107357428
17	6.0	wm	368	diff_vonmises	-0.30440285937190004	-17.44099911372419	1.4488243733028894	1.0734816479393554	9.150953602267725e-15	2.213196597578664	0.1030599201096069	-0.3271279173791492	0.4301878374887561	111.74015108335396
18	7.0	ltm	368	diff_vonmises	0.4247897640055885	24.33866065787847	0.796849926830612	51.29299960148316	0.7680432934348915	51.91153037650776	0.09812289901760352	-0.17670347544390452	0.27482637446150804	96.51036485389247
19	7.0	perception	368	diff_vonmises	-0.07391694037520512	-4.235128718019405	2.208347957581986	1.2977776902869445	3.1027572183691504e-20	1.979442599816234	0.3955697007353353	-0.306457834195674	0.7020275349310093	92.49031840445713
20	7.0	wm	368	diff_vonmises	0.2665987912353497	15.27498556107486	0.7333232237599242	86.02258423668235	0.7141173612067125	87.13692819768377	-0.0049168805878210264	-0.24615681605530604	0.241239935467485	94.1094721227839
0	1.0	ltm	369	diff_vonmises	0.08126095931826813	4.655910008121043	2.972740583284076	0.49478190955321033	1.687907839593921e-15	2.6902288032584525	-0.1058024037948363	-0.4273192962517975	0.3215168924569612	79.70578103395022
1	1.0	perception	369	diff_vonmises	-0.09084420575530001	-5.204989582996753	10.842512085288076	0.9986371125497681	0.08058298783607258	3.5181048314993366	0.6900237192175166	-0.5764580898364667	1.2664818090539833	40.66036071980048
2	1.0	wm	369	diff_vonmises	-0.0023800173601770214	-0.13636494990601086	8.380563248017912	0.3396647719605644	0.0732850010943595	3.0368435311156685	-0.1333151819841562	-0.4950518468589903	0.3617366648748341	45.30524276149893
3	2.0	ltm	369	diff_vonmises	-0.1066937408631982	-6.113101051923746	2.037975944415367	1.488047319215717	0.459796908570511	2.450295497235305	0.19019941775896743	-0.2710667284783142	0.4612661462372816	79.03458177034133
4	2.0	perception	369	diff_vonmises	-0.057904147833884416	-3.317663287183165	11.595873709983522	0.8897666658119014	0.06672388249079517	2.170793311662789	0.8260467026110738	-0.3535966560524322	1.179643358663506	39.52832536753928
5	2.0	wm	369	diff_vonmises	-0.17663483016821727	-10.120430283648918	2.7664432710861933	1.3878511932554884	0.5504580635040013	3.000509084000938	0.09892194925162967	-0.40010502335166537	0.49902697260329504	66.45358165391943
6	3.0	ltm	369	diff_vonmises	0.04554348024960572	2.609449202639829	1.1925557484413094	129.11558236648114	1.1712854365329897	129.79609149632861	0.25422731396592724	-0.24089533009395403	0.49512264405988127	80.57572165258375
7	3.0	perception	369	diff_vonmises	-0.01982658885132872	-1.1359798633222664	3.164716133699115	2.897161691343617	0.5345626759009828	3.9231245294344284	0.9625512056096952	-0.50117833187993	1.463729537489625	68.08739075598027
8	3.0	wm	369	diff_vonmises	-0.0211137814582058	-1.2097305671167653	3.23439242563878	0.8880092135401934	0.24676757369233118	2.164855278778682	0.1725761512286118	-0.3155427379532139	0.4881188891818257	68.84533100778472
9	4.0	ltm	369	diff_vonmises	-0.1431009447038757	-8.199080175867048	2.0186932401647986	1.015587616260521	0.023839721147067516	2.3534542040432522	0.14332760977446418	-0.35639192643852735	0.49971953621299153	94.88893981784004
10	4.0	perception	369	diff_vonmises	-0.04569258589049921	-2.617992326564619	0.8900147635404212	437.85404020047406	0.8769151299732687	439.363002784635	0.6128331237419786	-0.5693107515085316	1.1821438752505102	94.0158969857485
11	4.0	wm	369	diff_vonmises	-0.16261616649991903	-9.317220021042045	0.9766037596723923	225.14302242125652	0.9602046779934447	226.84122309046492	0.1327295751514157	-0.4262494861751449	0.5589790613265606	84.22306791032963
12	5.0	ltm	369	diff_vonmises	0.01450336504744845	0.8309816059563512	1.6639236793663814	1.8653720309772208	0.36580421721650525	2.2978319365792337	0.35051492560081887	-0.22406295983048627	0.5745778854313052	91.63466192948911
13	5.0	perception	369	diff_vonmises	0.00874658811880462	0.501142584346775	1.0130522055287847	301.63863799466094	0.9979376664632321	302.4190585303448	0.5955977534117096	-0.3903766623786886	0.9859744157903982	89.96872142939017
14	5.0	wm	369	diff_vonmises	-0.009602766396197079	-0.550197986152144	1.7797755577634269	2.032456901791924	0.29893273899877726	2.6700136076703918	0.416388711347085	-0.29076006119884434	0.7071487725459293	90.69613028612093
15	6.0	ltm	369	diff_vonmises	-0.1796409911561971	-10.292670620797042	0.7201281798960659	109.91398187793463	0.6984827223212624	110.55810724202358	0.2705264431603567	-0.26758080001699014	0.5381072431773468	105.27455044748008
16	6.0	perception	369	diff_vonmises	0.201005212198692	11.516750319116582	0.000387144780150425	5069.565805596221	6.900484820167966e-31	5070.009146750724	0.2418255722603817	-0.3828849877851326	0.6247105600455143	178.61853995884928
17	6.0	wm	369	diff_vonmises	-0.27564297491294587	-15.793179114942228	0.8638427165187875	139.78941790822688	0.8470717222894925	140.14107917464216	0.3373363887188887	-0.21449722772371516	0.5518336164426039	98.22968407270939
18	7.0	ltm	369	diff_vonmises	0.13704570612377132	7.852140561282277	1.1978548927340225	150.98802620782735	1.1810177123737493	151.47993319416958	0.28555495663061947	-0.20856774194387384	0.4941226985744933	81.73335197162555
19	7.0	perception	369	diff_vonmises	-0.06977311584630584	-3.9977050614706897	1.958863573751689	1.7703682116335822	2.1702722387346962e-14	2.0458689513865402	0.5762858327454263	-0.3076748346518253	0.8839606673972517	97.97142420116246
20	7.0	wm	369	diff_vonmises	0.15453338476551534	8.854110740935281	1.532673225894878	0.9119218926431384	2.5294281390720046e-16	1.6684700697356347	0.13464886778546448	-0.24688094736897231	0.3815298151544368	109.36008932047937
0	1.0	ltm	370	diff_vonmises	-0.5366898985348001	-30.75006609334843	0.2421138091600627	2.8324298040030094	2.4566594661508056e-11	5.545676560503634	-0.3166619423903536	-0.5338910618768118	0.21722911948645818	159.95290021439735
1	1.0	perception	370	diff_vonmises	-0.048865772682025056	-2.799802537325709	10.063674190913176	0.8836187291170561	0.0317355762999036	4.124152039425876	0.4262758973971602	-0.6620230420397216	1.0882989394368818	42.43160666053831
2	1.0	wm	370	diff_vonmises	0.06409747810386193	3.672514972783495	2.722419035866885	0.4452923533548227	4.033939020841661e-31	3.303852036527451	-0.25001726139141917	-0.5246331930412595	0.2746159316498404	83.34353293917272
3	2.0	ltm	370	diff_vonmises	0.2664897134036108	15.268735861677781	0.7329486679903068	125.21193138419628	0.7162517343805946	126.31051458004895	0.08283057626501034	-0.2793448624253809	0.36217543869039126	98.00326543933124
4	2.0	perception	370	diff_vonmises	-0.04833519414573094	-2.7694026264958276	9.82404406311427	1.3507620827912368	0.4657163719500632	2.472843628613238	1.0719706649427398	-0.4621298627068825	1.5341005276496222	41.48447028594373
5	2.0	wm	370	diff_vonmises	0.011457772798521046	0.6564820239750541	7.162694463371221	0.45741934314965593	1.9775952843509518e-18	1.892914646691413	0.17791115792300394	-0.30126643501868294	0.4791775929416869	50.83548482846919
6	3.0	ltm	370	diff_vonmises	0.01813900300935643	1.0392883170112228	4.280129220782214	0.3328894300341434	0.11331793960135127	0.8936923525543448	0.10674622363680508	-0.13810497318837867	0.24485119682518375	63.316192664290554
7	3.0	perception	370	diff_vonmises	0.016426378054356792	0.9411621352009609	4.701942539470668	1.8875974583635888	0.2579425079911714	2.4519099096624206	1.0871277529108496	-0.37088871897867803	1.4580164718895277	60.33654384480678
8	3.0	wm	370	diff_vonmises	0.008113774647077675	0.46488504319779983	3.6090868737587636	0.43220614664759455	4.738206363266504e-17	1.3244628055568688	0.10320946031355366	-0.2105645386269251	0.31377399894047875	72.17894406952712
9	4.0	ltm	370	diff_vonmises	-0.48634479245602047	-27.86550399589593	0.4603753020279387	138.10956478137416	0.4479573617273673	139.5818445265509	-0.030939770183039172	-0.34366629629353795	0.3127265261104988	119.01078334512187
10	4.0	perception	370	diff_vonmises	-0.010625198212319348	-0.6087790140558459	3.012650714790799	2.0724684506202466	8.769017210996352e-17	3.3972369460705134	0.8198552770774019	-0.5373984010019047	1.3572536780793065	79.16768026532995
11	4.0	wm	370	diff_vonmises	-0.12455648972043767	-7.136561171945702	0.8942204427458272	59.816673856515216	0.8285437047729236	61.908423634380455	0.10277793377607836	-0.5017857328904416	0.60456366666652	88.50279732267134
12	5.0	ltm	370	diff_vonmises	-0.10197406463551732	-5.842683523409406	1.464062999182272	1.4723837170248397	0.23885623740848888	2.5163055429897003	0.12711884051690991	-0.2819364016974189	0.4090552422143288	96.45052461636622
13	5.0	perception	370	diff_vonmises	0.016738857790079477	0.9590659052412341	2.388553610083784	2.0357779109292258	0.22034298991491902	3.2721675531647967	0.5266309684195332	-0.42995059429529003	0.9565815627148232	81.28499141097512
14	5.0	wm	370	diff_vonmises	0.015284819825479638	0.8757556666178707	0.7146545265764582	21.941742975486957	0.5873654017254646	22.960771649939517	0.2625079824110408	-0.3577627113422053	0.6202706937532461	108.17379266932015
15	6.0	ltm	370	diff_vonmises	-0.3850654383994885	-22.062624456645477	0.5562482265686973	165.08994436891106	0.5432249047126554	166.08923461410737	0.15000103214709526	-0.3178723290298251	0.46787336117692035	115.58399116762433
16	6.0	perception	370	diff_vonmises	0.3810388050060908	21.831915357557346	0.22246137666498275	12.108450700375272	1.4749963599698548e-15	13.501225144706408	0.22895875686325695	-0.6249490719857709	0.8539078288490278	163.77861440337057
17	6.0	wm	370	diff_vonmises	-0.25447932074452395	-14.580591052017201	2.1861995595763957	1.2789889190623545	2.1132865981640729e-16	2.2112081817261675	0.34415557928622376	-0.34313850590686795	0.6872940851930918	92.88764478375273
18	7.0	ltm	370	diff_vonmises	0.12716270831781845	7.285886498064126	0.8996986633802934	225.188004770431	0.8879059235549637	226.86123958213616	-0.030220836449686317	-0.3640428674566927	0.33382203100700636	83.36629638523922
19	7.0	perception	370	diff_vonmises	-0.1086882856293379	-6.227380049073458	2.6244024555556433	1.4500712692293043	8.290875216274819e-21	2.8813529859670006	0.4206533350191433	-0.4539620610355512	0.8746153960546945	84.8960186954339
20	7.0	wm	370	diff_vonmises	0.5376345744684572	30.80419203735456	2.1253370231751525	0.6498642509799533	4.042842180414827e-21	2.2369713291054594	-0.008264435565875361	-0.35106772536623393	0.34280328980035857	93.84491081766942
0	1.0	ltm	371	diff_vonmises	0.2397145183517741	13.734630189567975	5.346177239363905	0.3862432227227369	0.006015818601348911	3.3199765792449454	-0.18453503354748108	-0.5271831816255254	0.3426481480780443	58.558844372745426
1	1.0	perception	371	diff_vonmises	-0.06729587276307823	-3.8557694879737725	7.762039510122528	1.1015811851988087	2.537839750149442e-19	3.799411041195909	0.5986262956905065	-0.6046948300820821	1.2033211257725887	48.80010789082931
2	1.0	wm	371	diff_vonmises	0.29235065842659347	16.750458865714542	0.5683603954808089	65.64109399005098	0.5225313205265371	69.04375920128312	-0.28806384606784974	-0.6485727237305055	0.3605088776626557	99.90443288146602
3	2.0	ltm	371	diff_vonmises	0.11287912563379349	6.467497493943351	1.1009721681253464	165.2373379748916	1.0833469602554053	166.52407342228315	0.08583291247368408	-0.323380374357221	0.4092132868309051	78.70375847977701
4	2.0	perception	371	diff_vonmises	-0.029392247918160155	-1.6840517561127573	6.905678743713311	1.5871460009499234	0.3662296493924049	2.6246945379223168	1.048536450472244	-0.4419500359782896	1.4904864864505336	49.42346388675199
5	2.0	wm	371	diff_vonmises	0.09269134528926382	5.310822882464642	7.019698733859591	0.42167386615358193	5.479746382560964e-13	2.07530719899346	0.10683155699962926	-0.3302950496399192	0.43712660663954844	51.35839462571971
6	3.0	ltm	371	diff_vonmises	0.09818292282913967	5.625467098368363	2.6259346845313676	0.5068185900124602	1.4152990534409577e-19	1.4652636232219183	0.0741936555364276	-0.23159370593094797	0.30578736146737556	84.87159836424937
7	3.0	perception	371	diff_vonmises	0.008873531950756885	0.5084159301528578	4.14267740027322	1.6500084579184016	0.04067027637037118	2.5263009986522986	0.8742871165002001	-0.3915056718710925	1.2657927883712925	66.43005700222372
8	3.0	wm	371	diff_vonmises	0.3164563862332103	18.131615331124838	0.8118212159006999	125.26450852329104	0.7946760519050863	126.6212812541838	-0.0004667378828457913	-0.3010683997797283	0.30060166189688253	89.31263084930103
9	4.0	ltm	371	diff_vonmises	-0.17936455372919125	-10.27683192293015	0.5192597235461128	2.2659872157423897	1.3049890832538265e-18	3.8944579467978904	-0.05255086752306837	-0.4190180010373926	0.36646713351432425	150.6979138700916
10	4.0	perception	371	diff_vonmises	0.05131860239638436	2.9403393278227763	0.8971126749265649	277.49787193310544	0.8762177754769592	279.5871875472537	0.4401934997309951	-0.6270536934873903	1.0672471932183853	91.42634555280645
11	4.0	wm	371	diff_vonmises	-0.21421883569650957	-12.273835177616421	1.8229683843212416	1.3766659454334231	9.568509853025552e-15	4.335064330727458	-0.018576931096117688	-0.6724254772577218	0.6538485461616041	101.23816660618431
12	5.0	ltm	371	diff_vonmises	-0.06417683323335709	-3.6770616867862818	1.5952094785238522	1.620560576464048	0.23037563698849273	2.8069699542777413	0.17356179741580946	-0.3272125112965447	0.5007743087123542	93.92072122410687
13	5.0	perception	371	diff_vonmises	-0.014533782397152022	-0.8327243917183393	1.6814697642322485	3.6851751203694296	0.40314198311572036	4.767205809899697	0.6202834817265557	-0.458542854194777	1.0788263359213328	89.46871197188574
14	5.0	wm	371	diff_vonmises	0.029585162645462685	1.6951049557931093	1.6837369523530377	1.561572684587973	3.229573092621252e-12	2.752746042642539	0.28747966520586704	-0.41309596055262315	0.7005756257584902	105.04183979199678
15	6.0	ltm	371	diff_vonmises	-0.13194501134744704	-7.559892278014471	0.46815083400746565	3.0444069672179372	1.4316572712060356e-16	3.935334880592068	0.10675784411655265	-0.3388952945989159	0.4456531387154685	153.59214365712938
16	6.0	perception	371	diff_vonmises	0.17647317269613158	10.111167992771655	0.32013546909079044	7.008307108910553	1.8691038766301626e-15	8.346002095145991	0.16933855156836986	-0.5388230564095597	0.7081616079779296	161.13531908785265
17	6.0	wm	371	diff_vonmises	-0.3377969045057357	-19.354336960762357	1.5712570342776015	1.595641679800074	6.976264083088612e-12	2.60727749830237	0.2959156938847566	-0.38426777829834385	0.6801834721831004	107.94596466252942
18	7.0	ltm	371	diff_vonmises	-0.049641756112517935	-2.8442631128650344	0.5728199465022931	6.530560393725881	0.287183335000761	9.071850131567906	-0.18439934373170375	-0.5205636485390506	0.3361643048073468	118.33194358115854
19	7.0	perception	371	diff_vonmises	-0.08945742756108621	-5.125533045347529	3.0784014493133123	2.1228837849375615	0.1472440074463754	3.624392579672738	0.746202615206626	-0.5231457747420972	1.2693483899487232	74.19276351943512
20	7.0	wm	371	diff_vonmises	1.0372760840585888	59.43154180641435	0.02271437400567631	146.42793809866765	0.01319542330994112	148.6655399440079	-0.1370368300539475	-0.5712627578881708	0.4342259278342233	149.45790843154927
0	1.0	ltm	372	diff_vonmises	0.03284144259521038	1.881676053826724	1.9936051193132711	0.6516682598410032	3.6592828096644644e-17	3.1870941027609256	-0.17170730476497348	-0.5010170947092091	0.3293097899442356	97.16516227696923
1	1.0	perception	372	diff_vonmises	-0.114218179778368	-6.5442196449669705	11.848512195768889	0.928332431566786	1.1379004490463679e-17	3.6645873283529666	0.6771032158978969	-0.5832371876348318	1.2603404035327288	39.404519834667695
2	1.0	wm	372	diff_vonmises	-0.041956472926333234	-2.4039288219337966	5.561362843191367	0.5084966250846102	0.05848486743371352	3.2422933282943864	-0.08014835129618497	-0.5161986809112091	0.43605032961502416	55.74280067388253
3	2.0	ltm	372	diff_vonmises	-0.07992589964676419	-4.579416723545745	1.509693636658425	1.872442047449543	0.3138195481481424	3.186116269744682	0.13695568186346396	-0.3384705549227406	0.47542623678620455	91.70181976173052
4	2.0	perception	372	diff_vonmises	-0.0633334233366768	-3.6287378593069364	10.372352765341114	1.0927668498856349	0.17164346702686933	2.3886521428938887	0.9379610291300631	-0.4035026635052407	1.3414636926353039	41.3725436237807
5	2.0	wm	372	diff_vonmises	-0.07037786476107616	-4.032354621952146	6.646895396383105	0.5110361829183215	0.0738919100600081	1.9843869027752583	0.1753588384257712	-0.31775065044222034	0.49310948886799155	51.537508749731984
6	3.0	ltm	372	diff_vonmises	-0.07449897504805754	-4.268476848304126	2.37102471251179	1.1650874862214795	0.1817817870944865	2.267563243989284	0.2362318359593396	-0.3087992236894103	0.54503105964875	81.51685007343059
7	3.0	perception	372	diff_vonmises	-0.013245037055931864	-0.7588847227992771	3.433513858509425	2.4223765950084943	0.22124454424159481	3.4919158666222656	1.0269772293560275	-0.498104179109519	1.5250814084655464	69.83956228485195
8	3.0	wm	372	diff_vonmises	-0.030114850765494933	-1.725453849529176	2.899437968299506	1.1179220878277414	0.32919682955583474	2.389796036215539	0.20344567560731053	-0.33080411218572026	0.5342497877930308	70.72344581338274
9	4.0	ltm	372	diff_vonmises	-0.14022582958578406	-8.034348213986139	1.1729120239818325	1.5041573997028717	2.0197144448517926e-18	3.202102333447357	0.05310993705254652	-0.4557377321394649	0.5088476691920114	121.59954956567215
10	4.0	perception	372	diff_vonmises	-0.06594448114927962	-3.7783404520337385	1.6214387502821141	3.9143307893984733	0.20097785010665947	5.607443851475346	0.6973964433421487	-0.65632553958246	1.3537219829246085	96.86834035064176
11	4.0	wm	372	diff_vonmises	-0.1442376335201822	-8.264207647661133	0.9605544836138596	189.61622264835935	0.940455221040761	191.49632533505797	0.10249547948846782	-0.45632024649377456	0.5588157259822424	84.22972867418639
12	5.0	ltm	372	diff_vonmises	-0.0489392876897236	-2.8040146369977075	1.5623130035017534	1.3381351887558082	7.217533868593338e-16	2.3895492781303065	0.2137944155260027	-0.3541952739951508	0.5679896895211535	108.5494522549843
13	5.0	perception	372	diff_vonmises	0.04219773664086791	2.4177522145262826	1.616577013632887	3.6086757631350954	0.4445412592584635	4.764808451801737	0.509239019157472	-0.4344770672154776	0.9437160863729497	88.99090963208539
14	5.0	wm	372	diff_vonmises	-0.07667743380982997	-4.393293341196982	0.7357163059971618	170.4541590240342	0.7181689192649707	171.43050846818082	0.2894292878295843	-0.34518088958532367	0.634610177414908	102.67246541743212
15	6.0	ltm	372	diff_vonmises	-0.2390182099339376	-13.694734655986512	1.28019532422697	1.4229254452518956	4.599934924414194e-15	2.6264978075949243	0.1424017881586484	-0.3747121868740391	0.5171139750326875	117.50235933195619
16	6.0	perception	372	diff_vonmises	0.2660373506517767	15.242817385188765	0.0008043077216575613	2692.8860188029807	9.1654684523825e-27	2694.0968971052625	0.15206405687087	-0.5373599679262497	0.6894240247971197	177.6690740212902
17	6.0	wm	372	diff_vonmises	-0.17792391816950792	-10.194289585543828	0.7371258554247374	133.83714429746797	0.7181864870369737	134.88961599769067	0.18048509494958154	-0.3120595103058861	0.4925446052554676	100.51977751858564
18	7.0	ltm	372	diff_vonmises	0.1369249894615407	7.845224006019556	1.1635788787731451	192.45430680973888	1.1488611802182582	193.625375688107	0.09360182574233988	-0.3026616083788518	0.3962634341211917	76.76424162085965
19	7.0	perception	372	diff_vonmises	-0.07034287204958606	-4.030349687270044	2.101645345164744	1.6824286215149131	1.9292019999398725e-16	2.8715326230745024	0.43726022871691766	-0.4436524326637286	0.8809126613806463	94.73904795178649
20	7.0	wm	372	diff_vonmises	0.4886820996072882	27.999421831089318	0.19270832124891782	18.749526832476946	0.14504086990400017	19.919243400562873	-0.060956581890380335	-0.28950890121426776	0.22855231932388742	153.7792578925001
0	1.0	ltm	373	diff_vonmises	0.15596418040623578	8.936089292494279	0.3120992835132991	71.7774630861671	0.29920889148546875	73.50191236421541	-0.19622649151792437	-0.3209992196088116	0.12477272809088724	127.66752339096901
1	1.0	perception	373	diff_vonmises	-0.03843376108498268	-2.2020923009836513	8.906643783417863	0.9126993846765146	0.05129803589182086	2.9058692441002614	0.583987021789252	-0.46732865639198823	1.0513156781812403	45.03578952768555
2	1.0	wm	373	diff_vonmises	0.21068771283351884	12.0715167406249	7.670434522562813	0.08265865800235617	0.030135641625369424	2.245914877484753	-0.2785607050647374	-0.3609288557470116	0.08236815068227421	46.892427561795074
3	2.0	ltm	373	diff_vonmises	0.4377694988560381	25.082344684008103	0.493508190114216	94.543730926553	0.47976736363088923	95.45823245884147	0.020101510019678415	-0.23334441781841342	0.25344592783809183	117.90966879047491
4	2.0	perception	373	diff_vonmises	-0.02180376033796935	-1.2492634448803812	7.285288168263261	1.6848896475391593	0.5128942721149491	2.9514841953136863	1.0454414538742294	-0.5229015428474786	1.568342996721708	47.31194008637925
5	2.0	wm	373	diff_vonmises	0.0018211542657197305	0.10434445326798701	4.842927691838989	0.5918631661604349	0.29671123352666967	2.739544830298113	-0.06936963416686093	-0.45277569537533285	0.3834060612084719	54.603181499891946
6	3.0	ltm	373	diff_vonmises	0.27805353701315233	15.931294149538251	1.6776926856650278	86.28550504731683	1.656233550007505	86.56562562152757	0.18345415627985062	-0.1322687508344753	0.31572290711432593	68.6684035089566
7	3.0	perception	373	diff_vonmises	-0.028152707569059826	-1.6130313255731357	1.5064752552397598	301.64437342291006	1.481894482073726	302.5457049967987	0.910996783070118	-0.5169002187011138	1.4278970017712318	73.93391577302398
8	3.0	wm	373	diff_vonmises	0.08787373254554257	5.034794004920973	2.305884313960125	0.767176415726885	0.5779079618396817	2.1870401078158013	-0.14059802770456525	-0.2963704128177214	0.15577238511315616	63.203843398275325
9	4.0	ltm	373	diff_vonmises	0.12157125401283884	6.965519765048539	0.7699135469319699	77.28841913726879	0.7477164893763447	78.68886711762168	-0.08370451646351285	-0.2810142756876779	0.19730975922416505	87.146285915302
10	4.0	perception	373	diff_vonmises	0.004841958783174673	0.27742380285220847	0.9682572720189251	347.0080851381753	0.9527232530762314	348.95480945404097	0.3751270197472678	-0.5668505802071593	0.9419775999544271	87.3747342196846
11	4.0	wm	373	diff_vonmises	-0.30979603011261214	-17.750005035360438	0.9414532178692155	208.67028155075886	0.9228028239685525	211.4051835041212	-0.15457392225582112	-0.5685411473888351	0.413967225133014	78.70804342585835
12	5.0	ltm	373	diff_vonmises	-0.13042486988143404	-7.472794587749096	1.5691683461511456	97.98012233384786	1.5443955521245556	98.62033642855799	0.1372266635061692	-0.20912221939767406	0.34634888290384325	67.94864657346429
13	5.0	perception	373	diff_vonmises	-0.019695313017081016	-1.128458312067814	0.9981141038100092	353.33830347924294	0.9830076004578354	354.50741028324467	0.6148205071934569	-0.4827696133816559	1.0975901205751128	89.5120691664439
14	5.0	wm	373	diff_vonmises	0.2273071615966623	13.023741012586937	3.8619492103816766	0.7761391196616169	0.12975946297362412	2.251210875944395	0.17915943680840063	-0.3444795864798219	0.5236390232882225	65.78326947822435
15	6.0	ltm	373	diff_vonmises	-0.27322230562357863	-15.654484981064554	0.8155921038170456	171.35257910705747	0.8028919154360313	172.28733255985483	0.13119962820878328	-0.25834298514165255	0.38954261335043583	94.39550473323082
16	6.0	perception	373	diff_vonmises	0.09652800852023592	5.53064749301237	0.44909629917009697	93.31801809291814	0.419336052722704	94.80529629410124	0.16837401406346686	-0.48026269662240395	0.6486367106858708	127.65944983216869
17	6.0	wm	373	diff_vonmises	-0.08273496110381082	-4.740364089427387	3.00143121501187	0.8609000551497502	0.009915814503108543	2.156826210100042	0.2173072989455272	-0.33848017672967956	0.5557874756752068	78.7623205689791
18	7.0	ltm	373	diff_vonmises	-0.3264304374284874	-18.703086369261626	1.9042990021134543	143.7884095456857	1.882874201409106	144.7832436727062	-0.002053545435941828	-0.3004755416330056	0.2984219961970638	57.25869307579541
19	7.0	perception	373	diff_vonmises	-0.11041414015844608	-6.326264229644895	1.8091348638510463	1.9201594539706048	0.04835143350839417	3.244325842446443	0.3904709492517958	-0.4666827357258604	0.8571536849776562	98.9815454978685
20	7.0	wm	373	diff_vonmises	0.8010268277354241	45.895456505992634	0.6560168882496972	149.2609597927189	0.6436720144726784	151.01537905734082	-0.13022046535863296	-0.340658380774034	0.21043791541540102	92.62062435646828
0	1.0	ltm	374	diff_vonmises	0.3734442575078777	21.396779838598096	0.8338125864445883	183.2339861473304	0.814552003821753	186.06740818810292	-0.19445056663192872	-0.5663545998845301	0.37190403325260135	82.56140798088464
1	1.0	perception	374	diff_vonmises	0.005367960116045864	0.3075614592439836	8.580667433224699	0.835300091602819	0.018897025371619837	3.796025789093052	0.3453401996034968	-0.6054355647259312	0.950775764329428	46.08950761591757
2	1.0	wm	374	diff_vonmises	0.29935069964915795	17.151531684185084	2.437728126390243	1.1722280242566563	0.34267449804669514	4.6383359053928706	-0.3293808446073675	-0.6717618751923937	0.3423810305850262	67.11403060799393
3	2.0	ltm	374	diff_vonmises	-0.06307208515101978	-3.613764284243183	2.0343838773430747	1.0956587720515145	0.2929454270164054	2.7578351328544017	-0.004836056541312583	-0.3563281364565676	0.351492079915255	79.25601453952311
4	2.0	perception	374	diff_vonmises	-0.04785913568132049	-2.7421264856836296	9.643057317145944	1.1309238323141944	0.08852141431443424	3.026532662335717	0.856569538162469	-0.49383980468822963	1.3504093428506985	43.14528995426761
5	2.0	wm	374	diff_vonmises	-0.038528585757804545	-2.207525354530053	3.4615526020764222	0.8422438849373111	0.17609750277698324	3.365536903128502	-0.035916973544798614	-0.5144481008060386	0.47853112726124003	66.22881048920277
6	3.0	ltm	374	diff_vonmises	0.03060200718640697	1.7533658564101344	0.9684804752664969	172.54326167968327	0.9568204578557628	173.30753929263986	0.1268096198059112	-0.215171109245599	0.3419807290515102	86.75057209325388
7	3.0	perception	374	diff_vonmises	0.05682187855162985	3.2556538250133253	1.290117382224509	239.87158484136876	1.2623609484688825	240.63867251336	0.9154711593998286	-0.48393954278861884	1.3994107021884474	80.67245009382523
8	3.0	wm	374	diff_vonmises	-0.029693342807937874	-1.7013032225299771	2.5537491749683987	1.0581813599256202	0.390675024737354	2.3156978758266806	0.10695117771824014	-0.30607328581700843	0.4130244635352486	72.12394425916077
9	4.0	ltm	374	diff_vonmises	0.3055760269124527	17.508216662459603	0.8197435374318166	0.6585586893786118	2.4871782573426406e-19	2.3473082971164634	-0.17114125607312036	-0.3342930123579636	0.16315175628484324	135.41537619328213
10	4.0	perception	374	diff_vonmises	0.04440798965034375	2.5443903836253376	1.0453734982555696	290.5715328435917	1.0217834908261374	292.84773354566073	0.5054205088814712	-0.6853883344377216	1.1908088433191928	84.57768113865038
11	4.0	wm	374	diff_vonmises	-0.3298946909779048	-18.901573476806462	0.8737532095571223	3.661938165591432	0.2658529340980863	6.032581668263469	-0.0671967206177877	-0.5215073431984656	0.4543106225806779	109.02781934196007
12	5.0	ltm	374	diff_vonmises	0.08668291246619061	4.966565040214673	2.8452721854739367	0.6545025863468314	0.12699966135203747	1.8724266869297668	0.07886818127239564	-0.27570483055297856	0.3545730118253742	75.35207813163893
13	5.0	perception	374	diff_vonmises	-0.030231504626288222	-1.7321376234165382	2.7865606050430434	1.7689828623238315	5.142496802126967e-18	3.435158839107241	0.5638283443715112	-0.5425037078516539	1.106332052223165	82.3688845769465
14	5.0	wm	374	diff_vonmises	0.06044594244280168	3.4632973906632296	2.588239793649989	0.9329439204526012	4.3559426479636627e-16	2.7938810892809562	0.11642237148338247	-0.441490538082895	0.5579129095662775	85.49687129644548
15	6.0	ltm	374	diff_vonmises	-0.23762462270532836	-13.614887989403869	0.4135013213502313	47.4523466764755	0.38013032497628896	48.72347944867126	0.004829926934256434	-0.3281823765565939	0.3330123034908503	128.50016925195166
16	6.0	perception	374	diff_vonmises	0.2248416146201771	12.882475576643094	0.06651883551701378	257.61109908293594	0.05725990451662236	258.80476966062395	0.18997676481259873	-0.5467775142746945	0.7367542790872932	171.34161194086698
17	6.0	wm	374	diff_vonmises	-0.4909990682051354	-28.132174353010306	0.312053858863828	115.04757978868155	0.2965805655242567	116.48619295352253	0.0175440531412292	-0.4014690801001475	0.4190131332413767	138.87255357247568
18	7.0	ltm	374	diff_vonmises	0.5105525003129996	29.25250348778652	0.6019318981561735	1.8070948384171825	3.426169391700432e-16	2.827001866596794	0.030611604422211447	-0.30575104220547294	0.3363626466276844	143.06137464823013
19	7.0	perception	374	diff_vonmises	-0.07472909633095651	-4.281661826590374	3.2607136499527685	1.3711345380822735	0.03367749436006414	2.0805402092454313	0.5990083943040618	-0.3196538936832944	0.9186622879873563	75.0289182216708
20	7.0	wm	374	diff_vonmises	0.8712748087403804	49.92036933689181	0.00040942456321395033	1708.1219928964802	4.5044124388303447e-20	1709.6235281614458	-0.12766092800023898	-0.35026980597268675	0.22260887797244777	158.68453148068704
0	1.0	ltm	375	diff_vonmises	-0.22272858004791599	-12.7614076136873	0.14168118523855977	54.937614865051465	0.12970120874148552	56.30014296051271	-0.1345139196814369	-0.2868749380996327	0.15236101841819583	160.70588682291958
1	1.0	perception	375	diff_vonmises	-0.0685673502075289	-3.928619779286875	11.046974335741485	0.8404191455246105	2.3148762960264265e-17	2.5794145284063474	0.6906644977160867	-0.4105265721992862	1.1011910699153729	40.81413868733705
2	1.0	wm	375	diff_vonmises	0.09782061960194338	5.604708652546047	7.716363127426801	0.17247142382048739	1.3156125845110915e-31	1.7183162179512659	-0.08568383730859697	-0.2734784826002799	0.18779464529168294	48.949982560429845
3	2.0	ltm	375	diff_vonmises	0.3366708819911751	19.28982062304133	0.23753021268819732	99.48550712140266	0.22574464368179745	100.24285752559932	0.056259878810074326	-0.25782507041582114	0.31408494922589547	149.97805200960624
4	2.0	perception	375	diff_vonmises	-0.028415653465464034	-1.6280970156773809	8.295133433382631	1.4634308633909943	0.461340800929714	2.50234871026394	1.0549140047451848	-0.44976584391431923	1.504679848659504	44.944657178702016
5	2.0	wm	375	diff_vonmises	-0.06843179645895785	-3.9208531215965765	7.422432842390938	0.42970931312294885	0.26225824843998535	1.8051390356436043	0.09151859642031362	-0.3107795488145925	0.40229814523490615	46.7105885012968
6	3.0	ltm	375	diff_vonmises	0.12096275383576575	6.930655273069288	1.6151096830417309	104.57171907959741	1.5987526173514146	104.7466666051018	0.2136526861793442	-0.11353780648427225	0.32719049266361644	71.54684464826667
7	3.0	perception	375	diff_vonmises	0.009683482330053112	0.5548226685015517	1.5740877950049665	317.67254522990316	1.5518938052524145	318.12624734356655	1.0162181157345458	-0.44416157800500145	1.4603796937395472	73.67499879894606
8	3.0	wm	375	diff_vonmises	-0.04122321766990159	-2.3619163904344807	2.0442344066240663	1.9775836549932237	1.0130973632773752	2.7438867235479973	0.08934043077229237	-0.21868670320411654	0.3080271339764089	67.79621090942067
9	4.0	ltm	375	diff_vonmises	-0.1317722407470005	-7.549993251784943	8.801177887536651	0.24867067010441107	2.1698385337542483e-22	1.4537272063523783	0.058444701120372006	-0.23136786422540412	0.28981256534577615	45.796317168980835
10	4.0	perception	375	diff_vonmises	-0.030447668424978938	-1.7445228967650317	1.3526118843703494	8.841711778997338	0.7418706598038464	10.245779047220086	0.6010609562318359	-0.5225780876072208	1.1236390438390567	86.76591290239298
11	4.0	wm	375	diff_vonmises	-0.3684817909549541	-21.112451449140742	1.2660980065975533	175.4689893027861	1.2457328061409176	177.0806383883947	0.029770010211947806	-0.39866402297712966	0.42843403318907747	71.51088790626204
12	5.0	ltm	375	diff_vonmises	-0.12092710721018007	-6.928612871869345	2.737223365649662	0.6752801489600482	0.5605464576710038	1.2118524125692678	0.10680770590335031	-0.15329052986942324	0.2600982357727736	68.66892158798433
13	5.0	perception	375	diff_vonmises	0.007716787507162316	0.4421393555596802	1.1097228864473931	78.60557611644599	1.0495702717237672	79.52953310561695	0.5628873134379297	-0.4039884803169489	0.9668757937548786	86.09908221753238
14	5.0	wm	375	diff_vonmises	0.12629395607563262	7.236110661144351	0.9716657630860783	15.654977138008523	0.8247467022291992	16.637525736054517	0.13493944403395108	-0.2671495851745651	0.4020890292085162	89.35731034161455
15	6.0	ltm	375	diff_vonmises	-0.39455397855942476	-22.60627776155021	0.7494416503624436	132.47894799623336	0.7337203875325337	133.45050217019477	0.11479778445075084	-0.2638766497409275	0.37867443419167834	98.20473722074394
16	6.0	perception	375	diff_vonmises	0.2205354520764763	12.635750636991718	1.046105409552426	2.3145146986136758	1.3808677265411298e-13	3.498466618152781	0.2542229580382721	-0.4567026613463757	0.7109256193846478	126.2876128523481
17	6.0	wm	375	diff_vonmises	-0.1135117434823309	-6.50374382670919	3.724111925621868	0.5720079239485356	2.876042391631324e-16	1.6078113962605733	0.16693697318368644	-0.2556447755498134	0.42258174873349985	71.02324442016234
18	7.0	ltm	375	diff_vonmises	-0.0062531749491147245	-0.35828053314120706	1.6280121414237434	136.68777402582978	1.6090713341458736	137.47495437253815	0.085628842687413	-0.23796866764136837	0.32359751032878137	64.86305453543216
19	7.0	perception	375	diff_vonmises	-0.0964252477677533	-5.524759735595526	1.5744836086731209	1.704806083609353	4.863187046931559e-22	2.5796119606159342	0.349881884206735	-0.3779343228279867	0.7278162070347217	108.17045645588172
20	7.0	wm	375	diff_vonmises	0.4077675505290445	23.36335966770179	3.4872751641285014	0.2506889741463613	7.706059829698539e-17	1.3493235343563947	-0.03605131933487302	-0.21458433306166141	0.1785330137267884	73.43934821282122
0	1.0	ltm	376	diff_vonmises	0.36146059375040634	20.710166482191106	0.7312200980601802	90.79912414065727	0.7092247508000779	92.53919317383507	-0.11725758425291843	-0.34345240388219267	0.22619481962927424	88.65385743137696
1	1.0	perception	376	diff_vonmises	-0.06772031754617594	-3.880088382681617	8.970913134462489	0.9242182626675188	5.334023073791642e-17	2.7022369156460213	0.6579971392961788	-0.4300743449658576	1.0880714842620365	45.34619428662688
2	1.0	wm	376	diff_vonmises	0.2107585683895847	12.075576464942527	5.899365168840187	0.19983244737060282	0.065548342058597	2.344281485678247	-0.20880733422469536	-0.3772680986384892	0.16846076441379385	52.817434139710315
3	2.0	ltm	376	diff_vonmises	0.2137323301000659	12.245960460230704	0.478395251787014	104.41295501083913	0.4650215234211945	105.50807504593948	-0.003288665624637588	-0.26517953433014263	0.26189086870550504	118.49049314068913
4	2.0	perception	376	diff_vonmises	-0.030583864147019885	-1.752326336825715	6.858259027615937	1.6442374876922194	0.40193197341141684	2.900805043532983	1.0209811029927793	-0.49362114615287106	1.5146022491456503	49.23721577724649
5	2.0	wm	376	diff_vonmises	-0.01451144986013088	-0.8314448316012083	5.617064517028965	0.5296027183614681	0.26880080675520374	2.588536496128382	-0.040949690216268875	-0.4344200627853353	0.3934703725690664	51.84249728683429
6	3.0	ltm	376	diff_vonmises	0.20558614423336646	11.779218390939706	1.3505541756014305	163.77053442832673	1.336799333376955	164.26341310280375	0.2071154288909014	-0.18469044950710867	0.39180587839801007	75.66960107308086
7	3.0	perception	376	diff_vonmises	-0.02044936206696095	-1.171662140171784	1.3162847637557167	381.85406667922075	1.298641123761802	382.7396190615216	0.8713021309813485	-0.4955875135148631	1.3668896444962115	79.22438034602303
8	3.0	wm	376	diff_vonmises	0.021543859696962448	1.234372235057941	1.38866714628514	61.14482817856418	1.3434732205909214	62.47665470493079	-0.043467484899657904	-0.3243699257169119	0.280902440817254	66.33319874232458
9	4.0	ltm	376	diff_vonmises	0.23599287741628217	13.521395871101168	0.7896399931465455	92.72481466367034	0.7683845404954359	94.16724085957571	-0.052917114216189276	-0.3011948155912698	0.24827770137508054	88.15699899821115
10	4.0	perception	376	diff_vonmises	-0.0029439078183659275	-0.16867349326793338	0.9386465210062762	399.5565594454038	0.9251199014488404	401.6188626630757	0.35215218847483243	-0.5849898499353614	0.9371420384101938	88.33791366971923
11	4.0	wm	376	diff_vonmises	-0.3485633953901411	-19.97121144860486	0.9704070279749505	176.05465679045125	0.950085255088322	178.41898327566608	-0.10659821856780383	-0.5020387615707911	0.39544054300298725	78.45657370881185
12	5.0	ltm	376	diff_vonmises	-0.026586784619173357	-1.523310549501965	1.3084755957172325	120.18490600262216	1.2887286701044036	121.04729828867532	0.09046396717216254	-0.2366988821018854	0.32716284927404793	72.828403780375
13	5.0	perception	376	diff_vonmises	-0.0071051453373417945	-0.4070948406567404	0.9728142176599034	225.974793318516	0.9498077563560257	227.26196081279423	0.5588623630253551	-0.4901961714647811	1.0490585344901362	90.25623073184704
14	5.0	wm	376	diff_vonmises	0.1571916132958149	9.00641601670271	2.8344930621963815	0.8143353715146939	0.0915860265626581	2.3928402596630183	0.09981311855550029	-0.35681695012231585	0.45663006867781614	76.76433080220431
15	6.0	ltm	376	diff_vonmises	-0.2154738950881687	-12.345744783796746	0.765956141239204	124.50031991379484	0.7479390976223568	125.72761319084702	0.06779318016121749	-0.2996366307044642	0.3674298108656817	94.99010403158239
16	6.0	perception	376	diff_vonmises	0.11926101521348755	6.833152832178339	0.2938294052123366	170.10228649399141	0.27984228616624823	171.70065851965396	0.09403330895118245	-0.5066000785172413	0.6006333874684238	144.47064972544058
17	6.0	wm	376	diff_vonmises	-0.14180753018147566	-8.124972982572595	2.395991872464686	0.7515054916624488	2.1913559205995035e-14	2.2886260881981095	0.06770375219278646	-0.3606626644893782	0.4283664166821647	88.84155760415825
18	7.0	ltm	376	diff_vonmises	-0.23113522440320014	-13.24307285511256	1.5190700251393148	136.84193095918297	1.4984411738646335	138.01078593333332	-0.013062393399792427	-0.30530696071030405	0.2922445673105116	63.97616354009685
19	7.0	perception	376	diff_vonmises	-0.1324643340337266	-7.589647276143686	2.675405804731478	1.5094029250111016	1.4749307176230075e-13	2.651722344636359	0.5034412515407009	-0.41764338161743264	0.9210846331581335	84.07827132249608
20	7.0	wm	376	diff_vonmises	0.9510677539274622	54.492168331030314	0.5074561489450399	117.57583387309516	0.49518736355695203	119.28190507444731	-0.14976345311747608	-0.3246176964391214	0.17485424332164534	103.94299904324788
0	1.0	ltm	377	diff_vonmises	0.24619514432953807	14.105942706696693	0.8808362301911771	65.14068501922631	0.8515658867007382	66.30090519486541	-7.20620406049477e-05	-0.2584163773999819	0.25834431535937696	85.85568570486345
1	1.0	perception	377	diff_vonmises	-0.10122719279693888	-5.799890919221685	9.839083109436258	1.0157854215606215	2.1047281779690075e-16	2.1623774735692836	0.9099397376554491	-0.3441530601824468	1.254092797837896	43.27547429122714
2	1.0	wm	377	diff_vonmises	0.3076149055169763	17.625035801438326	1.945109443145669	0.7945660294291632	0.24941786038851618	2.286100560084672	-0.056690046051762366	-0.30207117020496604	0.24538112415320368	80.6455240972169
3	2.0	ltm	377	diff_vonmises	-0.06778281071847199	-3.8836689777025644	1.0491002835588936	82.10689670570697	1.0257805159431412	82.75361840633269	0.13680855749932164	-0.19237851493195812	0.32918707243127976	84.2368114033957
4	2.0	perception	377	diff_vonmises	-0.02360025009391319	-1.3521947258344504	6.941163779030236	1.4692262301855956	0.3689834408187687	2.1246313663870384	1.0413056979632487	-0.35565541179127746	1.396961109754526	49.52889451772813
5	2.0	wm	377	diff_vonmises	-0.060362280607407615	-3.4585039205888317	6.845350938132243	0.45212500786099835	0.3934930137043926	1.6345249316586417	0.0914705121261899	-0.28989787431193653	0.3813683864381264	47.3989264091025
6	3.0	ltm	377	diff_vonmises	0.14574470138339543	8.350556275663049	1.3197631799340623	140.1176535320742	1.3058878857437524	140.39751253172471	0.24105750458446806	-0.1451548672533569	0.386212371837825	78.72328207369301
7	3.0	perception	377	diff_vonmises	0.014727487965389544	0.8438229032465326	1.445328329700622	291.8160886845184	1.425234976171661	292.2363648806274	0.8628225090523074	-0.3845597284362121	1.2473822374885195	76.88498012351457
8	3.0	wm	377	diff_vonmises	0.02706573750479414	1.5507525284336479	1.5901729652863794	90.38433052810086	1.5630395021174242	91.09495537733866	0.10643489200069212	-0.2201500637586804	0.3265849557593725	66.5279439080326
9	4.0	ltm	377	diff_vonmises	-0.1699944502962249	-9.739964542620134	6.373640732231189	0.3992667936092078	2.7327373746845613e-19	1.3577766973085499	0.1774537467909385	-0.21609572752191503	0.39354947431285353	53.944631645703566
10	4.0	perception	377	diff_vonmises	-0.015865788977614377	-0.9090427470624851	1.0412190542957485	463.65158945397906	1.0301933059966975	465.02431593103495	0.48697205963733836	-0.4776077660828264	0.9645798257201648	86.14421409907735
11	4.0	wm	377	diff_vonmises	-0.3515166528785328	-20.14042063850511	1.2871347005569678	146.57833263482635	1.2657116681219265	147.84965609836416	0.07572289670278565	-0.33056714476213145	0.4062900414649171	72.28639953603118
12	5.0	ltm	377	diff_vonmises	-0.019351562087641654	-1.1087628346072393	1.2622366050226634	45.592322928394694	1.2240246201408926	46.00945759819929	0.15968228216425118	-0.14954727637376308	0.30922955853801426	78.53974840098118
13	5.0	perception	377	diff_vonmises	0.00935404636857694	0.5359473782891327	1.1355263738923447	208.81885932835416	1.114554910406228	209.37791190941113	0.614207362422718	-0.3401318499523036	0.9543392123750216	85.87630100550228
14	5.0	wm	377	diff_vonmises	0.09881815470566552	5.66186320390547	1.448863270766319	1.7697481933987742	0.3307030783047583	2.448209046897556	0.2228067144130922	-0.2371292382101104	0.4599359526232026	95.64812785243271
15	6.0	ltm	377	diff_vonmises	-0.3203663746842823	-18.355641167316158	2.3958544866001867	0.7125647707961485	1.3319704181723925e-12	1.491446749001882	0.17216600315699604	-0.23397236166195204	0.40613836481894805	88.78626700785037
16	6.0	perception	377	diff_vonmises	0.20668377363973814	11.842107923394252	0.5574385083047848	3.3341413906971242	8.52799057868285e-18	4.096593889092555	0.20660755871055902	-0.37040905085774073	0.5770166095682998	148.48347680774603
17	6.0	wm	377	diff_vonmises	-0.26642881706072463	-15.265246758242624	3.152773692417271	0.6147790825619424	8.024560499343083e-18	1.2332663092488778	0.21787536418907646	-0.1955240690951153	0.41339943328419176	77.33727988058537
18	7.0	ltm	377	diff_vonmises	-0.01203606647357736	-0.6896158108748907	1.1629144584563627	172.1770550707178	1.145666602848049	173.26978435651156	0.148842988549454	-0.3012104202708912	0.45005340882034517	78.24118598149337
19	7.0	perception	377	diff_vonmises	-0.16152865810987782	-9.254910380107617	3.1207354383509913	1.386145062197035	5.961022942413721e-19	1.5329473170503665	0.6844440755893864	-0.24216840680385368	0.92661248239324	77.75000777472553
20	7.0	wm	377	diff_vonmises	0.39453241289769136	22.60504214015048	0.686318879638677	11.560964577747047	0.5538808764109565	12.543765067673505	0.03777417305388653	-0.24155182682153686	0.2793259998754234	104.88640929560779
0	1.0	ltm	378	diff_vonmises	0.2727427188743725	15.627006684424645	0.7607429586227328	28.819128052463824	0.6837615666144492	30.80669629873848	-0.13627274071795625	-0.39154020629087727	0.255267465572921	88.41047290242693
1	1.0	perception	378	diff_vonmises	-0.04652868848014376	-2.66589747619121	8.86691341697413	0.94530877406227	0.031872733752587167	3.058669152146201	0.6036404501541648	-0.48917601858874027	1.092816468742905	45.292570023442124
2	1.0	wm	378	diff_vonmises	0.2544734044844562	14.580252075284818	2.758758439720327	0.6427931419656365	0.1617133819153313	3.0968702413466493	-0.17443113671995136	-0.46446572691706295	0.2900345901971116	71.38886659045855
3	2.0	ltm	378	diff_vonmises	0.03944133280839397	2.259821908291841	0.9382009370212043	58.57956927187715	0.9013047664643905	59.63853798521027	0.0691938753667003	-0.2604281863905653	0.3296220617572656	86.10001547892716
4	2.0	perception	378	diff_vonmises	-0.027497549036571096	-1.5754935067495468	8.135972679691458	1.301302396475756	0.22876322716529057	2.489913283020989	0.9646001232488689	-0.4176233263366067	1.3822234495854757	46.31924454519722
5	2.0	wm	378	diff_vonmises	-0.020940964418341347	-1.199828880104588	5.426463391578517	0.5385188851718282	0.17153024049995824	2.279085434975916	0.06025605366269876	-0.36820881632346486	0.4284648699861636	54.8030903263145
6	3.0	ltm	378	diff_vonmises	0.11408012334243922	6.536309593853634	1.0733654434459983	115.87367752876727	1.0584312494990191	116.37066489136132	0.14992615026518763	-0.16339161964928728	0.3133177699144749	84.30119098681368
7	3.0	perception	378	diff_vonmises	0.03716323254790958	2.129296378058432	2.1956212262003643	4.865105307679956	0.8919032959215065	5.412964254834544	0.916229265940911	-0.4172366383175912	1.3334659042585022	74.30561931861104
8	3.0	wm	378	diff_vonmises	0.02521478929911948	1.4447010081511773	2.7864965700194055	0.7424385759202757	0.3297135986538806	1.7403991636212408	0.09114922042509749	-0.2410792355758736	0.33222845600097106	71.00229403977721
9	4.0	ltm	378	diff_vonmises	-0.17949239093307764	-10.284156455177593	3.096930750178475	0.4124954025821586	1.330202761991728e-21	1.6980648163351673	0.004829916256355649	-0.2696936623759583	0.27452357863231397	78.05413243997842
10	4.0	perception	378	diff_vonmises	0.023053595255959146	1.3208737107692758	1.0702353379315923	422.11854845546526	1.0558380252798787	423.8348657144035	0.5380310931432462	-0.5713416178387831	1.1093727109820293	84.55164825383798
11	4.0	wm	378	diff_vonmises	-0.31195350216620116	-17.87361907844851	0.8187970023447891	77.14941496275677	0.7786455684742046	79.0855891169448	0.011528593841347856	-0.43405791900939583	0.4455865128507437	89.95496365710433
12	5.0	ltm	378	diff_vonmises	0.00045860567073325925	0.026276169393782054	1.9210888046782781	1.0633750750941242	0.3834832232179499	1.7179108401983423	0.1485210219510431	-0.1910356237558628	0.3395566457069059	83.15325225612563
13	5.0	perception	378	diff_vonmises	-0.02017356771863936	-1.155860287999396	1.7836753062414463	3.5184012168794174	0.4743374658661694	4.373941729571615	0.6349977064643992	-0.40550587487386347	1.0405035813382626	86.2628854538714
14	5.0	wm	378	diff_vonmises	0.08286950149134137	4.7480726858069415	2.3712222348149163	1.0010934597359142	2.8005663712083664e-16	2.0320015645072353	0.2484671774699344	-0.3184176938640017	0.5668848713339361	89.30755800860064
15	6.0	ltm	378	diff_vonmises	-0.3034863090609337	-17.388484649194417	0.5419674539902084	105.77738115099416	0.5265197339192118	106.52837007719577	0.11788559724764625	-0.24471691916530958	0.3626025164129558	117.40311637104422
16	6.0	perception	378	diff_vonmises	0.20314037935006687	11.639086385445333	0.49369215502692654	4.449821138321881	6.487370749100258e-20	5.175921418518718	0.2689137873455433	-0.41668498062553594	0.6855987679710792	151.75331593571593
17	6.0	wm	378	diff_vonmises	-0.3209910709513819	-18.391433626898543	1.7362294157978895	0.9830408254413664	1.084812539972432e-11	1.7324166670455114	0.18966309551319266	-0.2612756456918138	0.45093874120500643	103.37442234819298
18	7.0	ltm	378	diff_vonmises	0.18915057127716078	10.837529426669766	0.7872758375851	107.24663246690952	0.7679724262465186	108.32256469811614	0.07521934774500494	-0.2682547692886388	0.3434741170336437	94.22303762353897
19	7.0	perception	378	diff_vonmises	-0.10079518096993408	-5.775138464834574	2.8309848521977066	1.4788727594075208	5.237020023262837e-13	1.965526903444556	0.624109929831796	-0.3095667151781688	0.9336766450099648	81.70746746979424
20	7.0	wm	378	diff_vonmises	0.39639181170071264	22.711577843995276	0.5060277509904608	122.73674149348545	0.49323536652515654	123.99282490666823	-0.014901702358823599	-0.29215937914685775	0.27725767678803415	114.25556343390176
0	1.0	ltm	379	diff_vonmises	0.3042747574220457	17.433659412650137	1.6287519779945043	1.200116168842326	0.18656480501418024	3.8536274121089837	-0.18625408162484702	-0.5091567521504841	0.32290267052563704	87.37159494585745
1	1.0	perception	379	diff_vonmises	-0.06970380228634775	-3.993733687022064	9.689170333306798	0.8462116326173019	3.0606119254165764e-19	3.5444904070144796	0.4724567202429	-0.5641231650398688	1.0365798852827688	43.610319146479384
2	1.0	wm	379	diff_vonmises	0.008596512020825753	0.4925438573267941	4.45867344618866	0.5691370788569139	0.1879197178561769	3.771423290311673	-0.25392845116816126	-0.6098599716696086	0.35593152050144733	57.10369480382363
3	2.0	ltm	379	diff_vonmises	-0.09576702656945715	-5.487046438947114	0.7907331236090891	126.07722933869253	0.7692300471241366	127.73378650977997	0.02442234471205751	-0.3769916367818311	0.4014139814938886	91.58754313677406
4	2.0	perception	379	diff_vonmises	-0.053441938563106285	-3.0619975286634293	8.351088871756803	1.2023314241920562	0.11354292495362737	3.0897037827380065	0.8150235484204165	-0.5041055978510355	1.319129146271452	46.137654449449855
5	2.0	wm	379	diff_vonmises	-0.05695000937990292	-3.2629951806988875	3.7174880850605927	0.9311513068763894	0.25001397213439613	3.457148961742563	-0.007894225368839991	-0.5345014739430449	0.5266072485742049	62.73668486916611
6	3.0	ltm	379	diff_vonmises	0.0930277589216346	5.330097963770153	0.9508141032862971	270.56568874680465	0.938437086660045	271.8562447060927	0.21023406626210317	-0.36215186300172775	0.5723859292638309	87.55215598054087
7	3.0	perception	379	diff_vonmises	-0.03393418133751439	-1.9442853718711777	2.059586976034389	5.169322939684269	0.5911191162109644	6.780868564347769	0.9251503551560232	-0.6526571730504334	1.5778075282064565	78.7446784672953
8	3.0	wm	379	diff_vonmises	-0.030153542725712988	-1.7276707355507588	2.5646554972368096	1.2876937529921404	0.35029647655189505	3.440007153122328	0.01648710582259727	-0.47342084267720275	0.4899079484998	71.07675259301746
9	4.0	ltm	379	diff_vonmises	0.23784644910088093	13.627597705653631	1.4194012679832617	1.0341336177065705	5.3409016280317693e-17	3.133634961281884	-0.06551006020330963	-0.4733902790909005	0.40788021888759085	112.78263217477726
10	4.0	perception	379	diff_vonmises	-0.01671075557977536	-0.9574557671958193	0.7905890022410614	556.2590069064654	0.7793698882402212	558.9273600365914	0.3920892110971579	-0.7487279373052189	1.1408171484023768	96.06793682580837
11	4.0	wm	379	diff_vonmises	-0.21687918044741247	-12.42626170389294	0.6794420324609219	198.99815596077968	0.6603044645312429	202.1042556458829	-0.1356654168996272	-0.6397617854152706	0.5040963685156434	94.80094971569692
12	5.0	ltm	379	diff_vonmises	0.0318725742626513	1.826163987467211	1.4245070204787307	2.7413211788752374	0.5289485281032161	3.7869761293438877	0.1959955263298343	-0.299494587724365	0.4954901140541993	88.05174869428117
13	5.0	perception	379	diff_vonmises	-0.0018041392834235593	-0.1033695665939266	0.8574689625246422	324.921858182564	0.8410149106588368	326.336418097281	0.5795765939967623	-0.5417832916004848	1.121359885597247	95.96430321585382
14	5.0	wm	379	diff_vonmises	-0.027312507321257076	-1.5648913974281922	2.1952535670089093	1.3679577154298328	0.115629138527265	2.985738880133437	0.21467775324489569	-0.4196295049539282	0.6343072581988238	86.18434505659903
15	6.0	ltm	379	diff_vonmises	-0.14052120669430188	-8.051272075668988	1.2620068158388094	1.1695730120333967	7.23386818648944e-15	2.287933103220341	0.09262504115023801	-0.32753223170371804	0.42015727285395604	118.32990089880322
16	6.0	perception	379	diff_vonmises	0.03615417221802882	2.071481479882186	0.3958257584067648	5.070613327758346	3.6904907874514645e-17	6.295908582963817	0.151263814807437	-0.47947425063158244	0.6307380654390194	157.6980447480956
17	6.0	wm	379	diff_vonmises	-0.12076052584125901	-6.919068462484657	0.6218844141777378	89.27389562804296	0.5954135134465902	90.69000564320088	0.07281087132873054	-0.35879745963726606	0.4316083309659966	106.4428136010255
18	7.0	ltm	379	diff_vonmises	0.17691925233920197	10.13672647364629	1.3249815484244485	78.4910593780926	1.3002139443071663	79.22708446952488	0.060024061452097044	-0.1978168559303608	0.25784091738245785	71.83511518670238
19	7.0	perception	379	diff_vonmises	-0.011089508127709926	-0.6353820125938022	0.7720044298078844	264.0914601327789	0.7550393985180812	265.50777451440615	0.4375493433054629	-0.49977110918878864	0.9373204524942516	100.27349364112632
20	7.0	wm	379	diff_vonmises	0.8066201352001047	46.21592941723785	0.0003762369055138853	1150.5831894257672	2.3121648691285607e-30	1152.1232539497291	-0.1762060124069933	-0.31399879052514734	0.13779277811815405	161.52657016584465
0	1.0	ltm	380	diff_vonmises	0.36331478916999055	20.81640405412577	0.8882239744187074	211.51288843114216	0.8691380303037649	214.41920406873191	-0.151266064552658	-0.6008740755767619	0.44960801102410386	81.51761664807603
1	1.0	perception	380	diff_vonmises	-0.05781620596694916	-3.312624589365274	7.8500252517541425	0.9503596275844377	8.560402835959897e-20	3.6486957411578738	0.46341567096145453	-0.580707804405294	1.0441234753667485	48.52362331602927
2	1.0	wm	380	diff_vonmises	0.17672646106143083	10.125680347103069	0.8452265327506977	230.56311013433782	0.8280014223196567	233.8800860451651	-0.26685139224002796	-0.6539113590314045	0.38705996679137655	80.54589563507605
3	2.0	ltm	380	diff_vonmises	-0.08821790227123434	-5.054513477639287	0.9144912907794938	171.52085847008604	0.8960834411216649	173.36508204032563	0.007384605519085596	-0.4148696951612756	0.4222543006803612	84.11236835930552
4	2.0	perception	380	diff_vonmises	-0.05134434324394685	-2.941814169749197	7.534077979564057	1.3875624067640115	0.1587506214029375	3.083783585328495	0.9208403402495374	-0.5044421398886353	1.4252824801381727	48.297384458582655
5	2.0	wm	380	diff_vonmises	0.012049557995270514	0.6903888181271176	5.840356141451698	0.5277465002055951	0.0525169032620688	2.7567626801723235	0.034752563954554117	-0.43848147700717816	0.47323404096173227	54.89277423815838
6	3.0	ltm	380	diff_vonmises	-0.017218767533371145	-0.9865627080790536	0.8426425780277799	214.39810532655994	0.8300919909693087	215.5930209033075	0.1439276007058652	-0.31929918536652835	0.46322678607239354	92.26427147976489
7	3.0	perception	380	diff_vonmises	0.033158696879608957	1.8998533853552055	1.4575143458500128	9.262562480348796	0.7758848853079607	10.242948065628955	0.8799136384851751	-0.524294088957432	1.404207727442607	86.07898645440355
8	3.0	wm	380	diff_vonmises	0.009193238037596436	0.526733739613407	2.0548117413245395	1.8212266343591352	0.5981398516721039	3.2304403344572874	0.09823075572341677	-0.34993278352869006	0.44816353925210684	73.49311441808959
9	4.0	ltm	380	diff_vonmises	0.2723019324608291	15.6017514832619	1.2493324889888704	0.7620602008859981	2.1031149792221984e-17	2.6820338126506225	-0.13102419195278703	-0.4025414355228002	0.27151724357001317	118.45611326517559
10	4.0	perception	380	diff_vonmises	0.02289913099035053	1.3120235602643144	0.9001447013175756	344.6470548237603	0.881335857803565	347.16562708968166	0.4312735099025957	-0.7174945089951876	1.1487680188977833	90.46084367571248
11	4.0	wm	380	diff_vonmises	-0.29964091384170505	-17.16815973257283	1.8812125744815975	0.9554486832966979	5.519855122542605e-18	3.4735304343602538	-0.0778821833912085	-0.5417975950719455	0.46391541168073697	99.70015015471235
12	5.0	ltm	380	diff_vonmises	0.06338592335014365	3.6317458885029668	2.4596697966365704	0.7766928801584286	0.07903776736657178	2.312855842975955	0.05561622677172212	-0.34195870376320925	0.39757493053493137	82.31960515567852
13	5.0	perception	380	diff_vonmises	-0.001801665216316792	-0.10322781299047669	2.631763062902601	1.7832113210355163	1.286081561626409e-15	3.499917523325971	0.5259856510180342	-0.5514223394549956	1.0774079904730298	84.78091583964044
14	5.0	wm	380	diff_vonmises	-0.028989676414728088	-1.6609861080138633	1.515468937361014	1.5718990912619615	0.10144164312562291	3.3590040814827384	0.09494252536225645	-0.44871989606723156	0.5436624214294881	101.77253893628465
15	6.0	ltm	380	diff_vonmises	-0.23456107192358105	-13.439359459285745	0.6398293248390838	1.7775555448367597	2.6134624300225725e-22	3.3483585518346413	-0.04745215888926546	-0.3978818731450744	0.35042971425580893	144.34213078993807
16	6.0	perception	380	diff_vonmises	0.1912712116849399	10.959033171900412	0.05498039129565839	250.99462921572672	0.04600155367853154	252.6744561606367	0.08770639685280202	-0.6045982946762294	0.6923046915290314	172.99218186481437
17	6.0	wm	380	diff_vonmises	-0.36197258410246025	-20.73950136851521	0.37356627993941	156.99701159335618	0.3615235491850758	158.69539391311375	-0.031358542059031436	-0.42020810991189705	0.3888495678528656	130.71028132683043
18	7.0	ltm	380	diff_vonmises	0.421851712458925	24.17032270426277	0.7124741208964133	1.2721867278016854	1.9692667441777375e-17	2.881872517459914	-0.09362875767676443	-0.37086503270117926	0.27723627502441484	139.20339183428592
19	7.0	perception	380	diff_vonmises	-0.07172716822352955	-4.109664015633114	3.571023172709924	1.5314755502804218	0.042874254977157696	2.812800102822853	0.6391800178050698	-0.43275679226476604	1.0719368100698359	71.29976803899982
20	7.0	wm	380	diff_vonmises	1.2829212051423695	73.50597050249506	0.0002011486376791117	3637.6583188078303	4.6574378720019584e-32	3639.5097924415495	-0.1782143890389989	-0.411116261914799	0.2329018728758001	137.00592353556564
0	1.0	ltm	381	diff_vonmises	0.07036014937558648	4.03133960513114	4.3854190667391615	0.5245268179558493	1.290659580102314e-26	2.786823514850429	-0.019599266646923352	-0.4434709455067052	0.42387167885978183	65.30383152555697
1	1.0	perception	381	diff_vonmises	-0.09558425280938894	-5.476574273889468	13.506259106673383	0.8980557937870023	0.06340859783330959	3.5203198864161567	0.7071049343453878	-0.5765930668352907	1.2836980011806784	36.55955260138623
2	1.0	wm	381	diff_vonmises	-0.05432467753093277	-3.1125747459316213	5.561044101231667	0.7533347713442193	0.19730107327279137	3.532676420257614	0.012912446311108328	-0.5781841836269314	0.5910966299380397	53.46623193406947
3	2.0	ltm	381	diff_vonmises	-0.1313100300481035	-7.523510529492352	2.551206132444956	1.551450540501894	0.4454382793659187	2.616237361683061	0.30626546260525134	-0.3243795646742206	0.6306450272794719	73.47156107111311
4	2.0	perception	381	diff_vonmises	-0.06480712228674404	-3.71317458941865	10.693156170563373	0.7958486337502898	3.7108606879795683e-16	2.246139122053505	0.6679169231614273	-0.3574841436183958	1.025401066779823	41.49291340772271
5	2.0	wm	381	diff_vonmises	-0.2061839027126648	-11.813467428971657	2.328964688189214	2.2336438535054786	0.7126725061967536	3.7824739885549103	0.17697019166757189	-0.41810987541389805	0.59508006708147	69.18129435989448
6	3.0	ltm	381	diff_vonmises	-0.045345414218632356	-2.5981008550001476	2.3874380457996693	1.2650576469900727	5.795528203741589e-12	2.333019183083055	0.3542425105826094	-0.3651877713112684	0.7194302818938778	89.01363753593495
7	3.0	perception	381	diff_vonmises	-0.028906544059079445	-1.6562229748942157	3.873217561285558	2.599517757122112	0.3571612921537541	3.963908730891507	1.0900135324767464	-0.5733366153565708	1.663350147833317	64.24150342550234
8	3.0	wm	381	diff_vonmises	-0.08406459251973497	-4.8165463578678445	2.79361885589188	1.3174791650508395	0.10341502130701433	2.849055972911082	0.3268202131585549	-0.4173317658572935	0.7441519790158484	77.94522399339871
9	4.0	ltm	381	diff_vonmises	-0.19314978201916444	-11.066667323569959	1.7425169824228461	1.6741028221171426	3.519957706658742e-15	3.1826524974802095	0.2877870116725645	-0.4821866953768252	0.7699737070493897	103.35482732171279
10	4.0	perception	381	diff_vonmises	-0.07995523090755889	-4.58109728099708	0.8197205303231382	405.1001358339082	0.8039884324198002	406.6918076479315	0.7323687839546125	-0.6528540664664675	1.38522285042108	98.60985225948463
11	4.0	wm	381	diff_vonmises	-0.15674350548505753	-8.980741330379466	0.9366088942926115	213.70195270241294	0.9185171115462543	215.3986873846104	0.18171393725326368	-0.44227998524762313	0.6239939225008868	87.0298913456906
12	5.0	ltm	381	diff_vonmises	-0.006157024156057374	-0.3527714985021851	1.4678055655119462	1.8604764472647364	4.114389436777749e-16	1.9508833605331306	0.4848428771863415	-0.2682594439237052	0.7531023211100467	111.47456770568084
13	5.0	perception	381	diff_vonmises	0.016759410033708486	0.960243462060701	1.0024564112377439	311.31638424122224	0.9889534831251549	311.6946290345542	0.6670596209167883	-0.33336625950020604	1.0004258804169943	92.29861726793035
14	5.0	wm	381	diff_vonmises	-0.08983554330879341	-5.147197481858585	2.112628742739094	1.9164170650282215	0.30317630117686045	2.155254482667012	0.5678367713726957	-0.24518034516190562	0.8130171165346014	85.92072792690223
15	6.0	ltm	381	diff_vonmises	-0.1728468013631707	-9.903392220445767	1.0296136881438864	1.7077446717793476	1.0008033243921845e-16	1.9978833091155552	0.2751347040718397	-0.24232042266756226	0.517455126739402	127.14464104267307
16	6.0	perception	381	diff_vonmises	0.09257332272312774	5.30406068753774	0.12966810193161474	13.43702730768023	1.1221757183020988e-17	13.378765395608726	0.29515238044201997	-0.25867325211907666	0.5538256325610966	172.28472762850618
17	6.0	wm	381	diff_vonmises	-0.20117467351407486	-11.526459737278756	0.9266725589045696	111.40151938864828	0.911754090728969	111.43871451860676	0.304099369103902	-0.129690375140739	0.433789744244641	97.51263452387646
18	7.0	ltm	381	diff_vonmises	0.28194675338507785	16.154359016380816	1.8086459544306572	93.72538280475194	1.783380784673727	93.69988727142484	0.3999182300717763	-0.12511091467806779	0.5250291447498441	70.3827846977616
19	7.0	perception	381	diff_vonmises	0.0637900098676836	3.6548983405161453	0.606456351450822	220.64219343481992	0.5927424924547371	220.67296264347982	0.564534534227981	-0.3141449055757306	0.8786794398037117	119.09116852810764
20	7.0	wm	381	diff_vonmises	-0.18578624180641323	-10.64476754710445	1.1511463063250373	1.155853219331484	2.044530452091591e-32	1.4364810372985874	0.19912661951440944	-0.1858336839811187	0.3849603034955281	122.33745611306789
0	1.0	ltm	382	diff_vonmises	0.1983743282331884	11.366011771504585	0.7634963339179242	73.75139032868182	0.7281001922309104	75.8588602118877	-0.11270754020737073	-0.42682957705573976	0.31412203684836904	88.61089318008456
1	1.0	perception	382	diff_vonmises	-0.08162983343276481	-4.677044938053329	9.777017711249032	1.0010141168388351	0.03795964670239674	3.2642136594668094	0.6923022435943159	-0.5241352758363443	1.2164375194306603	43.09692379096032
2	1.0	wm	382	diff_vonmises	0.09330057170157716	5.345728984658093	6.876428566394821	0.29056741833943	0.03877737395862024	2.875563714861489	-0.17758885111737244	-0.46042803109299335	0.2828391799756209	50.42167324270727
3	2.0	ltm	382	diff_vonmises	-0.09128473608610829	-5.23023011169957	1.0715280375327747	38.70596586704409	1.0058970681170314	39.7278144078572	0.1284766708851386	-0.27419469375697947	0.40267136464211806	82.4781259805645
4	2.0	perception	382	diff_vonmises	-0.04812239399690204	-2.7572100760881755	10.011124658707029	1.0686806519744516	0.1492934664154877	2.2562252406301107	0.9165749871285114	-0.37650993962135587	1.2930849267498672	42.19878810217514
5	2.0	wm	382	diff_vonmises	-0.10787103291149899	-6.180554917545693	4.127430938686504	0.7299657579595514	0.31359445967702576	2.3780529060570115	0.0655165728341528	-0.37403479558105046	0.43955136841520326	59.63545277129785
6	3.0	ltm	382	diff_vonmises	0.060889948971639234	3.4887370908418753	1.1994962444870565	169.9117284878878	1.185894191778118	170.50350780129372	0.2045174826014602	-0.2041031312234054	0.4086206138248656	79.93180241368412
7	3.0	perception	382	diff_vonmises	0.004972248781040467	0.28488886984268696	2.349313756514773	4.008047380848663	0.7401899286536368	4.765962152888277	0.8842881003519756	-0.44726872392013206	1.3315568242721076	74.03436184533825
8	3.0	wm	382	diff_vonmises	0.006310059906799794	0.3615398011343418	2.7108000925348605	1.0503041771401378	0.5001636984772181	2.121850224392197	0.12532355773795056	-0.2774981104298997	0.40282166816785026	68.86789166378139
9	4.0	ltm	382	diff_vonmises	-0.09038404279843572	-5.178624187680169	2.5385927077549986	0.6146019094287566	0.0020828298133337983	1.8890041955158192	0.06421803334969667	-0.2977387221389221	0.3619567554886188	86.16154685734463
10	4.0	perception	382	diff_vonmises	-0.014296459486170164	-0.81912679053732	0.9603822174072708	456.5422890680926	0.9480760045264097	458.1155178895828	0.5445263655188626	-0.547641765490468	1.0921681310093305	89.79462840225509
11	4.0	wm	382	diff_vonmises	-0.2101300876977525	-12.03956717379508	0.9457931350145626	201.5148870338347	0.9294932772303751	203.18094776626367	0.0772545000283884	-0.3993882979021919	0.4766427979305803	84.5196283058393
12	5.0	ltm	382	diff_vonmises	0.022518545592261838	1.2902176232095262	1.4431553607980607	2.754064364588859	0.6406658377912638	3.4864793145861532	0.2126302189933078	-0.2358775775009059	0.4485077964942137	86.10116181725718
13	5.0	perception	382	diff_vonmises	-0.0013551047527381455	-0.07764178313001473	1.018200652813138	216.04420089755348	0.9962971807478443	217.03708036947623	0.556036196707737	-0.4212376633811239	0.9772738600888609	88.95088122358473
14	5.0	wm	382	diff_vonmises	0.04230563966481199	2.4239346023949775	1.7719265605884493	1.5789978671732563	0.16549244826967174	2.554665455088909	0.2803400968209403	-0.3226243583327953	0.6029644551537356	93.98065295570652
15	6.0	ltm	382	diff_vonmises	-0.19549503720119898	-11.201040547381723	0.7243620700105241	100.56730482609612	0.7010703987911518	101.50505106914471	0.17965189781990887	-0.288390111665743	0.4680420094856519	102.03266062655905
16	6.0	perception	382	diff_vonmises	0.25264180661197516	14.475309247426512	0.0004208851132198238	4765.902289120297	1.8248344272260117e-30	4766.72735490523	0.18795777379443734	-0.4505171956737968	0.6384749694682341	177.90130340183413
17	6.0	wm	382	diff_vonmises	-0.3437020075224075	-19.692674441207622	0.7488018440463671	84.59486063018703	0.7208240808385152	85.33138977564741	0.23913693150261395	-0.2688461629711014	0.5079830944737154	102.4531115821653
18	7.0	ltm	382	diff_vonmises	0.1053942760798216	6.038647204210385	0.8535536529732008	133.6638377114038	0.835135867889527	134.66726376695854	0.15840220965319673	-0.282523896328863	0.4409261059820597	92.7307422701291
19	7.0	perception	382	diff_vonmises	-0.11982474184356	-6.865451988880623	2.9225867340501344	1.4548366204059104	2.6898534856552684e-15	1.8234341386412203	0.6485146615554864	-0.2874920048582483	0.9360066664137348	80.39432434264558
20	7.0	wm	382	diff_vonmises	0.3491576275843526	20.005258445383976	0.647827247464749	122.94229637015653	0.6322495654123377	124.0469545040021	0.06363428886535161	-0.27950290686842294	0.34313719573377455	103.9057751155967
0	1.0	ltm	383	diff_vonmises	0.15902485352659113	9.111452944759778	2.347766553568102	0.5108673508581201	5.65505768686601e-14	2.9666045612948477	-0.18202805795221488	-0.46949920580356574	0.28747114785135086	89.72998884460219
1	1.0	perception	383	diff_vonmises	-0.07931413624716316	-4.544365262688031	10.502326611700743	0.8435303574918304	3.5770652404504116e-20	3.483076213402707	0.5222780522135609	-0.5543487957157334	1.0766268479292944	41.88048740959948
2	1.0	wm	383	diff_vonmises	0.04124524314391832	2.3631783571374148	2.7960687142060383	0.9139564744552587	0.20165104764512853	3.535472061342269	-0.10656886032225266	-0.5222857067088836	0.415716846386631	70.9834663995012
3	2.0	ltm	383	diff_vonmises	-0.03564411362292605	-2.0422572750784247	1.9499936768927673	0.8659228348793817	0.01566061577437621	2.3807061815002237	0.0550664752353211	-0.3640856491100205	0.4191521243453416	96.8392712780036
4	2.0	perception	383	diff_vonmises	-0.05135436110133654	-2.94238815069739	8.981404388676852	1.2464048132802998	0.1875276606042619	2.741697741820457	0.9465235870863874	-0.46014112430535764	1.406664711391745	44.25482029669959
5	2.0	wm	383	diff_vonmises	-0.04230268993172883	-2.4237655951386228	7.251250772309534	0.4744771652514833	0.0039904958600435044	2.1590692471504824	0.15520256367568525	-0.3433168148590066	0.49851937853469186	50.4176639901996
6	3.0	ltm	383	diff_vonmises	-0.08917579082458857	-5.109396448990377	0.8577356315186224	138.82245654971956	0.8389573419926674	139.82180248247866	0.18657050135628594	-0.292548764428739	0.47911926578502495	93.10632517400504
7	3.0	perception	383	diff_vonmises	0.03357485126948197	1.9236972755207709	2.595257137931038	3.361962503386165	0.4295253235648527	4.160373967735489	1.053237830530371	-0.4908532722941851	1.5440911028245559	75.97618089258364
8	3.0	wm	383	diff_vonmises	-0.0637026085969675	-3.649890616580032	2.65735639708063	1.1861852623212672	0.3779069791850632	2.3199895299623794	0.20439146197076308	-0.30558444795798634	0.5099759099287494	72.57662231555082
9	4.0	ltm	383	diff_vonmises	-0.09271687860638003	-5.3122858337723695	0.6924822588751649	1.6179848079887513	3.2737022986757115e-17	3.403071598540577	-0.08352765286847619	-0.4269389064789799	0.34341125361050373	142.37136460850985
10	4.0	perception	383	diff_vonmises	-0.03201726212607662	-1.8344539913882474	2.4094434297378804	2.5423028977381747	0.05304050403988249	4.432340076332391	0.7227686290978994	-0.6570091895479855	1.379777818645885	86.16506423739244
11	4.0	wm	383	diff_vonmises	-0.2591668142050726	-14.849164643801812	1.2303595890115704	3.9089365423710905	0.5287587749577145	5.8938215644723035	0.017910293562862112	-0.4443552753654058	0.4622655689282679	87.20255378059412
12	5.0	ltm	383	diff_vonmises	-0.051902260382389244	-2.973780467099962	1.4931661781685603	0.9804637608097578	2.77993683398932e-19	2.0998691474438256	0.08931316677221557	-0.3128286718576882	0.40214183862990377	110.66495182746863
13	5.0	perception	383	diff_vonmises	0.03002064247432868	1.7200561120502103	2.7559876316652128	1.6108138321782226	6.453438146012107e-17	2.8926816874865025	0.5444423261591347	-0.4563267075644782	1.0007690337236128	82.83005466621145
14	5.0	wm	383	diff_vonmises	-0.07907624923636462	-4.530735340968292	0.6777709025463723	61.0237105354548	0.6342367377770876	62.245282567707235	0.17275849410980726	-0.35663526012914204	0.5293937542389493	105.3797071155353
15	6.0	ltm	383	diff_vonmises	-0.368086589789419	-21.08980809029693	0.6595392328348626	1.924044219569562	1.4077894788606112e-15	3.182135910415125	0.026226432914734255	-0.3640238463038399	0.39025027921857414	142.34899174019378
16	6.0	perception	383	diff_vonmises	0.2214003014365043	12.685302855235914	0.49559688716046274	4.853642867073102	8.77615050603938e-13	6.138182310383248	0.21665590274620206	-0.5339388147216173	0.7505947174678194	151.52038985614513
17	6.0	wm	383	diff_vonmises	-0.13600503656079155	-7.792514587455813	0.564845715362135	61.712169434744276	0.5337523334256857	62.99231738916636	0.03716459371337777	-0.31898923357351006	0.3561538272868878	111.28351857184177
18	7.0	ltm	383	diff_vonmises	0.2818054325990575	16.14626193178438	1.0877352170186605	130.95575975350226	1.0706874598805525	132.03847247431506	0.034586475011401774	-0.2600919781807711	0.2946784531921729	77.95216306882875
19	7.0	perception	383	diff_vonmises	-0.0480318677754818	-2.752023305665529	2.3030783053649437	1.527893174324468	9.316073896353615e-17	2.753342288819102	0.41962081099527837	-0.42963783477635537	0.8492586457716338	90.60844800116092
20	7.0	wm	383	diff_vonmises	0.5180669980051275	29.683052490706242	0.0005186096227237296	835.154376849333	3.391883107542226e-20	836.4171744832369	-0.13203955988745975	-0.26990353765805253	0.13786397777059278	171.94706570175748
0	1.0	ltm	384	diff_vonmises	0.06159044870457134	3.528872769088926	5.841521244567069	0.420887353049312	1.3458889231113722e-21	3.6443364737896764	-0.18377522485043907	-0.580010820235941	0.3962355953855019	56.401845158000555
1	1.0	perception	384	diff_vonmises	-0.030116875751872614	-1.7255698727021886	9.042431719777092	1.0300268507664117	0.15365767191827331	4.81006353193634	0.33006460338382304	-0.8085966405589832	1.1386612439428063	43.564001883426045
2	1.0	wm	384	diff_vonmises	0.024738091693771544	1.4173882472607475	7.418739200849055	0.4178794662725728	0.09267605639444025	4.474644135858229	-0.3338409010290702	-0.7335467194280192	0.399705818398949	47.170457427756475
3	2.0	ltm	384	diff_vonmises	-0.05524394709061174	-3.165245011936076	3.499222969443622	0.860332454867368	0.2555226505783131	2.088558072585637	0.1922201385633523	-0.3092264458428565	0.5014465844062088	66.51192903003971
4	2.0	perception	384	diff_vonmises	-0.07098750262943374	-4.067284298840387	14.054578918691979	0.7387604545972405	1.7365426115799337e-17	2.3480330669014617	0.7210286588110295	-0.37370106913991197	1.0947297279509414	36.14043528810342
5	2.0	wm	384	diff_vonmises	-0.1623829989167021	-9.303860502604449	2.376930596284369	1.7069386229073658	0.44854486510114167	3.7450576304257965	0.08828036464671096	-0.478244052087783	0.5665244167344939	71.9828585786662
6	3.0	ltm	384	diff_vonmises	0.00667507853603819	0.3824538280333524	2.309186154524076	0.8969986962080072	0.2623187323506759	1.6904006834581238	0.1606058808222679	-0.2195465787498346	0.38015245957210253	80.00843233023434
7	3.0	perception	384	diff_vonmises	0.001320839920033401	0.07567855283031102	3.8791412619613386	2.3905402193881264	0.44033150773368823	3.4441552374237943	0.9958048822725353	-0.49144941489549643	1.4872542971680316	63.467551621617815
8	3.0	wm	384	diff_vonmises	-0.007640995273909051	-0.4377967804743971	3.044298467458243	0.8218307796161954	1.0298877161821004e-16	2.2915874727744434	0.1780095932155521	-0.3634860299487576	0.5414956231643098	78.74805918613544
9	4.0	ltm	384	diff_vonmises	-0.28600817741144946	-16.38706147190494	0.5528704770959006	134.28119787884467	0.5354233344793794	135.80262261570005	0.05512864709792353	-0.38642507103774726	0.4415537181356708	112.24194030324097
10	4.0	perception	384	diff_vonmises	0.0029880220180686697	0.17120105072749778	1.2444905247827418	11.50499992523307	0.7101717093976427	13.143531763532742	0.6906052455101066	-0.6132349046920941	1.3038401502022006	89.79916495975635
11	4.0	wm	384	diff_vonmises	-0.08862862043285168	-5.078045894869333	0.6769034524331351	257.49340042256114	0.6617647763634571	259.62255876947836	0.15144344792157938	-0.5464104054292633	0.6978538533508427	102.02414987629848
12	5.0	ltm	384	diff_vonmises	0.046116605765780555	2.6422868758479034	2.066990068432764	1.3604204691933015	1.9411969519519036e-15	1.9629968136466973	0.40346652812061184	-0.3009519298560259	0.7044184579766377	95.50290802194485
13	5.0	perception	384	diff_vonmises	-0.027281065943337773	-1.5630899391713402	0.9700449931909789	235.23593996484914	0.9492145099172504	236.20392666795397	0.6084096148726843	-0.4404729831942156	1.0488825980668999	91.55177560675284
14	5.0	wm	384	diff_vonmises	0.00875717878342111	0.5017493847315384	2.523346592428134	1.509134883603665	1.75364350068941e-15	2.3029617704624945	0.5276796659084264	-0.36077639502226355	0.88845606093069	86.59541228594983
15	6.0	ltm	384	diff_vonmises	-0.14064887762001482	-8.058587080878867	0.5618041653395532	66.44601784563159	0.5291688119081566	66.92233276567804	0.2877828193013059	-0.2765338974476377	0.5643167167489436	120.56999293489068
16	6.0	perception	384	diff_vonmises	0.22970198554744792	13.160954317643798	0.00022563043303425553	10100.70199184344	2.031978668347319e-30	10100.832050002173	0.34203784399051074	-0.38339572220661466	0.7254335661971254	178.24650389947416
17	6.0	wm	384	diff_vonmises	-0.4271675864008761	-24.474899845560138	0.6395364662599926	175.3889339083513	0.6254841794177328	175.53947629063356	0.4270830325455748	-0.2576284121427772	0.684711444688352	115.29936119089965
18	7.0	ltm	384	diff_vonmises	0.2565206726419681	14.697551900241773	1.7785698017240437	1.1301491542797368	2.850103434132028e-13	1.6492422944752576	0.28045694747537	-0.24699943384173106	0.527456381317101	102.32238700242738
19	7.0	perception	384	diff_vonmises	-0.041749537486386566	-2.39207229459317	2.0587021037696513	1.91567739259787	0.1337908210813829	2.131890156879386	0.6194892601869476	-0.27935568474774947	0.8988449449346971	91.33927181419082
20	7.0	wm	384	diff_vonmises	0.1599555710483181	9.164779130673608	0.7120724308369178	131.83594075291123	0.6951258296930286	132.70430806485547	0.17960655265392234	-0.2743486316039476	0.45395518425786996	103.01056401443074
0	1.0	ltm	385	diff_vonmises	-0.3175212788067282	-18.192629181222237	0.20294749094447276	56.24644125279799	0.18867026296694847	57.6770719190051	-0.13357091638632745	-0.30109656578024335	0.1675256493939159	150.86234939551224
1	1.0	perception	385	diff_vonmises	-0.08761137974311917	-5.019762296598683	11.533746484013266	0.8803213904574949	9.639714450219906e-20	2.6978272245475026	0.749872056288018	-0.4293725382815089	1.179244594569527	39.9302114496445
2	1.0	wm	385	diff_vonmises	0.029088410652462645	1.666643163129495	8.801272712125039	0.15727887424260475	5.954786788532838e-24	1.7446750574826972	-0.09434993971495076	-0.27767365533165944	0.18332371561670868	45.79146811044038
3	2.0	ltm	385	diff_vonmises	0.2921628920707936	16.73970064599266	0.24721290282345126	102.2700870282552	0.23518367857340716	102.98907858637769	0.07341821034584939	-0.258985718655417	0.33240392900126636	149.51120047853027
4	2.0	perception	385	diff_vonmises	-0.03630168086110668	-2.079933102572249	8.583842301051725	1.4692629898931289	0.524714497542213	2.415670784569453	1.0836063124872088	-0.4445918295380045	1.5281981420252133	44.043384962438694
5	2.0	wm	385	diff_vonmises	-0.06496232034330326	-3.722066783048126	8.159651023059793	0.4086321429936018	0.2496305470105651	1.6923110960186383	0.11766028814244167	-0.29282969554482263	0.4104899836872643	44.96436842993441
6	3.0	ltm	385	diff_vonmises	0.08497968343883597	4.868977205403079	1.743234928703099	140.3453914955616	1.729433272602555	140.5559343849287	0.2221144992677324	-0.12772394477766724	0.34983844404539965	68.34064185472741
7	3.0	perception	385	diff_vonmises	-0.010136194589913274	-0.5807611703253688	1.5857417326460304	113.10201108921397	1.5225701880314275	113.65428509640908	0.9940946382937952	-0.46078572770781534	1.4548803660016105	73.55935397605677
8	3.0	wm	385	diff_vonmises	-0.016156183845938227	-0.925681147409699	2.0165158447950438	2.2256871648397683	1.076879237850179	3.028725444544954	0.07508378242077107	-0.2267765539094576	0.3018603363302287	66.75786243285745
9	4.0	ltm	385	diff_vonmises	-0.10247600987926353	-5.871442867422729	5.951269883744958	0.326262916968767	3.938786417004162e-29	1.5403477339842646	0.06508321621465829	-0.24515185458862954	0.3102350708032878	55.859776327929126
10	4.0	perception	385	diff_vonmises	-0.04614049997343213	-2.643655913101148	1.533738941580661	4.877094058302565	0.5055242003884645	6.2015152326477745	0.6046053752147893	-0.507046168542426	1.1116515437572154	89.14826655709678
11	4.0	wm	385	diff_vonmises	-0.2940155319137347	-16.845849089950963	1.2953938132896183	233.3114100637852	1.279236594804219	234.9242657059369	0.05175232192728174	-0.4085341527010087	0.4602864746282904	71.08694218180497
12	5.0	ltm	385	diff_vonmises	-0.170552723669346	-9.771951250714507	3.6430976487538396	0.5520146188502343	0.41036026137728904	1.1622830712191061	0.1357130129549718	-0.1707452256022251	0.3064582385571969	63.42159512893463
13	5.0	perception	385	diff_vonmises	0.023576421340912628	1.3508294388564586	1.085963287244592	163.56294630333912	1.057270567924843	164.57214213851492	0.5257340432903774	-0.40983258922286225	0.9355666325132397	85.93239115655402
14	5.0	wm	385	diff_vonmises	0.09454644344411656	5.4171121773202096	0.8537947501040212	96.4966725326514	0.8294427439787251	97.45517910274438	0.15203299571513185	-0.2702939967508655	0.42232699246599736	92.90777041415186
15	6.0	ltm	385	diff_vonmises	-0.3439144833060363	-19.704848406858286	0.8208189269641544	116.48525779194173	0.7996529370931222	117.57597282857296	0.13967385401725352	-0.2959704860368646	0.4356443400541181	94.0200623073639
16	6.0	perception	385	diff_vonmises	0.23234562001008233	13.312423414928086	1.0165044054890282	2.3016806117718476	3.62852218163417e-18	3.7405654658437864	0.19834801855184248	-0.49140145561325493	0.6897494741650974	127.4369112250726
17	6.0	wm	385	diff_vonmises	-0.1281954549564868	-7.345058521766144	3.749120914936839	0.6670313615768222	5.3564648752392e-17	1.755815670010258	0.21547947818903884	-0.2791724880952097	0.49465196628424857	70.77705614574725
18	7.0	ltm	385	diff_vonmises	-0.10333509724563288	-5.920664947748702	1.670193503268175	174.43242624654545	1.6524553278689547	175.41396437047104	0.07165262620161172	-0.2913648732371712	0.3630174994387829	63.22867049028537
19	7.0	perception	385	diff_vonmises	-0.127004551542737	-7.276824782350558	1.5427557993410403	1.7550087144567355	9.932497096460856e-22	2.8295966459710393	0.32289678706872044	-0.4150007652190124	0.7378975522877329	109.09759800929858
20	7.0	wm	385	diff_vonmises	0.46715865250376853	26.766219151484567	4.59313216739908	0.2683999303650969	5.393616507177508e-14	1.4492435008513802	-0.008258628116927291	-0.23063148366003045	0.22237285554310315	63.77019250422728
0	1.0	ltm	386	diff_vonmises	0.20856883284853645	11.950113860190665	3.674850491714353	0.36470957846288415	2.006507802426675e-16	2.7172011991448732	-0.1647989100118446	-0.43228395590032753	0.26748504588848293	71.50268915225581
1	1.0	perception	386	diff_vonmises	-0.04007484027745542	-2.2961192125590766	9.49661362408673	0.8332799407647923	3.5412217654547626e-19	3.3668922838490767	0.4742619993082662	-0.5358575441331411	1.0101195434414074	44.06082679508384
2	1.0	wm	386	diff_vonmises	0.14526986505011014	8.323350157806335	0.8611591973589419	68.4005295876533	0.809154199822219	71.00959541617277	-0.11782957448124165	-0.5408027135282012	0.42297313904695955	84.30623917683832
3	2.0	ltm	386	diff_vonmises	0.05216668994719826	2.9889311651419996	2.3216519541811533	0.7798330736201996	0.09835023034243083	2.1833867983214597	0.05745385546581405	-0.31651169653721084	0.3739655520030249	83.64893071803678
4	2.0	perception	386	diff_vonmises	-0.034362861991228795	-1.968846964087922	8.237337865636706	1.3179796149043947	0.19900577408780962	2.7167845384735	0.9623520544579663	-0.4530341883853281	1.4153862428432944	46.11878780784323
5	2.0	wm	386	diff_vonmises	-0.0022541597869770212	-0.12915384214189202	6.835518091744374	0.47657224028013584	6.462861387550312e-19	2.145832622776859	0.14575564033713373	-0.34151930592946994	0.48727494626660367	52.05416634224758
6	3.0	ltm	386	diff_vonmises	-0.08205668554763001	-4.701501762711338	0.7543767624857167	115.67838725525488	0.7385403661794054	116.4253942827391	0.1316256420028452	-0.221495413965755	0.3531210559686002	99.29602490426247
7	3.0	perception	386	diff_vonmises	0.06788010500891399	3.889243529915611	2.7439452284949577	3.1219495833704314	0.5000529068055698	3.5970766600805586	1.0550301795834982	-0.41711251736148763	1.4721426969449858	73.74670420652129
8	3.0	wm	386	diff_vonmises	-0.056028731969783564	-3.2102098733383055	3.105796391524025	0.725718186020752	0.1384868039457998	1.6531817933962663	0.1840116203953575	-0.24303939672652555	0.4270510171218831	73.11103153992542
9	4.0	ltm	386	diff_vonmises	-0.24620051177808458	-14.106250238845162	1.1244795560855347	0.8399136928676116	6.170121285122626e-32	2.425223432323651	-0.07932443552805635	-0.3536305887889412	0.27430615326088487	123.19101024555073
10	4.0	perception	386	diff_vonmises	0.008565004072304865	0.4907385848554317	2.5404300014352437	2.74283344647011	0.21838608848449062	4.541453097908237	0.7430846909000366	-0.6089845009145396	1.3520691918145762	79.09245592085921
11	4.0	wm	386	diff_vonmises	-0.36782224342207	-21.074662159118215	2.43605140929454	0.8142385640350028	1.5131322033840703e-16	2.7786178786399836	0.030384259444067363	-0.4386118255745184	0.46899608501858575	88.03292724808996
12	5.0	ltm	386	diff_vonmises	-0.05405888898705368	-3.097346184124422	1.501983404062754	0.8203695611247975	2.897146412420229e-23	1.697578134074723	0.08545133795835552	-0.25254223127226916	0.3379935692306247	110.38883520554954
13	5.0	perception	386	diff_vonmises	-0.0036587242645991203	-0.20962945876363548	2.920853933401372	1.6242334957750773	1.293701956575429e-13	2.640787862952969	0.6273630637777798	-0.4172520525152108	1.0446151162929906	80.42271439300126
14	5.0	wm	386	diff_vonmises	-0.031826531238403226	-1.823525916501778	1.7572351297586246	1.1652521444213693	3.732635047207403e-13	2.253197977045761	0.19711094608206953	-0.342067154720821	0.5391781008028905	103.04135118321648
15	6.0	ltm	386	diff_vonmises	-0.378898679349058	-21.709295189781706	0.540125598242035	2.019282964157765	8.040013574280667e-19	2.9249625484325397	0.047897490313056124	-0.2912085702122692	0.3391060605253253	147.94605322916036
16	6.0	perception	386	diff_vonmises	0.22254647582137627	12.750973810075081	0.31313686777861827	115.50609964016229	0.28910926302401474	116.36441048392405	0.3180606017622054	-0.4673496047362029	0.7854102064984083	144.4346017041604
17	6.0	wm	386	diff_vonmises	-0.24098485594092936	-13.807415171983395	1.404353312369549	0.9093266594565109	5.911885173725175e-15	1.8642972072703807	0.08179846367038035	-0.2738940345322809	0.35569249820266124	113.29776630028555
18	7.0	ltm	386	diff_vonmises	0.3482459395827258	19.953022570658046	0.9016463130308008	122.39293952718151	0.8852018060410154	123.46614070996205	0.04013028441775646	-0.2532172565880835	0.29334754100583993	86.31690806852421
19	7.0	perception	386	diff_vonmises	-0.05293584808182566	-3.033000680034305	2.6187081308627906	1.4529959403634747	1.2829783843554262e-18	2.3227044778857335	0.5102411165002934	-0.3649940750592764	0.8752351915595697	84.99221147539578
20	7.0	wm	386	diff_vonmises	0.42497305379597383	24.34916238929539	0.166825217694486	23.21496503418499	0.13507780050611085	24.42813068791973	-0.09457622645574038	-0.2757561086365574	0.18117988218081704	156.53961907906216
0	1.0	ltm	387	diff_vonmises	0.0023495207572361465	0.13461762326801247	2.0605226035184723	0.4441877553483055	7.597372739418343e-23	2.8274719810111653	-0.21669644708929897	-0.4462200557226517	0.22952360863335275	95.64803711167593
1	1.0	perception	387	diff_vonmises	-0.02532005741748613	-1.45073242705087	10.135604741175047	0.8829955059839013	0.09084420231625943	3.793933751524057	0.4467531041753985	-0.6237451857331539	1.0704982899085524	41.84772616255833
2	1.0	wm	387	diff_vonmises	0.08847645145827455	5.0693272548532295	5.785460788855858	0.37710675472508143	0.04112967321608474	3.1887487226547853	-0.1752991568767126	-0.5080336663108346	0.33273450943412197	54.83222291323409
3	2.0	ltm	387	diff_vonmises	0.01880692485644144	1.0775574198937763	3.3368640193599495	0.5477394016336736	1.1056938788836988e-17	1.614780384343651	0.1239797712409586	-0.2565188407746222	0.38049861201558083	75.1345509210766
4	2.0	perception	387	diff_vonmises	-0.04501960669189012	-2.5794334587842216	11.294034547795341	0.9870358593037142	0.14096171623658466	2.38183749665429	0.8733493322088342	-0.4001554868738771	1.2735048190827112	39.76608584945777
5	2.0	wm	387	diff_vonmises	-0.09668502556264477	-5.539643906854023	4.578976450336073	0.6707172246994351	0.1507158549861134	2.3347025533217916	0.12519511088859314	-0.36665787766397356	0.4918529885525667	60.033476981602746
6	3.0	ltm	387	diff_vonmises	0.0014677159255635903	0.08409392805893101	1.0551738316401942	54.63047895752392	1.0252804488698457	55.11267403237564	0.1406993201009783	-0.1569488005715849	0.2976481206725632	85.25872216805291
7	3.0	perception	387	diff_vonmises	0.03726236940173496	2.1349765013768316	3.2384554850632266	2.931709956253003	0.6646715408081382	3.4557044250568123	1.0450478464718733	-0.41912550157386075	1.4641733480457342	66.88540632074017
8	3.0	wm	387	diff_vonmises	-0.06433177945129775	-3.685939451125796	3.4398760890203555	0.6085396586898502	2.686271061160072e-13	1.521218050143618	0.18839352559818826	-0.24166659774608804	0.4300601233442763	73.97481391672542
9	4.0	ltm	387	diff_vonmises	-0.3895242050486313	-22.318092967475046	0.6841904624620677	128.2766741367949	0.6683910072474781	129.6010841039641	0.016929875298089314	-0.3041569850482375	0.32108686034632683	98.66080726075873
10	4.0	perception	387	diff_vonmises	0.00416297332825466	0.23852080193452146	2.3653098315475978	2.965983219423492	0.29459999060353514	4.369233746865874	0.7781233257090413	-0.5448230070238378	1.322946332732879	80.29116365539412
11	4.0	wm	387	diff_vonmises	-0.22675127564511408	-12.99189109367261	0.7965064460242566	182.21347690514108	0.7787258521987126	183.93348476557983	0.10344216815645524	-0.4215505967728994	0.5249927649293546	93.21670970699708
12	5.0	ltm	387	diff_vonmises	0.015233157947815384	0.8727956590659879	2.1487471601526607	0.80633230584491	1.3319153086928289e-15	1.369068196403876	0.21644758223504726	-0.2119857338565879	0.42843331609163515	93.73251909387474
13	5.0	perception	387	diff_vonmises	-0.018698526370339117	-1.0713466441345056	1.8130322268904744	3.3595274335025005	0.47489590056737335	4.201002426822234	0.6160874788170281	-0.39434649857459597	1.010433977391624	85.68632521071663
14	5.0	wm	387	diff_vonmises	0.03365851141756041	1.9284906489191054	2.279382868221647	1.185026514840131	2.149190132748153e-15	1.9580051181734404	0.34963227372999756	-0.304699499444118	0.6543317731741156	91.07004848642734
15	6.0	ltm	387	diff_vonmises	-0.3135816628134742	-17.966905811906546	0.525117067669854	141.47204751476923	0.5126991201252675	142.07340095383006	0.17947531745868872	-0.24858492577519442	0.42806024323388314	120.95812259033184
16	6.0	perception	387	diff_vonmises	0.27569984717765067	15.796437655681164	0.3768015195261184	6.5591758395798925	1.0283998866883043e-14	6.901952118867785	0.3705501473871442	-0.40705162182626986	0.7776017692134141	157.18057543014962
17	6.0	wm	387	diff_vonmises	-0.3356221584126089	-19.229733188113627	1.6917726426060116	1.143013240780542	0.004423440816044408	1.5611080331349354	0.28309604897800633	-0.22928841188271737	0.5123844608607238	104.34646824232507
18	7.0	ltm	387	diff_vonmises	0.27080298443761874	15.515868087822467	0.9052508088274839	110.04926284281791	0.8865635568277358	110.72443596995235	0.17556107831233447	-0.2151822946050288	0.3907433729173633	91.71680882480032
19	7.0	perception	387	diff_vonmises	-0.05832643714053173	-3.3418586821875618	2.191723925913818	1.4901268387289917	7.492289875961309e-16	1.886228142175483	0.5120302198024043	-0.290063251376783	0.8020934711791873	92.83506390488066
20	7.0	wm	387	diff_vonmises	0.1803398259206146	10.332710903375181	0.6238329576034954	92.24659787842931	0.6055989610184207	93.1343958569233	0.0820840022108058	-0.24283817972109922	0.32492218193190503	107.52884529181861
0	1.0	ltm	388	diff_vonmises	0.049466244714644	2.8342070505104164	1.2993101505570666	0.5127176350750563	4.526337978042079e-13	3.5677007633594973	-0.3640952315196224	-0.5526649958153422	0.1885697642957198	117.08340478942743
1	1.0	perception	388	diff_vonmises	0.02201619516047561	1.2614350636316007	8.416138780486031	0.9621528503374474	0.14173451880540278	4.637008407622668	0.2497985909591598	-0.7722379457645243	1.022036536723684	45.111456624224246
2	1.0	wm	388	diff_vonmises	0.08010226426498052	4.5895216718249765	7.080824043380992	0.23489960772440294	0.05186859222806138	4.0130942085948496	-0.4276621290045482	-0.6483718902209797	0.22070976121643154	48.44081946593411
3	2.0	ltm	388	diff_vonmises	0.16995474971798094	9.737689867042526	0.8274844103929148	93.38186021731593	0.8046737154280611	94.58274661225238	0.04100529917734619	-0.28169538104750025	0.32270068022484644	90.38626849456625
4	2.0	perception	388	diff_vonmises	-0.046171363381649094	-2.6454242561333694	10.84459827789514	1.060369545955338	0.21672455466589827	2.7354661499599287	0.8415826159629849	-0.47433612947787857	1.3159187454408634	40.20091581700595
5	2.0	wm	388	diff_vonmises	-0.0452957439621898	-2.5952549589386567	3.4151364341790207	0.9091372579480756	0.18371631707039102	3.22739913180314	0.028480403236379126	-0.48921716842082785	0.517697571657207	66.99129573151404
6	3.0	ltm	388	diff_vonmises	0.1351363656997184	7.742743413330326	3.2601934222515094	0.4535715723448061	0.26463367052283954	1.0180965594709916	0.10390778792918715	-0.1473244709708991	0.25123225890008627	68.68014879691256
7	3.0	perception	388	diff_vonmises	0.009319524706610668	0.5339694327566881	3.842567400038193	2.5026580610102878	0.5216171133457446	3.416192814372373	1.0254045166756307	-0.47815179833199156	1.5035563150076223	63.093086061817985
8	3.0	wm	388	diff_vonmises	0.028523076053558718	1.6342518765995786	2.6830988535875937	0.5796099941258994	2.2270226938603807e-18	2.041185565151465	0.03111583374946786	-0.3232014985783298	0.35431733232779766	83.9618805112625
9	4.0	ltm	388	diff_vonmises	-0.3666996457600037	-21.010342050990566	0.5157731023246013	158.94092902889886	0.5051228144016896	160.53157084781947	-0.07710803218913753	-0.3346453406492209	0.2575373084600834	109.24499111229437
10	4.0	perception	388	diff_vonmises	0.029037374269482878	1.663718993783141	2.0760576498234498	3.3330039927351622	0.3396864470323017	5.165440120839769	0.6365044801641573	-0.6031699505181739	1.239674430682331	82.74372116165696
11	4.0	wm	388	diff_vonmises	-0.16863341497683623	-9.661982963050923	0.5892328657718886	224.73541005107026	0.571828077585136	227.54360261360236	0.008048892187510148	-0.6501979930810897	0.6582468852685999	106.40401845704432
12	5.0	ltm	388	diff_vonmises	-0.0169948620225651	-0.9737338673001462	1.3572664107754724	3.4037508120234707	0.6620578832703767	4.159685634822464	0.2345063164425556	-0.2500740257277414	0.484580342170297	87.54349200902675
13	5.0	perception	388	diff_vonmises	-0.04345173767560328	-2.4896011813216576	0.974261617083573	190.45776024122583	0.9460172447269587	191.66817716178085	0.6195287071327087	-0.49675656142673574	1.1162852685594444	90.87131818638795
14	5.0	wm	388	diff_vonmises	0.08404707997743101	4.815542963105283	2.9524848443847866	1.1928894922981856	1.4274141883560518e-15	2.4275314299465656	0.38783905316399186	-0.3842432177403594	0.7720822709043513	79.98061864964936
15	6.0	ltm	388	diff_vonmises	-0.2252058595474505	-12.90334527368491	0.5463375692123756	149.53276231555918	0.5335381367037589	150.1450525821995	0.2048511159257984	-0.26161694423937476	0.46646806016517317	119.38552573639343
16	6.0	perception	388	diff_vonmises	0.22949459050082627	13.149071456780458	0.2706890238827509	9.36248701870252	1.0475110874906123e-16	10.00963062787423	0.32492567505870484	-0.4769036194496945	0.8018292945083993	163.3362707124512
17	6.0	wm	388	diff_vonmises	-0.35908915345990416	-20.574292962178053	1.3097291132740831	1.913503374141296	9.392789372875423e-12	2.5069225104498556	0.364915330302942	-0.3433405173433283	0.7082558476462704	116.13534579159165
18	7.0	ltm	388	diff_vonmises	0.33675126523076476	19.294426243413405	0.7646431058735538	18.48130377227411	0.6704694198736684	19.276193655870234	0.11017527585578701	-0.2248495785717155	0.3350248544275025	100.50585145044133
19	7.0	perception	388	diff_vonmises	-0.050715531389561704	-2.905785904385133	2.2235012047824845	1.636466666125261	5.497187097844643e-11	2.470913595453735	0.5064858530002306	-0.3827187840278585	0.8892046370280892	92.18299776493345
20	7.0	wm	388	diff_vonmises	0.3365538925576503	19.28311762225273	0.5896798744327482	147.9179062807674	0.5755421945399226	149.31624459504215	0.030225096961309816	-0.3370056785202298	0.3672307754815396	107.38909805521732
0	1.0	ltm	389	diff_vonmises	0.07274703803733719	4.168098251617084	2.6393137673420193	0.49107089476468524	1.942365201657528e-23	2.9243487735173614	-0.16668171602669152	-0.46390111134695405	0.29721939532026254	84.65531094488486
1	1.0	perception	389	diff_vonmises	-0.08267977281003494	-4.7372020331155005	10.481432235933589	0.9159224062360062	2.5238674290215263e-15	3.5476150350377567	0.6034676152574666	-0.5646204680939628	1.1680880833514293	41.91480493077901
2	1.0	wm	389	diff_vonmises	0.05693797868717319	3.2623058727808556	3.415367365153551	0.662183730205762	0.07801624572179633	3.3825590878353267	-0.11455280632957882	-0.5225318846215493	0.4079790782919705	69.29975953640115
3	2.0	ltm	389	diff_vonmises	-0.0018919821384661174	-0.10840259144824466	2.23623396668174	1.071409567118558	0.2372895505707651	2.286438473474315	0.13615626276173332	-0.30204774657337136	0.43820400933510467	80.75700545329016
4	2.0	perception	389	diff_vonmises	-0.046147839268725434	-2.644076423746055	9.411189711380079	1.1531532190317941	0.17943763441270957	2.359728019368393	0.9455316290546738	-0.3960278608227227	1.3415594898773966	43.372042593757584
5	2.0	wm	389	diff_vonmises	-0.035180902622733816	-2.0157172397433762	6.7451635359333535	0.4798065752139557	0.035352989484483614	1.9386803519691282	0.1676404604006932	-0.3085182787187176	0.4761587391194108	51.71585516851883
6	3.0	ltm	389	diff_vonmises	-0.058061560769050495	-3.3266823840089477	1.665515679355566	1.3327417826205252	0.2869815683596293	2.176382905142315	0.16301503758154512	-0.24341023726030742	0.40642527484185254	90.69920528307489
7	3.0	perception	389	diff_vonmises	0.02166757639321008	1.2414606796082324	3.585855168458033	2.278169339477631	0.28360792222167636	3.0038621072870084	1.0270880357328664	-0.4238427406892561	1.4509307764221226	67.93686746233868
8	3.0	wm	389	diff_vonmises	-0.013685763013028054	-0.7841364600627526	3.2746846024015235	0.7350700356522789	0.11991609901282788	1.7909154872149853	0.18570560394950386	-0.26734118156329406	0.4530467855127979	71.67021123110075
9	4.0	ltm	389	diff_vonmises	-0.24638534585356045	-14.116840451280131	1.3208841317063125	1.1402301918079647	1.309173549719375e-20	2.6531260736257325	0.035263032125993576	-0.38966634084672935	0.42492937297272293	116.07376840403325
10	4.0	perception	389	diff_vonmises	-0.018110603894282852	-1.0376611675756005	2.1523703028688863	2.9337125704088143	0.1859235406911185	4.531655736470189	0.7207413706690943	-0.58926657472479	1.3100079453938842	86.22475635710319
11	4.0	wm	389	diff_vonmises	-0.18944653311907572	-10.85448679110841	0.8491385800768033	139.50938911055917	0.8242252335436943	141.36558674146318	0.09120537459978095	-0.4454797645087556	0.5366851391085365	89.85750112002155
12	5.0	ltm	389	diff_vonmises	-0.05100250061903833	-2.9222280300842645	1.572428690446699	1.153963287570202	2.169819360612446e-17	1.9870659199658238	0.1981002413313881	-0.2940965982730942	0.4921968396044823	108.2453236310329
13	5.0	perception	389	diff_vonmises	0.012617393100129829	0.7229233730949249	1.9318417454530141	2.735064897569353	0.3486541694297322	3.634402371663486	0.5862711684531133	-0.39587884553449404	0.9821500139876074	86.35557404444418
14	5.0	wm	389	diff_vonmises	-0.030187889109067865	-1.7296386383585316	1.4575668866412637	1.9348357612958609	0.16584866207244725	2.7783668921693696	0.30525311574811687	-0.3274105295196048	0.6326636452677217	102.82325331751423
15	6.0	ltm	389	diff_vonmises	-0.2862480786651094	-16.40080680123955	0.9097286427465117	1.6631842939089776	2.3999355071470515e-17	2.5099883463725785	0.14033944358963685	-0.31196150241098963	0.4523009460006265	131.7214614144841
16	6.0	perception	389	diff_vonmises	0.24710808399918258	14.15825029671739	0.3153168370936235	7.368408065102174	1.8728033395024384e-13	8.148630731937935	0.2713182806902974	-0.4622044795482875	0.7335227602385849	160.74577071085946
17	6.0	wm	389	diff_vonmises	-0.2573329739925885	-14.744093339325097	1.237496550668162	2.122101361670153	0.30367292554564884	2.850648504056328	0.21846827111772738	-0.2595334326236868	0.47800170374141415	102.48545281392865
18	7.0	ltm	389	diff_vonmises	0.1879619856125598	10.769428484498379	0.9459461951631787	178.64817287117825	0.9316664855999353	179.84551992738926	0.09118114758953055	-0.2991895432851308	0.39037069087466136	85.54217638500731
19	7.0	perception	389	diff_vonmises	-0.06949500775862295	-3.9817706417980063	2.482372448919371	1.5912613324127187	1.1338708151047436e-17	2.4169543298018827	0.5492648204224861	-0.3781516117374249	0.927416432159911	87.29909676839947
20	7.0	wm	389	diff_vonmises	0.39650049625251915	22.717805010112063	0.31688924093453924	36.361608334688206	0.28349950718754163	37.51139294264903	-0.020933568244251077	-0.2958135252794625	0.2748799570352114	139.19749374122497
0	1.0	ltm	390	diff_vonmises	0.21176057569914963	12.132987254821856	3.900828493349941	0.35782195380838366	7.28876202969818e-30	2.507953049444455	-0.1277927424220795	-0.3990421207690525	0.271249378346973	69.34690556451545
1	1.0	perception	390	diff_vonmises	-0.0750229209694093	-4.298496738290675	8.824581666758641	0.9803113184777908	4.267489594083759e-18	3.109683219811849	0.6493205294025481	-0.49492143112656756	1.1442419605291156	45.728787299537345
2	1.0	wm	390	diff_vonmises	0.1891697708705498	10.838629482339325	0.7309677030933831	68.3427631513891	0.6868091234853587	70.80323988419325	-0.11855244503127693	-0.5021136403700339	0.383561195338757	91.55693526664163
3	2.0	ltm	390	diff_vonmises	0.08945000056024663	5.125107509544981	0.9820368822649082	110.71953389141005	0.9590083763423719	111.87490441751767	0.09765918839748622	-0.2925251512353846	0.3901843396328708	84.32482490588023
4	2.0	perception	390	diff_vonmises	-0.02448196656343513	-1.402713358265233	6.829200586617372	1.5492994884607127	0.3338268491788949	2.556928620134284	1.0303801725572237	-0.42644296004529375	1.4568231326025174	49.87342153279127
5	2.0	wm	390	diff_vonmises	0.0370557535415231	2.123138284606227	7.794791412477978	0.42178047915038785	0.029587772206256184	1.897640931042264	0.15072545435023033	-0.30287183070188883	0.45359728505211916	48.188826346357615
6	3.0	ltm	390	diff_vonmises	0.020329529768428254	1.1647962552165088	0.7998885260457729	22.0724789441768	0.71741794485984	22.849961318161558	0.12368458425922402	-0.223816977146434	0.347501561405658	98.10615808557492
7	3.0	perception	390	diff_vonmises	0.029375734850476242	1.683105627027655	3.4564216562254013	2.2237731141476633	0.2857601515344916	2.863940528843907	0.983007393401677	-0.39885280393013534	1.3818601973318123	69.11680281184641
8	3.0	wm	390	diff_vonmises	0.07449136222054008	4.268040665417215	2.5901197321902942	0.7514819049854138	0.209769871088513	1.840230051695287	0.0948699940245098	-0.2577151751493725	0.3525851691738823	76.24499689142624
9	4.0	ltm	390	diff_vonmises	-0.2196219391499469	-12.58341020177094	1.5203478489266997	0.8930377322163796	6.851923542984299e-26	2.3630135590264763	0.013893024289965472	-0.35744219409374045	0.3713352183837059	109.6781878622658
10	4.0	perception	390	diff_vonmises	0.01291169055583171	0.7397853752280811	1.2686560389150021	10.757953424660842	0.7275020143062878	12.566031305896349	0.5727532968257818	-0.6043899959804264	1.1771432928062082	87.85860075069061
11	4.0	wm	390	diff_vonmises	-0.284016276128001	-16.27293393515665	2.2838739709850975	1.0494424098167698	0.0858748520315936	3.2431922176472305	0.024854689926005258	-0.4745049994876361	0.49935968941364134	84.43074279950234
12	5.0	ltm	390	diff_vonmises	-0.09053351468369704	-5.187188295861507	1.83202764463576	0.8330014996663478	1.4308527746584227e-11	1.5709919376031534	0.15743625883434892	-0.23958820264572295	0.39702446148007187	101.07904976041314
13	5.0	perception	390	diff_vonmises	-0.0017841139956566428	-0.10222220212134732	1.8983088244179729	2.9823970781149547	0.38436540860121854	3.696708747774961	0.6576563260900226	-0.38207582491424374	1.0397321510042663	86.72663531679112
14	5.0	wm	390	diff_vonmises	0.0015393486582594195	0.08819818131739081	1.7588654432925233	1.2797981502456974	5.814595805589441e-19	2.145957264044817	0.2691552286660334	-0.323422342018068	0.5925775706841014	102.9990403069649
15	6.0	ltm	390	diff_vonmises	-0.2966192011931292	-16.995028350908136	0.693621112215087	1.7903470624549567	1.7325047201339166e-17	2.493265681913796	0.11046581903945363	-0.27011536426562754	0.38058118330508117	141.34802458411198
16	6.0	perception	390	diff_vonmises	0.1496081505439958	8.57191560692881	0.7775133196137615	3.032438454411237	6.352628731552874e-15	3.8704094271078997	0.29174648142798476	-0.4242862592331943	0.7160327406611791	138.12668555340292
17	6.0	wm	390	diff_vonmises	-0.228915589094452	-13.115897119863074	1.9157904640259285	0.9395733458302785	7.113155950430323e-19	1.6925330695082854	0.20287332544779318	-0.2591387897882022	0.4620121152359954	98.92666165998212
18	7.0	ltm	390	diff_vonmises	0.14997479020446475	8.592922512075791	0.9154739900200213	163.53371680530603	0.8999880556798872	165.05991740114644	-0.010411716664371795	-0.3381259874633642	0.3277142707989924	83.38874312339212
19	7.0	perception	390	diff_vonmises	-0.07748586301863936	-4.43961292289686	2.674216442838214	1.6794700767491575	1.5252392843396245e-17	2.6798371526920524	0.6029652448761065	-0.4216127917790703	1.0245780366551767	84.10253752704614
20	7.0	wm	390	diff_vonmises	0.6025858990254696	34.52562880825579	0.13259162393059026	66.50099819877127	0.11807043663020898	67.95821091868909	-0.09740917791535253	-0.34887759635585525	0.2514684184405027	156.20903675587184
0	1.0	ltm	391	diff_vonmises	-0.03614022652514228	-2.0706824505374013	0.3141519814563188	112.71660797290465	0.30085664308613475	115.14869492192415	-0.24261755901011384	-0.4774635136346266	0.23484595462451274	131.64932152017815
1	1.0	perception	391	diff_vonmises	-0.09510917816379624	-5.449354501743334	11.314928112639615	0.8720277415727721	8.866990795987705e-18	3.58948281386679	0.5850478658830688	-0.5712839327983709	1.1563317986814396	40.33241371355814
2	1.0	wm	391	diff_vonmises	-0.036721569183229226	-2.1039909312967002	7.012460727837656	0.30544267789132384	0.029000094594597185	2.8920556814244756	-0.1572340043371077	-0.4619124852332149	0.30467848089610716	50.288588935733685
3	2.0	ltm	391	diff_vonmises	0.038164734815206706	2.18667823114734	0.44918149528829865	138.30386802635348	0.43568340558473173	139.61594717916466	0.03740873057469685	-0.3500427828229675	0.38745151339766437	124.06848439976844
4	2.0	perception	391	diff_vonmises	-0.056679428789210465	-3.2474920548340536	9.448182321141031	1.3075666714232872	0.32737593870981135	2.69793028906986	1.000900696264616	-0.47874377492321285	1.479644471187829	42.639812057894886
5	2.0	wm	391	diff_vonmises	-0.04727570868080864	-2.708698580900324	7.393528799089974	0.4688082756286508	0.06379315561395103	2.1828766902103123	0.12937339077493065	-0.35095368146429473	0.4803270722392254	48.944002871440375
6	3.0	ltm	391	diff_vonmises	0.004490291727065056	0.2572747647433371	1.1841481218748777	115.95072613545501	1.1601351511744293	116.82037212325073	0.19309631902305568	-0.26415421340477074	0.45725053242782643	79.15522554132843
7	3.0	perception	391	diff_vonmises	-0.019379022020419676	-1.110336172861133	2.8239728088695073	3.197471303170007	0.4458729354517126	4.246730943310148	1.0178259965972065	-0.5251740333365743	1.543000029933781	72.68959815625652
8	3.0	wm	391	diff_vonmises	-0.03059905284703014	-1.7531965852325928	2.7612004131629315	1.0726136591543725	0.4434229816068618	2.3897757801502895	0.10533829611254553	-0.32319166074574357	0.4285299568582891	68.76584498019022
9	4.0	ltm	391	diff_vonmises	-0.024270022139637398	-1.3905698372902908	1.444732361044262	0.8810148961235912	1.3027703554632243e-21	2.63603763260919	-0.04650324631818992	-0.3987940444346144	0.3522907981164245	112.21179051815774
10	4.0	perception	391	diff_vonmises	-0.0497646186045004	-2.851302615116089	1.9474198483651466	2.835573010463977	0.0886730478989341	4.657874713724428	0.6309559454697297	-0.6478409911326802	1.27879693660241	93.71190590758522
11	4.0	wm	391	diff_vonmises	-0.17460062464501863	-10.003878892507435	0.9712063735364882	193.9077865928697	0.9507444112143115	196.12359701966963	0.01643775365121769	-0.504682082029106	0.5211198356803237	81.70236820376687
12	5.0	ltm	391	diff_vonmises	-0.04026971847150776	-2.307284910597407	1.552860666999969	1.5857730122262683	0.3120178924044056	2.7687680585548344	0.11381671435597751	-0.2999863968557948	0.4138031112117723	90.58672966907383
13	5.0	perception	391	diff_vonmises	0.039729611614729106	2.2763390672179136	1.8407626753148874	2.8365005419791323	0.3139854560940646	4.314798498153897	0.4742103749521107	-0.4854021265876899	0.9596125015398006	87.44924588406167
14	5.0	wm	391	diff_vonmises	-0.04613105263850971	-2.643114620682447	0.7067564771282245	181.88663757013467	0.6908273424349772	183.2367275131008	0.17036499566494	-0.3769130060766379	0.5472780017415779	101.53896091076086
15	6.0	ltm	391	diff_vonmises	-0.2686865148724234	-15.394603314268885	1.1907315129123346	1.8606119925947067	0.1721655383715882	3.320347715296265	0.07911591332967405	-0.3766940072793362	0.45580992060901027	107.37380228294927
16	6.0	perception	391	diff_vonmises	0.21760610327215293	12.467911313782297	0.48864830525691455	4.609354351900034	5.722388528234794e-11	6.440459914839961	0.1024842745928316	-0.6007026560174802	0.7031869306103118	151.90785695685514
17	6.0	wm	391	diff_vonmises	-0.08227748978399019	-4.714152913553385	1.00627729286466	4.738281885996317	0.4705475054118242	6.296772560967539	0.10565935167711471	-0.3910244261152804	0.4966837777923951	98.0026962423014
18	7.0	ltm	391	diff_vonmises	-0.020935673362486588	-1.1995257249349423	1.3521184013629146	169.95436972072142	1.3359289700585624	171.2011281789803	-0.0074111725904373316	-0.3091942933501599	0.3017831207597226	68.08955475200213
19	7.0	perception	391	diff_vonmises	-0.08898892638434895	-5.098689905223572	1.8632696041314	1.6919286498184927	1.7106382158910652e-20	3.362077633213265	0.3010792330213411	-0.5149595103415735	0.8160387433629146	100.29009181346204
20	7.0	wm	391	diff_vonmises	0.9146512144971093	52.40565431719934	0.4321258096709427	87.00537793640663	0.41851906297356084	88.51951110782667	-0.1323588926053425	-0.29449552864286765	0.16213663603752515	112.9404537465746
0	1.0	ltm	392	diff_vonmises	0.1993306728824792	11.420806283668865	4.306865215510157	0.4524994952606962	2.9427386891197626e-19	3.350385168336228	-0.1711050591428701	-0.5331645853008925	0.3620595261580224	65.91728428490941
1	1.0	perception	392	diff_vonmises	-0.08026119588402154	-4.598627782827209	8.894569343486427	0.9790755939377493	0.004281021169671693	3.7949960115905164	0.5407744021656673	-0.6038768881612706	1.144651290326938	45.48241625049039
2	1.0	wm	392	diff_vonmises	0.04809414095235511	2.7555912958772417	2.200414145044834	1.2139063988483034	0.21741287485778213	4.634045108088747	-0.24265423122522056	-0.6554449871175957	0.4127907558923751	75.98977414411152
3	2.0	ltm	392	diff_vonmises	0.01706273123635031	0.9776224868089098	1.0441050326355528	151.50264510898427	1.022943934508094	152.9458331366813	0.1051966046150099	-0.3621607964902651	0.467357401105275	81.21828425401748
4	2.0	perception	392	diff_vonmises	-0.0412859372394343	-2.3655099570615823	7.883760370949474	1.2619598879221832	0.15791455983588562	2.6608459022208297	0.8966403229543435	-0.43652530803875417	1.3331656309930977	47.318528549016634
5	2.0	wm	392	diff_vonmises	0.02215043344776758	1.2691263509424953	5.665600559392951	0.5731320994823684	0.07856755007212791	2.4747185285404294	0.10560943502210707	-0.3937765650251349	0.499386000047242	55.387898891510645
6	3.0	ltm	392	diff_vonmises	0.02459213032165846	1.4090252766667295	1.9962856994766227	0.9792228014537324	0.02306393468054032	2.286320002802034	0.13225434833107907	-0.3462241678247866	0.4784785161558657	95.44858446768251
7	3.0	perception	392	diff_vonmises	-0.014621136473676804	-0.8377294116264722	3.898068261504032	2.0687706434350095	0.1159770389416463	3.3754728640623393	0.9670095837561671	-0.5085888869799213	1.4755984707360885	67.11880652494219
8	3.0	wm	392	diff_vonmises	0.1002897956359613	5.746182018170124	3.375932357548387	0.6452045291168833	6.0358566643795755e-12	2.4944171175443666	0.05469293449696522	-0.39647088803505	0.4511638225320152	74.68700240571235
9	4.0	ltm	392	diff_vonmises	-0.09901678323487445	-5.673243780320033	0.5889365498951082	2.7510114182174896	2.1050908912341905e-17	4.6434745347863124	-0.014248688813711441	-0.5158429845749739	0.5015942957612625	147.4787526477877
10	4.0	perception	392	diff_vonmises	0.01354695722954512	0.7761834744971738	0.8310345704212753	468.7241435061634	0.8176686008585377	471.0382139941348	0.4856345345659747	-0.7026627305708502	1.1882972651368249	94.94222092599935
11	4.0	wm	392	diff_vonmises	-0.15705356264696071	-8.998506297164322	1.7179078527443472	1.7003107216583935	0.08086441332125463	4.723996956454886	-0.014038323541720077	-0.6674386135954393	0.6534002900537192	96.30696990665419
12	5.0	ltm	392	diff_vonmises	-0.04989494013849785	-2.858769488993814	1.6120408401615687	1.5702764144120227	0.11738630074474438	2.5064204377553905	0.26352595191977307	-0.3252320797991784	0.5887580317189515	100.42181780990379
13	5.0	perception	392	diff_vonmises	-0.006075011281603177	-0.3480725069302233	0.9177013864838882	301.641289574106	0.9011094500865691	302.5971899099264	0.6440256581156376	-0.4590717448101387	1.1030974029257763	94.29692469936825
14	5.0	wm	392	diff_vonmises	-0.020938772031208825	-1.1997032655748356	2.0346822059142116	1.4364151495715343	1.3935751265427123e-21	2.513369344734752	0.3487361257248208	-0.3872199925715243	0.7359561182963451	96.22827700171402
15	6.0	ltm	392	diff_vonmises	-0.12871843824142765	-7.3750232567491425	0.5043105340637141	2.9753650647787495	2.1173159081224287e-12	3.7122416981750104	0.1457050398003914	-0.32218866193643353	0.46789370173682493	151.71538522690764
16	6.0	perception	392	diff_vonmises	0.0770170583041946	4.412752391343339	0.4759911032749533	4.5238771915760205	6.542991570261314e-19	5.400293172861	0.2364558020559715	-0.4364675885907605	0.672923390646732	153.31913591881232
17	6.0	wm	392	diff_vonmises	-0.23030039266928945	-13.195240520155888	0.6631993329773297	156.26116609787448	0.6472665616406481	157.10415994615425	0.24193793571502198	-0.3073805944883219	0.5493185302033439	108.16396372097425
18	7.0	ltm	392	diff_vonmises	0.14666555115867266	8.403317081352004	0.9252472917680001	166.62606197593547	0.9106815568815417	167.99217479236722	0.018144695334029848	-0.31190654252218053	0.3300512378562104	83.98890135965806
19	7.0	perception	392	diff_vonmises	-0.02748167187498048	-1.5745838123997573	0.9323569113150739	90.99954928858679	0.874502273476717	92.31814939568974	0.5832969519965268	-0.5134885170357668	1.0967854690322936	93.24990961172912
20	7.0	wm	392	diff_vonmises	0.7100051191499483	40.680296759975185	0.00038887360562404075	2400.229990148533	7.613421671353748e-30	2401.86241477697	-0.11124331198737991	-0.4083447033209495	0.2971013913335696	165.44099612560285
0	1.0	ltm	393	diff_vonmises	0.19399965216584147	11.115361296108716	6.384282295918616	0.3341272988941792	7.751573133788886e-23	3.238618108412425	-0.185793041170547	-0.5154411415670862	0.3296481003965392	53.895198761502144
1	1.0	perception	393	diff_vonmises	-0.04359321064879377	-2.49770698560064	7.351384012249134	1.1513570110121314	0.08319330344535168	3.9956666665614167	0.532471839085229	-0.6437562656140197	1.1762281046992487	49.0999023369649
2	1.0	wm	393	diff_vonmises	0.2514624117857426	14.40773490150382	0.6795356465294579	16.20827732923769	0.48706267671961007	19.75510059544038	-0.2776335963466474	-0.6837755104912171	0.4061419141445697	97.82351874808927
3	2.0	ltm	393	diff_vonmises	0.13132043208744942	7.524106522445203	1.2479377231510325	146.67853465082737	1.227265926442422	147.80270102271479	0.12496617447653335	-0.30618674357591047	0.4311529180524438	74.85544734171495
4	2.0	perception	393	diff_vonmises	-0.022032003572647924	-1.2623408189298775	7.525761606318033	1.357166503415318	0.2597631573413815	2.407347572197642	0.9703188666213078	-0.40213168800547183	1.3724505546267798	47.97196029575588
5	2.0	wm	393	diff_vonmises	0.09133483486296755	5.233100560172373	5.845880257634597	0.49084321167855494	0.016558216116460186	2.1070652513539243	0.12142305372754741	-0.33405231651823886	0.45547537024578627	55.87592857497265
6	3.0	ltm	393	diff_vonmises	0.06739802189129616	3.861622201901601	1.9402100404478848	0.5554860354099974	1.3989656472849153e-31	1.3877317967580445	0.060485412546514794	-0.21505664433462904	0.27554205688114386	98.41264247081389
7	3.0	perception	393	diff_vonmises	0.015237361765083302	0.8730365200532838	5.025326751264394	1.5713281771521554	0.10169053632094217	2.3874497263387155	0.9466515782305993	-0.3701205636864769	1.3167721419170761	59.64978014988742
8	3.0	wm	393	diff_vonmises	0.3186360874468368	18.25650301126518	0.6470420026660797	108.26121834737629	0.6277061655985634	109.65086038985574	0.021161680391479365	-0.32382881906572614	0.3449904994572055	101.97641491292978
9	4.0	ltm	393	diff_vonmises	-0.3233483402903713	-18.526495211198228	1.009916951816505	1.4662598608986506	2.9978143256688323e-16	2.99217348714485	0.027549355495136596	-0.4093758378433768	0.4369251933385134	127.38431188132904
10	4.0	perception	393	diff_vonmises	0.05679061439024526	3.253862520515973	0.9859341396399466	208.42104278575394	0.9562929981783584	210.35552604419308	0.526381680308802	-0.6187786361423555	1.1451603164511575	88.11495615933762
11	4.0	wm	393	diff_vonmises	-0.2852245819778059	-16.34216476071144	1.155502429015953	2.2718922795290872	8.469910717604218e-18	5.223632501952861	0.011239832978331421	-0.7478092903888606	0.759049123367192	121.88973302058594
12	5.0	ltm	393	diff_vonmises	-0.07756922458101659	-4.444389188594692	1.6082192949567335	1.4454786206646715	0.12125924403347944	2.1713052896234672	0.2644408826511407	-0.27879822414002337	0.543239106791164	100.73754195509204
13	5.0	perception	393	diff_vonmises	-0.03118761503128477	-1.786918714371384	1.0080524956288963	234.3398115156758	0.987169764819948	234.9545281624296	0.7173595831509374	-0.401934109129634	1.1192936922805714	91.40106583434445
14	5.0	wm	393	diff_vonmises	0.041120612025881444	2.3560375200779045	1.884231098631661	1.6082997952948488	6.1054962484761544e-18	2.399556195459484	0.41833010254057357	-0.36342451249868496	0.7817546150392585	99.78091628065195
15	6.0	ltm	393	diff_vonmises	-0.02872443009781296	-1.6457886135232371	0.0004148566489796625	3518.616929791366	1.6406304048543126e-33	3518.934029678158	0.18187354863493965	-0.28276139104798403	0.4646349396829237	179.95370098545516
16	6.0	perception	393	diff_vonmises	0.13663122766843713	7.828392695092527	0.538439034019174	4.408134689398099	1.936755060976139e-10	4.897945287641797	0.339880921651429	-0.3981940230426036	0.7380749446940327	149.84266541587274
17	6.0	wm	393	diff_vonmises	-0.3424154279528636	-19.618958861865	1.580355787032926	1.6215395351667055	7.318761324536221e-10	1.9396884591571684	0.4162395797791905	-0.277974169721012	0.6942137495002025	107.67117861470365
18	7.0	ltm	393	diff_vonmises	0.010412922223812057	0.5966164958224105	0.48438940576416134	85.80822017291693	0.45813435960807547	87.70234377471762	-0.033505642391283175	-0.4415172236717799	0.40801158128049675	117.47510325042603
19	7.0	perception	393	diff_vonmises	-0.05279389761377594	-3.0248675173151494	1.7331859926418558	4.6826661271490915	0.5666592271954508	5.636286820434299	0.7533212534598295	-0.46687701623758515	1.2201982696974145	85.2180975447989
20	7.0	wm	393	diff_vonmises	0.6628861328187061	37.98057770826039	0.1395193719410642	134.81747236568032	0.12735403808456694	136.58835669974906	-0.041632758451438434	-0.48968694301301596	0.44805418456157753	154.16934801468116
0	1.0	ltm	394	diff_vonmises	0.29130662192107754	16.690639980290893	0.6764763554892564	94.1598975789122	0.6537893963424639	96.27271674389299	-0.17622581826623218	-0.40362645036607425	0.22740063209984207	90.10633350161567
1	1.0	perception	394	diff_vonmises	-0.04434450895703815	-2.5407532078183617	8.807332382157842	0.9205943403827013	5.667024070608272e-15	3.152372698003515	0.5715634485177438	-0.501715673311191	1.0732791218289348	45.78047344333689
2	1.0	wm	394	diff_vonmises	0.26031474589184495	14.9149362846232	3.0360284649635583	0.5029662484850812	0.09019523693067293	2.9608483262789047	-0.18299745829765424	-0.454474941071068	0.27147748277341377	71.47278945831866
3	2.0	ltm	394	diff_vonmises	0.15788674256707447	9.046243990161887	0.7232447513136251	117.80700656889557	0.7071711209159866	118.96868266473456	0.02898910189221482	-0.2708971201325774	0.2998862220247922	96.44152867220785
4	2.0	perception	394	diff_vonmises	-0.029620752206195027	-1.697144087417797	7.751213906060082	1.4787443946437537	0.3400486015793113	2.662831470904585	1.0354152086007316	-0.4572396644191364	1.4926548730198679	46.87150142539542
5	2.0	wm	394	diff_vonmises	0.012713187163829586	0.7284119686473284	7.43465278785179	0.4156057664114054	0.061967405667166874	2.153464871338455	0.07962338455408785	-0.34643421500366306	0.4260575995577509	48.74536282650607
6	3.0	ltm	394	diff_vonmises	0.08770851485433023	5.025327728513611	1.0870000997480682	105.8645494946163	1.071283027511358	106.3879599442819	0.1263886343699241	-0.161232469346265	0.2876211037161891	82.97112677940527
7	3.0	perception	394	diff_vonmises	0.0392689018734049	2.2499423434594723	2.2472503601087186	4.29014515023528	0.787010910641118	4.796429663168288	0.9292271455432171	-0.4079807962451118	1.337207941788329	75.28877036736037
8	3.0	wm	394	diff_vonmises	0.03696810738198097	2.1181165295739324	2.3720466744140474	0.9190841621392317	0.4792413356523184	1.8598356647540675	0.07345199281064685	-0.23141512859231705	0.3048671214029639	72.20803465046467
9	4.0	ltm	394	diff_vonmises	-0.13585823368103173	-7.784103402025209	2.8018495230385847	0.34494017435450586	9.459138243428258e-34	1.7210442491687006	-0.056675564061529266	-0.2731123203775082	0.21643675631597895	82.13448442462695
10	4.0	perception	394	diff_vonmises	0.01702137249650963	0.9752528055700593	1.1568537772534884	26.224556514614715	0.9298820572319151	27.98015940696345	0.544080207049408	-0.5821072313173761	1.126187438366784	85.40684770644395
11	4.0	wm	394	diff_vonmises	-0.3187685149059244	-18.26409054576254	1.7277872612669816	1.5008863808286033	0.2605795005275794	3.5465980366011167	-0.011756275425952034	-0.43834806032313245	0.4265917848971804	85.69529354851392
12	5.0	ltm	394	diff_vonmises	-0.019743188925332843	-1.1312013995509993	2.1117089034299346	0.8355590780740049	0.29827010567901213	1.7397225209629714	0.08046101809201478	-0.2198151662175225	0.3002761843095373	80.4150467381532
13	5.0	perception	394	diff_vonmises	-0.008746697774749318	-0.5011488671696047	2.528740178401801	1.9726680987016463	0.15415485313358124	3.1104801314432793	0.5961895674040995	-0.4292886498545549	1.0254782172586543	81.21069414898696
14	5.0	wm	394	diff_vonmises	0.0795141134682294	4.555823113453881	2.1022851082415417	0.9999655336274739	0.011662722318015392	2.2709191763737797	0.16593064833556048	-0.349289147362926	0.5152197956984865	93.94268849796973
15	6.0	ltm	394	diff_vonmises	-0.3585341680825717	-20.542494642365426	0.5182472564394235	73.58146947060398	0.49512816150846173	74.62686023579948	0.06127093477198642	-0.28619974114979296	0.3474706759217794	117.4546787665153
16	6.0	perception	394	diff_vonmises	0.2387400900522621	13.678799560567828	0.2618803511713038	107.96647453834669	0.23759624604361648	109.19253106579936	0.2180309834947458	-0.5114246942482783	0.7294556777430241	149.4180194867109
17	6.0	wm	394	diff_vonmises	-0.2892697518508153	-16.573935921848353	1.7626706096745832	0.9724652515009986	1.1490167330790997e-16	2.118583418338966	0.12744772708502755	-0.3235021431242742	0.4509498702093018	102.72047919267804
18	7.0	ltm	394	diff_vonmises	0.19898531389548937	11.401018671297436	0.7313637149909042	109.60390680073287	0.7130934730688436	111.02277339182615	-0.025302534234423746	-0.3059251020317362	0.2806225677973124	93.27079670569162
19	7.0	perception	394	diff_vonmises	-0.11387097985376662	-6.5243265546400515	3.1650665017554616	1.392223402021008	7.04392909732343e-15	2.299684460667046	0.5738818184131926	-0.36433109475184045	0.9382129131650331	77.19747618170985
20	7.0	wm	394	diff_vonmises	0.6160200513572534	35.295349038202836	1.1000477016183796	1.0327921131704687	0.10849056368773444	2.575453299873674	-0.08316382750333556	-0.3254182393898207	0.2422544118864851	110.86827413692944
0	1.0	ltm	395	diff_vonmises	0.12099996234592882	6.932787163663601	2.6151752300508417	0.47051392767398104	9.694931669430605e-14	2.6897884786991777	-0.14338209287765752	-0.42656945310027705	0.28318736022261953	85.04250600677031
1	1.0	perception	395	diff_vonmises	-0.07458839638847549	-4.273600313708477	10.814006322761685	0.9059237271524322	0.03914399093501545	3.4419072614306927	0.6045396532288656	-0.5544562927528116	1.1589959459816772	40.9464057024916
2	1.0	wm	395	diff_vonmises	0.03442144854715743	1.97220372647884	7.208220324620513	0.34280722178490053	0.06684936068105525	2.9871273740924713	-0.14736985822479498	-0.482992271456766	0.335622413231971	48.75603334258315
3	2.0	ltm	395	diff_vonmises	-0.06813002200043672	-3.90356271875847	2.2308093581936874	0.9408463427152242	0.19418130418873464	2.043724918275228	0.12701853889166353	-0.27555463526331614	0.4025731741549797	82.31137615590026
4	2.0	perception	395	diff_vonmises	-0.0520619721501329	-2.982931277330247	10.706765115725265	1.0058969671720954	0.12127234296902516	2.3886317545958216	0.8694500409972417	-0.39653292966735043	1.265982970664592	40.893033763767676
5	2.0	wm	395	diff_vonmises	-0.1281312917396887	-7.341382240243631	3.9954541529716003	0.8126556712074657	0.2989364380187267	2.531587313379315	0.09302480170672611	-0.3934501953886519	0.486474997095378	60.93311973709615
6	3.0	ltm	395	diff_vonmises	0.03487617930367271	1.9982578796419568	1.1413026182975734	171.1583161095579	1.1268322097016383	171.82288979716242	0.21879803635658135	-0.2248926946868366	0.44369073104341794	81.90253544104101
7	3.0	perception	395	diff_vonmises	0.0027430382112980387	0.15716451255049216	2.7206985297615667	3.5089000665508974	0.6349397622770871	4.384115533139519	0.9793722014565545	-0.48946326113976535	1.4688354625963198	71.33369590792773
8	3.0	wm	395	diff_vonmises	-0.04188378228207726	-2.3997639548078427	2.9675509011476398	0.9519183736529335	0.31604563836219024	2.137500239131255	0.1643651484955902	-0.3001937423936967	0.4645588908892869	70.06073271598848
9	4.0	ltm	395	diff_vonmises	-0.12700771340455821	-7.277005943688318	2.073234261524655	0.7551567334003503	3.74047404931972e-14	2.1872649198553202	0.04999749801052222	-0.34181552007671573	0.39181301808723795	95.34854610624627
10	4.0	perception	395	diff_vonmises	-0.02845924453442842	-1.6305945999535039	0.935519743947426	360.8875653730925	0.9187665706770282	362.5120357710543	0.6197289938404396	-0.590363323592463	1.2100923174329026	91.49343691320456
11	4.0	wm	395	diff_vonmises	-0.2123106062626632	-12.164501684714386	0.9273376545642357	209.42938407933505	0.9107022282899677	211.22920191809567	0.07837609097921927	-0.4291276028136046	0.5075036937928239	85.30245334693608
12	5.0	ltm	395	diff_vonmises	0.015156128981706065	0.8683822244076677	2.0796115490176375	1.0575716529859087	0.15916812165867927	1.7150012447024645	0.24055766557135244	-0.22651808640791174	0.4670757519792642	88.12638147344225
13	5.0	perception	395	diff_vonmises	0.0024678694330220632	0.14139850290150763	1.0003175303027076	208.14486933431246	0.9775403711177518	209.11245211534595	0.57117309289643	-0.4230437092434407	0.9942168021398707	89.95868604930382
14	5.0	wm	395	diff_vonmises	-0.0005364275984546078	-0.03073503740578747	1.739913389266933	1.786283610689097	0.24004219377042416	2.7099808642774272	0.3062711425120693	-0.3158269366902136	0.622098079202283	92.05499796114563
15	6.0	ltm	395	diff_vonmises	-0.23191103138651462	-13.287523320973255	0.6285685661682782	102.90932000001908	0.6078606162880951	103.75655739682281	0.17776076493601423	-0.2830036816746375	0.46076444661065175	110.2138628132963
16	6.0	perception	395	diff_vonmises	0.21991852646723167	12.600403403308466	0.17264198875944214	12.22631986129293	4.476813971700293e-18	12.923198250330104	0.23862545594951712	-0.43157824987768834	0.6702037058272055	168.80717724219178
17	6.0	wm	395	diff_vonmises	-0.2600883352506602	-14.901963910446465	0.7611014064591753	47.548975726242475	0.7143191045051838	48.252907845281975	0.2222859756451836	-0.25370318505218803	0.4759891606973716	102.14383664601976
18	7.0	ltm	395	diff_vonmises	0.1825102163978541	10.457065117616391	1.121480958973614	121.18486650057723	1.102593779811067	121.8494448768349	0.1879390980501654	-0.21429100604781404	0.40223010409797944	82.22525872769816
19	7.0	perception	395	diff_vonmises	-0.06976574963183915	-3.9972830084707605	2.103849429941461	1.629640517744505	8.42148162274011e-15	2.1581923239836356	0.5232794180889153	-0.33058899735243163	0.853868415441347	94.69120467064133
20	7.0	wm	395	diff_vonmises	0.21058479244436862	12.06561983670075	1.4619549084585852	0.7307061045760873	1.895759643541773e-11	1.6832278007546564	0.04373083524831467	-0.2511524992739509	0.29488333452226556	111.47272009114093
0	1.0	ltm	396	diff_vonmises	0.04872050406811771	2.7914792588531028	0.3585675313468828	125.48998996948329	0.3453932851553857	128.51744694386153	-0.36084111283439313	-0.5423622116018798	0.18152109876748668	115.56833585532522
1	1.0	perception	396	diff_vonmises	-0.009348305350251078	-0.5356184421689536	7.870128885809134	1.0257374406380826	0.10516066080473495	4.4614056663887975	0.34166090218988965	-0.7284775748970115	1.0701384770869011	47.07459588391467
2	1.0	wm	396	diff_vonmises	0.022349296448272035	1.2805203615727083	8.893331656577182	0.1396393254360809	8.892431832694167e-20	3.755511906534446	-0.4340617905996912	-0.5977082806797546	0.16364649008006338	45.54814917223396
3	2.0	ltm	396	diff_vonmises	0.21634249886117998	12.395512114059432	0.7771488704564141	152.33338384853175	0.7637564323494929	153.54173128154636	0.031013002698401237	-0.280246765642973	0.31125976834137425	92.75702402630017
4	2.0	perception	396	diff_vonmises	-0.045402482048846636	-2.601370600817395	9.567523976551657	1.2746743305629151	0.3398461072504858	2.7695532723042775	0.9492684568405456	-0.4956014955823267	1.4448699524228723	42.27976230741015
5	2.0	wm	396	diff_vonmises	0.012565662910892476	0.7199594515782115	4.963580812303955	0.5977797544391283	0.08486824533450477	2.8161987394966324	0.029275399805268332	-0.4455421638081577	0.47481756361342603	58.59886847787783
6	3.0	ltm	396	diff_vonmises	0.14645784495073588	8.391416392258561	3.0517268326435514	0.5766418982724724	0.42551747654759636	1.216345182069338	0.09805171906421273	-0.16883420273306482	0.26688592179727755	67.4044341708755
7	3.0	perception	396	diff_vonmises	-0.006641678594045097	-0.38054015232116645	3.795363532695502	2.2927080468515446	0.40466899770697157	3.2872923441006594	0.9596291809895109	-0.46689577971566093	1.4265249607051718	64.49494859151295
8	3.0	wm	396	diff_vonmises	0.12316594842725478	7.056889024607659	3.415535665351151	0.39982949033778725	0.022417131995961764	1.9085069274378352	-0.02884584103946264	-0.2986711755181307	0.2698253344786681	72.49086607430266
9	4.0	ltm	396	diff_vonmises	-0.1902084719368416	-10.898142669613582	0.37432030779947273	89.93047543205779	0.3589322728616797	91.56546217035414	-0.1089122431530889	-0.35028840795435556	0.24137616480126667	127.23640749493802
10	4.0	perception	396	diff_vonmises	0.026521297745335223	1.5195584280175343	1.7825220562413038	3.603041233695693	0.3465010055399631	5.520678633237224	0.527221460333203	-0.5995567876729346	1.1267782480061377	87.22152193319047
11	4.0	wm	396	diff_vonmises	-0.12758837919679156	-7.310275642890908	0.6791119672572402	108.44268896925263	0.640771205652778	111.45468510361442	-0.03241279862675839	-0.6627697655698999	0.6303569669431415	98.39854388979231
12	5.0	ltm	396	diff_vonmises	-0.04648409028306171	-2.6633421877245165	1.0520784572038735	120.77807678536948	1.0278227790283887	121.82834197697878	0.18769723513517533	-0.30061315431653846	0.4883103894517138	83.55373183046979
13	5.0	perception	396	diff_vonmises	-0.03080445703052287	-1.764965378041057	0.9451859829561919	211.75104310414056	0.919523885588553	213.21398128220127	0.5555318271596121	-0.5300626987595791	1.0855945259191913	91.21223829140413
14	5.0	wm	396	diff_vonmises	0.09901255269809253	5.673001388417354	2.6498271146061976	1.1887301628659488	2.92071486182578e-15	2.680332485067714	0.29822818771781195	-0.4229686116402488	0.7211967993580608	84.4853130615966
15	6.0	ltm	396	diff_vonmises	-0.2079327693735501	-11.913670107571523	0.6237121842828823	163.82215191236793	0.6100382042406152	164.76340726789647	0.17290230224906367	-0.3017547384492243	0.47465704069828796	109.81275089758721
16	6.0	perception	396	diff_vonmises	0.24375092267782034	13.965899121858772	0.17855693547502471	13.389609259998261	3.132035894160359e-12	14.754153205667446	0.1792361667322151	-0.5797698760671492	0.7590060427993643	168.1996748925681
17	6.0	wm	396	diff_vonmises	-0.31090778510222633	-17.81370390411794	1.563858952513295	1.789225892697541	2.4341308424533695e-13	2.8529035565852876	0.34080190973065294	-0.41922439898371977	0.7600263087143727	108.21506827763251
18	7.0	ltm	396	diff_vonmises	0.19168925216021274	10.98298512679919	0.7219370177438368	104.55531410367155	0.7028547561123764	105.93939601232903	-0.014133067027398027	-0.30280977417365307	0.28867670714625504	94.50201230786439
19	7.0	perception	396	diff_vonmises	-0.09437799405223687	-5.407460738103959	2.6535677637519393	1.6063220181822493	1.6767247394188014e-13	2.9674145687790032	0.5079410317632544	-0.46741997486211856	0.9753610066253731	84.42922140261106
20	7.0	wm	396	diff_vonmises	0.6370196035164755	36.4985347485911	0.4897303602134927	55.61209810102659	0.4518849455468091	57.50973371373538	-0.05976337556322164	-0.426198607474114	0.36643523191089233	115.71467334532193
0	1.0	ltm	397	diff_vonmises	-0.4291477476242757	-24.588354726416398	0.8233985306149398	0.8639784496240255	1.8196927919872342e-17	2.3721013435511464	-0.11133477040356804	-0.3262423806265633	0.21490761022299526	134.43274482306114
1	1.0	perception	397	diff_vonmises	-0.06836276271635568	-3.9168977795014794	10.167964302885132	1.0303048987464067	0.13827057826892988	3.024409786349878	0.7436674492549508	-0.5054043010151249	1.2490717502700757	41.72711454112584
2	1.0	wm	397	diff_vonmises	0.08739283110936612	5.007240382266283	4.041299742588418	0.4193176066173464	3.00910420733586e-33	2.1945488497324033	-0.025066136248617255	-0.34917316036090457	0.3241070241122873	68.09801067457218
3	2.0	ltm	397	diff_vonmises	0.11066045624820894	6.340377102014473	2.3952122103234053	0.7662913985318842	0.21413261732560845	1.27325945807229	0.19216709130789317	-0.16853556365528732	0.3607026549631805	81.15960925667753
4	2.0	perception	397	diff_vonmises	-0.023975506839539803	-1.3736953535926697	9.482655763004953	1.1324816512471014	0.3234636902133149	1.8738145063874319	0.9701298659844575	-0.32961332102624535	1.2997431870107028	42.828379552267904
5	2.0	wm	397	diff_vonmises	-0.07066168268063022	-4.048616190892777	6.178184973974142	0.5061337563515423	0.22863230428481307	1.461346704438	0.2022938835221445	-0.23985444757712862	0.4421483310992731	51.91548918502647
6	3.0	ltm	397	diff_vonmises	0.09049479484904129	5.184969812752287	3.0514978322805115	0.48965193332186635	0.28363409043094306	0.7078508483659806	0.17717887473652888	-0.09613851694050887	0.2733173916770377	72.52544952221709
7	3.0	perception	397	diff_vonmises	0.015427170078169064	0.8839117353095957	4.062113367620813	2.3898218770251223	0.7288902399160261	2.711558167761433	1.0663884198038738	-0.3675377111644518	1.4339261309683256	60.745660151821454
8	3.0	wm	397	diff_vonmises	-0.012309067380328149	-0.7052576106349555	3.1273562831792447	0.524847573814653	2.104725403826922e-17	1.1406128350460054	0.17041966311074278	-0.1808578784797571	0.35127754159049984	77.67123944029373
9	4.0	ltm	397	diff_vonmises	-0.412824942959025	-23.653126909281085	1.547437613521316	2.060772046557674	0.46415914838116856	2.989978505500908	0.19185482880401794	-0.2709932648823943	0.4628480936864122	87.64405915891747
10	4.0	perception	397	diff_vonmises	-0.008498070909092907	-0.4869035970939262	2.436431694703189	2.629967177987463	0.2967087860366836	3.5636909922023703	0.7799764147596525	-0.44339976525858804	1.2233761800182406	79.86736763178394
11	4.0	wm	397	diff_vonmises	-0.22596705066214143	-12.946958311959557	1.1194308009503644	202.99631488515288	1.1022579051043868	204.24720571043628	0.2002911689692155	-0.3522720741958345	0.55256324316505	80.34291126090908
12	5.0	ltm	397	diff_vonmises	-0.07286586860445834	-4.174906741590273	1.944789483558816	0.8888313938156076	0.07192201185594098	0.8930530479756456	0.2982932434551014	-0.12287797301495468	0.42117121647005606	96.08011143224616
13	5.0	perception	397	diff_vonmises	-0.0018487268436754016	-0.10592424561514242	1.22340922477676	228.3648581955406	1.2055804306876285	228.49125655616535	0.702394386080357	-0.2721264645120094	0.9745208505923664	84.8138742197508
14	5.0	wm	397	diff_vonmises	0.05862280919269276	3.35883954994202	2.096290642210309	1.262934796427335	8.598362708903542e-17	1.2404692698583648	0.47281721955001843	-0.1873004469963569	0.6601176665463753	94.85627613163962
15	6.0	ltm	397	diff_vonmises	-0.37914744833702685	-21.72354860286606	0.7261509470783063	110.33620961741148	0.7107009564991393	110.42926500725736	0.29847578581305	-0.16258844537409445	0.46106423118714446	109.13223910430074
16	6.0	perception	397	diff_vonmises	0.24037747437179394	13.772614771517903	0.8762965535483767	2.779341243475553	1.3466910375759168e-15	2.6995713028442836	0.45474652480838984	-0.27636091506290583	0.7311074398712957	133.30131004685535
17	6.0	wm	397	diff_vonmises	-0.25254194307155076	-14.46958748803296	2.921517968503283	0.9059740914173108	9.010724821476201e-15	0.601634300017678	0.4886453688293423	-0.09405797009818144	0.5827033389275237	80.40217492417453
18	7.0	ltm	397	diff_vonmises	0.14639554594699433	8.3878469222763	1.2459765229475979	194.46858494932604	1.231478946454357	195.14963339063354	0.2555105105083584	-0.24238501324627748	0.49789552375463586	78.62288930696508
19	7.0	perception	397	diff_vonmises	-0.06572983183619384	-3.7660419523185413	1.6715167579032932	1.844510041334983	3.92522752642773e-16	2.005814577571237	0.5340415901176732	-0.28908851456579293	0.823130104683466	105.37748056942428
20	7.0	wm	397	diff_vonmises	0.11743286242857014	6.728407393297483	0.9503516596229715	1.653577666260084	0.08004579759769194	2.2714822052138093	0.1584588518396619	-0.2510454211497799	0.4095042729894418	125.45187229215351
0	1.0	ltm	398	diff_vonmises	0.17067341092888835	9.778866121327281	3.3715283964225256	0.46606388616077565	1.9690119948320794e-20	2.5901779662572513	-0.0861953202208422	-0.41185518902429485	0.32565986880345266	74.73433965474698
1	1.0	perception	398	diff_vonmises	-0.10640814897774571	-6.096737842224134	9.951505387815772	0.9933118383542111	2.9443536329345104e-17	3.0996709211961937	0.7402602481226008	-0.49332794626492726	1.233588194387528	43.0270031730677
2	1.0	wm	398	diff_vonmises	0.03446314121415313	1.9745925403343378	4.25673742355773	0.5480132127150268	0.060252578576774886	3.0159070797534966	-0.07350219229301291	-0.4734145444399516	0.3999123521469387	63.31720150658339
3	2.0	ltm	398	diff_vonmises	-0.04069169469709312	-2.3314623673783084	1.0030898941950355	146.16140141362683	0.9837516745447321	147.31094425696844	0.145705073987898	-0.30797340298343023	0.45367847697132824	84.4558106534669
4	2.0	perception	398	diff_vonmises	-0.038889824072315914	-2.228222785349974	7.630666198616387	1.2938506847766715	0.2014178914458681	2.397297265782032	0.9388537557709093	-0.3955021389093906	1.3343558946803	47.92977339706442
5	2.0	wm	398	diff_vonmises	-0.02454750053905104	-1.4064681784827378	6.495763649438394	0.5135308316995195	0.14681289094897207	2.0068423801678135	0.14326317177873088	-0.32693761827666185	0.4702007900553927	51.106867757499344
6	3.0	ltm	398	diff_vonmises	0.030102776702085346	1.7247620566542334	1.0477917977219513	6.986368983601487	0.6831570580082699	7.97725415686071	0.20593535093776572	-0.29732373996187844	0.5032590908996442	92.84936324120608
7	3.0	perception	398	diff_vonmises	-0.01129535076954301	-0.647175927214661	3.292029811590788	2.4415258974345653	0.28358211027207864	3.4579213703993132	0.9689545941754026	-0.4792791149697065	1.4482337091451092	70.27475120879541
8	3.0	wm	398	diff_vonmises	0.03201919384211707	1.834564670564583	3.1253487188445503	0.8330419277138632	0.21655193286950386	2.203968338398244	0.1279141312405307	-0.3221718551034702	0.4500859863440009	70.10503353301266
9	4.0	ltm	398	diff_vonmises	-0.1179797556223006	-6.75974206514267	1.6478269193350805	1.1701794056115127	1.0150625694403847e-20	2.7129037778092613	0.10487326627720528	-0.41189207990115634	0.5167653461783617	106.02230488441532
10	4.0	perception	398	diff_vonmises	-0.0274879248016594	-1.5749420787080641	0.8624490001949209	512.8976663134883	0.8508856297310863	514.7554606432498	0.5492681620981728	-0.6236995708727733	1.172967732970946	94.34842013456114
11	4.0	wm	398	diff_vonmises	-0.1980653542104543	-11.34830886402274	0.9134479989274161	158.49802855668094	0.8893547110723121	160.6056442981555	0.051331466733266495	-0.4881717417005831	0.5395032084338496	85.33377818426099
12	5.0	ltm	398	diff_vonmises	-0.05945488513813211	-3.4065139898500525	1.836816598255618	1.0970605679957248	0.013272761011706845	1.771206895036511	0.2518159373028125	-0.26452301085929764	0.5163389481621101	100.2715816372128
13	5.0	perception	398	diff_vonmises	0.015628562153186042	0.8954506512354506	0.9956351974395745	268.1825373011142	0.9785812672546474	268.88500061537326	0.6289426992368874	-0.38830044500760863	1.017243144244496	91.24529407919707
14	5.0	wm	398	diff_vonmises	-0.03118530839829454	-1.7867865540361585	1.616755750682674	1.7519639142556251	0.16193941977121523	2.5341349658623535	0.3230760619639059	-0.3096143219725169	0.6326903839364229	98.71442797692515
15	6.0	ltm	398	diff_vonmises	-0.231265114294872	-13.25051499770677	0.9940368535233635	1.5330885168806647	4.0353840747276945e-18	2.263178741054297	0.16194150125243306	-0.28868328607697225	0.4506247873294053	128.4230541916673
16	6.0	perception	398	diff_vonmises	0.11050258210345928	6.33133157982608	0.5815552869492628	3.501329660536203	4.998659059561017e-17	4.265456571066334	0.23870971096622173	-0.3921081931768319	0.6308179041430536	147.759083672596
17	6.0	wm	398	diff_vonmises	-0.1797369777357108	-10.298170246693072	1.032537175282445	4.489124288542255	0.5678983787846019	5.181156380283686	0.21710125520966672	-0.24263758995126106	0.4597388451609278	98.499033505044
18	7.0	ltm	398	diff_vonmises	0.11713655736879393	6.711430363923935	1.194744405382103	185.93838401998215	1.1794044548217617	187.08064087125965	0.09914514810355968	-0.29948263441664125	0.3986277825202009	75.89723952509473
19	7.0	perception	398	diff_vonmises	-0.06069043337393546	-3.477305689146419	2.1634996643735698	1.865168169274379	6.895986305856952e-15	2.7547773254845564	0.5703223367772592	-0.42511163164651583	0.995433968423775	93.42491700240029
20	7.0	wm	398	diff_vonmises	0.3945454117696846	22.605786920654126	0.00047220376711602975	1673.0565713506203	6.0439308271197735e-25	1674.2431699873434	-0.06310501147459036	-0.31457138179308686	0.2514663703184965	175.18065920605179
0	1.0	ltm	399	diff_vonmises	0.0019250322310065291	0.11029622226332705	1.1882040123810778	0.6958511168726604	3.507827846455855e-34	2.243436468257224	-0.09474920068794718	-0.33269007793378846	0.2379408772458413	121.13551604726021
1	1.0	perception	399	diff_vonmises	-0.06541651428557924	-3.7480901790209478	12.973310329097709	0.7539207251861684	1.473629765913947e-19	2.705174040936576	0.6418317529091617	-0.4305418205331526	1.0723735734423143	37.634540019066264
2	1.0	wm	399	diff_vonmises	0.07190771593831864	4.12000863769126	3.032173823434173	0.9302662069405817	0.25649876566382557	2.652005128622385	0.07636238868726009	-0.3862081644103625	0.46257055309762257	69.33772439594341
3	2.0	ltm	399	diff_vonmises	-0.044877755278432	-2.5713059714751063	2.5969405623544692	0.6947327931030555	1.6649288455988474e-15	1.6954703613222424	0.14880199842282543	-0.26751849700725455	0.41632049543008	85.35345432793227
4	2.0	perception	399	diff_vonmises	-0.032790296871958426	-1.878745619744243	9.23846300898856	1.0824141469834874	0.08641951489335195	2.359151701977748	0.885169142905019	-0.38311387117787093	1.26828301408289	44.16277127390191
5	2.0	wm	399	diff_vonmises	-0.10912192949675648	-6.252226012488273	6.166566565761095	0.5540575666122863	0.14836512671840793	1.767368474047549	0.2122658525887473	-0.28531403407758754	0.49757988666633485	52.677755414359666
6	3.0	ltm	399	diff_vonmises	-0.08168083300410246	-4.679966998247952	0.8404365670738038	121.60178821673077	0.8229676579816142	122.12294568350512	0.24496703345173643	-0.2140864311830324	0.4590534646347688	97.47789401967546
7	3.0	perception	399	diff_vonmises	0.06674305809011262	3.824095540359938	2.04426742672491	7.618608550652305	1.0882564566014739	7.930016824987988	1.1410032112748234	-0.44148755186738997	1.5824907631422134	74.42996638386643
8	3.0	wm	399	diff_vonmises	-0.1421856651297244	-8.146638519193646	2.6526605117384845	1.1433844133178104	0.2903149262669371	1.803709309188859	0.32181763122926843	-0.23633609987228904	0.5581537311015574	76.28372425477119
9	4.0	ltm	399	diff_vonmises	-0.3028648671291117	-17.35287864928856	3.2567979223907666	0.6092422395983729	4.1597880567262494e-20	1.943800682594206	0.10863052875144774	-0.3087454650759757	0.41737599382742346	76.06481620198409
10	4.0	perception	399	diff_vonmises	-0.024619393236228856	-1.4105873266088387	2.582666343148011	2.8143731305073043	0.20983246085945262	4.152075203152481	0.8842903624676761	-0.5556473850655027	1.439937747533179	79.3614383482429
11	4.0	wm	399	diff_vonmises	-0.41207497219674266	-23.610156749844094	1.1432682007103034	86.17902500988784	1.1078836535917889	87.43906668774238	0.11293456969428561	-0.3274534565459586	0.4403880262402442	78.1416117763391
12	5.0	ltm	399	diff_vonmises	-0.0692656187950973	-3.9686276223211054	1.0246307859265085	1.1031023205392205	6.590573504980503e-17	1.4695242396864578	0.14819379388677548	-0.18465920100521804	0.3328529948919935	127.53083142634235
13	5.0	perception	399	diff_vonmises	0.008706373169928897	0.4988384375028617	2.288347479529538	2.140854272468489	0.2807603719540387	2.616803563373519	0.6565572758212621	-0.31655227060502333	0.9731095464262854	83.02267113213532
14	5.0	wm	399	diff_vonmises	-0.06343650825492035	-3.634644190053743	1.792019799771733	1.233505384107521	0.1367566049736594	1.7732001707743406	0.27324867409782516	-0.22861458845354976	0.5018632625513749	95.69596646893388
15	6.0	ltm	399	diff_vonmises	-0.4323188841143916	-24.77004746355997	0.9035849710583121	1.2071583338714718	2.253710293878011e-19	1.7638057050944749	0.10968046782121194	-0.2166460053135623	0.32632647313477425	131.02471646228838
16	6.0	perception	399	diff_vonmises	0.20436475510814583	11.709237948921388	0.8959437533387913	2.6342689883826402	5.639864312289851e-19	2.878247278009269	0.3900063531832861	-0.3167531783731866	0.7067595315564728	132.60618436075674
17	6.0	wm	399	diff_vonmises	-0.12675294914847673	-7.262409027044058	2.1254360879602414	0.48547603985401416	6.568513413731569e-18	0.9529451996481575	0.10813063044987745	-0.14796320561204981	0.25609383606192726	94.21442652385966
18	7.0	ltm	399	diff_vonmises	0.32611138058749994	18.68480575884827	1.4900855719559003	100.10883394904887	1.4704347484478133	100.48369994808945	0.18509865696274375	-0.15228486975946787	0.3373835267222116	72.35670901165008
19	7.0	perception	399	diff_vonmises	0.03269336962271229	1.8731920974426268	1.3069525357818157	1.944815245234126	3.608208954941386e-16	2.2841395655257335	0.4119180311672546	-0.30673160936610017	0.7186496405333548	116.82468210542473
20	7.0	wm	399	diff_vonmises	-0.31449461057775946	-18.019213865715994	0.0007570779837529661	892.5509758920587	4.953514043675696e-21	893.0771565020199	0.023821978955538725	-0.1912697587279979	0.21509173768353662	177.14813091880683
0	1.0	ltm	400	diff_vonmises	0.001865065217094097	0.1068603654561424	0.35468380043054687	91.21546297184065	0.3407663197024073	93.33613477123032	-0.2310151757805663	-0.39543529748899253	0.16442012170842624	121.11748732450927
1	1.0	perception	400	diff_vonmises	-0.029865475564581714	-1.7111657030016216	9.054897021692916	0.9428975462259918	0.08426054086853989	3.4679419811205463	0.5159064089002208	-0.5649908690877162	1.0808972779879369	44.3403600847914
2	1.0	wm	400	diff_vonmises	0.143884362078097	8.243966685007148	7.0073867312198646	0.1771408616218702	0.013003539858120453	2.7206485897656045	-0.2551815406094897	-0.4334511385673013	0.17826959795781155	50.5609786315604
3	2.0	ltm	400	diff_vonmises	0.23389162166189142	13.401002784697	0.6110958329786267	114.61285999119133	0.5972464450876162	115.58969087345574	0.0416480531633141	-0.24364432087763888	0.285292374040953	106.44253970611629
4	2.0	perception	400	diff_vonmises	-0.03532345783737295	-2.0238850518897804	9.34303081195574	1.2718346830497493	0.33575518261350595	2.561809823182523	0.9743833526045508	-0.45485159675894216	1.4292349493634928	42.854717094010056
5	2.0	wm	400	diff_vonmises	-0.05058736552550412	-2.898442541296986	5.0814105381189165	0.5728001248855781	0.18375477449429364	2.4142664410703265	0.04310504222218836	-0.3883231019759507	0.4314281441981391	56.1587590995303
6	3.0	ltm	400	diff_vonmises	0.13142602438181253	7.530156515261312	1.4070606256764069	85.56299414863172	1.3877109637367375	85.93168360633919	0.14323994736602685	-0.13554079878474568	0.27878074615077253	73.86853287590463
7	3.0	perception	400	diff_vonmises	0.012448525428544252	0.7132479682168701	2.6714677165868568	3.8446492498461398	0.8358082202636877	4.481118723304797	0.9640854462936717	-0.4431798458731293	1.407265292166801	69.75048915386694
8	3.0	wm	400	diff_vonmises	0.004478565820784909	0.2566029198025187	3.4263445337770726	0.5018366678114479	0.21058185160030263	1.560244235025131	0.05108871006209492	-0.23461733344228086	0.2857060435043758	66.84763367819514
9	4.0	ltm	400	diff_vonmises	-0.20870400310268913	-11.957858545269326	0.6826792628102328	85.95773590254188	0.6633253369387615	87.27272980493683	-0.04835373158584133	-0.27445168578537427	0.22609795419953294	95.22710978972682
10	4.0	perception	400	diff_vonmises	0.007239407078855494	0.41478747179555175	1.3917555055805484	8.2659515441842	0.725246758374372	9.85438477788111	0.5705072400056608	-0.5509479382516828	1.1214551782573436	85.79634111165174
11	4.0	wm	400	diff_vonmises	-0.24189439644314215	-13.859528004056397	0.8681566882225455	203.91161777020255	0.85094382531065	206.01017642638604	0.011933126480982992	-0.47127128998707946	0.48320441646806245	86.52756229519983
12	5.0	ltm	400	diff_vonmises	-0.053309285774951726	-3.05439708376153	1.1751946271759461	53.344604325825586	1.134610347681128	54.02288926004946	0.15355222753057518	-0.20659141370749445	0.36014364123806963	79.84210676661593
13	5.0	perception	400	diff_vonmises	-0.021330873261458883	-1.2221690112100514	1.0403973765686663	141.05175347905205	1.004620922093755	142.13284272114126	0.5822956403106545	-0.4488915454391318	1.0311871857497863	88.14374530188968
14	5.0	wm	400	diff_vonmises	0.12430711479700297	7.122273041316496	2.877062039486252	0.8998517879200308	3.748246434317264e-17	2.0334309801059924	0.25179089112302094	-0.3218066650273104	0.5735975561503314	81.03778810459585
15	6.0	ltm	400	diff_vonmises	-0.3049726454471831	-17.473645451063234	0.6950936895536599	171.11449846366727	0.6830670828100404	171.95185379964897	0.1564487923637614	-0.2585544019899704	0.4150031943537318	103.74067055269649
16	6.0	perception	400	diff_vonmises	0.24682145772404257	14.141827820854314	0.5181365555269258	4.534788453211565	2.018539566619469e-17	5.5179146640887735	0.25609425061898716	-0.4757823207678531	0.7318765713868403	150.16950673101078
17	6.0	wm	400	diff_vonmises	-0.25843845352402944	-14.807432650814764	2.0893372493036786	1.072340355114985	1.8433737727815115e-12	1.91120596413244	0.2637968823744103	-0.29547697982728927	0.5592738622016995	94.9331904832107
18	7.0	ltm	400	diff_vonmises	0.13454450518803854	7.708832303950617	1.0301837968972087	123.25410139967494	1.0126464888480908	124.19982698079531	0.08268109941150925	-0.24143627088983344	0.3241173703013427	82.17503951681911
19	7.0	perception	400	diff_vonmises	-0.10583237174759764	-6.063748236996918	2.360306833664756	1.4991921855692647	1.0425134686819126e-16	2.288687116874158	0.48983163708882593	-0.3566461742442357	0.8464778113330617	89.5095887149289
20	7.0	wm	400	diff_vonmises	0.41565624308658755	23.815348457125268	0.6633334876147883	58.69528620578195	0.6307960520130175	60.03330253286163	-0.00023334575579525563	-0.30150645470232273	0.3012731089465275	100.18631107359232
0	1.0	ltm	401	diff_vonmises	0.4959787623985806	28.41748981356052	0.46792707261678596	57.9082489598171	0.4432734109250428	60.23882769778032	-0.2856176268972792	-0.40788215834245456	0.12226453144517535	98.49360184818804
1	1.0	perception	401	diff_vonmises	0.04023291417735701	2.305176179874611	7.933820505988909	0.9155996862524433	0.1031611599989385	3.699430188633429	0.3604595407047173	-0.6033221282275482	0.9637816689322655	46.98996689287631
2	1.0	wm	401	diff_vonmises	0.21930682059648166	12.565355238611113	0.10504775977450712	0.1538918137566377	0.10504282337660126	3.208995405765937	-0.4365467954899705	-0.5386008078412409	0.10205401235127037	17.74282641986153
3	2.0	ltm	401	diff_vonmises	0.6572839385509814	37.659595620707385	0.5896839364153226	103.18578715910044	0.5752237034857781	104.35805006844024	-0.023914366009158528	-0.2574906568047002	0.23357629079554165	104.43069537286351
4	2.0	perception	401	diff_vonmises	-0.029760139076063653	-1.7051303667808086	8.19241014269935	1.6133755269162675	0.45800116770001	3.415842028639351	0.996116446429411	-0.619534614395238	1.615651060824649	44.80621863679232
5	2.0	wm	401	diff_vonmises	0.06900551469213166	3.9537247549871384	0.9387239080919215	210.0186754196934	0.9198220283804547	213.0974476712246	-0.25033179671191874	-0.6204405966069046	0.3701087998949859	76.35497757297682
6	3.0	ltm	401	diff_vonmises	0.26280890164649795	15.057840882813084	1.7794029353763174	62.30120198924941	1.7521646499750527	62.63821510020214	0.11934202954108741	-0.13087941869177655	0.25022144823286396	64.86416053709794
7	3.0	perception	401	diff_vonmises	-0.024222602375479074	-1.3878528849385132	1.4679868351851404	358.8460397228161	1.4473183770955347	359.8761288341562	0.8720402495437156	-0.5338087535753075	1.4058490031190232	74.46975899819378
8	3.0	wm	401	diff_vonmises	0.06264710301054595	3.5894146012255965	2.584219930488411	0.48074845205009276	0.419548273117147	2.1833807511002843	-0.21705160195895795	-0.332264309716006	0.11521270775704806	5.080064586226452
9	4.0	ltm	401	diff_vonmises	0.7912943872791356	45.33782874348493	5.685570845608656	0.12361135588434334	8.365265247642772e-13	1.7225369106120192	-0.1594151595253458	-0.27414894159644493	0.11473378207109913	57.178522565693896
10	4.0	perception	401	diff_vonmises	0.044609864897070264	2.555956983250929	0.9883026497454647	289.26246898323427	0.9688291121765856	291.550322843148	0.29915220205251103	-0.6157921290942703	0.9149443311467813	85.22778081920575
11	4.0	wm	401	diff_vonmises	-0.3315759731859186	-18.997903851496087	0.6055339321983345	185.63534641988826	0.5873116293676582	189.21073601941444	-0.30086505706440647	-0.6804021064354586	0.37953704937105215	95.29708916341603
12	5.0	ltm	401	diff_vonmises	-0.1680724100642023	-9.629839749270893	1.6675160740115875	125.8299973915876	1.6416560370604043	126.86364239426412	0.07740959691550131	-0.3066683886576804	0.38407798557318173	63.410147869643595
13	5.0	perception	401	diff_vonmises	-0.05799398334271815	-3.322810482689748	0.9215994201572333	336.32171586632376	0.9033938836053685	338.31541132964	0.520682126346685	-0.6344112723343862	1.1550933986810712	90.85980460378445
14	5.0	wm	401	diff_vonmises	0.3047624722650461	17.46160341475995	4.58381396611421	0.8879633378734592	0.22529533664992957	3.3277267670535577	0.07976883743082752	-0.5299216617805199	0.6096904992113474	58.25933815178618
15	6.0	ltm	401	diff_vonmises	-0.15611322684654852	-8.944629024475647	0.8876995838402019	159.264684347116	0.8714587500814145	160.59461311188014	0.0711138892980685	-0.3211604830613233	0.3922743723593918	87.694391246572
16	6.0	perception	401	diff_vonmises	0.15681065065625066	8.984588465303515	0.2661950736267329	211.80965879073554	0.253312091695122	213.92238956211062	0.05608826233754627	-0.6286544978404685	0.6847427601780147	147.23572165891267
17	6.0	wm	401	diff_vonmises	-0.22161943243395052	-12.697858136550074	1.6878284056876	1.3284788076037144	3.233687448922142e-29	3.3815116316034017	0.08001334199537269	-0.5170436286437048	0.5970569706390775	104.813933053693
18	7.0	ltm	401	diff_vonmises	-1.7538872630725564	-100.4903379158086	1.79360653646784	1.85701809022558	1.793693886230125	2.873547419595166	-0.01358052797483603	-0.4908863278451666	0.47730579987033056	161.98575605537238
19	7.0	perception	401	diff_vonmises	-0.12796007958314365	-7.331572506272265	2.1328485197355542	1.9166178614569624	0.1358508541038863	3.4997833469138935	0.39266450929333363	-0.4772004266261414	0.869864935919475	87.38025750625911
20	7.0	wm	401	diff_vonmises	0.7131874331937308	40.86262992376913	2.355489939651215	0.6628923635835333	0.1221590637050342	3.0290274618166904	-0.16550732330806361	-0.4464523932992218	0.2809450699911582	78.39691670571281
0	1.0	ltm	402	diff_vonmises	-0.41426781794355616	-23.735797556259723	0.0005258574099318241	1138.3792382612762	1.1648022853293936e-20	1139.938112362788	-0.15281685648636767	-0.34336313209740865	0.19054627561104098	175.1247980360481
1	1.0	perception	402	diff_vonmises	-0.04552938994200547	-2.6086418874822934	11.00967050126449	0.8525748104692419	0.051774059682021256	2.9321409028096466	0.623774128328647	-0.47475519243959186	1.0985293207682387	40.53634788722104
2	1.0	wm	402	diff_vonmises	0.12502088300122166	7.163168946968858	4.541949939489419	0.38262182117347704	5.897601796596944e-17	2.1414568259764337	-0.025681980226253176	-0.34078767627164025	0.3151056960453871	64.13929261471043
3	2.0	ltm	402	diff_vonmises	0.19837626530411126	11.366122757493082	0.6641461965289589	28.217927204828523	0.6082524680489594	28.952877006586768	0.10311442047910546	-0.2164749537817432	0.31958937426084866	107.05894333930868
4	2.0	perception	402	diff_vonmises	-0.027064757140079426	-1.5506963576731112	9.72089533654282	1.1825080428503667	0.29431075842262205	2.1688050375073313	0.9971165373179509	-0.3801522807998674	1.3772688181178183	42.340371311016696
5	2.0	wm	402	diff_vonmises	-0.0741498970093512	-4.2484761499655495	6.844495693701821	0.4522750260637617	0.11459642385334838	1.581170221445378	0.1814455438143059	-0.2557890403084239	0.4372345841227298	50.43192357098667
6	3.0	ltm	402	diff_vonmises	0.02510832115151454	1.4386008326408384	1.2057155163423212	62.25620851660698	1.18460785235817	62.48651129256949	0.1562321982269097	-0.10534135872719563	0.26157355695410534	81.9998358875792
7	3.0	perception	402	diff_vonmises	0.05093731631025198	2.9184932443003295	2.8528351608817237	3.7447933137491503	0.9711715309399263	3.895010684050146	1.0733613556971282	-0.363680759359456	1.4370421150565842	67.93877336318258
8	3.0	wm	402	diff_vonmises	-0.09749472850551195	-5.586036468139635	3.8662326884439433	0.4803123256195636	2.5402410775637456e-14	1.0022756683126588	0.2029292543029259	-0.15935821214275675	0.36228746644568266	69.67161284625843
9	4.0	ltm	402	diff_vonmises	-0.43887608114865834	-25.145747179059153	0.9004711002762783	65.66556254759575	0.8685423649201762	66.7314568985016	0.061990323257880675	-0.25919423209082915	0.3211845553487098	87.61971817698497
10	4.0	perception	402	diff_vonmises	-0.002850841393347375	-0.16334117989999958	2.8493874852818535	2.393989794393086	0.23069145872246025	3.456785318938507	0.83859398811375	-0.4693066608088486	1.3079006489225986	75.69485748129449
11	4.0	wm	402	diff_vonmises	-0.3259958286458416	-18.678185120276705	1.0853299315818332	118.46199730024453	1.0598562944880285	119.70854370201565	0.12671623949407262	-0.3259572551590253	0.4526734946530979	80.48214377603385
12	5.0	ltm	402	diff_vonmises	-0.04139485622699451	-2.37175055535762	2.2215111822238476	0.5442614491320135	1.3954897563580256e-14	0.889199612873345	0.1575461311632553	-0.13800305920536948	0.2955491903686248	92.22880675605504
13	5.0	perception	402	diff_vonmises	-0.0064920553829492115	-0.37196737380817724	2.0515957464752512	2.8384860766472757	0.5266642777301367	3.360240025762584	0.6410913379666701	-0.3235081355016055	0.9645994734682756	81.62296522194626
14	5.0	wm	402	diff_vonmises	0.0563840224179075	3.230566516517119	1.7138840253387697	1.354015442018171	0.17472052182580347	1.833237225950285	0.29115769266671343	-0.22293017892938186	0.5140878715960953	96.31747872420789
15	6.0	ltm	402	diff_vonmises	-0.4595673567263975	-26.331269942405722	0.6489908448905257	96.0920074668487	0.6315837865600572	96.6186654039476	0.17466917573276675	-0.20625411835168794	0.3809232940844547	109.99345692484596
16	6.0	perception	402	diff_vonmises	0.28494234021415793	16.325993498852082	0.8350125916994928	3.1430285623054233	9.323505503483643e-16	3.4603466829606755	0.42463056801048227	-0.36712193442951335	0.7917525024399956	134.86973477502724
17	6.0	wm	402	diff_vonmises	-0.25355991603459327	-14.527913042473722	2.7343123886976763	0.696588514318142	3.37578823716452e-19	1.028724338267048	0.2687992890400801	-0.1619022514765179	0.43070154051659804	83.14074900270887
18	7.0	ltm	402	diff_vonmises	0.23047391901182596	13.205182847217571	1.140613304733782	153.7592367215244	1.1259013921800742	154.4680055441384	0.1627887223852298	-0.21621795462773008	0.37900667701295987	80.69198386633886
19	7.0	perception	402	diff_vonmises	-0.07117631968050209	-4.07810271896671	1.895314794298523	1.4997237936133883	4.563825352216628e-21	1.8584101884502058	0.45311980030209287	-0.27886402607576355	0.7319838263778564	99.50234905137451
20	7.0	wm	402	diff_vonmises	0.1287039489175177	7.374193079641105	1.0947622415838612	1.0647742617697504	0.09722626578070362	1.8172733983954301	0.06482713108166449	-0.21894462728421935	0.28377175836588386	117.21202786152409
0	1.0	ltm	403	diff_vonmises	0.11010933895289557	6.308800406976351	1.4552457736583455	0.6922495528876165	1.210124380169995e-12	4.21835915050115	-0.3769737927733397	-0.6553423183089624	0.2783685255356227	111.81679111257972
1	1.0	perception	403	diff_vonmises	-0.0447020388448944	-2.5612381614423105	13.632131399473362	0.6837516484995498	4.0673975439090435e-20	4.695183101643564	0.24992339122559448	-0.7472615993466699	0.9971849905722644	36.71231616488703
2	1.0	wm	403	diff_vonmises	-0.046042256248521346	-2.638026962300116	5.028826319460155	0.5273577339726149	0.13670799360272262	4.372287312101785	-0.33544656034388154	-0.709264816344338	0.3738182560004565	55.06301277480193
3	2.0	ltm	403	diff_vonmises	-0.0381822033583421	-2.18767910494324	1.6391942189007909	0.9774248108615126	4.476829700715841e-18	2.7435195707571607	0.010174947612380747	-0.41980424336603456	0.4299791909784153	106.29979833775039
4	2.0	perception	403	diff_vonmises	-0.07666477023999844	-4.392567772092066	12.552323740858672	1.011956385577147	0.15966577300418924	3.0003161881406424	0.858490542110476	-0.5132784281081547	1.3717689702186306	37.606345166005724
5	2.0	wm	403	diff_vonmises	-0.08650497517948066	-4.956369984668183	4.866045867181942	0.694044915248365	0.0528946960300706	3.0030570271595383	0.08961004998199384	-0.4730850134482867	0.5626950634302805	60.1247819970352
6	3.0	ltm	403	diff_vonmises	-0.06157102538635131	-3.527759894930779	2.0721389520964832	1.399352360054313	0.37408850751454936	2.5961743680995744	0.15729374595550782	-0.30927459950876074	0.46656834546426856	79.66947078859872
7	3.0	perception	403	diff_vonmises	-0.007951895781013492	-0.4556100673799586	3.3395692889232382	2.773611612496236	0.2896286489435842	4.1261992737115145	1.0706714689691186	-0.5760721387636438	1.6467436077327624	69.54113056186713
8	3.0	wm	403	diff_vonmises	-0.06899900525353804	-3.9533517916287244	3.172500415393261	0.927986781275905	0.14814995453876165	2.623427584072866	0.14582137197399275	-0.39000191709825643	0.5358232890722492	71.28544981170901
9	4.0	ltm	403	diff_vonmises	-0.09152215102605378	-5.243832985751799	0.13249618581398748	8.22975477554167	3.754114267222389e-11	10.378989513726633	-0.16303814493679836	-0.5096173023727628	0.34657915743596446	172.21719166625797
10	4.0	perception	403	diff_vonmises	-0.04016197217233579	-2.301111502396699	2.2179281221678186	2.701638607390614	1.661972299579781e-21	4.865735150970608	0.7087121221061796	-0.7568373126036673	1.465549434709847	92.30016994470853
11	4.0	wm	403	diff_vonmises	-0.10069369983522242	-5.769324024115398	0.6915211550929752	128.9056205113265	0.6607880577099636	131.63329037317843	-0.0016298497630060638	-0.6105286624919923	0.6088988127289863	97.83376550094107
12	5.0	ltm	403	diff_vonmises	0.022099170720408498	1.26618921301849	2.1555022642444275	1.0405724078775977	2.330434137719121e-16	2.5347992177302885	0.15813864956300078	-0.395889244557098	0.5540278941200988	93.5913075550412
13	5.0	perception	403	diff_vonmises	0.021572124239569085	1.235991674059169	2.1557687011604294	2.1330096783887265	0.09034123373645093	4.035026224194342	0.4497300481951101	-0.5724688285964449	1.0221988767915549	88.77924801288611
14	5.0	wm	403	diff_vonmises	-0.06032215549800393	-3.4562049211675	1.3039967611196939	3.1655403594710587	0.3332650992450176	4.870967652765946	0.2080169291517202	-0.4610104510108717	0.6690273801625919	96.55685714826902
15	6.0	ltm	403	diff_vonmises	-0.20174509295000603	-11.559142363509844	0.8573247014628892	2.9125619809861893	0.1839677931711145	4.433320113699909	0.07527095207365087	-0.4171330451408862	0.4924039972145371	120.12360419765453
16	6.0	perception	403	diff_vonmises	0.2547858807941171	14.59815564902621	0.0005360982119608861	4635.296478014118	2.23749648327525e-31	4636.946761931313	0.13288834153593143	-0.6580840254950999	0.7909723670310314	177.86148546068682
17	6.0	wm	403	diff_vonmises	-0.20557505595648473	-11.77858307947231	0.5467574154016548	172.70250513592438	0.5307245071620609	174.352439268569	0.10380555184926266	-0.4458325911253258	0.5496381429745885	114.13272033140836
18	7.0	ltm	403	diff_vonmises	0.3209084796063735	18.38670149140525	0.9827586751622601	81.35809848068479	0.9593229886016358	82.28176268200525	0.05301935092676402	-0.22549437194970068	0.2785137228764647	83.39661708329848
19	7.0	perception	403	diff_vonmises	-0.026900767775609985	-1.5413004592039796	2.0827864952838553	1.602341392722027	1.393214139017508e-17	3.2017256205446203	0.3374746859258485	-0.49642186938870353	0.8338965553145521	95.15915426569131
20	7.0	wm	403	diff_vonmises	0.7526482000710991	43.123565322191965	0.12194319902625315	50.74866715951975	0.10633751597142468	52.26204469935199	-0.13432819235254279	-0.3344223656919638	0.20009417333942103	152.8017671534727
0	1.0	ltm	404	diff_vonmises	0.29699344617577084	17.01647100891745	0.9900368845090766	44.081178234173045	0.9365137980967374	45.408652227327856	0.00999082590008804	-0.30248275529352675	0.3124735811936148	81.61151108897505
1	1.0	perception	404	diff_vonmises	-0.10506616448683505	-6.019847794722941	9.345377572309049	1.0425365517572553	2.3239551772307015e-19	2.2953234955546162	0.8882260464871825	-0.36531207074393346	1.253538117231116	44.415582410168554
2	1.0	wm	404	diff_vonmises	0.2812971536284804	16.117139691955057	0.850293880714617	130.13213124430536	0.8307009624376775	131.7000600254279	0.0013475275797247832	-0.34907944854752415	0.35042697612724893	87.27800529201699
3	2.0	ltm	404	diff_vonmises	-0.05599930140127433	-3.2085236259740557	0.9933141281539697	96.48184145655938	0.9704811437080876	97.35253525731704	0.12470694598353305	-0.23814040322185903	0.3628473492053921	85.36431099936618
4	2.0	perception	404	diff_vonmises	-0.02733518535281684	-1.5661907529242312	6.109249236655453	1.6784952294596778	0.4299335207603966	2.3213339509415403	1.0753878143060798	-0.3797910602112177	1.4551788745172975	52.24627905231662
5	2.0	wm	404	diff_vonmises	-0.026032318709084255	-1.4915419929699794	9.53048422612139	0.34547201476854256	0.17502823164202005	1.4244702847482045	0.1514443714499194	-0.24210024216408566	0.39354461361400506	42.49880299834072
6	3.0	ltm	404	diff_vonmises	0.03297993517840927	1.8896110943378848	1.070092512379292	155.29812019509234	1.057348127819588	155.76735370434648	0.20666820471737424	-0.17721957658410759	0.3838877813014818	85.7006252647952
7	3.0	perception	404	diff_vonmises	0.05080996556383717	2.91119658401292	1.3384576501981438	245.47799594869645	1.3160178670127776	245.73649580404773	0.8930166544792968	-0.3602256361370415	1.2532422906163383	80.70918433789939
8	3.0	wm	404	diff_vonmises	0.015259185926563472	0.8742869523975094	1.5311526968513975	93.89748286051518	1.506215856614201	94.48083597963802	0.15469462299653713	-0.19743833756435514	0.35213296056089227	69.48102107811027
9	4.0	ltm	404	diff_vonmises	-0.17153038784877792	-9.827967281977076	6.949792919448078	0.3672374710946988	5.560492161071676e-22	1.4471441770642617	0.14842154557499632	-0.23031980092387522	0.37874134649887153	51.61771637577158
10	4.0	perception	404	diff_vonmises	-0.015126590262470206	-0.866689780463231	1.053781178733125	388.39439217700914	1.0394106110215093	389.7846721250865	0.5657913769273648	-0.5092391776112279	1.0750305545385928	86.15528104385794
11	4.0	wm	404	diff_vonmises	-0.34727125405321024	-19.89717720346433	1.2268850918564036	31.21164634974702	1.1395010028900632	32.389055306622986	0.07182569379177117	-0.299426902042335	0.3712525958341062	75.28507390069903
12	5.0	ltm	404	diff_vonmises	-0.04606344107729072	-2.639240763578308	3.0506657057303403	0.40553228311185213	3.4151963619411783e-16	1.1371295770217413	0.08715473627348	-0.18037913036175685	0.2675338666352368	78.66224995732642
13	5.0	perception	404	diff_vonmises	0.023532718172114966	1.3483254317330047	2.667171291793344	1.7593518265288397	0.21469238773479554	2.491936813621536	0.5908544493222316	-0.3342875892689177	0.9251420385911493	78.34261313825593
14	5.0	wm	404	diff_vonmises	0.021161210977959075	1.2124480784229603	0.6341338362527047	121.49030866613326	0.617448757896552	122.31475041134682	0.16289285815116017	-0.2686650747448649	0.43155793289602506	109.28218526287185
15	6.0	ltm	404	diff_vonmises	-0.39651662481606725	-22.718729108732976	2.0049878842273015	0.7110252715680326	1.737660696424982e-23	1.7601951861790086	0.08720754254958396	-0.2734819549437077	0.36068949749329166	96.67783037632411
16	6.0	perception	404	diff_vonmises	0.26605262282591313	15.243692416310772	0.26779220605292325	38.22569662557012	0.20892065593744952	39.25564680360734	0.19528094418923025	-0.44272658849347923	0.6380075326827095	150.5917155892748
17	6.0	wm	404	diff_vonmises	-0.30781241145085264	-17.63635205787823	2.9479303004143746	0.5337868400191608	1.4567340989711837e-19	1.4235682251135566	0.1195422019666681	-0.2256157243052467	0.3451579262719148	80.02503426784294
18	7.0	ltm	404	diff_vonmises	0.042715018372072915	2.4473902745435505	0.8651756094526797	142.15657734125745	0.8458319834810994	143.7488109960283	0.027197537178395237	-0.36377191874630554	0.3909694559247008	87.35263488510333
19	7.0	perception	404	diff_vonmises	-0.15172064703368052	-8.692952740023946	3.9200039268818867	1.2691011596243593	1.5910745460066007e-20	1.677535130396534	0.6979997740455746	-0.2666080826133786	0.9646078566589531	69.17552313823015
20	7.0	wm	404	diff_vonmises	0.5000611874089719	28.651395536834592	1.6933228537009868	0.5141215307324691	5.374144131616054e-09	1.6615951204030197	-0.024736468677538953	-0.256342955106308	0.23160648642876905	104.08947704810669
0	1.0	ltm	405	diff_vonmises	-0.5465070051812123	-31.31254487121768	0.08272591549035935	50.94819095763318	0.06638535683818839	51.708207445668016	0.008123852713127988	-0.2404491164885485	0.24857296920167649	164.0402325579617
1	1.0	perception	405	diff_vonmises	-0.12177371959589631	-6.977120188454387	11.692948875423271	1.0096938732961849	4.1918491166951657e-16	2.036994645811144	1.0378727661958376	-0.32419776683754387	1.3620705330333815	39.6568380364354
2	1.0	wm	405	diff_vonmises	0.15468284522997872	8.862674194753097	2.092853657646196	0.7396779725755303	7.536313483961583e-18	1.5930024926157906	0.1386418855070044	-0.24756858490355277	0.38621047041055717	94.90170712279937
3	2.0	ltm	405	diff_vonmises	0.12032535730491901	6.8941351419754895	1.0864601103611493	2.1972805309793664	0.4096461581961849	2.5511553891105287	0.1999006092228156	-0.16960067238799462	0.3695012816108102	104.69584607470162
4	2.0	perception	405	diff_vonmises	-0.01826407693804937	-1.0464545252524484	6.967583713870886	1.575537792435186	0.5978099229047713	1.8357833750348114	1.1403662103721555	-0.3155408387591894	1.4559070491313448	48.77557134473017
5	2.0	wm	405	diff_vonmises	-0.03839969512958617	-2.2001404655143504	9.886390549910782	0.3608162469133841	0.3316765874816149	0.791678642759815	0.2757405288296064	-0.14192550810079943	0.4176660369304058	41.65709203003004
6	3.0	ltm	405	diff_vonmises	0.0019598537451233113	0.11229134805847388	1.705215698578215	1.5756283732406073	0.6855057297269866	1.7873169481454532	0.23415270232505192	-0.126270607421044	0.36042330974609593	83.95009990242286
7	3.0	perception	405	diff_vonmises	0.028071057978885015	1.608353148657146	3.4460861691662448	2.4809312704372086	0.6037985273794986	2.5734120817122834	1.0715895180458688	-0.31960675748592837	1.3911962755317973	66.68327958189556
8	3.0	wm	405	diff_vonmises	-0.024321074825144035	-1.3934949407026298	3.110437329817407	0.715347705812111	0.5135749921671027	1.0301290007388741	0.2214275040704024	-0.1327663436325888	0.3541938477029912	68.40078085455178
9	4.0	ltm	405	diff_vonmises	-0.29284701287494297	-16.77889788074751	4.443887505428209	0.6442242361302993	6.857713816355878e-27	1.525468970291152	0.2816119381022536	-0.24271352057902676	0.5243254586812803	64.86167327135726
10	4.0	perception	405	diff_vonmises	-0.04255089462306966	-2.437986676407799	2.728078173564826	2.14815318109102	0.09917939272455681	2.9438955462910013	0.8159714977592606	-0.4234711129352286	1.2394426106944891	80.30363597473061
11	4.0	wm	405	diff_vonmises	-0.3081271484614292	-17.65438516024083	1.57378667250986	158.4539068679122	1.5530700260421952	159.30957195598907	0.1879992882578847	-0.28134745842469044	0.46934674668257514	67.86016381083726
12	5.0	ltm	405	diff_vonmises	-0.20618317114267512	-11.813425513098831	1.2317706946245588	0.898638765554849	2.571420205455369e-12	1.071544802027071	0.17542458666264518	-0.14108814851917992	0.3165127351818251	119.30144374847906
13	5.0	perception	405	diff_vonmises	0.04519633020034639	2.5895589699595107	1.3059236453822571	160.37997391379648	1.2823932338666955	160.4965886065811	0.6406290094743312	-0.24443228079542045	0.8850612902697517	82.14385118328514
14	5.0	wm	405	diff_vonmises	-0.01883411810320015	-1.079115478164308	0.6969071048834736	100.48890434698508	0.6796198410952811	100.58926728437271	0.3027581039401781	-0.17132004257972877	0.4740781465199069	111.36114410626377
15	6.0	ltm	405	diff_vonmises	-0.5008595544672255	-28.6971385997748	2.0726551483235722	0.8393632247432834	2.056646110218867e-18	1.3283796360331535	0.23100965143430224	-0.20441037716803823	0.43542002860234047	95.04377521675465
16	6.0	perception	405	diff_vonmises	0.22218807015861838	12.730438678245465	1.3185600474035346	1.9178952375428273	4.1625761942998944e-20	2.3816281663945125	0.38969740834983363	-0.32402943333271583	0.7137268416825495	116.17041230677606
17	6.0	wm	405	diff_vonmises	-0.20934374914754275	-11.994513293599624	4.846098192380799	0.5112404042122776	2.1713518804625876e-13	0.748498332772501	0.31685064958509646	-0.1191002819940272	0.4359509315791237	62.04149169963654
18	7.0	ltm	405	diff_vonmises	0.11308742731968213	6.479432301410229	1.4217523693650136	247.92622380526063	1.4070319052559008	249.11357088195612	0.15469860880705255	-0.3447122368450479	0.4994108456521005	70.13090366941654
19	7.0	perception	405	diff_vonmises	-0.11258419497316706	-6.450599211840451	1.5327957117658653	1.900502820826144	1.4828132555830671e-19	2.368725302043586	0.45704054732564153	-0.3381027280820226	0.7951432754076642	109.413294145882
20	7.0	wm	405	diff_vonmises	-0.09878321227945895	-5.659861150357886	0.00018975997299302614	4494.834531728967	1.0831595613629013e-29	4495.482984187051	0.03254919908783904	-0.2389451482072218	0.27149434729506083	179.71086380208172
0	1.0	ltm	406	diff_vonmises	-0.08761217881769609	-5.019808080199457	0.4233957466111673	1.5767498319507292	2.3858839940864077e-16	3.690290488364806	-0.22071161777967396	-0.43012708854937487	0.2094154707697009	156.129105937257
1	1.0	perception	406	diff_vonmises	-0.05336434672763361	-3.0575518439661717	9.330179924507817	0.8781927378599799	3.440420992667555e-13	3.089605399686706	0.5633170812279342	-0.4917259632613767	1.0550430444893109	44.45246508418586
2	1.0	wm	406	diff_vonmises	0.1363361618430923	7.811486668621724	1.538168742325972	1.9092618613812204	0.3013249105227021	4.352002605567346	-0.07562014253390692	-0.5052713798294541	0.4296512372955472	86.49897667189191
3	2.0	ltm	406	diff_vonmises	0.16734187405510056	9.587983119167033	1.6943450982678054	1.9789551198672994	0.5726804851508434	3.1114412291214997	0.11285268030380768	-0.28840680229723764	0.4012594826010453	80.04573969367834
4	2.0	perception	406	diff_vonmises	-0.014024874979416289	-0.8035661445191806	6.782835952057959	1.526879120027763	0.2971709996254207	2.642809814743826	1.0009718195309794	-0.43769025753150237	1.4386620770624816	50.166323013116795
5	2.0	wm	406	diff_vonmises	0.054089071663896766	3.099075524121938	7.172177928258544	0.4791650010639621	0.01492224916080638	2.01111107289931	0.17749086536495284	-0.319758100611725	0.49724896597667784	50.487519766621034
6	3.0	ltm	406	diff_vonmises	-0.036742019087359086	-2.1051626244947883	1.2096182436867078	1.0346818681129	5.817137007821712e-16	1.8199393486781474	0.10447009796814799	-0.25457942729368316	0.35904952526183115	120.33147149446424
7	3.0	perception	406	diff_vonmises	0.030773226224556822	1.7631759846684105	4.229157298154298	2.116952213489065	0.2610726818363819	2.78801985646794	1.1112513817476686	-0.411956011984463	1.5232073937321315	63.298482626137826
8	3.0	wm	406	diff_vonmises	0.03489400005696982	1.9992789335936247	2.221524234537286	0.7361740025745068	9.095039170815005e-14	1.9656503975848658	0.09169818149467773	-0.30808555949705013	0.39978374099172787	92.22296531397541
9	4.0	ltm	406	diff_vonmises	-0.34384793735892827	-19.701035604945297	1.7484987771732128	0.9311437471258467	8.279613334148398e-32	2.492735666527552	0.045986978313603266	-0.38332143430433546	0.42930841261793873	103.01297469850186
10	4.0	perception	406	diff_vonmises	0.02135168166203172	1.2233612447412925	2.2102149399854363	3.167010182601798	0.3076379487446072	5.061291077763379	0.6647858362427457	-0.61940450534897	1.2841903415917155	81.43892237080613
11	4.0	wm	406	diff_vonmises	-0.37418498390111354	-21.43922033470446	2.008710611148626	1.0881037923753218	1.0493635596869424e-15	3.584275847273544	-0.007675355880686796	-0.5603243670881375	0.5526490112074507	96.6227562374636
12	5.0	ltm	406	diff_vonmises	-0.1378969527134436	-7.900913398195404	1.3741333166140106	0.9870587463789793	1.8743399169733619e-13	1.4312204322624678	0.17774863429016008	-0.2018157738619528	0.3795644081521129	114.45440237156987
13	5.0	perception	406	diff_vonmises	-0.013366223200931577	-0.7658281774432211	1.4614966133325589	5.830714801547882	0.6746704711876328	6.20303956757541	0.7509445565001316	-0.35371683911906915	1.1046613956192006	89.73976326071653
14	5.0	wm	406	diff_vonmises	-0.0037762054497387358	-0.21636063484433046	1.9702385068842982	1.2326194450336212	1.7676111268074177e-16	1.8775419980837824	0.3313212518667191	-0.28657046604403075	0.6178917179107499	97.71298973102444
15	6.0	ltm	406	diff_vonmises	-0.19508316605230341	-11.177442068846803	0.07120507879143835	14.964986640878907	1.1072104937306549e-07	15.302242187105774	0.11886092177535446	-0.22017933799550304	0.3390402597708575	174.9124900247425
16	6.0	perception	406	diff_vonmises	0.08873542193371768	5.084165170114617	0.5333018504648854	145.07014217850906	0.5149237044711082	145.46083670400142	0.4025962408091672	-0.32915793423837414	0.7317541750475414	123.6302897968338
17	6.0	wm	406	diff_vonmises	-0.14590776736414945	-8.359899268142415	1.9956267880685095	0.8480977664872505	2.465981104107626e-15	1.2885697926539152	0.23184323671771656	-0.19700874600819557	0.42885198272591213	97.09359990947505
18	7.0	ltm	406	diff_vonmises	0.29230729288910867	16.747974203440346	1.2475954063499555	149.7249257753503	1.2310188041938726	150.7678515548579	0.05432409826200768	-0.26634316986217144	0.3206672681241791	73.18574966501535
19	7.0	perception	406	diff_vonmises	-0.004744018128883254	-0.27181221671856026	1.5347090452726098	2.8786347538414394	0.19228095002248116	3.8766138724502195	0.5233589569857641	-0.4458494010964459	0.96920835808221	100.03858015143425
20	7.0	wm	406	diff_vonmises	0.21816929150716227	12.500179622719754	0.00016603324497089145	4467.225531293406	2.3684945519410665e-33	4468.4759079455935	-0.08095673091997924	-0.31704072059562804	0.2360839896756488	178.40969010039854
0	1.0	ltm	407	diff_vonmises	-0.39774839390956596	-22.78930427912511	0.18911624990225975	30.35545809711956	0.161201962367979	31.760836258199852	-0.11556260864005008	-0.31126801846591157	0.1957054098258615	153.71594546633227
1	1.0	perception	407	diff_vonmises	-0.07643211932332694	-4.379237856466939	9.781231556810038	1.024410077392054	0.07198839021850467	2.7154479257655986	0.7968822504381063	-0.4406702198396754	1.2375524702777818	42.9429943781887
2	1.0	wm	407	diff_vonmises	0.22174322789419149	12.70495109394476	2.2130999288051294	0.535448369425988	1.627393447310486e-20	2.196072691834403	-0.055953174296210384	-0.34600465222652366	0.2900514779303133	92.3446380963477
3	2.0	ltm	407	diff_vonmises	0.17548162539207368	10.054356517061562	0.9261238780734306	98.05479488465204	0.9084764918413334	98.61014542125933	0.14915567687685183	-0.17814499307983667	0.3273006699566885	90.71413192010192
4	2.0	perception	407	diff_vonmises	-0.016987206168373917	-0.9732952191664239	7.941664823088882	1.390381310730682	0.455700510612775	2.009754736979361	1.0576516643709817	-0.35362994530223085	1.4112816096732126	46.151629096342305
5	2.0	wm	407	diff_vonmises	-0.02119270698303704	-1.2142526665854503	7.810471192832857	0.40841379924055915	0.18526646973214297	1.4024935268828609	0.18120684300475282	-0.23446653322301572	0.41567337622776857	46.762250041248336
6	3.0	ltm	407	diff_vonmises	0.1377479246855092	7.892374721165605	2.0459113025514437	1.0076424720153894	0.7398030133433854	1.2428178041260842	0.16391007869967494	-0.10549443603427205	0.269404514733947	76.77735836875428
7	3.0	perception	407	diff_vonmises	0.018976753679213643	1.0872878946782987	3.724616433616006	2.3694257358446666	0.6625816178841706	2.6851128615259854	1.0069090323695817	-0.35029337127438326	1.357202403643965	63.52631602294733
8	3.0	wm	407	diff_vonmises	0.03267747860032225	1.8722816089275298	4.19276089445585	0.35916352138683155	0.0036188417631487584	1.0089319412434647	0.12215025121122372	-0.15996270605959795	0.28211295727082164	66.66260287378037
9	4.0	ltm	407	diff_vonmises	-0.3385539527083884	-19.397712627662322	3.4097402544159	0.5855842647486876	1.808285366434255e-14	1.545211675754559	0.16629380793767687	-0.24547773723552319	0.4117715451732	74.29845556318772
10	4.0	perception	407	diff_vonmises	-0.00438592271791267	-0.2512948610069431	1.7923309028680592	4.303109851153597	0.5778802432275837	5.3976215764286275	0.6662269847213118	-0.4640647477357278	1.1302917324570396	83.32097828963643
11	4.0	wm	407	diff_vonmises	-0.24885662489760485	-14.258434310503	1.1371609512165728	179.98794213568144	1.1177706404835939	181.39247633729372	0.14012683679696636	-0.3695244067635919	0.5096512435605582	78.34087993006278
12	5.0	ltm	407	diff_vonmises	-0.10453771116125414	-5.989569649497502	2.212743307126027	0.7473092277957133	0.1792554593403488	0.9371335689344934	0.2326824915593682	-0.12104730355390605	0.3537297951132743	86.57191282253066
13	5.0	perception	407	diff_vonmises	0.0005170392912410859	0.029624169230549613	1.2040209790212864	239.10145708736508	1.1863677536309902	239.34614896091196	0.6880928600594274	-0.29380262339469	0.9818954834541174	84.87420219071208
14	5.0	wm	407	diff_vonmises	0.07948117325951688	4.553935778518374	2.0271102481230523	1.157332750166737	3.496757411755461e-16	1.4026044456205293	0.3786585967809125	-0.21278795847664864	0.5914465552575612	96.39227734113277
15	6.0	ltm	407	diff_vonmises	-0.4029381094986813	-23.086653079254667	0.7399996138329106	106.5008276234737	0.7236561520552128	106.7895336757108	0.24868267849574366	-0.17778185580907113	0.4264645343048148	105.87883074813325
16	6.0	perception	407	diff_vonmises	0.2154798041040271	12.346083345466507	0.9870519361751392	2.4488749367039966	9.702770411216194e-15	2.749653287445988	0.3931687047878233	-0.3222319464065693	0.7154006511943927	128.70583222666403
17	6.0	wm	407	diff_vonmises	-0.2390352888370892	-13.69571320505581	3.0998346768534004	0.8384248798112546	6.416781164681254e-14	0.8724135527136446	0.42057470685784515	-0.13771314312319172	0.5582878499810369	78.01236196288073
18	7.0	ltm	407	diff_vonmises	0.08354270126490808	4.786644191601477	1.1975192396285326	240.2552190019916	1.18497422084464	241.31244701720865	0.15956581148222426	-0.29808706483244407	0.45765287631466833	77.25038300457959
19	7.0	perception	407	diff_vonmises	-0.1082348322860822	-6.20139908629881	2.065711717273469	1.6945906860913633	2.5038534152363333e-16	2.0769541478990092	0.5608705136184569	-0.3162408176536071	0.877111331272064	95.51947274274026
20	7.0	wm	407	diff_vonmises	0.25810485978464254	14.788319137475908	1.1717827148229072	1.0639489844302232	1.4639601299641094e-17	1.971398453761035	0.08406437471360567	-0.2755723151202916	0.3596366898338973	121.31369451780236
0	1.0	ltm	408	diff_vonmises	-0.45479396819243795	-26.0577749254337	0.0006670196837240294	851.4291974908178	5.998644044131598e-26	852.9504682362008	-0.15171545502465733	-0.33248991780845927	0.18077446278380194	174.13896637346335
1	1.0	perception	408	diff_vonmises	-0.050254203438239546	-2.8793537598029566	10.936317106715933	0.836334250380379	0.016630693250867287	2.8069854881496537	0.6359750769977572	-0.4484571179192825	1.0844321949170397	40.89103544727857
2	1.0	wm	408	diff_vonmises	0.11738691777182592	6.7257749583748625	3.225084355364968	0.4702531825550322	2.5876408007079587e-19	2.131624704605454	-0.0183859536430368	-0.3387515103026329	0.3203655566595961	76.45519715218506
3	2.0	ltm	408	diff_vonmises	0.29847351390598487	17.10127264325222	0.7247705727367011	70.8419614214617	0.7009273750490659	71.58200985105393	0.1113937269600136	-0.21367328449958656	0.32506701145960015	101.11703065932898
4	2.0	perception	408	diff_vonmises	-0.014769070510238647	-0.8462054075677997	7.874802849269018	1.4770948630332428	0.4568921841736287	2.3591851378622803	1.062465563095575	-0.4170226002808726	1.4794881633764476	46.15638630863731
5	2.0	wm	408	diff_vonmises	-0.00468626462097356	-0.2685031844632594	8.55408864224053	0.3971675642203538	0.04246620677879163	1.5122256825208589	0.20519533121624295	-0.2425110778216712	0.44770640903791414	45.94912683836242
6	3.0	ltm	408	diff_vonmises	0.09688646261014232	5.5511853995132086	2.6804157983872616	0.4899733556715004	0.2230050152778013	0.7643415992271025	0.1505790825402361	-0.10315112657278086	0.25373020911301697	77.51801978704592
7	3.0	perception	408	diff_vonmises	0.03456739804804219	1.9805660169015775	3.7718061483738197	2.565883857285083	0.6385392866801006	2.8183154052038	1.1412904505213683	-0.36952666525166394	1.5108171157730323	63.592941954662194
8	3.0	wm	408	diff_vonmises	-0.07551860034839943	-4.326897074698476	3.283026248926443	0.4726015766934144	2.445898427440506e-16	1.1368257195237161	0.14478436986426796	-0.18047299019405852	0.3252573600583265	75.76504870434411
9	4.0	ltm	408	diff_vonmises	-0.4317530598265302	-24.737628119919517	2.5062366403866294	0.6755547676042507	0.09532596488478928	1.8565982604689266	0.0744154142147258	-0.2719094977837508	0.3463249119984766	81.1679720721047
10	4.0	perception	408	diff_vonmises	-0.0012107326737981385	-0.06936987232722278	3.3415235399461785	1.9729500937527416	0.06635466103973725	3.2000117562288684	0.8297192606613245	-0.483016142708252	1.3127354033695764	73.25915135721593
11	4.0	wm	408	diff_vonmises	-0.32135983442046445	-18.412562217315575	1.2279401720286787	8.52497301346396	0.859246580470877	10.134819216434973	0.08400185901661938	-0.39253608751315416	0.47653794652977355	80.36003030700032
12	5.0	ltm	408	diff_vonmises	-0.12104595230055512	-6.935422193963686	2.0309928038868184	0.5671378561953757	2.2797524551994264e-13	0.8804596739332167	0.1551785622255387	-0.13504582581625063	0.2902243880417893	96.29203219200521
13	5.0	perception	408	diff_vonmises	-0.003891573825618863	-0.22297075587154064	1.531555132759208	6.3002652308697575	0.8379557713310022	6.678142596447388	0.6874453899749735	-0.3211784384192154	1.0086238283941888	84.89168150272857
14	5.0	wm	408	diff_vonmises	0.04280990922380615	2.4528271198622664	2.0192810900675124	1.0563485995122943	0.019756495696022055	1.5262816614101076	0.30035065461153265	-0.22848005392107815	0.5288307085326108	95.71077309131178
15	6.0	ltm	408	diff_vonmises	-0.5044241028725346	-28.901372179269096	0.6607721134826016	93.78810480774264	0.6441641723987044	94.20644890642279	0.18149799195202831	-0.18413602637728665	0.36563401832931497	109.8933569569374
16	6.0	perception	408	diff_vonmises	0.19598111117852193	11.228890534813466	1.28256015874857	2.2368090896323256	6.15566833318273e-15	2.6773046738601862	0.45583681266476916	-0.3582747060267719	0.8141115186915411	117.475276527143
17	6.0	wm	408	diff_vonmises	-0.14979172040809596	-8.58243338538754	3.039931437652796	0.6956436397288168	2.3416144084737346e-17	1.0632367460733463	0.2898040626666242	-0.16816874342157595	0.4579728060882001	78.80032148496954
18	7.0	ltm	408	diff_vonmises	0.20873615797534104	11.95970088376306	1.3730404301156804	168.659506681691	1.3582781149529009	169.50727753690518	0.10138480158504137	-0.24034159030554392	0.3417263918905853	71.2248252137014
19	7.0	perception	408	diff_vonmises	-0.03118089529994852	-1.7865337021263554	1.4244721703442331	1.9774565584628754	5.819700934563336e-17	2.7316515014825336	0.3954469852672091	-0.3866816479559758	0.7821286332231849	112.8642437964244
20	7.0	wm	408	diff_vonmises	-0.011343310084862543	-0.6499237935708074	0.0002404760349903856	3164.934769351248	6.663127345857502e-31	3165.8832421251004	-0.0298177210829067	-0.2720759760998135	0.2422582550169068	179.98360694466174
0	1.0	ltm	409	diff_vonmises	-0.07984718770530223	-4.574906861502694	0.0006306847169424034	950.2744129609705	1.322966638187562e-24	952.3951694858035	-0.24213116922751965	-0.43289652310153315	0.1907653538740135	179.78300731328136
1	1.0	perception	409	diff_vonmises	-0.038569562376376286	-2.209873141832931	9.810029854835715	0.8956886859628721	0.07949787878040898	3.3939965735142557	0.5201903916240856	-0.5539751821181225	1.0741655737422082	42.66517812704956
2	1.0	wm	409	diff_vonmises	0.024509785912384847	1.4043072895488535	5.334555514010191	0.40494910771540127	2.278352769041826e-22	2.932968397665777	-0.10339710537749686	-0.46678796634437475	0.3633908609668779	59.07375869118559
3	2.0	ltm	409	diff_vonmises	0.1957097314620785	11.2133416224158	1.6922682321412936	1.56111249501052	0.4742052359031238	2.513485809817443	0.11954494163370977	-0.2487241303108747	0.36826907194458447	83.17075571795777
4	2.0	perception	409	diff_vonmises	-0.0168282360531847	-0.9641869024973733	8.08162475701995	1.3027281526166576	0.28127908770586996	2.5198970845718076	0.9321836571638016	-0.429314097975381	1.3614977551391827	46.170428607584654
5	2.0	wm	409	diff_vonmises	0.011552486014817977	0.6619086915329779	5.873434888965889	0.5743550976872497	0.09783541540820294	2.2058017917809534	0.15610294527829216	-0.35230513546887743	0.5084080807471696	54.298165831254124
6	3.0	ltm	409	diff_vonmises	0.15625033828059154	8.9524849309693	3.144678584139595	0.48568024081745637	2.8010569612339213e-21	1.0837792923128964	0.15423281154558569	-0.17188245038839078	0.32611526193397644	77.44489712874264
7	3.0	perception	409	diff_vonmises	0.004983888552036304	0.2855557795952472	4.601531146846813	2.259724482364019	0.42523827603837827	3.07293242356542	1.1586666305447926	-0.46198269967525196	1.6206493302200444	59.35040000317329
8	3.0	wm	409	diff_vonmises	-0.007381398400731434	-0.4229229752665267	1.4669994916302371	0.9482821924225555	6.21426312514503e-19	2.296336178628193	0.039768635020790255	-0.3439191745758387	0.38368780959662896	111.50156648997338
9	4.0	ltm	409	diff_vonmises	-0.3837152398800718	-21.985263779978087	2.0466056112952873	0.8883970161560398	2.3514012293325472e-17	2.3723302006684235	0.08716229199567593	-0.36981378759942757	0.4569760795951035	95.76053087203131
10	4.0	perception	409	diff_vonmises	0.011611227181041933	0.665274312441287	2.3289085716086273	2.854258153107245	0.24517775429657546	4.575562988339738	0.6964109019112437	-0.5888641628642901	1.2852750647755338	81.46809748306376
11	4.0	wm	409	diff_vonmises	-0.25599032699599694	-14.667165333044487	1.0507236447806372	5.511485502146713	0.45812060146243677	8.029136225990992	0.017611973031530725	-0.565536506292424	0.5831484793239547	94.39388421303372
12	5.0	ltm	409	diff_vonmises	-0.0887828683383922	-5.086883648855538	1.2836924393444886	1.8232182381420126	0.38207375013435874	2.0839533624877506	0.25051130455157355	-0.16430994273057906	0.41482124728215264	100.93776141576677
13	5.0	perception	409	diff_vonmises	-0.016649711605016566	-0.9539582050774371	1.0603479758542114	344.3140614391684	1.046766863715632	344.6240661103048	0.7714110590540315	-0.3507469470769564	1.122158006130988	90.24805100521166
14	5.0	wm	409	diff_vonmises	0.027976171433406666	1.6029165500686606	2.4618647279993375	1.216775211604915	4.142723307560576e-15	1.7104297259524608	0.43840010151073194	-0.26705510950661066	0.7054552110173427	87.66655453509159
15	6.0	ltm	409	diff_vonmises	-0.28687668059001753	-16.436823038530587	0.3958568659473365	90.42361328260678	0.3811024471249682	90.59770693315758	0.20499657164173968	-0.18340143902060113	0.3883980106623408	136.24483778015144
16	6.0	perception	409	diff_vonmises	0.0987461159710049	5.6577356884479535	1.1798146657330213	2.1995703612562862	4.376157671681165e-20	2.3961036187707396	0.4443558708868903	-0.3033560510527587	0.7477119219396491	121.37726744481418
17	6.0	wm	409	diff_vonmises	-0.13300188268349686	-7.620446545058478	2.3569782426907873	0.9726667411880828	4.3690623392177604e-10	1.128667247552308	0.374002655983082	-0.1746667777085497	0.5486694336916317	89.57090429436681
18	7.0	ltm	409	diff_vonmises	0.25569515037224416	14.650252958292532	1.4734207554306755	161.31664925686195	1.458679772431869	161.9745802998637	0.1386765276308779	-0.2091760030367027	0.3478525306675806	70.11938372225549
19	7.0	perception	409	diff_vonmises	0.025850299492418436	1.4811130600647506	0.6277897507025326	93.40000497555643	0.5890233811103641	94.25904962444058	0.45944936237727774	-0.4395229971352075	0.8989723595124852	114.54195713429979
20	7.0	wm	409	diff_vonmises	0.06342823337143398	3.6341700741540115	0.0002404330737923133	3905.3897656351396	4.6578233871749215e-33	3906.4429837978055	-0.018174858718111864	-0.31705693058165707	0.2988820718635452	179.80012799222584
0	1.0	ltm	410	diff_vonmises	0.09391306220920798	5.380822105737164	0.3249307460055057	2.752149465804413	0.04403639211301491	5.088859902378217	-0.2554739904518145	-0.46633788129432513	0.21086389084251062	156.24467969034782
1	1.0	perception	410	diff_vonmises	-0.04325555595427366	-2.478360796671859	12.947915878453008	0.6837683152991361	5.015814127355159e-20	3.4447271341308814	0.423054822583121	-0.5482453509941959	0.9713001735773169	37.682338675603575
2	1.0	wm	410	diff_vonmises	0.0063477085109302864	0.3636969072555778	4.773053625191475	0.5192973740646929	0.14432340682178013	3.0513165074542536	-0.11889550733160753	-0.4889431536234911	0.3700476462918836	57.397626206304466
3	2.0	ltm	410	diff_vonmises	0.006051547295453876	0.3467281195533149	0.6497524834025028	1.9113245232189413	2.204730990834001e-19	3.3993958572981233	-0.015435266676463333	-0.397714863900558	0.38227959722409466	144.56324177086466
4	2.0	perception	410	diff_vonmises	-0.045862410332470724	-2.6277225503477513	9.274421120153006	1.2264204545443782	0.20390416863697264	3.040594828429816	0.8813153042470392	-0.5163647165913542	1.3976800208383935	43.400645767232135
5	2.0	wm	410	diff_vonmises	-0.07028958818641945	-4.027296746794445	5.919692545753306	0.5856167972967463	0.07271269384180176	2.5986752217195637	0.11110462654817138	-0.41423084861022674	0.5253354751583981	54.324117170380816
6	3.0	ltm	410	diff_vonmises	-0.010186408585018184	-0.5836382203173708	0.9658059714051657	150.00297815235484	0.9492528164410339	150.83503376279373	0.19494958965061926	-0.2549430560781367	0.449892645728756	88.22029086101503
7	3.0	perception	410	diff_vonmises	0.019104775254781	1.0946229906449232	2.4012955088175167	4.760072704839329	0.6844019235248655	5.708252534213779	1.132214211425455	-0.5633606701327671	1.6955748815582221	74.26880557011745
8	3.0	wm	410	diff_vonmises	-0.13492446300825922	-7.730602283442252	2.836661114657364	1.0308765321637543	0.24022372881684367	2.3840753114816384	0.17827416140841812	-0.3363586831759204	0.5146328445843384	73.04096046757516
9	4.0	ltm	410	diff_vonmises	0.03141691618611584	1.8000567027806804	0.3284406954380052	2.7226253058161514	1.4117152748818429e-15	4.634869961908919	-0.15177668291920543	-0.433899563382199	0.28212288046299355	161.38306698733228
10	4.0	perception	410	diff_vonmises	-0.03111960994367357	-1.783022309865845	2.634683618725514	2.380829123659555	0.015352805426212816	4.427014930888268	0.731445460942149	-0.6863586095029273	1.4178040704450763	84.02509066556857
11	4.0	wm	410	diff_vonmises	-0.33335415793310297	-19.09978633270429	0.8516536801357578	124.40452955890879	0.8230492749420402	126.76892929674166	-0.0491191196579166	-0.5088671933856315	0.45974807372771487	86.07274244287284
12	5.0	ltm	410	diff_vonmises	-0.013256274025986309	-0.7595285537579117	2.130229460656699	0.6665227988814791	1.3945694109269686e-18	1.5241160993918836	0.11459517633459074	-0.23752873288628903	0.35212390922087977	94.12910200790444
13	5.0	perception	410	diff_vonmises	0.014761818799254381	0.8457899151341527	2.196666705755938	2.2204379275600186	0.14132899065860413	3.4948436905707445	0.5745080092937356	-0.4725628884517093	1.0470708977454448	86.85762506634578
14	5.0	wm	410	diff_vonmises	-0.05568370018935714	-3.190441008521987	1.5938911726988718	1.7000118492800942	0.23948168761776945	3.0240285577754955	0.16115854664387297	-0.35135977158522513	0.5125183182290981	93.13759643419866
15	6.0	ltm	410	diff_vonmises	-0.3890645012583008	-22.29175388046294	0.3642130948022679	108.21973718603847	0.3500060944099444	109.26462680060965	0.050342501737151935	-0.30871861869338346	0.3590611204305354	134.32623459886798
16	6.0	perception	410	diff_vonmises	0.1547049449669256	8.863940416408504	0.8848026775094837	2.921789290489676	1.4096566265378802e-13	4.060200301120762	0.2882648218363588	-0.48696697768260755	0.7752317995189664	133.26961826630225
17	6.0	wm	410	diff_vonmises	0.018490489900306432	1.059427032416833	2.0079547721459843	0.7134438596791589	1.1439939045861903e-09	2.0095745484600007	0.0491051636380907	-0.3131830124526333	0.362288176090724	96.83602682492145
18	7.0	ltm	410	diff_vonmises	0.3062932439607336	17.549310172320926	1.5318407196806787	83.0001366312238	1.5099471531540525	83.55083761345095	0.0769750479707838	-0.16628101301749254	0.24325606098827635	67.64369065716235
19	7.0	perception	410	diff_vonmises	0.05823485118413793	3.336611193423528	1.113483782354767	2.3262051808640276	1.888895763119385e-15	3.6372780895720744	0.26564032799047144	-0.48780038483385013	0.7534407128243216	123.96599299287521
20	7.0	wm	410	diff_vonmises	-0.21562549746846604	-12.354430960351921	0.0001868145707180303	1615.7437020128982	1.8276980049583266e-29	1616.891876008108	-0.13469620386968018	-0.23077444291868687	0.0960782390490067	178.66376759942227
0	1.0	ltm	411	diff_vonmises	0.26251026275964057	15.040730134997672	0.39234018066829696	110.54315940935436	0.375564088580659	113.36396713792699	-0.29212571670091236	-0.5284449179416253	0.23631920124071293	116.25408117702781
1	1.0	perception	411	diff_vonmises	-0.05479204598433316	-3.1393529857890203	10.938596413652936	0.7883199304845512	0.01332021366403721	3.9516638888819218	0.3903627317139621	-0.6310010655118512	1.0213637972258134	40.86532348158448
2	1.0	wm	411	diff_vonmises	-0.041308467797039124	-2.3668008629224153	6.386885122665303	0.36708228015476385	0.16949848594123573	3.7015104957866147	-0.33074388752159706	-0.6219102852449067	0.2911663977233096	48.46679089072981
3	2.0	ltm	411	diff_vonmises	-0.008051388624698112	-0.46131058741484215	0.4947087683083244	113.49187429718577	0.47750559125844777	115.05123742082303	-0.014119879514943534	-0.3684141550460467	0.35429427553110315	116.24676992733737
4	2.0	perception	411	diff_vonmises	-0.058739001321764524	-3.3654968685504714	9.745030978856594	1.167324642874143	0.19905840467490646	3.1593175977360057	0.8263499338985103	-0.5390007165650613	1.3653506504635717	42.33770951965016
5	2.0	wm	411	diff_vonmises	-0.09336550324653178	-5.3494492881412565	3.3951373697498215	1.0478364021981479	0.27425153506211464	3.720663769243778	-0.028695943971017934	-0.5652885274200554	0.5365925834490375	64.49436297323547
6	3.0	ltm	411	diff_vonmises	0.1132036339801262	6.4860904526049845	1.176030239543707	208.49058299600873	1.1605820322386642	209.57213936954992	0.19546748777702305	-0.31400422397088334	0.5094717117479064	78.61916200431057
7	3.0	perception	411	diff_vonmises	-0.053781564656708754	-3.0814566704393656	2.400902210466799	4.627504005679705	0.6004177577883956	6.358762556457159	0.9739150525290277	-0.6855013570812558	1.6594164096102835	74.07468970661117
8	3.0	wm	411	diff_vonmises	-0.049900170731782295	-2.8590691799133623	2.9565658800908112	0.9211956812501199	0.2681675525491404	3.163528594984925	-0.04833143070705315	-0.46641849284198106	0.4180870621349279	68.1413348358829
9	4.0	ltm	411	diff_vonmises	0.2565216171971911	14.697606019269566	1.806989421504172	0.7643668137075521	8.448575461697045e-20	2.9002663837593103	-0.0908188118615274	-0.45160096503841446	0.36078215317688705	101.58839698510761
10	4.0	perception	411	diff_vonmises	-0.035051669560179764	-2.008312730685479	0.7590709262440838	503.62691943793584	0.7468347261723801	506.14927116797486	0.4361985737617431	-0.7425754060043346	1.1787739797660777	98.77798543773653
11	4.0	wm	411	diff_vonmises	-0.15213187942213985	-8.716514620281751	0.7340481171992297	200.80618681104883	0.7128424412738079	204.12784059552487	-0.14100270692063077	-0.6850725183518627	0.5440698114312319	91.12851083790402
12	5.0	ltm	411	diff_vonmises	0.005630798245287165	0.32262097474462426	1.0175109965919253	158.88265380818657	0.998372056300798	159.9783948420838	0.20073712678300382	-0.3150666195519669	0.5158037463349707	85.02165969542077
13	5.0	perception	411	diff_vonmises	0.0015543339611287892	0.08905677592653097	0.8467956431833606	369.70235386415817	0.8318865142321249	371.38591359509655	0.5305912593847353	-0.5814593751553119	1.1120506345400472	95.58250491783778
14	5.0	wm	411	diff_vonmises	-0.0032977937968418324	-0.18894966626346021	2.231113054782059	1.4867197660098954	0.17642357718194301	3.282304922501739	0.20070887268837778	-0.4470634357621704	0.6477723084505482	82.89455136235762
15	6.0	ltm	411	diff_vonmises	-0.1377922180462598	-7.894912543797064	0.702377275432064	24.61348462895648	0.6039038001805564	25.87092376484279	0.12582113603059675	-0.3422957713199919	0.46811690735058864	104.44852170555667
16	6.0	perception	411	diff_vonmises	0.06662909478502864	3.8175659239592643	0.4456310037281676	4.807650948634297	6.996849286898893e-16	6.371573814105684	0.12352762807911288	-0.5474945769270984	0.6710222050062112	154.9545451019052
17	6.0	wm	411	diff_vonmises	-0.03089605951330613	-1.7702138136974577	0.770010398639699	89.88499139840025	0.7342686829257579	91.5399171980971	0.13156110057070336	-0.42103907525076245	0.5526001758214658	96.24790148614528
18	7.0	ltm	411	diff_vonmises	0.008211633123351538	0.4704919208778733	1.6061196631870893	100.71128554782219	1.5864999008160336	101.3634214795917	0.046310857441604014	-0.18913389941530845	0.23544475685691246	64.53843469853558
19	7.0	perception	411	diff_vonmises	-0.004703522556535086	-0.26949199133404356	0.5992887090869408	187.7446638254127	0.5783927025178964	189.48289850735216	0.28718481345660507	-0.5511938649856045	0.8383786784422096	112.09634828934496
20	7.0	wm	411	diff_vonmises	0.9731255405702917	55.75598641106448	0.25451032804375096	52.326659256190936	0.2389228501936675	53.95522415212536	-0.18089660682342412	-0.3133629179321513	0.1324663111087272	129.84498480107638
0	1.0	ltm	412	diff_vonmises	0.3247086114685016	18.604433008698383	7.120265217374865	0.21672800352490584	3.968723844303027e-27	2.8467605732987655	-0.22674931968551376	-0.4530758690267767	0.22632654934126295	50.99025738201749
1	1.0	perception	412	diff_vonmises	0.0029238979624096498	0.16752701297297395	7.427745439103147	1.0174391841274844	0.07543429134361339	3.6993684266185825	0.45227956100427713	-0.5953954365592725	1.0476749975635498	48.89516231729283
2	1.0	wm	412	diff_vonmises	0.34935569746961903	20.016607013858383	2.8199833895771973	0.4963907003619801	8.289924689667638e-18	3.7951656822287734	-0.2902307514559774	-0.602904491180324	0.3126737397243466	81.82459133121111
3	2.0	ltm	412	diff_vonmises	0.257364441523711	14.745896296050116	1.0892660240768806	152.44078389041505	1.073244115347189	153.57736389437062	0.05419499149481766	-0.27849544177992414	0.3326904332747418	78.46874981175452
4	2.0	perception	412	diff_vonmises	-0.011121524079388006	-0.637216391502051	6.916427532584135	1.626124061393574	0.37042753729543926	2.8510565083252746	1.0374598528720924	-0.482260695988787	1.5197205488608794	49.25422893307913
5	2.0	wm	412	diff_vonmises	0.22967750552748628	13.159551715817601	1.6947949536795266	2.1914559953468276	0.4630579103734618	4.2275311568967435	0.008365417517107288	-0.451080736114923	0.4594461536320303	79.8046643009634
6	3.0	ltm	412	diff_vonmises	0.33268131499174036	19.061235271889043	16.02907301744517	0.18572358318376878	4.432552582075005e-28	0.7955866252053627	0.1676357890453921	-0.12662154405922904	0.2942573331046211	33.824254841917025
7	3.0	perception	412	diff_vonmises	0.031092810155823002	1.7814867951301616	4.261714144122717	1.8665272893586844	0.27724414407411263	2.579326878754687	0.9539630901631201	-0.3824517478461978	1.336414838009318	62.78580154336487
8	3.0	wm	412	diff_vonmises	0.3882451542691103	22.244808756025577	0.662195147488697	118.74171275259053	0.6468411439098333	120.12956983876113	-0.03426656003874484	-0.2972600096334297	0.26299344959468485	97.72917857284861
9	4.0	ltm	412	diff_vonmises	-0.2888213042424949	-16.548241766558856	0.9949072228314281	0.8455883228569816	1.4018386214784015e-24	2.395953318914949	-0.09320516283532249	-0.3419330204450909	0.2487278576097684	128.15682639087026
10	4.0	perception	412	diff_vonmises	0.06983171824748304	4.001062731727475	1.0666498027294107	148.69710746263152	1.0236277496888484	150.83943041024588	0.4634014550340808	-0.6408529956530735	1.1042544506871543	83.98982356312146
11	4.0	wm	412	diff_vonmises	-0.6552638359976238	-37.54385227021639	0.00036362207600301017	6007.589915369716	1.540546173064429e-29	6010.95713929264	-0.1882170019661089	-0.8835404589649443	0.6953234569988354	168.09654221297632
12	5.0	ltm	412	diff_vonmises	-0.05836389854055325	-3.3440050623034465	1.2843429743012442	2.612562078411047	0.5964675790100042	3.3068707355837286	0.15499360350349256	-0.20946793212304296	0.3644615356265355	89.80453392114
13	5.0	perception	412	diff_vonmises	-0.047621631950454636	-2.728518524286405	1.6820845922489804	4.20119458965887	0.4649988556199609	5.003784147072606	0.7489718332766955	-0.44224305892040094	1.1912148921970964	88.9072503920404
14	5.0	wm	412	diff_vonmises	0.10740807928488164	6.154029628630243	2.5108457721374626	1.1993045585719753	1.7839818659495214e-20	2.3506650492924392	0.3344967202344109	-0.3694477094274235	0.7039444296618345	86.79763616566152
15	6.0	ltm	412	diff_vonmises	-0.07163512310114253	-4.104390218595572	0.0007932306084183385	1431.6044873051087	1.3491456073124463e-23	1432.0496146932592	0.10992646681208385	-0.25154323322396976	0.3614697000360536	179.80781065052827
16	6.0	perception	412	diff_vonmises	0.10497923216944328	6.014866939833102	0.40388576804875237	249.7582962912403	0.3925330898889882	250.52038064797853	0.34710373143320083	-0.42711180063193765	0.7742155320651385	134.64275914341627
17	6.0	wm	412	diff_vonmises	-0.3133879669361421	-17.955807855626333	1.4299901955119452	1.589424308686884	7.1385588422149775e-12	2.2649898515594766	0.30837289088412845	-0.32217892332979725	0.6305518142139257	112.3110053805237
18	7.0	ltm	412	diff_vonmises	0.21804934157257605	12.493306997715093	0.5616920447344805	81.17368426568804	0.5396731558018613	82.84041718424132	-0.08721514266740016	-0.34290636143817643	0.2556912187707763	104.33675738805476
19	7.0	perception	412	diff_vonmises	-0.05729208576540139	-3.2825947138590403	1.4906219606667894	5.893619747706514	0.613838931503061	7.105828615409092	0.6375083754629871	-0.49209620879725996	1.1296045842602471	87.6704137657386
20	7.0	wm	412	diff_vonmises	0.7979908956607767	45.721510411226944	0.11982924053853194	63.20963743142393	0.09900071994606807	65.22739301331112	-0.133357298821295	-0.4876407429579235	0.3542834441366285	152.0834343485835
0	1.0	ltm	413	diff_vonmises	0.3479058083021119	19.93353448379849	0.5751785606424719	117.76212045172373	0.5547384150447596	120.83775167184334	-0.33658709626488914	-0.5556318336777721	0.219044737412883	92.35163811388938
1	1.0	perception	413	diff_vonmises	0.04015633371266052	2.3007884424543517	8.435321443623712	0.8321058882190573	0.034711033761336565	4.170654996672293	0.26186521925158834	-0.6679435008930189	0.9298087201446072	46.23742165311148
2	1.0	wm	413	diff_vonmises	0.24402249371207257	13.981458995959429	3.0214392709709808	0.6541799660219438	0.12691393730072165	4.240550333663294	-0.33295414340020796	-0.6524218709499483	0.31946772754974034	68.77364900811833
3	2.0	ltm	413	diff_vonmises	0.2208552569122297	12.654074104348265	0.7952306538117363	149.50815549239726	0.7796328028260101	151.04088430241305	-0.014105988465040298	-0.3351064732544984	0.3210004847894581	89.69566049173272
4	2.0	perception	413	diff_vonmises	-0.034160369760083915	-1.9572450138591329	8.786107693777899	1.3434395055127393	0.2408813064143763	3.0586281536330406	0.9542480251848049	-0.5224641948633763	1.476712220048181	44.41217141767069
5	2.0	wm	413	diff_vonmises	0.06596239226599465	3.779366683427876	5.044649407192468	0.5773423095330257	5.2885485693962214e-15	2.881360094575552	0.044410432230352626	-0.458561815279759	0.5029722475101116	60.78359950381727
6	3.0	ltm	413	diff_vonmises	0.021432519671632642	1.2279929215156635	0.826766059870797	66.22318514099832	0.8064848482268909	66.8819781448115	0.05559233234570371	-0.16718866624703743	0.22278099859274114	92.33495981431082
7	3.0	perception	413	diff_vonmises	0.05765279392911022	3.3032617692754704	3.204574000380779	2.576312501812659	0.4141169810595018	3.2179512006124216	1.0088834862149194	-0.42029099125983105	1.4291744774747506	69.84715426457262
8	3.0	wm	413	diff_vonmises	0.0014675858984494095	0.08408647805406619	3.2379612356954803	0.4873824299668184	7.928021935852015e-15	1.6655833754947327	0.06823301295820522	-0.2645724868806186	0.3328054998388238	76.29985613788884
9	4.0	ltm	413	diff_vonmises	-0.04523450793374368	-2.591746392954551	0.00022178483503858522	2271.568087623587	1.3277895250755353e-32	2273.2950233858965	-0.19466579595774647	-0.3550260392993323	0.16036024334158583	179.9301522178253
10	4.0	perception	413	diff_vonmises	0.04662362810786333	2.671337116168085	2.4034284924139135	2.9685012222534466	0.3038685958557733	5.115336135527611	0.6311212714506342	-0.6531851789526272	1.2843064504032613	78.34410319592772
11	4.0	wm	413	diff_vonmises	-0.4369598983144692	-25.0359579898847	0.7131149586933923	2.7255332482926096	3.62635381419369e-16	5.602994052883114	-0.10935659360824956	-0.7038045984108896	0.59444800480264	139.199238924812
12	5.0	ltm	413	diff_vonmises	0.002480796530244891	0.14213917101373094	2.586705528076438	0.5931145525901945	0.027955545638783677	1.6967420387144394	0.07896277399585111	-0.2606770165319645	0.3396397905278156	83.52627126937276
13	5.0	perception	413	diff_vonmises	-0.03574259903485937	-2.0479000735258115	2.844233269339686	1.8031391124056437	4.198609448297681e-14	3.2898177948831497	0.6218768934089609	-0.5197136008670387	1.1415904942759996	81.5158195453576
14	5.0	wm	413	diff_vonmises	0.06772435143048229	3.880319507227415	2.329549489928591	1.0928966327036553	2.0321053729930107e-16	2.7174955430099583	0.18529061821257486	-0.426649198550659	0.611939816763234	90.09386967658648
15	6.0	ltm	413	diff_vonmises	-0.2962918832810927	-16.97627441598941	0.2668406658579999	109.65088121503496	0.25452417597697446	110.65476906101438	0.03603820167832339	-0.3057735236563133	0.34181172533463666	146.524689477013
16	6.0	perception	413	diff_vonmises	0.2316603507652058	13.273160379366544	0.2405105086200891	208.32539050544725	0.226153338420505	209.51246954112085	0.29042395849690905	-0.5637525572049356	0.8541765157018446	151.6230684748362
17	6.0	wm	413	diff_vonmises	-0.3834228711660314	-21.968512286601904	0.8799379951891846	1.9583973011863751	4.26117974888923e-15	3.2426249840116608	0.10845320405391634	-0.4086187461251287	0.5170719501790451	132.38628164806784
18	7.0	ltm	413	diff_vonmises	0.49822344432020715	28.546100614019036	0.49585479468731014	65.79385258902562	0.4729714355237055	67.07016609703277	-0.027797106992668574	-0.29191101942196873	0.26411391242930016	115.20668236360723
19	7.0	perception	413	diff_vonmises	-0.06081105166868225	-3.484216608367475	3.028051224497448	1.4408048071326118	3.1245613419474445e-17	2.6108566309895296	0.5330487262290449	-0.4133072455201893	0.9463559717492342	78.96265059787297
20	7.0	wm	413	diff_vonmises	0.8783321985389865	50.324727986730615	0.000741527457630452	1062.0388681035124	5.889537254889496e-19	1063.7795809196687	-0.15168238521809485	-0.4023572448391235	0.25067485962102865	158.35241373030652
0	1.0	ltm	414	diff_vonmises	0.27165566977782374	15.564723359068891	5.526423036208224	0.3138249348474644	1.954005683799257e-19	2.3601770840326797	-0.08869757528387101	-0.3756293024021867	0.2869317271183157	58.020099010770934
1	1.0	perception	414	diff_vonmises	-0.0569436707776417	-3.262632005541308	8.652428765634326	0.9284977632149539	1.3238508716028362e-19	2.9556541323355234	0.6024193292805686	-0.4704069324817192	1.072826261762288	46.18646181434113
2	1.0	wm	414	diff_vonmises	0.2058048706255446	11.791750490079636	0.7913933559382391	137.14811790551346	0.7677108627143076	139.55245025710076	-0.09497992635577646	-0.49973776563615857	0.4047578392803821	87.87861781668647
3	2.0	ltm	414	diff_vonmises	0.0874258909892929	5.009134573857297	1.0103721685830291	63.15789023142629	0.9700153901777985	64.34790702986722	0.08268308055074414	-0.29580514216916676	0.3784882227199109	82.961222850584
4	2.0	perception	414	diff_vonmises	-0.019482844482552674	-1.1162847617600105	6.563804253215222	1.5624088160725795	0.28947453869298945	2.6608458223076115	1.0100110207950213	-0.4370981637990108	1.447109184594032	51.00990139223754
5	2.0	wm	414	diff_vonmises	0.04310408546693925	2.4696821770268076	7.232450466277681	0.4475893746920469	0.0432764947425041	2.0297823501216308	0.1340191091734017	-0.3243346566919193	0.458353765865321	49.79635801559317
6	3.0	ltm	414	diff_vonmises	0.026491868701560266	1.5178722680141234	0.722770956996767	93.68325566949136	0.7043514637771066	94.40021525661788	0.12445079336293219	-0.2144962222435698	0.338947015606502	101.59876764426997
7	3.0	perception	414	diff_vonmises	0.049844448246580776	2.855876516687335	3.003251691694465	2.65114731747421	0.4346093925192212	3.192577578068233	0.9885197194441793	-0.4005595051450066	1.3890792245891859	71.69253088885014
8	3.0	wm	414	diff_vonmises	0.04403705708616686	2.523137513214036	2.634389105640141	0.7260201158123827	0.17556751281920568	1.7771754425969712	0.10661289987571182	-0.252311493357619	0.3589243932333308	76.89817063448814
9	4.0	ltm	414	diff_vonmises	-0.2507519120086847	-14.367026262933416	2.2515702893713483	0.6080894945187894	5.210481691275849e-42	2.06481172662435	0.008206976135206379	-0.3248945162078565	0.33310149234306285	91.56849544739686
10	4.0	perception	414	diff_vonmises	0.026664421831487404	1.527758834100721	1.0626126678348655	191.8432303586114	1.0286336356193218	193.73440890353154	0.5712735797254709	-0.6223121185351204	1.1935856982605912	85.15589573088408
11	4.0	wm	414	diff_vonmises	-0.3948983880573379	-22.626010972204853	2.413587309368374	0.843666148699265	2.2124009282364155e-15	3.039007219811244	0.0033282281290369364	-0.47977216946792695	0.4831003975969639	88.4252422943117
12	5.0	ltm	414	diff_vonmises	-0.07365414663284674	-4.220071745699822	1.8621861853371902	0.7059922972808504	5.221790901003978e-18	1.341424256581702	0.13528809533770517	-0.20507856490021384	0.340366660237919	100.32274846680153
13	5.0	perception	414	diff_vonmises	-0.014126333184185295	-0.8093792714494188	2.236969310166137	2.330021905212728	0.22842222963381292	2.96954388301431	0.6994577751488709	-0.37136964650441223	1.0708274216532832	84.79580871538502
14	5.0	wm	414	diff_vonmises	0.013864714750005329	0.7943896393280856	1.8897649016450746	1.158575160633188	7.212273395653341e-15	2.0386305755912204	0.25304770201967525	-0.3112713760965953	0.5643190781162706	99.64583420345016
15	6.0	ltm	414	diff_vonmises	-0.29721074146646204	-17.02892111198212	0.5064862865948251	2.082943161402545	6.333396780988981e-14	2.690637890631773	0.08824006609986018	-0.24067904078295574	0.3289191068828159	150.4679703520653
16	6.0	perception	414	diff_vonmises	0.13583874220328793	7.782986622614016	0.39602146387819603	207.38369010685355	0.3836629026742403	208.03379679255386	0.32271895381870763	-0.3848821645613114	0.707601118380019	135.59369755114392
17	6.0	wm	414	diff_vonmises	-0.23427671314766305	-13.423066901558137	1.7187312797361396	0.8537319968628942	7.50339849263788e-18	1.5481842030829307	0.15528043537422004	-0.2334874412197365	0.3887678765939565	103.95856194264697
18	7.0	ltm	414	diff_vonmises	0.23348744589693904	13.377845219183756	0.9110637126426673	118.11574894036282	0.8920845403446933	119.39648405790105	0.015516854749328957	-0.29141369436821485	0.3069305491175438	84.72636738027296
19	7.0	perception	414	diff_vonmises	-0.06254983992038271	-3.5838418366568425	2.6149966251167873	1.6625527739684596	1.4214989506534026e-15	2.4588322936312705	0.6145785344651225	-0.38594934920251406	1.0005278836676366	85.05474967858609
20	7.0	wm	414	diff_vonmises	0.48264474567399085	27.653506931284674	0.01975317605261939	47.332007552964605	0.004739277545102137	48.681417687166345	-0.10199716554708882	-0.32615094988965865	0.22415378434256983	171.7316593043126
0	1.0	ltm	415	diff_vonmises	0.1539583546941922	8.821163944755359	6.45249573288519	0.5151736274717734	0.009310095245102708	3.537051257267734	-0.057096114506589024	-0.562121147429619	0.50502503292303	53.22574213012095
1	1.0	perception	415	diff_vonmises	-0.07229364411571843	-4.142120693451444	8.470443021664025	1.1063000065875486	0.07784706397980441	4.148606253535508	0.5517398748365945	-0.6724531898554917	1.2241930646920862	45.83659630552643
2	1.0	wm	415	diff_vonmises	0.11937153146115338	6.839484946737214	0.8142614595960799	76.18673606355102	0.7598623068128257	79.95072293922561	-0.32262414133684914	-0.7290102505538592	0.40638610921701	82.3493540379082
3	2.0	ltm	415	diff_vonmises	-0.08317096897436414	-4.765345500244578	1.2941880051332295	71.10881705102938	1.2408217320633312	72.4315264393803	0.18213161556550617	-0.37311486644575176	0.5552464820112579	74.49044915814187
4	2.0	perception	415	diff_vonmises	-0.05791718457509041	-3.3184102374328726	10.594258344799096	0.9077820014534603	1.3039743251372221e-17	2.2730894270346065	0.8022498278413618	-0.3617734176712621	1.1640232455126238	41.69024423813303
5	2.0	wm	415	diff_vonmises	-0.07261126800082243	-4.160319201540452	3.728438923150513	0.8029358116355136	0.22731786428506287	2.6011444015746505	0.08098727230501956	-0.39790736871442595	0.4788946410194455	63.99346632388537
6	3.0	ltm	415	diff_vonmises	-0.009135229722717247	-0.5234101079941635	0.8621189115215091	64.8182705485967	0.8239465571491091	65.84979937206913	0.1542386836589067	-0.28712699478728787	0.44136567844619456	92.62281226497535
7	3.0	perception	415	diff_vonmises	0.0029803178140182895	0.1707596323509034	3.539577708747037	2.0897906837704885	0.23263023083960774	3.129135540329006	0.8820997569551277	-0.44946064615134595	1.3315604031064736	68.59554123128737
8	3.0	wm	415	diff_vonmises	0.05781549071251511	3.3125836083049243	3.4406560908668116	0.7370789372179333	0.05610838173660804	2.182185799997029	0.15444217374550756	-0.3352999880499031	0.48974216179541064	71.49126828203575
9	4.0	ltm	415	diff_vonmises	-0.15275900353540794	-8.752446185202897	1.3285564769641718	1.2720572354331288	1.4684340125375716e-16	2.8059516596680183	0.06559755658855626	-0.41065062027198035	0.4762481768605366	115.98222056983379
10	4.0	perception	415	diff_vonmises	0.011488158708643514	0.6582230083817353	0.9199229980235878	461.0056139561843	0.9066609935716788	462.87110446951516	0.5592032929305333	-0.6211310360862115	1.1803343290167447	91.3270759824876
11	4.0	wm	415	diff_vonmises	-0.11864009940711422	-6.797576977040185	0.6884634342990975	215.92601291640773	0.671518598098379	218.04580958078432	0.1049861608577416	-0.5211297080378046	0.6261158688955462	100.27288169618636
12	5.0	ltm	415	diff_vonmises	0.02598145827798236	1.4886279049236246	2.0642507640246706	1.3178227893282315	9.539972306850413e-12	2.2144197648916544	0.34045728767946576	-0.3412737485439301	0.6817310362233959	95.56929280910651
13	5.0	perception	415	diff_vonmises	-0.016259584916657868	-0.9316055923590683	0.9556469014150722	208.03390873710063	0.9326582199128963	208.99987993471728	0.5908158231953138	-0.43517787548118037	1.0259936986764941	92.2227502254886
14	5.0	wm	415	diff_vonmises	0.002860020988041487	0.1638671319336129	2.0722734335568624	1.5557678866785816	4.3512176377677435e-13	2.50617761691782	0.4210995449725115	-0.3858733038639961	0.8069728488365076	95.38817380014802
15	6.0	ltm	415	diff_vonmises	-0.10080183977936846	-5.775519986511746	1.0875672953389048	1.691822446121406	1.3336499012933232e-17	2.41468801352922	0.22170653641587995	-0.3154692830951463	0.5371758195110263	124.95567576360811
16	6.0	perception	415	diff_vonmises	0.20318969339319773	11.641911871987457	0.00020511234882096557	10062.23577250148	2.344317250323322e-30	10062.719702817767	0.2514686308113596	-0.40547474988375143	0.656943380695111	178.6005545527344
17	6.0	wm	415	diff_vonmises	-0.43428065171482194	-24.882448467450136	0.6364671909135794	197.58708750254328	0.624201099437811	198.0840925909787	0.3256952710468326	-0.2809254402093728	0.6066207112562054	113.01438031772838
18	7.0	ltm	415	diff_vonmises	0.113006672700968	6.474805402581722	1.0949153828338438	1.7945404813015857	1.7800923422236905e-14	2.9849279603144163	0.17019645166827435	-0.4028327061462669	0.5730291578145412	124.62307423108248
19	7.0	perception	415	diff_vonmises	-0.06782842842992155	-3.88628268003967	2.441924170463624	2.284591913120411	0.3120588909973308	2.561677989977739	0.7842433292582695	-0.3077835270514963	1.0920268563097657	80.68036906573761
20	7.0	wm	415	diff_vonmises	0.36570252456394603	20.953211214793424	0.49579878526441673	140.43858895082565	0.481390474460148	141.63181339018826	0.0872416956133435	-0.34132442149834397	0.42856611711168746	119.93607907355434
0	1.0	ltm	416	diff_vonmises	0.2821822096583902	16.167849667101493	0.6477035591550621	119.9485907073908	0.6318238148771699	121.7878923306885	-0.13778211886800307	-0.3566013483250021	0.21881922945699905	93.28890387270124
1	1.0	perception	416	diff_vonmises	-0.08551396559567538	-4.899589318059124	9.270279340958856	0.9741208062499861	6.7196761212990175e-18	2.844237097184871	0.7137266156460577	-0.45267438299570945	1.1664009986417672	44.59847222762315
2	1.0	wm	416	diff_vonmises	0.12386496870184985	7.096939936136032	7.473473957662511	0.14257168704170123	0.018700998882226916	2.341500411052477	-0.2269548927597354	-0.3739167069912622	0.14696181423152682	48.68089132480037
3	2.0	ltm	416	diff_vonmises	0.18539347714493595	10.622263789659916	0.49393397742390144	131.2744543769196	0.48277555131172134	132.33390677037687	0.01526455879757549	-0.2651288121896247	0.2803933709872002	117.56130334710477
4	2.0	perception	416	diff_vonmises	-0.036533356945743105	-2.0932071644360315	7.1594977651470115	1.633524571471596	0.4494457486426647	2.7936695309723203	1.0480161625526838	-0.48443787145064443	1.5324540340033281	48.08415245076236
5	2.0	wm	416	diff_vonmises	-0.01665367126325737	-0.9541850767829494	6.68232477201069	0.4696176103369988	0.2418597525824147	2.4094648680915913	-0.0068171029327177	-0.40977440617034244	0.40295730323762474	48.546063839006905
6	3.0	ltm	416	diff_vonmises	0.17422292671151418	9.982238394986817	1.420358063012264	162.04723653599373	1.4052593600521353	162.59139356470143	0.20901105944238907	-0.19980398248785747	0.40881504193024654	73.39514180736572
7	3.0	perception	416	diff_vonmises	-0.043183678508350684	-2.4742425223782925	1.3057926232131591	346.5924783784311	1.28615242907642	347.5771919119569	0.8491760781313076	-0.5109935909093508	1.3601696690406584	79.26161762960098
8	3.0	wm	416	diff_vonmises	0.03310851515232859	1.8969781841733642	1.4149060664776412	49.280983648471896	1.3578894042144845	50.65539200332504	-0.0578722435475818	-0.33425079854888384	0.27637855500130204	65.37470015587442
9	4.0	ltm	416	diff_vonmises	0.21742158099956363	12.457338966336767	0.8298058147656694	98.5855039885165	0.8074162705807878	100.04117380899507	-0.022638395539225087	-0.315397567755749	0.2927591722165239	87.46527833841026
10	4.0	perception	416	diff_vonmises	-0.021016231497086927	-1.2041413660529885	0.8753825994572689	418.30740269763055	0.8630703469764751	420.2834523893712	0.35835998101714495	-0.572252797641859	0.9306127786590039	91.82775752595148
11	4.0	wm	416	diff_vonmises	-0.26068759993004337	-14.93629924738638	1.020021210065302	211.0473586048515	1.0017674163041048	213.41294086585665	-0.0810627993486861	-0.515400189873013	0.43433739052432685	77.18562481238195
12	5.0	ltm	416	diff_vonmises	-0.05017188517927913	-2.8746372709876598	1.309355816650787	115.97653712037932	1.2860730923021566	116.95473578450523	0.10470223981619142	-0.2690150671913436	0.373717307007535	72.89805807555749
13	5.0	perception	416	diff_vonmises	0.006254031021035791	0.3583295824492438	0.9638809585811954	255.01757264600076	0.9436961093121956	256.3941443743168	0.5215454936575412	-0.4962192789599378	1.017764772617479	90.14303416075975
14	5.0	wm	416	diff_vonmises	0.12702328228621393	7.277897974898929	2.176203682687257	1.1002699837549443	0.15452238891261955	2.6622442042806327	0.10562036952773435	-0.3675701606697827	0.47319053019751706	84.00468111443479
15	6.0	ltm	416	diff_vonmises	-0.16740241141791323	-9.591451654559052	0.8551134959297594	137.16210414314043	0.8352275870959432	138.5391351957797	0.09312054401731729	-0.33985396622568587	0.43297451024300315	90.1016347087927
16	6.0	perception	416	diff_vonmises	0.1310629788558805	7.5093555388543	0.5652442880210763	3.3038932666838554	1.032194845832458e-18	5.1911002591616295	0.029466947091856266	-0.5499074138290925	0.5793743609209487	148.5047732784712
17	6.0	wm	416	diff_vonmises	-0.14483410191068669	-8.298382769049999	2.482414098598837	0.8784381458060205	0.016567830432291767	2.5115486801928752	0.10918111258711721	-0.38953208739163725	0.49871319997875446	86.06345814301517
18	7.0	ltm	416	diff_vonmises	-0.3308547075824715	-18.956578376510613	1.604412281842348	206.92881168969552	1.5874432960435363	208.33270572319537	-0.02761831708465934	-0.37557830411406457	0.3479599870294052	61.86024958667423
19	7.0	perception	416	diff_vonmises	-0.15234173228662137	-8.728538303735272	2.746843678203797	1.5097156591336462	3.9800275623328705e-16	2.8998271722142883	0.4784334017652029	-0.4576558820371213	0.9360892838023243	82.96193085093276
20	7.0	wm	416	diff_vonmises	1.0014038283853197	57.37621295472181	0.5277498979690052	133.4796038102773	0.5151639328711595	135.29677585358317	-0.13853297611517945	-0.3547725080365822	0.21623953192140277	103.85019957920974
0	1.0	ltm	417	diff_vonmises	0.25171711807567304	14.422328496932272	5.499441629381159	0.29689399359362956	4.021000799978501e-20	2.9599262722644584	-0.2003299695838615	-0.4710823689115331	0.2707523993276716	58.16475714124388
1	1.0	perception	417	diff_vonmises	-0.014588557147072752	-0.8358627537126817	7.547236252671725	1.0483706950599736	0.0907932359820342	3.792725095253427	0.4689860454526592	-0.6135263563353538	1.082512401788013	48.35840238165878
2	1.0	wm	417	diff_vonmises	0.2626478976914307	15.048616035702818	2.7268838706984413	0.5790121083132105	0.067444943771259	3.9707604133859546	-0.31630382288048514	-0.6092929998465363	0.29298917696605115	75.44079485012819
3	2.0	ltm	417	diff_vonmises	0.13515144046220046	7.743607133597711	1.0771662157348372	132.69009042796858	1.0580864190269765	133.85480695260543	0.06499066528674291	-0.2875566512688046	0.3525473165555475	79.2823343537101
4	2.0	perception	417	diff_vonmises	-0.022409754422711762	-1.2839843483460145	7.796681105255248	1.356987393196397	0.2464231343857175	2.666993436181716	0.9507138167711825	-0.44760505010685897	1.3983188668780415	47.127633195005956
5	2.0	wm	417	diff_vonmises	0.08610978000785703	4.933726969250201	3.9232858003216577	0.7154094319082862	0.14992601978584533	2.773546666431347	0.03430158789745985	-0.4296869691832872	0.46398855708074704	63.81839432956855
6	3.0	ltm	417	diff_vonmises	0.24007836979538874	13.755477341656837	3.801549547662611	0.3609509059097627	2.0402204237154956e-23	1.0404540433181848	0.10428902763072811	-0.1654587496065146	0.26974777723724275	70.27053082670719
7	3.0	perception	417	diff_vonmises	0.02048366677370362	1.1736276550855729	3.7813836452422884	2.09242450331741	0.34556266428893223	2.9177701324716456	0.9230531672361658	-0.4157290010346457	1.3387821682708116	65.40905273369748
8	3.0	wm	417	diff_vonmises	0.26989074610405656	15.463600681399306	0.7179324980203354	27.100054993714757	0.6451875295683073	28.550856123388215	-0.02234496884918169	-0.31534343670331966	0.29299846785413797	96.40487840970701
9	4.0	ltm	417	diff_vonmises	-0.20521643563581612	-11.75803564865037	1.1486147747888775	0.8742929333413211	7.61302732154525e-14	2.4025955652432645	-0.05924095894854836	-0.34989636937359686	0.2906554104250485	122.3860051568693
10	4.0	perception	417	diff_vonmises	0.05915878537216231	3.3895487229451717	1.0231214264258428	351.2325143928463	1.0053149504684271	353.3070264241434	0.4706065644760429	-0.6282284976291592	1.098835062105202	85.49363448299002
11	4.0	wm	417	diff_vonmises	-0.3356348412851467	-19.230459863182144	1.1341447140539713	1.9485964042420187	3.0361316322846315e-11	4.969794999174144	-0.07600506335868351	-0.7169753023773112	0.6409702390186277	122.49371316621937
12	5.0	ltm	417	diff_vonmises	-0.02557914951813386	-1.4655773109231636	1.2780342084521499	3.3118230520816736	0.6405189681506723	4.037316108973944	0.19990175158646517	-0.23252905574203975	0.4324308073285049	89.44034977672487
13	5.0	perception	417	diff_vonmises	-0.04205382944166793	-2.409506939370576	0.9955490800144964	152.64900868818165	0.9613573667839346	153.51452591503065	0.699622030627701	-0.4510201480827103	1.1506421787104113	91.3826419987468
14	5.0	wm	417	diff_vonmises	0.08690114524849861	4.979068857592318	2.463202501878727	1.2577975519413038	2.599547525624732e-18	2.389525507160991	0.3545549657322656	-0.3749752024121099	0.7295301681443755	87.63280938906937
15	6.0	ltm	417	diff_vonmises	-0.16282451778928286	-9.3291576705787	0.31007054253168803	49.69755126038814	0.2813496739742226	50.206447108720056	0.14984240061751564	-0.24950534328268859	0.3993477439002042	145.16509950266104
16	6.0	perception	417	diff_vonmises	0.1314098166125436	7.529227878486881	0.27110239303878075	95.78558110495982	0.24527153048742034	96.45518169281115	0.3030074734355708	-0.4196171499003807	0.7226246233359515	149.8623484952991
17	6.0	wm	417	diff_vonmises	-0.3530694987648804	-20.22939215402708	1.3724533212721342	1.6342721702064087	7.794062835735947e-12	2.2542211554778198	0.312174000213402	-0.315658426444845	0.627832426658247	114.06143903572857
18	7.0	ltm	417	diff_vonmises	0.20089314588268536	11.510329392183822	1.260227367689511	1.2005925773328703	0.12028981044135965	2.621666746768503	-0.00042308206051944186	-0.3309496631392629	0.33052658107874344	107.09908504454344
19	7.0	perception	417	diff_vonmises	-0.06068383369570719	-3.4769275554377947	1.500818572252182	5.737998577026222	0.648801876895127	6.6265151209985795	0.665113362576103	-0.4306496895162915	1.0957630520923944	87.60409618118635
20	7.0	wm	417	diff_vonmises	0.6433414367620288	36.860749112346795	0.23307366679283073	120.66603419841915	0.2201554446347451	122.41313087770534	-0.06973502287165445	-0.4376862752377182	0.36795125236606374	144.1336711017229
0	1.0	ltm	418	diff_vonmises	0.09517669296380174	5.453222814838318	8.346615871912965	0.3988581429261098	4.6854143035495354e-20	3.53017267334025	-0.10955595776749422	-0.5618444054697089	0.4522884477022147	47.040072107313335
1	1.0	perception	418	diff_vonmises	-0.024161021774781577	-1.3843245764186662	7.930255769448121	1.1422358888428608	0.17942864823036253	4.646757520571846	0.3836673332022188	-0.7793447267896781	1.163012059991897	46.23829208633347
2	1.0	wm	418	diff_vonmises	0.08070643921560945	4.62413834658354	2.1582099243911537	1.533862053238124	0.23725918429173254	5.57911168440286	-0.2816434816338539	-0.7798681101458688	0.4982246285120149	75.88278368048336
3	2.0	ltm	418	diff_vonmises	0.013410882300008064	0.7683869553371604	3.3137831409944187	1.1764999940207441	0.5299810822346106	2.281917944411521	0.23926734820265128	-0.31939720199979366	0.558664550202445	64.23037964227493
4	2.0	perception	418	diff_vonmises	-0.04457643641836319	-2.55404167250547	10.735885680579065	0.8159960320316302	8.623789241319176e-20	2.1656014206272287	0.7086450682182912	-0.34466617036103697	1.0533112385793282	41.41568294175306
5	2.0	wm	418	diff_vonmises	-0.05795993309778014	-3.3208595473634137	3.362724023146478	0.9399080337293345	0.22155819510846886	2.651593653994013	0.13627627354071636	-0.39463125693653595	0.5309075304772524	67.59268799535573
6	3.0	ltm	418	diff_vonmises	-0.061996872709171105	-3.5521591492452984	1.5173156244791097	0.8320195526694427	3.914315094543905e-18	1.6351872311582818	0.10264249098656592	-0.24279423417401536	0.34543672516058127	109.91624125647061
7	3.0	perception	418	diff_vonmises	0.014773073016451062	0.846434734281246	4.764271492917048	1.9567785354889455	0.354323967159905	2.824545903558977	1.0325017789409077	-0.43123199343979673	1.4637337723807045	58.87665435032525
8	3.0	wm	418	diff_vonmises	0.05460641546839318	3.1287171406768235	1.5971195876236974	1.328400273310149	5.3435967402062e-19	2.726287657734842	0.16383377866158838	-0.40939615758077164	0.5732299362423601	107.50878481003542
9	4.0	ltm	418	diff_vonmises	-0.4127697758912969	-23.649966069132148	1.1659124510805017	2.472627284107656	0.217242383730045	3.899382825688471	0.15966548927341728	-0.4040939445225145	0.5637594337959317	106.71484476251351
10	4.0	perception	418	diff_vonmises	0.03568945805325228	2.044855319560543	1.334706880923904	12.172216702451632	0.797889728819457	13.768774496671929	0.7393262225634594	-0.6134430799946871	1.3527693025581464	86.09477900151828
11	4.0	wm	418	diff_vonmises	-0.15058848726953666	-8.628084763803978	0.5717809531966991	199.52537015280186	0.5512785514313409	201.77499048207207	0.19431004991695033	-0.6281835985682989	0.8224936484852492	112.58487556423505
12	5.0	ltm	418	diff_vonmises	-0.00944381468624179	-0.5410907240253183	1.5168215143156236	1.721184054946122	2.0969978726603399e-16	2.0073575160719153	0.4310745391165776	-0.28334566047959175	0.7144201995961694	109.94376143097485
13	5.0	perception	418	diff_vonmises	-0.03761262061416638	-2.155044417618492	1.0336101621651752	246.12557409150833	1.0151679203732467	246.4847607419197	0.7330032207155881	-0.3505115018300806	1.0835147225456687	91.23659663516725
14	5.0	wm	418	diff_vonmises	0.0102893866250463	0.5895384273935111	2.275981940900787	1.7040925477695483	1.0432896426143692e-17	2.013710915837374	0.6295121277136211	-0.3104716834114108	0.9399838111250318	91.1405233845899
15	6.0	ltm	418	diff_vonmises	-0.05121954156820264	-2.934663560452893	0.18185896695674816	8.7070312001479	6.812125364834374e-16	8.6888330425941	0.26562224752001384	-0.23702404503795216	0.502646292557966	169.5614187545826
16	6.0	perception	418	diff_vonmises	0.17219131317392922	9.865835513681557	0.12531731713167296	17.27069735793602	2.59971567590006e-10	16.92101871830038	0.4104312958476699	-0.2775911488880798	0.6880224447357497	171.93243712837955
17	6.0	wm	418	diff_vonmises	-0.41097846089682816	-23.547331280170592	0.7228372694235174	128.22026527865194	0.7073859962936461	127.9126979122129	0.46576943090051515	-0.16072264825613836	0.6264920791566535	112.87150429269442
18	7.0	ltm	418	diff_vonmises	0.16087138082711785	9.217251165835643	1.1118025101898965	2.482173481212367	0.27286624255939335	3.1212265123119782	0.25976300175595624	-0.27374946166978176	0.533512463425738	109.14133443463169
19	7.0	perception	418	diff_vonmises	-0.011976741475832635	-0.6862167388844949	1.0242737010933596	172.06840984132097	1.0021604897776264	172.0600108218398	0.7217989912637464	-0.272043205944529	0.9938421972082754	93.51609136158868
20	7.0	wm	418	diff_vonmises	0.1354151833366649	7.758718487181172	0.5630058119254423	161.34470583214107	0.5501763083957173	162.11953431920702	0.19144980827476843	-0.2879593405990395	0.4794091488738079	116.81145739467507
0	1.0	ltm	419	diff_vonmises	0.15395835499142305	8.821163961785432	6.4524952160828395	0.5151736532039279	0.00931010681827675	3.537051284296641	-0.05709612129235908	-0.56212115129128	0.505025029998921	53.22574387231654
1	1.0	perception	419	diff_vonmises	-0.07229364444437819	-4.142120712282262	8.470442910916747	1.1063000162139491	0.07784706883410697	4.1486062638729795	0.5517398721840265	-0.6724531922014173	1.2241930643854437	45.836596556634646
2	1.0	wm	419	diff_vonmises	0.11937177817198884	6.839499082226846	0.8140419197954066	76.80245292194209	0.7600688283320216	80.56643978984286	-0.32262444886364605	-0.7290104485581317	0.40638599969448563	82.34948969728069
3	2.0	ltm	419	diff_vonmises	-0.08317102419156193	-4.765348663956968	1.2940750251946675	71.4087075679368	1.240930875283561	72.73141692264038	0.18213153582352248	-0.3731149615999314	0.5552464974234539	74.4904829167877
4	2.0	perception	419	diff_vonmises	-0.057917184467739864	-3.3184102312821393	10.594258374770192	0.9077820003436661	1.3116218320586519e-17	2.273089425804886	0.8022498283105521	-0.3617734174755461	1.1640232457860982	41.69024417810871
5	2.0	wm	419	diff_vonmises	-0.07261126734247453	-4.160319163819896	3.7284390050239007	0.80293579153549	0.2273178551368116	2.601144380443865	0.08098727295741925	-0.39790736720581504	0.4788946401632343	63.99346589329738
6	3.0	ltm	419	diff_vonmises	-0.009135507565673974	-0.5234260272229514	0.8617406189763832	66.12348113002238	0.8243160409435812	67.15500992307514	0.1542384871814093	-0.2871271612640447	0.441365648445454	92.62290918145283
7	3.0	perception	419	diff_vonmises	0.0029803179194639873	0.17075963839249686	3.5395778332127876	2.089790604869203	0.23263020132391182	3.129135460560475	0.8820997615575115	-0.4494606416843832	1.3315604032418946	68.59554054246928
8	3.0	wm	419	diff_vonmises	0.05781549074755298	3.312583610312447	3.440656104470352	0.7370789331486652	0.056108379352639896	2.1821857956880066	0.15444217359094492	-0.33529998777807496	0.4897421613690199	71.49126822460485
9	4.0	ltm	419	diff_vonmises	-0.15275900495876188	-8.75244626675507	1.3285565010103857	1.272057220800045	1.4671224567657046e-16	2.8059516450835558	0.0655975585542165	-0.410650619704286	0.4762481782585025	115.98221974074232
10	4.0	perception	419	diff_vonmises	0.011488194456593949	0.6582250565884215	0.9200037009296506	455.4678936908846	0.906580780451783	457.33338420368307	0.5592032907514977	-0.6211309954391737	1.1803342861906714	91.3270712156137
11	4.0	wm	419	diff_vonmises	-0.11864031565169574	-6.797589366942049	0.68824040953655	221.76719216445676	0.6717397792679155	223.8869887987168	0.1049861451790548	-0.521129706976069	0.6261158521551238	100.27287429977864
12	5.0	ltm	419	diff_vonmises	0.02598145731102924	1.4886278495212921	2.06425074820243	1.317822796014234	9.704303528469394e-12	2.2144197717278438	0.3404572869182978	-0.3412737492737932	0.681731036192091	95.5692931601071
13	5.0	perception	419	diff_vonmises	-0.016259584916657868	-0.9316055923590683	0.9556469014150722	208.03390873710063	0.9326582199128963	208.99987993471728	0.5908158231953138	-0.43517787548118037	1.0259936986764941	92.2227502254886
14	5.0	wm	419	diff_vonmises	0.002860020752300651	0.16386711842665794	2.0722734413007906	1.5557678820608034	4.3379045133320933e-13	2.506177611163937	0.421099545301509	-0.3858733031588734	0.8069728484603824	95.38817362926332
15	6.0	ltm	419	diff_vonmises	-0.10080183977936846	-5.775519986511746	1.0875672953389048	1.691822446121406	1.3336499012933232e-17	2.41468801352922	0.22170653641587995	-0.3154692830951463	0.5371758195110263	124.95567576360811
16	6.0	perception	419	diff_vonmises	0.20318969339319773	11.641911871987457	0.00020511234882096557	10062.23577250148	2.344317250323322e-30	10062.719702817767	0.2514686308113596	-0.40547474988375143	0.656943380695111	178.6005545527344
17	6.0	wm	419	diff_vonmises	-0.4342805758075189	-24.882444118282034	0.6364289181388926	198.8142664014117	0.6242384469088804	199.31127151120359	0.3256952200322871	-0.28092550909649994	0.6066207291287871	113.0144124313339
18	7.0	ltm	419	diff_vonmises	0.113006672700968	6.474805402581722	1.0949153828338438	1.7945404813015857	1.7800923422236905e-14	2.9849279603144163	0.17019645166827435	-0.4028327061462669	0.5730291578145412	124.62307423108248
19	7.0	perception	419	diff_vonmises	-0.06782842682577356	-3.88628258812876	2.441923858106234	2.284592355583335	0.3120590464202576	2.561678431633759	0.7842433210598388	-0.30778353339845826	1.0920268544582972	80.68037072835864
20	7.0	wm	419	diff_vonmises	0.36570169737274044	20.953163820228493	0.4953855636836678	148.9739529587606	0.48179948987236754	150.1671774443431	0.08724191386665581	-0.34132452963859805	0.42856644350525386	119.93611857686821
0	1.0	ltm	420	diff_vonmises	0.22421420290264635	12.846527533211528	6.066513344922663	0.36640035958086803	6.871745346083712e-16	3.1283593327424293	-0.1459619021053416	-0.4978919584845055	0.3519300563791639	55.31780591967819
1	1.0	perception	420	diff_vonmises	-0.04419646908875395	-2.532271148166005	7.9463274030603115	1.0067741087946844	0.044582883884173655	3.70227986670443	0.49715961905531814	-0.5927078651165435	1.0898674841718616	47.64804345938026
2	1.0	wm	420	diff_vonmises	0.16403707137838666	9.398631873667789	0.7351812437659412	142.0130226553025	0.7082618627627464	145.4260408664353	-0.24734562208764999	-0.6679657659451195	0.4206201438574695	87.91794159861021
3	2.0	ltm	420	diff_vonmises	0.07809984093498505	4.4747912662177045	1.1679949844465123	128.13356209989703	1.1433587549503412	129.44454011760055	0.1034969068637892	-0.3384059905802257	0.4419028974440149	76.76218868862637
4	2.0	perception	420	diff_vonmises	-0.025726761403844795	-1.4740348489803676	7.482683823241217	1.3126281594487064	0.16168944810160485	2.625098088592806	0.9185839640448564	-0.42847569351515685	1.3470596575600133	48.548767416097036
5	2.0	wm	420	diff_vonmises	0.06620671741452856	3.793365483267776	5.072317420700327	0.595432468636537	0.07553587059918505	2.478626056913398	0.09543795067118138	-0.39151689954170077	0.48695485021288215	58.463164207725015
6	3.0	ltm	420	diff_vonmises	0.043343306054626336	2.483388507073917	1.6804470349364489	0.8101094880990625	7.589806080333895e-13	1.8007087206096561	0.08936834391554355	-0.27354273448733596	0.3629110784028795	105.13201876092793
7	3.0	perception	420	diff_vonmises	0.019743736947413437	1.1312327989032973	4.0648676980075145	1.9507869939542857	0.17405045735377395	2.9020564406831486	0.9675302842378304	-0.433307231440951	1.4008375156787813	65.17644197978862
8	3.0	wm	420	diff_vonmises	0.15674497673538831	8.980825626814028	2.368606279566655	0.7130484064937004	2.393346127981912e-09	2.2839625012947926	0.04356492429979625	-0.35993676007110914	0.4035016843709054	89.3407970211999
9	4.0	ltm	420	diff_vonmises	-0.18230330504439926	-10.445209970330088	0.6853301057043523	1.9710969827367013	2.2944473854211402e-17	3.661547086901703	-0.027382685035210796	-0.4417170799915946	0.4143343949563838	142.41726125969274
10	4.0	perception	420	diff_vonmises	0.050805216106270396	2.9109244601393676	0.9696258319602604	385.7842058704079	0.95268753162508	387.9896559292999	0.5061247271612501	-0.6716438915973342	1.1777686187585843	87.96671610208563
11	4.0	wm	420	diff_vonmises	-0.3164051564213441	-18.128680079119654	1.1423220776774605	2.0532466380915495	3.902755025389233e-16	5.0449508182975675	-0.04643591535621794	-0.7259096548029738	0.6794737394467558	122.26501587970517
12	5.0	ltm	420	diff_vonmises	-0.05286207379161452	-3.0287737245686333	1.8158952677313325	1.086866552374777	0.030717299946463352	1.8079849986973064	0.23214467244014036	-0.26498272392345	0.4971273963635904	99.82391795158212
13	5.0	perception	420	diff_vonmises	-0.028907508838349093	-1.656278252674528	1.1971680957313486	10.777195164163576	0.7453301219783183	11.484897426382846	0.7129193974830117	-0.42370149493316667	1.1366208924161785	92.50793315458509
14	5.0	wm	420	diff_vonmises	0.019924798980457913	1.141606889226804	2.073021167656818	1.4027608891253511	7.193999344783269e-17	2.3503360532958655	0.36542218235592083	-0.3623635992890698	0.7277857816449906	95.37040722381462
15	6.0	ltm	420	diff_vonmises	-0.06883743927361483	-3.9440947428662287	0.0006208372071415655	2054.7389818731285	8.093859513933694e-28	2055.197685825617	0.13005374884176035	-0.27600072841005385	0.4060544772518142	179.82883603837058
16	6.0	perception	420	diff_vonmises	0.09162283976728516	5.249602025668842	0.29937626972707254	94.68297833771925	0.2742744272461062	95.19801501798636	0.3177785893212608	-0.3788319499223185	0.6966105392435793	147.0513429954952
17	6.0	wm	420	diff_vonmises	-0.3060668700337604	-17.536339901713557	0.8456806695263192	4.536429775403465	0.3917761464540703	5.0882338671917715	0.2634793706411831	-0.2657926116768364	0.5292719823180194	113.95414302867555
18	7.0	ltm	420	diff_vonmises	0.17405516634794335	9.972626434184628	0.7858439629325714	9.672167513101009	0.5802266557742196	11.046644244638296	0.01855088029775498	-0.3157640146932553	0.3343148949910103	98.41701697508583
19	7.0	perception	420	diff_vonmises	-0.028880196526413205	-1.654713372471857	1.025970762306257	170.1440650728792	0.9949119179583251	171.06074260403867	0.6863509393047664	-0.45301522317195086	1.1393661624767173	89.68843743447474
20	7.0	wm	420	diff_vonmises	0.6239866318069462	35.75180047512168	0.000610400688668664	1727.7622434044113	4.440082771953456e-21	1729.3468967208414	-0.08433223357206998	-0.42002735753101206	0.3356951239589421	168.5645617637926
0	1.0	ltm	421	diff_vonmises	-0.20918602384938886	-11.985476299692964	0.28201199464688154	61.2166694384729	0.26738997974160844	62.58783700320742	-0.12112545691773668	-0.2847631573546172	0.16363770043688053	139.19603924396247
1	1.0	perception	421	diff_vonmises	-0.06742259241362814	-3.8630299891316544	10.67020816710651	0.9113181496092928	0.0495724260030077	2.6900526053215623	0.7233869504471402	-0.43449796597247037	1.1578849164196106	41.21973382437554
2	1.0	wm	421	diff_vonmises	0.11888124959916842	6.81139386527366	8.462973865608403	0.16060009697930325	1.1793757619798936e-19	1.7846918862466066	-0.1005808284320776	-0.284042527412405	0.18346169898032738	46.70636126253086
3	2.0	ltm	421	diff_vonmises	0.31907659515357223	18.281742243704105	0.3412872558349261	93.18527978772595	0.3285643305043531	93.8259297907921	0.07626982061331944	-0.2244294430234639	0.30069926363678334	138.50315066032275
4	2.0	perception	421	diff_vonmises	-0.0325244417833299	-1.8635132452037522	9.448467030876033	1.2645256358379884	0.39147484008877076	2.2229232228629185	1.025209344386964	-0.40113762658613683	1.426346970973101	42.574957506512845
5	2.0	wm	421	diff_vonmises	-0.11501124672006599	-6.589659033597614	5.47127319233961	0.542537896602107	0.36503962835156206	1.8280420188891788	0.08794036662279925	-0.3075054458928903	0.39544581251568955	52.49554344351745
6	3.0	ltm	421	diff_vonmises	0.10348835450126977	5.929445941676453	1.6862410387076179	92.31482370594632	1.6690375129633586	92.44613908229503	0.20653497845248125	-0.10096313696073089	0.30749811541321215	70.41544630605065
7	3.0	perception	421	diff_vonmises	0.015417965686730484	0.8833843625271787	1.65081367875351	291.1739925719796	1.6276688837684283	291.5476836744523	0.9737470515336781	-0.41221892720741593	1.385965978741094	72.0538272686328
8	3.0	wm	421	diff_vonmises	-0.03208001291579407	-1.8380493468001702	2.350165386734858	1.3008387540706015	0.8827067248507746	1.9570829131329344	0.11404602738935843	-0.19581663294543558	0.30986266033479404	67.38030894273945
9	4.0	ltm	421	diff_vonmises	-0.203458573331897	-11.657317557670662	1.6245362538830705	1.445464730611707	0.5178045018650224	2.480005925495048	0.036992990681374294	-0.2408363330382627	0.277829323719637	80.7583914663055
10	4.0	perception	421	diff_vonmises	-0.02309534475737164	-1.3232657809969872	1.077803382381441	241.5425455051413	1.0549587053136062	242.73919201048662	0.615723148156988	-0.48348881555458334	1.0992119637115714	86.1093036367173
11	4.0	wm	421	diff_vonmises	-0.33187523484662823	-19.015050281624827	1.259174682139883	186.89549348885353	1.2414263885286196	188.24792876463505	0.08490432583508323	-0.3504442370591221	0.4353485628942053	73.17339053778342
12	5.0	ltm	421	diff_vonmises	-0.11770965920940252	-6.744266680621987	2.667303730747892	0.8282729503004798	0.6890984185179452	1.249014851603354	0.15415420622783232	-0.14393133270268005	0.2980855389305124	68.83624163659795
13	5.0	perception	421	diff_vonmises	0.0014898693911228323	0.08536322813706401	1.1348888977949068	163.43904095220006	1.1066235248494503	164.24481079004647	0.5711926986384555	-0.3790677150939725	0.950260413732428	84.89695665663967
14	5.0	wm	421	diff_vonmises	0.135795846240084	7.780528864964283	1.7987998704326646	1.3943172443836331	0.33704576973799744	2.150781595276426	0.2083152756246131	-0.2364540090120912	0.4447692846367043	87.18977392351039
15	6.0	ltm	421	diff_vonmises	-0.3458060099414606	-19.81322489990468	0.8347903907316342	140.46161968229654	0.8188383498156446	141.2919035908744	0.172668298508853	-0.2513161641723869	0.4239844626812399	94.761013155328
16	6.0	perception	421	diff_vonmises	0.2879003309744629	16.49547388525625	0.7002058725054685	3.230319753660763	2.2427229159042033e-12	4.084982540634967	0.26917132223764906	-0.4235259670705792	0.6926972893082283	140.9775925033191
17	6.0	wm	421	diff_vonmises	-0.2165337499985103	-12.406469997055536	3.4448004344469085	0.6711807019501023	5.419352679363615e-21	1.3370579019143354	0.2623802739951302	-0.21231540535533933	0.4746956793504695	73.91851545532302
18	7.0	ltm	421	diff_vonmises	0.05900608190376043	3.380799458688734	1.3673341280342155	158.51710247905183	1.3513687404651256	159.24155808895495	0.16046572389619485	-0.22697527824319863	0.3874410021393935	73.16151742684224
19	7.0	perception	421	diff_vonmises	-0.13231299734109175	-7.58097632237024	2.0860260705747673	1.4369837365417075	1.1350360660198796e-23	1.9097947118575174	0.45639838790183485	-0.2922268950493088	0.7486252829511437	95.06728697648931
20	7.0	wm	421	diff_vonmises	0.3250605833269444	18.62459951069453	1.715394244910103	0.8637467331448689	0.20292504093929	1.791768746142906	0.06016081225052761	-0.22406140944177033	0.28422222169229794	90.80332888305566
0	1.0	ltm	422	diff_vonmises	0.03624801295552336	2.076858158087018	2.5064752521114384	0.5245548003592655	1.640019225343289e-33	2.945245290249818	-0.1591286125561524	-0.4666909657810825	0.3075623532249301	86.88013205322673
1	1.0	perception	422	diff_vonmises	-0.07161814174901703	-4.1034172587883555	12.269969371178991	0.8343442683165527	0.023371772733512312	3.616653011578255	0.5644365050633968	-0.5802846904596981	1.144721195523095	38.527151578747976
2	1.0	wm	422	diff_vonmises	-0.009702785142462025	-0.5559286381853152	4.773288338995802	0.6505807252980735	0.09384566087297655	3.4256246655545692	-0.047278634866571134	-0.5422895536415755	0.49501091877500436	59.15002066857761
3	2.0	ltm	422	diff_vonmises	-0.033005491967068604	-1.8910753904659725	3.3781098772395697	0.7494709040624035	0.06438851420095142	1.9425957889794268	0.1954951613139343	-0.296487890677948	0.4919830519918823	72.10279320982448
4	2.0	perception	422	diff_vonmises	-0.048799991997415484	-2.7960335817240995	10.463665484358305	0.9576549084652018	0.048461629927986846	2.3529623492392164	0.8274507790350394	-0.3793656114023376	1.206816390437377	41.67277821308846
5	2.0	wm	422	diff_vonmises	-0.08615430087855175	-4.9362778272412555	5.151030646234217	0.6595502688586343	0.13039269851958774	2.1893049963242666	0.18576603575627165	-0.34670795493611645	0.5324739906923881	57.411601029319286
6	3.0	ltm	422	diff_vonmises	-0.07939374381622426	-4.5489264404125285	2.064727261636085	0.9565073540378435	8.998057815371506e-18	1.8644641724161208	0.20625528458295428	-0.2886436483802784	0.4948989329632327	95.55239705593453
7	3.0	perception	422	diff_vonmises	0.01238545414176695	0.7096342496760714	3.876901672888243	2.4312946468890773	0.3367096469732268	3.3193850437742185	1.118279888761653	-0.4761529812691393	1.5944328700307921	64.88150268480942
8	3.0	wm	422	diff_vonmises	-0.06712457116458333	-3.8459546293561697	3.093666087956667	0.8815779983896376	8.535006399071868e-15	2.1024593298176373	0.25295505362324155	-0.3334091300170571	0.5863641836402986	78.09895382702317
9	4.0	ltm	422	diff_vonmises	-0.280500532348662	-16.071496654751154	1.4573870740586223	1.3294706728062784	1.2689661638446624e-18	2.9014123174281203	0.10413510471912574	-0.4310925531903225	0.5352276579094483	111.51857598667159
10	4.0	perception	422	diff_vonmises	-0.030055022686143296	-1.7220259530859534	2.2459929975817357	2.9461342884064905	0.13823582893769842	4.544038221161258	0.803072686952681	-0.6178607149719271	1.420933401924608	86.21266355665321
11	4.0	wm	422	diff_vonmises	-0.19248887578670956	-11.0288001857964	0.8302509358817641	185.74531141309234	0.81065302189578	187.62373859511442	0.12083853870622363	-0.46197215068621134	0.582810689392435	91.39333555238028
12	5.0	ltm	422	diff_vonmises	-0.0464746730126087	-2.6628026178730253	1.3230087713001648	1.5158532092302757	5.872094323931323e-16	2.005077404258428	0.2896940740216575	-0.2759310508775552	0.5656251248992127	116.26945219702493
13	5.0	perception	422	diff_vonmises	0.005379190485831571	0.3082049120350759	1.0176625637785797	152.9837790258274	0.988299316530416	153.59843532235493	0.6408543277615095	-0.37230421641309697	1.0131585441746065	90.89495395101295
14	5.0	wm	422	diff_vonmises	-0.05338566800750009	-3.058773463316338	2.163397738645733	1.3268686185524747	5.186060863518124e-16	1.9030364319899968	0.4147796174446901	-0.2933975166112199	0.70817713405591	93.42293554753365
15	6.0	ltm	422	diff_vonmises	-0.252853449883041	-14.487435513620927	0.7367902421238562	2.015895574067266	1.478923366496328e-09	2.515561809516353	0.18740569250859207	-0.2656966740882468	0.4531023665968389	139.61726851152076
16	6.0	perception	422	diff_vonmises	0.1777636654034724	10.185107778394695	0.5100801959735113	4.435291368955259	7.902844343517258e-16	4.687405892470594	0.35669244595906135	-0.3484515682840205	0.7051440142430818	151.07667219094787
17	6.0	wm	422	diff_vonmises	-0.2108455659244823	-12.080561056520201	0.7794257099315094	88.9659952579564	0.7584268505276671	89.3318553867123	0.24854687018180144	-0.18923384867309867	0.4377807188549001	102.63385868246802
18	7.0	ltm	422	diff_vonmises	0.2798695493171029	16.035343990098447	1.3055217280993203	131.6107344036812	1.2873737576431759	132.1724753724799	0.21244313808074367	-0.20167067893873636	0.41411381701948	76.77532874837775
19	7.0	perception	422	diff_vonmises	0.008988397119736678	0.5149972195484569	1.6486441299921801	1.9715745522469976	4.105017046734419e-18	2.521695003591861	0.5030582103122133	-0.3678886159579637	0.8709468262701769	106.03747102988828
20	7.0	wm	422	diff_vonmises	0.04371767209098533	2.504838100950328	0.45612534024296764	2.0445870135931457	9.213013479721967e-16	2.7975525865317215	0.04251927521890131	-0.24934237950391855	0.2918616547228199	154.45616809473202
0	1.0	ltm	423	diff_vonmises	0.25722037783193974	14.737642054530548	2.2598070625559528	0.44814547009170363	2.110212281822284e-18	3.4857688628092216	-0.30599451401962674	-0.5520671689088724	0.24607265488924568	91.39174021195984
1	1.0	perception	423	diff_vonmises	0.021981788264462853	1.259463693703924	11.684051820875977	0.6708954499559153	0.02084806675582983	4.119018669119749	0.23527365063204686	-0.6602340682002349	0.8955077188322818	39.43831528061418
2	1.0	wm	423	diff_vonmises	0.08238470768980244	4.720296047044658	3.328871430433882	0.8215508895837093	0.21798325557751674	4.424279522309057	-0.2946984352590766	-0.6878398775539171	0.3931414422948405	63.60440769076672
3	2.0	ltm	423	diff_vonmises	0.031210358964871534	1.7882218457754318	2.6260013523231525	0.6146526952315887	2.9334933009954926e-12	2.3172894231420256	0.00401324854744417	-0.3668555236520702	0.37086877219951436	84.87411804724633
4	2.0	perception	423	diff_vonmises	-0.046238291844027196	-2.649258974556935	10.066174674103582	1.0686161943182708	0.08848237442098256	3.180558320459672	0.7827623961536614	-0.5205104206481932	1.3032728168018546	42.201910368449745
5	2.0	wm	423	diff_vonmises	-0.042192286365676554	-2.4174399367606334	3.962783711379915	0.8402793442889154	0.1027088762478504	3.4061727152347063	0.04353132577733365	-0.5285877490747244	0.572119074852058	64.75403236349428
6	3.0	ltm	423	diff_vonmises	-0.01116295127244531	-0.6395899948213083	0.7868397803031948	115.58667135748057	0.7686848814770818	116.53389543298366	0.1187664615673043	-0.2577405602859244	0.3765070218532287	95.98370288091147
7	3.0	perception	423	diff_vonmises	0.03765648739483138	2.1575577990114225	2.9312655271814934	3.4179360655305797	0.505853842821482	4.453455197219645	1.1054282855694437	-0.5477529991342518	1.6531812847036955	70.85718156501562
8	3.0	wm	423	diff_vonmises	-0.10128736919890537	-5.803338773080648	3.04741094270998	0.795517914497183	5.4385958758895365e-15	2.4230350558817224	0.14005498267340194	-0.3844527829001298	0.5245077655735317	78.70180696195183
9	4.0	ltm	423	diff_vonmises	0.06721045919337792	3.8508756509167985	0.00022274519914088685	3690.491006646796	2.0220417816153285e-30	3692.516450290708	-0.1915209313217474	-0.4531832335865147	0.2616623022647673	179.78224698354558
10	4.0	perception	423	diff_vonmises	0.020094431532385125	1.151326118520267	2.2837223664225585	3.197706540143924	0.23846117889487092	5.557040956718292	0.6795567873920008	-0.7203387302332223	1.399895517625223	81.72221806696965
11	4.0	wm	423	diff_vonmises	-0.3006700187462142	-17.227123100277417	0.47895337964502754	69.27724617457702	0.4325219202672291	72.2205877461452	-0.0926310305801259	-0.667069692676856	0.5744386620967301	118.22269852212774
12	5.0	ltm	423	diff_vonmises	0.030723040529310148	1.7603005561388463	2.240888794804277	0.7587222940712501	4.2849615394983805e-18	1.645560234821863	0.15719144166508192	-0.2571575694926368	0.4143490111577187	91.83486253054195
13	5.0	perception	423	diff_vonmises	-0.02604034537190613	-1.4920018868732474	2.32010265341936	2.1929029068199797	0.058463648686925274	3.535407915997942	0.6404744942176479	-0.5184144256540204	1.1588889198716683	87.71499564043202
14	5.0	wm	423	diff_vonmises	-0.004539812782934851	-0.2601121122417079	2.7129211908344386	1.0632271966378255	4.1315607460751854e-16	2.55836845907415	0.2500476000124024	-0.40428414474971985	0.6543317447621222	83.49239542160387
15	6.0	ltm	423	diff_vonmises	-0.2538993129753647	-14.547359054759578	0.24341253619844852	65.64800346620935	0.22346221996431245	66.46207016666227	0.0695823808274838	-0.28403031673458834	0.35361269756207214	150.77739036178428
16	6.0	perception	423	diff_vonmises	0.15356333284944898	8.7985308602361	0.5611102058090763	4.532610543351533	2.7134072587357675e-12	5.289258994111445	0.32855056724820797	-0.4607904640402316	0.7893410312884396	148.60663992726057
17	6.0	wm	423	diff_vonmises	-0.25701231837553895	-14.725721125790995	0.5078692885755088	9.313207513396847	0.322859178044238	10.388156608175944	0.08662674866980558	-0.32941273582979635	0.41603948449960193	129.14204752185537
18	7.0	ltm	423	diff_vonmises	0.4662952932365256	26.716752309268035	1.063614097320415	52.97906049093801	1.0361294080192776	53.497749756518964	0.09336341456852182	-0.14875518299945334	0.24211859756797516	83.16080467587602
19	7.0	perception	423	diff_vonmises	0.027165015774735218	1.5564407542986323	1.9228352564516373	1.7014804770261593	2.3362979515427515e-11	2.722252507803848	0.4237976152586144	-0.4149407408569978	0.8387383561156122	98.84098112057995
20	7.0	wm	423	diff_vonmises	0.3189894836131058	18.2767511200885	0.08310210130977114	32.46680891217502	0.06398053115505574	33.71383484096897	-0.10906921693971317	-0.2810230784441714	0.17195386150445824	168.18323584426713
0	1.0	ltm	424	diff_vonmises	-0.016039945226534603	-0.9190211651014439	1.7542051977619844	0.5749547438181399	2.1549416965461046e-36	3.175621092159975	-0.231501135735786	-0.4972135344094884	0.2657123986737024	103.12345363414303
1	1.0	perception	424	diff_vonmises	-0.05174616744330242	-2.9648370004784943	11.85376854041405	0.7826505857317297	3.3364238553127573e-18	3.787632755787906	0.4603738100643219	-0.6028204756466501	1.063194285710972	39.385769823158
2	1.0	wm	424	diff_vonmises	0.04844297899021992	2.7755782431805196	3.0139481869133085	0.8456288717560169	0.13428550023809685	3.6926513063307773	-0.11384322769532784	-0.5578259648733565	0.4439827371780286	71.07117603198122
3	2.0	ltm	424	diff_vonmises	0.009866430884194343	0.565304848521865	3.1375387035643474	0.6582662899722981	8.963845278326841e-18	1.9715518458317647	0.12843115803107724	-0.3129495405104961	0.44138069854157336	77.54525225802641
4	2.0	perception	424	diff_vonmises	-0.049118030326908084	-2.8142558357274163	10.584203425868893	1.0641555489506298	0.1392857864851897	2.468792056475314	0.9145587126207371	-0.4125020017058526	1.3270607143265898	41.06120232094659
5	2.0	wm	424	diff_vonmises	-0.04955399987088444	-2.839235050593505	6.209518403982518	0.5269403852419708	7.325718472389909e-15	2.054320495567691	0.1854062093245939	-0.32695319104883536	0.5123594003734293	54.66487649821994
6	3.0	ltm	424	diff_vonmises	-0.13044470592607887	-7.473931109389478	1.4992205343783533	1.3015865497902313	0.24561641535982262	2.0873598042980026	0.14521185538955905	-0.23151330365642445	0.37672515904598347	96.23485283596918
7	3.0	perception	424	diff_vonmises	0.043148665848827386	2.472236444758079	3.6462454116187715	2.40303964188433	0.33447816646187206	2.9912270119396296	1.1088170223415714	-0.41735069290230187	1.5261677152438733	67.03263662359873
8	3.0	wm	424	diff_vonmises	-0.071755242405841	-4.111272547792841	3.3545362293227665	0.712769566430176	7.330421596985108e-12	1.661668865446119	0.23277096688510301	-0.26385628275729495	0.49662724964239796	74.9311965901662
9	4.0	ltm	424	diff_vonmises	-0.35480185078258664	-20.32864861327262	1.2529945979452295	1.085040887586179	9.023719806704246e-19	2.6565171482332497	-0.0008485082542930011	-0.38836752631093313	0.38751901805664013	118.1052854563225
10	4.0	perception	424	diff_vonmises	-0.01729905895431497	-0.991163067630243	2.9903387612306904	2.270604025295596	8.874872490869718e-21	3.7938066847667913	0.880613652159926	-0.6000517971143842	1.4806654492743103	79.46527378913083
11	4.0	wm	424	diff_vonmises	-0.21918399550888695	-12.558317879473613	0.7778581895687183	93.54966511752349	0.7430258433026526	95.35069844509806	0.0948450929924256	-0.43759363216732083	0.5324387251597464	94.65749543435588
12	5.0	ltm	424	diff_vonmises	-0.05061402046113438	-2.899969756611793	1.2079861667981309	1.344368384558931	9.602680317117673e-14	2.1704626805105414	0.16624113163680326	-0.29975656804570106	0.4659976996825043	120.3854908774074
13	5.0	perception	424	diff_vonmises	0.007879890531572979	0.45148447048423046	2.5212284595163434	1.8448066122793907	0.11195705490498693	2.7954605117737557	0.5965229237725579	-0.3953849590196207	0.9919078827921786	82.67696566018915
14	5.0	wm	424	diff_vonmises	-0.04528491283470493	-2.594634381046405	1.7789772203910588	1.3875575739998165	0.01906966519541675	2.2480606827231404	0.30203990380231305	-0.3319996840694533	0.6340395878717664	101.43795205771198
15	6.0	ltm	424	diff_vonmises	-0.33249263947063173	-19.05042496083209	0.34176032070360046	31.700431186526483	0.29115009742683245	32.5117754849095	0.11918546582585332	-0.30436176684071237	0.4235472326665657	140.96334037907377
16	6.0	perception	424	diff_vonmises	0.2705089730744999	15.499022477586868	0.42514842716416773	6.069059550194206	9.820308727900824e-19	6.689536995492041	0.3484068999234029	-0.46086127409471356	0.8092681740181165	154.71868017521075
17	6.0	wm	424	diff_vonmises	-0.2612756016843624	-14.96998926625515	1.271577428847175	1.5828556474930415	0.18058526924605814	2.288114119528784	0.18822763175767576	-0.25271813160460055	0.4409457633622763	107.305268924565
18	7.0	ltm	424	diff_vonmises	0.3023953232900592	17.32597576901448	0.9850879054081286	142.63496490715147	0.9692786066380461	143.56318074871643	0.11558681614920374	-0.2478157617589094	0.36340257790811314	85.13494889396424
19	7.0	perception	424	diff_vonmises	-0.03949374665517221	-2.2628250005002797	2.220846475194923	1.5482844223458412	6.922482804905457e-18	2.3220380238199074	0.4810719383113725	-0.35954628697139757	0.8406182252827701	92.24033306952799
20	7.0	wm	424	diff_vonmises	0.23404768687206579	13.409944662568813	0.9232285010012607	0.9168182481722792	5.567713894218009e-15	1.9180927416602513	-0.005349195196620915	-0.2579450054664493	0.25259581026982836	131.31022994472102
0	1.0	ltm	425	diff_vonmises	-0.180136947839264	-10.321086845558082	0.23372632033835888	48.207643519236754	0.2102496946926796	49.79086419067075	-0.10989134212884011	-0.3601830463265463	0.2502917041977062	149.43972197604535
1	1.0	perception	425	diff_vonmises	-0.10975828893669236	-6.288686722649908	11.534602947912983	0.9139225744861772	2.568271140309755e-20	2.7321039621621086	0.7892957327802856	-0.43482785050179923	1.224123583282085	39.93656318088989
2	1.0	wm	425	diff_vonmises	0.023355254051209466	1.3381574865901202	4.789725987135529	0.4740960508647797	3.80526915054278e-16	2.162417658428218	0.057586374690502096	-0.3441316801057901	0.4017180547962922	62.42083676725295
3	2.0	ltm	425	diff_vonmises	-0.004973353194743267	-0.28495214808669383	1.5072172163853894	1.0578666992822852	0.04214128814944285	2.0330639525460246	0.12219474461806712	-0.28752991239239034	0.40972465701045746	107.21990364703603
4	2.0	perception	425	diff_vonmises	-0.03978937758013871	-2.2797634047944086	8.054715903341283	1.3555962203549727	0.3059381521428823	2.3200278500521216	1.0195101676645628	-0.3961692904003109	1.4156794580648737	46.28113393445335
5	2.0	wm	425	diff_vonmises	-0.0568846152936894	-3.2592483755537383	8.617193289307925	0.4149923106775172	0.09343394030350874	1.498786206999882	0.21716119149275065	-0.24436324749817476	0.46152443899092543	45.35092607846377
6	3.0	ltm	425	diff_vonmises	-0.051044941256279744	-2.9246596994780436	0.9900925207230711	92.34765481886498	0.9638393509702203	92.99668411002544	0.24216841425247893	-0.2316496481270871	0.47381806237956603	88.97494971124817
7	3.0	perception	425	diff_vonmises	0.024440530177702053	1.4003392282444516	2.669238153330615	3.3851988527839865	0.5566546960662387	3.9116278838575993	1.0661024818358849	-0.4358121864057717	1.5019146682416564	73.71722055714972
8	3.0	wm	425	diff_vonmises	-0.061247537845803314	-3.5092254241323118	2.4999702987388126	1.3300689242073969	0.5906597142698496	2.100460678362047	0.22974752282148825	-0.24325127030209537	0.4729987931235836	71.59514182796454
9	4.0	ltm	425	diff_vonmises	-0.19143655014043742	-10.968506367591631	2.6942280529223783	0.7126953127129267	1.7383560060364844e-31	2.097662874749792	0.10494161786096057	-0.33184854967306904	0.4367901675340296	83.76783919698299
10	4.0	perception	425	diff_vonmises	-0.053251594677166	-3.0510916273429314	2.2639113625929403	2.6686843321533775	0.11548960213033238	4.049423576602664	0.7621475258770448	-0.5608859430006602	1.323033468877705	86.74738569216277
11	4.0	wm	425	diff_vonmises	-0.2976779066443858	-17.055687705012634	1.2025106807605979	142.04064620049456	1.1788373150383724	143.44173337560835	0.09627444250811834	-0.36015828286562623	0.4564327253737446	75.26116706524292
12	5.0	ltm	425	diff_vonmises	-0.1227470525846923	-7.032888060773252	1.2713359712681356	1.00098392055062	1.5007091689668478e-15	1.677366565731193	0.1256666937715719	-0.23607864714764226	0.3617453409192142	118.01935016590546
13	5.0	perception	425	diff_vonmises	0.04411216556799314	2.527440912228317	2.1435052076732455	2.2918128515062777	0.3341950539675439	3.0469075723579775	0.5737973425578635	-0.35141340748933897	0.9252107500472024	83.35120723211514
14	5.0	wm	425	diff_vonmises	-0.07324175877280953	-4.196443661797257	0.6913121224826525	129.05823905032577	0.6740496237960042	129.77610234153838	0.22355188453398256	-0.2655862441025878	0.48913812863657036	106.22288902116833
15	6.0	ltm	425	diff_vonmises	-0.4183508131966657	-23.96973595203485	1.2068990273425766	1.1737646273504656	2.2971938636205535e-17	2.1496119015074138	0.10439131551649156	-0.3021697059684424	0.40656102148493395	119.45633242725259
16	6.0	perception	425	diff_vonmises	0.2147245540765221	12.302810706413332	0.8387654844048147	2.8032306842709285	4.3559920288953396e-16	3.7708089765235924	0.2717806424523317	-0.43723349345754486	0.7090141359098765	135.07589359289955
17	6.0	wm	425	diff_vonmises	-0.1181086043254767	-6.767124552030394	2.607164606027902	0.5982583943441014	4.789966493094027e-20	1.4717157089890904	0.12712472663585145	-0.23226566483103664	0.3593903914668881	85.17674319646366
18	7.0	ltm	425	diff_vonmises	0.17851726227184306	10.228285698406609	1.3799218008279235	174.37654083653715	1.36349908831323	175.40199998893362	0.09450829727175858	-0.28320420557502857	0.37771250284678715	70.44385383185409
19	7.0	perception	425	diff_vonmises	-0.06834081960309073	-3.9156405317220204	1.6537085107752767	1.793532551786249	2.3361255192326478e-19	2.7119188044246685	0.3926966180355017	-0.4014366081931447	0.7941332262286465	105.87694205645167
20	7.0	wm	425	diff_vonmises	-0.0035377428521039494	-0.20269773442813088	0.00019505090492336774	2693.9639541699785	1.5655061288100484e-29	2694.890064077999	-0.06376184196545864	-0.23101994164238704	0.1672580996769284	179.9836368660719
0	1.0	ltm	426	diff_vonmises	0.18616980624295806	10.666744170489782	2.487999230498643	0.3826303987086321	4.2295322827325774e-19	2.478875602339075	-0.1696640418626038	-0.39297326678737493	0.22330922492477112	87.18077868778838
1	1.0	perception	426	diff_vonmises	-0.03839641166559291	-2.1999523368853535	9.790371028396217	0.8538117115269493	0.03062516712254628	3.224204386374783	0.5224502449189969	-0.5167550703403817	1.0392053152593785	43.0846360577105
2	1.0	wm	426	diff_vonmises	0.13003235060901325	7.4503048900618385	4.138882723084417	0.47599856175690086	0.09749452225133626	2.989032493612669	-0.15039435867458056	-0.47052312559742066	0.3201287669228401	62.262182525312596
3	2.0	ltm	426	diff_vonmises	0.06109642049796302	3.5005670378898524	1.851950499223392	0.9624562687355654	0.2074649989053387	2.104819059729917	0.06604429474127016	-0.269592169280699	0.33563646402196917	87.56351010432925
4	2.0	perception	426	diff_vonmises	-0.030509254293784115	-1.7480515071252147	8.715498480574684	1.2177778431383703	0.18963162903134656	2.6098178559989558	0.9147591302921423	-0.43680063198260854	1.3515597622747508	44.91128085939249
5	2.0	wm	426	diff_vonmises	-0.04200651817663658	-2.4067962035608543	5.181103753023234	0.5995506133655948	0.15394756254738648	2.41216624290919	0.08460405883627514	-0.38577825401624566	0.4703823128525208	56.39236365632124
6	3.0	ltm	426	diff_vonmises	0.0789406161440536	4.522964137216562	0.9998173389646459	117.96441006824134	0.9840217786943738	118.53278221320406	0.1602050030574702	-0.18349473915419523	0.34369974221166544	87.2769886101182
7	3.0	perception	426	diff_vonmises	0.03358597536619565	1.9243346393133602	2.615418714955657	3.83891554563027	0.7363053036079665	4.487122359592783	1.0151596385587869	-0.45659992266547034	1.4717595612242573	71.5979446001665
8	3.0	wm	426	diff_vonmises	-0.04419099975107693	-2.5319577782003795	3.3528233370608773	0.6281471045576307	0.11036825155868865	1.7398661820110806	0.12974910549510343	-0.2622710978364522	0.39202020333155563	70.77609558973936
9	4.0	ltm	426	diff_vonmises	-0.21482648210938626	-12.30865075251052	2.2826850841694912	0.5359178087115556	8.715154800809522e-21	1.9834530079602257	-0.016379486959391842	-0.3125616531918306	0.29618216623243876	90.96957159521543
10	4.0	perception	426	diff_vonmises	0.010986401689674796	0.6294744488537622	1.24695245889403	15.804985257477286	0.8527634656276166	17.576733142934064	0.6146572474032759	-0.609583499225955	1.2242407466292309	85.66736556073278
11	4.0	wm	426	diff_vonmises	-0.3170824558553783	-18.167486478156416	0.7985196519462934	105.70208660990937	0.7675693686894178	107.77606454275153	0.007842892545930624	-0.4633524206466131	0.4711953131925437	90.7717826851796
12	5.0	ltm	426	diff_vonmises	-0.00679788782514865	-0.38949028198438373	2.3429504753517643	0.6783286415445215	0.07008728014951308	1.2665753618519875	0.16878367126085875	-0.1846854987642962	0.353469170025155	86.38603727041024
13	5.0	perception	426	diff_vonmises	-0.016673144092539005	-0.9553007877159659	1.7023946706741728	3.810295994429127	0.487161070152922	4.638918285267373	0.6489567224827921	-0.4086623554820583	1.0576190779648504	87.60076005178783
14	5.0	wm	426	diff_vonmises	0.03892969210201122	2.230507055189017	2.449267990397263	1.009273589827308	5.997403079397822e-16	1.989304946743037	0.2710745703327667	-0.31222490531903424	0.583299475651801	87.88719479001446
15	6.0	ltm	426	diff_vonmises	-0.3244962589269689	-18.59226610429968	0.47047515658259553	113.16455796101343	0.45710603661164256	113.83326654486203	0.12140665646193227	-0.24003317938270996	0.36143983584464223	125.14805506907621
16	6.0	perception	426	diff_vonmises	0.17733204228434576	10.160377595328466	0.6743166077435936	3.4640643470069183	8.34594466947218e-18	4.070543220472785	0.3209307989606309	-0.39635601998965536	0.7172868189502863	142.8873548209894
17	6.0	wm	426	diff_vonmises	-0.2300814954970594	-13.182698636039758	1.7803294019911022	0.9046387471947427	6.947032162823481e-17	1.61850911569083	0.177277861795415	-0.24523441051323877	0.42251227230865374	102.32174801737911
18	7.0	ltm	426	diff_vonmises	0.2594902682356121	14.867697194618222	1.0837445503038	101.93529789369548	1.0642306089741222	102.67354970615713	0.11232826661026962	-0.20520157365742442	0.31752984026769404	81.62199340335835
19	7.0	perception	426	diff_vonmises	-0.048375964227534964	-2.771738580113601	2.1095593929395666	1.6323341146615618	3.17114110731418e-14	2.2665576569837986	0.5088669246248977	-0.3479402052412568	0.8568071298661545	94.57077346446616
20	7.0	wm	426	diff_vonmises	0.24252363313817218	13.89558061099638	0.35407946116728173	23.192766974480293	0.3070550502616771	24.29158180705093	-0.03546879749503962	-0.2668361511369004	0.23136735364186078	135.42269288308336
0	1.0	ltm	427	diff_vonmises	0.13383091035701153	7.667946331850418	2.715423776543016	0.5541620704702287	0.026681326969763473	4.279191202278281	-0.3566181406091753	-0.6661228744993551	0.30950473389017985	79.23487885392223
1	1.0	perception	427	diff_vonmises	-0.03128009099976904	-1.7922171970719178	8.546743375083262	0.8648408305714826	2.3552345643104387e-17	4.7774053531014635	0.23263638030955125	-0.7603476396556172	0.9929840199651685	46.47305904452992
2	1.0	wm	427	diff_vonmises	0.07241245884287308	4.148928275861404	0.9878099448442704	5.636722299753589	0.45065468202173875	9.580111873731555	-0.3626654132473113	-0.7410739595193075	0.37840854627199627	86.8700576442946
3	2.0	ltm	427	diff_vonmises	0.06413022219683985	3.6743910711151138	1.2763665979368546	2.6062718149457633	0.4091148032002975	4.378672726808079	0.018077683975784575	-0.39652758801508614	0.4146052719908707	90.41814372140661
4	2.0	perception	427	diff_vonmises	-0.06545873014463179	-3.750508969573178	10.97073982972654	1.1822038993457422	0.2155886217109414	2.7890466260036795	0.9990492590098684	-0.48302045793514103	1.4820697169450094	40.0489361931368
5	2.0	wm	427	diff_vonmises	0.014094719791530694	0.8075679574742203	5.6087533870701884	0.5522260365526608	1.1665337622774467e-21	2.4338875939700935	0.12157261665023278	-0.387358402536557	0.5089310191867897	57.57652345781304
6	3.0	ltm	427	diff_vonmises	-0.15830889676497148	-9.070431644005117	0.8282981192795539	42.68943932342194	0.7818163578158275	43.702069235921144	0.07494685214619423	-0.25320606334683493	0.32815291549302916	92.67318206219521
7	3.0	perception	427	diff_vonmises	0.04396991900818222	2.519290784700896	3.66611094965511	2.0239912715359134	0.07483717772371386	2.8115118252712317	1.001685530255486	-0.42490822456130206	1.426593754816788	70.07061530530103
8	3.0	wm	427	diff_vonmises	0.0031734899593126205	0.1818275809957565	3.010540414616187	0.7013592997333383	0.15935684607072956	1.769896474792399	0.13200920415890405	-0.2588596602004009	0.39086886435930496	73.07763798658249
9	4.0	ltm	427	diff_vonmises	-0.26365426476827897	-15.10627662184714	0.00035980562343784544	2500.7292144233706	6.0239035434074555e-33	2502.6189433919894	-0.15754320589974213	-0.44395044441893106	0.2864072385191889	178.00015169106115
10	4.0	perception	427	diff_vonmises	-0.0005328820303319565	-0.030531891316383425	2.7021764866676152	2.3168466936730265	1.0676115452451682e-21	4.2630602488362905	0.7503985789991088	-0.6720614601253379	1.4224600391244466	83.65826718601784
11	4.0	wm	427	diff_vonmises	-0.16987457962764432	-9.733096459223056	1.6591100148027804	1.4742964457731347	0.04031142950152715	3.873229255338849	0.03738561217001801	-0.5672581571320854	0.6046437693021034	101.96339112769536
12	5.0	ltm	427	diff_vonmises	-0.014776014322728143	-0.8466032587171781	1.668534890702825	1.0709992189263093	3.0591780359687485e-17	2.938324401882717	0.027264833980156222	-0.4500589409670087	0.47732377494716494	105.47078998052585
13	5.0	perception	427	diff_vonmises	0.017337588155409162	0.993370628240951	2.9336231152776873	1.5438878118506498	1.1667085940457609e-14	3.475703861111757	0.44516686614718803	-0.5503494848538352	0.9955163510010232	80.24278436537116
14	5.0	wm	427	diff_vonmises	-0.047392004677064274	-2.7153618506600408	0.8481398122866947	5.2582728955191165	0.3236316062458774	6.918639617370378	0.16212161410200232	-0.474602049139849	0.6367236632418514	112.61059393781024
15	6.0	ltm	427	diff_vonmises	-0.28823996714267114	-16.51493360426458	0.5674506655417346	2.4609095801651577	9.654914399143096e-09	4.177396012887713	-0.02649225655416354	-0.45964128748325295	0.4331490309290894	147.50572426405105
16	6.0	perception	427	diff_vonmises	0.38158561488411263	21.863245255764063	0.00023499226984649522	11585.007759222834	9.846823664082272e-30	11586.959001476098	0.12275575915737136	-0.7438045504018191	0.8665603095591905	175.484991231751
17	6.0	wm	427	diff_vonmises	-0.37979833477220204	-21.760841648543916	1.1863146450274502	1.7407203252036916	2.2633469374564503e-10	3.4548316545972293	0.10570631405656983	-0.4887309781199546	0.5944372921765244	120.37589229934957
18	7.0	ltm	427	diff_vonmises	0.3545440364148429	20.313876938103068	0.35808282267897595	138.9526429433783	0.3451094023889381	140.91373988575205	-0.10092315269159968	-0.44424042935807684	0.34331727666647716	130.5547880683871
19	7.0	perception	427	diff_vonmises	-0.07425422694907824	-4.2544538151887625	4.043146174588603	1.3204293883855893	2.615835148953844e-15	2.901633513857018	0.5593312721902362	-0.4614950575540083	1.0208263297442444	68.08613949549724
20	7.0	wm	427	diff_vonmises	1.070911418100837	61.358704489547875	0.00022130458784863638	4425.542462162261	2.0171184893376568e-29	4427.411105007848	-0.14152296442307488	-0.4532672804764388	0.31174431605336395	148.89906919166793
0	1.0	ltm	428	diff_vonmises	0.039921487571525645	2.2873327497323896	0.5376310340000241	73.35131686128337	0.5137716606092396	75.32420657026955	-0.16353266994694238	-0.37856116289373354	0.21502849294679116	102.25233090981448
1	1.0	perception	428	diff_vonmises	-0.05271376962142975	-3.020276521532856	8.936838207710283	1.0850358267569558	0.17038114743416563	3.467709543520029	0.6252199894373358	-0.5824208322701453	1.2076408217074812	44.10481976792909
2	1.0	wm	428	diff_vonmises	0.042836612366715446	2.454357097250704	9.903611922319547	0.19175588470291122	0.04291578116887339	2.782052969068211	-0.2244998945445853	-0.45051179688125187	0.22601190233666657	41.97522829436733
3	2.0	ltm	428	diff_vonmises	0.0029852620497178416	0.17104291618940565	1.7797019040399846	1.342788384120253	0.4884721111935924	2.100318476775105	0.131651324363681	-0.20963746684603501	0.341288791209716	82.1239628175544
4	2.0	perception	428	diff_vonmises	-0.03837014687490062	-2.1984474752288907	10.401992316125824	0.9972969851483201	0.18052154026885825	2.189782764624281	0.852884587614255	-0.3713735632625457	1.2242581508768007	41.27372252388295
5	2.0	wm	428	diff_vonmises	-0.1573856713854499	-9.017534726219168	2.032528248805716	2.468864134265134	0.7651005155580963	4.203514975574885	0.03776375975780555	-0.4239026030566957	0.46166636281450124	69.29677162416874
6	3.0	ltm	428	diff_vonmises	0.1567418804867341	8.980648224833818	1.4256588447782497	104.41933408395994	1.4072174177038983	104.76492998931494	0.19856309840495356	-0.14792469360906857	0.34648779201402213	74.52961087809757
7	3.0	perception	428	diff_vonmises	-0.008585229089413128	-0.4918973929763151	3.026457991183805	3.3679211968474623	0.8145099041450227	4.1844739907644195	0.9345107350251438	-0.47239230496063467	1.4069030399857785	66.33993421869275
8	3.0	wm	428	diff_vonmises	0.03772025472309428	2.1612113977917122	4.340308401617893	0.4223319000105039	0.04381621868469396	1.6215215976224473	0.06993043158272044	-0.25396905320457835	0.3238994847872988	63.95233091421747
9	4.0	ltm	428	diff_vonmises	-0.21192837469132664	-12.142601428880146	0.8345617000110271	142.37209584554859	0.8181857810119408	143.51351374524813	0.09456189700740936	-0.288691424498543	0.38325332150595237	91.70776632215359
10	4.0	perception	428	diff_vonmises	-0.0003305927020761527	-0.01894156656678936	1.01182034053022	518.9583189852716	1.0012020420126886	520.396389908175	0.550109356300652	-0.5161923925182919	1.066301748818944	87.69882311941896
11	4.0	wm	428	diff_vonmises	-0.1884967209943474	-10.800066565031123	0.9398192790096109	249.7065818416434	0.9247051759471572	251.58102630079662	0.10379396388017881	-0.45486347358514223	0.558657437465321	85.12433368416094
12	5.0	ltm	428	diff_vonmises	-0.02499149331520254	-1.4319070906905156	1.2516418943346166	97.42204723761355	1.2283823990201024	97.64624189458777	0.3298009251216172	-0.1631569710855576	0.4929578962071748	82.31382966960498
13	5.0	perception	428	diff_vonmises	-0.018724723523698868	-1.0728476304572763	1.0632997305186545	352.10169866956085	1.049956763312638	352.7189804501446	0.6671646656435684	-0.3770013880454606	1.044166053689029	88.61365245331311
14	5.0	wm	428	diff_vonmises	0.09059765297904646	5.190863149490192	2.9378077856704397	1.1113404390762651	5.000036720079209e-14	1.6533984787157707	0.45606717757098303	-0.2611275948016124	0.7171947723725954	80.18340090397206
15	6.0	ltm	428	diff_vonmises	-0.21580545897955358	-12.364741995412034	0.7887677892550438	153.24413664110835	0.7750573834397251	153.60112474223286	0.2945218083649763	-0.20629330633793685	0.5008151147029132	102.33386158419312
16	6.0	perception	428	diff_vonmises	0.19012324087822888	10.893259289671642	0.23502071717825349	8.56771782628357	2.424576001691618e-12	8.835123044092434	0.2951306258304436	-0.3428902535626932	0.6380208793931368	165.6719491016855
17	6.0	wm	428	diff_vonmises	-0.29431925700940104	-16.86325125606485	1.6731307930498411	1.8119636624450455	0.3126981106819492	1.848331793928005	0.446211334883409	-0.1822949590655959	0.6285062939490049	95.17929974835785
18	7.0	ltm	428	diff_vonmises	0.12149037798700764	6.96088591010462	1.1639121603006806	123.49654032427726	1.1446382361426821	123.95417555591924	0.2737484955316134	-0.19703629799141353	0.47078479352302693	83.11193164985633
19	7.0	perception	428	diff_vonmises	-0.08386447565147466	-4.805080505907153	1.8848392308081725	1.914265908666091	0.08281347717598994	2.074108937214349	0.5946883489315203	-0.28137995261253745	0.8760683015440578	96.9350096937155
20	7.0	wm	428	diff_vonmises	0.21699679534408176	12.433000541079958	0.6619925599229863	122.47776516238487	0.6450238178103762	123.3386553684497	0.15911527799038083	-0.27013972002407627	0.4292549980144571	106.59452334474321
0	1.0	ltm	429	diff_vonmises	-0.20103377147813803	-11.518386645294774	0.24470272411129357	62.37924960165947	0.2319741246237044	63.6265488938287	-0.10759925786562086	-0.2651052200349646	0.15750596216934376	145.4996215835327
1	1.0	perception	429	diff_vonmises	-0.07051787408207659	-4.040376565137962	10.32259728369256	0.9330465003932091	0.07010374185529823	2.51677615118488	0.7516436529704855	-0.4090531381090925	1.160696791079578	41.81431353924049
2	1.0	wm	429	diff_vonmises	0.06478808384194996	3.7120837668834565	7.745969851344848	0.1925749635729847	2.1608634302147815e-24	1.714677849117243	-0.06278003333235718	-0.2728994161886208	0.2101193828562636	48.85304267954089
3	2.0	ltm	429	diff_vonmises	0.25060439028833226	14.358573890970714	0.5528953545373546	81.09384153653785	0.5369859364746239	81.65305849304474	0.10081244049259297	-0.18825662218464512	0.2890690626772381	116.81141772587611
4	2.0	perception	429	diff_vonmises	-0.017561262107800665	-1.0061862016999943	8.00611538932593	1.3940880260725277	0.43499643910535135	2.2618246956742487	1.0167731810386318	-0.39924036954139747	1.4160135505800293	45.88156085466969
5	2.0	wm	429	diff_vonmises	-0.07175702979315525	-4.111374957542303	5.724557584653619	0.5536872195815397	0.40053733945179393	1.8254039684950152	0.09907279035075656	-0.31224922908113023	0.4113220194318868	51.19633969320344
6	3.0	ltm	429	diff_vonmises	0.20480100699176088	11.734233340657163	1.615139754156931	86.54904159017701	1.5964050959976759	86.66339582274665	0.22582198688996868	-0.10228372740418123	0.3281057142941499	72.44955004287647
7	3.0	perception	429	diff_vonmises	-0.0008825930542568905	-0.0505688570364807	2.37541880821407	6.054119319040819	1.17128552897762	6.580096268529424	1.0023067672127102	-0.44948490818264175	1.451791675395352	69.10399093681295
8	3.0	wm	429	diff_vonmises	-0.005548422335991409	-0.31790118280842494	3.6052869581613756	0.47001988651692317	0.32094593423375756	1.3113144252837847	0.06088656219813077	-0.1978383414713528	0.25872490366948353	63.57260531288486
9	4.0	ltm	429	diff_vonmises	-0.2376072094388323	-13.613890282726107	4.885544904578929	0.4350506444519053	7.143646600988135e-16	1.4862669368946833	0.13602713109654202	-0.23652545922892626	0.3725525903254683	61.79248156475762
10	4.0	perception	429	diff_vonmises	-0.019550447483279578	-1.120158128384082	1.0503111232568534	359.56679161878367	1.035001045776412	360.8958784039179	0.5742803935178102	-0.4989842376389859	1.0732646311567962	86.52983690483558
11	4.0	wm	429	diff_vonmises	-0.3305793513523845	-18.940801626663994	1.2473357549969637	219.39477635623987	1.23008319753533	221.0283709185947	0.06663798095971174	-0.4119710522518609	0.47860903321157267	72.83217747190358
12	5.0	ltm	429	diff_vonmises	-0.0970292538838934	-5.559366736850443	1.3996331570316876	45.1266012628092	1.3649647109144452	45.29179405539652	0.21254452396001255	-0.10914054874431667	0.3216850727043292	77.56087544160374
13	5.0	perception	429	diff_vonmises	0.0003327652758901799	0.019066045877013757	1.1415711207404868	301.9180822799081	1.126758264725499	302.32168059224824	0.686218127967507	-0.33155747896338283	1.0177756069308899	86.40319140899553
14	5.0	wm	429	diff_vonmises	0.11689515256086909	6.697598887275676	2.719645064717846	0.9006185363635995	0.08632377092967985	1.3738164083850484	0.3195840475046924	-0.20006867994054256	0.5196527274452349	80.49317380324152
15	6.0	ltm	429	diff_vonmises	-0.36961563593749996	-21.177415981262705	0.7999699266513087	136.42756422165678	0.7865620832741669	136.86435449546136	0.21781588935682095	-0.18806185507416728	0.40587774443098823	100.05044472313493
16	6.0	perception	429	diff_vonmises	0.15891475887452933	9.105144985849675	1.1670754785335178	1.9884462769391833	5.4261270290725207e-17	2.5075447578346064	0.3426815301241777	-0.32721578416899055	0.6698973142931682	121.75242034706403
17	6.0	wm	429	diff_vonmises	-0.13250210121976574	-7.5918111765078145	3.6399186604383043	0.7009719214529007	1.3848073490180434e-13	1.0166109033772284	0.34988400163103894	-0.1614458836390222	0.5113298852700612	71.86191538370426
18	7.0	ltm	429	diff_vonmises	0.06722298785253035	3.8515934902091904	1.6772546032964466	156.45001058379867	1.6602457248499416	157.0241082220071	0.18416956870581203	-0.21163215370288668	0.3958017224086987	66.59078320294068
19	7.0	perception	429	diff_vonmises	-0.06229736416489345	-3.569376041437931	1.3969142003426815	2.047135930076299	1.9252315148363796e-14	2.557632942818715	0.4423234818691867	-0.3550850108965603	0.797408492765747	113.76132180545831
20	7.0	wm	429	diff_vonmises	-0.0352791260960303	-2.0213450302123808	0.0004239968048933168	1985.401776331301	4.0756343794065178e-25	1986.262249076793	-0.0029570314245006557	-0.27091154729896516	0.2679545158744645	179.94007122356203
0	1.0	ltm	430	diff_vonmises	0.1549493037289364	8.877941142158765	3.3938237375696945	0.3779571523178405	9.863925506878695e-28	2.6765117301349415	-0.16059190986958888	-0.42568081090855003	0.26508890103896116	74.4819206761276
1	1.0	perception	430	diff_vonmises	-0.07280494222170433	-4.17141591699747	8.715880079018744	1.018860746252015	6.135841264026239e-18	3.321898569645797	0.6530510575696435	-0.5286965460372578	1.1817476036069015	46.01323679616161
2	1.0	wm	430	diff_vonmises	0.22841747343235191	13.087357194715375	0.9040622515246483	5.312648293824172	0.4420935813929851	7.897104192780035	-0.1448384577058559	-0.5188531595919297	0.3740147018860738	94.69536047201339
3	2.0	ltm	430	diff_vonmises	0.10561116540038885	6.051074046900348	0.9828735620554654	119.76914745338073	0.9618891895483745	120.89644656499128	0.09944528701200994	-0.2868585897777578	0.38630387678976774	84.35249506198923
4	2.0	perception	430	diff_vonmises	-0.02900405313547651	-1.661809833435986	7.391434611991374	1.5040072545465675	0.36707380617529234	2.4226912744735536	1.063229889407963	-0.4130636317289229	1.476293521136886	47.94885205989638
5	2.0	wm	430	diff_vonmises	0.0384508576105395	2.2030718597423946	8.101367418990232	0.3911304401872152	4.798398984333589e-21	1.7634395410708625	0.15616414940007228	-0.2806600796637211	0.43682422906379337	47.75151069053675
6	3.0	ltm	430	diff_vonmises	-0.003387848469939815	-0.19410941895740494	1.269430233333885	1.7720534021585574	0.46783961897417836	2.456526699106164	0.1030616625279469	-0.1898810815180199	0.2929427440459668	92.91530105116951
7	3.0	perception	430	diff_vonmises	0.036454261271407634	2.088675316118868	3.664003180252451	1.9763194984345196	0.23710695913343308	2.486932183247498	0.9532944514129047	-0.3554472255328536	1.3087416769457583	67.99938325053736
8	3.0	wm	430	diff_vonmises	0.0980006445680288	5.615023323309727	2.27684340958798	0.83915468572176	0.3235541268569971	1.737238808069947	0.09561673173258323	-0.22259969418250003	0.31821642591508326	77.59335451451895
9	4.0	ltm	430	diff_vonmises	-0.2760433865205501	-15.816121010126	1.4546502698623474	0.8396086318613286	3.239355574137056e-19	2.213415957603703	0.004708084242994015	-0.33281521857620705	0.33752330281920107	111.61409675926653
10	4.0	perception	430	diff_vonmises	0.014610010312164955	0.8370919295296623	1.9967225917452078	3.287461909983893	0.34865506728355533	4.900260360532844	0.6218556462086886	-0.5554613977787658	1.1773170439874545	84.07679296533496
11	4.0	wm	430	diff_vonmises	-0.2398325558908158	-13.741393242379177	2.0446444342214516	1.2565773010673966	0.14508729172075038	3.2521897848584325	0.06165292754218943	-0.44846598327371184	0.5101189108159012	86.04421311595746
12	5.0	ltm	430	diff_vonmises	-0.08608632542507481	-4.93238312064654	1.9212412459833401	0.8136758393722073	1.1338802863950448e-14	1.7209384953576452	0.1357801136452857	-0.26511226480881234	0.40089237845409803	98.86835610456261
13	5.0	perception	430	diff_vonmises	0.0030373917192639014	0.17402972624180654	2.370213270267946	2.089083159715587	0.21250473826260527	2.9561717483208985	0.6177197725989181	-0.3844196598460067	1.0021394324449249	82.51336805280567
14	5.0	wm	430	diff_vonmises	0.011952015971413207	0.6848000718349295	1.5343701642874152	1.4708993960406918	0.021096469979896348	2.3848215791597065	0.2583162294580757	-0.341567882919406	0.5998841123774816	108.1477789251669
15	6.0	ltm	430	diff_vonmises	-0.3220559037893492	-18.452444054401003	0.8884645708503637	1.519478566121451	1.9213107920915835e-13	2.3710479587691973	0.10965368406872905	-0.2949770817774121	0.40463076584614116	132.43224431406304
16	6.0	perception	430	diff_vonmises	0.24794222709702987	14.20604317573401	0.47034236140717256	5.067580788999925	6.210033633323479e-17	6.0933396758251215	0.25255444924449233	-0.492629192827043	0.7451836420715353	152.59765498057726
17	6.0	wm	430	diff_vonmises	-0.3031450709240612	-17.368933144142712	1.9519036962759897	1.0601596587743385	1.0117843113956804e-16	1.87819391354108	0.23997899450671084	-0.2880559960524589	0.5280349905591697	98.00591703685286
18	7.0	ltm	430	diff_vonmises	0.08303429429953868	4.757514618210757	0.6797029561331686	212.27717120167736	0.6678848487502056	214.17733225976653	-0.05155503835080566	-0.40407716112192915	0.3525221227711235	96.02146041214792
19	7.0	perception	430	diff_vonmises	-0.10727776886288998	-6.146563391423553	3.329848588182609	1.5147486885307957	1.1075366018288475e-15	2.498172536602532	0.6547367056466653	-0.3962478773087582	1.0509845829554236	75.21452463117876
20	7.0	wm	430	diff_vonmises	0.6667711940338457	38.203175319037854	0.33636120205213893	58.634176040698726	0.3108448878280955	60.198392877257454	-0.06222559117665938	-0.37278311922599716	0.3105575280493378	132.35145576371656
0	1.0	ltm	431	diff_vonmises	0.19289759964595835	11.052218337917656	2.4035200215792765	0.5843576290348448	6.931079171019936e-17	3.5408957715546263	-0.22704921907049086	-0.5608011621544046	0.3337519430839137	88.68652496727503
1	1.0	perception	431	diff_vonmises	-0.07814180123702633	-4.477195414431764	11.251732648341848	0.8457025465897451	0.018690344954592417	4.040295481301404	0.46305711759477397	-0.6465154513494212	1.1095725689441953	40.26126749149151
2	1.0	wm	431	diff_vonmises	-0.05756038551271842	-3.2979671570247326	5.315132876369441	0.5767033049817261	0.1853142174267909	4.0891098915022965	-0.26005724970497823	-0.6738084366653798	0.4137511869604016	53.150034314763076
3	2.0	ltm	431	diff_vonmises	-0.10853837403512932	-6.218790747425229	1.3287548729317675	2.6662837074007424	0.43379096819225055	4.235520236592183	0.08070556165994835	-0.37427347218898577	0.4549790338489341	89.95416693382111
4	2.0	perception	431	diff_vonmises	-0.06687761644047507	-3.8318051659339494	10.626174258679642	0.9748634296582412	0.06695896934242687	2.832721617765612	0.7705950590729522	-0.46055632923271866	1.2311513883056708	41.215620175476886
5	2.0	wm	431	diff_vonmises	-0.11815395310952374	-6.76972284596234	3.2803162725754387	1.1315674493635361	0.3029993896777724	3.4836278605335047	0.045812639815751566	-0.5193788784647991	0.5651915182805507	65.55778399598381
6	3.0	ltm	431	diff_vonmises	0.04378295862057233	2.5085787435547195	0.9889044570225727	127.43653385651555	0.9612789248023293	128.77083479491344	0.221134380966717	-0.3754895852244502	0.5966239661911672	86.17063415779694
7	3.0	perception	431	diff_vonmises	-0.046983440077760036	-2.6919528234614543	3.0965162542500244	3.0332699020013463	0.33555262873382363	4.783290805918747	0.9872024250124201	-0.6496585539705663	1.6368609789829862	70.74856976373204
8	3.0	wm	431	diff_vonmises	-0.03717912724532071	-2.130207077136727	3.040830500515525	1.0476454911799769	0.18916898071193597	3.232698342903236	0.07534260946732141	-0.47690771048424957	0.5522503199515709	70.79378080313631
9	4.0	ltm	431	diff_vonmises	0.054224965723401256	3.106861680192445	1.1888822342892165	1.4759975104086036	4.403146197849938e-16	3.5506619302451004	-0.008534933611268558	-0.5134789830014375	0.5049440493901689	121.08348216259314
10	4.0	perception	431	diff_vonmises	-0.04950753118876362	-2.836572591228447	0.7468755389759884	576.3359736170775	0.7359232995472519	578.7186930640927	0.5104278194574476	-0.7480654702391973	1.258493289696645	100.38800674123715
11	4.0	wm	431	diff_vonmises	-0.10933334211494523	-6.2643390632463	0.7352302623578867	186.43885145244553	0.7124365761343366	189.34474988035984	-0.02308449758260167	-0.637812718891869	0.6147282213092673	93.86487759284888
12	5.0	ltm	431	diff_vonmises	0.015256672632484375	0.874142951254102	1.575408479384321	2.2183097416951214	0.32921527416715124	3.197415787118518	0.3013904694995838	-0.3272090498768687	0.6285995193764525	92.45212084308199
13	5.0	perception	431	diff_vonmises	0.007246540238550245	0.4151961717406538	0.8642533719255451	380.477004739301	0.8506307668498773	381.82053352280167	0.5678138348589812	-0.5201996164155176	1.0880134512744988	95.60782644059768
14	5.0	wm	431	diff_vonmises	-0.05417919312551594	-3.104239103516267	1.95722837616866	1.8996811410161367	0.21662196481080528	3.2691354854553123	0.3286487885993089	-0.4101116046708212	0.7387603932701301	87.69699595597083
15	6.0	ltm	431	diff_vonmises	-0.11227807790306411	-6.433059995686642	1.4398507014990076	1.3173601841815306	2.315368056836523e-13	2.3443799254550965	0.1835282951078731	-0.34186045015057465	0.5253887452584478	112.32557857539389
16	6.0	perception	431	diff_vonmises	0.08596409486085209	4.925379825189075	0.07553521047731787	26.8878908591868	6.696936944528576e-13	27.914278786422056	0.16583129242583983	-0.48034287133348696	0.6461741637593268	175.39211745794944
17	6.0	wm	431	diff_vonmises	-0.14967470116247508	-8.575728676491659	0.6978063135439405	161.16763850082376	0.6811760557210973	162.30265502426096	0.19168201455228484	-0.34076114427594106	0.5324431588282259	103.32278179625449
18	7.0	ltm	431	diff_vonmises	0.21740372314723816	12.45631578676735	1.406224654487477	95.3702824461915	1.3838872024982118	95.92602886710938	0.15124704881705497	-0.1840651365373116	0.3353121853543666	72.80086178899691
19	7.0	perception	431	diff_vonmises	0.002330609005088903	0.13353405968677792	0.6912162019431223	202.80392067000264	0.6713171435039461	204.0580815482712	0.418460036435107	-0.47805844608958736	0.8965184825246943	106.59896943384156
20	7.0	wm	431	diff_vonmises	0.43962104985766853	25.188430741954747	0.0003583769898519863	1855.7316090115103	4.541050591745178e-25	1857.0028090733065	-0.09646262911218173	-0.30815395185811667	0.21169132274593494	174.09753165445676
0	1.0	ltm	432	diff_vonmises	0.08082973256252307	4.631202535003733	0.6275961692451404	89.19150971531867	0.6097764223933707	90.53049356220036	-0.056723923836454304	-0.2779551351907674	0.22123121135431312	99.05296557161475
1	1.0	perception	432	diff_vonmises	-0.09663690999015322	-5.536887087621401	10.521547833721682	0.9789576557141546	4.329184823482825e-15	2.4750551893090984	0.8567187100867291	-0.39391726689486084	1.2506359769815898	41.842121571402714
2	1.0	wm	432	diff_vonmises	0.15846965518050504	9.0796424227364	4.7792437046362695	0.3065306961743395	1.0217304175476753e-18	1.9223581159454195	-0.04648469383729248	-0.3059344780564799	0.2594497842191874	62.48711915615735
3	2.0	ltm	432	diff_vonmises	0.030248635191466026	1.7331191325019002	0.8115500524717242	73.62216540027768	0.7881367666380857	74.30828436603701	0.12238943676196712	-0.20074572841533556	0.3231351651773027	95.8361081701166
4	2.0	perception	432	diff_vonmises	-0.031508962243466734	-1.8053305533877058	8.364527421770203	1.30696774271761	0.33300125488254545	2.0740315551270787	1.0359861694568369	-0.3581304443702822	1.394116613827119	45.4402726121335
5	2.0	wm	432	diff_vonmises	-0.07607593861282562	-4.358830205011243	6.9842933079784935	0.4461431494907751	0.3028527397505356	1.586869285624945	0.12707716887625492	-0.27328001101761956	0.4003571798938745	47.962404723205054
6	3.0	ltm	432	diff_vonmises	0.08068509400109106	4.622915355878835	1.3475768025825718	138.68128996627368	1.3339610965567876	138.97548109527807	0.2220014885245689	-0.14230218348350832	0.36430367200807723	77.5113238032254
7	3.0	perception	432	diff_vonmises	0.021011963880728162	1.2038968496470503	1.5187939230261518	176.28714301802782	1.4838253181660925	176.6682673579826	0.9140661282077929	-0.3922876713497807	1.3063537995575736	75.33153448319376
8	3.0	wm	432	diff_vonmises	0.002611212338746799	0.14961144642267662	1.7480514978524089	4.635552260207403	1.2619801016662036	5.285341851508883	0.13961368284051456	-0.20782356699448057	0.34743724983499513	69.3553245873338
9	4.0	ltm	432	diff_vonmises	-0.17305199387210365	-9.915148885195324	4.721032530684034	0.4339204218934782	1.0207872142866263e-15	1.4514999985337178	0.13388278124794845	-0.23098445709662785	0.3648672383445763	62.88149924606665
10	4.0	perception	432	diff_vonmises	-0.025897094207445848	-1.4837941997393387	1.038362633487639	404.48647375863163	1.0250406515733828	405.7265918104417	0.5866867459455136	-0.4845967351288678	1.0712834810743814	87.3157885468371
11	4.0	wm	432	diff_vonmises	-0.3121754591442239	-17.88633627652269	1.2498560111179815	161.08515998473788	1.2305613719125152	162.31041923759176	0.09914813305434222	-0.3230360870693545	0.4221842201236967	74.00218490370636
12	5.0	ltm	432	diff_vonmises	-0.04741353936429667	-2.716595697351591	2.4334493466903706	0.7298991619161282	0.33787510541519344	1.212997882475287	0.1602901003072985	-0.15262397587734972	0.3129140761846482	77.40934736793434
13	5.0	perception	432	diff_vonmises	0.013623617832901008	0.7805758035243926	1.1407183603704703	121.90314039161157	1.1045555039743766	122.57935247374145	0.5786510673810525	-0.35316444786123213	0.9318155152422847	85.3457890303865
14	5.0	wm	432	diff_vonmises	0.06871019405697565	3.9368041289895763	0.7913732025687112	85.69791343935262	0.7652163470938498	86.36905352012157	0.22873516163351937	-0.2446204402204879	0.47335560185400727	99.65830961329456
15	6.0	ltm	432	diff_vonmises	-0.3391035475136239	-19.429202090444633	2.226646108941245	0.790233625355939	1.3440716308753468e-12	1.6349703108482023	0.17460508613717335	-0.2551516056973544	0.42975669183452775	92.01658418992662
16	6.0	perception	432	diff_vonmises	0.27386691441886685	15.69141834447158	0.4953399400399651	4.142305746126414	9.584238406093631e-15	4.94665371876573	0.23116743155858932	-0.4091032007815927	0.640270632340182	151.0876440097773
17	6.0	wm	432	diff_vonmises	-0.26798056401518144	-15.354155309605279	3.1319361968006043	0.6613868582682066	1.364430907110856e-15	1.296067828999768	0.23759850287362	-0.2054304267250158	0.4430289295986358	77.60126822525467
18	7.0	ltm	432	diff_vonmises	0.04236317221360432	2.4272309746254086	1.1432732954796068	186.69165146944536	1.1279834128221586	187.74020623553324	0.14849159299505743	-0.29000860283318275	0.4385001958282402	79.03696020840533
19	7.0	perception	432	diff_vonmises	-0.14967876086088452	-8.575961280076616	2.8139044448170285	1.365751312721478	1.3392813619493297e-24	1.6891367162868383	0.5933731331177963	-0.26573309616558827	0.8591062292833845	81.95922526121569
20	7.0	wm	432	diff_vonmises	0.3416471714471959	19.574941006506773	1.644244514890647	0.7805237680626042	0.09660746962659245	1.7202611290086904	0.05660938692916678	-0.23471783626647735	0.29132722319564414	98.54924407491944
0	1.0	ltm	433	diff_vonmises	-0.3368610117047595	-19.300714253189746	0.00028576226572894943	1432.1302933803838	1.1698168998973682e-32	1434.389821705386	-0.2944773774996463	-0.42474352055842246	0.13026614305877615	176.76461755703082
1	1.0	perception	433	diff_vonmises	0.02905619677708893	1.6647974440288207	9.29241271367501	0.8256735451714897	0.0775625924848127	3.6558782237416163	0.36189230542335804	-0.5957224359664283	0.9576147413897863	43.726152580758225
2	1.0	wm	433	diff_vonmises	0.22762755326882794	13.042098103193167	5.37524756635935	0.22362069021048617	3.7058306781785164e-13	2.815418854513237	-0.24657529027042077	-0.4480835081777554	0.2015082179073346	58.84128003577703
3	2.0	ltm	433	diff_vonmises	0.4598027272835429	26.344755681951796	0.7054030599280444	150.32921783481925	0.6935460413453489	151.39254196684058	0.03845418449718352	-0.2538278771734248	0.29228206167060833	98.16095899630082
4	2.0	perception	433	diff_vonmises	-0.023848534990788692	-1.3664204025422577	8.856712349348049	1.4238018510792716	0.4088480770642882	2.8263968227209073	1.0153103752753334	-0.5101479305905597	1.525458305865893	43.61982911791614
5	2.0	wm	433	diff_vonmises	0.021721023360850168	1.2445229652817815	6.656139699685698	0.4492572676219939	0.004147885777418984	2.3425890951463333	0.07860920542293232	-0.3723870976922432	0.4509963031151755	52.6226539785668
6	3.0	ltm	433	diff_vonmises	0.167928510559086	9.621594914953707	2.908606660998341	0.4100433498757599	0.46437917269479445	0.7135436172318251	0.09251734812174145	-0.0935935184285594	0.18611086655030085	69.44582460403419
7	3.0	perception	433	diff_vonmises	0.041604550154853495	2.383765132413461	3.3088240275308967	2.963515151922856	0.728968423898498	3.3607476488509818	1.0765191171869843	-0.40173362482557706	1.4782527420125615	65.92855139410119
8	3.0	wm	433	diff_vonmises	-0.05996223417918942	-3.435582948642646	3.435216198332739	0.38122724006677283	7.946093600828547e-16	1.2969862902517402	0.06305549185259493	-0.2061419986866803	0.2691974905392752	74.02932746697721
9	4.0	ltm	433	diff_vonmises	-0.6431373055740693	-36.849053256809725	0.774181360519842	120.81716874105794	0.7603896900153739	122.20489373340328	-0.09270484954469538	-0.27561049962048223	0.18290565007578685	85.8556694228922
10	4.0	perception	433	diff_vonmises	0.026976181428903404	1.5456213432553554	3.0328698663844698	2.217487272667287	0.19584733088838485	3.819181260324203	0.7289631917171289	-0.5405494505035132	1.2695126422206422	73.60758078983613
11	4.0	wm	433	diff_vonmises	-0.368469690175304	-21.111758125537975	1.8345106675577587	1.177515895675092	0.0849437598915036	3.498323040079594	-0.028578165383291942	-0.49823206001813597	0.469653894634844	92.89092116366236
12	5.0	ltm	433	diff_vonmises	-0.08227816237731884	-4.714191450312446	1.9377075995839164	0.9317787446370525	0.44163311902287344	1.5955915190473648	0.09519195970201089	-0.1757060958184376	0.2708980555204485	80.21566610107294
13	5.0	perception	433	diff_vonmises	-0.03327100865148954	-1.9062883758735991	2.3860273618971024	2.2897166032792646	0.24131126866485525	3.361764674991744	0.6415892708440477	-0.43235269563275897	1.0739419664768066	81.33388430391898
14	5.0	wm	433	diff_vonmises	0.14826572729451007	8.49500042041304	3.182273390630666	0.8170286338281859	1.8074277662412984e-13	2.0072599286997614	0.23379565144106557	-0.31851266277352913	0.5523083142145947	76.98095582760888
15	6.0	ltm	433	diff_vonmises	-0.4647902759425954	-26.63052117023164	0.6037921072272754	147.52598046655865	0.5925927340179015	148.25151566044585	0.12099415229283039	-0.22910038260221732	0.3500945348950477	111.18485450311739
16	6.0	perception	433	diff_vonmises	0.24265757485458808	13.903254906047747	0.9090226019615416	3.2148019982580456	2.31178496677397e-13	4.132116957497699	0.3853649779152605	-0.4883209540580575	0.8736859319733179	131.8754316233617
17	6.0	wm	433	diff_vonmises	-0.22257218693547046	-12.752446948399257	1.9177801739726938	1.0540925996516857	3.8792658473414027e-16	1.9376380502448174	0.2217495258366004	-0.2969390706786874	0.5186885965152879	98.88405577037061
18	7.0	ltm	433	diff_vonmises	0.3181012570092798	18.22585948443803	0.9303417374787752	107.58075673980841	0.9142267316014057	108.50428415580171	0.029254420298791217	-0.21655888225325448	0.2458133025520457	84.6406672711135
19	7.0	perception	433	diff_vonmises	-0.06769735698002395	-3.878772839145877	2.1030074298653614	1.4948266736798745	6.408617709343762e-16	2.4753753119188526	0.4008988085300175	-0.3821200946889837	0.7830189032190012	94.71001348584349
20	7.0	wm	433	diff_vonmises	0.42157035648603286	24.154202194475253	1.91343097329711	0.515045291669202	0.0060301982960917905	1.9223742886011685	-0.04912524527911549	-0.29847966708628204	0.24935442180716655	98.07047250508612
0	1.0	ltm	434	diff_vonmises	-0.09948790088141488	-5.700236833120935	0.12370449322029985	74.25297380032275	0.11368979283262384	75.54777156933599	-0.10521240009714106	-0.29427420475450106	0.18906180465736	164.55587443775133
1	1.0	perception	434	diff_vonmises	-0.09161300803850753	-5.249038709104566	11.05142986667854	0.8635449946043677	8.749120686372091e-17	2.378259733084073	0.7531062303789025	-0.37851179219187586	1.1316180225707784	40.8074463192315
2	1.0	wm	434	diff_vonmises	0.011316482397979279	0.6483866803382979	6.144454204779585	0.3367858434599993	1.832829865509703e-17	1.8074061146002214	0.03797507673730144	-0.28765611823805026	0.3256311949753517	54.96165870937645
3	2.0	ltm	434	diff_vonmises	0.10360733067444275	5.936262774261882	0.5464921777741133	38.603926835025746	0.5063161454078233	39.383545691857606	0.09771578718356544	-0.24109268276932827	0.3388084699528937	117.61836413113096
4	2.0	perception	434	diff_vonmises	-0.018752331089231355	-1.0744294274449186	6.688170887583303	1.585244118962191	0.41545807570906274	2.53982000267747	1.015695623004956	-0.4283715089305033	1.4440671319354594	49.916077338379864
5	2.0	wm	434	diff_vonmises	-0.02939794327055613	-1.6843780757678861	7.506288105715017	0.4853626813384957	0.2671244328320562	1.741339486291417	0.16537024120287946	-0.2990070318583148	0.46437727306119425	46.79516631273697
6	3.0	ltm	434	diff_vonmises	0.15265664021907357	8.746581199199975	1.1391161897847188	128.4414289419648	1.1222623311439541	128.8509809104369	0.25437149330598174	-0.17987112428399676	0.4342426175899785	84.12138204378374
7	3.0	perception	434	diff_vonmises	-0.0052347056685925816	-0.29992654180356276	2.7447644549344767	3.9115380722666115	0.7331211967118766	4.643002102779833	1.0837361553620035	-0.49357153618182215	1.5773076915438256	70.24680357991144
8	3.0	wm	434	diff_vonmises	-0.054984094085390046	-3.150356531443082	3.220917011369892	0.6548435044964844	0.25990428931369125	1.7013626269237758	0.10121890895904734	-0.24882445586772584	0.3500433648267732	68.26653178101168
9	4.0	ltm	434	diff_vonmises	-0.22136110632137002	-12.68305714056119	4.709034565547595	0.5690492002517838	7.524779478758664e-39	1.9164122611632046	0.17283922251952527	-0.3049676572785655	0.4778068797980908	62.965138656166545
10	4.0	perception	434	diff_vonmises	-0.042236972751317374	-2.4200002780595464	0.9502376946587014	324.76542995481645	0.9318386245562368	326.40073960953066	0.5977036686448685	-0.5826128815339331	1.1803165501788015	90.64312233677498
11	4.0	wm	434	diff_vonmises	-0.35720411164042865	-20.466288021716444	1.227030566348838	188.8016609631735	1.2057656652390247	190.69290607735252	0.020692485772968894	-0.45877773004283284	0.47947021581580174	72.41717903641708
12	5.0	ltm	434	diff_vonmises	-0.09937349779164148	-5.693682018913663	1.7513746195404536	0.8899792607386773	0.2634291238208705	1.162994081018261	0.18681394048735925	-0.12975590046637597	0.3165698409537352	92.48670882477927
13	5.0	perception	434	diff_vonmises	0.020079096346404996	1.1504474770855575	1.0825755619602209	320.4112712101809	1.0687868460101948	320.7748989353836	0.7005278451279082	-0.3333864123472772	1.0339142574751854	88.94887752782842
14	5.0	wm	434	diff_vonmises	-0.0014153180212676147	-0.08109174928744121	1.6245358953030071	1.63207571447129	0.31749080281075825	2.2007767160485394	0.272774451451905	-0.22719709360275	0.499971545054655	92.84478996720983
15	6.0	ltm	434	diff_vonmises	-0.4008714035534718	-22.968239551099565	0.6392857635127905	11.031775602578016	0.5049911139084989	11.539493966048603	0.15372350263302792	-0.20238823290258323	0.35611173553561115	115.8677134170049
16	6.0	perception	434	diff_vonmises	0.07878559095009997	4.514081847884822	1.4415915498031244	1.6915375293337422	1.2065130316308034e-13	2.327691424593654	0.3448059653026919	-0.33043556187087253	0.6752415271735644	112.28289477845513
17	6.0	wm	434	diff_vonmises	-0.012716364072551061	-0.7285939921089672	3.4437905377829003	0.5780229945383327	4.5474711932463325e-15	1.1734912259478636	0.22241209568094886	-0.18634937930408527	0.4087614749850341	73.9311109425982
18	7.0	ltm	434	diff_vonmises	0.14865156641129892	8.517107373376097	1.873933426763445	244.80478885363016	1.862713175671084	245.44964891453878	0.12332206918156885	-0.22631118237113412	0.349633251552703	61.30483326177048
19	7.0	perception	434	diff_vonmises	0.0314050381017143	1.7993761386757718	0.43628355061058344	76.99716617368975	0.39627606062604614	77.96648972235033	0.3465173273825961	-0.47272007327473275	0.8192374006573289	132.38003891209837
20	7.0	wm	434	diff_vonmises	1.7564707978094782	100.63836355245967	8.966464713783182	0.32993760532260813	0.8289386691779403	1.2276539486834164	0.008722915120092933	-0.2696413625634186	0.2783642776835115	39.13859034165898
0	1.0	ltm	435	diff_vonmises	-0.8633644074156404	-49.46713672672951	7.088064430157329	0.16333317868069197	2.6210119396070322e-42	2.206088816552845	-0.18095632944104134	-0.35110982135945523	0.1701534919184139	51.10941852519257
1	1.0	perception	435	diff_vonmises	0.006547124555635462	0.3751226049843765	8.161804384237385	1.0373700143027935	0.180250625227036	3.5903724430640276	0.4841187412456436	-0.6016391305838743	1.085757871829518	45.85494385543126
2	1.0	wm	435	diff_vonmises	0.26876216316512874	15.398937642168272	2.5171769119164447	0.3791644936849744	3.353871442602721e-35	2.922078047549646	-0.24071166203639421	-0.4636023682728007	0.2228907062364065	86.65309579368457
3	2.0	ltm	435	diff_vonmises	0.37503707953661564	21.488041818360248	1.0574111092267962	112.67739554380907	1.040485027034019	113.40091995517669	0.10631962056223898	-0.19944657918273911	0.3057661997449781	82.53682598011468
4	2.0	perception	435	diff_vonmises	-0.006033398118905618	-0.3456882483354619	7.985005225498999	1.4441118370122008	0.4666308915447654	2.474354755692871	1.0055048470726993	-0.44181564819594665	1.447320495268646	45.698843080874525
5	2.0	wm	435	diff_vonmises	0.06122646743300332	3.5080181784062736	5.499097923234942	0.5391064171086902	0.09498655635350395	2.1828447724708697	0.11043735513061465	-0.34723483145624584	0.4576721865868605	55.96172245506051
6	3.0	ltm	435	diff_vonmises	0.2846644285554372	16.310070333729907	17.894506798516545	0.1407188424621225	4.505874050795679e-22	0.39208213611441883	0.17331170359125564	-0.062401810060639024	0.23571351365189466	32.01018814984434
7	3.0	perception	435	diff_vonmises	0.016263764483832013	0.9318450639183381	4.7421668797175816	2.139222245325795	0.6383893233883362	2.6337559731774567	1.084667803325923	-0.39448854836984837	1.4791563516957713	57.26819631289331
8	3.0	wm	435	diff_vonmises	-0.08117674928955243	-4.651085128882958	0.0005274507453710523	1462.3410231613561	2.6379334457783733e-29	1463.418110047566	-0.048651540346128286	-0.29416349174937295	0.24551195140324467	179.78226380670074
9	4.0	ltm	435	diff_vonmises	-0.5648980576601083	-32.36627455906203	0.9005027229698868	118.97891467359999	0.8811069031480557	120.16989696335185	0.059618814015713895	-0.28624449676249064	0.34586331077820454	86.97985575535058
10	4.0	perception	435	diff_vonmises	0.03892953420074392	2.2304980081128214	2.5396464969473667	2.630479762023326	0.3572633490286374	4.095037116814274	0.6620714575960129	-0.5141483194198151	1.176219777015828	76.23920896705295
11	4.0	wm	435	diff_vonmises	-0.3099967260147218	-17.76150406351689	1.2672948062726572	2.5024091352513023	0.20805416553900677	4.986753091508448	0.012957759289079052	-0.5651428418318395	0.5781006011209185	100.39941556355518
12	5.0	ltm	435	diff_vonmises	-0.10470772444230092	-5.999310692962654	1.1227688123029869	48.80291264159214	1.0901818243776569	49.00070302225776	0.22656807888706965	-0.1240671728978171	0.35063525178488675	86.69838553403997
13	5.0	perception	435	diff_vonmises	-0.04332591071626261	-2.482391827602473	1.139245772948605	310.3930230600768	1.123682883120153	310.66685045330127	0.8008366980827333	-0.3451213705504763	1.1459580686332096	87.293501355681
14	5.0	wm	435	diff_vonmises	0.13663467283883285	7.828590088815905	3.1099960195429506	1.0987301993246679	1.742454403850967e-18	1.5402643530423035	0.48934992068555855	-0.24367955122831209	0.7330294719138706	77.88597133503657
15	6.0	ltm	435	diff_vonmises	-0.3819617944532882	-21.88479875741687	0.6555131634757275	104.75867122264073	0.6423482080323893	104.77743575195072	0.2569688568216897	-0.13687928790740855	0.39384814472909824	114.89026711974368
16	6.0	perception	435	diff_vonmises	0.15298843177517374	8.765591455042593	1.1909284005698575	2.382480474701957	5.992054998303505e-20	2.495085915489203	0.5021773608018638	-0.3140288718274204	0.8162062326292843	120.87332489559978
17	6.0	wm	435	diff_vonmises	-0.2193074074630886	-12.56538886359083	2.3557989918215885	1.2279922932919831	9.805036681223812e-14	1.0614758225728513	0.5298076110797184	-0.16265626020503024	0.6924638712847486	89.57151061538981
18	7.0	ltm	435	diff_vonmises	0.18141227891546038	10.394157933706012	1.151812185374112	197.71035614823023	1.1402374947957026	198.58114470628226	0.105441258576775	-0.2355986915041548	0.3410399500809298	78.19784088812816
19	7.0	perception	435	diff_vonmises	-0.04036690653049437	-2.3128533761964083	1.535891052154897	2.463425709275123	0.13581442136273209	3.167599452999534	0.5076032062843913	-0.3879339066264266	0.8955371129108178	103.04583329314877
20	7.0	wm	435	diff_vonmises	0.2877188751545596	16.485077232607704	0.41281514470303476	98.67605617533445	0.39502357286674	99.93840434916923	0.03540503639487014	-0.344862647107572	0.3802676835024421	128.44589646778505
0	1.0	ltm	436	diff_vonmises	0.3098113580633513	17.750883262246376	0.5415610832969461	162.9124327312709	0.527188707009593	165.85396696039197	-0.30096230110569167	-0.538812588719523	0.2378502876138313	97.03960756041934
1	1.0	perception	436	diff_vonmises	-0.002371379704913151	-0.13587004871450212	9.49286797089099	0.8010235617319738	0.041318218396298706	4.151751955722383	0.2825659615187903	-0.6682524889876461	0.9508184505064364	43.53451396291305
2	1.0	wm	436	diff_vonmises	0.15377006891911332	8.81037596450099	6.182948419321712	0.31470296712343354	0.14833938099404675	3.823231376921708	-0.39661445925746713	-0.6379803488339046	0.2413658895764375	48.90558682864855
3	2.0	ltm	436	diff_vonmises	0.10084860741042834	5.778199574389302	0.5209386177178351	125.59695690756146	0.5061944411714666	127.16254099831187	-0.04128358358211415	-0.3482667668018955	0.30698318321978135	111.27920528685496
4	2.0	perception	436	diff_vonmises	-0.056570939190166356	-3.2412760586877596	10.652902303549174	1.1276525267384816	0.18720891920689514	3.126272198543152	0.8553829156509722	-0.5349723914754692	1.3903553071264414	40.6125252355491
5	2.0	wm	436	diff_vonmises	-0.08472304525280708	-4.85427292048173	3.3828506191205134	0.933987973764204	0.21030316854685377	3.60553370568785	-0.04575541959651053	-0.5488191131423025	0.503063693545792	65.92038135765239
6	3.0	ltm	436	diff_vonmises	0.07004157975112847	4.013086910168628	1.1889563998055048	165.86045949392687	1.1748095391728768	166.6421273355118	0.1418657473343714	-0.2275579783761259	0.3694237257104973	78.1473325305993
7	3.0	perception	436	diff_vonmises	0.0021478250730708848	0.12306131181933934	2.0275447382315663	6.282058056588544	0.8414052846246065	7.408136650158702	0.9596968504625218	-0.5653648880673773	1.525061738529899	75.85821444834343
8	3.0	wm	436	diff_vonmises	-0.050097895505971345	-2.870397974979572	2.970810084639884	0.8470264236680394	0.2810749629442324	2.4660153272894645	0.041935647890185335	-0.35774991009799945	0.3996855579881848	68.98223318561645
9	4.0	ltm	436	diff_vonmises	0.27876421378841215	15.972012929358606	1.898907829759692	0.39715887085260543	6.957457689857398e-25	2.2638428495240506	-0.16175004023252984	-0.35585030928771494	0.1941002690551851	99.27357659133807
10	4.0	perception	436	diff_vonmises	0.008495210917393041	0.4867397316400815	1.2623830335908026	9.260654265054857	0.6230977559137422	11.521941180682335	0.5070215421152753	-0.683074205234063	1.1900957473493383	89.57136766266558
11	4.0	wm	436	diff_vonmises	-0.2113538159045488	-12.109681635315619	0.6363366750394474	173.3871292807155	0.6162943147123376	176.20752863499257	-0.09839264457683328	-0.5941043580235927	0.49571171344675946	99.14119427211904
12	5.0	ltm	436	diff_vonmises	0.024542956794758007	1.4062078411115604	1.5437771718670157	2.5190199908843134	0.6146883194614355	3.7479957520875327	0.10456624192433783	-0.3082699520374196	0.4128361939617574	81.23951459686239
13	5.0	perception	436	diff_vonmises	-0.01952292517300676	-1.118581216163	1.854146431248889	2.9733683599613245	0.24424658158578882	4.834803968914102	0.4972176638675141	-0.5802329081043032	1.0774505719718173	89.00417426738096
14	5.0	wm	436	diff_vonmises	0.0645155826077766	3.6964705962532163	2.8984177407647826	0.9559497011820819	0.029792052152217228	2.9249272263982236	0.13438474912891518	-0.45136562286299314	0.5857503719919084	78.78981354266989
15	6.0	ltm	436	diff_vonmises	-0.18452763314581402	-10.572654582793502	0.6172498051434085	143.8685182548599	0.6015858769611708	145.24147080420497	0.06188432258650067	-0.3433370264589666	0.40522134904546725	106.07283539290265
16	6.0	perception	436	diff_vonmises	0.21013993147658963	12.040131180776907	0.16708890965477122	13.981316436977023	4.349440190735914e-09	15.52124047350517	0.1413259551288477	-0.6005626170672345	0.7418885721960822	169.22067435651593
17	6.0	wm	436	diff_vonmises	-0.3272733979903602	-18.75138445175292	0.9946119183986851	1.7395007780005058	4.8830370538463354e-15	3.419194202773707	0.04844499277986758	-0.463107887373244	0.5115528801531115	127.97972893497362
18	7.0	ltm	436	diff_vonmises	1.0665590855198408	61.10933420161951	0.0001294517002469183	6715.648138406453	5.104979363752696e-32	6716.467745527182	0.00792138018323385	-0.2688014739862865	0.27672285416952036	149.12934218216574
19	7.0	perception	436	diff_vonmises	-0.06226836539927845	-3.567714534557102	2.435393746631036	1.4769559067365494	3.189684280516051e-16	2.69850703501039	0.4276064767507012	-0.4229082563521344	0.8505147331028355	88.13975961600963
20	7.0	wm	436	diff_vonmises	0.6635475629056989	38.01847486068805	0.3700870853778809	65.72291559232787	0.3512784339508497	67.35075651445209	-0.13228550145199947	-0.33322218552536853	0.20093668407336907	124.0237259444026
0	1.0	ltm	437	diff_vonmises	0.07954289237148635	4.557472023149519	4.390119234289051	0.44328192488646606	1.2984166587032699e-28	2.7324768569930082	-0.07645356870437797	-0.4348320781466541	0.3583785094422761	65.27276717080233
1	1.0	perception	437	diff_vonmises	-0.07085321457359739	-4.059590160001947	11.728863984742723	0.8845792254045017	0.06430506991298711	3.531203052815202	0.596442836012845	-0.5763819680232404	1.1728248040360854	39.16657672472732
2	1.0	wm	437	diff_vonmises	-0.005756580100594795	-0.32982774419307664	5.087308290756665	0.6723938148374169	0.1157270723694883	3.4422730675291713	-0.024606329730235132	-0.5490924405021177	0.5244861107718826	57.00738669681368
3	2.0	ltm	437	diff_vonmises	-0.05423826415260296	-3.107623624059856	3.341342790163559	0.9310852120334139	0.23733718744195845	2.0171613910399486	0.24673529176666475	-0.29363386662621616	0.5403691583928809	68.74675279612538
4	2.0	perception	437	diff_vonmises	-0.04760483403306017	-2.727556074515093	10.342020890187808	0.8794455742129998	5.142736964607027e-23	2.262956836534175	0.7537170842309299	-0.36016076537930436	1.1138778496102342	42.19963286147066
5	2.0	wm	437	diff_vonmises	-0.12364505878214829	-7.084340025864072	3.9290646281618105	0.8965981536136922	0.28933199095647	2.428695538952041	0.17704541330207302	-0.37166977913001437	0.5487151924320874	62.26451236550207
6	3.0	ltm	437	diff_vonmises	-0.051168952897541094	-2.9317650431328093	2.0009707755495847	1.0470312904529586	1.0767306636026192e-20	1.9175691073195036	0.23511525696081254	-0.29531372215575674	0.5304289791165693	96.99490772590019
7	3.0	perception	437	diff_vonmises	0.008214138058816331	0.4706354431079586	3.823504263696231	2.539484227439689	0.4146707461659786	3.4753784315688137	1.102127595867326	-0.49153621358598715	1.593663809453313	64.38707593174854
8	3.0	wm	437	diff_vonmises	-0.06750277813308946	-3.8676242924340083	2.8551433720637784	0.9986454413590735	8.357348867623933e-15	2.2644836024209756	0.2753926652612832	-0.3582981452768092	0.6336908105380924	81.35722212827682
9	4.0	ltm	437	diff_vonmises	-0.2805856249570586	-16.076372102080036	1.8032864306403655	1.2806866868528357	2.14397226489652e-20	2.741272989631805	0.1841780229905055	-0.41944474166908924	0.6036227646595947	101.67347475454307
10	4.0	perception	437	diff_vonmises	-0.02472923306982064	-1.4168806854960672	1.4124110969783836	7.440384948515465	0.5749444269302016	8.993277226386263	0.7620906041361928	-0.6185802588999931	1.380670863036186	90.0979676995656
11	4.0	wm	437	diff_vonmises	-0.19396538862639331	-11.113398139907156	0.8346318604905917	222.00836906695463	0.818286844486558	223.7788244700483	0.14900433185495388	-0.448684222740912	0.5976885545958659	91.74682033484412
12	5.0	ltm	437	diff_vonmises	-0.024664321548783064	-1.4131615292988395	1.4052545977821882	1.544186649083948	4.3862577421621376e-14	1.7847368335892744	0.3589534828032733	-0.2453545676629456	0.6043080504662189	113.49783878174318
13	5.0	perception	437	diff_vonmises	-0.001232371998242149	-0.07060971428937884	1.0340178002487568	261.2363026042161	1.0174519211337099	261.61738314296963	0.6852761156245037	-0.3370012442984809	1.0222773599229846	90.97424189938997
14	5.0	wm	437	diff_vonmises	-0.04724605849937477	-2.7069997506423658	2.38799931336473	1.33363858867174	7.720810480466763e-15	1.6836819147717526	0.4970487038522492	-0.26151707885035463	0.7585657827026038	89.00213835347833
15	6.0	ltm	437	diff_vonmises	-0.2149398737391019	-12.315147614325335	0.7450311743638424	1.9629854320752413	3.0677239048713603e-12	2.241945731357363	0.2186225287757682	-0.22713363059782934	0.4457561593735976	139.43266534766826
16	6.0	perception	437	diff_vonmises	0.1432181502034084	8.205795556325993	0.4572348892244214	4.4202640708153345	7.967584978101034e-17	4.37228142246593	0.3595678128800548	-0.27292303879703717	0.632490851677092	154.0234186647703
17	6.0	wm	437	diff_vonmises	-0.2427641931878735	-13.909363686563722	0.8352297166262549	101.35336948193192	0.8192131690070279	101.44283739075186	0.28241838061032	-0.14000081577676404	0.42241919638708403	101.93344665303621
18	7.0	ltm	437	diff_vonmises	0.27497546292064673	15.75493349500912	1.3933030650715719	101.85075704498672	1.3707385676342159	102.15187753336458	0.2880496601339786	-0.16602639982964362	0.4540760599636222	76.89588274507895
19	7.0	perception	437	diff_vonmises	0.027659559397477735	1.5847760166668885	0.9932207332056932	5.806266050750232	0.44962803203783797	5.976649294375155	0.5579448556236213	-0.3060452389524882	0.8639900945761094	109.46176910525298
20	7.0	wm	437	diff_vonmises	-0.0690880255354099	-3.9584522780710465	0.91304891639448	1.2758781571972841	3.6489386924202797e-22	1.802292811109788	0.12808097555371495	-0.2200239785703912	0.34810495412410614	132.254751731488
0	1.0	ltm	438	diff_vonmises	0.21588119829000801	12.369081538244304	4.518030691756	0.3761044181450128	1.1602054740644835e-16	1.706475868842008	0.03727718749151848	-0.2715572952473166	0.30883448273883507	64.3173025484823
1	1.0	perception	438	diff_vonmises	-0.0993002722139384	-5.68948650235887	10.300311708883083	0.9507969538518598	1.840914757929014e-13	2.352768511383232	0.8272568022005716	-0.37445473717861066	1.2017115393791822	42.28708685009613
2	1.0	wm	438	diff_vonmises	0.18388075570738982	10.53559123570956	0.9419794262878189	84.14944009723072	0.9083917691838361	85.75066561316342	0.01823782288825626	-0.3649018946844258	0.38313971757268206	83.55261307075895
3	2.0	ltm	438	diff_vonmises	-0.09733931146065163	-5.577131727404743	1.2833062863778126	5.754876099997722	0.879118099779117	6.592226407699339	0.16861427795611394	-0.24574370520569955	0.4143579831618135	82.49611271544552
4	2.0	perception	438	diff_vonmises	-0.02896654700454737	-1.6596608904278813	7.265362769638015	1.3133274642776585	0.20059252806773573	2.1781333490497587	0.9665982597026543	-0.35603849681098315	1.3226367565136374	49.18676104321699
5	2.0	wm	438	diff_vonmises	-0.07022523296828774	-4.023609464405854	6.870520395376852	0.47392180565081804	0.25806363225470885	1.599350140304587	0.16179719855932556	-0.27009645138747407	0.43189364994679963	48.88342131264503
6	3.0	ltm	438	diff_vonmises	0.02332415572649701	1.3363756838341692	0.9893504205917906	173.3004402966976	0.9766184279219493	173.79474214717547	0.25126047472010526	-0.20118336767514045	0.4524438423952457	89.75645256921672
7	3.0	perception	438	diff_vonmises	0.04705135478311267	2.695844049445035	1.4305582292061847	192.33448204969383	1.397816934357868	192.71170608433124	0.9642157168327685	-0.4084931738618707	1.3727088906946392	77.78689335574717
8	3.0	wm	438	diff_vonmises	-0.03576870963273608	-2.04939610058471	2.0770514710123096	2.0127166802201435	0.8507528235586449	2.6964030092835976	0.2174128232675836	-0.22909518735730366	0.44650801062488726	72.47248952484549
9	4.0	ltm	438	diff_vonmises	-0.2109862548448756	-12.088621937882989	4.628834717257369	0.5361019497630504	2.558684636301622e-19	1.6655403097766188	0.1810000306975132	-0.2650364269155425	0.4460364576130557	63.519015330988594
10	4.0	perception	438	diff_vonmises	-0.021705307010094658	-1.2436224847141437	1.0471007332494735	446.58595318675435	1.033801569963178	447.97741297055654	0.634915272399013	-0.5346641580033875	1.1695794304024005	86.8103749602208
11	4.0	wm	438	diff_vonmises	-0.37130684315161144	-21.27431501691337	1.2049729071120192	118.58411349425384	1.1798738274443465	119.78704740440078	0.09879740690415417	-0.31408772748429037	0.41288513438844454	75.5891227574259
12	5.0	ltm	438	diff_vonmises	-0.024683586854788515	-1.41426535002398	2.0446551806770787	0.6487952709100028	1.182725901541596e-13	1.0692373268889543	0.1690043811426463	-0.16449228882080016	0.33349666996344646	96.00741991294683
13	5.0	perception	438	diff_vonmises	0.01334971018934801	0.764882051572432	1.6558668744004217	4.160047551545172	0.6642186913508051	4.621073763012938	0.6299941263520861	-0.31902401553416593	0.949018141886252	85.64336169256293
14	5.0	wm	438	diff_vonmises	-0.00576688193333166	-0.3304179957301487	0.7817914625810533	47.96251905646599	0.7363333720089731	48.52885678749329	0.2511722396739362	-0.23437080298367396	0.48554304265761017	101.90831873465467
15	6.0	ltm	438	diff_vonmises	-0.36964027577816205	-21.178827740140516	1.3390899972098553	0.9605545698359759	2.292359672636621e-17	1.6336473696947738	0.128583278805675	-0.23331146730172878	0.3618947461074038	115.10918997197723
16	6.0	perception	438	diff_vonmises	0.19390255309609886	11.109797929217818	0.6791562036698522	2.990493109769816	3.3104231335515197e-18	3.4583878133338444	0.2886735439041075	-0.3346929503430689	0.6233664942471764	142.57000821001515
17	6.0	wm	438	diff_vonmises	-0.23369828844650725	-13.389925607415794	2.5665702705226843	0.5249128458793053	1.9107400795203922e-16	1.0462923412704959	0.14762549207742418	-0.164669529692045	0.3122950217694692	85.8325272321834
18	7.0	ltm	438	diff_vonmises	0.16499032936844402	9.453249533285199	1.174069858999963	177.08577568479726	1.1593649862380002	177.92629215255593	0.17095167674892764	-0.2500837280497237	0.4210354047986513	79.05993307740297
19	7.0	perception	438	diff_vonmises	-0.09197629207891019	-5.269853351384098	2.370010321163041	1.5199995326522704	6.8583833771279714e-15	1.6965349415700925	0.5980153912071283	-0.262426296301304	0.8604416875084323	89.33139000320949
20	7.0	wm	438	diff_vonmises	0.06214820048927228	3.56082959236818	0.38468235252127886	1.9367127553722638	2.1234515037864266e-17	2.6793202415655015	0.010114182082551104	-0.2241697399236699	0.234283922006221	158.23994946575777
0	1.0	ltm	439	diff_vonmises	-0.030309976085984583	-1.7366337068693707	0.177742471252813	17.284054425928716	0.12208639388964446	19.775500799437516	-0.28271708451178634	-0.49048710584706745	0.2077700213352811	158.42909033052376
1	1.0	perception	439	diff_vonmises	-0.042458599105639885	-2.4326985327910973	12.63933920539452	0.7007148374631802	3.136967241014836e-20	3.672253018150235	0.39881997404235214	-0.5844572201123998	0.9832771941547519	38.141296195514514
2	1.0	wm	439	diff_vonmises	0.02026609201581436	1.1611615397299375	5.235050561797376	0.4267816758102593	0.08706718733607612	3.081975767090997	-0.15489385407117295	-0.49292588847956614	0.3380320344083932	56.164818540510424
3	2.0	ltm	439	diff_vonmises	0.05907131077980777	3.3845367979886287	0.7415251377286298	1.6767335819360052	3.2891760468202693e-12	3.132776017729818	-0.008195548725800361	-0.3872992618486111	0.3791037131228107	140.05458121364438
4	2.0	perception	439	diff_vonmises	-0.05187300104832673	-2.9721040307468165	10.190025751408815	1.2022651696499844	0.23669570296290818	2.909862938928691	0.9327261250948286	-0.5051717303283674	1.4378978554231958	41.37040602226156
5	2.0	wm	439	diff_vonmises	-0.06652078453973727	-3.811360204026042	6.48427556570059	0.5186057330519415	0.018170418515190394	2.4158732260317057	0.12430802885204117	-0.3837264114708102	0.5080344403228514	52.994333139266416
6	3.0	ltm	439	diff_vonmises	-0.04183319284405007	-2.396865393520946	1.043133536735413	126.76479918793693	1.0249870962330419	127.52498856736199	0.17041551142430933	-0.22946349961124568	0.399879011035555	84.58890013455837
7	3.0	perception	439	diff_vonmises	0.02636912302346426	1.510839458705751	2.6461638832771768	3.838577443042387	0.5955341242760902	4.627243946235431	1.113670231290876	-0.5101349399543721	1.6238051712452481	73.01136563114264
8	3.0	wm	439	diff_vonmises	-0.11050437554895047	-6.331434336683512	3.0829428052015864	0.8807898232653428	0.232446877732029	2.037443387395314	0.18221510768732269	-0.2932382083140144	0.4754533160013371	70.84149851931267
9	4.0	ltm	439	diff_vonmises	-0.10054932909119824	-5.761052189797648	0.6105388605034078	1.3307652091565028	2.533254154043126e-15	3.13442910001396	-0.14281325084764268	-0.39385628717482496	0.2510430363271823	146.38729162351416
10	4.0	perception	439	diff_vonmises	-0.028768456983740205	-1.6483111682719722	2.770638811436225	2.2947187684059283	2.383228908055274e-15	4.1291533583319024	0.7786377526915782	-0.6515440203318917	1.4301817730234698	82.60935416113776
11	4.0	wm	439	diff_vonmises	-0.2728580064699178	-15.6336121770796	0.8447260624836378	104.29685481828227	0.8120769123771354	106.45245038504899	-0.009455070756246187	-0.47566452394206316	0.46620945318581697	87.63694582801814
12	5.0	ltm	439	diff_vonmises	-0.00604765472787711	-0.34650509185969675	2.2246625337371952	0.6423923794545802	2.72800196067532e-15	1.6826257312659196	0.08549175728507047	-0.26366916044614624	0.3491609177312167	92.16594734944258
13	5.0	perception	439	diff_vonmises	0.0215137932391974	1.2326495539230955	2.67702911739392	1.701319939533675	0.03138935102163976	3.1502543197312374	0.526325803192374	-0.48088684528004044	1.0072126484724144	82.63677616100242
14	5.0	wm	439	diff_vonmises	-0.04476123528721904	-2.564629867749702	0.7358957851774164	52.11641310476532	0.6827712998449122	53.500877714192	0.13844671850851853	-0.36865292134180905	0.5070996398503276	99.97683244084773
15	6.0	ltm	439	diff_vonmises	-0.40205990792462676	-23.036335835499596	0.400009936845142	132.28476928866368	0.3868137878840516	133.53317195424134	0.03790491171218591	-0.34527918508893585	0.38318409680112175	129.39679271473054
16	6.0	perception	439	diff_vonmises	0.23103387551153082	13.237265991361578	0.6707046170608488	3.9227201294951564	4.564248299864509e-16	5.287602744955912	0.25279952415395646	-0.5553981657556089	0.8081976899095653	142.7624275107589
17	6.0	wm	439	diff_vonmises	-0.0853365480276638	-4.889424040200585	1.7341372299292122	0.8687783494713873	2.265278828076914e-18	2.2800918940855524	0.048117876480927524	-0.35007644622091527	0.3981943227018428	103.64604894829976
18	7.0	ltm	439	diff_vonmises	0.2941425061552419	16.8531241780962	1.239789984771325	103.90817179984055	1.2213242671806346	104.68890873290032	0.05370594124489969	-0.2026294144739591	0.2563353557188588	73.96623298137149
19	7.0	perception	439	diff_vonmises	-0.017757862009741034	-1.0174505463338632	1.5962119569428643	1.7314451401697555	2.54192358402735e-20	3.030192984723227	0.2965563353365557	-0.4502820725179343	0.74683840785449	107.54882010161916
20	7.0	wm	439	diff_vonmises	0.31724187102952767	18.176620294825515	0.0008913566696978879	414.41374311799825	2.214507462733929e-22	415.6585038941442	-0.13930669649843708	-0.2568867634131635	0.11758006691472644	176.77215965726396
0	1.0	ltm	440	diff_vonmises	0.21703573324457187	12.43523151844114	4.449585482575912	0.4826078512794898	7.098830631465672e-17	3.4370765728996195	-0.15395137671918052	-0.5469740568589866	0.39302268013980607	64.82243941595354
1	1.0	perception	440	diff_vonmises	-0.07673374586789283	-4.39651978445968	9.075956130669692	0.9338056348912249	1.071774661659632e-16	3.821823174752309	0.4974982333715927	-0.6082620354114614	1.1057602687830541	45.08409035626519
2	1.0	wm	440	diff_vonmises	0.048462673416707326	2.776706650698179	1.694605324018164	2.1062890237665237	0.3724811722758217	5.5513684233521525	-0.2563897361503522	-0.673371533199808	0.4169817970494558	77.52812473630763
3	2.0	ltm	440	diff_vonmises	-0.04438654348322384	-2.5431616087626345	0.9813786054375899	115.790722312035	0.9531812827379589	117.40464229780494	0.08206380888496767	-0.3903705686605985	0.47243437754556616	83.32559887746345
4	2.0	perception	440	diff_vonmises	-0.05034781144662531	-2.884717103612086	8.39708657674779	1.1940044384728372	0.10724847939793221	2.7810339844465823	0.8672005469628483	-0.4524321389134674	1.3196326858763157	46.12150668511441
5	2.0	wm	440	diff_vonmises	-0.008035964767378978	-0.4604268654866438	5.3189474405010495	0.6124964448550028	0.09026362900387205	2.6615765267279614	0.08610295275395163	-0.42266685360486234	0.508769806358814	56.79778231030812
6	3.0	ltm	440	diff_vonmises	-0.011709918502666387	-0.6709289086449365	0.761426714872507	112.33663397082351	0.736292631619445	113.67874939389152	0.14777320627792534	-0.3591351929747013	0.5069083992526267	97.46771747057753
7	3.0	perception	440	diff_vonmises	-0.00432062842130349	-0.24755377338496173	3.158051078572271	2.4936007004054437	0.2007771444269055	3.7855828889537064	0.9523577185937442	-0.5350183067026414	1.4873760252963857	72.67993586646662
8	3.0	wm	440	diff_vonmises	0.029303972892054626	1.6789939696805032	3.013201764088128	0.8967491334701951	0.14719609415298124	2.6724157246907194	0.09865862535575665	-0.3954753844290765	0.49413400978483313	72.64104442858735
9	4.0	ltm	440	diff_vonmises	-0.0186142220406511	-1.0665163618487028	0.6226386466408043	2.3178915170652896	1.4492882875749055e-13	4.279930452415633	-0.055700026486687926	-0.5011228765328078	0.4454228500461199	145.91251423674169
10	4.0	perception	440	diff_vonmises	0.0026116009600757576	0.1496337127846547	0.8340152804673049	478.47642554998015	0.8205651557287887	480.8593272646254	0.4957089081629249	-0.7212493378988398	1.2169582460617647	94.73368033245194
11	4.0	wm	440	diff_vonmises	-0.1765522047301686	-10.115696194768311	1.1269768435176184	3.375684726660857	0.2722437297657463	6.184406394220469	-0.03457668919701251	-0.6174057242871771	0.5828290350901646	100.0027543167324
12	5.0	ltm	440	diff_vonmises	-0.015066608683742518	-0.8632530891536028	1.9610343677384807	1.1394584774637762	0.010253447259360107	2.2567115458178897	0.21801273527158754	-0.3439921427398804	0.5620048780114679	97.29701907985427
13	5.0	perception	440	diff_vonmises	-0.002460701612291146	-0.1409878170253197	1.3825702894781775	5.220193117400773	0.4800361068432168	6.428963344601137	0.5902930953852685	-0.48995958492870495	1.0802526803139734	93.45173263124664
14	5.0	wm	440	diff_vonmises	-0.0374048166322409	-2.143138126488149	2.0617061797698186	1.3393651785958571	1.0537893571256669e-10	2.630691277633177	0.28505728717613726	-0.4072943248326385	0.6923516120087758	95.62058240153254
15	6.0	ltm	440	diff_vonmises	-0.1579629820253709	-9.050612189354638	0.6569619355265945	2.2020193706911653	1.0303582009764498e-14	3.2042688411107703	0.09858344205741243	-0.3464168497665162	0.44500029182392864	143.89328713367934
16	6.0	perception	440	diff_vonmises	0.1164142858567736	6.670047254622638	0.2579410170408386	8.26078776112074	3.353407007518381e-11	9.307366704325645	0.1923500134768139	-0.48217163404098007	0.674521647517794	164.95689310874053
17	6.0	wm	440	diff_vonmises	-0.25441602565217314	-14.57696451036161	0.5676406104064072	160.19991732707135	0.5534742205347403	161.29957692909488	0.14533028638763312	-0.3357583696167392	0.48108865600437234	114.13310016786161
18	7.0	ltm	440	diff_vonmises	0.21376857717649278	12.248037264729652	0.8655914639903788	81.1673717500455	0.8391866939024832	82.39514487243666	0.0269303333305686	-0.2825595571321511	0.3094898904627197	87.76040259264147
19	7.0	perception	440	diff_vonmises	-0.03224989009793801	-1.847782592372593	1.9503754893425782	2.682457591318947	0.2501113474098747	3.92905730577444	0.5723380916895456	-0.47028221259000214	1.0426203042795477	88.04556007174392
20	7.0	wm	440	diff_vonmises	0.765091083339309	43.83649001843434	0.0003442730529820074	2258.900782647047	1.1063878721397493e-31	2260.4629464461755	-0.12484453887941527	-0.37238633698933654	0.24754179810992127	163.259730402431
0	1.0	ltm	441	diff_vonmises	-0.032074171349061605	-1.8377146496806558	0.7272232861847954	1.1757373618103704	1.8132559329263123e-26	4.782939660693873	-0.42055985152164327	-0.6816718248674795	0.2611119733458362	140.78851131457446
1	1.0	perception	441	diff_vonmises	-0.03356698688461564	-1.9232466794594636	10.526828798441725	0.7650542154418535	3.869975675314442e-18	4.661651716111213	0.2360241403787764	-0.7419249128891077	0.9779490532678841	41.81786528530316
2	1.0	wm	441	diff_vonmises	-0.02017723759219249	-1.156070556265337	2.628383381551561	1.0511227713781377	0.1581029927692308	4.887174257319859	-0.2674735604904893	-0.7269277804270403	0.459454219936551	73.09337548094118
3	2.0	ltm	441	diff_vonmises	0.0961167835611345	5.507086038425418	2.043799871328217	1.0904082053513022	0.15181402202587607	2.8285059473313026	0.04892540450902505	-0.3886463671664606	0.43757177167548567	85.67691373087825
4	2.0	perception	441	diff_vonmises	-0.053957997961906416	-3.0915655541927354	9.681678379273585	1.2208780973377777	0.2107675661084485	2.9330557763832528	0.9249318455878389	-0.5011743226780104	1.4261061682658493	42.51302506652314
5	2.0	wm	441	diff_vonmises	0.023119679951575274	1.3246600849184866	5.543903399260801	0.6209108424419811	9.248786412635434e-19	2.5833527757812598	0.1575464177203833	-0.4111446626573349	0.5686910803777182	57.923335395495826
6	3.0	ltm	441	diff_vonmises	-0.1964362802457598	-11.254969801331102	1.4670424120690577	0.9885190166056363	9.238760573395732e-18	2.244372550525694	0.06525205298401249	-0.33473644196210983	0.3999884949461223	111.36147478679872
7	3.0	perception	441	diff_vonmises	0.019658915749566748	1.126372902253438	4.562424826928291	2.024469170488038	0.04745729814862463	3.1158301136577826	1.1517700630367491	-0.4842203320463327	1.6359903950830819	63.20020532950184
8	3.0	wm	441	diff_vonmises	-0.01836387612323988	-1.0521725973627092	2.7705070603620774	0.8058911137764988	1.3849575971920401e-15	2.337287773043606	0.1322696484074427	-0.3700129123113412	0.502282560718784	82.60926606479521
9	4.0	ltm	441	diff_vonmises	-0.24297266134677806	-13.921308032231815	0.0003599893092419439	3667.7134221228107	2.8541741575309603e-29	3669.868999383441	-0.1329138059147681	-0.5531899229569035	0.4202761170421354	178.29699951226831
10	4.0	perception	441	diff_vonmises	-0.006903771809400241	-0.3955569874000296	2.6290741808988196	2.5417519970487965	1.4316402221888536e-15	4.698434249462705	0.7949182337949497	-0.7397483927361272	1.5346666265310769	84.82665906113161
11	4.0	wm	441	diff_vonmises	-0.18106419197353682	-10.374214021030175	1.641410512109982	1.6140581399108789	2.09097656979352e-15	4.632634277593721	0.0011310134805788685	-0.7095968577170848	0.7107278711976637	106.1575162718238
12	5.0	ltm	441	diff_vonmises	-0.10129293957171887	-5.803657931933175	0.9738533419764626	2.425380635948976	0.12226997308467144	3.7415529770784373	0.14633705274815612	-0.40851574223351267	0.5548527949816688	120.71209954465392
13	5.0	perception	441	diff_vonmises	0.010189919747747142	0.5838393951229237	2.4786561161451552	1.8716123939931575	2.2815177701335144e-11	3.315365230683654	0.5697812427871486	-0.5199387883195217	1.0897200311066704	87.370182344179
14	5.0	wm	441	diff_vonmises	-0.06649458688951365	-3.809859189235069	1.7522550873433769	1.5294136991183276	3.1563402717433576e-22	2.842302698378535	0.275763772680447	-0.43047741680588086	0.7062411894863279	103.16696062424246
15	6.0	ltm	441	diff_vonmises	-0.21837282436006517	-12.511841196183346	0.17926436571130033	8.05922394596063	4.3620949377800037e-07	9.129948336561867	0.06915881220877029	-0.38947033746922677	0.45862914967799706	168.64673450380297
16	6.0	perception	441	diff_vonmises	0.2044249017157294	11.712684095687957	0.4900798566498083	5.6596255096917485	6.342584399135629e-14	6.954539112292144	0.27910344993825276	-0.5867624969241717	0.8658659468624245	151.92946704838388
17	6.0	wm	441	diff_vonmises	-0.19234714307611644	-11.020679499660467	0.5681296789060005	98.41461330211447	0.5418214333217247	99.66207522324395	0.17004127728004548	-0.38544030188883127	0.5554815791688767	114.83974665107631
18	7.0	ltm	441	diff_vonmises	0.3714531152020613	21.282695788064874	0.9432678070249318	131.46608930531633	0.9265393290391847	132.78824916894524	-0.015322334137643168	-0.2921457181000058	0.2768233839623626	81.83314113885157
19	7.0	perception	441	diff_vonmises	-0.0074247552417465645	-0.4254071392697134	2.3831351981484272	1.6698658343080506	6.32135969618114e-16	3.475470789057955	0.40355867274372137	-0.5449938158890527	0.9485524886327741	89.09488086866119
20	7.0	wm	441	diff_vonmises	0.7759733409752206	44.45999745254609	0.0003596635095786287	1993.6892537237943	1.3688092382266688e-28	1995.356599340455	-0.15123650612343909	-0.3794755670140262	0.2282390608905871	162.81424559891815
0	1.0	ltm	442	diff_vonmises	0.24713812446211228	14.159971488457883	3.2088338710954782	0.40592076511630065	3.8019655799918603e-19	3.0062438278556556	-0.20226308795781894	-0.47800767623994883	0.2757445882821299	76.64388475567921
1	1.0	perception	442	diff_vonmises	-0.05673111152588057	-3.250453257518936	8.576133680502629	0.9564719389996671	0.03736709315365313	3.6006749155756275	0.5054373015311492	-0.5766112993375571	1.0820486008687062	45.946160852629845
2	1.0	wm	442	diff_vonmises	0.040655736152117386	2.3294020945137675	4.8376913991603026	0.41913389973654025	0.0694927475218879	3.6609527284077394	-0.26676454340622824	-0.5827213211781566	0.3159567777719283	58.269964288676675
3	2.0	ltm	442	diff_vonmises	0.05785288368454662	3.314726067785781	0.949602951225779	138.8735391086595	0.9307940051683304	140.1959448177013	0.06183265893644574	-0.31725117077107967	0.3790838297075254	84.41552025910678
4	2.0	perception	442	diff_vonmises	-0.033522261075135014	-1.9206840793409177	7.712238863319651	1.3249794200809564	0.2043627052920482	2.8179030454458514	0.8980777275605083	-0.4675985449251763	1.3656762724856846	47.52010681422368
5	2.0	wm	442	diff_vonmises	0.02537852816635397	1.4540825541859665	4.473028016752101	0.7200138507164883	0.17541053385221886	2.9311653042033443	0.03639514352413342	-0.46322057461485794	0.49961571813899136	59.58814652995707
6	3.0	ltm	442	diff_vonmises	0.1706923609537737	9.779951877774879	1.7578377940649201	1.4603680198026163	0.3601271236997347	2.5068165102300357	0.1427768657648253	-0.27589579416874177	0.41867265993356706	85.48575349136104
7	3.0	perception	442	diff_vonmises	-0.021492312510506848	-1.2314187988282612	3.4181537449983805	2.5039476021624205	0.3141720641926081	3.8404282703079318	0.9486109985037843	-0.5386479180986744	1.4872589166024586	68.34228417902324
8	3.0	wm	442	diff_vonmises	0.1293717180752337	7.4124534340672374	3.6014545495731567	0.4858672777721128	8.28581645067899e-15	2.47185786051513	-0.04082305693323435	-0.3931458775854986	0.3523228206522643	72.25429582368884
9	4.0	ltm	442	diff_vonmises	-0.0006056302097305319	-0.03470005496318236	0.920024826850644	1.467320624512723	3.765698131453961e-15	3.3009827940573575	-0.04623657755822019	-0.44927710513443697	0.4030405275762168	131.98921272943724
10	4.0	perception	442	diff_vonmises	0.025332392060206765	1.4514391500205641	0.8646925659926336	504.31004810406097	0.8526130784382101	506.70067826969887	0.4121469703464129	-0.6851608080465752	1.097307778392988	92.23778203663755
11	4.0	wm	442	diff_vonmises	-0.1984709541390709	-11.37154802810328	1.0945184894550983	3.6239201181570206	0.2674203063434112	6.923707848501925	-0.11157646780217312	-0.6959120191964118	0.5843355513942387	99.86778847366884
12	5.0	ltm	442	diff_vonmises	-0.019777996736003903	-1.1331957401965416	0.9423548273632013	67.92819719887281	0.90441760586108	68.69659222516061	0.24156895918711996	-0.2596539346246729	0.5012228938117929	90.98389179488865
13	5.0	perception	442	diff_vonmises	-0.017945631172929605	-1.0282089269072716	0.923048516520609	404.4787377468179	0.9101170458348958	405.4468290340992	0.6810543101979363	-0.47510292338395743	1.1561572335818937	94.04692738887891
14	5.0	wm	442	diff_vonmises	0.02836903893826569	1.625426200004918	2.5136671477218706	1.2317433494743564	3.1074839867491073e-13	2.451693695427393	0.3380316432584786	-0.38542418388202515	0.7234558271405038	86.75783302012178
15	6.0	ltm	442	diff_vonmises	-0.15088548931946763	-8.645101727771754	0.8506218263014284	1.6869126230088418	3.1161492526281497e-14	2.348640607229288	0.1547180527292028	-0.27736348484810003	0.43208153757730283	134.85003807345885
16	6.0	perception	442	diff_vonmises	0.03495763373015095	2.002924874501818	0.6625971455291249	3.247911307325488	8.34343662003953e-12	4.128648128281024	0.24399186674924866	-0.41762979667529865	0.6616216634245473	143.89964573454967
17	6.0	wm	442	diff_vonmises	-0.19057775258768717	-10.919300892362878	0.9701773864963145	4.6585203760291805	0.450899351443199	5.540594920613546	0.24911378915935933	-0.31163079850614883	0.5607445876655082	104.6822224229183
18	7.0	ltm	442	diff_vonmises	0.12356093501183768	7.079520088868546	1.1164212628650103	120.31828657209391	1.097727281223256	121.39259949928866	0.033878287471949875	-0.2594811465301632	0.29335943400211306	76.90343259103201
19	7.0	perception	442	diff_vonmises	-0.028369823194970768	-1.6254711346041737	0.853620970624715	261.30945295415813	0.8345464521457845	262.61730843386573	0.5454476067604048	-0.5058379403885027	1.0512855471489075	96.33070934260161
20	7.0	wm	442	diff_vonmises	0.6908516522919321	39.582883945967154	0.0007867206642629589	1059.795922792493	2.5980975803006985e-21	1061.478390669827	-0.13505294741966622	-0.4004410187039298	0.26538807128426356	166.1508430724489
0	1.0	ltm	443	diff_vonmises	0.10914741341853441	6.25368613365159	3.2369593814358972	0.5852231439750234	2.041121598570443e-28	4.04600523074618	-0.24379104810136076	-0.6433241939059761	0.3995331458046153	76.31182087869738
1	1.0	perception	443	diff_vonmises	-0.06870809614767776	-3.9366839276410057	14.651706156028716	0.7212212918636904	1.469737243337897e-22	4.504720195362856	0.374685667312619	-0.716948486337682	1.091634153650301	35.3934220602419
2	1.0	wm	443	diff_vonmises	-0.06618085955295988	-3.791883936932657	3.6941027258793544	1.029587472564236	0.23681558997444044	4.897076231061204	-0.2161789956365182	-0.7682531046735949	0.5520741090370767	61.6503121468983
3	2.0	ltm	443	diff_vonmises	-0.10683764481406963	-6.1213461409639365	3.0790084037792522	0.8577322156458238	0.02032829305096413	2.671141770111113	0.1363316545001934	-0.41604900771479475	0.5523806622149882	76.98182911381286
4	2.0	perception	443	diff_vonmises	-0.07944096625249836	-4.551632086709359	12.678173928059243	0.8552165837650977	6.767263852969826e-19	2.8080338972105383	0.7550176673484335	-0.44691247509895876	1.2019301424473923	38.08321256427422
5	2.0	wm	443	diff_vonmises	-0.11187988186731807	-6.410245043419553	4.266404238161762	0.8429225381773651	0.12349881788934575	2.97929971276522	0.13668063724355906	-0.46381728090632945	0.6004979181498885	62.50678672958597
6	3.0	ltm	443	diff_vonmises	-0.12107471396075843	-6.937070115705125	2.2830005604224164	1.172870131592708	3.7577211513183796e-11	2.740929547125394	0.21886121995122026	-0.4294198446372704	0.6482810645884907	90.98904904486749
7	3.0	perception	443	diff_vonmises	-0.012182194292387186	-0.6979883181621461	3.667959493399036	2.5397848030045926	0.16798675686446568	4.105231104046195	1.09444518542377	-0.6052648074299736	1.6997099928537436	68.24988402445865
8	3.0	wm	443	diff_vonmises	-0.0756459651251844	-4.33419453886688	2.935827285665863	1.2297444426622037	0.10438475309369287	3.129045958272632	0.24421277690433163	-0.4638362132092968	0.7080489901136284	75.6184533297349
9	4.0	ltm	443	diff_vonmises	-0.11497928234385825	-6.5878276097461415	0.3082286004771561	5.68589364416865	3.87050547194995e-18	7.895743141760917	-0.05376471328061916	-0.6072560459459968	0.5534913326653776	162.2790509159554
10	4.0	perception	443	diff_vonmises	-0.06088773223514585	-3.4886100811965117	2.029979074238088	3.0309130677395513	1.4854288537277175e-12	5.263950271094651	0.7398195112355404	-0.810566441161983	1.5503859523975234	96.33579520892687
11	4.0	wm	443	diff_vonmises	-0.0942023717778963	-5.397398322995755	0.6701029846431218	182.45080214059854	0.6482627981208492	185.02584658816983	0.050398896403663684	-0.6015893583053327	0.6519882547089964	100.41669572850414
12	5.0	ltm	443	diff_vonmises	-0.0072322039534172015	-0.4143747631086343	1.4442216556863319	1.7760596493651195	4.189506434117281e-16	2.9336781484617718	0.28493778531905617	-0.4250563028854705	0.7099940882045267	112.23040257413169
13	5.0	perception	443	diff_vonmises	0.016461285520824123	0.9431621857030335	1.4931450880063806	3.967755416401676	0.3582605720346428	5.344372541119357	0.5349682793167219	-0.5073912286252051	1.042359507941927	94.03485574272614
14	5.0	wm	443	diff_vonmises	-0.10049798278696839	-5.758110263271684	1.9211228826938567	1.8136295193291256	0.14186555958256303	3.050997585908318	0.35630329968382646	-0.402729192363065	0.7590324920468914	91.63210973016567
15	6.0	ltm	443	diff_vonmises	-0.17274859518896424	-9.897765421141608	0.7539224053209495	2.266967859378976	5.53130610462182e-16	3.3397486173795836	0.1368671780290589	-0.3835613104704205	0.5204284884994794	139.20002774312792
16	6.0	perception	443	diff_vonmises	0.1732572579970001	9.926909653237336	0.0005498509278613229	4165.0137406903405	6.262125352539219e-30	4165.88099529736	0.22650851114224224	-0.5024640200857675	0.7289725312280098	178.93027556346118
17	6.0	wm	443	diff_vonmises	-0.20598955781094316	-11.802332286333124	0.586690622949672	219.21852944161864	0.5762915360059387	220.26098158121158	0.1584979644660791	-0.3248012064447323	0.4832991709108114	112.511636880441
18	7.0	ltm	443	diff_vonmises	0.33814599501049386	19.37433837335309	1.2454284067294914	79.47882290336712	1.2183021245047416	80.08482544254521	0.1644937724934188	-0.19510389736353062	0.3595976698569494	77.76967240688259
19	7.0	perception	443	diff_vonmises	0.03122800881312587	1.7892331075894514	1.8213774206236024	1.8810243065220125	1.206355195154949e-13	3.055155097377361	0.4306124356684323	-0.46223905553902855	0.8928514912074609	101.36184800526993
20	7.0	wm	443	diff_vonmises	0.3256311439134681	18.657290224258848	0.000600948160091329	1151.0853327326317	1.3522961821945857e-28	1152.172679071046	-0.06294772212999078	-0.28313228899142473	0.22018456686143395	176.628907976329
0	1.0	ltm	444	diff_vonmises	0.15926904984700982	9.125444363292392	0.36111906035775065	76.64586717799759	0.3423973666495224	79.3363522305491	-0.3254520912331529	-0.4789610963442943	0.1535090051111414	114.67215470291964
1	1.0	perception	444	diff_vonmises	0.025907736169216534	1.4844039392345385	7.814337198935769	0.9944015344696299	0.1286699885445425	4.060624645445604	0.35778075724786407	-0.6676282375870431	1.0254089948349072	47.05628884402009
2	1.0	wm	444	diff_vonmises	0.2532556473659287	14.51047973192118	4.826211432798042	0.24548630176155897	0.017992248470598864	3.695044865989908	-0.38986220722661485	-0.5864349730118003	0.1965727657851854	60.13531923107132
3	2.0	ltm	444	diff_vonmises	0.26671584163381246	15.281692054897102	0.91651289104731	139.06895935522402	0.9016001871286802	140.1857140918543	0.0340607304024374	-0.26113926584093683	0.29519999624337423	85.23412633117175
4	2.0	perception	444	diff_vonmises	-0.022611419531572276	-1.2955389079587682	8.473405498304446	1.340635833933058	0.3022077621666469	2.842742997720528	0.934016651250372	-0.49262542253509506	1.426642073785467	44.94085610840335
5	2.0	wm	444	diff_vonmises	0.08461659715528567	4.848173893756557	2.8117261475265343	1.0447753455868174	0.24074392970916048	3.379487339657316	-0.01513367048917369	-0.4909652805760778	0.4758316100869041	70.80405065912896
6	3.0	ltm	444	diff_vonmises	0.3001849523937967	17.19933084550009	7.962090441620801	0.21761395772384332	4.44997421428291e-32	0.7259710793126378	0.1253219746925066	-0.11554185657084731	0.24086383126335392	48.17354036292227
7	3.0	perception	444	diff_vonmises	0.017223498010775475	0.9868337444694035	3.793982686865059	2.3753083484181587	0.506232954435672	3.1984459238373386	0.9812245013986778	-0.4451205666334104	1.4263450680320882	63.65669325403596
8	3.0	wm	444	diff_vonmises	0.21424980838709443	12.275609782067098	1.7561378754661099	0.6307828473277047	0.05442127945181874	2.121359732187915	-0.05553630156323969	-0.31058362772521286	0.2550473261619732	96.76443902423847
9	4.0	ltm	444	diff_vonmises	-0.3395801213620907	-19.456507760588085	0.5099784554604482	89.61734103437101	0.49347565606339816	91.1600346069855	-0.10227959864286262	-0.31058580957602544	0.20830621093316282	107.816156345124
10	4.0	perception	444	diff_vonmises	0.05558193140246845	3.1846100865470985	1.2194485131605528	18.754341762078734	0.8917768948097555	20.778525469140504	0.5045740163126995	-0.6274391718905201	1.1320131882032196	84.20024058889783
11	4.0	wm	444	diff_vonmises	-0.3448364252623657	-19.757671789911996	0.7829542005738056	3.7779801722586743	0.12210347741520472	6.9953712859822375	-0.11840595565153444	-0.7446418601655622	0.6262359045140278	125.15562924411836
12	5.0	ltm	444	diff_vonmises	-0.042006052851065075	-2.4067695423695077	1.0706524069715497	95.5699657526514	1.0473676730156773	96.23219612683079	0.18633693262751194	-0.2130545481723658	0.39939148079987774	84.3396806441574
13	5.0	perception	444	diff_vonmises	-0.052308991317605504	-2.9970844330852624	0.9944685261759115	229.54000532624624	0.9705834070776147	230.547684548803	0.699947128585606	-0.4809463941081198	1.1808935226937258	90.75480498410289
14	5.0	wm	444	diff_vonmises	0.13056944977924867	7.481078405696307	3.2933793621000156	1.0729542484824202	1.8936950021198295e-16	2.344262134679256	0.3676386102791985	-0.3720795594879316	0.73971816976713	75.64458820456323
15	6.0	ltm	444	diff_vonmises	-0.24240383895713183	-13.88871691001254	0.4718310772894881	103.30248742131131	0.4569749388295175	103.79582374691701	0.16737276300528592	-0.22569838371362572	0.39307114671891163	126.90603911396387
16	6.0	perception	444	diff_vonmises	0.15099218119598476	8.651214722004518	0.6644966869544533	3.8237374502562926	1.8771504778708416e-16	4.536175546045657	0.3402552650961985	-0.4407345032946228	0.7809897683908213	143.48470229105206
17	6.0	wm	444	diff_vonmises	-0.32325641399717464	-18.521228222571775	1.383985316203064	1.7375035431090355	1.6897978070534724e-16	2.3861577079652756	0.33712117241771844	-0.3347514262909388	0.6718725987086572	113.77507555351241
18	7.0	ltm	444	diff_vonmises	0.31518457141399653	18.058745709661693	0.6857304292239653	65.6013009307587	0.6601571277568218	66.67383218845475	0.022259844048679867	-0.2502787350677469	0.27253857911642676	99.38239437828881
19	7.0	perception	444	diff_vonmises	-0.05842101566624574	-3.347277632543544	1.527370105661465	3.767074112693294	0.42238933433185355	4.764745371940699	0.5426808119716997	-0.4206602415660739	0.9633410535377736	92.10644828702507
20	7.0	wm	444	diff_vonmises	0.5228947375239359	29.959661589722483	0.40823283396898424	121.24048075853982	0.3932946853345452	122.96495815037726	-0.05910949038861801	-0.4002506461942268	0.3411411558056088	124.48426366397743
0	1.0	ltm	445	diff_vonmises	0.03710964516166903	2.126226046991711	0.6669743520517597	87.93754494525086	0.6471526426979594	89.25546978643091	-0.03032029818027482	-0.2831313990036577	0.2528111008233829	97.66587678043535
1	1.0	perception	445	diff_vonmises	-0.11076423680308385	-6.346323289804331	11.015945515506733	1.0394613717726418	0.022876486671276015	2.5119224315750333	0.9507873098925663	-0.40191388263817307	1.3527011925307395	40.74604837602601
2	1.0	wm	445	diff_vonmises	0.06821473464817888	3.9084163959454745	7.441807720708725	0.26218192450947525	4.757906789834242e-27	1.9141767436669255	-0.024447330158020475	-0.3046505944098524	0.28020326425183195	49.85230600907926
3	2.0	ltm	445	diff_vonmises	-0.07871612209434822	-4.5101015756426435	1.1050745859519229	65.012722938228	1.0731285968372413	65.56994700182211	0.19121696601775184	-0.1911541299575905	0.38237109597534236	83.8082409669824
4	2.0	perception	445	diff_vonmises	-0.03642311522507627	-2.0868907791155618	9.131581233078837	1.1479359781074383	0.2619782162286464	1.850003370504943	0.9877536203254078	-0.31668569739171804	1.3044393177171258	43.85129769243366
5	2.0	wm	445	diff_vonmises	-0.1147276873391278	-6.573412277828513	5.116420785368298	0.6057261294435806	0.4765901014289991	1.6636302900352726	0.12843929789313868	-0.278515261715835	0.4069545596089737	53.391455847418115
6	3.0	ltm	445	diff_vonmises	0.08525510278966154	4.884757571801617	1.4025046149746379	140.34889193139063	1.3873825410582696	140.64300011405118	0.25763351248082245	-0.15445795269653217	0.4120914651773546	76.30022043620266
7	3.0	perception	445	diff_vonmises	-0.001339625278352332	-0.07675487457862674	2.290368266804884	4.771319216351241	0.9693418671334569	5.288703072915722	0.8935908548871785	-0.40429216479270286	1.2978830196798814	72.24521560960557
8	3.0	wm	445	diff_vonmises	0.013687430467869013	0.7842319981876682	2.3529628741896507	1.5325211071696694	0.8952572633185516	2.241282913374671	0.15016653908856414	-0.21977142201754293	0.3699379611061071	67.67854079511736
9	4.0	ltm	445	diff_vonmises	-0.17675127345128705	-10.127101992321464	3.653352237482547	0.6157883119155954	2.225725281663428e-12	1.550323388874748	0.20371409785982006	-0.24643935833428166	0.45015345619410174	71.7190055040281
10	4.0	perception	445	diff_vonmises	-0.04078092639113769	-2.336574966845865	0.9890594575623487	447.81880009798294	0.9777319643615909	448.95807282999755	0.5764096169849608	-0.46263944978257143	1.0390490667675323	89.72183839232423
11	4.0	wm	445	diff_vonmises	-0.26262704034484613	-15.04742099777168	1.2871594962407287	194.17537562356065	1.270517032617648	195.31823624948288	0.1414230446152942	-0.31847171319926204	0.45989475781455624	73.84263149715653
12	5.0	ltm	445	diff_vonmises	-0.0266316486598629	-1.525881069685379	1.181924660962735	25.181758581905743	1.1070110939533888	25.44516491935758	0.2558396739174995	-0.14789199802287722	0.40373167194037674	84.83670420357242
13	5.0	perception	445	diff_vonmises	0.02146847508315615	1.2300530148466164	1.1469757112933843	229.9986613945303	1.1286546605229013	230.50261901393085	0.6007788359014796	-0.322626859006963	0.9234056949084426	85.56314291594046
14	5.0	wm	445	diff_vonmises	0.05570274735843738	3.191532330921957	0.8607292773054064	65.89401630022641	0.8250131453781658	66.28305997627	0.32916163503559304	-0.2203657660569327	0.5495274010925257	98.6335757135416
15	6.0	ltm	445	diff_vonmises	-0.26317744815759325	-15.078957042453117	0.8568256383560455	72.4475790484093	0.8245052054088403	73.0849403835966	0.25038765370799254	-0.2404328480591813	0.49082050176717384	96.3149247559805
16	6.0	perception	445	diff_vonmises	0.26525925488766533	15.198235781848178	0.23773682833534412	7.862205666786636	5.907151525869837e-18	8.398108452977658	0.22833630596490373	-0.36384776612688186	0.5921840720917856	164.711718943062
17	6.0	wm	445	diff_vonmises	-0.2790351642483185	-15.987537247168367	2.900864892986902	0.8390100125177108	0.0709877754144648	1.1182127690197918	0.34823937321651566	-0.1652465022272633	0.513485875443779	78.70140765676973
18	7.0	ltm	445	diff_vonmises	0.014310469219641497	0.8199294891373304	1.2064776097568157	223.52682269112714	1.1924164191892868	224.3869664496573	0.2557242019245649	-0.28312744065965134	0.5388516425842163	79.17824304528631
19	7.0	perception	445	diff_vonmises	-0.15098247464986045	-8.650658577877945	2.552408648552371	1.4901631615117232	1.6052472065184585e-20	1.551337635230854	0.6420519342209067	-0.24150885365440333	0.88356078787531	86.08636503079006
20	7.0	wm	445	diff_vonmises	0.2743338734888297	15.718173128385807	1.0907981033163252	2.0148157637625013	0.3148442061514307	2.7473748902417015	0.13844301413782378	-0.23037939739364852	0.3688224115314723	105.42056259512995
0	1.0	ltm	446	diff_vonmises	-0.1735413166810116	-9.943185016965236	0.0005161091531891978	951.2680084281584	7.399389622068208e-22	952.7228495034853	-0.153396694085302	-0.3096734390828999	0.15627674499759792	179.11024382216866
1	1.0	perception	446	diff_vonmises	-0.05966251430739275	-3.4184102649524943	12.949686292371345	0.741594794713852	6.578434230487966e-19	2.7378314508682084	0.6178890779808792	-0.43573940875217393	1.0536284867330532	37.676667024793545
2	1.0	wm	446	diff_vonmises	0.017888080210659657	1.024911499662287	8.712909025871113	0.19547272335870797	0.0028015523972364864	1.7775301039708142	-0.057003821934307614	-0.28289232779070805	0.22588850585640044	45.91742680827815
3	2.0	ltm	446	diff_vonmises	0.20231908624749478	11.592029756924747	0.052895251052273655	96.89620819457595	0.041267254860446786	97.72127317679134	0.0466479485875837	-0.3009497866231996	0.3475977352107833	173.26985412611154
4	2.0	perception	446	diff_vonmises	-0.03087102805491106	-1.7687796167763628	8.887008382383042	1.369226989267207	0.41027623797936047	2.625005585590402	1.0000864466811268	-0.4735087573702032	1.47359520405133	43.59475310445421
5	2.0	wm	446	diff_vonmises	-0.09274990525550188	-5.314178121378511	6.613844408494893	0.49506013206296584	0.23809781441157807	1.9133683233245495	0.11652779298462218	-0.32115856450294245	0.4376863574875646	49.59791752772159
6	3.0	ltm	446	diff_vonmises	0.09342091319564043	5.352624044368217	1.5642204287727133	152.32899827921088	1.552203424238886	152.52669319546985	0.2288477823287849	-0.12355466871769494	0.3524024510464798	72.61216121362943
7	3.0	perception	446	diff_vonmises	0.0070367898787490465	0.40317836137269464	1.626336657572227	182.55203780134153	1.5831083515418662	183.095506295516	1.1063943444315214	-0.49692180718452406	1.6033161516160455	72.52385639230764
8	3.0	wm	446	diff_vonmises	-0.1254549405365207	-7.188038611807344	2.9557848619818325	0.8167898440754879	0.4611291580512977	1.6621183142457387	0.13236984065189838	-0.22599874950714863	0.358368590159047	67.72218163786695
9	4.0	ltm	446	diff_vonmises	-0.15403858091912329	-8.825760568850178	5.426118976561306	0.312400914966588	4.309115884774819e-36	1.668461592112807	0.017373168234519787	-0.2655384318462755	0.2829116000807953	58.5587859650104
10	4.0	perception	446	diff_vonmises	-0.03488192370193121	-1.998587009418011	2.4077080013802865	2.544405777811289	0.1777180994723441	3.9886153445014467	0.7143849363868751	-0.5367722024793026	1.2511571388661777	82.33809659655338
11	4.0	wm	446	diff_vonmises	-0.3838726904059166	-21.994285030591108	1.2544551194402493	200.01818717707908	1.2355697303494826	201.74536773628105	0.026786755523772854	-0.42453767463713277	0.4513244301609056	71.72148199040807
12	5.0	ltm	446	diff_vonmises	-0.08929377632144303	-5.116156520003891	2.1370088495727924	0.7902595360451209	0.4777335499737793	1.2633227776421279	0.11782513647943188	-0.1407611613407802	0.2585862978202121	77.78409670515512
13	5.0	perception	446	diff_vonmises	0.012040494594723733	0.6898695235277504	1.081453711317962	97.20587866101786	1.0328261890122805	98.10027292962816	0.5780595704405158	-0.40429394256315554	0.9823535130036714	87.21413778728552
14	5.0	wm	446	diff_vonmises	0.0645284818628543	3.6972096691280316	0.9221583087761657	84.61206372229337	0.893905788592941	85.5421245752361	0.15602015025345395	-0.26326766486087827	0.4192878151143322	89.48551801567407
15	6.0	ltm	446	diff_vonmises	-0.4361374571499457	-24.988835582259675	0.6680834525075907	151.83617826751416	0.6555417008565241	152.71297352846872	0.12014226004654205	-0.25332298635258255	0.3734652463991246	104.76622321658853
16	6.0	perception	446	diff_vonmises	0.19076969050925516	10.930298125197236	1.2494888528514991	2.1306261534163324	5.187898131770077e-15	3.1679494312801815	0.3230078534893095	-0.43622430592489037	0.7592321594141999	118.65882985754655
17	6.0	wm	446	diff_vonmises	-0.027105714393303098	-1.5530430354232763	3.685158297605906	0.5604967810804593	6.086380051527534e-17	1.5545062888327603	0.16452716819735472	-0.2471479194421981	0.41167508763955285	71.40893188194454
18	7.0	ltm	446	diff_vonmises	0.09954349343508392	5.703422051818526	1.8160899018353367	111.63025668998581	1.7963776023652636	112.15231702362755	0.10701370546212985	-0.18183409931271655	0.2888478047748464	62.60137659096776
19	7.0	perception	446	diff_vonmises	0.06586207801604878	3.7736191002809574	0.5654974660253577	3.915843415771136	1.704193514739252e-14	4.913259144935749	0.2323756565574714	-0.45462522182843995	0.6870008783859114	148.70895762479307
20	7.0	wm	446	diff_vonmises	-0.4008816782125732	-22.96882824570201	0.00013359096853589152	3578.1451387824522	1.8764141085844278e-31	3579.0916155903055	-0.07455661696724292	-0.22671122639826535	0.15215460943102244	175.44904230818088
0	1.0	ltm	447	diff_vonmises	-0.8914408061080857	-51.07579587573325	8.038015616720964	0.20698291098272087	4.059482004144917e-18	1.6355605443255539	-0.030071775493598518	-0.260307521342437	0.2302357458488385	47.93909386387324
1	1.0	perception	447	diff_vonmises	-0.04615450297785812	-2.6444582261552605	10.497242096184783	0.8740292538402543	0.06500354285809802	2.8125048023393133	0.6382384599417295	-0.4570146640681565	1.095253124009886	41.44311729973231
2	1.0	wm	447	diff_vonmises	0.09609190880646883	5.505660819966652	4.793768343690659	0.2517457911235623	8.573011112060147e-32	1.840498078068987	-0.07952060596952273	-0.2929097268188606	0.2133891208493379	62.39859040802182
3	2.0	ltm	447	diff_vonmises	0.4422561227085985	25.339409295022538	0.7029166679814024	98.75887286774658	0.6874501211321363	99.3789898185401	0.11608888134842843	-0.19100862651000838	0.3070975078584368	103.27162131215027
4	2.0	perception	447	diff_vonmises	-0.013956963350855283	-0.799675094822775	7.7837152743144	1.5849852686054131	0.5944990606839557	2.457429157475578	1.0838135497702295	-0.44751959656250323	1.5313331463327327	45.820272723798894
5	2.0	wm	447	diff_vonmises	-0.008403577685541164	-0.4814895341918252	8.41118916070278	0.3994314307140267	0.14443713312933817	1.6110590221478907	0.16002064678371752	-0.2677516765757992	0.4277723233595167	45.33023391365029
6	3.0	ltm	447	diff_vonmises	0.19375021808901607	11.101069776239878	1.7429852814854094	25.053636283870585	1.6907076290888357	25.17566495242538	0.16156463226103313	-0.08440056448927047	0.2459651967503036	69.23413568565564
7	3.0	perception	447	diff_vonmises	0.011551334715692571	0.6618427269521351	3.6684911495516137	2.846242081452562	0.7784258908244472	3.224342337025742	1.1209478897275875	-0.40721536456250884	1.5281632542900963	62.8511498319659
8	3.0	wm	447	diff_vonmises	-0.05842075170456965	-3.347262508653551	4.445102643349415	0.28811923789206717	9.422731566002064e-18	1.0537855375254703	0.06683677465452237	-0.16768286681631916	0.23451964147084153	64.85520409130862
9	4.0	ltm	447	diff_vonmises	-0.42123369931840243	-24.134913159627203	0.8990544056384867	41.07541562018848	0.8482641378774636	42.21902522358917	0.039979545643582526	-0.268620684959747	0.30860023060332953	87.23981873863555
10	4.0	perception	447	diff_vonmises	-0.001293520189233043	-0.07411324755801695	3.0022284794326777	2.001661982138189	0.12241933375240545	3.2554042403135024	0.728156892305233	-0.47190942817092174	1.2000663204761546	75.76680099383648
11	4.0	wm	447	diff_vonmises	-0.2924323285983181	-16.75513822186647	1.133192561380661	171.21015688270523	1.1112481029282115	173.00586256530093	0.05028993623450617	-0.4333801049363579	0.4836700411708641	76.2210314136991
12	5.0	ltm	447	diff_vonmises	-0.1491353610062568	-8.544826761818424	1.6712998376943355	1.5839962063813673	0.8128366143159769	1.839919732853003	0.169498687872504	-0.11394778180979201	0.28344646968229603	80.85555741444733
13	5.0	perception	447	diff_vonmises	-0.005295612860612543	-0.3034162668482994	1.162709289401322	245.55068973869172	1.1440692816996973	245.9982317306026	0.6860334982416703	-0.3396448834398278	1.025678381681498	85.48590596699043
14	5.0	wm	447	diff_vonmises	0.12237943132193972	7.011824913958259	2.6393504385816566	0.8974509086294236	0.0538036326998309	1.416686589763023	0.30821050298070574	-0.21110897160685024	0.519319474587556	82.60773055191746
15	6.0	ltm	447	diff_vonmises	-0.48149956925517917	-27.587893155688857	0.7750720578645252	133.6302327728953	0.7619411001986597	134.04809316886852	0.2112016213281649	-0.18358546195446657	0.39478708328263146	101.71876901213477
16	6.0	perception	447	diff_vonmises	0.17485868008258829	10.018664379960578	1.4893639538534758	1.965200321388272	6.878137018240836e-21	2.5995974426433537	0.4338328713338273	-0.37063341086271806	0.8044662821965454	110.66710279118175
17	6.0	wm	447	diff_vonmises	-0.11428539205553573	-6.548070624780145	3.605951274836008	0.7624695057870844	4.300369080687162e-17	1.1340069792292498	0.37319990226181887	-0.18007424394602778	0.5532741462078467	72.20983522831497
18	7.0	ltm	447	diff_vonmises	0.08099815889560111	4.640852653047968	1.5951417919521356	169.885880494091	1.5796407827722576	170.68169341881625	0.09641617814570225	-0.24095236451485036	0.3373685426605526	65.77582610260114
19	7.0	perception	447	diff_vonmises	-0.025285345124922125	-1.448743559189729	1.1104532270609706	2.372849230076995	5.805915540047012e-19	3.288650009272441	0.3367032538898982	-0.43006760545999484	0.766770859349893	124.11860698239379
20	7.0	wm	447	diff_vonmises	-0.008354292914630659	-0.4786657248243841	0.00022196939908864551	3396.577799834491	3.06507565998613e-29	3397.6417135886954	-0.049331968920910185	-0.28930898159535445	0.23997701267444427	179.98691151157897
0	1.0	ltm	448	diff_vonmises	0.11359749123644954	6.508656811122914	2.5939294167287663	0.5433614089862804	1.8262272281550053e-21	2.973657781826756	-0.14607311057174488	-0.47144492231111484	0.32537181173936996	85.39773481960438
1	1.0	perception	448	diff_vonmises	-0.09725021299168424	-5.572026761171834	11.357759096153297	0.8856653566906177	4.70467161327124e-19	3.508826307241372	0.6182799923924837	-0.5584470510877527	1.1767270434802364	40.254811664400535
2	1.0	wm	448	diff_vonmises	-0.0029147425577874006	-0.1670024469283845	4.476513356762135	0.6065773219552285	0.1037130044496729	3.281913887111174	-0.08214826400891867	-0.5181310007956547	0.435982736786736	60.473330263677155
3	2.0	ltm	448	diff_vonmises	-0.07957156144939195	-4.559114640316043	2.0381479887776957	1.14120524693407	0.17212157045037238	2.49599287969417	0.12706771432699376	-0.33393027807454345	0.4609979924015372	86.16917617987579
4	2.0	perception	448	diff_vonmises	-0.05656791482905145	-3.241102775560152	9.850085888120981	1.0974152338822019	0.12917770985311527	2.4890733733897688	0.9067163709200186	-0.41211998558671975	1.3188363565067382	42.579815405163885
5	2.0	wm	448	diff_vonmises	-0.07223778955538322	-4.138920462877678	6.21058279941193	0.5438774127324619	0.08873587325454871	2.1225508706557354	0.16044552228531556	-0.3396964789818666	0.5001420012671822	53.00595310341754
6	3.0	ltm	448	diff_vonmises	-0.06601140445223361	-3.7821748748440776	1.2484146647959724	3.9520893476677403	0.5912590121874496	4.982942612790167	0.21857955725654477	-0.3076940797574622	0.526273637014007	90.61897025313573
7	3.0	perception	448	diff_vonmises	0.007347475010499648	0.42097930817947005	3.044905281357549	2.7863348469667444	0.33144556872843317	3.745067340856358	1.0323515202867755	-0.49658911589342436	1.5289406361801998	72.17960939498553
8	3.0	wm	448	diff_vonmises	-0.04913700475623744	-2.815342990446658	2.7854326226312174	1.164999131991919	0.32879540879988217	2.3947587545644957	0.215731304966019	-0.3259446963537431	0.5416760013197621	72.10399484452338
9	4.0	ltm	448	diff_vonmises	-0.12793759282080588	-7.3302841096953975	1.2455262559658185	1.2829489110393872	4.4498594230884963e-20	2.970148473875291	0.02444126297508975	-0.43153635727728784	0.4559776202523776	118.94124801974912
10	4.0	perception	448	diff_vonmises	-0.04821707544885043	-2.762634923682989	1.696767927849204	3.9810478540226732	0.25951776308663377	5.748022421282916	0.6923625955411281	-0.646966148383263	1.339328743924391	92.70274879265588
11	4.0	wm	448	diff_vonmises	-0.19790693800405745	-11.339232283989729	0.9037613261607436	178.8288740991055	0.8840450731559814	180.70840867895484	0.07083807338732129	-0.44368518426194115	0.5145232576492624	86.3098535829512
12	5.0	ltm	448	diff_vonmises	-0.0341995566845775	-1.959490259244713	1.5885744196837581	1.183718514860889	4.7788267353257524e-17	2.128713495511592	0.19210597415289565	-0.31665434400040743	0.5087603181533031	107.77059089424924
13	5.0	perception	448	diff_vonmises	0.028234557852120198	1.617721001344446	1.8382374896391585	2.8367363913078587	0.3312748583380799	3.9114224646261504	0.5467195794849551	-0.42519850400001635	0.9719180834849714	88.06498084362832
14	5.0	wm	448	diff_vonmises	-0.06904786915950029	-3.956151487210885	0.7792084514706948	34.05146756750607	0.6948601477524589	35.04372656977877	0.2666850229137392	-0.3365651034876911	0.6032501264014303	101.59179129980522
15	6.0	ltm	448	diff_vonmises	-0.27302300664258167	-15.64306599059217	1.007556638093213	1.5388077567354932	3.480495748817714e-14	2.613566966348147	0.11205335919949178	-0.34557208887015956	0.45762544806965133	127.70906978084201
16	6.0	perception	448	diff_vonmises	0.21815511229570836	12.49936721374662	0.2690522037040044	8.197637422870349	2.8798462847970367e-18	9.183196160261419	0.21542945533617064	-0.482419346641236	0.6978488019774066	163.54380491384802
17	6.0	wm	448	diff_vonmises	-0.18372850896282267	-10.526868139801257	0.6799201356222787	120.57480962841767	0.6621436180292174	121.55456942373313	0.13617091116584135	-0.28274829300074344	0.4189192041665848	104.0680893499009
18	7.0	ltm	448	diff_vonmises	0.2129632559151749	12.201895755303985	1.1584529847579241	155.13072989830206	1.142278358037017	156.09616556538737	0.11107138636873515	-0.25958054534303443	0.3706519317117696	77.89510701432943
19	7.0	perception	448	diff_vonmises	-0.04923358526604553	-2.8208766460418833	2.0982545192525803	1.6732111267034402	1.2893717001668437e-15	2.651683460684127	0.46647847409143045	-0.4086579873293393	0.8751364614207697	94.81617880656663
20	7.0	wm	448	diff_vonmises	0.34659469494510525	19.85841322197878	0.11925999064204224	5.439767215409104	3.2008810591137363e-09	6.523788194912619	-0.06632645912299473	-0.2725840802808258	0.20625762115783108	169.85353053925
0	1.0	ltm	449	diff_vonmises	0.1542374999452789	8.837157789513748	3.882858070226603	0.40338143297369744	5.465883961736437e-22	2.731303718213609	-0.12956375552950256	-0.4345710979188521	0.30500734238934957	69.51216368428274
1	1.0	perception	449	diff_vonmises	-0.06318105384381197	-3.620007730439233	10.165022865838953	0.8732239385066758	2.473266617876036e-20	3.3918887901275916	0.5562822207899419	-0.5398358657419012	1.0961180865318432	42.57218123101205
2	1.0	wm	449	diff_vonmises	0.1119556286960876	6.414585017019547	1.7471358239404335	1.7954984476235487	0.34537162514904374	4.457855956709045	-0.11966851159004299	-0.5407641439712759	0.42109563238123293	79.94924587185892
3	2.0	ltm	449	diff_vonmises	-0.004469380130048359	-0.25607661849140195	2.5728370548730655	0.8981490691677393	0.19766743801533346	2.151206111320791	0.1251496103351084	-0.3013584450484772	0.4265080553835856	77.00893898191367
4	2.0	perception	449	diff_vonmises	-0.03928099894837599	-2.2506354547997693	9.00192434201754	1.1578028652856436	0.13623106361519974	2.458064245788237	0.919169742632421	-0.4050519408339127	1.3242216834663338	44.49050210641505
5	2.0	wm	449	diff_vonmises	-0.03456044418629199	-1.9801675899719737	6.276959785679578	0.5109474868806929	0.05104225214774524	2.074742662245221	0.1523748991011128	-0.3301361345847659	0.48251103368587867	53.29827073263422
6	3.0	ltm	449	diff_vonmises	-0.05657588255065135	-3.2415592923801615	0.7968082171879703	98.46141697271152	0.7760752958385695	99.24212951905061	0.1563499115510787	-0.2364697361408048	0.3928196476918835	97.11444432321377
7	3.0	perception	449	diff_vonmises	0.042150866993241456	2.4150667815300215	3.1468098310727792	2.663490094747581	0.4167872674508706	3.286590699078649	1.0321269437483598	-0.424907275344688	1.4570342190930479	70.41521955611859
8	3.0	wm	449	diff_vonmises	-0.035893174173330974	-2.0565273934598323	3.1995289066229398	0.7470492587971974	0.10390459737093696	1.7652024430125048	0.19661648143607374	-0.26370850957956177	0.4603249910156355	72.97788886779773
9	4.0	ltm	449	diff_vonmises	-0.2524583837488457	-14.46479989150299	1.5551726545163904	0.895157710678762	5.087667212815854e-19	2.3953493841704776	0.01507796317637261	-0.3635601996355648	0.3786381628119374	108.57940429060305
10	4.0	perception	449	diff_vonmises	-0.0018448213043187165	-0.10570047469328213	2.0277463978553714	3.5456041093293726	0.3351573766687896	5.220964994396514	0.7145684666500038	-0.5992467583342748	1.3138152249842787	84.12101158499817
11	4.0	wm	449	diff_vonmises	-0.25791397747704997	-14.777382386867135	0.8301236428047148	26.37285318944796	0.7119447196482551	28.22914861087188	0.06253854824689142	-0.43631020408257415	0.4988487523294656	93.16677569879722
12	5.0	ltm	449	diff_vonmises	-0.03631896418931719	-2.0809233643346503	1.5979979712755479	1.0042002863031163	8.429983534493677e-19	1.7401871062363297	0.17504955724673632	-0.25846051822336097	0.4335100754700973	107.49378719050644
13	5.0	perception	449	diff_vonmises	-0.00046008427078702186	-0.026360886936450466	2.2016962243117453	2.260440883113885	0.23014871890955377	3.0826344562284036	0.626028279551461	-0.3860992740930875	1.0121275536445484	84.8995636078551
14	5.0	wm	449	diff_vonmises	-0.02328203378850894	-1.3339622745625408	1.903446038636571	1.2526015367716545	9.863692021795166e-16	2.1135580596160275	0.29071769107784967	-0.3224499351199177	0.6131676261977674	99.31254194664092
15	6.0	ltm	449	diff_vonmises	-0.3025716976664507	-17.336081276395966	0.7328059764282603	1.77292325775459	2.941523169371614e-12	2.517554752887323	0.1149049112491124	-0.2816105451280736	0.396515456377186	139.48125052914372
16	6.0	perception	449	diff_vonmises	0.2143575929804382	12.28178538436223	0.4910528305463688	4.78175302574104	2.7213753556175504e-12	5.37685362004382	0.31609135193660753	-0.4168665991464475	0.7329579510830551	151.80670691968243
17	6.0	wm	449	diff_vonmises	-0.26860326327720385	-15.389833349225073	1.1598272811078614	1.8150483807565176	0.25488950324978726	2.49368941772898	0.17074042226434205	-0.2363272701304378	0.40706769239477986	107.00436014384395
18	7.0	ltm	449	diff_vonmises	0.25464803905595984	14.590257899189051	0.9471955714206128	133.59516208028498	0.9302439976103164	134.58152477362597	0.10636808556417066	-0.25738511374941275	0.3637531993135834	86.50832114296614
19	7.0	perception	449	diff_vonmises	-0.053348809449963994	-3.0566616235305797	2.427090087924028	1.574157818250652	1.6249042725891544e-15	2.2197541074902993	0.5584323235375642	-0.3461773283776708	0.904609651915235	88.28435316189342
20	7.0	wm	449	diff_vonmises	0.2915934165035442	16.70707209945345	0.29479383779256446	37.816720712467294	0.26614976625711145	38.874846249827655	-0.023210249813047312	-0.272244323137083	0.2490340733240357	142.47809325997156
0	1.0	ltm	450	diff_vonmises	0.14173462627657105	8.120795896511538	4.657637170686233	0.4548406947991858	1.3228782964846625e-16	2.8005949471393943	-0.0660048249572267	-0.4456943390138092	0.3796895140565825	63.31838249696847
1	1.0	perception	450	diff_vonmises	-0.07894833200133193	-4.523406223273936	11.198717609742268	0.8726467594265805	0.002315338275312235	3.4444393895603502	0.6015343716456918	-0.5483088662648515	1.1498432379105434	40.517899484175985
2	1.0	wm	450	diff_vonmises	0.07318247143599495	4.193046747619212	2.8708755634032537	0.971725549994925	0.23030325384198927	3.7100149000452904	-0.11301786943283199	-0.5494529090594605	0.43643503962662855	69.29082514580611
3	2.0	ltm	450	diff_vonmises	-0.09950087037400111	-5.700979930308553	2.668303724986306	1.0753887804528082	0.28199532079335066	2.326858025319449	0.17701216109788948	-0.3180897298035102	0.49510189090139967	74.09978546795733
4	2.0	perception	450	diff_vonmises	-0.05407099521039984	-3.0980398196279997	10.790280937560139	0.9512426394619753	0.021604030379248743	2.337521136169335	0.8513509231953728	-0.37376505548156636	1.2251159786769392	41.17240498546036
5	2.0	wm	450	diff_vonmises	-0.10762109366926077	-6.166234453830745	4.806715436625631	0.6664476161389044	0.17843671719682064	2.2475452820233244	0.14164846076145388	-0.3557730093267827	0.49742147008823656	58.33053592556956
6	3.0	ltm	450	diff_vonmises	-0.05751172492008489	-3.2951791104382258	0.9005655626683201	150.10541110209658	0.8837096881786239	150.94464941078536	0.21381517099160163	-0.26594264356725716	0.4797578145588588	91.83796325348229
7	3.0	perception	450	diff_vonmises	0.03224072308437163	1.8472573611845002	2.797140321878224	3.10489794626489	0.5025070953987187	3.8488040863812136	1.0020826772142022	-0.45780504980847947	1.4598877270226818	72.60225333221365
8	3.0	wm	450	diff_vonmises	-0.0535096416346554	-3.0658766289232657	2.855747178966288	1.0763317088844506	0.27769183622615967	2.1286532533997224	0.2466180698311516	-0.29367681202016094	0.5402948818513125	72.90255206455097
9	4.0	ltm	450	diff_vonmises	-0.18642017238062622	-10.681089093511158	1.7562295702718496	0.9300937351987607	1.1484760657740658e-19	2.4025849195666815	0.061023361798379305	-0.3691586161268565	0.4301819779252358	102.99656722029532
10	4.0	perception	450	diff_vonmises	-0.022485008719063063	-1.2882961019171708	1.3436444901613307	8.522176665350159	0.6325636919346516	10.126551860035686	0.7029095330623045	-0.6085339479419597	1.3114434810042641	89.73240990002785
11	4.0	wm	450	diff_vonmises	-0.22355902260390534	-12.808988467273547	0.8617329892343357	177.33963491212907	0.8441505984523453	178.93106098582314	0.0982799813324533	-0.3891762726852832	0.4874562540177365	89.44733782330708
12	5.0	ltm	450	diff_vonmises	0.016111238753981936	0.9231059833307762	1.7285219585717992	1.098665429757522	1.510850330765575e-18	1.8285638446240549	0.22771238952054107	-0.27467286515278744	0.5023852546733285	103.81096995239568
13	5.0	perception	450	diff_vonmises	0.006473093234564768	0.3708809227352478	1.8510205939722586	2.9053114644288645	0.377427460254784	3.7834026536375385	0.5822649153924125	-0.3928396258052834	0.975104541197696	87.15027033053772
14	5.0	wm	450	diff_vonmises	-0.039254744902737115	-2.249131208789518	1.651534195477496	1.761672844416739	0.18253731541074486	2.594547082988232	0.3174845896501346	-0.3125567502439336	0.6300413398940682	96.7289079002168
15	6.0	ltm	450	diff_vonmises	-0.2566696154885909	-14.706085696741924	1.009226115070822	1.4809455905399107	1.4128635291654838e-16	2.305054096992395	0.1417708501183903	-0.2992816838203768	0.4410525339387671	127.70651946303218
16	6.0	perception	450	diff_vonmises	0.23182155200019658	13.282396529783812	0.15356385616742363	14.06863505563052	2.0964023613927117e-09	14.578059319095857	0.2752436392890747	-0.4110891475653822	0.6863327868544569	169.71988032246216
17	6.0	wm	450	diff_vonmises	-0.31476848825512654	-18.034905900731975	0.674072820219972	149.00497696139263	0.6616699041452893	149.63753338875821	0.17628096128464676	-0.22606635196280678	0.40234731324745354	106.99341698409982
18	7.0	ltm	450	diff_vonmises	0.23013588615841624	13.18581499138043	0.9500884729189926	99.48355341990991	0.9271722403289971	100.238688558854	0.18565743628586517	-0.23504857052422068	0.42070600681008585	89.31481982782273
19	7.0	perception	450	diff_vonmises	-0.056359543039543075	-3.2291639514517336	2.4010710518428127	1.5364923137267046	8.744896141292009e-14	1.9128296995462466	0.5798023840616628	-0.297174533869454	0.8769769179311169	88.76015645629133
20	7.0	wm	450	diff_vonmises	0.1439173806198554	8.245858508095582	1.3211857839395638	0.7621395746040212	2.074373351889919e-17	1.605741954621946	0.050288029046032856	-0.23378710989907095	0.28407513894510383	116.22354387312888
0	1.0	ltm	451	diff_vonmises	0.3502823030363501	20.069697602105403	0.0007953462115907456	723.0223382671344	1.739237137646658e-23	726.074493373574	-0.3942249069963566	-0.5772698416080999	0.18304493461174332	176.12612104351916
1	1.0	perception	451	diff_vonmises	-0.013780966239942618	-0.7895912031609834	11.571429023266859	0.7338013085541042	0.05481971671906407	4.498665686340976	0.22877595734399436	-0.7323383679844842	0.9611143253284785	39.32199016943375
2	1.0	wm	451	diff_vonmises	0.02557008378236141	1.4650578825252214	8.373702036939568	0.2082950996506701	0.16937639584122693	3.7570815264912922	-0.466673318957136	-0.6501749598699664	0.18350164091283044	41.6009471279981
3	2.0	ltm	451	diff_vonmises	0.11643775565051365	6.6713919747499855	0.2297815050632086	104.37009513995498	0.2163735033168087	105.83860183593768	-0.042345117670272714	-0.38156081559652577	0.33921569792625306	151.08128723729237
4	2.0	perception	451	diff_vonmises	-0.06566277559046557	-3.7621999124483194	11.382029756856745	1.1545185404894072	0.2994678227323457	3.25471951755199	0.852498822225876	-0.5901115538090927	1.4426103760349687	38.87236069634241
5	2.0	wm	451	diff_vonmises	-0.13444366657638715	-7.703054677091034	3.034032891591606	1.1490146298375032	0.27645841022025275	3.964070523986875	-0.05876603425141791	-0.5877878744915864	0.5290218402401685	67.2347313696591
6	3.0	ltm	451	diff_vonmises	0.07268399645876976	4.164486235231329	1.5346818916272937	138.1267365086836	1.5142966253324064	138.87730043390562	0.163060597683085	-0.24368848444593283	0.40674908212901784	68.74901929533604
7	3.0	perception	451	diff_vonmises	-0.044855975604096515	-2.5700580880565136	2.541743003051943	4.77703424206659	0.7242812163907667	6.30788434041999	1.0185536644457658	-0.6627123000500291	1.681265964495795	71.00699571360343
8	3.0	wm	451	diff_vonmises	-0.07592077280947064	-4.3499398593542455	3.3961576852948054	0.6492120758214985	0.2077465874780404	2.657062703156272	-0.05895247198769721	-0.40619277053968617	0.34724029855198896	65.5361565818879
9	4.0	ltm	451	diff_vonmises	0.3205236289978252	18.364651175792392	6.802426110979666	0.2705644407938403	9.69968060674728e-32	2.3108425008632882	-0.09187409173018107	-0.3677816660196685	0.2759075742894874	52.18922853296675
10	4.0	perception	451	diff_vonmises	-0.026738813894154154	-1.5320211853207986	1.7076164697094833	3.471294761818796	0.2028115909982137	5.715622406350402	0.5239674387590585	-0.6920451419792198	1.2160125807382784	93.47646576330988
11	4.0	wm	451	diff_vonmises	-0.1162622337169763	-6.661335308746319	0.7432124753270051	196.4530576492271	0.7211840691881525	199.7331246548444	-0.12085346365054761	-0.6833691756349509	0.5625157119844033	91.06121797628197
12	5.0	ltm	451	diff_vonmises	-0.04622745536384501	-2.6486380899777187	1.1524197886731078	167.99067652098185	1.1331655417488786	169.2054881481289	0.156781086996574	-0.33153291572078203	0.48831400271735603	78.4981918393
13	5.0	perception	451	diff_vonmises	-0.010417113865890055	-0.5968566592227091	0.8512224021278474	322.2000313193309	0.8336197476022834	324.26901126614666	0.44086970789828683	-0.6282311657063637	1.0691008736046506	93.93875540289142
14	5.0	wm	451	diff_vonmises	0.06563336488674579	3.760514803252666	2.8130367215373977	1.1572683507372035	0.1343080863084627	3.217034900579143	0.14752661160836045	-0.4712511639012419	0.6187777755096023	75.58563510550229
15	6.0	ltm	451	diff_vonmises	-0.12950165880070275	-7.419898489223481	0.8086320640843155	156.60652701311034	0.7893873238151956	158.0603856801767	0.13701513409025523	-0.37550981014816287	0.5125249442384181	93.7272368439243
16	6.0	perception	451	diff_vonmises	0.1755642920296861	10.059092966503291	0.32467860306247665	7.153116584349829	6.162495563520056e-21	9.09432591948786	0.0870355257606259	-0.6458423716244528	0.7328778973850787	160.89589753185527
17	6.0	wm	451	diff_vonmises	-0.053836271982298206	-3.0845911693040895	0.7757136033343135	73.89101615544581	0.7262782864768308	75.77000714900679	0.1532108911457506	-0.47977039362635754	0.6329812847721081	96.4010972953169
18	7.0	ltm	451	diff_vonmises	-1.7449050376442687	-99.97569430813263	5.86387616553857	10.946809580913962	5.636318835357914	11.585975589570403	-5.2818224102351485e-05	-0.37902717286115184	0.3789743546370495	181.42353674418516
19	7.0	perception	451	diff_vonmises	-0.01832757686305346	-1.05009280295458	1.346217939670532	2.022689737404149	2.2862530133747697e-20	3.78964710797935	0.2177313244903506	-0.5475549892706375	0.7652863137609881	115.4770323806743
20	7.0	wm	451	diff_vonmises	0.7353981717221444	42.13521150131584	0.4568632887498645	88.27863500061713	0.44153249708924475	90.00868642776419	-0.15729050087412588	-0.3302278367210647	0.17293733584693882	109.74869816961504
0	1.0	ltm	452	diff_vonmises	-0.20213177196272009	-11.581297438964645	0.33665394557334144	80.15739100764547	0.3214107876042706	81.65608247308771	-0.10025557764089399	-0.3269184954032287	0.22666291776233471	133.03127632771768
1	1.0	perception	452	diff_vonmises	-0.10653659435871052	-6.104097220451368	12.141662683554678	0.9318950616956365	3.1180121517146586e-19	2.757682230602103	0.8426464856966063	-0.43889875844056375	1.28154524413717	38.9127679856731
2	1.0	wm	452	diff_vonmises	0.010396592907606509	0.595680894921498	7.443608592404635	0.28374791890627465	8.461869687035807e-18	1.9798716521250064	-0.01186981933690845	-0.31510625624935984	0.3032364369124514	49.85540547906385
3	2.0	ltm	452	diff_vonmises	0.05932392661878261	3.399010619400044	0.6165556754871512	60.53777963842288	0.5888105878173043	61.24890403528192	0.13063133016189354	-0.23030066364952262	0.36093199381141616	111.15856292543349
4	2.0	perception	452	diff_vonmises	-0.04232376186807504	-2.4249729281574286	9.411955340692675	1.2189331612282934	0.33827749498122994	2.0984829866275465	1.0153254261122424	-0.3711626404634053	1.3864880665756476	42.884593263273814
5	2.0	wm	452	diff_vonmises	-0.09176918172381317	-5.257986802143583	6.895427338005907	0.48016476796855523	0.26489298937543676	1.5783808151969023	0.17143666238026845	-0.26700100450026915	0.4384376668805376	48.79964854897324
6	3.0	ltm	452	diff_vonmises	0.035338955702448854	2.024773014150093	1.384284767964461	135.56084402215387	1.367763332250895	135.9350037684755	0.24826605441785432	-0.17022185387701327	0.4184879082948676	76.09982573461906
7	3.0	perception	452	diff_vonmises	-0.0021320486182123187	-0.12215738754026484	2.7445486121689564	3.533403116222548	0.7336629224457699	4.104029700641349	1.0047192485269014	-0.4327149414606715	1.4374341899875729	70.46785899078188
8	3.0	wm	452	diff_vonmises	-0.031244046502302582	-1.7901519994924198	2.6580781564020115	1.1247951068294844	0.6470567429237403	1.8858325664682734	0.16946863171779392	-0.22690530898950917	0.3963739407073031	68.35401140343413
9	4.0	ltm	452	diff_vonmises	-0.18080228427069808	-10.35920781503555	3.0681754645171972	0.6377360234602717	4.518188253363203e-19	1.799901760985047	0.13657592576711675	-0.28554820222627797	0.4221241279933947	78.42746723681287
10	4.0	perception	452	diff_vonmises	-0.056902837793346796	-3.260292447876286	1.0870705892183787	18.432923730341948	0.7932854633682005	19.631911950674745	0.6650952794716041	-0.5143393569690311	1.1794346364406352	92.23447402617907
11	4.0	wm	452	diff_vonmises	-0.25597670248344123	-14.666384705977121	1.266345972490204	208.80338777624823	1.2495194939583543	210.13517971814056	0.1260780536252497	-0.3579660136248677	0.4840440672501174	73.81265188472992
12	5.0	ltm	452	diff_vonmises	-0.062103141418783925	-3.558247897800414	2.2280630704451525	0.7976960816814003	0.16507717208747807	1.2718054166573711	0.2019651591269962	-0.16970408354463637	0.3716692426716326	85.45489488051504
13	5.0	perception	452	diff_vonmises	0.03236593537076664	1.8544314967381177	1.1074021222667676	176.78563847305085	1.0826324009858423	177.5109631780542	0.5611747675991055	-0.35910433423956967	0.9202791018386751	86.16578058840528
14	5.0	wm	452	diff_vonmises	0.005536209585017278	0.31720144372136294	0.8015005145735158	144.53806344301714	0.7850756983706215	145.1364217194768	0.27337370916291803	-0.24673912817043409	0.5201128373333521	99.7496233720538
15	6.0	ltm	452	diff_vonmises	-0.3239341230902584	-18.560058093343113	1.0188842694829665	3.9243709107343765	0.48045063664708626	4.779511265206276	0.19312999108838902	-0.27367727221006233	0.46680726329845135	101.00194935513568
16	6.0	perception	452	diff_vonmises	0.26565686427253915	15.22101712149624	0.571130514687498	3.7662583889910684	2.0534540151006132e-16	4.639733407046558	0.24116285193494624	-0.4258469091617864	0.6670097610967327	147.36362975356263
17	6.0	wm	452	diff_vonmises	-0.19310492097107793	-11.064096974850068	3.238257190774267	0.7200534356851221	8.28399713054431e-15	1.352941294623094	0.27714034599029896	-0.21456930209069747	0.49170964808099643	76.29079178625756
18	7.0	ltm	452	diff_vonmises	0.06499584735816324	3.7239877394992753	1.39917976132991	215.83366673169866	1.3852993020091136	216.72307459097703	0.16828921442979095	-0.27204487305216674	0.4403340874819577	71.75763805056383
19	7.0	perception	452	diff_vonmises	-0.11261529956585019	-6.452381373724668	1.7490826761041003	1.7176270245314558	2.0944198218664035e-22	2.3654530676863077	0.44032399875955386	-0.35176041177917605	0.7920844105387299	103.23656386824783
20	7.0	wm	452	diff_vonmises	0.274347969973603	15.718980797469287	1.5660798056476424	0.6233951334856037	3.9846282530088265e-18	1.4850066186577668	0.04083030096385257	-0.22425428567325342	0.265084586637106	108.18698829564181
0	1.0	ltm	453	diff_vonmises	-0.40102889065485026	-22.9772628973363	0.15773233824345007	50.44644763552537	0.14465552118700772	51.07040541636937	-0.0018852951843228993	-0.18199387458000604	0.18010857939568314	158.32279337201373
1	1.0	perception	453	diff_vonmises	-0.10281257147090905	-5.8907264261702235	11.447585255942833	0.9101060094529428	9.19820733244689e-21	1.7853315480188812	0.930302731862699	-0.28414434078670586	1.2144470726494048	40.08370414109956
2	1.0	wm	453	diff_vonmises	0.10271307838222297	5.88502589209779	3.596062460704257	0.4117293533018862	4.870343864776935e-33	1.133943742484264	0.11808985676860953	-0.18024808363916578	0.2983379404077753	72.30436028793272
3	2.0	ltm	453	diff_vonmises	0.21942876024278202	12.572341865699443	0.4972397115031747	59.435042762051424	0.4767112108022637	59.73258768756988	0.1554362294334375	-0.16697236255196035	0.32240859198539784	125.66194904328532
4	2.0	perception	453	diff_vonmises	-0.005898358383659837	-0.33795104143931465	6.2885299555384355	1.7207312113019517	0.6188427987386851	2.128347405539366	1.111327118609719	-0.35642593074772716	1.467753049357446	50.807371380874685
5	2.0	wm	453	diff_vonmises	-0.041086426638948126	-2.3540788416856038	8.45121555140378	0.4408068771150615	0.6222701962150784	1.0391233681185517	0.22280960932194538	-0.20146876866977614	0.4242783779917215	43.05334298203488
6	3.0	ltm	453	diff_vonmises	0.16845771269165627	9.651915963659308	1.4301362501888037	108.47600620458515	1.4158549250470658	108.47402876584974	0.27607370300746936	-0.09181305879897295	0.3678867618064423	79.03143508749272
7	3.0	perception	453	diff_vonmises	0.01339071215643609	0.7672312912383134	2.4231791353315106	5.6750962888188825	1.170237591811794	5.8997890546952565	1.0793991464650268	-0.3980185505361887	1.4774176970012154	69.61056037922663
8	3.0	wm	453	diff_vonmises	-0.04577793106171939	-2.6228822446773568	3.0844994051714485	0.6697346896990013	0.5706701003268381	1.1098823908308932	0.15702234689017452	-0.1452836512865639	0.3023059981767384	66.57334088983848
9	4.0	ltm	453	diff_vonmises	-0.26961649911281327	-15.447887486256905	8.154101382072499	0.48748048989691334	3.3312550089913244e-25	1.387607814271307	0.32530955097261444	-0.22084459753182922	0.5461541485044437	47.60272290302419
10	4.0	perception	453	diff_vonmises	-0.04485361514146049	-2.569922843509771	1.0799453614998753	238.68319893761384	1.0566235403169313	239.7595922755992	0.6666000287427636	-0.47527026676526773	1.1418702955080313	86.61600955940591
11	4.0	wm	453	diff_vonmises	-0.3998955720109703	-22.91232852219849	1.6638916016064578	190.00124702352883	1.6437243015953553	191.12667391551653	0.13290547384960405	-0.34693750807507584	0.4798429819246799	64.29313995375155
12	5.0	ltm	453	diff_vonmises	-0.1589363452130694	-9.106381791943162	2.6280460785277953	0.4188405084574979	9.65804889973656e-15	0.4271514091331377	0.18618567332925307	-0.06665759080844516	0.2528432641376982	84.83013035773831
13	5.0	perception	453	diff_vonmises	0.02700741495691925	1.547410892589967	1.2640981051586107	242.44346653473303	1.2481241928387696	242.4142406913128	0.7204288328504305	-0.242385893900817	0.9628147267512475	84.27586667997909
14	5.0	wm	453	diff_vonmises	0.042476943062598145	2.433749564104375	0.9317907818360064	66.54246041584645	0.9058963648904911	66.66025425731706	0.28968061594652994	-0.140393352079899	0.43007396802642894	96.5512379393711
15	6.0	ltm	453	diff_vonmises	-0.4976921730871499	-28.515661014588144	2.040365786105489	0.7173322975963446	5.9724758746084334e-18	1.0478115512776462	0.20776225373310478	-0.16043579968045404	0.3681980534135588	95.75398367212843
16	6.0	perception	453	diff_vonmises	0.13585830629745022	7.7841075626395115	1.6713579239255325	1.5140065650150254	4.355284535357926e-16	1.8726874297879168	0.40229828147784386	-0.27329606229434733	0.6755943437721912	105.33431245100712
17	6.0	wm	453	diff_vonmises	-0.09325788998320288	-5.343283502332881	5.275217283309883	0.4507183240189332	7.165907776054888e-14	0.673820852682778	0.2948528979852564	-0.107231389782156	0.4020842877674124	59.41167319192965
18	7.0	ltm	453	diff_vonmises	0.11671426953643241	6.687235053389892	1.8897055244096004	179.3721264251492	1.8721906244182054	180.01632953422785	0.1847209927101261	-0.24501564530912745	0.42973663801925355	62.11213201551152
19	7.0	perception	453	diff_vonmises	-0.005064159056237895	-0.2901549407053855	0.8247488086413154	3.0990420060479265	3.6913186785921305e-14	3.569976547448613	0.3874629212384325	-0.3845522811685588	0.7720152024069913	136.2405752293053
20	7.0	wm	453	diff_vonmises	-0.4592051558926318	-26.310517363294824	0.00011742457505689757	7037.56195741725	4.550139468968379e-31	7038.128744258399	0.041317896807186116	-0.22172403014701558	0.2630419269542017	174.05638304016156
0	1.0	ltm	454	diff_vonmises	0.10458911468478219	5.99251485444776	0.12035287628020304	40.447473971204666	0.10658085943734986	42.3181974038528	-0.23689950640657997	-0.3502367663794095	0.11333725997282951	163.0064601571495
1	1.0	perception	454	diff_vonmises	-0.005219845746286878	-0.2990751309715536	9.26611977578424	0.8384753075841116	0.06756759048525925	3.153483747172977	0.4672728351910823	-0.5111908750003553	0.9784637101914376	43.96725974408679
2	1.0	wm	454	diff_vonmises	0.2498730120224003	14.316669003105217	7.375736094508383	0.12421483360861621	0.07601395425119974	2.4083010510640026	-0.2808421020704433	-0.39434669659909544	0.11350459452865214	46.36525933337069
3	2.0	ltm	454	diff_vonmises	0.4999095951734312	28.642709941531155	0.5063975002255691	97.96008359016903	0.4921072656156162	98.95990972922425	0.016382297582669736	-0.24963052040768474	0.2660128179903545	116.06408146235063
4	2.0	perception	454	diff_vonmises	-0.022517145180984462	-1.29013738555375	8.066583589520187	1.5446951916129814	0.44871357035159354	3.027435301261261	1.003140525306017	-0.5433091851213577	1.5464497104273747	45.320933767406814
5	2.0	wm	454	diff_vonmises	-0.015624695147025936	-0.8952290881031254	4.502734323251829	0.6225067719070483	0.24477705921556367	2.843498190101668	-0.05916682776022508	-0.4584121575964585	0.3992453298362334	57.334209789919896
6	3.0	ltm	454	diff_vonmises	0.2464964529689606	14.123206420066433	1.652384245139053	91.81523022868366	1.634729753259278	92.07098184090158	0.15813809021118175	-0.1172649222341331	0.27540301244531484	69.03585540671654
7	3.0	perception	454	diff_vonmises	-0.0024427218605464762	-0.13995765313365713	1.5837335607010747	253.0888897822337	1.5533185428451328	253.85375036533065	0.9887023607683858	-0.5120730086951006	1.5007753694634864	72.5879176927441
8	3.0	wm	454	diff_vonmises	-0.0037544966547758607	-0.21511681251464287	3.270365012167303	0.42926867518876977	0.3037877634789687	1.7245731247342253	-0.06825416007164142	-0.2640559038338291	0.19580174376218767	63.41355164674778
9	4.0	ltm	454	diff_vonmises	-0.03180560422558099	-1.822326886989248	0.6678337972189042	55.74522931768272	0.6432776630385186	57.19986650634739	-0.1379567778730859	-0.2720954044248387	0.1341386265517528	88.77310058947381
10	4.0	perception	454	diff_vonmises	0.010884499504984812	0.6236358837478635	1.033331782849593	279.4825993454777	1.0119363755155562	281.39051975920916	0.47255639112835013	-0.5916735588700206	1.0642299499983707	85.4361244146057
11	4.0	wm	454	diff_vonmises	-0.3666535001766852	-21.007698103823245	0.8640192166248457	176.18208148405523	0.8434891863992672	178.84797701635014	-0.1415049194505542	-0.5478340369405217	0.4063291174899675	82.63884289532433
12	5.0	ltm	454	diff_vonmises	-0.11499340851937087	-6.588636979983676	1.450168357310548	82.50867395733945	1.4246692263633107	83.13565579308344	0.10948658462786653	-0.19122768083780706	0.3007142654656736	70.31783705975147
13	5.0	perception	454	diff_vonmises	-0.0296149115521431	-1.6968094425910256	1.004349173023747	297.88568656347945	0.9862031951712493	299.11022556958574	0.6077025865544812	-0.4917001738695248	1.099402760424006	89.10576648796155
14	5.0	wm	454	diff_vonmises	0.21922201440071062	12.560496201516873	3.904782346061592	0.7699634135809272	0.14967334416996536	2.267143169142628	0.16743277893142894	-0.3472099210878978	0.5146427000193268	64.9577104053545
15	6.0	ltm	454	diff_vonmises	-0.34918182897051414	-20.0066450826694	0.7210644837728204	168.8515365286482	0.7097425145521884	169.74490233535718	0.10873221360057528	-0.24606503013745495	0.35479724373803023	100.16792007691825
16	6.0	perception	454	diff_vonmises	0.14963849763385031	8.573654367097978	0.47153095159965525	49.61471415100569	0.41188989455888797	50.928489986962326	0.2447542184648146	-0.48357176581745787	0.7283259842822725	127.99655239956147
17	6.0	wm	454	diff_vonmises	-0.0752383049213852	-4.310837329713743	2.865425038335213	0.800797445729245	6.900637327920835e-12	2.0669478429993875	0.18190633070870194	-0.3273073975215019	0.5092137282302038	81.20996413264564
18	7.0	ltm	454	diff_vonmises	-0.18428281885307438	-10.55862775705504	1.7665966972894382	98.24251467332515	1.7436889389388162	98.99504466818705	0.014736010303295188	-0.22029069519784272	0.2350267055011379	60.15009012338834
19	7.0	perception	454	diff_vonmises	-0.06598824825125126	-3.780848122258232	1.6833713930729943	1.7525479961438275	5.12405379017327e-16	2.952994065952588	0.34424859790913653	-0.441890406134273	0.7861390040434095	105.04634252873801
20	7.0	wm	454	diff_vonmises	0.6431371205141199	36.849042653655665	0.7353232842598485	6.662554258908105	0.52219976255661	8.238726917698616	-0.12628147734181017	-0.3022587647213806	0.1759772873795704	93.7054422145894
0	1.0	ltm	455	diff_vonmises	0.14856376855130424	8.51207692654812	4.216103706091072	0.4311033743150849	4.04353392033559e-24	2.584634099416044	-0.07032535352914959	-0.411283013896016	0.3409576603668664	66.6423662778738
1	1.0	perception	455	diff_vonmises	-0.08159874737942356	-4.675263838395156	10.629328768891531	0.9053653324653959	0.020199455026818428	3.2208170130715077	0.6398712576649703	-0.5150460938963958	1.154917351561366	41.44764820092735
2	1.0	wm	455	diff_vonmises	0.031664325881145546	1.8142322341165014	3.912005374343216	0.7170210940766915	0.13577273663774075	3.308305369440484	-0.055719839943806804	-0.515339139163657	0.45961929921985023	63.610124600722145
3	2.0	ltm	455	diff_vonmises	-0.05031822634139136	-2.88302200194573	2.3224975591317407	1.3286868964883134	0.4051249977472748	2.46493943198782	0.18488517059024145	-0.3037084964186257	0.48859366700886714	75.8437048079063
4	2.0	perception	455	diff_vonmises	-0.039680778886420076	-2.273541157983697	8.944082152792712	1.0406799904111654	0.040899465265843336	2.3365414199773165	0.8359534960350214	-0.37405889048873675	1.2100123865237582	45.12564088405344
5	2.0	wm	455	diff_vonmises	-0.07173766119726502	-4.110265218742698	4.892134139427452	0.6827745223171534	0.20796974327268894	2.2492310085906304	0.14919898419547284	-0.3581427405457592	0.507341724741232	57.45139977120982
6	3.0	ltm	455	diff_vonmises	-0.009928062482540925	-0.5688360789917696	1.0928296120516678	3.8806130727815553	0.5007209711217623	4.777447590906185	0.21443726600640667	-0.28675831130893004	0.5011955773153367	98.13938335739391
7	3.0	perception	455	diff_vonmises	0.010482081447233369	0.6005790274388539	3.400617260617126	2.617223247053467	0.3904658444404131	3.540002681443541	1.0379630811561285	-0.4811767666831749	1.5191398478393032	68.02582418958113
8	3.0	wm	455	diff_vonmises	-0.03035982816026311	-1.7394900203255028	3.330489158728787	0.8012286213403663	0.03329363021213307	2.1002722065950663	0.21119096899074624	-0.32492460902265863	0.5361155780134048	73.67107816610971
9	4.0	ltm	455	diff_vonmises	-0.20858404514820553	-11.950985460758393	1.7914470307313108	1.1327952406455006	7.743371282589835e-22	2.6305663012866534	0.12795295940117946	-0.4034742137631773	0.5314271731643567	102.05058289982625
10	4.0	perception	455	diff_vonmises	-0.016889594128615033	-0.9677024612585767	0.942599700486852	455.9418559115381	0.9284911705705224	457.68756300282166	0.6499071770294051	-0.627118027854614	1.2770252048840192	90.97976512665085
11	4.0	wm	455	diff_vonmises	-0.23115105360451435	-13.243979801540927	0.8452855572947652	193.39086281111432	0.8267497188036484	195.3278046040623	0.08619539712753976	-0.46154663559808284	0.5477420327256226	89.70064949419888
12	5.0	ltm	455	diff_vonmises	-0.03550512993562175	-2.0342940963747225	1.6254449061822864	1.2028125494792785	1.8149462899293543e-14	1.625193878888096	0.2883889905396589	-0.2374651929295411	0.5258541834692	106.69565164584178
13	5.0	perception	455	diff_vonmises	0.001005356664197552	0.05760269376387089	1.017738090069007	265.0618559073756	1.000888103767787	265.5637570129444	0.6726204153870867	-0.35967103395336153	1.0322914493404483	91.16266297707662
14	5.0	wm	455	diff_vonmises	-0.03477377077609304	-1.9923903032254924	2.229357228735606	1.2574603946876115	2.331867145412308e-17	1.8396883908802528	0.3996567508679973	-0.2847788171786051	0.6844355680466023	92.06504288173093
15	6.0	ltm	455	diff_vonmises	-0.2296268183532045	-13.15664755465581	0.7675971944104228	1.7966491900466184	2.4549876058788128e-11	2.2481323781862463	0.1766222243410765	-0.24267849361276328	0.4193007179538398	138.31217547244654
16	6.0	perception	455	diff_vonmises	0.12257180014285064	7.022846835506363	0.5579168449967622	3.652696273483677	7.485869538479061e-17	3.9032527882020016	0.31974342441160075	-0.31292215014914626	0.632665574560747	148.90996013833634
17	6.0	wm	455	diff_vonmises	-0.21665624760101934	-12.413488592679775	0.7867217125226657	86.0046698166162	0.7664064998647697	86.36068575152275	0.2278170403145019	-0.17700560538787258	0.4048226457023745	101.9479000039576
18	7.0	ltm	455	diff_vonmises	0.23960520413003952	13.728366946021826	1.2860590731942998	129.5185687838809	1.2672851093559998	130.11120081377047	0.21172126485967624	-0.20827205592113351	0.41999332078080975	77.21564726140784
19	7.0	perception	455	diff_vonmises	-0.007988896260106015	-0.45773003867192225	1.3512200828232395	3.409739326700378	0.3183210644952801	3.814543877789622	0.5728967254200354	-0.33812761739051983	0.9110243428105553	101.95871433276437
20	7.0	wm	455	diff_vonmises	0.0762740544065891	4.3701814038487745	0.22423819556482077	4.096032616872213	1.3593258649694987e-09	4.889495847417452	0.0274220971592658	-0.2637200572870919	0.2911421544463577	167.0363096764578
0	1.0	ltm	456	diff_vonmises	0.03671250711680455	2.103471713136899	0.9782985248675407	0.6070871219252639	5.7664675566311385e-34	4.024955758162737	-0.43563847592827876	-0.6116237297522256	0.1759852538239468	129.4730850076955
1	1.0	perception	456	diff_vonmises	0.06493305244548257	3.7203898560277806	9.242664931313872	0.7520619173132955	0.036022360799771946	4.648356666146866	0.13234552294036217	-0.7468438148909359	0.879189337831298	44.095949502237204
2	1.0	wm	456	diff_vonmises	0.175839601535723	10.074867039259038	3.344583778426534	0.5720398597255444	0.09077430200719393	4.397762927310922	-0.36645980826160096	-0.685225569178256	0.3187657609166551	67.3025539606314
3	2.0	ltm	456	diff_vonmises	0.2653405817383453	15.20289546715323	0.7458747709174381	134.6255183334626	0.7283237497575182	136.23110864772173	-0.014626035515242108	-0.351380241103902	0.33675420558865987	92.88515933734348
4	2.0	perception	456	diff_vonmises	-0.04389809251074823	-2.515175429540721	10.0299317604624	1.2517987634222374	0.24648593529037546	3.0731865277316524	0.943922570595575	-0.535003324589863	1.478925895185438	41.63591348090131
5	2.0	wm	456	diff_vonmises	0.04612333218560143	2.642672271314873	4.637529610508595	0.6469032846082167	6.559643404866764e-20	2.91362863779892	0.07505305159109449	-0.4636678902138949	0.5387209418049894	63.46222028982439
6	3.0	ltm	456	diff_vonmises	-0.07167640243990524	-4.1067553504877665	0.801255895531077	45.02530122175683	0.7734024248075667	45.67905056602402	0.04431107511788568	-0.16221435160255826	0.20652542672044394	93.53075400426832
7	3.0	perception	456	diff_vonmises	0.05873539652874092	3.3652903291242007	3.704525157005908	2.330412324599291	0.3316269165596001	2.9403695747238756	1.083320036569289	-0.4131179902895859	1.4964380268588748	66.54572060081688
8	3.0	wm	456	diff_vonmises	-0.03733743207616429	-2.1392772758205965	2.902012292778098	0.5646321913196182	4.515771874782853e-16	1.6648320970728248	0.09788700297807323	-0.2638720931496353	0.3617590961277085	80.68793944853468
9	4.0	ltm	456	diff_vonmises	-0.8225973150819885	-47.13135439299112	0.6030336528492977	112.60056323751391	0.5882193123180047	114.4008547847652	-0.15848017528470848	-0.3398654011943272	0.1813852259096187	94.6536749303672
10	4.0	perception	456	diff_vonmises	0.028963167446689097	1.659467256025982	3.306493490353303	2.138267415255632	0.047047800638853506	4.1384474179234845	0.7895846286739683	-0.6326826959584572	1.4222673246324256	73.87940410588047
11	4.0	wm	456	diff_vonmises	-0.3751845150538719	-21.49648925124936	0.7960760837110396	2.638210047344953	4.176017466156329e-16	5.448345786812095	-0.06805403198116933	-0.7045194742777414	0.6364654422965721	136.08011571372663
12	5.0	ltm	456	diff_vonmises	-6.182370527657142e-05	-0.00354223738620822	2.26306909699893	0.662125484563737	1.4867997807012498e-14	1.8881963194004252	0.0673805737943527	-0.29653426013415685	0.36391483392850954	91.3933065263511
13	5.0	perception	456	diff_vonmises	-0.03011415572353877	-1.7254140265585034	2.91546947521093	1.7282718950942657	1.5803725997952707e-12	3.370065648411758	0.5772085162813413	-0.5330937005024332	1.1103022167837744	80.49906891845859
14	5.0	wm	456	diff_vonmises	0.03702657266741463	2.121466343677309	2.101866250505728	1.199834460647559	5.566279130023771e-19	2.8345224901676938	0.18666976305423072	-0.4415996579268725	0.6282694209811033	94.7366924409612
15	6.0	ltm	456	diff_vonmises	-0.33357756069515926	-19.11258636810168	0.27195994624965225	118.72405171045386	0.2596874157090989	119.81032191383296	0.03765424997027367	-0.32880330632376165	0.3664575562940353	145.56062354249462
16	6.0	perception	456	diff_vonmises	0.2829748420603853	16.21326415844113	0.44542340049629414	6.7172880359247396	7.06573047031366e-18	7.969789443744267	0.3207659773157754	-0.6163667216287255	0.9371326989445009	153.5436490757986
17	6.0	wm	456	diff_vonmises	-0.36939085595443777	-21.16453703691422	0.89208712787469	2.0609472028008207	1.5992555931774043e-14	3.392161846484526	0.12212634712333093	-0.42870413778558025	0.5508304849089112	131.97157030943993
18	7.0	ltm	456	diff_vonmises	0.5283521549623519	30.272348575984818	0.58248137359283	103.67541057750134	0.5670244778926639	104.86584954548817	-0.006207160281849866	-0.2713140605714166	0.26510690028956674	106.39848529553583
19	7.0	perception	456	diff_vonmises	-0.050176807298160875	-2.8749192876258456	2.893159799031867	1.3741159220918338	4.565000343331523e-14	2.637487423021096	0.46174384700441884	-0.41706353298650883	0.8788073799909277	80.81319545387933
20	7.0	wm	456	diff_vonmises	0.694205625365655	39.775052447692	0.5919815629607069	1.3365428194884312	4.594033446358321e-27	2.9858992671297893	-0.12232287321557667	-0.3672105683403858	0.24488769512480912	140.2168993610653
0	1.0	ltm	457	diff_vonmises	0.11952997236591101	6.84856294188206	1.6791986936664742	0.6469828328630729	4.4737342921263123e-14	3.0567800966602943	-0.18636596969878538	-0.47605952773580035	0.28969355803701496	105.12715255963417
1	1.0	perception	457	diff_vonmises	-0.0977039942008589	-5.598026509279886	10.99716564767258	0.8607557531004518	2.355020808783205e-18	3.4213914537232837	0.5804023634920757	-0.5445313617966748	1.1249337252887506	40.912098746174394
2	1.0	wm	457	diff_vonmises	-0.019899506031626303	-1.1401577100073124	3.953971415319482	0.684629149136831	0.14125047640434024	3.238520767430771	-0.06761522858686408	-0.5057034864134479	0.4380882578265838	63.05102938438071
3	2.0	ltm	457	diff_vonmises	-0.06895801619379989	-3.951003291499519	1.2124970957209582	1.8757216484263004	0.20399173872046758	3.3804641649471723	0.06252731884491536	-0.37177049870299234	0.4342978175479077	103.95568784787346
4	2.0	perception	457	diff_vonmises	-0.052958429497406805	-3.0342944998425354	8.497949895752459	1.2791373007186124	0.20092245051238328	2.77382788265008	0.9301051386545001	-0.46494698999531875	1.3950521286498188	45.38287545271294
5	2.0	wm	457	diff_vonmises	-0.04476526604250799	-2.564860813016009	7.142497293868145	0.5038236942051165	0.04237720772153239	2.1884525096017065	0.1637565773632632	-0.3494004914130961	0.5131570687763594	50.14178560423596
6	3.0	ltm	457	diff_vonmises	-0.07083956751825154	-4.058808241327849	1.2222164967477738	3.7812684054502266	0.5156574183263533	4.946939847576251	0.21401636997373363	-0.3384704452823142	0.5524868152560478	93.14071577922056
7	3.0	perception	457	diff_vonmises	0.003970895903967207	0.2275155761831068	2.7894095821499705	3.162049536365615	0.34264848110299984	4.237027918866637	1.0636459170889099	-0.5419372066838999	1.6055831237728098	74.71428024781204
8	3.0	wm	457	diff_vonmises	-0.06357152058967609	-3.6423798270174546	2.5824959358148347	1.3365926897019238	0.383762990837676	2.71294712924143	0.1917723014906828	-0.35563699798930937	0.5474092994799922	72.80880851767691
9	4.0	ltm	457	diff_vonmises	-0.05507847806733321	-3.155764335262064	0.7520437550400028	1.888659272009619	4.561050263383328e-18	3.792355572596365	-0.0473882014213205	-0.47997626857505254	0.43258806715373205	139.5860024068425
10	4.0	perception	457	diff_vonmises	-0.05263758793894475	-3.0159116326502597	1.934026600351662	3.133509812949824	0.10870158333118887	5.149255314987653	0.6730998216894776	-0.7008196828569982	1.3739195045464758	93.02533169919053
11	4.0	wm	457	diff_vonmises	-0.2332002266039318	-13.361388765899711	0.909704390968959	68.4975712520316	0.8565523482962288	70.68686614077572	0.005482288685414005	-0.4902383783384243	0.4957206670238383	85.14047305658111
12	5.0	ltm	457	diff_vonmises	-0.08206873780698683	-4.70219230630608	1.4219980543724184	1.1593326780014277	1.614777511568292e-15	2.212326151211646	0.13411007741985215	-0.3238075458820573	0.45791762330190944	112.92358619468241
13	5.0	perception	457	diff_vonmises	0.037957638175146344	2.174812467720541	2.0730443472235147	2.2944076358786916	0.18261332366180108	3.4949950734694473	0.5473837524021837	-0.45052439910844616	0.9979081515106298	87.80744085053442
14	5.0	wm	457	diff_vonmises	-0.09646915645080241	-5.527275517818218	0.7168116264974178	74.12952332078805	0.6793961454630545	75.28281176603706	0.2049136465788166	-0.349616253220713	0.5545298997995296	102.85469164457658
15	6.0	ltm	457	diff_vonmises	-0.3270307090152174	-18.73747939774288	0.73139172446316	1.8652264951148567	1.2835585739294015e-15	3.0694291501805098	0.053413509028532036	-0.36300730298747386	0.4164208120160059	139.36674453833388
16	6.0	perception	457	diff_vonmises	0.1515356012921819	8.682350400019207	0.663416749019541	3.4989731265203163	1.764980373452328e-15	4.796841225886652	0.20783477707239895	-0.5057406808328456	0.7135754579052446	143.5346303364292
17	6.0	wm	457	diff_vonmises	-0.04274540938252256	-2.449131551177453	0.6475120851134525	78.98344483838046	0.6206238637825231	80.25635366688276	0.06013721436195496	-0.3164437402170934	0.3765809545790484	103.96323638170954
18	7.0	ltm	457	diff_vonmises	0.23138889622401093	13.257607179826417	1.3588325830042134	141.4538531332405	1.3412521866451057	142.45229359811333	0.043714959845992496	-0.2608159500610938	0.3045309099070863	69.71664065237314
19	7.0	perception	457	diff_vonmises	-0.019439646584490097	-1.1138097045171884	1.7160857017856517	1.8640541003582165	4.043047812171696e-16	3.3350507090588457	0.3454650376214451	-0.5024719562239847	0.8479369938454298	104.15146399615887
20	7.0	wm	457	diff_vonmises	0.3607835146126802	20.67137270520304	0.00018249427834779499	1905.9663883834241	3.8441956369224816e-32	1907.2256831129407	-0.1450628269766412	-0.2557780840716646	0.11071525709502339	175.94040283054352
0	1.0	ltm	458	diff_vonmises	-0.39774916370391245	-22.789348385092254	0.19099474364852123	26.75043048402775	0.15941222539188848	28.15580863830292	-0.11556162470118281	-0.31126907081554656	0.19570744611436375	153.71588857139477
1	1.0	perception	458	diff_vonmises	-0.07643211908806746	-4.379237842987564	9.781231429353367	1.0244100852554963	0.07198839566201107	2.7154479334147856	0.7968822479476432	-0.4406702216945403	1.2375524696421834	42.94299462519564
2	1.0	wm	458	diff_vonmises	0.2217432289433418	12.704951154056646	2.213099887777182	0.5354483751715422	1.6272546004381207e-20	2.1960726975770584	-0.05595317531034094	-0.346004652853669	0.29005147754332805	92.34463892556636
3	2.0	ltm	458	diff_vonmises	0.1754806652761508	10.054301506471338	0.9292053071401101	72.71467164095154	0.9054311584009037	73.27002209139738	0.1491560413141606	-0.17814433129154228	0.3273003726057029	90.71369849593111
4	2.0	perception	458	diff_vonmises	-0.016987206181986243	-0.9732952199463528	7.94166485640826	1.3903813069408215	0.4557005073118238	2.009754733359428	1.0576516656176789	-0.3536299447311579	1.4112816103488368	46.151629019603234
5	2.0	wm	458	diff_vonmises	-0.021192707450494137	-1.214252693368769	7.810471227144677	0.40841379727090554	0.1852664665666515	1.4024935253330428	0.18120684291959988	-0.23446653281588248	0.41567337573548235	46.76224996856894
6	3.0	ltm	458	diff_vonmises	0.13774791316052087	7.892374060832415	2.0459102256393824	1.0076437892103445	0.7398036161690011	1.2428191187903397	0.16391007318280038	-0.10549444230669572	0.26940451548949607	76.77736275100409
7	3.0	perception	458	diff_vonmises	0.018976753303133496	1.0872878731304936	3.7246161623665883	2.3694259697710875	0.6625817089622302	2.685113093086856	1.0069090242524283	-0.350293380131173	1.3572024043836013	63.52631713803848
8	3.0	wm	458	diff_vonmises	0.03267747490321712	1.872281397099009	4.1927610953320995	0.3591635062796428	0.003618819603826292	1.0089319257609046	0.12215025268972948	-0.15996270656365197	0.2821129592533814	66.66260216573133
9	4.0	ltm	458	diff_vonmises	-0.33855395240281894	-19.397712610154482	3.4097402812439777	0.5855842629092587	1.8080783517176554e-14	1.5452116739241528	0.1662938087478115	-0.24547773696780759	0.4117715457156191	74.29845526427876
10	4.0	perception	458	diff_vonmises	-0.0043859236844159275	-0.25129491638350065	1.7923306790946252	4.303111119444373	0.5778803693159255	5.397622843448727	0.6662269794371647	-0.46406475278223436	1.130291732219399	83.32097936468497
11	4.0	wm	458	diff_vonmises	-0.2488568147304647	-14.258445187124682	1.1375764502678294	172.6101478082792	1.1173606768204338	174.01468197787128	0.1401267500229011	-0.3695241908471054	0.5096509408700065	78.3408237138568
12	5.0	ltm	458	diff_vonmises	-0.10453771230892953	-5.989569715254458	2.212743655508791	0.7473090604779986	0.17925530275198814	0.937133401590657	0.23268249525004947	-0.1210473027126953	0.3537297979627448	86.57191077982787
13	5.0	perception	458	diff_vonmises	0.0005170392912410859	0.029624169230549613	1.2040209790212864	239.10145708736508	1.1863677536309902	239.34614896091196	0.6880928600594274	-0.29380262339469	0.9818954834541174	84.87420219071208
14	5.0	wm	458	diff_vonmises	0.07948117356707618	4.553935796140224	2.0271102469710254	1.1573327500231114	3.490503661626764e-16	1.4026044454946411	0.37865859652268763	-0.21278795843748083	0.5914465549601684	96.39227736674133
15	6.0	ltm	458	diff_vonmises	-0.40293822691779985	-23.086659806874593	0.741051651157719	94.38199180125945	0.7226128169419112	94.670697737918	0.24868279575100516	-0.1777817428884978	0.42646453863950295	105.87868510538176
16	6.0	perception	458	diff_vonmises	0.2154798041040271	12.346083345466507	0.9870519361751392	2.4488749367039966	9.702770411216194e-15	2.749653287445988	0.3931687047878233	-0.3222319464065693	0.7154006511943927	128.70583222666403
17	6.0	wm	458	diff_vonmises	-0.23903528841754115	-13.695713181017478	3.0998346948037407	0.8384248773531425	6.349494567207531e-14	0.8724135487765265	0.4205747076769428	-0.1377131425369484	0.5582878502138913	78.0123617330779
18	7.0	ltm	458	diff_vonmises	0.08354323930153394	4.786675018829363	1.1970478997147063	259.7835263125497	1.1854439977483648	260.8407542891601	0.15956588118767456	-0.298087235781189	0.45765311696886357	77.25038369183142
19	7.0	perception	458	diff_vonmises	-0.1082348307905648	-6.201399000611975	2.0657117150735496	1.694590683835888	2.5077589043495547e-16	2.076954144455518	0.5608705124176288	-0.31624081707096635	0.877111329488595	95.51947279132781
20	7.0	wm	458	diff_vonmises	0.2581048545647439	14.788318838397746	1.1717827498565798	1.0639489561116857	1.4685192186282567e-17	1.9713984243455658	0.08406437571099273	-0.27557231346612204	0.3596366891771148	121.31369323673235
0	1.0	ltm	459	diff_vonmises	0.22563812412787973	12.928112209776497	4.3001228357594945	0.4448421946690408	8.535938395250117e-20	3.1436188015245987	-0.14458671426497427	-0.500256994089901	0.3556702798249267	65.96202566828862
1	1.0	perception	459	diff_vonmises	-0.08172828300758059	-4.68268568318513	9.038536882265065	0.9324091633290721	8.732151739645296e-14	3.527785595610831	0.5403791226819127	-0.5614645001692296	1.1018436228511423	45.17686733472607
2	1.0	wm	459	diff_vonmises	0.01728553477445267	0.9903881892027574	2.575658076072326	1.107374016676397	0.22685892894368656	4.368092326104514	-0.19697544662554012	-0.6368001450362725	0.43982469841073235	71.632628905308
3	2.0	ltm	459	diff_vonmises	0.005324039119083511	0.3050449714860339	1.0386511600228998	129.31724275156532	1.0135715612525693	130.79414655426416	0.10359150154257435	-0.36897636271572054	0.4725678642582949	81.43998255245995
4	2.0	perception	459	diff_vonmises	-0.03811085947402893	-2.183591401478026	7.34462222186405	1.2876781125249532	0.1265134437989009	2.781287311439299	0.8664267596317166	-0.44994752076272193	1.3163742803944385	49.14374948589273
5	2.0	wm	459	diff_vonmises	0.020693987290359685	1.1856781330349764	5.156911611513488	0.6573024984163901	0.12749629776790733	2.689861822549582	0.09506098082550085	-0.4281318642398965	0.5231928450653973	56.96758854479066
6	3.0	ltm	459	diff_vonmises	0.04041186895933596	2.315429533605689	1.6027658606556225	1.4268438411263105	0.07909045993209382	2.860653789228324	0.1514105978877917	-0.39392597516406125	0.5453365730518529	101.63422810451303
7	3.0	perception	459	diff_vonmises	-0.023063315537910734	-1.321430641900779	3.730576210457023	2.2616160332749864	0.1455907387120859	3.755929821318086	0.9857115727759075	-0.5588422882066891	1.5445538609825966	68.00889335336706
8	3.0	wm	459	diff_vonmises	0.08996322172219015	5.154512916081145	3.2245604627526343	0.7024682466668668	3.6627922681048257e-16	2.821089568924204	0.030300203289743532	-0.44823213645696336	0.4785323397467069	76.46120889735457
9	4.0	ltm	459	diff_vonmises	-0.038295835303135205	-2.1941897357977487	0.5584750790383427	3.156863033891491	5.030435550444126e-16	5.155714869144346	-0.0069934781537143165	-0.5542954795369455	0.5473020013832312	149.14794214053597
10	4.0	perception	459	diff_vonmises	0.011988309837142925	0.6868795571634569	0.8126466544168091	565.1883041172422	0.8014005318467234	567.7187044374898	0.44472680359723427	-0.7362591756257757	1.18098597922301	95.33567689569546
11	4.0	wm	459	diff_vonmises	-0.18837121561988118	-10.792875636768	1.777070448783927	1.5041108898352726	0.04388565786895586	4.773008161164209	-0.07110752022235145	-0.7060206346860056	0.6349131144636542	97.77573855428582
12	5.0	ltm	459	diff_vonmises	-0.05526517357592067	-3.1664611999581744	1.5775476582572405	1.5391773235356	0.1244176763663446	2.303221138036626	0.2738712547355295	-0.29312819946990426	0.5669994542054337	101.41235199234956
13	5.0	perception	459	diff_vonmises	-0.005984423093566728	-0.3428821860819973	0.9081538667426188	452.5465808936028	0.8970761740037705	453.3511692036889	0.6954292054599023	-0.4488484101843824	1.1442776156442847	95.360920574175
14	5.0	wm	459	diff_vonmises	-0.030713077087673055	-1.759729692983616	2.2235349034703473	1.336688225971208	1.861661654547166e-22	2.360347883234781	0.35925656924192234	-0.36705272590509624	0.7263092951470186	92.18604964826324
15	6.0	ltm	459	diff_vonmises	-0.11253886860589724	-6.44800220229523	0.3224843006316283	4.226491603822945	4.327404487699382e-12	4.824649250789347	0.1370951973552701	-0.29304285705988875	0.43013805441515884	161.50768528013748
16	6.0	perception	459	diff_vonmises	0.0016690591773193216	0.09563004661797442	0.7192052009546638	2.906904455555021	2.826328187025722e-16	3.6125435226813285	0.2628734422081134	-0.3761333512804612	0.6390067934885746	141.18007084126944
17	6.0	wm	459	diff_vonmises	-0.1580084444556121	-9.053216994733866	0.7051832857927797	105.45061404280715	0.6837133974925821	106.22152800631532	0.21443821829895526	-0.2708241382323049	0.48526235653126015	104.8627994959003
18	7.0	ltm	459	diff_vonmises	0.21555547806470957	12.350419144032653	1.220158975595133	124.99047023585337	1.2005407135971748	126.03070712875372	0.05773784085182854	-0.26469751194132485	0.3224353527931534	74.21318234543563
19	7.0	perception	459	diff_vonmises	0.00746438702859731	0.4276778733908232	0.8350641079230798	291.44077444973766	0.8174254739455427	292.7877187662487	0.5678908563890559	-0.527157128023525	1.0950479844125809	97.42636482464468
20	7.0	wm	459	diff_vonmises	0.5508072025682714	31.55892803256935	0.00020658718804303144	3639.884685967763	1.2928963200080712e-29	3641.401875888184	-0.12178851857947848	-0.36113567189420337	0.2393471533147249	170.97755608991318
0	1.0	ltm	460	diff_vonmises	-0.3529803624279724	-20.224285018120995	0.0003353769732134495	2097.9673193591298	7.008692809998224e-29	2099.5514792759986	-0.1401353533215115	-0.3640996318301859	0.2239642785086744	176.44927615846944
1	1.0	perception	460	diff_vonmises	-0.07324972121432852	-4.1968998760909155	11.393594007266246	0.8424952864889633	9.615215164123557e-17	2.7793595960189887	0.6791080275531693	-0.4423488181939215	1.1214568457470908	40.18199757938024
2	1.0	wm	460	diff_vonmises	0.06515575170913311	3.7331495839356275	3.3936169651854398	0.6341608698219252	9.564540674384164e-17	2.3255332702802605	0.0751371291177278	-0.36961779037356707	0.44475491949129486	74.48793333706811
3	2.0	ltm	460	diff_vonmises	0.1384415286157108	7.932115299019843	2.426524061496159	0.6850748087660317	5.805015372698619e-09	1.5400595963346044	0.151617156236148	-0.242011822551576	0.39362897878772396	88.28073213050149
4	2.0	perception	460	diff_vonmises	-0.017491429638325732	-1.0021850959261045	7.5007957827188125	1.4302403036204572	0.35021110435081604	2.323197429445614	1.0257694733327356	-0.3956872197103773	1.421456693043113	47.69107636391422
5	2.0	wm	460	diff_vonmises	-0.00697990522714678	-0.3999191109168127	8.43630097425209	0.42123923327095314	0.0013565389367436794	1.4412734708678392	0.2506446958893731	-0.22931046871424932	0.4799551646036224	46.760851984308175
6	3.0	ltm	460	diff_vonmises	-0.08946741838548464	-5.126105477419415	1.5878832555948539	0.8433808286402914	3.333299119961954e-18	1.3620816534883902	0.16137539389876382	-0.20098926579265863	0.36236465969142245	107.77177868085435
7	3.0	perception	460	diff_vonmises	0.03586794864570993	2.0550820771911558	4.0959507587522985	2.316131644681669	0.40775956821830767	2.66082384452786	1.1929100669736483	-0.3782249183444177	1.571134985318066	63.21879591642664
8	3.0	wm	460	diff_vonmises	-0.0855412598859191	-4.901153165694894	2.809350080947097	0.6883140703493333	1.2290405031226886e-20	1.4204618632008734	0.2080897677036149	-0.22449778083314406	0.43258754853675896	82.02498584695476
9	4.0	ltm	460	diff_vonmises	-0.3968594908401951	-22.73837388485393	2.5990070527416336	0.7872609692570441	9.492707874570079e-19	2.0957884889903586	0.14108869787840067	-0.33093134740513036	0.47202004528353103	85.23755868426807
10	4.0	perception	460	diff_vonmises	-0.015959514073022124	-0.91441279946381	3.3383412796254732	2.0569585446367573	1.7595520875731992e-19	3.352915798558747	0.8974379060090126	-0.53183003050718	1.4292679365161927	75.11767614408748
11	4.0	wm	460	diff_vonmises	-0.3189542726787609	-18.274733682157823	1.8524584615981592	2.0313704021069903	0.49072680253256706	3.6206104712761786	0.11329725406442559	-0.38688980163447506	0.5001870556989007	78.7959249133318
12	5.0	ltm	460	diff_vonmises	-0.18417037620507395	-10.55218526788734	0.46595517730212543	35.199057340144314	0.42864409084203986	35.510707133210246	0.17047294909625954	-0.18582750347654553	0.35630045257280507	129.79047620851236
13	5.0	perception	460	diff_vonmises	0.010309382204283716	0.5906840896927343	1.6340757152223329	4.579994143227867	0.7154938385595142	4.825659781488576	0.7022358763981498	-0.2979440921538167	1.0001799685519663	86.03377968382148
14	5.0	wm	460	diff_vonmises	-0.03946891295907755	-2.261402134524345	1.763506533405598	1.1948001000475985	3.2102705012795116e-12	1.5623463166751206	0.3223863098938093	-0.23187014235841968	0.554256452252229	102.87379611104424
15	6.0	ltm	460	diff_vonmises	-0.4521531678860928	-25.906468213343267	1.0413602371765442	1.187522078064238	4.157995299470972e-10	1.5610776269164104	0.16660895027816164	-0.19674014736916776	0.36334909764732937	125.38168168027244
16	6.0	perception	460	diff_vonmises	0.16192662358685805	9.277712122330495	1.2863029011125797	2.1436963657220507	9.791896643298399e-21	2.4468446279909792	0.4572607676551207	-0.3247923629646855	0.7820531306198062	117.40908276125433
17	6.0	wm	460	diff_vonmises	-0.11517621851624303	-6.5991112212572505	2.658523200088348	0.6396800220123353	2.7804634866841297e-20	0.9728139942996501	0.23594606212145483	-0.15291028877971835	0.3888563509011732	84.34810075019575
18	7.0	ltm	460	diff_vonmises	0.2790486976385443	15.988312653310809	1.4639325565193182	176.88281106477288	1.4488545186458228	177.7097121464691	0.1200154249678036	-0.246388673812163	0.3664040987799666	69.31876934893575
19	7.0	perception	460	diff_vonmises	0.008518456661254016	0.48807161465495746	1.2986111676421397	2.2393510562780423	3.735418005622795e-14	3.0136215519858767	0.40982390166101046	-0.41337963800605426	0.8232035396670647	117.12829635205371
20	7.0	wm	460	diff_vonmises	-0.1395689300374958	-7.996710642305171	0.00019426783111885457	3878.6977324517397	2.368073171714094e-32	3879.5195609614484	-0.010868010162084829	-0.2507164805156208	0.23984847035353596	179.43180829353437
0	1.0	ltm	461	diff_vonmises	0.13157376745121496	7.53862156959038	2.1079429295577614	0.44505581090642327	5.415182971993734e-41	1.7396239298208709	-0.03989463058719048	-0.27337169649909504	0.23347706591190456	94.58682662019402
1	1.0	perception	461	diff_vonmises	-0.10206111886485816	-5.8476713633394	9.830506590098558	0.9541175618291211	2.7251108394711047e-18	2.269766206506443	0.8162144864026529	-0.3612445080219554	1.1774589944246083	43.29402136458083
2	1.0	wm	461	diff_vonmises	0.16079804436115014	9.213049295851288	1.4573715129258151	1.9923702460800428	0.4277286144827679	3.4942861453050815	0.032808899304744954	-0.3405078071789703	0.37331670648371523	86.13162360133649
3	2.0	ltm	461	diff_vonmises	0.022526423660760648	1.2906690032852228	0.8945570936198805	72.29769717929231	0.8655468900797331	73.14099022500729	0.13318536890387378	-0.23626866486957798	0.36945403377345176	90.74921938333432
4	2.0	perception	461	diff_vonmises	-0.01971819130660827	-1.129769141500204	5.854640046301937	1.6922997254445118	0.40110628274574145	2.4499047867376125	1.035776038098419	-0.3962251699358358	1.4320012080342548	53.329591280362536
5	2.0	wm	461	diff_vonmises	-0.011178711036361593	-0.6404929627798338	8.322684526231292	0.42269442678243885	0.20123886278985567	1.5341205061310603	0.18306354324066215	-0.25990380447110345	0.4429673477117656	45.20422155792747
6	3.0	ltm	461	diff_vonmises	0.06234841903014495	3.5723012697404513	0.8993169981293144	132.66659393027527	0.883136899322073	133.2254275200758	0.23041774509658808	-0.21173339840234462	0.4421511434989327	93.64949445922244
7	3.0	perception	461	diff_vonmises	0.027761878446989276	1.5906384663676898	2.4223493732260017	3.9219669415671206	0.7083359740521966	4.413825515105411	1.0057769043241436	-0.42204961979031685	1.4278265241144603	74.44897759776654
8	3.0	wm	461	diff_vonmises	-0.004306781277209781	-0.2467603904700827	2.4890296891849215	1.071766446691888	0.49893612607078897	1.9173641580093486	0.15730884443737803	-0.23505105495741793	0.392359899394796	72.20290765803176
9	4.0	ltm	461	diff_vonmises	-0.2386254439875531	-13.672230824922218	5.679353538402032	0.5418768459942069	4.652909869472735e-34	1.784923499535417	0.21859911845872199	-0.28407353192198614	0.5026726503807082	57.212525802149656
10	4.0	perception	461	diff_vonmises	-0.022986957310941587	-1.317055637764345	1.0043630451541556	387.77338113696266	0.9889784671762561	389.3424898333024	0.5959336927507479	-0.5623763136005735	1.1583100063513214	88.1239696271239
11	4.0	wm	461	diff_vonmises	-0.36069216428227185	-20.666138716813514	1.3291811705748775	9.520066756800343	0.9913814879163148	11.102933097639733	0.05836136396491476	-0.38797012623342875	0.4463314901983435	75.39862802988351
12	5.0	ltm	461	diff_vonmises	-0.11657578193392308	-6.679300298251222	1.7073056725615319	0.7113758544696996	1.2541214919338904e-13	1.0923156315153344	0.159505659196215	-0.16288313364259752	0.3223887928388125	104.36412593224557
13	5.0	perception	461	diff_vonmises	0.016479970151215866	0.9442327361662423	1.1121037965043925	224.45263486798692	1.0931428076133758	224.78213186625172	0.6781726614318302	-0.3154307038486124	0.9936033652804426	87.95287839916955
14	5.0	wm	461	diff_vonmises	-0.016421170525826968	-0.940863765794508	1.3165809592162336	1.9094589407054268	0.28801839386781963	2.4542228908639	0.25435097221660863	-0.2326165201981051	0.4869674924147137	101.9593220189598
15	6.0	ltm	461	diff_vonmises	-0.3990380376443442	-22.86319542220339	1.148720658069378	1.0301691277231997	2.51558317611666e-16	1.5902913573797657	0.12767701238880558	-0.21482813632979067	0.3425051487185963	121.65531196159304
16	6.0	perception	461	diff_vonmises	0.10980931229900932	6.291610145967237	0.5281328889078447	45.73516184625682	0.4755942310267014	46.30618117116852	0.3109029975519828	-0.32397757734825383	0.6348805749002366	124.49058868261184
17	6.0	wm	461	diff_vonmises	-0.11920986158134841	-6.830221944950002	2.8271219514155717	0.5313328841559779	2.4197604446152114e-18	1.085289811116541	0.16363299715707322	-0.1715510596508517	0.33518405680792496	81.76191501703443
18	7.0	ltm	461	diff_vonmises	0.1681242927905646	9.632812410521085	1.4285416320552118	164.71539009130078	1.4108176947733169	165.71628360489865	0.10126049151428163	-0.28276194697549073	0.38402243848977236	69.38012587762739
19	7.0	perception	461	diff_vonmises	-0.06114358838286965	-3.503269558623561	1.8491722427248303	1.8722906254207983	2.2935058151564308e-15	2.5055693162019477	0.5222125383193048	-0.3759628157418611	0.8981753540611659	100.65685070148841
20	7.0	wm	461	diff_vonmises	-0.05154256405833416	-2.953171385825236	0.00016322861923653124	3748.6030157415826	3.549249429958721e-30	3749.542540945618	-0.05214252491373372	-0.2469096879638073	0.19476716305007358	179.91458544611967
0	1.0	ltm	462	diff_vonmises	0.24385020658824166	13.971587670899469	4.821749599005132	0.42117391366162354	5.436039364845531e-16	2.2922894254592747	-0.006624912895928814	-0.3648059650066799	0.3581810521107511	62.20261716793266
1	1.0	perception	462	diff_vonmises	-0.11122042226382492	-6.372460791380025	9.316856437729006	1.0259783565492404	7.867531685690361e-19	2.727963445784439	0.7972771304944979	-0.4341688570149876	1.2314459875094854	44.49068843244277
2	1.0	wm	462	diff_vonmises	0.13908186752051566	7.96880401572319	0.8406958873407105	36.79402895142004	0.7598945161259714	39.077426087798436	-0.10817104713859749	-0.4694938804164943	0.3613228332778968	86.00822652023103
3	2.0	ltm	462	diff_vonmises	-0.06638693969948405	-3.8036914595699294	1.1076301363201717	187.0824756497075	1.091989459499073	188.17920207497468	0.15407914066494754	-0.30149661657219795	0.4555757572371455	80.35743292392854
4	2.0	perception	462	diff_vonmises	-0.032648763332047116	-1.8706363452477786	6.50572829192349	1.4377897865650016	0.22616970053198124	2.4373507726084322	0.9523747375105273	-0.39483761871293066	1.347212356223458	51.642574002395975
5	2.0	wm	462	diff_vonmises	-0.010313592675223063	-0.5909253319073214	6.262678508379722	0.5246745677062866	0.218065846510634	2.0521098182913087	0.11097739111954835	-0.34021196123586306	0.4511893523554114	51.0127754054688
6	3.0	ltm	462	diff_vonmises	0.09752925073288944	5.588014446067756	0.8948671290016421	167.6540290961111	0.8778665663080042	168.63412256366894	0.23098723477862393	-0.30365091470053684	0.5346381494791608	91.86049954827538
7	3.0	perception	462	diff_vonmises	-0.019811875786471294	-1.1351368668022337	2.7473760847047	2.831805246703358	0.3778600318353509	3.8800788655519507	0.8935771688521401	-0.48842385279299444	1.3820010216451346	74.42172279141064
8	3.0	wm	462	diff_vonmises	0.06988403932180695	4.004060508465826	2.830863256789283	0.9461910900445685	0.33898432430051784	2.3998591764835493	0.0784540819939703	-0.3371041153008985	0.4155581972948688	69.66593715830979
9	4.0	ltm	462	diff_vonmises	-0.06250122104936927	-3.581056180543081	2.048369425250298	1.0199354865635595	4.775712545439932e-25	2.4889094392121183	0.1376654647808329	-0.3872460816069595	0.5249115463877925	95.91998635370763
10	4.0	perception	462	diff_vonmises	-0.016417376717058483	-0.9406463965637941	0.8690144809034557	504.606474923345	0.8578970776020566	506.5994299408958	0.4428601937168253	-0.6096249802847282	1.0524851740015535	92.89463215143678
11	4.0	wm	462	diff_vonmises	-0.23623302963855544	-13.535155579878115	0.927425099508402	144.60187567050514	0.9014457985110462	146.77008489022282	0.01458570443169549	-0.49020115975929457	0.5047868641909901	83.82274668047147
12	5.0	ltm	462	diff_vonmises	-0.03661781364303459	-2.0980461767424474	1.6349500022193522	1.4745466723015983	0.27080397507368137	2.06892400272174	0.24913121278367312	-0.22580596013838594	0.47493717292205906	93.88204046409149
13	5.0	perception	462	diff_vonmises	0.010646120591618994	0.6099777780870874	1.0001906680515837	341.354005879847	0.9868717249300426	341.9404276883289	0.6615683998351187	-0.3753283160173524	1.0368967158524711	91.51521743768245
14	5.0	wm	462	diff_vonmises	-0.011479590086642589	-0.6577320625048394	1.8359664761079744	1.4166637739504049	0.08742703914648572	2.1994477068499716	0.31255328538751687	-0.30249292587327337	0.6150462112607902	96.58802070368944
15	6.0	ltm	462	diff_vonmises	-0.20612430950734859	-11.810052989819383	1.0560253166183193	1.3602759679580305	3.982631643598833e-18	2.028947552646753	0.15628020668855747	-0.2649384739563046	0.42121868064486206	125.98942640098346
16	6.0	perception	462	diff_vonmises	0.04509500223322397	2.5837533050967556	0.6485347405910483	2.8593470574972923	7.454655077904455e-21	3.578362082263689	0.21611237680057704	-0.35477012622113546	0.5708825030217125	144.5809177054495
17	6.0	wm	462	diff_vonmises	-0.1845827957209377	-10.575815165535161	1.1398493227991144	3.03110482952668	0.5047620001979455	3.697398254542427	0.19977551696618157	-0.22823554300930665	0.4280110599754882	97.42193219242507
18	7.0	ltm	462	diff_vonmises	0.06102813779566907	3.496654727234661	1.191846961659324	171.23971742605545	1.1748499811604303	172.43124900024057	0.09270115578914329	-0.3089664045948268	0.4016675603839701	75.77719797715235
19	7.0	perception	462	diff_vonmises	-0.05952312675601752	-3.410423946542031	0.9477377298478541	57.33187578148613	0.8686071543343886	58.065759340407396	0.6311117104670352	-0.40717646111963646	1.0382881715866716	95.06201865607804
20	7.0	wm	462	diff_vonmises	0.45127631143181784	25.856228039274505	0.0004315283373833062	1802.9265939575052	8.198269195497038e-28	1804.1644900202757	-0.07317955042691437	-0.3208282878114801	0.24764873738456572	173.79515460585594
0	1.0	ltm	463	diff_vonmises	0.3509149424069311	20.105945167993507	0.7463200578437199	125.70224580113175	0.7292519108216723	127.58483037106602	-0.13673904820980454	-0.36901398262665275	0.2322749344168482	86.89436665139792
1	1.0	perception	463	diff_vonmises	-0.06523954317764417	-3.7379504814405147	8.846426045152834	0.96820745872092	8.401243051718154e-15	2.904361986552773	0.6693443321340495	-0.4622435432533004	1.1315878753873498	45.67015390993376
2	1.0	wm	463	diff_vonmises	0.3025370130301506	17.334093993122025	5.619775729952074	0.17454651460330872	0.04053227953756661	2.43917871000805	-0.2430785612213956	-0.3896608402244556	0.14658227900305998	54.71078413455015
3	2.0	ltm	463	diff_vonmises	0.2701093927166732	15.476128209507074	0.4641379680589354	109.89740541420812	0.4516834472579058	110.96508543569401	0.00016985336341690527	-0.2629108421631017	0.2630806955265186	120.39106898856033
4	2.0	perception	463	diff_vonmises	-0.03511863435825671	-2.012149530991234	7.495791502784579	1.5901298947243931	0.4323345978150229	2.749668936454794	1.0619688888822445	-0.4800134984739928	1.5419823873562373	47.17411703131651
5	2.0	wm	463	diff_vonmises	-0.013608096184963935	-0.7796864786065103	6.900688201743899	0.4298204347718909	0.20111170529626116	2.369611368610368	-0.014877980855003248	-0.3989764842770194	0.3840985034220162	48.267157050625116
6	3.0	ltm	463	diff_vonmises	0.15719057104722756	9.006356300257451	1.4293110647074005	128.52748124651174	1.4134927976601577	128.97679754337938	0.17359771367068788	-0.16554221238512312	0.339139926055811	73.17578342385511
7	3.0	perception	463	diff_vonmises	-0.011985846464017189	-0.6867384162799862	1.3351041210194843	350.0521584551565	1.3171198232179469	350.78795902921763	0.844318673728992	-0.45204392019716266	1.2963625939261547	79.00117931156345
8	3.0	wm	463	diff_vonmises	0.040504024165438926	2.320709637975547	1.4241752101869958	94.2610600178648	1.3972124004504658	95.38918670246522	-0.015491178376372261	-0.2840348474536061	0.2685436690772338	66.10472918423994
9	4.0	ltm	463	diff_vonmises	0.19618029468888912	11.240302909306106	0.8255864973551779	102.8291437571388	0.8076358543015298	104.17364043726577	-0.057764617257760165	-0.278948122733814	0.2211835054760538	85.4770814839076
10	4.0	perception	463	diff_vonmises	-0.0004783474609784575	-0.02740729065486445	0.9574100399555091	363.6552738863446	0.9428944618407937	365.51572963013496	0.3868469276495148	-0.5523822017138045	0.9392291293633193	88.14038717370025
11	4.0	wm	463	diff_vonmises	-0.2848902259132823	-16.323007569359632	0.9646311843662064	164.7697360769351	0.943906287791494	166.92036230599157	-0.06373075412817286	-0.4653592909409383	0.40162853681276545	79.82936337905481
12	5.0	ltm	463	diff_vonmises	-0.05871501964287365	-3.364122819564386	1.3329834017306512	112.88193242712858	1.309728156851087	113.92540873030347	0.05878097387769543	-0.2738116625416147	0.33259263641931014	70.88936438370229
13	5.0	perception	463	diff_vonmises	-0.006908419982404053	-0.3958233080955947	1.311621705104524	7.755530708145895	0.6866719250334492	9.216295154038848	0.4996997258435667	-0.5013407314103758	1.0010404572539424	88.22491487438327
14	5.0	wm	463	diff_vonmises	0.18703821494527617	10.716500324025043	2.705448156888281	0.8139082277064984	0.07261364490587456	2.4578520784435387	0.08221687625658292	-0.36816961321641944	0.45038648947300236	79.15481956369004
15	6.0	ltm	463	diff_vonmises	-0.18738851666004389	-10.736571133837428	0.843148111903976	130.19096674020318	0.8229225529580426	131.62973355592905	0.059472420418501315	-0.34118010780781916	0.40065252822632047	89.73339353186277
16	6.0	perception	463	diff_vonmises	0.2308575247289651	13.227161835806735	0.16940975193521576	98.2583153174119	0.14690250413048722	100.1355611018892	0.03322104052823249	-0.5787208454003121	0.6119418859285446	159.54752396943775
17	6.0	wm	463	diff_vonmises	-0.24733749930529036	-14.171394825513069	2.186188336943676	0.886164162555667	1.6429849745960083e-12	2.533153301779465	0.07914649279202085	-0.3970764109029542	0.47622290369497505	92.88977162318447
18	7.0	ltm	463	diff_vonmises	-0.29637184810211653	-16.980856062743594	1.3087907357266513	161.34878945853092	1.2898542648555456	162.863771243607	-0.04390557040979104	-0.3618587933846982	0.31795322297490713	68.21119770183418
19	7.0	perception	463	diff_vonmises	-0.16221294262362018	-9.294116994731215	3.584696032076028	1.3231573698525543	2.0137397608342594e-20	2.438865671104043	0.5696008937273938	-0.3874201840445827	0.9570210777719765	72.42372564218095
20	7.0	wm	463	diff_vonmises	0.7573945810725158	43.39551292153422	0.6479989821841854	66.56602944114053	0.6175851779326005	68.39476438900277	-0.10744823837769246	-0.36628501445287576	0.2588367760751833	96.03030676203218
0	1.0	ltm	464	diff_vonmises	0.1590657318967654	9.113795102844136	4.098908784818616	0.35767965017847464	1.0654796036846708e-40	3.1911524064161605	-0.22919935660627844	-0.5078109684259766	0.2786116118196982	67.60610665681023
1	1.0	perception	464	diff_vonmises	-0.04102577848236247	-2.350603958277997	8.180402045936553	0.9894126022515867	0.06717127042243563	3.877656204586389	0.4511734250510949	-0.6256721318233711	1.0768455568744661	46.69637276895568
2	1.0	wm	464	diff_vonmises	0.09468006356241081	5.424768046156509	1.6181675602831072	1.9344271719035984	0.2632516469897084	5.403589612995808	-0.22250473074278554	-0.6761800606057484	0.4536753298629629	84.10372192488981
3	2.0	ltm	464	diff_vonmises	0.14809962277608482	8.48548333254922	1.529096176949137	4.639875518053587	0.9061924809763398	5.888094482939521	0.12610516517776582	-0.3306388186871706	0.4567439838649364	75.73147629545815
4	2.0	perception	464	diff_vonmises	-0.020755668226581803	-1.1892121903569195	7.567251591582847	1.2965405640864989	0.1776685043331545	2.616773111034477	0.9041585814896946	-0.42949626113268247	1.333654842622377	48.1723076368182
5	2.0	wm	464	diff_vonmises	0.07405190620039863	4.242861690181494	5.27440196082333	0.6114531937621511	0.04709714438320188	2.4488360492489103	0.13715795856965124	-0.3868130053793565	0.5239709639490078	58.08162541190089
6	3.0	ltm	464	diff_vonmises	-0.09462558672458916	-5.42164675326811	0.7010062909289654	1.7546028181673787	1.726790826449138e-17	2.837955121463223	0.047938998217786855	-0.3287144320664029	0.37665343028418974	141.95668974542417
7	3.0	perception	464	diff_vonmises	0.005248208012606943	0.3007001691291194	5.165718627521108	1.8416499976348453	0.1358679508845186	2.942530734172765	1.090803113650298	-0.4573355681055044	1.5481386817558025	58.469438837245804
8	3.0	wm	464	diff_vonmises	0.16769354848067422	9.608132579515091	1.3522062530888248	1.217990735845964	6.944285022070837e-18	3.023143142402395	0.014450381377102084	-0.44798576555974495	0.46243614693684704	115.12929191603743
9	4.0	ltm	464	diff_vonmises	-0.27406943314213345	-15.703021812587135	0.687577672751078	2.492552455850974	2.811819455228957e-17	4.29820061349741	0.01928970254509088	-0.5062645343868638	0.5255542369319547	141.79252145005967
10	4.0	perception	464	diff_vonmises	0.045121485913406735	2.585270708197202	1.3380903755424398	8.47061330438117	0.6081127977445331	10.686241628415074	0.570941532873666	-0.6934344336100755	1.2643759664837415	88.75499959572915
11	4.0	wm	464	diff_vonmises	-0.3279961855639108	-18.79279712920187	0.9109524990396061	2.8612859241429347	4.691198787364571e-16	6.210848094166453	-0.05912342018346628	-0.8381911073601507	0.7790676871766844	131.4379242872484
12	5.0	ltm	464	diff_vonmises	-0.09873997399506135	-5.6573837791485175	1.3890248587069802	1.515214258576892	0.0878641631193595	2.0290245944323364	0.27464798085566405	-0.25624828669939886	0.5308962675550629	109.47149105423213
13	5.0	perception	464	diff_vonmises	-0.02639826459221039	-1.5125091476032946	0.9783556242522304	380.49013708471523	0.9654465531885204	380.9342079375387	0.7823814907343092	-0.3950346910238167	1.177416181758126	93.41941663077785
14	5.0	wm	464	diff_vonmises	0.004267732725210242	0.244523073244412	2.144025391576247	1.4689202445999225	3.98351878634744e-16	2.173511793179524	0.4442730090863428	-0.33507398550031264	0.7793469945866555	93.83506099988637
15	6.0	ltm	464	diff_vonmises	-0.0364373344241201	-2.0877054792088297	0.00025195076748920015	5214.107999017313	1.2138198508805603e-29	5214.301401595914	0.1783135589869289	-0.2398491727565215	0.4181627317434504	179.94760833338123
16	6.0	perception	464	diff_vonmises	0.04906722423109825	2.8113448608639757	0.9232572345920806	2.6275408419742536	7.956167989981449e-13	2.8964887488885758	0.3986044798499574	-0.3253569379501946	0.723961417800152	131.81460246679404
17	6.0	wm	464	diff_vonmises	-0.21529622095145584	-12.335564805634469	1.151076372188868	2.729209653716705	0.3644798653368777	3.0114386276192384	0.34227871219699935	-0.2210682427575011	0.5633469549545005	106.15030430772492
18	7.0	ltm	464	diff_vonmises	0.26879465371575495	15.40079921359321	1.07477378225691	137.42161910284347	1.0569969956699672	138.54369605479712	0.06364814662381946	-0.2772724426871811	0.34092058931100055	79.38463364561304
19	7.0	perception	464	diff_vonmises	0.011393323333623268	0.6527893416445348	0.8594763489265127	334.2610571848101	0.8442598360760125	335.38481901066586	0.6197407970024074	-0.49570927920989405	1.1154500762123014	96.83208589909069
20	7.0	wm	464	diff_vonmises	0.42882227455765975	24.569706493354126	0.0002759283187489116	3837.951509148512	9.15107603151168e-30	3839.430955860026	-0.06690937965038302	-0.4039898841598415	0.3370805045094585	174.3733699665549
0	1.0	ltm	465	diff_vonmises	0.13297879181063804	7.619123535498394	4.107040718204702	0.40333516216910986	2.45613721199459e-22	1.8337299505220885	0.022727039509459313	-0.2917619796198788	0.31448901912933813	67.54238323434569
1	1.0	perception	465	diff_vonmises	-0.09189470571391152	-5.265178797003861	11.674956974218253	0.8950852897750226	5.073904052731554e-17	2.5749247311835424	0.7965513853436924	-0.409811998970164	1.2063633843138564	39.69209282321475
2	1.0	wm	465	diff_vonmises	0.09983450208726063	5.720095619390042	3.1504558832916225	0.7930067710564414	0.19842568257792118	2.5136512410711336	0.05089994615659216	-0.3733755846557602	0.42427553081235236	69.36043488117085
3	2.0	ltm	465	diff_vonmises	-0.10074343115410087	-5.7721734187967515	2.6061233169352866	1.0480554203229473	0.36374457713171726	1.82947497075639	0.22750509529651575	-0.23576240004923585	0.4632674953457516	74.42157728757374
4	2.0	perception	465	diff_vonmises	-0.03445384682717714	-1.9740600111874524	9.332113310041978	1.024674776642699	0.05069935663273834	2.0121259911024447	0.8944816598032599	-0.32314499971227656	1.2176266595155365	44.155067059261114
5	2.0	wm	465	diff_vonmises	-0.12313642066759602	-7.055197208600735	5.261150584494192	0.6202998339544432	0.32493372400555415	1.706375704485442	0.18652952587711807	-0.2783252957593564	0.46485482163647446	54.6633933806491
6	3.0	ltm	465	diff_vonmises	-0.01618046152957673	-0.9270721562185391	0.9697678133426381	140.47209535527887	0.9541087482564645	140.9420402104516	0.2608806084717372	-0.2005191328653737	0.4613997413371109	91.04429221923064
7	3.0	perception	465	diff_vonmises	0.0467148400360191	2.676563174692661	2.198657512371548	5.6054212040490015	0.997764278475174	5.988135273285174	1.0175321817079763	-0.41386772883689443	1.4313999105448707	73.47579625536076
8	3.0	wm	465	diff_vonmises	-0.0734231570362704	-4.2068370167045686	2.6438867695686468	1.173712876264722	0.4454004369470075	1.8206072104575914	0.28402649112520345	-0.22532278266237432	0.5093492737875778	73.30571487297411
9	4.0	ltm	465	diff_vonmises	-0.2583450535429836	-14.802081226094236	3.406648942868231	0.6910404041916791	6.927158214728111e-18	1.7883363210494088	0.20161888093858343	-0.2840881340226121	0.48570701496119556	74.33415930214724
10	4.0	perception	465	diff_vonmises	-0.02648168919087426	-1.517289025014307	1.065486580094964	325.1140887778033	1.046524205956479	326.32093236255236	0.7368777270343827	-0.5300441124010078	1.2669218394353905	87.08992189194973
11	4.0	wm	465	diff_vonmises	-0.340275257526991	-19.49633612902378	1.1840766557397147	131.65320112294043	1.161844855120168	132.72902110070405	0.14245357290185723	-0.2961931407202911	0.43864671362214835	77.5011911961981
12	5.0	ltm	465	diff_vonmises	-0.014329064466020287	-0.8209949182738411	1.6023261256466292	0.9269535465427796	1.2838976404887094e-15	1.1739985293920798	0.23107540720957276	-0.16989100745022	0.40096641465979277	107.37060650020399
13	5.0	perception	465	diff_vonmises	0.010039318284206825	0.5752105668735702	1.1463853838965845	115.4287676329108	1.1109879429599787	115.76959799927344	0.6386036646499988	-0.30151219856810485	0.9401158632181037	86.78336795789704
14	5.0	wm	465	diff_vonmises	-0.021850633326776354	-1.2519490693121864	1.4632187835956323	1.995034354984768	0.34919069563599026	2.3328203529977394	0.340502711765416	-0.21145519232464882	0.5519579040900648	97.27775516480193
15	6.0	ltm	465	diff_vonmises	-0.3455185447557312	-19.79675435800544	1.2305060589233028	1.1092647027338152	5.261053255242291e-13	1.5969717405610655	0.17263058897180977	-0.21773892790834462	0.3903695168801544	118.9327169709384
16	6.0	perception	465	diff_vonmises	0.2131926075352749	12.215036635160203	0.6033644610489031	3.381999962773102	2.0015934482823402e-18	3.5157518739057783	0.34071131189612835	-0.29021216241618114	0.6309234743123096	146.1520222211239
17	6.0	wm	465	diff_vonmises	-0.2570692250644242	-14.728981638890184	2.258130487608024	0.6305192891622187	0.06455680210020419	0.8862091577322446	0.19957659709297906	-0.12826509282777265	0.3278416899207517	88.96418033021094
18	7.0	ltm	465	diff_vonmises	0.2102869251845532	12.048553299858199	1.2554353878790254	127.903801568493	1.2361490409900493	128.4051471893161	0.25904328319512615	-0.20196366458436188	0.46100694777948803	79.42097898065006
19	7.0	perception	465	diff_vonmises	-0.0544092910736291	-3.1174227448177714	1.9255513400949964	1.628522601492639	2.130307211898453e-17	1.6091453617980302	0.5649505862050435	-0.23865073929265973	0.8036013254977032	98.77148363292461
20	7.0	wm	465	diff_vonmises	-0.05187779156386946	-2.9723785070691067	0.8528733238489884	1.148000172127756	2.6227443595834535e-15	1.6303508738914008	0.1006932179621352	-0.19405799728020107	0.2947512152423363	134.9401595182597
0	1.0	ltm	466	diff_vonmises	0.09295111305636612	5.3257064791731406	2.844875731047288	0.36546835688221135	5.9146428292228925e-30	2.4418073028558003	-0.15643743885575023	-0.3878407332912563	0.23140329443550606	81.50576479580354
1	1.0	perception	466	diff_vonmises	-0.04106478612711115	-2.352838931690842	8.694444131733373	1.0298477972213245	0.1191272914538652	3.395657457684381	0.586170696648672	-0.5584471876907852	1.1446178843394572	45.02730769608837
2	1.0	wm	466	diff_vonmises	0.14857639652581636	8.512800456191465	4.320946642667071	0.39874866886829263	0.018824113239602563	3.00736513427345	-0.1680278261091866	-0.4750280475570554	0.3070002214478688	64.3215996260036
3	2.0	ltm	466	diff_vonmises	0.05985980272152503	3.4297140584291035	2.0331362111643054	1.2780302712215077	0.49817117169264474	2.1623637057562908	0.1330640015598833	-0.23704730486184356	0.37011130642172685	77.55159818463162
4	2.0	perception	466	diff_vonmises	-0.02573233411119138	-1.4743541415917887	9.063247028063635	1.1287641906981145	0.185041732053351	2.242524959929552	0.9097273654674063	-0.37555779954409946	1.2852851650115058	44.16889960598769
5	2.0	wm	466	diff_vonmises	-0.03748199211179505	-2.1475599557485	4.719007548325463	0.6328564011348681	0.20300032543455504	2.213552098713762	0.10488137766802247	-0.35140395119028134	0.4562853288583038	58.230087134690734
6	3.0	ltm	466	diff_vonmises	0.12589272472943475	7.21312179839886	1.9224771707708261	0.9204452344368146	0.43007601453161914	1.375562495159806	0.14207646673366137	-0.14589527034405014	0.2879717370777115	82.7606626868523
7	3.0	perception	466	diff_vonmises	0.023598348769118947	1.3520857879482568	3.5170071937468417	2.528358306505982	0.6062123629335747	3.1116893872708977	0.9808628398694917	-0.4048771139529006	1.3857399538223922	65.08026620508298
8	3.0	wm	466	diff_vonmises	0.04101126889313658	2.3497726200528852	3.2428992919919053	0.5213240218166678	1.0907069464068637e-16	1.5561065541958115	0.10915492950465278	-0.24711785894289104	0.35627278844754384	76.24430411560098
9	4.0	ltm	466	diff_vonmises	-0.3274763579456758	-18.763013200602664	2.3646557065799167	0.6958953074540294	0.027703415074935008	1.8994976378053567	0.08612876913405937	-0.2904923328542447	0.37662110198830406	87.37832435188159
10	4.0	perception	466	diff_vonmises	0.022043066494016418	1.2629746776333772	1.0869629816377964	376.48008992386485	1.0706986123697153	377.97202724361654	0.6195195073767366	-0.5495908113339283	1.1691103187106648	84.87805349844274
11	4.0	wm	466	diff_vonmises	-0.23763660922352778	-13.615574766307752	0.7958360692276557	168.83449375270484	0.7752926565639996	170.7609127772178	0.0864906493735873	-0.4606846560475226	0.5471753054211099	92.71208274420707
12	5.0	ltm	466	diff_vonmises	-0.026368300881824205	-1.5107923534596137	1.86742672475824	1.11583556543033	0.2550261921350894	1.4586772317702523	0.25738910183963504	-0.16821200618705323	0.42560110802668827	90.43621427589213
13	5.0	perception	466	diff_vonmises	-0.024925184495784958	-1.4281078751933929	1.0869974091227474	266.0055776903976	1.0696095530884246	266.4838099437399	0.6983929947661807	-0.35669907408712476	1.0550920688533054	88.35495438339146
14	5.0	wm	466	diff_vonmises	0.06751210067415762	3.868158434691552	2.378658366703786	1.2215950017154023	1.8303001677988175e-18	1.7720471566470994	0.4171073333267418	-0.27602536045949644	0.6931326937862383	89.1707560203782
15	6.0	ltm	466	diff_vonmises	-0.2772174489712031	-15.883389833433203	0.5374630383865052	105.60054839642062	0.5225601960388875	105.91094670640628	0.21753381186533005	-0.2002247725751669	0.41775858444049696	122.13601160904264
16	6.0	perception	466	diff_vonmises	0.189526265201574	10.859055102927352	0.5675369451591478	3.9619578920383667	2.0474120433819404e-14	4.147326828094016	0.3677495805258316	-0.32972767318029295	0.6974772537061246	148.0836129252865
17	6.0	wm	466	diff_vonmises	-0.3113295491263253	-17.837869202649266	1.921098620155536	1.1211944038449018	3.293405500130672e-11	1.254439772666925	0.3648285871780328	-0.18754404958685555	0.5523726367648883	98.72423552034323
18	7.0	ltm	466	diff_vonmises	0.17253964744003603	9.885793596989263	0.9344009385483917	141.57024767984356	0.917932847041456	142.39298197486855	0.1750872997768198	-0.24629525803350738	0.4213825578103272	89.41000361710985
19	7.0	perception	466	diff_vonmises	-0.06993280056274737	-4.006854321775532	2.258255319418581	1.695841925194197	0.007621902143991515	1.9747659021114865	0.6243701731758282	-0.3016197273534633	0.9259899005292915	91.23687713850515
20	7.0	wm	466	diff_vonmises	0.23537982599062385	13.486270611786468	0.5065421512943032	120.1709434186179	0.49193096322939	121.15877043848063	0.08587044599210003	-0.28872556268270166	0.3745960086748017	119.4067660297639
0	1.0	ltm	467	diff_vonmises	-0.24245789213241095	-13.891813928825314	0.06416334029282403	46.43623344826503	0.05340995285367201	47.702953286941245	-0.13077537553911434	-0.2680542979689413	0.13727892242982698	171.23557492601577
1	1.0	perception	467	diff_vonmises	-0.05265019298744172	-3.0166338487296938	10.272480941670064	0.8502032915269097	0.01732198899490329	2.4532850356349742	0.6759961127223435	-0.3916621403138737	1.067658253036217	42.20439391416184
2	1.0	wm	467	diff_vonmises	0.16150566429719646	9.25359293168606	5.68269839084225	0.2143631550799604	1.9146060599179642e-24	1.7019203947519395	-0.07194329136836197	-0.2708667378341323	0.19892344646577031	57.194469334660056
3	2.0	ltm	467	diff_vonmises	0.387087175419858	22.178461455198004	0.4620327574822328	87.72256920385902	0.44772881612357274	88.40653749349846	0.0706313490804682	-0.2133163099486275	0.2839476590290957	124.40425022573407
4	2.0	perception	467	diff_vonmises	-0.013103600430821068	-0.7507810011118544	7.411835154038018	1.5823922527180687	0.4969683541049806	2.5243027232502344	1.0661045770335094	-0.44433171893692247	1.5104362959704318	47.243391024743175
5	2.0	wm	467	diff_vonmises	-0.02998510235704908	-1.7180198133266893	7.624657902281081	0.420073496346954	0.25595338085732283	1.7822137514659504	0.09414968956499009	-0.30712728950003826	0.40127697906502835	46.211817545182754
6	3.0	ltm	467	diff_vonmises	0.21424550318342908	12.27536311206713	1.5595285837335928	109.30682825679101	1.5464348536898247	109.43046268701274	0.19301806630477358	-0.09348935223022536	0.28650741853499895	73.33623279173656
7	3.0	perception	467	diff_vonmises	0.018877284557530464	1.0815887338139794	1.6750482967203746	187.08917584616364	1.6371798152577097	187.4717432306562	1.0231938968350107	-0.4310754811311135	1.4542693779661242	71.70003797970512
8	3.0	wm	467	diff_vonmises	-0.030114040671193266	-1.725407434544683	3.191500809816195	0.5318206827538247	0.4047065481075304	1.310715029230011	0.06049682280374302	-0.18913475309392247	0.2496315758976655	65.49663670621499
9	4.0	ltm	467	diff_vonmises	-0.22543573882942128	-12.916516386339334	13.530515003359598	0.2313893829387753	1.0308013565381163e-32	1.369636054588431	0.11831885076663176	-0.2179843483240351	0.33630319909066686	36.843621763926876
10	4.0	perception	467	diff_vonmises	-0.007828181357002962	-0.4485217530192633	1.110358029659343	163.94794794180413	1.0746583536392	165.38560367611078	0.5851862286809038	-0.5251050438948504	1.110291272575754	84.260031093789
11	4.0	wm	467	diff_vonmises	-0.3930116757800292	-22.51791032155955	1.1940245129479707	147.6391042250194	1.169769150370564	149.37970823124272	0.01301117056964074	-0.41654872426203937	0.4295598948316801	73.36051891130893
12	5.0	ltm	467	diff_vonmises	-0.10643318553749377	-6.0981723314312255	1.665841451249837	2.094896775594447	1.0234677176139162	2.4261900320865797	0.12730011432359722	-0.11901631393209683	0.24631642825569405	75.67021172336203
13	5.0	perception	467	diff_vonmises	-0.007672187573124473	-0.43958396757275	1.1347613234082767	194.9451890909625	1.1107429965208797	195.52586612825232	0.663578921206053	-0.3625589804250069	1.02613790163106	86.0551377353627
14	5.0	wm	467	diff_vonmises	0.15713820210512086	9.003355780897174	2.71628160671888	0.8285850853508803	0.14514642699718103	1.5929947140691303	0.22096537865294857	-0.22661623841097545	0.447581617063924	78.07950754751272
15	6.0	ltm	467	diff_vonmises	-0.4494112627726442	-25.749368622517324	0.739149563820008	129.44847393169132	0.7260364567019022	130.05980151399118	0.14691938278847516	-0.1998665569322089	0.34678593972068406	101.45558235869105
16	6.0	perception	467	diff_vonmises	0.17154314374262317	9.828698140858325	1.2578121406800347	2.0241857342953957	1.684770096357824e-11	2.802915942465355	0.34286252917309135	-0.38233938557381414	0.7252019147469055	118.39992402181929
17	6.0	wm	467	diff_vonmises	-0.10495920075400252	-6.013719224270672	3.7378215114172475	0.5918059159347782	2.6082007969237926e-14	1.273758003591133	0.2356856999082863	-0.2024764259340698	0.43816212584235614	70.88526712208167
18	7.0	ltm	467	diff_vonmises	0.05447091068904259	3.1209532887161835	1.622097251024762	138.81560088854349	1.6042617806254549	139.53783487842406	0.09681370131614386	-0.22301614623559018	0.31982984755173405	65.44278354700768
19	7.0	perception	467	diff_vonmises	-0.06476425068616816	-3.7107182276446813	1.4964052858563734	1.8628182347681312	7.342869413493072e-18	2.605959144281008	0.3909466613112092	-0.37434696848877397	0.7652936297999832	110.5595898233795
20	7.0	wm	467	diff_vonmises	-0.04350123897473386	-2.4924373968422544	0.00016652751440930446	3520.534446501071	6.0857307815137264e-30	3521.5996515261354	-0.07622509945588263	-0.2628324228819565	0.1866073234260739	179.93838063639333
0	1.0	ltm	468	diff_vonmises	-0.12867631435485413	-7.372609735831793	0.18616719041628843	84.3794330917043	0.17536505007271946	86.58233327055397	-0.2577364673685807	-0.42286216812844657	0.16512570075986588	151.93106098164742
1	1.0	perception	468	diff_vonmises	-0.053138745090122515	-3.0446258222855453	9.931526745503996	0.8792223750723319	0.019408714445002407	3.455395947295359	0.5301173556052095	-0.552058653755457	1.0821760093606665	42.86581731058098
2	1.0	wm	468	diff_vonmises	0.018695452453532657	1.071170521674921	8.389145755580241	0.1575121886768933	1.0680669269933362e-30	2.640545698704094	-0.24112792998060778	-0.4202558911522394	0.1791279611716316	46.91384409607531
3	2.0	ltm	468	diff_vonmises	0.26780190244109664	15.343918755449057	0.5049460893925132	127.7861127548223	0.4925708704437753	128.85380345696072	0.03354295602427371	-0.2763562799988435	0.3098992360231172	117.20690673198936
4	2.0	perception	468	diff_vonmises	-0.03865234739288221	-2.2146163738856415	8.578431831780973	1.4679697467903996	0.45063524177824915	2.756919585141291	1.0337954191714782	-0.5000143894674858	1.533809808638964	44.149964968998006
5	2.0	wm	468	diff_vonmises	-0.012710900131941576	-0.7282809313725336	7.151951735350272	0.4527155026442255	0.09933552639914449	2.2916158673055915	0.07208259156779656	-0.3722098204846289	0.4442924120524255	49.11959710503464
6	3.0	ltm	468	diff_vonmises	0.12152760764715223	6.9630190125036115	1.4395152165672556	96.96278597551483	1.4189113707666332	97.45432261595595	0.14866484428525695	-0.16853429975971146	0.3171991440449684	72.19054265508663
7	3.0	perception	468	diff_vonmises	-0.010636387346036884	-0.6094201041942682	2.892767949567268	3.332743599545774	0.6428085371654277	4.16818151862784	0.9969970465117322	-0.4824568276187733	1.4794538741305054	69.61699429854878
8	3.0	wm	468	diff_vonmises	0.0213991463729765	1.2260807723542368	3.2106547555536973	0.5573469064719747	0.2870810326387447	1.7930611109570782	0.00679077432459485	-0.26716064169500847	0.2739514160196033	66.16325415830707
9	4.0	ltm	468	diff_vonmises	-0.07433051122919651	-4.258824582482733	1.94262658622575	0.480209447585713	1.6898309613168232e-14	2.0018920654717838	-0.07520824233991094	-0.31361068704438144	0.2384024447044705	98.3587848737441
10	4.0	perception	468	diff_vonmises	-0.009450221902554517	-0.541457830478465	1.9239484651979166	3.071855595238629	0.2717058088590474	4.808272333670523	0.561983102984761	-0.5697635600062843	1.1317466629910453	87.16766948912627
11	4.0	wm	468	diff_vonmises	-0.1995998862773638	-11.436231074984143	0.9207385292347635	192.46189760865698	0.9003269358450977	194.88270033842815	-0.03362670706653148	-0.5311407575266287	0.4975140504600972	82.83038632731468
12	5.0	ltm	468	diff_vonmises	-0.08012445273644803	-4.590792977593912	1.1193606553404707	67.22890242743628	1.0844969441551888	68.11014769961913	0.12353392311313982	-0.24222733470097957	0.3657612578141194	80.2739448534476
13	5.0	perception	468	diff_vonmises	-0.001389512287353745	-0.07961318964693886	0.9937733636570374	143.3994925829663	0.9581606238610745	144.69985130998847	0.533935519817966	-0.4823433270307387	1.0162788468487047	89.35957801771409
14	5.0	wm	468	diff_vonmises	0.08936473106704933	5.1202219274635565	2.086976241883926	1.2199637051491716	0.13148782795854203	2.5466620152166435	0.18545137021923785	-0.35005880355767316	0.535510173776911	87.5678274867862
15	6.0	ltm	468	diff_vonmises	-0.31051881089518407	-17.79141732371497	0.6810182081107053	179.06546220001678	0.6684621193508128	180.1645199092078	0.12185082411868109	-0.3019470385950953	0.4237978627137764	102.9671733611547
16	6.0	perception	468	diff_vonmises	0.192115676089248	11.007417418216296	0.8190225257941492	2.9486221682755542	1.3858437116008068e-15	4.537122463939029	0.1839381891636277	-0.5460071514559538	0.7299453406195815	136.05867467116371
17	6.0	wm	468	diff_vonmises	-0.14188496640982928	-8.12940975163867	2.4605622378147576	0.9996439390711307	1.2353982637562381e-12	2.2848581741549316	0.22001645606164588	-0.35939097501177025	0.5794074310734161	87.67410856232976
18	7.0	ltm	468	diff_vonmises	-0.1258624973018265	-7.2113898943713695	1.4188100139520157	183.55411943796233	1.403869143107758	184.75076235704336	-0.00961170547671486	-0.3029706219405739	0.29335891646385903	66.32057407971365
19	7.0	perception	468	diff_vonmises	-0.1041804891501914	-5.969102335914432	1.99031258684903	1.656639765054029	1.9251020702160636e-18	3.116934347172385	0.3560554192213748	-0.4801628395352772	0.836218258756652	97.22948847737385
20	7.0	wm	468	diff_vonmises	0.7117431129459592	40.77987646930652	0.5710298937767062	74.84839482128969	0.548705275233954	76.48571788452092	-0.10406350765443406	-0.3273014175758622	0.2232379099214281	101.91915515633136
0	1.0	ltm	469	diff_vonmises	0.3058566702595905	17.524296341799023	0.8513463535825155	177.567973858564	0.8300822608286186	180.36650067326337	-0.14521406331715525	-0.574823199526648	0.4296091362094927	83.41230466320596
1	1.0	perception	469	diff_vonmises	-0.10501657652412338	-6.01700661374491	8.079895317767916	1.1294008555878698	5.2830308694669154e-18	3.5372400019022034	0.6967051491599515	-0.562969110381818	1.2596742595417694	47.812907547199245
2	1.0	wm	469	diff_vonmises	0.18698763216076017	10.713602143956257	0.6719956297388602	160.4404009726185	0.6524601299376609	163.6293023246752	-0.28238391936942264	-0.6034940918482121	0.3211101724787895	89.4503902398423
3	2.0	ltm	469	diff_vonmises	-0.04116830700627353	-2.3587702411583304	1.0020413786997102	195.75860969293873	0.9862156912818364	197.2786018157227	0.07090317813424463	-0.3667406970874403	0.4376438752216849	81.97309574789176
4	2.0	perception	469	diff_vonmises	-0.04510399411482495	-2.584268501962373	6.6986892456994855	1.5866092169785628	0.3090563064203796	2.7873946193119905	1.0148464720242432	-0.46213962005045783	1.4769860920747009	50.36156959239014
5	2.0	wm	469	diff_vonmises	0.044569439362274386	2.5536407707225655	7.014789011220661	0.44307368646837086	0.07607407489101019	2.2848561086757053	0.06727160119448095	-0.36817276750097055	0.4354443686954515	49.90481593744684
6	3.0	ltm	469	diff_vonmises	0.06436229041994332	3.6876876008580433	0.8960146920883916	159.66889688389986	0.8777741230965332	160.99023020432605	0.13418542193225846	-0.3420915934001094	0.4762770153323679	88.94441335639121
7	3.0	perception	469	diff_vonmises	-0.03751524456410559	-2.1494651809243543	2.478304327056964	2.6516951227604504	0.22271040670325384	3.87883740851995	0.7929467042547155	-0.5094136557074433	1.302360359962159	80.51593180681962
8	3.0	wm	469	diff_vonmises	0.1377449500504366	7.892204287130354	1.9401844226573888	1.712835357611943	0.5660975490116874	3.3651103541204552	-0.004535024382639086	-0.3726188672735474	0.36808384289090834	73.30047471036443
9	4.0	ltm	469	diff_vonmises	0.13824245142311362	7.920709016086711	1.622910304843132	0.9479942432995169	6.39816045640163e-15	2.7684770516559936	-0.009872880697248565	-0.42384505171292614	0.41397217101567757	106.70693908662057
10	4.0	perception	469	diff_vonmises	0.016300137841485273	0.9339291037985898	0.7743723856015948	509.46304235483984	0.7636151093018932	511.86548181002786	0.33371421081378116	-0.6687843699912079	1.002498580804989	96.90690229413616
11	4.0	wm	469	diff_vonmises	-0.1381461167180576	-7.915189444066364	1.9459778184553846	1.4603519236324365	0.15339765984328663	4.284650001513507	-0.0493300139444961	-0.5890106560635635	0.5396806421190674	86.01575868264578
12	5.0	ltm	469	diff_vonmises	0.015532513879169811	0.8899474905048045	0.8790376827137857	87.75985965065229	0.8423957948592221	89.30485612816109	0.131764977109313	-0.3911800988260232	0.5229450759353362	89.84843123446521
13	5.0	perception	469	diff_vonmises	0.007478575088829119	0.42849078936158325	1.3286232980743962	5.782041711056795	0.5141552329280443	7.253924323382253	0.5190745867143587	-0.5193625713291853	1.038437158043544	92.72049756068199
14	5.0	wm	469	diff_vonmises	-0.00836663327565974	-0.4793727754290182	1.2676794018800266	2.386198804726545	0.18902776298209542	3.922546244274223	0.18683695175612003	-0.43819073182296553	0.6250276835790856	105.11820330658122
15	6.0	ltm	469	diff_vonmises	-0.09405292233267422	-5.3888355005339585	1.4671582690339444	1.1287053880647149	1.2879436545138567e-13	2.6381363415798997	0.0625066076459353	-0.3942240380011399	0.4567306456470752	111.46514038166542
16	6.0	perception	469	diff_vonmises	0.15243693834050226	8.733993208806742	0.0011528344242937767	1627.2643673272855	2.084945256743124e-24	1629.2096016817188	-0.010941544829222494	-0.6080736880870177	0.5971321432577952	179.11061522459016
17	6.0	wm	469	diff_vonmises	-0.2900891725415202	-16.620885269071437	0.584019967047408	147.50950353548183	0.5645836756569191	149.14850819584245	0.11689101184989426	-0.44030146791999236	0.5571924797698866	110.66329646691547
18	7.0	ltm	469	diff_vonmises	-0.22761850531278816	-13.041579693498868	0.7363976102825497	150.40721830834894	0.7181059078069645	152.86149847520335	-0.1819446856053304	-0.47928570979541263	0.29734102419008224	87.34470767131303
19	7.0	perception	469	diff_vonmises	-0.10171134825139734	-5.827630983390393	3.461381440177943	1.869000471893005	0.08063006417102873	3.642891149445671	0.6993986771783132	-0.5503541453202951	1.2497528224986083	71.3885569927356
20	7.0	wm	469	diff_vonmises	1.3314138539820772	76.28439461842028	0.06259974573480095	118.02035670964621	0.05141646205083032	120.32179116581719	-0.16948593802352718	-0.5516041906031433	0.38211825257961607	131.33600994525088
0	1.0	ltm	470	diff_vonmises	0.307587070495815	17.623440972203127	0.6494959123257109	136.02656877523842	0.6284139383651863	139.133476338078	-0.2971997338846464	-0.5793369578832639	0.2821372239986175	89.79458062200268
1	1.0	perception	470	diff_vonmises	0.016793170551482113	0.9621777972433062	8.640815366436762	0.8516452599097021	0.04875036251191344	4.259413281773357	0.2720817239021006	-0.6855994372391467	0.9576811611412474	45.51696279448808
2	1.0	wm	470	diff_vonmises	0.21021958765734572	12.044695143746363	3.11546204333005	0.7089293631558233	0.17814117827249784	4.390068567417284	-0.35396835201435356	-0.6791304782899941	0.3251621262756405	65.61941083641483
3	2.0	ltm	470	diff_vonmises	0.05348154085183298	3.0642665726665275	1.9643957201875721	1.0118185906317154	0.22533720617034683	2.5700757734927344	0.010361162221101283	-0.33746317600873743	0.3478243382298387	83.24814990932776
4	2.0	perception	470	diff_vonmises	-0.048273212383234454	-2.7658513330979964	10.276642931791383	1.118351333622636	0.14162921710260673	2.9136853609714137	0.8802934210981168	-0.48712349031406926	1.3674169114121861	41.57549780195302
5	2.0	wm	470	diff_vonmises	-0.015665271983959176	-0.8975539696053906	4.442111229959201	0.6627393519714292	0.0639509682882864	2.9895022913724634	0.03266955866538257	-0.4689778744715585	0.501647433136941	62.369579914824044
6	3.0	ltm	470	diff_vonmises	0.0016567628746324977	0.09492552037040404	0.9234928889831772	103.57040815146877	0.9067241599387863	104.30325111335323	0.09307712255281331	-0.19633461959960208	0.2894117421524154	88.18197742458727
7	3.0	perception	470	diff_vonmises	0.047906295616666525	2.7448285509410675	2.8036966665886105	3.0728749799717705	0.5156681430818583	3.830390704197942	0.9796318768589075	-0.45454258684220983	1.4341744637011173	72.29784214841996
8	3.0	wm	470	diff_vonmises	-0.024207366483158722	-1.3869799326114411	3.2633155824690934	0.6274577158363795	0.08156435945934934	1.8667243653768057	0.10916159676547693	-0.28332464032994115	0.3924862370954181	72.3642139953408
9	4.0	ltm	470	diff_vonmises	-0.047498857897554626	-2.721484089221519	0.2641886711302959	2.342587499115789	7.315457837099502e-15	4.050361194536682	-0.1674298625572273	-0.36329177973158555	0.19586191717435825	164.94600976460657
10	4.0	perception	470	diff_vonmises	0.034291589548914356	1.964763353947715	1.9425910448501218	4.012445147435793	0.4200099294392152	6.087063531362866	0.622267984118577	-0.65562453449696	1.277892518615537	82.56874160392064
11	4.0	wm	470	diff_vonmises	-0.27214930699311385	-15.593006688115604	0.6802456484921784	7.878183662458978	0.3334248488360653	10.414404323288453	-0.03832888844646698	-0.587720343828732	0.549391455382265	114.71572576091076
12	5.0	ltm	470	diff_vonmises	0.04337336794203075	2.485110926346387	2.782929229484169	0.6468290448456392	3.2311742677852644e-23	1.807323065863907	0.11809515194320447	-0.28609161096873653	0.404186762911941	82.42718823811299
13	5.0	perception	470	diff_vonmises	-0.02654033272876584	-1.52064905223121	2.756720005708915	1.7729534297648624	2.7135384176324256e-09	3.313396260297227	0.5787259276465072	-0.5228826244785764	1.1016085521250836	82.82240271895063
14	5.0	wm	470	diff_vonmises	0.04478432985932267	2.565953089260901	2.341447102082522	1.1285498611395428	1.1953845589407508e-17	2.7469453045553984	0.20264979221286256	-0.4312692047706264	0.633918996983489	89.87592397574977
15	6.0	ltm	470	diff_vonmises	-0.2568953349029332	-14.719018466537902	0.3674314039470336	123.29151790631465	0.35421189718461515	124.38752559920358	0.05535505192852952	-0.3248202367834363	0.3801752887119658	134.62245100642974
16	6.0	perception	470	diff_vonmises	0.25459353622881215	14.587135117221957	0.19793447310278695	12.831663545434791	1.1956390831718396e-09	13.90674187775318	0.25168722869662385	-0.5541213387745949	0.8058085674712188	167.00740258359508
17	6.0	wm	470	diff_vonmises	-0.4281028620374986	-24.52848719222002	0.9106524317559936	1.9006940531864676	1.0106450628364221e-12	3.1273145102365163	0.11950595746928111	-0.3978440897150149	0.517350047184296	130.76827905240776
18	7.0	ltm	470	diff_vonmises	0.44800011186233957	25.668515631100824	1.1596781726899237	0.9865846588386415	1.6810510887358068e-10	2.0643390972054108	0.03812399186934451	-0.2924908252041227	0.3306148170734672	120.89374575987813
19	7.0	perception	470	diff_vonmises	-0.06379549449936005	-3.6552125867633896	3.0159210565837355	1.3993849645378864	1.9742474776167965e-24	2.2940458725467407	0.554147321728055	-0.36290130395545217	0.9170486256835072	79.12256041968598
20	7.0	wm	470	diff_vonmises	0.49024693700829797	28.0890804097914	0.4522477030815098	77.95827175763986	0.4325816817945498	79.46233345117335	-0.06855760979993519	-0.32992636568642997	0.2613687558864948	118.24113526536723
0	1.0	ltm	471	diff_vonmises	0.3319975669623204	19.022059395552894	0.756592496690654	196.54856607232728	0.7402491751241976	199.4366662724888	-0.2308011595331081	-0.560394954057287	0.3295937945241789	85.28781537347544
1	1.0	perception	471	diff_vonmises	-0.05338676991092432	-3.0588365977319776	7.981442512196003	1.0114724863212856	1.1019850196052308e-15	3.814640307658544	0.5138779796428157	-0.6071187301586819	1.1209967098014975	48.11096620266426
2	1.0	wm	471	diff_vonmises	0.24106844329735463	13.81220437472722	3.087291967963824	0.42608417361318923	0.063761462359199	3.7694867415728464	-0.3551296685955027	-0.586393957467672	0.23126428887216927	70.69685404359544
3	2.0	ltm	471	diff_vonmises	0.06692529494086007	3.8345369427795224	0.8219644377087832	143.3891435764294	0.8054063654480219	144.8509515145597	0.007976287428988371	-0.3274975278173464	0.3354738152463348	89.04720773774989
4	2.0	perception	471	diff_vonmises	-0.04490261245988843	-2.5727301830631504	7.9433968718608625	1.4771649209320263	0.3183668381443546	2.87300557140343	1.0196826986786287	-0.4938777971408743	1.513560495819503	46.34762124280749
5	2.0	wm	471	diff_vonmises	0.04338077584003112	2.4855353676368717	6.457472304877312	0.46450309585389393	0.05466890712430956	2.586783672853336	0.026412797833724244	-0.41341899488199363	0.4398317927157179	52.21273874125836
6	3.0	ltm	471	diff_vonmises	0.08666684387798707	4.965644377927876	1.0534624874930578	124.4107319762407	1.035900810340872	125.29961774098005	0.10181118867477323	-0.23538161195128993	0.33719280062606316	81.94437033506094
7	3.0	perception	471	diff_vonmises	-0.003501802656991214	-0.20063851293329446	2.4117482787853772	3.1192706506541414	0.44510568065198347	4.084664486444742	0.8337127401811287	-0.4668492422469884	1.3005619824281172	77.42518198360065
8	3.0	wm	471	diff_vonmises	0.11977676039774032	6.86270285454022	1.9087095680451942	1.4400691370420362	0.5577467001043459	2.8353931061334587	-0.008146559616402649	-0.3124936167610967	0.30434705714469407	73.77030956606504
9	4.0	ltm	471	diff_vonmises	0.18034210616934712	10.332841552003796	1.77776677208672	0.5211656121860335	9.73954600376251e-19	2.22423376859723	-0.10369147879284696	-0.3468470871133716	0.24315560832052463	102.42000534901854
10	4.0	perception	471	diff_vonmises	0.02938303029802911	1.6835236253820933	0.8823594915165079	326.78897625808406	0.8647807845959327	329.0036361947771	0.3954359918101318	-0.6385415708523823	1.033977562662514	91.53514532894354
11	4.0	wm	471	diff_vonmises	-0.1867435664776045	-10.69961821038746	1.4450637358046445	1.9662337316955052	0.19517028193946068	4.754445363158835	-0.07841522605238127	-0.584621288071659	0.5062060620192778	94.31006860743975
12	5.0	ltm	471	diff_vonmises	0.01911252869818521	1.0950672302286781	0.9664250547751888	124.95381661505064	0.9424655614990151	126.47501539721631	0.06515318920417457	-0.3634327247573861	0.42858591396156065	83.5933196256272
13	5.0	perception	471	diff_vonmises	-0.005464554521144983	-0.3130959109807401	2.181552052252676	2.2953653207688847	0.15395992956271554	4.032879789062348	0.5034103253954108	-0.5438521582166614	1.047262483612072	86.05895065078246
14	5.0	wm	471	diff_vonmises	0.060706804345819196	3.4782436767418843	2.0206916431659967	1.1816436381817437	8.418314038368932e-12	3.00070273337848	0.13577548104016168	-0.4667966277194987	0.6025721087596604	96.54281582037777
15	6.0	ltm	471	diff_vonmises	-0.14314739901016885	-8.201741811557852	1.748687665095364	0.9009300846863432	1.156332964917844e-12	2.460219025534301	0.036830608080262006	-0.37858558484268	0.415416192922942	103.22754842693953
16	6.0	perception	471	diff_vonmises	0.24617674698646422	14.104888616584306	0.0007320925084674823	2904.9235883431957	4.904449216583523e-30	2906.9710318065477	0.012671105274023375	-0.6642687060470394	0.6769398113210627	177.9799079948486
17	6.0	wm	471	diff_vonmises	-0.3624049337720216	-20.76427317985495	1.2935021875887975	1.6297921220299858	7.022994282591844e-11	3.4172898684486697	0.10197382963738877	-0.4952802759660829	0.5972541056034717	116.67329490194416
18	7.0	ltm	471	diff_vonmises	0.677748584531571	38.83213346462453	0.00013950975481967363	6523.635443700294	1.217536506809742e-29	6525.746913482236	-0.19119779343532173	-0.48089380880992394	0.2896960153746022	166.66659414937203
19	7.0	perception	471	diff_vonmises	-0.11551120523341699	-6.618304546344261	3.92371800809845	1.4875380296271021	6.64290521048883e-14	3.0604989417222046	0.6445388823285907	-0.4866512696223297	1.1311901519509204	69.14323179646993
20	7.0	wm	471	diff_vonmises	1.2800513002797387	73.34153706626223	0.0002356964323407558	4829.278454909079	1.6524024380288916e-28	4831.540374627375	-0.1788311379152674	-0.5411389226474057	0.3623077847321383	137.1732193327785
0	1.0	ltm	472	diff_vonmises	0.2068406357240555	11.851095458791264	2.4558187895944266	0.49521156748726075	3.1417576151907753e-27	3.550963732735609	-0.2763428971622305	-0.5630276272211682	0.2866847300589377	87.7395011713283
1	1.0	perception	472	diff_vonmises	-0.051327632898468624	-2.940856737479089	9.302742449799203	0.8364466957583736	4.5090266639022673e-17	3.9341449466391625	0.3772278477496249	-0.6261386067568859	1.0033664545065109	44.51912069688143
2	1.0	wm	472	diff_vonmises	0.009545695281451789	0.546928052145132	2.0761803844587625	1.541399224824622	0.28427078252524	4.974036405628298	-0.21771206993191128	-0.6739898017446959	0.45627773181278464	75.7481352210645
3	2.0	ltm	472	diff_vonmises	0.06875072770253025	3.939126535808134	1.6833568812651716	1.682942692795754	0.3415948671575363	3.3827878188096867	0.04591225542331612	-0.38488290755691434	0.43079516298023046	84.75625825501518
4	2.0	perception	472	diff_vonmises	-0.040346932894302134	-2.3117089711410634	7.75983014842831	1.3498247585738046	0.180916944618195	3.0606739089886736	0.895165188980647	-0.5055450435168224	1.4007102324974694	47.461815137135034
5	2.0	wm	472	diff_vonmises	0.03535241417546815	2.0255441278527893	6.077287027798634	0.5789633053360574	0.0032342655863166537	2.7058515502151854	0.1245880931320395	-0.43002561676966333	0.5546137099017028	55.1436791423931
6	3.0	ltm	472	diff_vonmises	-0.0821408549180341	-4.706324312399766	1.4031973473182808	1.2315844573151782	9.766237710036253e-08	2.621559535351807	0.0951580879431056	-0.38627298354732786	0.48143107149043346	113.53979477161762
7	3.0	perception	472	diff_vonmises	0.008222019290433211	0.4710870044169708	3.8537511120235433	2.3039560487578115	0.12294376248855536	3.603969601888838	1.0892664503487324	-0.5405378991791229	1.6298043495278551	67.4587191194872
8	3.0	wm	472	diff_vonmises	0.005710927283830274	0.32721203046958547	2.9083000462485322	0.782549143928104	1.4844772684017368e-15	2.664317898544798	0.07945992205457897	-0.42253994549016227	0.5019998675447412	80.60079350709651
9	4.0	ltm	472	diff_vonmises	-0.07265914396161383	-4.163062292033932	0.00031746237220665093	4406.009491320838	4.67415410884759e-34	4408.201008538195	-0.1261572943764122	-0.5713889660045197	0.4452316716281075	179.8309107182856
10	4.0	perception	472	diff_vonmises	0.011194608402666655	0.6414038147744874	1.9821148931146026	3.228297538387716	0.16186624826343318	5.76431631510324	0.5847668377814443	-0.7576312560270864	1.3423980938085307	89.16709079474157
11	4.0	wm	472	diff_vonmises	-0.2600681143245205	-14.900805336720811	1.4746834473449533	1.5664432425892518	5.553166579681029e-18	4.904891803794655	-0.10908542653209718	-0.7454665079793812	0.636381081447284	111.01742296644515
12	5.0	ltm	472	diff_vonmises	-0.08891392737393104	-5.0943927784589675	1.484512732492119	1.240117811728031	7.375171075140839e-15	2.235748252373999	0.17796396552366628	-0.32841815710626	0.5063821226299263	110.91868398593718
13	5.0	perception	472	diff_vonmises	-0.0033215712863596514	-0.1903120160602478	1.7651674085352305	3.1630964379665665	0.2478469622692778	4.293495995091242	0.6504123465183853	-0.4906513392143634	1.1410636857327487	92.36783185455295
14	5.0	wm	472	diff_vonmises	-0.05248507064289432	-3.007173035283823	2.0228053776844064	1.3185427098139941	1.6515624423976456e-15	2.5603619696524045	0.2773981062294371	-0.3955093221812805	0.6729074284107176	96.49406827990114
15	6.0	ltm	472	diff_vonmises	-0.1594655866403767	-9.136705092071349	0.002423897035238642	520.7143635617792	3.3751627599575212e-21	521.534887400794	0.0704093157756347	-0.33134671393946746	0.40175602971510216	179.13605740295068
16	6.0	perception	472	diff_vonmises	0.07032243415775992	4.029178682326261	0.8129763663194566	3.0880595763511614	1.9603328521475826e-18	4.10159998015524	0.2925344567847862	-0.466821729608478	0.7593561863932642	136.70201493825206
17	6.0	wm	472	diff_vonmises	-0.12036506044406349	-6.896409964281888	0.6125089071074459	86.97885079374365	0.5866202608471867	88.07603494402936	0.13758231820957434	-0.32180758055989234	0.4593898987694667	110.00786331833542
18	7.0	ltm	472	diff_vonmises	0.34285980557182477	19.644419823941547	1.1710608170225658	112.64888630936287	1.1516699130681292	113.73837435230048	0.0024186567218862365	-0.25772930716957454	0.2601479638914608	73.79285626592795
19	7.0	perception	472	diff_vonmises	0.019203057410300255	1.100254143357625	1.7778546670584523	2.457796741473454	0.11292997151278858	4.187806027453781	0.43668245748830026	-0.5599674528816867	0.996649910369987	96.09225186492702
20	7.0	wm	472	diff_vonmises	0.6940063013812152	39.76363202462787	0.00022681322975630475	2400.5450709583947	4.722551978587659e-31	2402.186756475385	-0.17462224105224777	-0.3479326619873859	0.17331042093513815	166.05628642171928
0	1.0	ltm	473	diff_vonmises	0.20319462662517812	11.642194525359292	0.8365785607132907	0.8014135326975869	2.3329227258590833e-15	3.029938371391787	-0.23329177408082438	-0.435514031909591	0.2022222578287666	135.22525963278656
1	1.0	perception	473	diff_vonmises	-0.021335335424977193	-1.2224246743471479	12.707519368916225	0.649831975111545	4.708750158768374e-20	3.2840983827532138	0.391946505245756	-0.5226804912068842	0.9146269964526402	38.02918090851696
2	1.0	wm	473	diff_vonmises	0.055926642042132484	3.204360551353103	4.047736985445079	0.6315233963662134	0.2039444728937232	3.107108731139389	-0.11143647759279657	-0.4916651839813212	0.38022870638852463	60.38744014996783
3	2.0	ltm	473	diff_vonmises	0.0297031605577305	1.70186573815741	0.689691560515558	1.6958001368105782	2.5132227042289166e-18	3.2261378385782544	-0.03423768459939941	-0.3928181408041047	0.3585804562047053	142.5837143810454
4	2.0	perception	473	diff_vonmises	-0.03911203590670381	-2.2409545856182604	8.88827057058009	1.224191004191855	0.16484667714355294	3.14912987744217	0.8472509380958524	-0.525374773491949	1.3726257115878013	44.465387144658536
5	2.0	wm	473	diff_vonmises	-0.07150357719842838	-4.096853193557814	5.430106348418461	0.6244179970454213	0.090238225481914	2.756659631786343	0.08652439361245395	-0.43847099135036816	0.5249953849628222	56.22131963121549
6	3.0	ltm	473	diff_vonmises	-0.0010548324981753934	-0.060437450238691154	0.9062134959068601	165.70371117655358	0.8922045322615016	166.47573136297788	0.19413225471642903	-0.24333594295437955	0.4374681976708086	91.41180202440879
7	3.0	perception	473	diff_vonmises	0.04004751987154634	2.294553868605902	1.7786585764290683	11.187670247764245	1.0574922358767598	12.016184028568969	1.1385724842007257	-0.5652048100032754	1.703777294204001	76.89695811951589
8	3.0	wm	473	diff_vonmises	-0.1587384190430145	-9.095041457743827	2.7594049963925253	1.0577762209203359	0.22440012109780594	2.3664656693525643	0.19482723190193346	-0.3320296276798267	0.5268568595817602	74.50460582402545
9	4.0	ltm	473	diff_vonmises	0.18096236773304034	10.368379921797603	0.00028964448560275227	2604.839744019674	3.582870635472796e-25	2606.7374882849776	-0.18195035050706565	-0.4221030219418367	0.24015267143477104	178.86073663299516
10	4.0	perception	473	diff_vonmises	-0.013494203658228622	-0.7731609175064961	2.510551095916713	2.7267550181920455	0.1444250362053383	4.862404095999544	0.7215210524612881	-0.6791403460184554	1.4006613984797434	81.20417627437101
11	4.0	wm	473	diff_vonmises	-0.43491792600428836	-24.918961594628758	1.1779635345687163	4.402263162732775	0.5351277089677987	6.7670326463077854	-0.06312036466032023	-0.500426754630491	0.4373063899701708	86.07970837806843
12	5.0	ltm	473	diff_vonmises	0.011716792209634397	0.671322743043813	2.2720455726191795	0.5523441164949305	8.254266279968808e-21	1.2935235023167118	0.10174137257230725	-0.20260055152229148	0.3043419240945987	91.21712160730829
13	5.0	perception	473	diff_vonmises	0.000131732750449714	0.007547730624418709	2.4555308802809286	1.977376571788714	0.0560744534350648	3.1650619384906284	0.6207781385389922	-0.4677117071120784	1.0884898456510705	85.44774595626464
14	5.0	wm	473	diff_vonmises	-0.04055952927967391	-2.323889846762603	2.2451291817008467	0.9991893996038975	0.07795437534059414	2.336272447026599	0.15116559575655508	-0.33939276572398486	0.49055836148053994	86.87427335988525
15	6.0	ltm	473	diff_vonmises	-0.4110208010947336	-23.549757194814323	0.318669055977051	80.73631918399266	0.30294063327945137	81.63089525068054	0.03947501819336807	-0.2695949346845854	0.30906995287795347	139.59385559611042
16	6.0	perception	473	diff_vonmises	0.14738561307529643	8.444573590162648	0.42818565093664124	91.51916879866683	0.39682172067555027	92.4405025785124	0.31824823568310734	-0.44335389052832674	0.7616021262114341	132.54335743007135
17	6.0	wm	473	diff_vonmises	0.035019452877557915	2.0064668507413344	1.867971271108713	0.6261210388437828	7.763685676297442e-16	1.8104445106594853	0.021769876479678374	-0.280749603079585	0.3025194795592634	100.18126139787918
18	7.0	ltm	473	diff_vonmises	0.3778529582475787	21.64937978411917	1.5281768212849463	66.63262097677683	1.5054458523051497	67.04108153507613	0.08670116761718205	-0.13174924417499945	0.2184504117921815	68.8702043842004
19	7.0	perception	473	diff_vonmises	0.08013089939830147	4.591162344110062	1.1484834661865497	2.2263486492917015	7.402882888074487e-15	3.326971697358665	0.2932980252854297	-0.44675538647225277	0.7400534117576825	122.58942999239379
20	7.0	wm	473	diff_vonmises	-0.4365253606614169	-25.011060816325283	0.00031346078305868424	1011.1249214712132	2.7236194838172046e-19	1012.1789348181403	-0.1173036401204115	-0.21819132229373395	0.10088768217332245	174.60868905027434
0	1.0	ltm	474	diff_vonmises	-0.05959077173229497	-3.414299718187991	0.22158198003828766	65.2345959690277	0.20511182128761912	67.61683911278496	-0.2735314518656615	-0.45668714548807365	0.18315569362241213	146.2516971661438
1	1.0	perception	474	diff_vonmises	-0.03985761238232798	-2.283672970975764	11.969173794713194	0.7695884156536813	0.03923059741758034	3.771819401270991	0.42641060957170007	-0.6093981378481141	1.0358087474198143	38.87402524669338
2	1.0	wm	474	diff_vonmises	0.03639101311014885	2.0850514634167765	8.629670128675434	0.21483754122954568	0.07017291556740356	2.894854321579605	-0.24569941793421615	-0.47332632902040367	0.22762691108618752	44.18541186026397
3	2.0	ltm	474	diff_vonmises	0.16294621327664321	9.336130308390237	0.3430860415870618	113.65090479865911	0.32992078961660737	114.80834376219373	0.020987350215367684	-0.32172595623903355	0.34271330645440123	137.0513256927792
4	2.0	perception	474	diff_vonmises	-0.05530471512348344	-3.168726763748937	11.273863628965193	1.1263936401456573	0.28909988141727383	2.717910829200891	0.9256003348656415	-0.4879144055736821	1.4135147404393236	39.239061616002004
5	2.0	wm	474	diff_vonmises	-0.12218050182832584	-7.000427093553509	4.629986898929151	0.6742529062403447	0.18157306753492708	2.601496220675311	0.06869903729745813	-0.4123125265450361	0.4810115638424942	58.77991488970025
6	3.0	ltm	474	diff_vonmises	0.03237509938672361	1.8549565561758425	1.4386426677824418	125.3815709960615	1.421334216294382	125.87202326981004	0.17943281630017793	-0.17783425668902808	0.357267072989206	72.77064751595955
7	3.0	perception	474	diff_vonmises	0.00101849194614508	0.05835528998217863	2.6719689870392673	4.128920451065512	0.774992848000825	4.951443997414196	1.050055922221473	-0.5089634528010564	1.5590193750225292	70.22549717018731
8	3.0	wm	474	diff_vonmises	-0.08455018446191084	-4.844368726720083	3.2652696935317365	0.7259772915587774	0.26278703868951575	1.8810690408455877	0.11611583306101181	-0.2758019993709596	0.3919178324319714	67.8488651804646
9	4.0	ltm	474	diff_vonmises	-0.1563384041143564	-8.957530731563326	0.5496747873983909	82.41927046754597	0.5298550540225742	83.97165667132288	-0.08465845452356646	-0.3185709813186115	0.23391252679504504	105.19753675071695
10	4.0	perception	474	diff_vonmises	-0.025966791675484224	-1.4877875705006856	2.408947009539637	2.4457232493040046	0.10131686221122359	4.060555252398712	0.6967927036977766	-0.5770512898500112	1.2738439935477879	84.46019332606858
11	4.0	wm	474	diff_vonmises	-0.21620107617942838	-12.387409191267643	0.9196001714958003	220.54834847334297	0.9029972373496419	222.61708426003338	0.028176215086944012	-0.4722049619190578	0.5003811770060018	84.32609643477626
12	5.0	ltm	474	diff_vonmises	-0.03114942764019042	-1.7847307380310624	1.768076048050222	1.4993863521588042	0.4881888342233521	2.371066324838538	0.13794726989176243	-0.23681339354068237	0.3747606634324448	82.07757367771816
13	5.0	perception	474	diff_vonmises	0.0005643786594589924	0.032336515234251406	1.5216930966370696	4.658503278571735	0.5338305068919716	6.078212905889008	0.4972245430776967	-0.4873380517102364	0.9845625947879331	87.85076243129362
14	5.0	wm	474	diff_vonmises	0.04089802211645872	2.343284057705783	1.6241718682936044	1.935007083212145	0.3200754682396252	3.250346585976402	0.1850615433241165	-0.3532423184827103	0.5383038618068268	89.60801434002676
15	6.0	ltm	474	diff_vonmises	-0.28751406015425524	-16.473342197509297	0.6788913589554741	169.4831126438401	0.6649819738607046	170.6344279532257	0.1287208931239121	-0.31719853676560916	0.44591942988952127	103.22443057457883
16	6.0	perception	474	diff_vonmises	0.2776907260093882	15.910506610261661	0.4228572398819503	5.755593508593274	7.455858228888132e-15	7.026369098993722	0.21940245010517279	-0.5440792540430813	0.7634817041482541	154.76103592696484
17	6.0	wm	474	diff_vonmises	-0.1764751305992648	-10.111280172357883	2.1382162431511422	0.9845019934353157	2.6431811582313668e-11	2.1726128126622597	0.18297210252630897	-0.33843648541774857	0.5214085879440575	93.92305599813196
18	7.0	ltm	474	diff_vonmises	0.17689367156618382	10.135260803315669	1.2551542888127862	106.30069754945421	1.236099496618955	106.99165110646365	0.10497129166537889	-0.19699734049483197	0.30196863216021086	75.46261166985167
19	7.0	perception	474	diff_vonmises	-0.06118331287023078	-3.5055456040926747	1.658159316278423	1.6721542887098062	9.01277800323714e-22	2.719261523778036	0.33695457822127456	-0.40484960278370186	0.7418041810049765	105.75989610462622
20	7.0	wm	474	diff_vonmises	0.32787182373834395	18.785671721464347	2.1015317751111593	0.47399383248349236	0.028989393802110863	1.6847120680488796	-0.024023845279999567	-0.25664777686061446	0.2326239315806149	91.65152513504367
0	1.0	ltm	475	diff_vonmises	0.1209999626560518	6.932787181432339	2.6151752356050277	0.47051392731616015	9.697520054827243e-14	2.689788478436788	-0.1433820926994538	-0.4265694530747147	0.28318736037526093	85.04250591595101
1	1.0	perception	475	diff_vonmises	-0.07458839666194478	-4.273600329377113	10.814006522044329	0.9059237180965835	0.03914398629555438	3.4419072515998397	0.6045396567854692	-0.5544562903899976	1.1589959471754667	40.9464053582449
2	1.0	wm	475	diff_vonmises	0.03442145040575146	1.9722038329684337	7.208220267780742	0.3428072231742132	0.06684936095232213	2.9871273758421055	-0.14736985867165792	-0.4829922716344021	0.3356224129627442	48.756033519652334
3	2.0	ltm	475	diff_vonmises	-0.06813002292790366	-3.9035627718984114	2.23080927116058	0.9408464066864745	0.19418133453087624	2.0437249818220495	0.12701853916539863	-0.27555463643680417	0.4025731756022028	82.31137650696166
4	2.0	perception	475	diff_vonmises	-0.05206197216838608	-2.982931278376077	10.706765143835819	1.005896964958586	0.12127234121094782	2.38863175169851	0.869450041114891	-0.3965329289624598	1.2659829700773508	40.893033718126475
5	2.0	wm	475	diff_vonmises	-0.12813128845185545	-7.341382051864661	3.995454185535632	0.8126556564555234	0.29893642851910035	2.5315872986950256	0.09302480057987672	-0.39345019370202544	0.48647499428190216	60.93311966571238
6	3.0	ltm	475	diff_vonmises	0.03487615447269022	1.9982564569314587	1.141593675197477	164.54714192091788	1.1265430347729564	165.21171562220573	0.21879815559803006	-0.2248926645002527	0.44369082009828276	81.90252086195642
7	3.0	perception	475	diff_vonmises	0.0027430387208802164	0.15716454174740024	2.7206988152080065	3.5088994392540918	0.6349396462844054	4.384114907958274	0.9793722118312767	-0.4894632508498037	1.4688354626810805	71.33369452142554
8	3.0	wm	475	diff_vonmises	-0.041883781776850294	-2.3997639258604697	2.967550997704589	0.9519183329078084	0.3160456180542302	2.1375001981717014	0.1643651500171176	-0.3001937409422643	0.4645588909593819	70.06073217125899
9	4.0	ltm	475	diff_vonmises	-0.1270077154861431	-7.277006062954346	2.073234266075701	0.7551567325975268	3.7396933154885746e-14	2.1872649190297815	0.049997498236782345	-0.34181552000089227	0.3918130182376746	95.34854600622415
10	4.0	perception	475	diff_vonmises	-0.02845923010208439	-1.6305937730411026	0.9354841213943823	362.4209040907662	0.9188016727672907	364.04537451340616	0.6197288859849266	-0.590363325626285	1.2100922116112116	91.49344556684312
11	4.0	wm	475	diff_vonmises	-0.21231075898046053	-12.16451043479963	0.927473874430236	206.04913400468973	0.9105667233717104	207.84895189449753	0.07837610387532834	-0.4291275454565735	0.5075036493319018	85.30245893986958
12	5.0	ltm	475	diff_vonmises	0.015156129905999424	0.8683822773657761	2.0796119000481097	1.057571393985851	0.15916799521138406	1.7150009858530828	0.24055767057929123	-0.2265180848701669	0.4670757554494581	88.1263792398288
13	5.0	perception	475	diff_vonmises	0.0024679168571555116	0.14140122010420128	1.000293844855708	208.58680732532673	0.977564829533001	209.55438999844156	0.5711731733222365	-0.4230436857441795	0.994216859066416	89.95866607720546
14	5.0	wm	475	diff_vonmises	-0.0005364283667432127	-0.030735081425481973	1.7399134293207816	1.7862835339229601	0.24004217390293509	2.70998078755715	0.30627114274932254	-0.31582693643312604	0.6220980791824486	92.05499779297452
15	6.0	ltm	475	diff_vonmises	-0.23191099289178288	-13.287521115387595	0.6286004777921561	102.59174043840069	0.6078286843114186	103.43897784429124	0.1777608203211507	-0.28300375496486296	0.46076457528601367	110.21387934937329
16	6.0	perception	475	diff_vonmises	0.21991851414160196	12.600402697101902	0.17264212234606433	12.226310426763247	4.908311083877355e-18	12.923188815250096	0.23862546653833938	-0.431578238093814	0.6702037046321534	168.80717001559395
17	6.0	wm	475	diff_vonmises	-0.260088345039721	-14.901964471318333	0.7605598734029212	48.669563847444955	0.7148472185082735	49.37349595955431	0.22228541450574113	-0.2537031836223904	0.47598859812813155	102.14399860826107
18	7.0	ltm	475	diff_vonmises	0.1825099048173548	10.457047265368802	1.1212007757145408	124.86787720475691	1.1028692276637821	125.53245573829878	0.1879388905027355	-0.21429104601741322	0.4022299365201487	82.22532034545833
19	7.0	perception	475	diff_vonmises	-0.06976574909715483	-3.997282977835605	2.1038494469542033	1.6296405080510181	8.424836944923887e-15	2.1581923137998538	0.5232794187696613	-0.3305889961844795	0.8538684149541409	94.69120430099179
20	7.0	wm	475	diff_vonmises	0.21058324743035073	12.065531313918235	1.4619713389062485	0.7307001006074205	6.013862924352835e-13	1.6832217950591124	0.04373134808588652	-0.2511521174602524	0.2948834655461389	111.47220527628593
0	1.0	ltm	476	diff_vonmises	0.06129481484263137	3.5119341965186126	0.00040880163719232216	557.6169568740129	8.461981323739637e-23	559.70825749546	-0.2965583196042445	-0.3691159285745442	0.07255760897029973	179.80116735028787
1	1.0	perception	476	diff_vonmises	0.05407820465914445	3.098452890613682	9.705751912112426	0.7631989742529331	0.10351828071368994	3.663255064098194	0.29081722416183464	-0.6050925515389325	0.8959097757007671	42.53341570533743
2	1.0	wm	476	diff_vonmises	0.9864451404001311	56.519143266117446	0.47342866147872514	30.58575123849234	0.45238327704402254	33.0402132388598	-0.31120503530202104	-0.46428333867110716	0.15307830336908612	78.527976009903
3	2.0	ltm	476	diff_vonmises	0.9825458975797843	56.295733109214886	0.88460942621186	71.29117756475061	0.8546890931035324	72.34999392442838	0.07420072218390672	-0.2620490787160481	0.3362498008999548	88.84565066962324
4	2.0	perception	476	diff_vonmises	-0.03836484471236317	-2.1981436836932025	10.120592952413482	1.4115029358188698	0.4815307487530477	3.2177382888012263	0.9852543432163049	-0.6148337503432441	1.600088093559549	40.53210119161753
5	2.0	wm	476	diff_vonmises	-0.12476095582628659	-7.1482762168643195	3.512605155643256	0.720797933540709	0.25890322863067855	3.185089437107083	-0.1299403967447721	-0.4949082645378167	0.36496786779304463	62.57290433364574
6	3.0	ltm	476	diff_vonmises	0.12965076297492922	7.428441529114442	2.1825710317832763	53.624573151377085	2.157534641718162	53.75812840175966	0.12877600836796788	-0.08412621001713294	0.21290221838510082	60.392780943467244
7	3.0	perception	476	diff_vonmises	0.008998384864443244	0.5155694751669972	1.651744112752198	394.394503672531	1.6321783523235962	394.99496365613027	1.0349958580387693	-0.48944932379758654	1.5244451818363558	71.38870676322466
8	3.0	wm	476	diff_vonmises	-0.09472298180449513	-5.427227080292062	3.318460874584607	0.5093108959851413	0.45081042422088524	1.5737718472119349	-0.020771724524654978	-0.23820140788348965	0.21742968335883467	61.513847708081016
9	4.0	ltm	476	diff_vonmises	-0.830397514369874	-47.57827289154791	0.7885126241703087	43.168695454503286	0.7661625108808262	44.58724545051792	-0.17416887346325627	-0.26042470487641367	0.0862558314131574	65.05192744494445
10	4.0	perception	476	diff_vonmises	0.014639042311421782	0.8387553405579055	2.347309359394717	2.707569225345532	0.33879045506689154	4.428447444267955	0.5762035561030836	-0.5481939101399383	1.124397466243022	78.58367051621866
11	4.0	wm	476	diff_vonmises	-0.38324461273099963	-21.958298830611977	0.9041976179951633	191.56223747996566	0.8860148743489035	194.00831047657266	-0.119344432607285	-0.5096307812482017	0.3902863486409167	81.02681907949639
12	5.0	ltm	476	diff_vonmises	-0.25365507466986326	-14.533365230658918	1.8108785017755582	72.48572007285685	1.7724203953777595	73.36816508048062	0.03372351276664887	-0.26574189883439914	0.299465411601048	59.987202777889934
13	5.0	perception	476	diff_vonmises	-0.042904479324493004	-2.4582455874997504	1.8496448589601302	3.4425605149889114	0.4168982804247844	5.337604008154082	0.4590265756578822	-0.5654521711388134	1.0244787467966956	83.67426691936188
14	5.0	wm	476	diff_vonmises	0.3466297391811471	19.860421108800235	3.7824885762023523	0.9225828618275912	0.39613038639354675	2.947375009670397	0.01739469831279683	-0.45966423327149414	0.47705893158429097	59.9492419549735
15	6.0	ltm	476	diff_vonmises	-0.30733645257354625	-17.60908162298679	0.843542381206825	190.36260744143786	0.8304801511235436	191.72099318134164	0.05423576820880527	-0.32139437063232634	0.3756301388411316	89.4487739129076
16	6.0	perception	476	diff_vonmises	0.29583438572581644	16.950061736934526	0.8122368979486195	3.2934079253535664	1.7686924750119097e-18	5.164337434999065	0.18579103543208642	-0.6233932609972339	0.8091842964293203	135.80767006101533
17	6.0	wm	476	diff_vonmises	-0.10392087224021108	-5.9542273826823315	2.785614732700391	0.758557725599615	5.8796126566192715e-12	2.577284121151638	0.06594869055746994	-0.4083754260009336	0.4743241165584035	82.37783857154207
18	7.0	ltm	476	diff_vonmises	-1.713549458591646	-98.17915196422854	5.101802690215865	9.366192352473078	4.8954450175812685	10.001361436482425	-0.0001758209835279437	-0.3658738326543336	0.3656980116708057	175.31393657831217
19	7.0	perception	476	diff_vonmises	-0.09291727168442689	-5.32376751138809	1.7431941153386068	1.4039857539494043	1.8851061839156873e-22	2.567276660570113	0.2577028314025475	-0.3881974440124099	0.6459002754149574	103.40122923111153
20	7.0	wm	476	diff_vonmises	0.5020057446521471	28.762810459890126	2.07720826986716	1.0022402601079137	0.41456423735882797	2.597934266847756	-0.07084290909184043	-0.3314700001612784	0.260627091069438	73.05456979380006
0	1.0	ltm	477	diff_vonmises	0.2140666245999737	12.265114124189857	2.310453364223046	0.49180972387136596	2.0149984979239848e-14	3.4771860281263485	-0.27676241887867603	-0.5506879146743257	0.2739254957956496	90.42457157512189
1	1.0	perception	477	diff_vonmises	-0.0406550022647809	-2.329360045866749	9.768889875411217	0.835685811818411	0.019698076406581506	4.055165138946394	0.36966992043663593	-0.648077770717102	1.017747691153738	43.179571591923036
2	1.0	wm	477	diff_vonmises	0.013969878626490457	0.8004150856079185	4.8032894699445645	0.49151881334237735	0.11441522324201364	3.997355730795583	-0.2938250354920455	-0.6418527660584541	0.34802773056640857	56.939955263301954
3	2.0	ltm	477	diff_vonmises	0.019933994652544855	1.1421337624271721	1.403287743873036	1.8453958511961586	0.3387198952480463	3.401121715580999	0.029599101290397112	-0.35185180075998884	0.38145090205038595	90.55955023426844
4	2.0	perception	477	diff_vonmises	-0.05042405960747768	-2.8890858014245615	9.41630325252951	1.1568097323612774	0.154675653679146	2.9465331711325113	0.8522004433890709	-0.49190580368726633	1.3441062470763372	43.31527785311911
5	2.0	wm	477	diff_vonmises	-0.029389530259631418	-1.6838960457489027	4.603576695576952	0.7159129101691506	0.11643225233148165	3.0443899494193203	0.051390557316374985	-0.4795455994739717	0.5309361567903467	60.08354649353666
6	3.0	ltm	477	diff_vonmises	0.04803722744163606	2.7523303919157676	0.9193897022501971	63.64619018957583	0.8797435770384809	64.72995610127568	0.1350054213121581	-0.2895887164566613	0.4245941377688194	88.91995365566603
7	3.0	perception	477	diff_vonmises	-0.005556153356841608	-0.31834413767446895	3.2002711255746235	2.813244075349317	0.3503451757116117	4.104247338168873	1.011773943776693	-0.5562715917002525	1.5680455354769456	69.96877412358492
8	3.0	wm	477	diff_vonmises	-0.010838714646231654	-0.621012604575705	3.406783319845051	0.6906152164606231	0.06095470446705584	2.5044793306303	0.06266784235321166	-0.3853351263960377	0.44800296874924933	71.1902207440227
9	4.0	ltm	477	diff_vonmises	-0.0036025777996987664	-0.20641250329026578	0.4907566126786052	2.2732271650367664	1.2264853161670016e-12	4.254641143068139	-0.12018105046270522	-0.46842635233456975	0.34824530187186453	152.6831035709941
10	4.0	perception	477	diff_vonmises	0.0025959886756776332	0.14873919478008424	1.1785953763701442	10.169370505915374	0.5847922306846315	12.49553892150195	0.5329789103871145	-0.7150842961213254	1.2480632065084398	92.79877782568002
11	4.0	wm	477	diff_vonmises	-0.17877602678614335	-10.243111812963768	0.6216784758887557	116.02815065006763	0.5888664963390239	119.04084008420047	-0.07277687487354711	-0.6521381512289359	0.5793612763553888	101.97256899189344
12	5.0	ltm	477	diff_vonmises	-0.0005325699445482565	-0.030514010118131388	1.779697872242065	1.409889434532512	0.2187576428847988	2.4479507198942767	0.19848804787414537	-0.2984031282169497	0.49689117609109507	90.76794551126613
13	5.0	perception	477	diff_vonmises	-0.01151488508839458	-0.6597543171431354	1.1733066791110374	9.137563112273387	0.6246958313395649	10.508634255958729	0.5793984705203301	-0.5243338563595338	1.103732326879864	93.8508571164067
14	5.0	wm	477	diff_vonmises	-0.007159270122729945	-0.4101959624265327	2.4165658645497077	1.2045861651416223	1.201881200922159e-18	2.6662933401264355	0.27148580054089394	-0.4188131179521613	0.6902989184930552	88.4818724271434
15	6.0	ltm	477	diff_vonmises	-0.19677506972608724	-11.274381008697295	0.7553155586250009	2.3903245724384585	0.10476868913195862	3.380637093947166	0.10956902891064213	-0.3274652988051626	0.43703432771580475	131.56003288544815
16	6.0	perception	477	diff_vonmises	0.131493020475407	7.533995108668139	0.3997284116968662	5.780736183790602	5.4708341920923595e-19	6.896871592397558	0.22125172325593812	-0.5047032627995458	0.7259549860554839	157.1397701825229
17	6.0	wm	477	diff_vonmises	-0.208526550058057	-11.947691234750158	0.5947729099475483	77.50902698157122	0.56275652006899	78.71331840109686	0.15731545006683945	-0.36173160343676347	0.5190470535036029	112.22357998225328
18	7.0	ltm	477	diff_vonmises	0.2676969178471211	15.337903581300361	1.0370638244239472	86.18143458484826	1.014715156619903	87.08241449511195	0.05310370367353556	-0.2218648029814485	0.27496850665498407	81.07292934628666
19	7.0	perception	477	diff_vonmises	-0.02134607065739856	-1.2230397578569843	1.9709477881379218	1.9947806327561581	0.06191728063988554	3.3377936888538433	0.4553790970990158	-0.4790537525851968	0.9344328496842126	94.48979542519913
20	7.0	wm	477	diff_vonmises	0.6727855815396206	38.54777433947498	0.007651169700241795	88.81022205227339	1.7076540914471784e-07	90.35244997672991	-0.13710660085566495	-0.3533861271867931	0.21627952633112812	166.51117799641762
0	1.0	ltm	478	diff_vonmises	0.13546913991251594	7.761809971254413	3.41662494141424	0.4688415678357878	3.914079951091485e-17	2.9446982133013218	-0.13823313359054545	-0.46830726624316554	0.3300741326526201	74.22865395159377
1	1.0	perception	478	diff_vonmises	-0.07923196448831067	-4.539657167710617	10.83022418700465	0.8679696081065971	1.8781857460028424e-15	3.5703915411315372	0.5571658349038363	-0.5682454621034077	1.1254112970072438	41.232441835202366
2	1.0	wm	478	diff_vonmises	0.06814129287230912	3.904208492148191	2.7685585803969768	0.9147540246708955	0.1952886316656984	3.6576858610049885	-0.12884041212752262	-0.5410514970552482	0.4122110849277256	71.22791403553651
3	2.0	ltm	478	diff_vonmises	-0.06494573159320745	-3.721116317680239	2.629172954308002	0.827865262521491	0.0923807653113374	2.19290251763662	0.1205198358866526	-0.32300101046605484	0.44352084635270744	79.76074132626837
4	2.0	perception	478	diff_vonmises	-0.05536034547067121	-3.1719141478556434	10.412464810022488	1.0732645173362128	0.1185293514653859	2.4656722373073507	0.9239458162842615	-0.4080361815055145	1.331981997789776	41.48057253876905
5	2.0	wm	478	diff_vonmises	-0.07031538072619216	-4.028774550466344	6.279235704984691	0.5133650168255041	0.05024180004396425	2.091962479318287	0.15222500872507322	-0.33285119222368104	0.48507620094875425	53.299543161724614
6	3.0	ltm	478	diff_vonmises	-0.08468946565042874	-4.852348950987724	0.9128230444162293	129.53865862771727	0.8938548650715588	130.41000874012883	0.18771238789537392	-0.262446218253789	0.4501586061491629	90.62570925484908
7	3.0	perception	478	diff_vonmises	0.036270024164834505	2.0781193074825257	2.814709009582223	2.9594847207041775	0.42592232766918253	3.6575961222528637	1.0166426275705072	-0.4489766450390295	1.4656192726095367	73.59337502578722
8	3.0	wm	478	diff_vonmises	-0.05048564950462271	-2.892614642591617	2.8104558500179944	1.0527685088427892	0.3332018167852844	2.0536262825199216	0.2205102057716612	-0.27806030164529616	0.49857050741695735	72.15663568480858
9	4.0	ltm	478	diff_vonmises	-0.17587612746643763	-10.076959820931773	1.3147451719347483	0.9917180691289671	1.5103399000683694e-20	2.566730584622316	-0.011680284855908996	-0.37989048957871213	0.36821020472280314	116.4224289202981
10	4.0	perception	478	diff_vonmises	-0.0271396208379576	-1.554985731600273	2.1560689054177646	2.9958212314861545	0.18202572398133138	4.644243962450315	0.7375202459893562	-0.6060501249859792	1.3435703709753355	86.27248161941176
11	4.0	wm	478	diff_vonmises	-0.22011899622333025	-12.61188947425293	0.8533024498631799	164.03543596054746	0.8342105304047623	165.7238128764712	0.07396622216489135	-0.40183052665301844	0.4757967488179098	89.23838847174875
12	5.0	ltm	478	diff_vonmises	-0.004471138757292108	-0.2561773804102055	1.6550857260516658	1.0162459461150208	3.763244012033219e-17	2.035469328276169	0.1433439443877067	-0.30689339636870827	0.45023734075641497	105.85166355059648
13	5.0	perception	478	diff_vonmises	0.02123429697674028	1.2166355976946215	2.554317497787114	1.7629701060472598	0.0923714292723407	2.916039785909648	0.5442589045081203	-0.42057816172749174	0.964837066235612	82.49731679105099
14	5.0	wm	478	diff_vonmises	-0.048059653545978846	-2.753615313045529	0.8598118361432185	8.351245954169801	0.5425360982101276	9.410445854491144	0.23418525939010504	-0.34317257407935864	0.5773578334694637	103.84886824514612
15	6.0	ltm	478	diff_vonmises	-0.3072203032947042	-17.602426759515648	0.9517616187167293	1.5163986372690001	1.500309358406721e-13	2.6462834772860235	0.08312389481038063	-0.34600452298377954	0.42912841779416017	129.84407021427361
16	6.0	perception	478	diff_vonmises	0.2803789137083062	16.064528419948648	0.1719560238041797	13.541411657279223	1.226729111627168e-12	14.504963916475644	0.2321966606775323	-0.5071785044404715	0.7393751651180038	168.07686527457844
17	6.0	wm	478	diff_vonmises	-0.27778153398611827	-15.915709524074416	0.6226005883584143	105.07275062971503	0.6033278169709382	106.06245223545056	0.12030007737512705	-0.2858708909161489	0.40617096829127597	108.62396076336968
18	7.0	ltm	478	diff_vonmises	0.2440697621546113	13.984167278221053	0.8935956962602379	127.8225514999675	0.8757181841678225	128.88960573757973	0.09609950874035178	-0.27177788209326437	0.36787739083361615	88.71171841222764
19	7.0	perception	478	diff_vonmises	-0.07128746012327354	-4.084470597270729	2.6784625469323147	1.431832669087654	4.271084913007743e-18	2.2088080668864887	0.5270121801704835	-0.34739997504236975	0.8744121552128532	84.02884497457254
20	7.0	wm	478	diff_vonmises	0.36433059221715525	20.874605281544834	0.40730159812120503	23.64017034400772	0.3588042173277579	24.73298383533863	-0.03164602056252974	-0.26019676236571243	0.2285507418031827	127.95384501555742
0	1.0	ltm	479	diff_vonmises	0.22738803357901596	13.028374635856657	4.145233626823464	0.29891666620972557	4.070444575533782e-31	2.244899538142993	-0.1229543701639694	-0.3572280648146347	0.2342736946506653	67.21739166215056
1	1.0	perception	479	diff_vonmises	-0.05009428448535296	-2.870191078738404	8.494468188080177	1.013433876750544	0.061325311558319134	3.0643463793995656	0.6418868809395601	-0.49330576637642454	1.1351926473159848	46.03798378025553
2	1.0	wm	479	diff_vonmises	0.2611295290084776	14.961619918424766	2.817172621781842	0.5166366817485394	0.05928280160713637	2.9495744814359055	-0.1712739238366104	-0.452479576535503	0.28120565269889264	76.02021090950134
3	2.0	ltm	479	diff_vonmises	0.09883473551372789	5.66281321422836	1.0170087654263287	94.92169402461921	0.994209949655055	95.84917710182059	0.09325968697576315	-0.24044534398939454	0.3337050309651577	83.23215235193462
4	2.0	perception	479	diff_vonmises	-0.019463253466648428	-1.1151622792323235	7.6133846928274265	1.3866563208761673	0.2994441451386098	2.394345431420013	0.99684038210901	-0.40455817655471576	1.4013985586637259	47.53454032416212
5	2.0	wm	479	diff_vonmises	0.015208777758608181	0.8713987771206847	5.9773582740536915	0.4978418149780291	0.15176334720337173	2.113216848596641	0.08527506917116268	-0.3429272616351174	0.42820233080628006	52.82404939978281
6	3.0	ltm	479	diff_vonmises	0.16609658442026745	9.51663327881971	1.0774554485861578	37.297857315160904	1.0348545425039843	37.772185777708145	0.13372490560033867	-0.1526963784153006	0.28642128401563927	84.46912111446528
7	3.0	perception	479	diff_vonmises	0.02477132301142535	1.4192922615099695	3.0860694978144423	2.6878340119770523	0.5991328412267134	3.2614009553828445	0.9232817722053541	-0.3945315220489473	1.3178132942543015	68.72647997242333
8	3.0	wm	479	diff_vonmises	0.1091223432178821	6.252249716962667	2.8411159538297426	0.5537975540755515	0.16697875022757547	1.6067689751922252	0.051473980710058875	-0.23432300965355526	0.28579699036361417	73.87498907800779
9	4.0	ltm	479	diff_vonmises	-0.25160159270415094	-14.415709380717374	2.944518975271722	0.5014258216878031	1.0684305728073173e-23	1.7329607928714206	0.04909673059302727	-0.2749092642183487	0.324005994811376	80.08186113314208
10	4.0	perception	479	diff_vonmises	0.02797774956892689	1.603006970573469	1.0649039059965648	436.8644593568348	1.0514261418602187	438.5255244159005	0.5238180965653498	-0.554125834898386	1.0779439314637358	84.77699867855114
11	4.0	wm	479	diff_vonmises	-0.27785727628533086	-15.920049238149915	0.8080869873137184	50.47767801146052	0.7425112164769251	52.57887904521891	0.017106401921937575	-0.47296689091449995	0.4900732928364375	91.51860606367897
12	5.0	ltm	479	diff_vonmises	-0.03413441548936236	-1.9557579436864476	1.4870603011089965	1.9863948440136803	0.6084274645232837	2.4918064014377013	0.1902195844041229	-0.17799066499005478	0.3682102493941777	86.85999022713295
13	5.0	perception	479	diff_vonmises	-0.02299952920993313	-1.3177759545170251	1.07133935966479	225.8080737016809	1.0502368572788554	226.41679336179953	0.6823151195697505	-0.3803507520615561	1.0626658716313067	88.52429331431381
14	5.0	wm	479	diff_vonmises	0.0911499767815406	5.222508972297724	2.340284496049355	1.1103767876056205	2.4539279473633677e-17	1.9128008037505189	0.32495033671714657	-0.2985947743607189	0.6235451110778655	89.88779910116793
15	6.0	ltm	479	diff_vonmises	-0.2963131916103792	-16.977495293326	0.5451550179244488	99.88068026792479	0.5294420248198287	100.38416732290548	0.16790535809495566	-0.21528226053457722	0.3831876186295329	119.53409379674044
16	6.0	perception	479	diff_vonmises	0.16664862419537158	9.548262828056526	0.6607429595789038	3.365746903413959	1.6422618888501197e-17	3.9261503342461355	0.3077059879459517	-0.3761029556063956	0.6838089435523473	143.59858903377182
17	6.0	wm	479	diff_vonmises	-0.2914795744519659	-16.700549430366898	1.9847802487685686	1.0441840065021293	1.0350201115320947e-14	1.5152884755090101	0.2950167445542254	-0.23104105104075906	0.5260577955949844	97.24999185358634
18	7.0	ltm	479	diff_vonmises	0.11350551475130453	6.503386946709658	0.8716464295528387	150.50066361702585	0.8558963147652866	151.70614516351827	0.07319453572320356	-0.29427062196385023	0.3674651576870538	88.82111131438293
19	7.0	perception	479	diff_vonmises	-0.09825350184751566	-5.629510978243484	2.651883911115753	1.6364066999111317	3.8816510781167595e-14	2.1623843451158136	0.6540668878835052	-0.33918963151644027	0.9932565193999454	84.45499783754559
20	7.0	wm	479	diff_vonmises	0.4257724843397196	24.39496638546587	0.4389511864862712	125.0828081382118	0.42573809023492976	126.3999706845127	-0.0015914722495864453	-0.32838965122155805	0.3267981789719716	123.12289801275634
0	1.0	ltm	480	diff_vonmises	0.037238703934143684	2.133620569963648	0.41969061472022656	113.32925552068043	0.4060428605735968	115.59545531358324	-0.23515471718185665	-0.4202351386875627	0.18508042150570603	111.42872848605182
1	1.0	perception	480	diff_vonmises	-0.0478090456465193	-2.739256538093858	9.917036754232244	0.8975512101149745	0.05008896013600562	3.605666448551429	0.5096214510874703	-0.5822077892877197	1.09182924037519	42.63426015042626
2	1.0	wm	480	diff_vonmises	0.10563394973243749	6.05237949296576	8.533339854541184	0.16457874827977226	0.042523694565615264	2.7866268958941944	-0.27374145582048054	-0.45021260692360704	0.1764711511031265	44.83116471000022
3	2.0	ltm	480	diff_vonmises	0.2059439230151723	11.799717605136513	0.453312587385496	113.19204998795419	0.4399512980799242	114.26669231074666	0.026938168224308612	-0.2835568665561432	0.3104950347804518	123.23784602110129
4	2.0	perception	480	diff_vonmises	-0.05189326544947675	-2.9732650954070725	10.645509982206049	1.1870935629830774	0.31795719575854625	2.571064408540371	0.9777795667531363	-0.4627139688248143	1.4404935355779505	40.30702048729327
5	2.0	wm	480	diff_vonmises	-0.0981671910212552	-5.624565732172473	4.8919541925539605	0.5972811234224908	0.19574120000968487	2.4545397057268286	0.04127271583878234	-0.39366727011034086	0.4349399859491232	56.92718581216704
6	3.0	ltm	480	diff_vonmises	0.05357519532258665	3.0696325785732443	1.4879392687991093	152.00563867169672	1.4747210582452874	152.44051084939426	0.16641020205017298	-0.16153542681486144	0.3279456288650344	71.54678534498422
7	3.0	perception	480	diff_vonmises	0.003075148508563495	0.17619303091663796	2.2367874880224936	5.284651920623277	0.9291782467800519	5.993761307653285	0.9482859021602683	-0.4658838976423055	1.4141697998025737	72.95471176526223
8	3.0	wm	480	diff_vonmises	-0.022813445763647952	-1.3071141584076351	2.8364351849463003	0.8509841998295228	0.48262894555768965	1.8912519943121457	0.07921486756179741	-0.2572714715908614	0.3364863391526588	67.26103900672271
9	4.0	ltm	480	diff_vonmises	-0.07836106481185312	-4.48975829187029	0.6653942905943192	67.36902789220647	0.6408642072721319	68.75313263948206	-0.06414145542339966	-0.28389228552304324	0.21975083009964358	95.81674221462434
10	4.0	perception	480	diff_vonmises	-0.014890077599548357	-0.8531386030764088	1.6454700562272428	4.407468249613577	0.4606322805665284	5.969386490382301	0.590434469343148	-0.5483632323496668	1.1387977016928148	87.54061063418223
11	4.0	wm	480	diff_vonmises	-0.21198704314520542	-12.145962883677958	0.9384835152191293	215.215284028207	0.9223004082570274	217.1443167290551	0.031510584240010076	-0.44297215958490455	0.4744827438249146	83.54443332606893
12	5.0	ltm	480	diff_vonmises	-0.04817141217505866	-2.7600186108159703	1.3596237511498437	5.426571137817986	0.9358152576958048	6.380201541564743	0.11285119630998608	-0.2559350169046378	0.3687862132146239	78.31318018221316
13	5.0	perception	480	diff_vonmises	-0.0037688372185715794	-0.21593846629597566	1.5686668783163806	4.458843847762526	0.5403276902873245	5.9048738574176305	0.48292049003416126	-0.48564023223986685	0.9685607222740281	86.59470902898559
14	5.0	wm	480	diff_vonmises	0.09402170119521325	5.387046661125847	1.8770264254545055	1.399270580556258	0.19538735355966935	2.77350485728602	0.16302519470449583	-0.35495102298148384	0.5179762176859797	88.71894450949361
15	6.0	ltm	480	diff_vonmises	-0.2354524081031697	-13.490429260503488	0.7803224774491783	194.5537921770111	0.7668692611013164	195.81222504557255	0.12563074785612827	-0.3293822179526096	0.45501296580873785	95.51000859242741
16	6.0	perception	480	diff_vonmises	0.32499701602760733	18.62095737272747	0.1536250424099504	14.724192363911067	6.915191228966648e-11	16.156861474511953	0.14505759851258127	-0.5735343371158192	0.7185919356284005	168.38704448807073
17	6.0	wm	480	diff_vonmises	-0.27209012182360376	-15.58961562769291	2.050335809044735	1.062070935832028	7.1607762335865895e-16	2.2949723731576697	0.19090622775450117	-0.3560443174828528	0.546950545237354	95.7845095787964
18	7.0	ltm	480	diff_vonmises	0.10056914268142998	5.762187424894929	1.020582449661947	123.35379885301002	1.0025189772724286	124.37305189933907	0.07230282446084146	-0.2544464618274791	0.32674928628832056	82.07959351124529
19	7.0	perception	480	diff_vonmises	-0.12821015521509355	-7.345900784542062	2.6307816758156113	1.3531453922316485	1.8997396455948102e-20	2.2762635861904004	0.4593256973907574	-0.3580163761051332	0.8173420734958906	84.7911658960191
20	7.0	wm	480	diff_vonmises	0.4435084686181013	25.411163430127523	0.8053167955911847	22.03168066163219	0.7117374955223958	23.408065992943186	-0.0011854574132730278	-0.3052837718770336	0.30409831446376057	92.06328863555385
0	1.0	ltm	481	diff_vonmises	0.01754382867319467	1.0051873394746536	0.837605706988051	0.90045559415739	4.939994413694421e-34	3.371392974053648	-0.25669006386134313	-0.4841604149261517	0.22747035106480856	135.6433025416166
1	1.0	perception	481	diff_vonmises	-0.028652012716872944	-1.641639403231983	11.432721278800736	0.7212383752746752	7.762405513677342e-18	3.5312135771358686	0.3995765644944026	-0.5620100958014475	0.96158666029585	40.118572583680844
2	1.0	wm	481	diff_vonmises	0.06884857334218006	3.944732678003826	1.9108337318630921	1.7581342564794569	0.35459167433587796	4.42683339189898	-0.09127576779848079	-0.5524443865184763	0.4611686187199955	77.67472083945563
3	2.0	ltm	481	diff_vonmises	0.05151678753469318	2.9516944998100882	2.2836166720963735	0.7214128110867282	5.841634838513299e-16	2.2217671416378106	0.049396936313442164	-0.3494193712772853	0.39881630759072745	90.98522549057648
4	2.0	perception	481	diff_vonmises	-0.037666051743270354	-2.1581057958107683	8.8899565742639	1.227930757422086	0.16130158611402204	2.8393694386938115	0.9113003252179864	-0.4721623274836375	1.383462652701624	44.56919460106275
5	2.0	wm	481	diff_vonmises	-0.02089950366516868	-1.1974533539323606	6.2479558651825045	0.5485484357482573	1.3355229461307748e-21	2.288884992716457	0.17080712883772714	-0.36428535833037	0.5350924871680971	54.49294682581993
6	3.0	ltm	481	diff_vonmises	-0.14401726302145837	-8.251581348155062	0.658525268730216	91.84836783202552	0.63733985873441	92.69305676876914	0.13947793823352228	-0.2576001782125701	0.39707811644609237	106.63528511533222
7	3.0	perception	481	diff_vonmises	0.06284454285831143	3.600727071210264	3.082785656383553	2.9932230004692615	0.4266852960887845	3.5637382214593583	1.160100987200083	-0.4527306896912281	1.612831676891311	71.09095177981902
8	3.0	wm	481	diff_vonmises	-0.11282967609453004	-6.464664244044688	3.2428224766444473	0.7558703676698637	3.236998287634757e-12	1.7958950172947836	0.23149439082451106	-0.2850363965855279	0.5165307874100389	76.24679663683474
9	4.0	ltm	481	diff_vonmises	-0.24567176013118275	-14.075955001067095	0.5878865739116136	1.6999118405095164	1.2372957275951367e-34	3.46598589408336	-0.10410229508061347	-0.4135307815593884	0.3094284864787749	146.8173400369778
10	4.0	perception	481	diff_vonmises	-0.006666230612281032	-0.3819468793446138	3.230112489778266	2.218520766238277	1.507288512194127e-20	4.062140526818705	0.8685522111436281	-0.6441391749911641	1.5126913861347924	76.39953096743707
11	4.0	wm	481	diff_vonmises	-0.36263120285118783	-20.777237443125486	2.3037662347652814	0.8983459710825931	0.002636910173588087	3.002820427159899	0.02528930042733951	-0.47162142670043194	0.49691072712777146	90.25253324393415
12	5.0	ltm	481	diff_vonmises	-0.09849668005926429	-5.6434440634462195	1.0343545740190265	1.1916593853552027	1.733110962144657e-13	1.9945684622695896	0.09748134118150148	-0.265017841186071	0.3624991823675725	127.09895860659711
13	5.0	perception	481	diff_vonmises	-0.0005787121787512409	-0.03315776539526658	2.7790412834868126	1.7014940084743795	1.1608205697909127e-12	2.6921492116437578	0.6380801807240706	-0.42435606355334843	1.0624362442774191	82.48033147102504
14	5.0	wm	481	diff_vonmises	-0.0661903255115932	-3.792426296411392	1.864282606647019	1.1501029695759153	1.1145218859780034e-11	2.1898450368053575	0.22005169426402038	-0.33486298168497375	0.5549146759489941	100.2720725451196
15	6.0	ltm	481	diff_vonmises	-0.3753036815723386	-21.50331698981677	0.4012934332485823	2.683910998657089	4.615760726972296e-16	3.4934097077716544	0.057132672514632055	-0.28120157188211087	0.3383342443967429	154.9102608929731
16	6.0	perception	481	diff_vonmises	0.1975215465690854	11.317150981305339	0.8012667177274575	3.3796842645781866	4.817391333857426e-12	4.109994555029147	0.372901538394358	-0.44729224924829447	0.8201937876426525	136.84170141060002
17	6.0	wm	481	diff_vonmises	-0.13776464679351555	-7.893332827378931	1.3841387234028606	0.8633431760011311	2.4860733762890463e-14	1.768236762836627	0.07482985594705838	-0.2590614703475651	0.3338913262946235	114.12009460428641
18	7.0	ltm	481	diff_vonmises	0.41250966355031954	23.63506272979488	1.1829491450717027	112.43608525544253	1.16601822116595	113.17846785491619	0.07613974404331003	-0.19765331424204824	0.27379305828535827	76.74269970221707
19	7.0	perception	481	diff_vonmises	0.007147390014048284	0.4095152823389169	1.8750449214345872	1.6631458870958409	2.4089434590400606e-17	2.6527195917547246	0.4028659590923646	-0.402789783172593	0.8056557422649576	100.01434775267677
20	7.0	wm	481	diff_vonmises	0.11959503950365179	6.852291014259603	0.0002895823216611122	1666.0047672437163	2.0822158290920086e-22	1667.0662238672564	-0.09214717487162716	-0.2457138447192051	0.15356666984757794	179.44650138566155
0	1.0	ltm	482	diff_vonmises	0.579928540876085	33.227457811379715	0.00024392959530922538	1670.02778718041	5.730563891403208e-31	1672.801032958963	-0.37653750942001807	-0.5062061313942081	0.12966862197419005	170.05304787522562
1	1.0	perception	482	diff_vonmises	0.047942464859511626	2.7469008959042753	11.05237995251781	0.6672997703610681	0.05685554181598941	4.238085689646525	0.16109111664181364	-0.6899204831817904	0.8510115998236041	40.17633947337558
2	1.0	wm	482	diff_vonmises	0.6420768409122596	36.78829310736526	0.2944253993390283	1.5833831011277215e-09	0.17054358085064145	3.3032727540705378	-0.44009535232360675	-0.6189820330113684	0.1788866806877617	51.788841215544366
3	2.0	ltm	482	diff_vonmises	0.22092666254590249	12.658165345791172	0.0010230991535568593	935.6874745043692	1.5172542573290078e-20	937.1815670060514	-0.08539676887170344	-0.3901097115647758	0.30471294269307236	178.3237133983529
4	2.0	perception	482	diff_vonmises	-0.050338930635621885	-2.8842082706229366	10.08848980417092	1.364757015693658	0.378083502813017	3.7254907071611725	0.8715691797827679	-0.6880383837931631	1.559607563575931	40.77143696254407
5	2.0	wm	482	diff_vonmises	-0.09910342487396666	-5.678207980570112	2.629176772607816	1.2506509844983706	0.29353851980539336	4.553115945029661	-0.19216313863992207	-0.6599914040649643	0.4678282654250422	69.15282209018432
6	3.0	ltm	482	diff_vonmises	0.12515665488465527	7.170948102866146	1.7607450382262462	110.41277995384706	1.7397676442880043	110.92767269970825	0.13918536479178556	-0.1861948301963583	0.32538019498814386	64.41528975195808
7	3.0	perception	482	diff_vonmises	-0.03711571849700691	-2.126574023474139	1.4717533843480306	397.38499794777414	1.4485654284551954	398.7914548431213	1.028691431639487	-0.6765131798009634	1.7052046114404504	74.01455727492564
8	3.0	wm	482	diff_vonmises	-0.12173569979126486	-6.9749418141110935	3.4865385357021674	0.5105092860717363	0.26320591304589835	2.519858883058008	-0.1489879424063001	-0.39488212567529374	0.24589418326899365	61.70029773487508
9	4.0	ltm	482	diff_vonmises	0.5936439402217248	34.01329230822137	5.385499898195716	0.18099433928325356	0.03462484076454387	2.2508738091186786	-0.20748233041730296	-0.35842545839500295	0.1509431279777	56.33784527892945
10	4.0	perception	482	diff_vonmises	0.0027303397200111367	0.15643694259356902	1.8772672007569233	3.2257200745031143	0.2545174289227755	5.693230633454484	0.4514141694827911	-0.6898743103975368	1.1412884798803278	87.34992574344923
11	4.0	wm	482	diff_vonmises	-0.2691536161349852	-15.421366245218907	0.6719618989251822	218.29159722026156	0.654339751882857	222.01163310061426	-0.2944903025405452	-0.7160752478417436	0.4215849453011984	90.91327736664766
12	5.0	ltm	482	diff_vonmises	-0.11963566519687234	-6.8546186950209345	1.3956422657911152	137.17217072469066	1.3732627916178852	138.35123788939845	0.06529281113876806	-0.3149035459893632	0.38019635712813127	69.14264846827757
13	5.0	perception	482	diff_vonmises	-0.03336380446399343	-1.9116051842865593	0.850203801332963	281.15280883469677	0.8286357893429117	283.52223770220553	0.4249704913331698	-0.6879135241680885	1.1128840155012583	93.47323286850664
14	5.0	wm	482	diff_vonmises	0.21051418242048967	12.061574180341166	3.9205201166733668	0.9226638161391714	0.23423739978538025	3.5149888171173007	0.004169782137022349	-0.5480869491946627	0.5522567313316851	61.721326342814365
15	6.0	ltm	482	diff_vonmises	-0.16834529439416754	-9.645474869673157	0.8080711060766225	161.77087313029895	0.791270266652452	163.32539564283235	0.04958427440343627	-0.36357891282831645	0.4131631872317527	91.25397597021025
16	6.0	perception	482	diff_vonmises	0.14582869498996273	8.355368754825438	0.7737250856609484	3.286992760429034	6.848559310561532e-13	5.585333279846507	0.09263596669682583	-0.6800591748192777	0.7726951415161035	138.31451042506092
17	6.0	wm	482	diff_vonmises	0.11570059785727814	6.629155944362413	0.8398784016390477	126.24908948969832	0.8079816249110333	128.6789767045396	0.027270344456439943	-0.5495308647816799	0.5768012092381198	88.78762076999618
18	7.0	ltm	482	diff_vonmises	-1.553873278886683	-89.03038077836166	1.2086162037549584	44.660689905877774	1.2330646594019075	45.14697486471395	0.04101680986720435	-0.3883908958328668	0.42940770570007114	156.46158123532894
19	7.0	perception	482	diff_vonmises	0.024332115961052368	1.3941275511912077	1.0835477884121638	2.2362051959498594	5.2728287711006076e-11	4.168625103616699	0.1358588471991431	-0.5719231316853148	0.7077819788844579	125.17197765909955
20	7.0	wm	482	diff_vonmises	0.9840177412130467	56.38006353750403	0.5224199745446175	85.80360406384416	0.5065902942349647	87.79893063642409	-0.24037094623530564	-0.3515531797110327	0.11118223347572709	93.24581783503518
0	1.0	ltm	483	diff_vonmises	0.1878108348578117	10.760768184181094	0.5832678183900915	39.50429851200387	0.532124954697475	41.74753149744626	-0.18638410908757308	-0.42865249903295677	0.2422683899453837	99.00997829435704
1	1.0	perception	483	diff_vonmises	-0.055052363759326574	-3.154268095628379	10.727833303198313	0.8207328617134363	2.27345370099705e-18	3.372483547095251	0.5225738448005804	-0.5367474265069861	1.0593212713075666	41.4228924726018
2	1.0	wm	483	diff_vonmises	0.09096964298146135	5.212176606649626	5.3089361578890015	0.3990201349742828	0.09081743371086169	2.990540816910587	-0.16293491341124838	-0.47941452418308006	0.3164796107718317	55.606949478869666
3	2.0	ltm	483	diff_vonmises	0.001659272071514849	0.09506928676173015	1.9280860527739754	0.7939031946793157	0.05740080737279724	2.043250202777804	0.05646060377574441	-0.29835397685788473	0.35481458063362914	94.01073949061367
4	2.0	perception	483	diff_vonmises	-0.046476105809817696	-2.662884711105999	9.885256658343868	1.134959271606348	0.17399127762641772	2.622087688128074	0.9115581747749544	-0.4420328741206019	1.3535910488955563	42.2965872514352
5	2.0	wm	483	diff_vonmises	-0.08484337101180202	-4.861167078638848	5.15906801564974	0.6064105170707973	0.15586477402211918	2.434771091387819	0.08454573049004355	-0.38934300928465737	0.4738887397747009	56.46208560844846
6	3.0	ltm	483	diff_vonmises	0.021503145898994703	1.2320395062664409	1.093824505728731	166.0635077051703	1.080435325909035	166.70928474571693	0.18645191925064353	-0.20940320952018965	0.3958551287708332	83.27652234159231
7	3.0	perception	483	diff_vonmises	0.02600856824890969	1.4901811918404833	2.231698675156357	4.944259148245325	0.8042023214846848	5.668071875104673	0.9985893434091102	-0.4801835913278322	1.4787729347369425	74.80438846238107
8	3.0	wm	483	diff_vonmises	-0.05897335075586287	-3.378924102055586	2.8080332043771907	0.9829748563284549	0.3698658346580086	2.077149188742067	0.1572412005877935	-0.28250104761966643	0.43974224820745994	70.67839668794957
9	4.0	ltm	483	diff_vonmises	-0.09968939926126091	-5.7117818398648375	1.9909128695186682	0.5663224499420224	1.5439405620567902e-16	2.0871920592246203	-0.040840031640065	-0.32675258677083613	0.28591255513077113	97.21790414633266
10	4.0	perception	483	diff_vonmises	-0.01282121065780741	-0.7346012589405145	1.5683953017618404	5.51864049035966	0.5209053143731543	7.2631989660817275	0.6354046989067559	-0.6055957978616244	1.2410004967683803	87.36697968798404
11	4.0	wm	483	diff_vonmises	-0.2744771231304276	-15.726380728266127	0.8731972088001211	151.31691777202602	0.8516398468112536	153.22012656016392	0.025537948696246815	-0.4325414732542576	0.45807942195050444	86.79187497896909
12	5.0	ltm	483	diff_vonmises	0.01816914598214613	1.0410153821340502	2.632563272814528	0.637879241783064	0.028083367129294656	1.4819148553538395	0.14495562617172	-0.22732087628971218	0.3722765024614322	83.1537286033732
13	5.0	perception	483	diff_vonmises	0.0011554859379835905	0.06620446753317491	2.0492884199326618	2.5309213799909536	0.2782747338929561	3.7002622719416634	0.5619733956320587	-0.4418224452628735	1.0037958408949321	85.50019593887617
14	5.0	wm	483	diff_vonmises	0.007807789618495105	0.44735339246582867	1.6413356579549019	1.6579442090821763	0.2164716000713267	2.8537089425600657	0.20108393626427656	-0.33943406952260574	0.5405180057868824	93.73437679478795
15	6.0	ltm	483	diff_vonmises	-0.3052463093446783	-17.48932523739481	0.5258943620008318	89.39489556025521	0.5050840349643022	90.42974452889786	0.0921742253379989	-0.30030944319748354	0.39248366853548244	117.62796073687367
16	6.0	perception	483	diff_vonmises	0.2330883043921178	13.354976095529	0.40370485312436444	5.682055371055022	3.500593610738686e-18	6.654140304319585	0.24152248573228996	-0.4789643251984158	0.7204868109307058	156.19468754492868
17	6.0	wm	483	diff_vonmises	-0.23979664932592934	-13.739335947754368	1.712940850256636	0.923150947770942	3.818733676132774e-11	1.9649712844381517	0.12072944331319574	-0.2986378750687029	0.4193673183818986	104.10637670362799
18	7.0	ltm	483	diff_vonmises	0.2480511251470642	14.21228257439818	1.02856097374232	96.27647248867207	1.0076937642286432	97.08077965747422	0.1034196839580872	-0.21627160460822914	0.31969128856631635	83.41441758575573
19	7.0	perception	483	diff_vonmises	-0.06995315315805606	-4.008020439588858	2.277214325877934	1.4947096948010878	1.0131206690934995e-18	2.256912762930302	0.4743951808580165	-0.3504289884181599	0.8248241692761764	91.11064964280672
20	7.0	wm	483	diff_vonmises	0.3158374582943569	18.096153372405805	0.9724246383308489	1.0397710952098687	0.12789799244397884	2.173693371243466	-0.041682081429231854	-0.25314421827979505	0.2114621368505632	115.92735046550365
0	1.0	ltm	484	diff_vonmises	0.1634301292819405	9.363856653132602	5.493370462353978	0.45925847486163235	2.2880569402386592e-23	3.694976941536567	-0.16947469634565193	-0.5880667586530015	0.4185920623073496	58.195785242065625
1	1.0	perception	484	diff_vonmises	-0.002939723819348109	-0.1684337677827255	13.413094242848548	0.6390013868974695	4.154064036964491e-05	4.202402049407653	0.2557088884166202	-0.668831823915339	0.9245407123319592	37.005900931252455
2	1.0	wm	484	diff_vonmises	0.07772700310200555	4.453429231945176	1.0141818776549512	73.83398798026266	0.942557531539318	77.64443782650599	-0.2584961021023382	-0.7904098655193383	0.5319137634170001	75.81758567782418
3	2.0	ltm	484	diff_vonmises	-0.09330393571034593	-5.345921728162788	4.062171697650447	0.6929625195839998	0.03989949251680715	2.593558462616329	0.10784102520353467	-0.4052305742337226	0.5130715994372572	66.19760596311932
4	2.0	perception	484	diff_vonmises	-0.06477130460750297	-3.711122387566183	11.02912420539081	0.9004930900967767	3.0417221354546983e-16	3.0791450186279588	0.688711390857968	-0.49006114990112964	1.1787725407590977	40.849810146659536
5	2.0	wm	484	diff_vonmises	-0.11095382085616877	-6.357185655909081	3.6749515860829702	0.9633409595722611	0.13726619620962316	3.368332927214623	0.0948736040889554	-0.5157601409313858	0.6106337450203412	66.39899357084116
6	3.0	ltm	484	diff_vonmises	-0.1270946033533338	-7.281984371035267	0.7067842599964356	182.396826026259	0.6920482314896893	183.5865645745358	0.1755318364993883	-0.34376810994724494	0.5192999464466332	102.05174462555334
7	3.0	perception	484	diff_vonmises	0.05918321092150939	3.390948203835048	2.6146919025321864	3.7383069554658883	0.48819799204276704	4.7686598505342594	1.0956075159842906	-0.5541147015017122	1.6497222174860027	74.53354976763697
8	3.0	wm	484	diff_vonmises	-0.11240389278011342	-6.440268657141525	2.780276801130931	1.2131618232561119	0.0988935768261012	2.7264923428311416	0.2827092086947452	-0.400589105201161	0.6832983138959061	78.14137053283983
9	4.0	ltm	484	diff_vonmises	-0.006279242591243123	-0.3597740990170217	0.0003897173714656798	2863.9278663300865	5.836014983771897e-32	2865.970052170003	-0.14737376629886967	-0.5026395647053619	0.3552657984064922	179.97522648097947
10	4.0	perception	484	diff_vonmises	0.0024240521085113808	0.1388879551374904	2.1838397376503447	3.5358119318175785	0.23867181010157035	5.7974251352267245	0.7682917008572956	-0.7364425365817631	1.5047342374390587	83.63073050122759
11	4.0	wm	484	diff_vonmises	-0.23660962360939858	-13.556732824997498	0.5131871670979467	132.9670914241572	0.4899634306642066	135.309943334911	0.0035895972362780526	-0.5631133752359485	0.5667029724722266	115.08532944545303
12	5.0	ltm	484	diff_vonmises	0.045850598421085	2.627045777677367	1.5914087714341782	1.1825228295851309	6.129771816788018e-24	2.1567193925153263	0.1876698836753622	-0.32123443055074197	0.5089043142261042	107.68292609911927
13	5.0	perception	484	diff_vonmises	-0.017434809881421664	-0.9989410228184447	2.4622188265986407	1.9184544824150018	2.530392767495974e-12	3.2068931969666874	0.6101877991241015	-0.5022498554035375	1.112437654527639	87.65651807050273
14	5.0	wm	484	diff_vonmises	-0.06891338667788119	-3.9484462085956653	2.459732937044346	1.1782026780857473	8.466136127390133e-21	2.5123376963991384	0.28793426816988216	-0.3948280365442326	0.6827623047141147	87.69788099878693
15	6.0	ltm	484	diff_vonmises	-0.22389749703480488	-12.828381623637183	0.2848036180925069	4.1173214126104405	9.580484806123604e-10	4.965956936117648	0.06345194205752025	-0.30731522800137284	0.3707671700588931	162.7983324191117
16	6.0	perception	484	diff_vonmises	0.1740599182332051	9.972898697154857	0.2467227096802296	9.459902424028112	1.3976584115712052e-13	9.953797433012893	0.31370233604621567	-0.42549245166890115	0.7391947877151168	165.168766614087
17	6.0	wm	484	diff_vonmises	-0.3474582560907721	-19.90789163097697	0.3822333847096406	156.3545515708993	0.37294477941127296	157.22298122030622	0.07121062158257274	-0.27328788404391346	0.3444985056264862	132.9098746235117
18	7.0	ltm	484	diff_vonmises	0.4513446858058133	25.860145602331293	1.1935151196486014	4.117523949132916	0.8402732793296732	4.522302874109853	0.14822338740853658	-0.1425225381918931	0.29074592560042967	87.25408845714082
19	7.0	perception	484	diff_vonmises	0.02868658925049214	1.6436204926785551	2.1603312527935703	1.5479393945175028	1.549978434043417e-14	2.165269894613665	0.4918676157450921	-0.33349474541789814	0.8253623611629902	93.49059451093865
20	7.0	wm	484	diff_vonmises	-0.17129278100165501	-9.814353412453523	12.306674089828583	0.22455720101918256	7.749366945440145e-18	1.1216925487211924	0.1324134056587009	-0.1785229137519669	0.3109363194106678	38.64872925536079
0	1.0	ltm	485	diff_vonmises	0.240644080307082	13.787890166403047	4.863268764865127	0.2954461489481026	7.470679557624684e-23	2.4983361606006085	-0.14520231942773465	-0.39760748438187454	0.2524051649541399	61.93268894685704
1	1.0	perception	485	diff_vonmises	-0.02493828073301098	-1.428858234313946	9.270540393030975	0.8285292957170931	2.0844951436336297e-22	3.180010635169805	0.48572791597943	-0.5061144028741701	0.9918423188536001	44.60473757439763
2	1.0	wm	485	diff_vonmises	0.1766498132294338	10.121288749820812	0.8417125902057696	109.83028987467648	0.8091688958845265	112.36057786138508	-0.09035587920106991	-0.5314416877486323	0.4410858085475624	85.60271869361077
3	2.0	ltm	485	diff_vonmises	0.11777730185030207	6.7481423184606495	2.1469573531879025	1.0180759765712852	0.28115794901386826	2.304232684677084	0.07178525838635247	-0.2983474044283645	0.37013266281471696	79.6876342993946
4	2.0	perception	485	diff_vonmises	-0.019993374668741366	-1.1455359867426507	7.385181599801376	1.4150604969168932	0.2214209955511269	2.718262172878518	0.9730185623352907	-0.4494920952041781	1.4225106575394688	48.519390369395495
5	2.0	wm	485	diff_vonmises	0.03421840670377228	1.9605702857883147	6.693181988493763	0.48241961482268414	8.657889476017836e-16	2.136477992718742	0.14784042441437495	-0.3400302840015713	0.48787070841594626	52.61562150220871
6	3.0	ltm	485	diff_vonmises	-0.05895173293807157	-3.3776854923338617	0.6279498097721806	81.91459057742266	0.6096434815492003	82.57621671197163	0.10739516408976613	-0.20444518340700668	0.3118403474967728	109.160440061243
7	3.0	perception	485	diff_vonmises	0.07190880442485871	4.120071003376063	3.0857490090944535	2.771695953642055	0.4842726332810744	3.17829032116087	1.0697862953347266	-0.39377134283702014	1.4635576381717468	70.53972348003703
8	3.0	wm	485	diff_vonmises	-0.04098448877659107	-2.348238232399959	3.0699861019780874	0.6109292020564044	1.4747809262428474e-14	1.5556764960931908	0.157800658047547	-0.24671988717121285	0.40452054521875985	78.40985683383329
9	4.0	ltm	485	diff_vonmises	-0.37607415661556653	-21.54746195801389	2.2087669263543104	0.5479500285593242	1.593812486700227e-27	2.0593226291696305	-0.027698335927300533	-0.3241310530486075	0.296432717121307	92.34858233864917
10	4.0	perception	485	diff_vonmises	0.028113467167048795	1.6107830161515069	2.383190829965012	3.212366383528919	0.3649527374608759	5.042818021449816	0.7219476254490624	-0.6165735001624436	1.3385211256115062	77.86313694446105
11	4.0	wm	485	diff_vonmises	-0.44884158147782877	-25.716728288656853	1.901685136555856	1.0284282896626087	1.8642448536719223e-17	3.1635262331302556	0.011095884498639075	-0.49201733440137313	0.5031132189000123	98.99934274951303
12	5.0	ltm	485	diff_vonmises	-0.08524648573720747	-4.884263851064157	1.4400231148410163	0.7872743607761468	1.168333579321346e-18	1.404119853401404	0.10922535590137805	-0.2047974472819903	0.3140228031833684	112.33541242702414
13	5.0	perception	485	diff_vonmises	-0.021574946136322635	-1.2361533568333691	2.8045361661012698	1.769687698863069	0.022170425813732436	2.4560680541599464	0.7155199642433634	-0.37819096278462133	1.0937109270279848	81.37616366508612
14	5.0	wm	485	diff_vonmises	0.0012802076585720465	0.07335049573650335	1.9066540589961616	1.1352323943921405	7.686616670228916e-18	2.031644895858744	0.24559345243167152	-0.31078692512338213	0.5563803775550537	99.23342131524521
15	6.0	ltm	485	diff_vonmises	-0.31995685862149054	-18.332177625275374	0.344394823587292	2.8157123885942354	1.8122254579497515e-11	3.3870474241984656	0.07496697323828583	-0.23070486167543952	0.30567183491372535	158.56716170164532
16	6.0	perception	485	diff_vonmises	0.17237942438164955	9.87661349196304	0.41053631895400133	206.4796592587902	0.39732218867248886	206.99189797756915	0.3843307646300076	-0.3862851715799174	0.770615936209925	134.62112803474196
17	6.0	wm	485	diff_vonmises	-0.23526107813078478	-13.47946686059148	1.473418923705068	0.865144968462243	3.1566228386193844e-19	1.529210328471904	0.12730556753912786	-0.22391628044950213	0.35122184798863	111.10357978664815
18	7.0	ltm	485	diff_vonmises	0.35809863899775984	20.517540663950513	0.9678760703607879	112.74969341569052	0.9501969157792791	113.73265278888755	0.051671263218551644	-0.23812002819306066	0.2897912914116123	83.76601958498466
19	7.0	perception	485	diff_vonmises	-0.03561743706997931	-2.0407288211826193	2.4042559393712892	1.5805631353107719	4.918025220070548e-19	2.321804608546375	0.5408043226028009	-0.3620983760454472	0.902902698648248	88.70228531002098
20	7.0	wm	485	diff_vonmises	0.3103408688865295	17.781221997620985	0.05040593477374724	32.685213645335075	0.029858417696284247	33.860136756769606	-0.08363198840111252	-0.28615360028495296	0.20252161188384044	172.4429996898674
0	1.0	ltm	486	diff_vonmises	-0.4485895741670892	-25.702289333345036	0.008969245179637285	84.19242673281971	1.4971542376552637e-15	86.70862000544112	-0.280012887121881	-0.5203773596681209	0.24036447254623994	173.8645230514641
1	1.0	perception	486	diff_vonmises	-0.04245417976612736	-2.432445323288794	8.50098817376682	1.0620941721667008	0.103744161414243	3.9288773030404167	0.5240686689307298	-0.6426437579599165	1.1667124268906464	45.54626699766405
2	1.0	wm	486	diff_vonmises	0.17759330666566805	10.17534694171533	2.0512689310721623	0.8886154062568506	2.886055127114583e-15	3.7327023753789677	-0.1285993543656621	-0.5863832120575923	0.45778385769193014	95.80692776723393
3	2.0	ltm	486	diff_vonmises	0.19953784175270123	11.432676185579082	1.2151827070889878	63.845231594159536	1.1723000223643112	64.74700438387849	0.1688935027602021	-0.26463801951927746	0.43353152227947955	77.84364271977347
4	2.0	perception	486	diff_vonmises	-0.022157808837449687	-1.2695489296435443	8.475710810157597	1.2785635554152293	0.3400302567097158	2.153849010987344	0.9936372277664635	-0.3744690511052136	1.3681062788716771	45.05786302291679
5	2.0	wm	486	diff_vonmises	0.04730400219996423	2.7103196801355116	6.45818866669475	0.48054107764068554	7.115471071520844e-18	1.6686650138128405	0.2113572811205814	-0.2655751130683792	0.4769323941889606	53.58401461133633
6	3.0	ltm	486	diff_vonmises	-0.20042171751762947	-11.483318536523367	0.7620305482174419	0.9823340378588671	3.079055406433282e-18	1.5419786175900432	0.045736169950244626	-0.1819902599683184	0.22772642991856304	138.71082378924154
7	3.0	perception	486	diff_vonmises	0.0232260038863977	1.3307519976450357	5.715278707981151	1.643960379592742	0.2504244843155941	2.094127571989402	1.1086191535389478	-0.3291746555447504	1.4377938090836981	55.156538686594274
8	3.0	wm	486	diff_vonmises	0.08598657417459271	4.926667794992762	1.5331014308430604	0.9022109194224208	6.9507029307421944e-15	1.7948675334135533	0.1103390428301238	-0.26720923136844793	0.37754827419857173	109.40652196631015
9	4.0	ltm	486	diff_vonmises	-0.5426970181116864	-31.094248692134425	0.6946714626794274	53.54316228937683	0.6467722737464652	54.828535251177435	0.13533481371305278	-0.35035367775067794	0.4856884914637307	103.12678968166362
10	4.0	perception	486	diff_vonmises	0.011781353942984824	0.6750218578828415	3.457776544361186	1.942430835168419	3.3544718789891244e-16	3.22215329147738	0.8652996865459707	-0.5114540548465845	1.3767537413925552	73.77862440589021
11	4.0	wm	486	diff_vonmises	-0.21247465103273785	-12.173900757690857	1.9416412873175928	1.515580658674997	0.035401990212183175	3.565303698871142	0.1802718907003582	-0.5317197458115057	0.7119916365118639	95.73894582193873
12	5.0	ltm	486	diff_vonmises	-0.12506436158836884	-7.165660086511583	1.1719744391147184	1.6849484371294277	0.08024747165872087	2.0919472279113793	0.26989985239680014	-0.24632002788012303	0.5162198802769231	117.49062718734149
13	5.0	perception	486	diff_vonmises	-0.01754025697429255	-1.0049826962018704	1.1421055412795222	103.30641467652106	1.0992878314852077	103.59997424509493	0.7202371630143105	-0.3213506305564664	1.041587793570777	87.48983618857508
14	5.0	wm	486	diff_vonmises	0.021241609322620262	1.2170545642518844	1.7214251470720845	1.6423607300971508	4.357731085400647e-15	1.952954763535742	0.4626735591670113	-0.2860904806658779	0.7487640398328892	104.00477151712653
15	6.0	ltm	486	diff_vonmises	-0.2136809922665577	-12.24301901904134	0.19985078396000272	64.04727302369079	0.1767215731055819	64.13738786767627	0.23867686841020586	-0.2236509144296992	0.46232778283990505	157.78650064530243
16	6.0	perception	486	diff_vonmises	0.2161958374671736	12.387109035165361	0.8092960384491038	3.4321473476614557	7.743980926535021e-16	3.4932550152111848	0.4922572812068773	-0.3482262814140836	0.8404835626209609	136.39215893770006
17	6.0	wm	486	diff_vonmises	-0.2866319671851387	-16.422801993240757	2.078608460656168	1.2732807927431466	3.4830765169009924e-14	1.170675936672061	0.485968536600742	-0.175795663673324	0.661764200274066	95.14937400181664
18	7.0	ltm	486	diff_vonmises	0.1692179976743704	9.695477084396003	0.8718151321853208	208.60811507036138	0.8584260927420351	210.02088095366275	0.08797120306958561	-0.3456571288936452	0.4336283319632308	88.80208266125157
19	7.0	perception	486	diff_vonmises	-0.05572038161460141	-3.1925426993750086	2.284472643728104	1.806361805622293	2.9858124730383513e-18	2.5347777332366768	0.6058767763151446	-0.39295682354148764	0.9988335998566322	90.97028175039421
20	7.0	wm	486	diff_vonmises	0.3327539291209585	19.065395755026262	0.3401716779171993	108.07280155617794	0.32434845905570603	109.24853921301504	0.05652596775722074	-0.3528740273190891	0.40939999507630986	137.5607525283772
0	1.0	ltm	487	diff_vonmises	0.20948523991576118	12.002620117458605	0.6488677674012046	212.24116170119672	0.6353706091496386	215.1646129208549	-0.25178914471963765	-0.5548263702434575	0.30303722552381984	91.31696459785786
1	1.0	perception	487	diff_vonmises	-0.05847996430392471	-3.350655140690595	8.693167979917513	1.0423745793765258	0.07842289308696976	4.230002799308059	0.4802149607873447	-0.6870626326387571	1.167277593426102	45.20929052260175
2	1.0	wm	487	diff_vonmises	0.04792463461615638	2.7458792982123286	9.154892340022291	0.18343605023366683	0.08769035000689443	3.751543638013403	-0.4323326368522524	-0.6225331374870199	0.19020050063476746	41.83810154728707
3	2.0	ltm	487	diff_vonmises	-0.02561495590967343	-1.4676288660379737	0.8212248243278173	104.42598802585732	0.7993619431828497	105.71049656784602	0.04605622058936376	-0.3022068311076076	0.34826305169697136	90.80910886633859
4	2.0	perception	487	diff_vonmises	-0.06551521719972818	-3.7537454394273246	11.21718992948787	1.0646767561778205	0.21236348699730595	2.628469805384477	0.8943467567911392	-0.4558776032074766	1.3502243599986157	39.60377904356281
5	2.0	wm	487	diff_vonmises	-0.11927057219509335	-6.8337004068892355	2.803085148364567	1.1704619777839549	0.3655554310092415	3.466538638119759	-0.03195136704299106	-0.4959979348040932	0.46404656776110215	67.57851961419118
6	3.0	ltm	487	diff_vonmises	0.0747938254628534	4.285370532659611	1.3563252928452256	155.58653116794306	1.3390730319631359	156.3691629238163	0.1671782216168083	-0.24271308146676773	0.409891303083576	73.38381152388493
7	3.0	perception	487	diff_vonmises	-0.03877688117747959	-2.2217516341498627	2.5390544034920906	3.4887538379870184	0.576821123775532	4.7207817035429365	0.8419444284958637	-0.5288923025196357	1.3708367310154994	73.2578350733209
8	3.0	wm	487	diff_vonmises	0.036197864987319306	2.073984891157769	3.0094724086593687	0.8377280862130327	0.3736173459962406	2.470582288968904	-0.0022298130990618947	-0.3598360045096384	0.3576061914105765	65.91730567166016
9	4.0	ltm	487	diff_vonmises	0.140346005092744	8.04123376333579	1.9761778615844674	0.7609142750921367	0.10141341325346574	2.375503724151227	-0.027642609105136884	-0.33842851637525884	0.31078590727012195	88.49473544093232
10	4.0	perception	487	diff_vonmises	-0.0102880249212684	-0.5894604075140903	0.8425431473210809	444.66288896173546	0.8302221949592012	446.6246056010878	0.43872787096916	-0.6048647317423956	1.0435926027115556	94.47063801677754
11	4.0	wm	487	diff_vonmises	-0.09104806033107028	-5.21666958982282	0.7959472391721183	233.5714215004197	0.7787396836641467	236.0978264308195	0.010675499833922686	-0.5648219855292389	0.5754974853631616	90.53351912116668
12	5.0	ltm	487	diff_vonmises	-0.0014423188664879378	-0.0826387837618517	1.1355678258871997	193.93652629869408	1.1171399562282989	195.2108481932553	0.20340297606125546	-0.3593216193676234	0.5627245954288789	79.74664860974846
13	5.0	perception	487	diff_vonmises	-0.012630523595712	-0.7236756950746985	0.9016117129044396	277.1176504364601	0.882330834361967	278.8592543774289	0.4617921089019035	-0.5589243247781788	1.0207164336800822	91.99479791906833
14	5.0	wm	487	diff_vonmises	0.07284379362361161	4.173641938354923	2.426475059686703	1.243737712104723	0.04108342610499022	2.9606913523156635	0.2294667825704198	-0.44676539285555794	0.6762321754259777	85.73171399660083
15	6.0	ltm	487	diff_vonmises	-0.04761367211173151	-2.7280624591219653	0.9202956755528385	161.81204721431627	0.8988598383894142	163.22853245905065	0.20346085648861134	-0.3882348766917936	0.5916957331804049	88.87049161814426
16	6.0	perception	487	diff_vonmises	0.25738014235047374	14.746795887158486	0.0001654079810605261	12081.149297270913	3.3210203344591706e-29	12082.792254434451	0.05656756034318278	-0.5795107657356766	0.6360783260788594	177.84096155482348
17	6.0	wm	487	diff_vonmises	-0.37090716619495134	-21.251415214128112	0.7449375255004871	9.215930229114118	0.41991386284564275	10.61209761160764	0.2408085575743364	-0.4535585965089679	0.6943671540833043	113.50306739177628
18	7.0	ltm	487	diff_vonmises	0.8123444887609967	46.54391071671765	0.00014331362165863752	8821.382220732841	1.2817718720974709e-29	8822.615426270755	0.004937611713557999	-0.39746471006515094	0.40240232177870894	161.2930374907746
19	7.0	perception	487	diff_vonmises	-0.12390225103690408	-7.099076056585032	3.111956190380246	1.4773337926804604	1.5966017674347242e-16	2.5370129719219676	0.5841671206885696	-0.40182054538417	0.9859876660727396	77.86123876435647
20	7.0	wm	487	diff_vonmises	0.5505641198393103	31.545000418127355	0.6325869742788264	139.503022859299	0.6152306363694123	141.23496092025832	-0.0056767924124443425	-0.3900713803757867	0.38439458796334236	101.94331141738334
0	1.0	ltm	488	diff_vonmises	-0.43462752639289404	-24.902322922523624	0.0002894596157307156	2337.4440030356727	4.179335849539603e-31	2338.837700651738	-0.11412268849687734	-0.32948945612014313	0.2153667676232658	174.65594010255393
1	1.0	perception	488	diff_vonmises	-0.08812606695420941	-5.049251701563512	9.2992275639728	1.0262512679390225	5.20926856718136e-22	2.4633964511750213	0.8387485765910723	-0.3920617116959687	1.2308102882870409	44.527650246356444
2	1.0	wm	488	diff_vonmises	0.27738362213126505	15.892910854173104	0.7107119955016054	54.4904952189331	0.665945655880476	56.10659823604942	0.015277422068033175	-0.36794650897068504	0.3832239310387182	97.54727577965318
3	2.0	ltm	488	diff_vonmises	0.1239161959137782	7.099875039175749	1.0345175893248706	88.10903775833874	1.010880571311088	88.82932706451396	0.14555602572507098	-0.21186349240424107	0.35741951812931205	84.71223565391227
4	2.0	perception	488	diff_vonmises	-0.012141335359400008	-0.695647273746573	6.374555612843946	1.6812118458106924	0.5037861524206123	2.178909038731832	1.118067877827599	-0.3626806131936197	1.4807484910212187	50.98547555390755
5	2.0	wm	488	diff_vonmises	0.021291765418967344	1.2199282968894238	9.501015191194055	0.34507131055242174	0.08077342721830855	1.283338961308728	0.19735488937804774	-0.20926441064585394	0.4066193000239017	43.33558548904645
6	3.0	ltm	488	diff_vonmises	0.052553902545053426	3.011116812773397	0.9338102355054564	35.75471789239179	0.8943591464828172	36.147698692953895	0.1420531173772428	-0.14018765687215273	0.28224077424939553	91.96854737675753
7	3.0	perception	488	diff_vonmises	0.047532333568908784	2.723402103906479	3.328023415765452	2.275885057276991	0.5090072749263236	2.4728796088844773	0.9662669655986299	-0.31257207222439776	1.2788390378230277	68.37097669954633
8	3.0	wm	488	diff_vonmises	0.07878627152273279	4.514120841824335	2.3250030310209966	0.8045318126049965	0.4439282188018302	1.3854324582666027	0.12684110069919635	-0.16586634995394528	0.29270745065314163	75.64727702373955
9	4.0	ltm	488	diff_vonmises	-0.30535815801182453	-17.49573369396645	4.753853222649654	0.489144322385589	1.2636265343740387e-32	1.512705194819325	0.17203923926408085	-0.24072383711684672	0.4127630763809276	62.66461789150091
10	4.0	perception	488	diff_vonmises	0.0037594870353852526	0.21540274026172496	1.6348302954565757	5.776187211585342	0.6952712828200956	7.012148881725615	0.6472016233465423	-0.4929303993006201	1.1401320226471623	83.12511336931445
11	4.0	wm	488	diff_vonmises	-0.3082814013316963	-17.663223198684914	2.0609742615363658	1.5611804927186035	0.46674564027065696	2.947203131952086	0.11118054144980649	-0.3401823356148702	0.4513628770646767	76.51620891020715
12	5.0	ltm	488	diff_vonmises	-0.13003129397913477	-7.450244349629295	1.8525002966554742	0.6539813964102842	3.3304261168149858e-15	1.0762398327998643	0.1507624820432804	-0.16336545395323407	0.31412793599651445	100.54864091455671
13	5.0	perception	488	diff_vonmises	0.004755978088798603	0.2724974719448554	1.897495761060728	3.307854625203011	0.6255047706181863	3.6137603398577824	0.675800949184033	-0.2930741916417793	0.9688751408258123	83.00890549490936
14	5.0	wm	488	diff_vonmises	0.03684329771877798	2.110965462629952	1.2943532779338387	1.7624684700857336	0.17726731506796267	2.2072525909723746	0.2825550569115389	-0.23944630789109286	0.5220013648026318	108.43447945442648
15	6.0	ltm	488	diff_vonmises	-0.44847158300839723	-25.695528937932124	1.470992360375155	0.924302427839896	1.5370088575104791e-15	1.420274169114361	0.16960797372695663	-0.20516784782935024	0.37477582155630684	110.63403989311986
16	6.0	perception	488	diff_vonmises	0.2093294871289715	11.993696140128156	0.9415891803843516	2.542116513531234	2.9368658260039333e-14	3.0674416882021367	0.3523142352953463	-0.3603515677108269	0.7126658030061732	130.62950962016345
17	6.0	wm	488	diff_vonmises	-0.26740660076797246	-15.32126963794458	2.9025807568959503	0.6903390643428071	6.024864688854791e-15	1.0647566722808963	0.27420917048944193	-0.168124844297756	0.4423340147871979	80.66150736775512
18	7.0	ltm	488	diff_vonmises	0.085206802982317	4.881990196689481	0.9557769151193393	215.24761875899304	0.9419079537811621	216.8208951979937	0.04668592196061638	-0.3688833040256796	0.415569225986296	83.30014096331433
19	7.0	perception	488	diff_vonmises	-0.1226183316018821	-7.025512891723451	2.8584189596424108	1.5198887576550013	6.830869805354405e-17	1.9970739337468286	0.6504513898941269	-0.31465839909915844	0.9651097889932854	81.30666121796781
20	7.0	wm	488	diff_vonmises	0.387198203767409	22.184822910918985	0.9535889722600873	1.0339874596731295	4.041519831177728e-14	2.146104501490374	0.0026642885328418964	-0.29044524918328335	0.29310953771612525	129.17967884707977
0	1.0	ltm	489	diff_vonmises	-0.08694725569757417	-4.9817107917158	0.0019686869601130714	194.67959218544942	2.85269696146247e-13	195.9839534353573	-0.1465673130042262	-0.26856372483393187	0.12199641182970566	179.67118269900936
1	1.0	perception	489	diff_vonmises	-0.03548377204182105	-2.033070379200654	11.324869402747586	0.812990424794158	0.09943261296700749	2.7347534537870497	0.5993389348242462	-0.45256013132244255	1.0518990661466887	39.72242402786409
2	1.0	wm	489	diff_vonmises	0.15808549257434795	9.057631526756854	9.457191866322162	0.13702128514802622	0.129237082312131	1.6827154416231578	-0.13772631624421436	-0.2844315879595531	0.14670527171533873	41.45494411723146
3	2.0	ltm	489	diff_vonmises	0.40512757534832844	23.21210023182747	0.18806325243489364	88.10070398674578	0.17583834484860697	88.71717947423352	0.06937207347726826	-0.23622328792640346	0.3055953614036717	155.0649726573447
4	2.0	perception	489	diff_vonmises	-0.025548129143616462	-1.4637999743844015	9.570492942966796	1.2687130618865556	0.414851248664742	2.5235935973299553	0.9610291363947333	-0.4627386542886626	1.4237677906833959	42.07686554181717
5	2.0	wm	489	diff_vonmises	-0.17714649382170525	-10.149746451524024	3.415958335265489	0.9695948242523282	0.5829180744616874	2.4960107000434943	0.02852242911812619	-0.3741230302556965	0.4026454593738227	59.916407207696295
6	3.0	ltm	489	diff_vonmises	0.1716907352369361	9.837154510574484	2.0031212566296293	83.54659098518908	1.9866059841002917	83.52732223146697	0.2252910442118008	-0.06962112545917343	0.2949121696709742	66.73995159908083
7	3.0	perception	489	diff_vonmises	0.0033527735416584996	0.19209977360016153	1.7548761982710936	359.9900170047947	1.7329862524772002	360.4867941354858	1.0709113052010082	-0.47946202798256365	1.5503733331835718	69.48660512134231
8	3.0	wm	489	diff_vonmises	-0.11699864854705155	-6.703528770480475	2.9544717610578304	0.708969758176564	0.5515906204277485	1.5018374872771296	0.07519770207672433	-0.2045127907386793	0.2797104928154036	65.39799237923108
9	4.0	ltm	489	diff_vonmises	-0.2502326904812586	-14.337277060779568	1.0205035086600258	102.15516870432616	1.0009204416496233	103.28656552838461	-0.008733655134776086	-0.25490143118724085	0.24616777605246476	78.79766710174931
10	4.0	perception	489	diff_vonmises	-0.022516918717972786	-1.290124410178965	1.1079697439068728	98.64212394507031	1.0491865288804667	99.97283506206553	0.6211828461372875	-0.5144114680709286	1.135594314208216	85.2865965150431
11	4.0	wm	489	diff_vonmises	-0.4186167700947954	-23.984974159830074	1.3061441690503457	210.47572814040456	1.2881521043277113	212.12258421872087	0.03767651006486972	-0.4143355463945291	0.4520120564593988	70.4805938434309
12	5.0	ltm	489	diff_vonmises	-0.15245427713348797	-8.734986648466675	1.7602586983227144	47.96367897699301	1.7246132929458133	48.218493901382736	0.16326234587737432	-0.12102764453444337	0.2842899904118177	66.99264794863981
13	5.0	perception	489	diff_vonmises	-0.010818474361538124	-0.6198529216866224	1.1121914350000703	275.496456903175	1.0947280551451513	276.27693615934123	0.619706773292009	-0.3916083291340584	1.0113151024260674	85.90211285216654
14	5.0	wm	489	diff_vonmises	0.18520351124440898	10.611379545308319	3.230958103996068	0.8168732142251709	0.3100498983430336	1.617012349079708	0.215319739247037	-0.2293322396362926	0.44465197888332963	68.709897087196
15	6.0	ltm	489	diff_vonmises	-0.3760496845737777	-21.546059813303323	0.8408829078281163	168.78235651144465	0.828905499159478	169.45458143455687	0.17803725285197913	-0.21862532690235703	0.39666257975433616	95.19504186225532
16	6.0	perception	489	diff_vonmises	0.21715375729119418	12.441993798193655	1.1366989851182057	2.19836088931488	7.197677226885136e-19	2.9277711783788645	0.3416613143801799	-0.38280859422711616	0.7244699086072961	122.76175450466334
17	6.0	wm	489	diff_vonmises	-0.07534729477039319	-4.317081988071669	4.326205139249236	0.5868078827851795	1.9022321714173205e-12	1.2388035951440604	0.27361068080034934	-0.19707945837859533	0.47069013917894464	65.76379280952796
18	7.0	ltm	489	diff_vonmises	0.10779241986878853	6.176050721983701	1.9054896997326196	87.2011759106575	1.88327840093915	87.46538958287609	0.17831526830138245	-0.132667010201855	0.31098227850323745	64.15539795986709
19	7.0	perception	489	diff_vonmises	0.04382477407744223	2.5109745927517757	0.7327087232127968	2.964649071220474	6.34037608884834e-15	3.558712045979645	0.29569980861405354	-0.3672499273054426	0.6629497359194961	140.49851334542393
20	7.0	wm	489	diff_vonmises	-0.2465355623930654	-14.125447225006825	0.00027421426622638566	2485.943665917365	6.073067708500757e-23	2486.7582409652196	-0.021143533109523105	-0.23812888264859566	0.21698534953907256	178.25239866673184
0	1.0	ltm	490	diff_vonmises	-0.4891929710697591	-28.02869260976258	0.1876493552097904	3.225686263996643	3.160334189253978e-16	4.756015783856707	-0.14300815406916279	-0.33511829682386884	0.19211014275470606	163.7472273510157
1	1.0	perception	490	diff_vonmises	-0.04929193607831304	-2.8242199013159714	10.186934383046728	0.9339382646170153	0.08756083689453281	2.9499362817326458	0.6623547314757938	-0.4830999935577853	1.1454547250335791	41.927920538950445
2	1.0	wm	490	diff_vonmises	0.1474505608986627	8.448294826330097	3.1205757393154325	0.4740488686198767	3.820645569631345e-19	2.213888677559992	-0.03486986862692165	-0.35173287778481493	0.3168630091578933	77.75636162987712
3	2.0	ltm	490	diff_vonmises	0.2256627308965177	12.929522073766908	0.8426183805741632	52.00346915609601	0.8097147253653674	52.63089714384019	0.13499218431598692	-0.19178127266508938	0.3267734569810763	94.92875938057139
4	2.0	perception	490	diff_vonmises	-0.01873989920914781	-1.0737171331847188	8.856205903374738	1.277495420788635	0.3826054558908215	2.086663046289755	1.0244921609853388	-0.36997128328586915	1.3944634442712078	44.00379587039427
5	2.0	wm	490	diff_vonmises	-0.034223822260304966	-1.960880574321352	7.431540994195999	0.42485677416639694	0.09414093381849481	1.459026971964842	0.19916806656850466	-0.23588843171761534	0.43505649828612003	48.732072678776376
6	3.0	ltm	490	diff_vonmises	0.08725461402407088	4.999321126622266	2.6363796908836767	0.48671091637826946	0.3281320190118026	0.7026684069310387	0.1447326026546062	-0.08945950570786629	0.23419210836247248	76.26315867791729
7	3.0	perception	490	diff_vonmises	0.03593206594463019	2.0587557278130655	3.7511661508574132	2.5443467644408506	0.750919303350128	2.7322563587298423	1.0845278532521996	-0.34720407329884356	1.431731926551043	62.88565914798917
8	3.0	wm	490	diff_vonmises	-0.04702112485029664	-2.6941120018797124	3.1996889331326357	0.4817707681783614	4.643221877432378e-17	1.044338039972747	0.16105561537654595	-0.16566740013370485	0.3267230155102508	76.76788800070435
9	4.0	ltm	490	diff_vonmises	-0.46688061208213044	-26.750288608790665	0.9294844084121817	47.275718915555345	0.8813452894000803	48.287719260921904	0.11030998839595973	-0.26457666044614303	0.37488664884210277	88.20089464702376
10	4.0	perception	490	diff_vonmises	0.0019866588833419175	0.11382716934766485	2.9775190401198977	2.209053627809393	0.19382734970435317	3.2373555362769086	0.821022885147308	-0.45160128815599787	1.272624173303306	74.88672317023341
11	4.0	wm	490	diff_vonmises	-0.28387418952075305	-16.264792972236013	1.055727341588157	146.92543918563308	1.033511049718449	148.27648486874097	0.14466232883587793	-0.35446082003993595	0.4991231488758139	81.75499691908807
12	5.0	ltm	490	diff_vonmises	-0.0862607645938488	-4.942377748799059	2.1147928817137793	0.6281341449580332	1.5716886473667858e-17	0.8340528501742057	0.20238923055878064	-0.12786461849604983	0.33025384905483046	94.4510943729988
13	5.0	perception	490	diff_vonmises	-0.009927850368777122	-0.568823925768327	1.2198318525027945	148.83156110764767	1.1909681905933849	149.1128247379607	0.6866509417351594	-0.30062095998842153	0.9872719017235809	84.33708459726583
14	5.0	wm	490	diff_vonmises	0.0668294304543525	3.82904431229745	2.0685356714136254	1.12159226195762	4.032283115619678e-16	1.382201894999403	0.3705097909831021	-0.2105541645116925	0.5810639554947946	95.46258634804741
15	6.0	ltm	490	diff_vonmises	-0.45668630751136163	-26.166197981814687	0.7009237103541797	104.93536620751027	0.6855029339633013	105.22081792186492	0.22789306228228767	-0.17265271905821056	0.40054578134049823	108.55185659686897
16	6.0	perception	490	diff_vonmises	0.24666488294462305	14.132856746815383	1.0082556710826545	2.6546411281719937	1.7955650205426316e-16	2.8050398989897407	0.4648247011019298	-0.3251291419641623	0.7899538430660922	127.71461970112804
17	6.0	wm	490	diff_vonmises	-0.23926526106196752	-13.708889642946572	2.8985585354465693	0.7945636062133425	1.3132049751261856e-22	0.8414586612837686	0.37633008892535247	-0.13237291233904636	0.5087030012643988	80.72226938095672
18	7.0	ltm	490	diff_vonmises	0.1897057916422758	10.86934121029057	1.18789143160546	190.65659417378532	1.1745257727961547	191.47492273975394	0.16560731785330063	-0.24366184380334843	0.40926916165664906	78.52580753184492
19	7.0	perception	490	diff_vonmises	-0.06745017026971371	-3.8646100838933775	1.7896087280571586	1.684647000354462	2.383351255969941e-19	2.0681611862030924	0.4832426644174334	-0.30649388290831847	0.7897365473257518	102.17852394957987
20	7.0	wm	490	diff_vonmises	0.14498021842203082	8.306754628467194	1.0398833146880602	1.0798498127646503	5.2404054555157895e-11	1.8743244263122205	0.07881495578582576	-0.2511815458176974	0.3299965016035232	126.75391783527766
0	1.0	ltm	491	diff_vonmises	0.15512113655733406	8.887786438007746	4.782466119027742	0.42434187847332905	2.0796641088581877e-20	3.2796197417021054	-0.16264834245363452	-0.5219424880878061	0.35929414563417156	62.465590637760386
1	1.0	perception	491	diff_vonmises	-0.04125570827405737	-2.363777964926437	8.918571260503303	0.9875673116891842	0.10618120785327487	4.136022139816651	0.4290120273563617	-0.679964863356272	1.1089768907126336	44.38526847674882
2	1.0	wm	491	diff_vonmises	0.03950873240916969	2.2636836209571563	5.879757064121728	0.464658879733158	0.11590641166880798	4.125089602132251	-0.2957269598987071	-0.6724988855932424	0.3767719256945353	52.018026235643106
3	2.0	ltm	491	diff_vonmises	-0.053951233972055555	-3.091178006121612	2.3180865417820953	1.3197103478571006	0.4279716491769815	2.6208939883661215	0.132219697206439	-0.3254257015642022	0.4576453987706412	74.42910152247472
4	2.0	perception	491	diff_vonmises	-0.05402430140961738	-3.0953644619137397	10.977752872612218	0.8891974766921851	0.011324233705495583	2.533512619349965	0.7535491314799008	-0.4040599441995684	1.1576090756794692	40.862922727322314
5	2.0	wm	491	diff_vonmises	-0.11006127318039453	-6.306046441073006	2.5706681734701644	1.4754881425674407	0.40584237647147475	3.6767243708986914	0.04088194568196746	-0.4978044289684147	0.5386863746503822	70.06902711591152
6	3.0	ltm	491	diff_vonmises	0.06664680028294999	3.818580374264335	0.96004006803405	65.3346867324557	0.9224043793108313	66.25100475814624	0.16759598751322358	-0.26383257410062555	0.4314285616138491	88.12191027668527
7	3.0	perception	491	diff_vonmises	-0.004539831408531495	-0.2601131794097865	3.386382836499461	2.658370984915945	0.4257517622271754	3.865647203549404	0.963782757836444	-0.5262251105996819	1.490007868436126	67.28674314235846
8	3.0	wm	491	diff_vonmises	0.01361862502776734	0.7802897368623021	3.510412922952599	0.6921031861855022	1.6040152293210105e-18	2.4134544953037707	0.11108284395426693	-0.3836709365500369	0.49475378050430385	73.2072262168187
9	4.0	ltm	491	diff_vonmises	-0.12634463131824664	-7.239014138671934	1.3388078490437134	1.1368323129975286	8.971691496159978e-11	2.789595010583642	0.015860292326935477	-0.41237388454861246	0.42823417687554793	115.66318494484663
10	4.0	perception	491	diff_vonmises	0.010958875340117767	0.6278973051987427	0.9301160800752163	493.91359551689254	0.9172037588066309	495.92423504853144	0.557624919019986	-0.651028448240595	1.208653367260581	90.51033861799547
11	4.0	wm	491	diff_vonmises	-0.14007195677536766	-8.025531951367462	0.6530755285696862	225.72508534414874	0.6360021718732932	228.2472838080643	0.045191579107289215	-0.5896743008913674	0.6348658799986566	101.52573264896482
12	5.0	ltm	491	diff_vonmises	0.026778594411270777	1.5343004410584289	1.9308674542945403	1.4523380073341108	0.18789637426289818	2.1093705169761146	0.3318501502271235	-0.2642434497752094	0.5960936000023329	90.61684114077377
13	5.0	perception	491	diff_vonmises	-0.024343412499179456	-1.3947747951489984	0.9436359874714526	319.4444656511535	0.9278852494365412	320.40151113448064	0.6424024388072667	-0.4545017604901247	1.0969041992973914	92.9302272250772
14	5.0	wm	491	diff_vonmises	0.01189458952118278	0.681509778604308	2.648968321837289	1.3271000137482356	3.218236584237e-16	2.346935014174234	0.43550883339372104	-0.3694792612868253	0.8049880946805463	84.50430609973503
15	6.0	ltm	491	diff_vonmises	-0.13367309302522618	-7.658904064805101	1.0615357217669557	1.667029128520053	0.038361377565766186	2.242336948696132	0.2182815835624738	-0.2728397083522966	0.4911212919147704	123.67657394360097
16	6.0	perception	491	diff_vonmises	0.13717726561645516	7.859678364967944	0.002438265262110661	851.9035183753476	7.261864754638229e-24	852.2951542815307	0.2684609259468118	-0.39271947714303224	0.661180403089844	179.17847852755256
17	6.0	wm	491	diff_vonmises	-0.35621471599060145	-20.40959982671274	0.6084270132826006	148.5397159372658	0.5931251783026192	149.02560072801813	0.301813634130518	-0.2730578119733682	0.5748714461038862	115.45383598401743
18	7.0	ltm	491	diff_vonmises	0.2684389677134311	15.380419906828173	2.123339117987372	0.8855153112529366	0.11370036625985237	1.4628164998814892	0.21357264702140483	-0.2015699592889095	0.4151426063103143	88.98681470565816
19	7.0	perception	491	diff_vonmises	-0.029430628133510963	-1.6862507804691618	0.9299706219531437	171.52689461132152	0.9068717426858206	171.97434791795	0.6088704762562074	-0.3365232147277961	0.9453936909840035	95.59532184911606
20	7.0	wm	491	diff_vonmises	0.23205100883548227	13.29554343802611	0.4979746681793874	97.40781463771638	0.4801682197462486	98.48492838328309	0.0618343468271334	-0.2976896163368803	0.3595239631640137	119.52762927968871
0	1.0	ltm	492	diff_vonmises	0.11528070919298677	6.6050980960331325	4.211964162529784	0.43814959010312077	1.0779641907195077e-24	2.741588614704199	-0.08989774797087491	-0.4362613037431262	0.3463635557722513	66.6733133769049
1	1.0	perception	492	diff_vonmises	-0.08162120498417148	-4.6765505643651855	10.346505827487917	0.9523908951303062	0.031676361085122444	3.455339281735548	0.6389883763440964	-0.5544981745122026	1.193486550856299	41.921896465093255
2	1.0	wm	492	diff_vonmises	0.052142177953289064	2.9875267313435523	3.813992117524719	0.6619794042026812	0.0942970185306732	3.3776444520232562	-0.0935483283960325	-0.5256739705545683	0.4321256421585358	65.3721144096439
3	2.0	ltm	492	diff_vonmises	-0.04071355570314296	-2.3327149107608744	2.5042930515817345	1.1811066121008162	0.36639784981630924	2.2896076021552547	0.18832160719878	-0.2958272856221175	0.4841488928208975	74.49644966809626
4	2.0	perception	492	diff_vonmises	-0.04458122872094799	-2.554316251217729	9.781807597509992	1.0192171508138237	0.07415886411261363	2.223729469416244	0.8736240247870447	-0.36061637712078043	1.234240401907825	43.00230076449185
5	2.0	wm	492	diff_vonmises	-0.06800618350784104	-3.8964672957914757	5.36439707175957	0.5925449989312107	0.14712445524633336	2.0539584296366598	0.15671877972061393	-0.3277775332175126	0.4844963129381265	55.99515475146484
6	3.0	ltm	492	diff_vonmises	-0.030885035743313555	-1.7695821982025601	1.489201286692475	1.7377176598442494	0.35613312997122964	2.5497865992746718	0.18793211626377482	-0.24884306343711332	0.43677517970088814	92.73520286822307
7	3.0	perception	492	diff_vonmises	0.017099008029845365	0.9797009939704442	3.5517875882122603	2.3686678792987883	0.3602575198867444	3.1390259127917544	1.012301510137782	-0.43485415446215575	1.4471556645999377	67.24194458654745
8	3.0	wm	492	diff_vonmises	-0.013775394486734897	-0.7892719652176925	3.4151384173681127	0.7368454166278698	0.050585570943922804	1.845493194722981	0.21042920327477904	-0.28329862001738254	0.4937278232921616	72.23474721070872
9	4.0	ltm	492	diff_vonmises	-0.24602179082269915	-14.096010282391031	1.7363455342879452	1.0630791517993519	7.616494463112858e-19	2.472672857777068	0.10977862507736852	-0.3779183997045565	0.487697024781925	103.4673187520322
10	4.0	perception	492	diff_vonmises	-0.014479995262660842	-0.8296426159198922	1.1611669454822477	15.530643301942806	0.770812315752572	17.086898418459345	0.6834085115199828	-0.5945449086716152	1.277953420191598	90.28801722852404
11	4.0	wm	492	diff_vonmises	-0.19336609457989193	-11.07906112035531	0.8508620050035265	200.98982158551212	0.8336280728211624	202.74112701093472	0.11806859340923381	-0.4321494218723281	0.5502180152815619	90.25413646188548
12	5.0	ltm	492	diff_vonmises	-0.026282526803886944	-1.5058778608021826	1.643232383140768	1.224661440402181	6.435441877647397e-14	1.7811646145572826	0.27716985000532807	-0.2625182140361975	0.5396880640415256	106.19183140452421
13	5.0	perception	492	diff_vonmises	0.0014955623072247738	0.08568940820282733	1.0368645414075899	148.8781872997453	1.006791764077808	149.51908100804215	0.625462820640621	-0.3700337969551821	0.9954966175958031	89.88042333846172
14	5.0	wm	492	diff_vonmises	-0.020911699078578823	-1.198152099650179	1.9916401148079317	1.3799539358506054	0.011266179678879962	1.9998632784821175	0.38820511568599486	-0.30148706092279304	0.6896921766087879	96.71156365262672
15	6.0	ltm	492	diff_vonmises	-0.24110414145231784	-13.814249728343015	0.923181237595468	1.6739388387684673	1.190391498529345e-14	2.241949964169946	0.19078436847935232	-0.2703994537212801	0.4611838222006324	131.35495290594605
16	6.0	perception	492	diff_vonmises	0.20383055198425679	11.678630364519842	0.2984863955720223	7.213137111150874	1.4665106040146867e-12	7.566706425132734	0.309119911220437	-0.37118200197314166	0.6803019131935787	162.0804337479368
17	6.0	wm	492	diff_vonmises	-0.2871314769641915	-16.45142179540599	0.7750763033345662	119.62599679762239	0.7584397230859036	120.01348980866935	0.26541060955909046	-0.20168778313853863	0.4670983926976291	102.80670315005285
18	7.0	ltm	492	diff_vonmises	0.18474620302480363	10.58517771438829	0.993856762508575	155.51215189511814	0.9775857319418073	156.37753247224236	0.18718356162828798	-0.25904436908758655	0.4462279307158745	86.60813546811966
19	7.0	perception	492	diff_vonmises	-0.0538102498565898	-3.0831002113270385	2.262112824010813	1.7015843229885366	1.1877561062681145e-16	2.1036685606650507	0.6104005016415875	-0.32456019027429905	0.9349606919158866	91.41008710085057
20	7.0	wm	492	diff_vonmises	0.214102468311186	12.267167817564408	0.3873614739998616	41.92374741156981	0.3545254079592103	42.81226869770072	0.055483297937451326	-0.26892434082053107	0.3244076387579824	133.78199283567966
0	1.0	ltm	493	diff_vonmises	0.2634352581353509	15.093728466094992	0.5540228006096882	153.68082804458604	0.5371220476551526	156.63608213926088	-0.26114389619264244	-0.5584494618147104	0.297305565622068	99.13848961289742
1	1.0	perception	493	diff_vonmises	-0.08835703490686132	-5.062485190453245	9.545875754143577	0.8985689376002708	2.5532738545031792e-17	3.8811279969559074	0.47460106145013703	-0.6177006999043957	1.0923017613545327	43.93882143683655
2	1.0	wm	493	diff_vonmises	-0.05220365818659291	-2.991049289235342	4.884070961409678	0.4715090979806151	0.14040040608457854	3.7446141071834993	-0.278664116206329	-0.6060648557748982	0.3274007395685692	55.76338769408653
3	2.0	ltm	493	diff_vonmises	-0.04846518008616745	-2.7768502722788786	0.5972898491041136	172.90724054112306	0.5835610368300692	174.6461545299914	-0.007514064973378254	-0.3948282125084255	0.3873141475350472	104.93004680351443
4	2.0	perception	493	diff_vonmises	-0.05991506872658488	-3.432880567269581	8.430450698592766	1.353792355416302	0.23863423068184555	3.151876538733554	0.9152701025899376	-0.5356775158378356	1.4509476184277732	45.27494056229631
5	2.0	wm	493	diff_vonmises	-0.019360663672605898	-1.1092843170125701	5.75839893428446	0.6008235852116345	0.10458856834745832	2.9821314359543236	0.035974831514822836	-0.4785048021177165	0.5144796336325393	54.22244298841835
6	3.0	ltm	493	diff_vonmises	0.057320661956702504	3.2842320090151524	1.01038726575638	220.48648569934343	0.9946933784214402	221.89967685153258	0.1729512905762931	-0.37667929450052995	0.549630585076823	83.94175426137474
7	3.0	perception	493	diff_vonmises	-0.054528591118616264	-3.1242581338912565	2.2247311280024102	4.250542161427041	0.4548496160064345	5.926742890635261	0.9252292594753884	-0.6565223525646503	1.5817516120400388	78.93173026414973
8	3.0	wm	493	diff_vonmises	-0.005291249575194886	-0.3031662690090567	2.5768820183496266	1.2785633270197037	0.4054301227158975	3.39656864743528	-0.011511230257089888	-0.46576490374345586	0.45425367348636597	69.25535286870297
9	4.0	ltm	493	diff_vonmises	0.27580445547647986	15.80243126970612	1.791010478419168	0.8649548096683181	6.483415057256052e-21	3.102240206284102	-0.0764264227749114	-0.48212728202185656	0.40570085924694516	101.97513618097841
10	4.0	perception	493	diff_vonmises	-0.03468025320632211	-1.987032141167298	0.7085688823470622	507.6601985526507	0.6966221154018825	510.3032734053333	0.4057099644782909	-0.7699394505638963	1.1756494150421872	101.95354186406156
11	4.0	wm	493	diff_vonmises	-0.13161216557900726	-7.540821620254083	1.583934073228314	2.1914365574489647	0.26574721849134536	5.43421674607082	-0.1274204018836088	-0.6597300390519906	0.5323096371683818	86.57910687476789
12	5.0	ltm	493	diff_vonmises	0.010656048534440807	0.6105466073100245	0.8867352593638937	85.01761268662541	0.8498861460172746	86.50944011308827	0.13022648805789672	-0.37869492363315693	0.5089214116910536	89.50328791746583
13	5.0	perception	493	diff_vonmises	0.017954322653288945	1.0287069120495826	0.8348240333338088	137.86032220442772	0.7958822020139636	139.68642695770066	0.472018099751196	-0.5925492824508378	1.0645673822020338	96.27383584841058
14	5.0	wm	493	diff_vonmises	-0.05235364919832242	-2.9996431411723408	0.787425334218236	27.048794807673186	0.6618840194577579	28.892291333407826	0.13642773316618495	-0.4677081771772844	0.6041359103434694	98.0123805876344
15	6.0	ltm	493	diff_vonmises	-0.11715257449656968	-6.712348077745408	1.711446346534261	1.02450517904403	6.790666363239658e-17	2.6545994723301436	0.05830501080208883	-0.4068093206691947	0.4651143314712835	104.25007115488036
16	6.0	perception	493	diff_vonmises	0.06434719742465787	3.686822835927976	0.45275698935906616	4.62444902750684	4.304749494427944e-20	6.71810536399685	0.031126867650127288	-0.6243061250066243	0.6554329926567516	154.58300293987523
17	6.0	wm	493	diff_vonmises	-0.05352577009110953	-3.066800721408148	0.6517459148002706	178.57027170321166	0.6344829003619464	180.58323399514322	0.037893803826641204	-0.4716674364704261	0.5095612402970673	101.69867332867899
18	7.0	ltm	493	diff_vonmises	-0.22984395897639406	-13.169088795925413	1.4416660872051146	127.85136947858047	1.4218572916762453	129.13778982862115	-0.09027053688653552	-0.3107060241856274	0.2204354872990919	62.80216584028554
19	7.0	perception	493	diff_vonmises	-0.04505215373843132	-2.5812982671866482	2.1169912693878135	1.7848505462970938	7.368585715683904e-12	4.028259215449361	0.31170867081207665	-0.627305019793775	0.9390136906058516	94.41410282643702
20	7.0	wm	493	diff_vonmises	1.6973532009393886	97.25117475684772	12.352934415498522	0.22588236127819225	1.5726823451123422e-20	2.2127864436422775	-0.03882129981753485	-0.3521759005065628	0.31335460068902793	38.57543426036989
0	1.0	ltm	494	diff_vonmises	0.33708328859185777	19.31344978070378	0.41385869951585424	139.55816286870973	0.402926338300718	142.07964919291706	-0.29638229178549835	-0.4486218774471844	0.15223958566168605	106.87590505526029
1	1.0	perception	494	diff_vonmises	0.028963247483088032	1.6594718417738485	8.350771133803272	0.9465996055422705	0.16024203002059548	4.153296546716294	0.3028627012778975	-0.6953418604610994	0.9982045617389969	45.22182328966633
2	1.0	wm	494	diff_vonmises	0.5733627417151951	32.851265230330185	0.1817684503280356	0.3448671233398215	0.18169458843947967	3.719985663652799	-0.4442496364582468	-0.6389073853680781	0.19465774890983134	46.30147454379724
3	2.0	ltm	494	diff_vonmises	0.3824528344814556	21.91293327860285	0.3524030641907782	121.2264964849528	0.3424601090330538	122.3799857113602	-0.032724745279566037	-0.28065396427306943	0.2479292189935034	132.60730958775588
4	2.0	perception	494	diff_vonmises	-0.05043477839843395	-2.8896999429078387	10.971936836435788	1.1303633533644726	0.28722423929664	3.106966248374782	0.8302868877538202	-0.5575307721206001	1.3878176598744203	39.618859567180465
5	2.0	wm	494	diff_vonmises	-0.1823489693277579	-10.447826341041027	1.0646971197126538	263.4128432149685	1.046755435473173	266.4714275061551	-0.18292293335863974	-0.6547280691119894	0.4718051357533497	73.66558955019119
6	3.0	ltm	494	diff_vonmises	0.16301175477812216	9.33988555980793	1.7844618664423144	89.51648518040156	1.7622610840681436	89.86988692634914	0.15822046777946497	-0.1476600264479444	0.30588049422740937	65.37795780267572
7	3.0	perception	494	diff_vonmises	-0.026927993080945716	-1.542860354295672	1.533544787867476	341.960144151495	1.5098916895278178	343.13147785391595	0.898975330162358	-0.5814757887555899	1.480451118917948	72.54013341373792
8	3.0	wm	494	diff_vonmises	-0.03975733017556111	-2.277927223767764	3.2300303350848805	0.5487850051729714	0.343285763598873	2.2996403345862197	-0.1262487935408655	-0.3550457495927123	0.2287969560518468	61.952732545530125
9	4.0	ltm	494	diff_vonmises	0.3725430454871057	21.345144193361406	4.532719150816698	0.23210093408954335	0.06738584187243128	1.7872841688196488	-0.11299286657171378	-0.2829724608868592	0.1699795943151454	60.41763598144294
10	4.0	perception	494	diff_vonmises	0.02218799852785652	1.2712786714886624	0.9722141611084943	386.3546189685606	0.9573973832284357	388.41429598884673	0.39877470242029744	-0.6002957749017739	0.9990704773220713	87.1865293700298
11	4.0	wm	494	diff_vonmises	-0.2069141036835813	-11.855304862801528	0.7274415760227078	247.33025465410412	0.7120279962029277	250.32697876828695	-0.13243666152436617	-0.616088191149835	0.48365152962546887	91.2069714815052
12	5.0	ltm	494	diff_vonmises	-0.122749020039972	-7.033000787657159	1.6292480527295534	147.9982629050161	1.6061633956692702	148.8981682413489	0.17636336545675135	-0.29410746130982446	0.4704708267665758	66.30600838639265
13	5.0	perception	494	diff_vonmises	-0.05132724233119194	-2.9408343596225186	0.9223605583946727	349.3162592038394	0.9054992029835259	351.1844605935876	0.516123840949902	-0.6051082056222157	1.1212320465721177	90.9917991979836
14	5.0	wm	494	diff_vonmises	0.20676103734239465	11.846534807466025	4.768686406503875	0.8389499459325729	0.14288088459446885	2.931115899332591	0.17387804040955168	-0.4620078825171243	0.635885922926676	59.09785243507878
15	6.0	ltm	494	diff_vonmises	-0.08818300299029766	-5.052513896133574	0.9945040297007023	166.74362744562583	0.9761573617762368	167.9139097266466	0.18481473362692924	-0.32610169340244965	0.5109164270293789	85.53035913473568
16	6.0	perception	494	diff_vonmises	0.20125654487975828	11.531150620995387	0.03207043619330806	66.64226904466824	6.83571223452332e-12	68.08926080205276	0.11254337774056822	-0.5676822742828591	0.6802256520234273	176.84300153264792
17	6.0	wm	494	diff_vonmises	-0.6382170766643913	-36.56714490604692	0.00022720065107089248	8796.04050772697	3.91194534469708e-29	8797.489220216308	0.08750499555185343	-0.5486083748967303	0.6361133704485837	168.69435423420032
18	7.0	ltm	494	diff_vonmises	1.295639337351346	74.2346658013588	0.00010020954986475516	12434.347431251897	2.459220424805906e-32	12434.806695102658	0.12522267496001405	-0.27140096290418114	0.3966236378641952	136.24857206900944
19	7.0	perception	494	diff_vonmises	-0.0995490504053446	-5.703740442761343	1.750057093169193	2.0597531611144775	0.1763541620860368	2.9976123644667965	0.41515917380897727	-0.36912416467433967	0.784283338483317	94.83987715130966
20	7.0	wm	494	diff_vonmises	0.3925690231585709	22.492548194559586	0.8348741392895876	148.59982898250186	0.8175950058476329	150.25096685878398	-0.016726639627947293	-0.36101607834520877	0.3442894387172615	87.39649054275716
0	1.0	ltm	495	diff_vonmises	-0.011580187382592644	-0.663495862993206	0.8614777348597489	0.9215159200168372	8.195832564117486e-16	3.3874781051187512	-0.24851063834006942	-0.48724513580946	0.23873449746939057	134.5790393121029
1	1.0	perception	495	diff_vonmises	-0.06509562552143335	-3.7297046071422195	13.548973598685327	0.7431953802876021	4.4332487769979853e-16	3.6992350156598857	0.4920184894740912	-0.588751538399053	1.0807700278731442	36.82037409042795
2	1.0	wm	495	diff_vonmises	-0.01820976203488546	-1.0433425105364946	6.364623942322716	0.4006776926059909	0.08162346658266391	3.1087795267102503	-0.14129031136385062	-0.5019692426835843	0.3606789313197337	51.455277342013346
3	2.0	ltm	495	diff_vonmises	-0.0025717959355010256	-0.14735305287310804	1.4089397407603839	1.0292172484744693	1.6909636824299632e-16	2.327803820302737	0.05877682080311186	-0.3448405857631834	0.40361740656629524	113.3751381687665
4	2.0	perception	495	diff_vonmises	-0.05760380058159221	-3.3004546572384705	11.013014020403473	1.0712619971057349	0.191213066277812	2.664991663049236	0.8923897687834552	-0.4572035105208291	1.3495932793042842	40.034171952077486
5	2.0	wm	495	diff_vonmises	-0.10311794026428305	-5.908222769225556	5.35157548487338	0.6286180460612658	0.11929475103315852	2.415065561305259	0.13361011550573815	-0.3844946331480344	0.5181047486537725	56.308305089247426
6	3.0	ltm	495	diff_vonmises	-0.021381690631506092	-1.225080632039711	1.117931172445558	39.35052991735049	1.053360143031925	40.130733086658	0.20203132697681525	-0.24501417195126418	0.44704549892807943	82.95940030723423
7	3.0	perception	495	diff_vonmises	0.0029197851031091395	0.1672913634933236	3.0721505789981833	3.1870123218386954	0.5007825866239657	4.1384249552446075	1.094033043935582	-0.5212583657280154	1.6152914096635975	69.6485045806086
8	3.0	wm	495	diff_vonmises	-0.09227564648428284	-5.287005095390599	3.068143858317421	0.9240203641219877	0.21863592764410414	2.1745904003362067	0.1873811985964322	-0.31382778849229603	0.5012089870887282	71.23232171691131
9	4.0	ltm	495	diff_vonmises	-0.1544534413242612	-8.849530319151667	1.2419541082311893	1.0157705690380383	7.163696515971383e-18	2.7235219914662965	-0.040500392690991927	-0.4006821953877009	0.36018180269670896	119.03089477976668
10	4.0	perception	495	diff_vonmises	-0.043996248595540736	-2.5207993589328597	2.4724384588718302	2.4147357380069816	0.002210521682128746	4.128129580692322	0.7553175081490063	-0.6454931634384807	1.400810671587487	87.38188010135156
11	4.0	wm	495	diff_vonmises	-0.2074768066606757	-11.887545368508485	0.901329892230565	204.8593273170332	0.8833324738515674	206.90262526179205	0.049524874873867475	-0.47286107690748125	0.5223859517813487	85.77870593053532
12	5.0	ltm	495	diff_vonmises	-0.0062384959461627065	-0.3574394882245963	2.1048100279101942	0.8569773002449573	1.1984978100963054e-17	1.724617708684057	0.18143056285940956	-0.26770966896704107	0.44914023182645063	94.67752568101335
13	5.0	perception	495	diff_vonmises	0.01815994590134818	1.0404882563331483	1.693378928183741	3.4244173700932894	0.4032767427165815	4.653088097975814	0.5320678378798942	-0.45632620698375914	0.9883940448636533	88.52492179536605
14	5.0	wm	495	diff_vonmises	-0.04369226270623416	-2.5033822504440617	1.0691965492984339	5.3694176161763965	0.5498228784983614	6.493011718800242	0.2420434378598042	-0.34593078496524715	0.5879742228250513	96.70171126153372
15	6.0	ltm	495	diff_vonmises	-0.30476881759708724	-17.461966975505515	0.5121748637256072	127.99162824878825	0.49622047972530686	129.05324204962207	0.12069879745954992	-0.3262724848159202	0.4469712822754701	119.55825893443938
16	6.0	perception	495	diff_vonmises	0.22802025644993149	13.064598338071761	0.46646637588263856	5.150216622766285	8.083419271273083e-16	6.200696092792782	0.25169232478253145	-0.49962229578634576	0.7513146205688772	152.966056620446
17	6.0	wm	495	diff_vonmises	-0.13187197227574188	-7.555707447466212	1.5694084488439788	1.3514058534280233	0.15301603034561687	2.4178347738782056	0.15580526540784806	-0.30291801364716797	0.45872327905501603	98.40171417973744
18	7.0	ltm	495	diff_vonmises	0.24261484842884462	13.90080686217897	1.3352571733190726	117.09742408396193	1.3167064289995045	117.76832684900067	0.1243645008033667	-0.20136657244869482	0.3257310732520615	73.58374044059349
19	7.0	perception	495	diff_vonmises	-0.016440959512953005	-0.9419975912376687	1.4716155857301192	1.9142492668260456	1.941610197378416e-18	2.99501131867768	0.342958112330605	-0.43348028976346714	0.7764384020940722	111.35130429225794
20	7.0	wm	495	diff_vonmises	0.2198170504552187	12.594589256098303	0.5820860328597537	1.0544910800431455	4.558510831088641e-12	2.1239934775601865	-0.06159378702170781	-0.2517390172713673	0.1901452302496595	147.1643548331063
0	1.0	ltm	496	diff_vonmises	0.02312484713056756	1.3249561424667333	1.3236731512244662	1.1933159228002188	0.19151311500308188	2.656462337591296	-0.027951557742307453	-0.3159298180862236	0.28797826034391616	98.49104207643174
1	1.0	perception	496	diff_vonmises	-0.12923138657426758	-7.404413031329143	11.242372471276735	1.0505241254746722	1.752532138795021e-14	2.5864913507786924	0.976881387212633	-0.4116528835021843	1.3885342707148172	40.46101847722261
2	1.0	wm	496	diff_vonmises	0.05377478552143109	3.0810682545992076	4.5808670184643745	0.4472967659813083	1.742710285453261e-27	2.1338331971740567	0.030499309670869834	-0.3395712463625992	0.37007055603346906	63.85797551542802
3	2.0	ltm	496	diff_vonmises	-0.07941576931352776	-4.550188408449696	0.9935236014715764	129.32477867956464	0.9750055556932963	130.08436626326014	0.19764202565979616	-0.23940162498138662	0.4370436506411828	87.33975446793346
4	2.0	perception	496	diff_vonmises	-0.04104848094023049	-2.351904713298408	8.19071969084863	1.2738945808692503	0.2881959393727787	1.9689527669178466	1.0211814408614566	-0.33408806143694775	1.3552695022984043	46.12017409346663
5	2.0	wm	496	diff_vonmises	-0.06668458075118285	-3.8207450356421058	7.852554653280797	0.42562508016205447	0.23587480464910685	1.3865070237371757	0.19220773915922212	-0.23585919513111525	0.4280669342903374	46.30675394719151
6	3.0	ltm	496	diff_vonmises	0.004203420037313346	0.24083822765877774	1.117003114323883	137.8724548247624	1.0985156969470757	138.46489590237218	0.2633268615324482	-0.22398649363344703	0.48731335516589525	83.94533037194884
7	3.0	perception	496	diff_vonmises	0.0012329970138375077	0.07064552504512275	2.7709430588221036	2.907775697965773	0.5166053405797085	3.488727755613962	0.9479672322583186	-0.4076769389408754	1.355644171199194	72.91625371362281
8	3.0	wm	496	diff_vonmises	0.0014311090319424594	0.08199650755335584	2.3178311058401637	1.65917961094866	0.8126377877791207	2.413330442465658	0.1964815614295261	-0.23980560599777268	0.4362871674272988	69.75929834888169
9	4.0	ltm	496	diff_vonmises	-0.16649127144019535	-9.539247179290173	3.0521464002215404	0.7779520699318503	4.9859416890996606e-23	1.9195836486402942	0.2089863667327853	-0.30436199256757956	0.5133483593003649	78.64006321971743
10	4.0	perception	496	diff_vonmises	-0.060978079992600284	-3.4937866263871222	0.9124168713165378	368.91204603336445	0.8976313347030868	370.15859305608126	0.6367966667602616	-0.5189249500998407	1.1557216168601023	93.65243333079277
11	4.0	wm	496	diff_vonmises	-0.24318737582675104	-13.933610265734613	1.2613471857744658	180.93834815823826	1.2431148750267322	182.14462089847927	0.13754473403848522	-0.33063846192402835	0.46818319596251357	74.45114184273936
12	5.0	ltm	496	diff_vonmises	-0.06598311732018776	-3.780554141563321	1.9416971172067796	0.8687454931793146	3.468138031958317e-14	1.4115648378240155	0.21555651719830818	-0.21559728415973106	0.43115380135803927	98.38206544503306
13	5.0	perception	496	diff_vonmises	0.04260191849325326	2.440910128823743	1.1130059777187544	184.11967247225874	1.0902731607718774	184.7220109857756	0.5673522005215403	-0.3341880394302663	0.9015402399518067	86.42716124061548
14	5.0	wm	496	diff_vonmises	-0.025934089220621195	-1.485913857857317	0.7318706478025843	150.1817466856681	0.7163671776848098	150.70497584082378	0.2936374903047536	-0.24997490646911835	0.543612396773872	105.17250688502996
15	6.0	ltm	496	diff_vonmises	-0.309283703155889	-17.720650863009418	1.8412903301521284	1.0047996329179438	1.6132424907371563e-16	1.8773418484369224	0.19421826537104903	-0.286384650984922	0.480602916355971	100.67835797007905
16	6.0	perception	496	diff_vonmises	0.26029488747000606	14.913798480864042	0.3228766129130235	6.0553453090059906	3.921340677798795e-14	6.8746512785551435	0.2028551807553436	-0.4141645744703899	0.6170197552257335	160.19854422524713
17	6.0	wm	496	diff_vonmises	-0.23857205122909284	-13.669171645205884	3.0278456783917482	0.691240135223213	1.7606921746384173e-12	1.2900852273741366	0.2497754515867589	-0.20425636266882397	0.45403181425558287	78.95179185197856
18	7.0	ltm	496	diff_vonmises	0.038918643075984076	2.2298739926299316	1.1939763536684662	232.9490232805335	1.179574061755076	234.1892938083548	0.15538825211746143	-0.33959001378288534	0.49497826590034677	76.8603837211547
19	7.0	perception	496	diff_vonmises	-0.13187116498138077	-7.555661192906495	2.48369644432156	1.539235284877333	3.756163333504669e-22	2.025281609733637	0.5812825811403644	-0.3160423206804088	0.8973249018207732	87.27225899972953
20	7.0	wm	496	diff_vonmises	0.32578496901072884	18.666103753115078	1.00752573889874	0.9282118016231432	3.86428847297927e-17	1.799916802037254	0.032029642517465096	-0.24400446745450963	0.27603410997197475	127.37568930566695
0	1.0	ltm	497	diff_vonmises	-0.6569155492478131	-37.638488468418075	0.19867508967666636	34.9576499775381	0.17506733776197866	34.93763647046057	0.1461187871304137	-0.11540561490582135	0.26152440203623506	151.01831546730915
1	1.0	perception	497	diff_vonmises	-0.1388711244852224	-7.956729329239111	13.08209481316074	1.0344834824132565	7.728017294086872e-16	1.3470370485730805	1.263522140737677	-0.21438760480191563	1.4779097455395926	37.4736395760861
2	1.0	wm	497	diff_vonmises	0.15044677593871902	8.619965302638944	1.9368209376173406	0.7503065752713894	1.0106679997227437e-15	0.8420337997182494	0.245594780587311	-0.12612393631561103	0.371718716902922	98.46403302276758
3	2.0	ltm	497	diff_vonmises	0.17408921440496988	9.974577244152869	0.4185239601276218	40.247811429728536	0.3888613396538192	40.13309454838301	0.24513827222998152	-0.13407225188001348	0.379210524109995	136.90124692007043
4	2.0	perception	497	diff_vonmises	-0.015010470691643907	-0.8600366191360136	6.881765440600816	1.5815386212342704	0.7464583888467587	1.470762555971226	1.1912016054301613	-0.24992543499493614	1.4411270404250973	48.962302717638806
5	2.0	wm	497	diff_vonmises	-0.05995705732694819	-3.4352863368580606	4.881712081003338	50.1133953438056	4.8203286425697	50.07150535552369	0.32471915633386317	-0.10909425392779326	0.43381341026165643	42.17063102578945
6	3.0	ltm	497	diff_vonmises	-0.008219167256583467	-0.4709235949143521	1.517234718129468	77.91022774627777	1.4972291248440812	77.80459922423798	0.31791376229880086	-0.0813370667150517	0.39925082901385256	78.32599645051934
7	3.0	perception	497	diff_vonmises	0.0338808709512068	1.9412309117315407	2.273780468982202	6.370197610166698	1.3218418382626151	6.187076183633816	1.0657758764033707	-0.29820994302636783	1.3639858194297385	70.97086581850914
8	3.0	wm	497	diff_vonmises	-0.05864310161325726	-3.36000221999647	2.137149843214854	55.235499468957414	2.1055620149674503	55.195658584338915	0.2853591468335033	-0.08445116777177919	0.36981031460528246	64.885997787311
9	4.0	ltm	497	diff_vonmises	-0.26481516860503707	-15.172791512113923	6.116671865283397	0.6049364212485743	1.2579238138663503e-20	1.2189724493445528	0.38955857896654844	-0.1940026513246278	0.5835612302911762	55.086625883295255
10	4.0	perception	497	diff_vonmises	-0.0709168904127783	-4.063238516843967	2.3635772712248855	2.520468906695761	0.251739141850391	2.9431640846439118	0.8440105883228742	-0.3651235052265677	1.209134093549442	82.77765681506264
11	4.0	wm	497	diff_vonmises	-0.391470896876721	-22.429630193237195	2.1521155259195477	128.71370385131917	2.1293808013567426	129.13483617838813	0.2153483380608634	-0.20201307368935417	0.41736141175021757	59.346095357077445
12	5.0	ltm	497	diff_vonmises	-0.2689243442437199	-15.408229933488425	1.0414630048858657	0.7902469893005462	1.0324614140695567e-16	0.7078507863470922	0.1635571982240154	-0.07824933726328336	0.24180653548729875	126.36052569579725
13	5.0	perception	497	diff_vonmises	0.07185408238336413	4.116935661352084	1.4930395013762272	135.05167710810795	1.4681707301939761	134.9562447732878	0.6306937745169847	-0.18766554107671674	0.8183593155937015	78.10128397158613
14	5.0	wm	497	diff_vonmises	-0.03252595607513189	-1.863600007732957	0.7113121214418932	86.12561071857918	0.6968017073519508	85.94346327682482	0.2899599161846993	-0.1033332355491412	0.3932931517338405	113.74737131248331
15	6.0	ltm	497	diff_vonmises	-0.5219420648780815	-29.905077467857467	3.3274330290395815	0.6711099653993847	1.4172622634090096e-19	1.154490627029096	0.2823070893576357	-0.1831427330771517	0.4654498224347874	75.20325650637639
16	6.0	perception	497	diff_vonmises	0.25007280190051984	14.328116119910899	1.593346992102075	1.5878531866007175	2.1300083341137836e-21	1.9407323362280098	0.40456146284826455	-0.2794047319605858	0.6839661948088503	107.4298204712982
17	6.0	wm	497	diff_vonmises	-0.23025312053509478	-13.192532026377958	6.866222439326585	0.4166945060372035	0.24709994038942304	0.5353004396857061	0.319611111995432	-0.08688301771126579	0.4064941297066978	50.55885520535469
18	7.0	ltm	497	diff_vonmises	0.09682368466154971	5.547588488012363	1.6312260648834336	238.18061610665038	1.614401058417989	239.15305459995622	0.24217875287320112	-0.3334284556552731	0.5756072085284742	66.86980186227214
19	7.0	perception	497	diff_vonmises	-0.1147514541596342	-6.574774016335974	0.9028287476708379	2.6138112814435495	9.591104527240498e-22	2.7662828002925828	0.4046560791666304	-0.301383656515534	0.7060397356821644	132.6304136619024
20	7.0	wm	497	diff_vonmises	-0.37083608101033183	-21.247342333063507	0.00015169565281824047	6070.218654762267	9.699041384757423e-32	6070.495811377713	0.10244732133401158	-0.19065789666581168	0.29310521799982325	176.09686026259732
0	1.0	ltm	498	diff_vonmises	-0.7820405146095077	-44.80762089536379	1.2477072910789468	0.5542976665990701	8.172501154653014e-33	1.3157127164326685	0.005618157388040224	-0.19167087058282298	0.1972890279708632	115.42100779214782
1	1.0	perception	498	diff_vonmises	-0.08161457557921951	-4.676170727440755	12.353325289876755	0.8476200090668567	4.197422528685763e-20	2.0933337296060706	0.8426203879052601	-0.33316441058589447	1.1757847984911545	38.57753070012774
2	1.0	wm	498	diff_vonmises	0.1097805802737854	6.289963922185043	3.074508973895161	0.46920236924562475	3.8274252485073437e-25	1.276587342051925	0.1084391691280367	-0.20250965661414547	0.3109488257421822	78.34698888899428
3	2.0	ltm	498	diff_vonmises	0.29751113496203657	17.046132391471726	0.42800256207456444	62.90859046048162	0.4082063141464517	63.259113597367104	0.14882434686134616	-0.18611475634933594	0.3349391032106821	131.8326385183294
4	2.0	perception	498	diff_vonmises	-0.011421341266072615	-0.6543946509245651	7.8383439749027355	1.4800304827249675	0.5476208825050755	2.0031151194346952	1.1126246037256835	-0.35764517741517887	1.4702697811408623	46.16538279785016
5	2.0	wm	498	diff_vonmises	-0.05546565803574736	-3.1779481133642036	9.127404084978934	0.38165734121793177	0.3348729677213943	0.9366008924648987	0.25069897220396664	-0.16691403429712195	0.41761300650108857	43.056129090560376
6	3.0	ltm	498	diff_vonmises	0.07250813996156924	4.154410400141785	1.4726463695475136	55.98628706403265	1.4508626386921697	55.99371814211179	0.21187530376263197	-0.07216202493406065	0.2840373286966926	77.78332906043806
7	3.0	perception	498	diff_vonmises	0.03948188456402374	2.2621453527412725	2.8303063621134426	4.19181308221683	1.1225092373798897	4.167402681153062	1.1352999108914241	-0.3461088139734616	1.4814087248648857	67.21113971634432
8	3.0	wm	498	diff_vonmises	-0.12514645163616323	-7.170363499790229	4.284594202165321	0.42146049395015317	0.06402434276389016	0.697540660203396	0.21813697224461723	-0.10755489527838769	0.32569186752300494	64.88819838530745
9	4.0	ltm	498	diff_vonmises	-0.3292863660979731	-18.866719028613574	5.123745666910272	0.46215491065821773	1.7760431113641683e-16	1.3613772018837815	0.18932736612146517	-0.21665551958710233	0.4059828857085675	60.29901072283809
10	4.0	perception	498	diff_vonmises	-0.021343173442183404	-1.2228737596528145	3.2766867872319216	1.9760243251867278	0.09215493377262611	2.8054158170979404	0.8718719934848258	-0.41569711504881446	1.2875691085336403	73.63356277160992
11	4.0	wm	498	diff_vonmises	-0.3894782875550845	-22.315462088888996	1.5704243370460789	137.10704075735745	1.546052635740227	138.0501739647259	0.16126838970863844	-0.2963028840397399	0.45757127374837836	67.28673663643309
12	5.0	ltm	498	diff_vonmises	-0.15631049554876236	-8.955931688542524	2.241341335666124	0.41767831298692193	2.013565451075105e-14	0.519621257592635	0.14804213701182561	-0.08009219499688325	0.22813433200870886	91.80346793911991
13	5.0	perception	498	diff_vonmises	0.01733658754170455	0.9933132972987537	1.3118137798183174	132.47158293524322	1.2816953942361273	132.60832471076282	0.6717521153733585	-0.25934091103853163	0.9310930264118902	81.97539038090676
14	5.0	wm	498	diff_vonmises	0.04701846155123065	2.69395940608365	0.8515202525004886	78.66150729226935	0.8302006507894606	78.81629323635187	0.27217457339212103	-0.14764323525521572	0.41981780864733675	100.34079513569304
15	6.0	ltm	498	diff_vonmises	-0.557944778773954	-31.96788102510796	1.829670504358307	0.8822906192102774	0.10051730271357741	1.2949259070024524	0.20393161840057483	-0.17481078026408015	0.378742398664655	96.2338222940595
16	6.0	perception	498	diff_vonmises	0.22535217727111367	12.91172866171877	1.4903167015322432	1.9055970368299004	6.798351351039171e-17	2.237154887570369	0.4661279693981362	-0.31431958901441465	0.7804475584125509	110.56143590381649
17	6.0	wm	498	diff_vonmises	-0.15358620299469297	-8.799841223035433	5.206911235822863	0.4592237267634635	6.567768749343964e-13	0.695581524417521	0.2961776761514506	-0.11069302467962817	0.40687070083107874	59.806228115907004
18	7.0	ltm	498	diff_vonmises	0.1642085129181894	9.408454750331709	1.6153385065926176	168.78882896221072	1.5990080876166293	169.46592106076866	0.16627758972695972	-0.23047657715779124	0.39675416688475096	67.17629716299112
19	7.0	perception	498	diff_vonmises	-0.00848566288844626	-0.48619266987876225	0.8853789619849409	2.6231189297507678	1.458518252080252e-21	3.080077833147199	0.3489968930348139	-0.3473642535437143	0.6963611465785282	133.51681157337777
20	7.0	wm	498	diff_vonmises	-0.3080546968901916	-17.650233990989825	0.0001424505170018645	5668.552542953335	9.631507407841595e-31	5669.140563091145	0.0349316149919332	-0.2220950852470196	0.2570267002389528	177.2958080887572
0	1.0	ltm	499	diff_vonmises	0.2655841139840154	15.216848837005468	0.6846321043287572	180.1657934770866	0.6669940946384357	183.21472915994983	-0.24348281130917115	-0.5866627286287525	0.3431799173195813	89.91140874754515
1	1.0	perception	499	diff_vonmises	-0.06641253930133063	-3.8051582087129545	9.386335386546838	0.9100489504806749	1.48097491942685e-17	4.060073618325117	0.45046390551240556	-0.6461807779600414	1.096644683472447	44.31837315548617
2	1.0	wm	499	diff_vonmises	0.05090732046815955	2.9167746091454925	5.367326772100525	0.3835299605085059	0.0964345025666219	3.9041694719329167	-0.33734438943443645	-0.6306978819220372	0.2933534924876008	54.2269481267399
3	2.0	ltm	499	diff_vonmises	-0.048026577679588574	-2.751720205497628	0.801680063014364	109.11064874315275	0.7775377199799969	110.69698383052474	0.028170640517281242	-0.3626785086584601	0.3908491491757413	91.1540321240071
4	2.0	perception	499	diff_vonmises	-0.062403061362178824	-3.5754320447487444	10.070632962803884	1.1480821986016374	0.17008814921027815	2.8292758311199098	0.9042280707606198	-0.4774692993100791	1.381697370070699	41.89610962078072
5	2.0	wm	499	diff_vonmises	-0.049499600786909195	-2.8361182126723454	4.790730961665021	0.647188140994999	0.12827579145206816	2.893792074703833	0.027070327874075817	-0.45873609302874824	0.48580642090282405	58.61150787624757
6	3.0	ltm	499	diff_vonmises	0.026949688440079566	1.5441034068090622	1.0630100617429399	202.8818455848403	1.049007722561088	203.95853686349565	0.15660662978120854	-0.2964219500812888	0.45302857986249734	82.21145203952372
7	3.0	perception	499	diff_vonmises	-0.016285321264368727	-0.9330801764629816	2.46861146643098	3.4079755601125035	0.44371238884175623	4.641040314893478	0.8971318059011633	-0.541686065244616	1.4388178711457793	76.41812303202911
8	3.0	wm	499	diff_vonmises	0.00800729585480876	0.45878425779314075	2.7177584758613156	1.0828058573503743	0.3808695290357966	2.7078954836324356	0.06149798303931564	-0.37390539317575944	0.4354033762150751	69.57511602478289
9	4.0	ltm	499	diff_vonmises	0.14701721643904175	8.423466017718438	1.7169399683691733	0.7107052082550316	1.1225608593520948e-16	2.580928320604943	-0.0765923719192016	-0.3999854895871963	0.3233931176679947	104.07203282680084
10	4.0	perception	499	diff_vonmises	-0.010329611091550943	-0.5918431195573924	0.8287820294121476	368.2160582052441	0.8123033467963169	370.44922951645805	0.47512689589423474	-0.6814261968132485	1.1565530927074832	95.22453705101657
11	4.0	wm	499	diff_vonmises	-0.13731964590003945	-7.867836154303199	0.7152595110911911	157.8766035027308	0.6917879762090619	160.49185893321484	-0.033702052249651615	-0.5697944186938315	0.5360923664441799	94.94371500690798
12	5.0	ltm	499	diff_vonmises	0.035986107715488824	2.0618520932006783	1.4110697041255365	2.9357404228992676	0.5080828554933012	4.401236758689435	0.13292867610731163	-0.3689207775556969	0.5018494536630085	86.88259826182585
13	5.0	perception	499	diff_vonmises	0.0025373299623494758	0.14537829807471303	1.6886121518684478	3.3034891015321226	0.3019383437461296	5.0672997978027565	0.47140489989693846	-0.5558027787179065	1.027207678614845	90.48922629895475
14	5.0	wm	499	diff_vonmises	-0.003392293221309421	-0.19436408445186837	1.5330606978730414	2.092710737317174	0.20861214196579764	3.849133926633262	0.17194879093017434	-0.45596187201298866	0.627910662943163	95.63310810660803
15	6.0	ltm	499	diff_vonmises	-0.10368279225726428	-5.940586404472933	1.8390057327225302	1.0404121255743801	0.02106206536006818	2.5863085537248356	0.08976665654236204	-0.39010810349146774	0.4798747600338298	99.19114230643764
16	6.0	perception	499	diff_vonmises	0.22165035232575162	12.699629715853279	0.00024576808149036317	8706.997497342529	2.140468873803795e-34	8708.725352801077	0.06559549782014074	-0.6155471231184038	0.6811426209385445	178.35697244366753
17	6.0	wm	499	diff_vonmises	-0.31377319862830105	-17.977880005721723	0.5175042600553996	134.6245750859748	0.497524620547709	136.28199697035248	0.09511677182723588	-0.4522671527512845	0.5473839245785204	117.35739923335409
18	7.0	ltm	499	diff_vonmises	0.7666076366619357	43.92338212322739	0.0001541828088041703	5938.624951474788	9.64568031375897e-31	5939.98188285747	-0.07022919307814846	-0.3616842465927448	0.29145505351459633	163.20554573851095
19	7.0	perception	499	diff_vonmises	-0.08548463925805062	-4.89790904268465	3.0882607749815048	1.4903375619712866	2.4281457336477305e-16	2.8563269903861683	0.5377330490466481	-0.45253682929112354	0.9902698783377717	78.16730036744997
20	7.0	wm	499	diff_vonmises	1.0421785607756102	59.712433031460826	0.0007926222424458276	1084.4792624434047	8.51641596543423e-21	1086.2499193398637	-0.14497663464385369	-0.41858674522453043	0.27361011058067675	150.37894426642018
