	roi	task	n_boot	func	loc	loc_deg	kappa1	scale1	kappa2	scale2	maxr	minr	amp	fwhm
0	1.0	ltm	0	diff_vonmises	0.3773979906858135	21.623312063014666	0.0001617099744842904	4107.552251060535	2.759210956775605e-30	4109.16555826301	-0.15104799428979732	-0.36247509079635165	0.21142709650655434	175.58276362829554
1	1.0	perception	0	diff_vonmises	-0.015179021097973505	-0.8696938460539148	9.040095040730058	0.7188420062957347	1.2349128666796328e-18	2.4617235157762165	0.4578456787411059	-0.39179545411791455	0.8496411328590204	45.170621979536776
2	1.0	wm	0	diff_vonmises	-0.47142305214845476	-27.010551253282173	0.00016426127091586333	5477.218435728394	3.5509136070028756e-33	5479.0094920122665	-0.14185869904929405	-0.4282404624616447	0.28638176341235067	173.73869946979622
3	2.0	ltm	0	diff_vonmises	0.04722072766334284	2.7055484006461987	16.354389749946606	0.2305802390171043	0.1167478254759785	1.3115457808059265	0.1352102289547956	-0.2232833870934093	0.3584936160482049	32.94683205374591
4	2.0	perception	0	diff_vonmises	-0.015650886250134454	-0.8967297277720355	10.498805903329071	1.0001668757058575	6.189576953606488e-16	2.0285220704803733	0.9538805982490765	-0.3228493137175213	1.2767299119665978	41.87476141932956
5	2.0	wm	0	diff_vonmises	0.14060641529656234	8.056154168956722	0.0006145062995262508	1823.605425281176	1.099405550255797e-25	1824.7160702877406	0.0016144037415983803	-0.3550888903467353	0.3567032940883337	179.25100374864877
6	3.0	ltm	0	diff_vonmises	0.12734216732993703	7.296168742054107	6.566960193069461	0.25287361269840475	6.814545364820732e-19	0.4603686815725024	0.17990706012011176	-0.07326945069335648	0.25317651081346826	53.13036328184987
7	3.0	perception	0	diff_vonmises	0.022406469952044435	1.2837961620388423	2.68600075071465	4.148003695546836	1.0140724934356975	4.4284219210103055	1.0242445396449014	-0.3849953893261859	1.4092399289710873	68.59176763308216
8	3.0	wm	0	diff_vonmises	-0.28439881943915557	-16.294852052366767	1.6083229055892372	81.37396929738092	1.584074530481571	81.55174015325399	0.2585232315777617	-0.12869863205241572	0.3872218636301774	72.15163959596018
9	4.0	ltm	0	diff_vonmises	0.17250751890731733	9.883952767662533	3.2576326383292553	1.1977946628842702	0.8515341882490354	2.141557280548057	0.15062042041752066	-0.2870908425546956	0.43771126297221624	60.102070093802865
10	4.0	perception	0	diff_vonmises	-0.1170017912899528	-6.703708836384812	2.6029027839931906	3.1659654547075458	0.44024497317629985	4.495444048191364	0.8511971129790568	-0.5435937462656308	1.3947908592446876	74.60385658559682
11	4.0	wm	0	diff_vonmises	-0.24208276397729694	-13.870320668760753	1.3068587203098025	291.0767453770079	1.2928474001837988	292.3236504570408	0.24737393746644898	-0.3771443702836734	0.6245183077501224	74.57609476494244
12	5.0	ltm	0	diff_vonmises	-0.006404577800035415	-0.366955277505211	2.0118990184523824	0.8175726404592113	2.430795238271067e-16	1.2927180456883895	0.21752846813634585	-0.1981716804067647	0.41570014854311055	96.74865391325116
13	5.0	perception	0	diff_vonmises	0.025132089081943157	1.4399626347421586	2.1153464784580396	1.9800601514646605	2.1193035711252834e-13	2.240875469324244	0.699890591084797	-0.3412800028688519	1.0411705939536489	94.45016104820826
14	5.0	wm	0	diff_vonmises	-0.0019136646731297247	-0.10964490917361547	0.5982037001467271	98.3055175008139	0.5829318612840614	98.88397943691473	0.1321378680031593	-0.2032489367310264	0.3353868047341857	113.19154435010209
15	6.0	ltm	0	diff_vonmises	0.5545485788708303	31.773293104276235	0.8878898645329208	103.3613986922369	0.8755131992677291	103.74857519608601	0.12069724267956161	-0.13161529158976748	0.2523125342693291	93.14852303191662
16	6.0	perception	0	diff_vonmises	-0.09816803798654938	-5.624614259709223	0.8356080709352203	183.0374867626787	0.8245433269069333	183.3942767666667	0.2766014791342002	-0.19275269543573792	0.4693541745699381	99.1502709126449
17	6.0	wm	0	diff_vonmises	-0.38899589458391526	-22.28782300757422	0.6817424328568298	127.70795982469167	0.6680253743890211	128.2783759180356	0.17462158253380977	-0.2106347862259561	0.3852563687597659	106.78458606904569
18	7.0	ltm	0	diff_vonmises	0.22124467466102551	12.67638609782175	2.812814952132974	0.4976412956737971	0.14677984090632118	0.9034021335455382	0.14848526589772892	-0.12880238201431435	0.2772876479120433	77.06757444841338
19	7.0	perception	0	diff_vonmises	-0.1714790795921587	-9.825027535418618	0.9582244947026485	160.40968801364417	0.9374581255833916	160.23869751129013	0.6890841117506525	-0.23739403400482928	0.9264781457554818	97.59204183320522
20	7.0	wm	0	diff_vonmises	-0.0787291187141031	-4.510846227102534	1.4366590457206574	0.6080415889418906	2.1959510384651505e-13	1.0007364759126214	0.09730796345243681	-0.14477101209776724	0.24207897555020405	112.45307110074924
0	1.0	ltm	1	diff_vonmises	-0.16936547740470825	-9.70392705050809	8.62747021389829	0.20154945817310158	5.840044216824974e-20	2.8930144395860293	-0.22791151488315178	-0.460437541034501	0.23252602615134924	46.255065516509916
1	1.0	perception	1	diff_vonmises	0.036157057866099525	2.071646815337797	12.395298458244035	0.6880339155442374	1.1841540135063568e-18	3.244314865502562	0.4398998046246112	-0.5163487477748762	0.9562485523994874	38.50756566944554
2	1.0	wm	1	diff_vonmises	0.11976734798006328	6.862163562732311	10.023549934803532	0.2852709651905509	7.504272687406517e-34	3.4675867500505753	-0.19629643394768487	-0.5518835711712694	0.35558713722358454	42.87053635647308
3	2.0	ltm	1	diff_vonmises	0.12282496388662067	7.037352049550117	8.75123718869542	0.4644827732332491	0.2893597243966876	1.6180593252533428	0.203036474493766	-0.2852296377906238	0.4882661122843898	43.587422390693945
4	2.0	perception	1	diff_vonmises	0.00013839168454251571	0.007929259443992023	8.769692066621776	1.1662076723811357	0.18570744295867628	2.4795114096789335	0.8859220452767134	-0.4146085553505318	1.3005306006272452	44.8033905053162
5	2.0	wm	1	diff_vonmises	0.059374016370421896	3.401880550765833	2.6428922778518946	0.6988206936059813	1.3965440706362466e-14	2.332381735780383	0.05423003738036353	-0.36905577416826796	0.4232858115486315	84.6014394970428
6	3.0	ltm	1	diff_vonmises	0.13023114827147433	7.4616951570979255	3.440088985054651	0.7947941355768037	0.9196169421837053	1.134618760072362	0.1918583049756607	-0.14400081850774107	0.33585912348340174	60.81674731427907
7	3.0	perception	1	diff_vonmises	-0.008003671650047088	-0.4585766061562057	3.8030895639241007	1.9039759702570043	0.4404717865902899	2.286139902497158	0.8850313481367371	-0.3162233850300807	1.2012547331668177	64.82163660105806
8	3.0	wm	1	diff_vonmises	-0.08798270503659211	-5.041037668741139	1.44888855082413	108.07204019011452	1.424407744786196	108.70124820139624	0.2046735397738928	-0.22050176023542	0.4251753000093128	72.21956607703169
9	4.0	ltm	1	diff_vonmises	0.01833857154496765	1.050722751825352	1.2718461815460493	160.7445792670547	1.2508400531024872	162.1178196547924	0.08428995912365878	-0.3563237425060741	0.4406137016297329	72.79401639358247
10	4.0	perception	1	diff_vonmises	-0.10294635299730708	-5.898391543009648	2.272640194916346	3.3207337153978305	0.4042663238697195	4.838514097832388	0.741746291947831	-0.5611163371512085	1.3028626290990395	79.01908169261549
11	4.0	wm	1	diff_vonmises	-0.17704109161460435	-10.143707349905778	1.1670408717204954	345.49169815152874	1.1550561973494369	347.2477524649129	0.11797683284925142	-0.4476411237221001	0.5656179565713515	76.21832721471779
12	5.0	ltm	1	diff_vonmises	-0.09066830657226414	-5.194911302188999	2.581939012566625	0.7140261866097318	9.257326302834076e-15	1.5413456622450776	0.18352880630428745	-0.2428599585543335	0.426388764858621	85.59523719095307
13	5.0	perception	1	diff_vonmises	-0.009602565254317911	-0.5501864615713843	1.3541859398425602	4.920935416270115	0.47729856952817845	5.774376705268297	0.6037714970590078	-0.4228860285807341	1.0266575256397419	95.23213957990893
14	5.0	wm	1	diff_vonmises	0.01712070712253698	0.9809442604009369	0.5244873539869165	129.35647847550197	0.5104026004388722	130.39301314759769	0.08365221361842856	-0.2952226146363177	0.3788748282547463	117.25009554645833
15	6.0	ltm	1	diff_vonmises	0.4131513766387643	23.67183018142107	0.8502077759553551	126.9994244398741	0.8389394312447539	127.66352534964274	0.06651542096090424	-0.1720886730571891	0.23860409401809335	91.2155504961525
16	6.0	perception	1	diff_vonmises	-0.15251575478021576	-8.738509058158574	0.6289358822619535	261.53491430855405	0.6186527635932185	262.329062240474	0.296417294240527	-0.3326890388092316	0.6291063330497586	111.93126379314268
17	6.0	wm	1	diff_vonmises	-0.004249852678047745	-0.24349862200450603	0.35680061128231044	91.64912633913913	0.33825999685373936	92.61143642631306	0.09912818656544786	-0.3232905016345615	0.4224186882000094	137.84294303985968
18	7.0	ltm	1	diff_vonmises	0.13770330403957207	7.889818146474259	2.5544875088338745	0.6894986684767046	0.3264868905078099	1.6361147598160328	0.06003110018752561	-0.22160500570487718	0.2816361058924028	73.15994602558874
19	7.0	perception	1	diff_vonmises	-0.07695775898889402	-4.409354790848601	1.0402241545696864	7.38956693107584	0.5830365924465227	7.9496342580264585	0.49561095971722446	-0.3337790530494959	0.8293900127667204	100.99579459603582
20	7.0	wm	1	diff_vonmises	-0.15303215186938773	-8.768096431920968	0.6852514082164822	73.06330731413092	0.6632964263488762	74.03540025617662	0.03552156784884275	-0.2336515027188648	0.26917307056770756	100.10894439255304
0	1.0	ltm	2	diff_vonmises	0.03477440920127677	1.9924268822940552	8.07259437650739	0.4794146214341138	0.2188464944302096	2.9143726407675077	-0.03599536474028797	-0.5028161538354335	0.46682078909514557	44.661114395518496
1	1.0	perception	2	diff_vonmises	0.0009444052323109325	0.05411043396148848	16.669097147919274	0.60978477345172	0.0370405016512287	2.980488921884037	0.4934583945609985	-0.48361264978552004	0.9770710443465185	32.997646382570565
2	1.0	wm	2	diff_vonmises	0.08302125501646625	4.756767522322829	3.7317177376042823	0.6951948994211422	0.2029832600682295	3.7208324629871674	-0.2035249478772464	-0.5854002929508513	0.3818753450736049	61.74865949948557
3	2.0	ltm	2	diff_vonmises	0.10773919370378662	6.173001087369426	3.2946407658634063	1.1958388820267798	0.7875942280337822	2.049088436359531	0.2084992248087697	-0.2734821398976559	0.4819813647064256	61.41877334773548
4	2.0	perception	2	diff_vonmises	-0.016712681876352133	-0.9575661358597588	5.986900106574395	1.2851784995060394	0.4169676064088354	2.4479232722196693	0.659634006221411	-0.4073034956130016	1.0669375018344125	51.98569446502131
5	2.0	wm	2	diff_vonmises	0.0829497983254471	4.7526733555094625	3.265632267237243	0.8350867714689262	0.2151209434593939	2.1580594493919016	0.1528215126214632	-0.3176251925614667	0.4704467051829299	69.030832696602
6	3.0	ltm	2	diff_vonmises	0.01812869536100317	1.038697732263876	1.854438642223793	82.8910863866482	1.820646971040419	83.27312505805932	0.26789334856392344	-0.19258724977934527	0.4604805983432687	65.3237429849735
7	3.0	perception	2	diff_vonmises	-0.06345412803015694	-3.635653728810769	5.112561886130958	1.4148681776643484	0.21712221277434973	1.888361669556539	0.8723303545124228	-0.291092642051745	1.1634229965641678	58.307469640787815
8	3.0	wm	2	diff_vonmises	-0.09220283268560636	-5.282833172036122	1.4523496462407448	202.61585413922907	1.4375063583991572	203.414081654203	0.19507573063916084	-0.26048663048446485	0.4555623611236257	71.11020188883998
9	4.0	ltm	2	diff_vonmises	-0.158291369809905	-9.069427423452092	1.3025004309580936	252.979861136903	1.2889891696752613	254.06617658034224	0.19217345908474215	-0.3211912850612819	0.5133647441460241	74.34985809496226
10	4.0	perception	2	diff_vonmises	-0.06111790332689694	-3.5017979133197676	3.4936508894752447	1.7665986995945293	9.035328207761035e-14	3.2462270342893325	0.743844875656812	-0.5154886572974566	1.2593335329542685	73.3924020988205
11	4.0	wm	2	diff_vonmises	-0.08884335512545638	-5.090349286470621	1.0228112178916673	249.18971914512966	1.0094657363836563	250.90934003223904	0.037510201729119785	-0.4029390947665412	0.440449296495661	80.02045486744956
12	5.0	ltm	2	diff_vonmises	-0.06325128878106993	-3.6240318959184803	2.726653210681254	0.8973702362885972	1.064713869621719e-14	1.5095631217344643	0.316055393961857	-0.23787196606899952	0.5539273600308565	83.27987766268814
13	5.0	perception	2	diff_vonmises	-0.05963813729899724	-3.4170135652542766	1.6222222789698402	3.087409289423214	0.31094134671945606	4.083014322842468	0.5366476889262773	-0.4218821127679663	0.9585298016942436	93.38375315608675
14	5.0	wm	2	diff_vonmises	-0.01271319373385656	-0.7284123450821453	0.3045617138825846	67.26877487491811	0.27771004444638875	68.16732131407174	0.13715047001786473	-0.3469578615663673	0.48410833158423205	145.22535704926327
15	6.0	ltm	2	diff_vonmises	0.05806752992833495	3.3270243916431883	1.6162323504408767	0.750841625991163	0.058276209152280704	1.1609854010383973	0.1446014584244051	-0.1607395283364295	0.3053409867608346	103.76676956158249
16	6.0	perception	2	diff_vonmises	-0.1679946223087189	-9.6253828391839	0.6989495322596745	141.83273417159666	0.6787825082859607	142.77397710545895	0.2808483970397688	-0.3409416417663742	0.621790038806143	105.57192582046761
17	6.0	wm	2	diff_vonmises	0.4286604613873246	24.56043528162429	0.048041099331180524	123.43516305012348	0.037313065208260277	123.86524641202936	0.14411984127415067	-0.2720787366815429	0.4161985779556936	169.93611832765998
18	7.0	ltm	2	diff_vonmises	-0.17791135617083362	-10.193569836037542	0.8119921377627574	122.06029325447	0.7956144810078424	123.04302259593949	0.08416874855383583	-0.2502799161720386	0.3344486647258744	93.148157738029
19	7.0	perception	2	diff_vonmises	-0.06467040337793249	-3.7053411729641144	0.7736997840033278	72.67111070705904	0.7210185935163331	73.92112667835625	0.3700398460593384	-0.4372223758768863	0.8072622219362247	101.223877764456
20	7.0	wm	2	diff_vonmises	0.03186933213409322	1.8259782271841947	0.9933771663393702	135.14643388750957	0.977839319588647	136.124369695285	0.0676515816705674	-0.2428882811614379	0.3105398628320053	83.15038082928484
0	1.0	ltm	3	diff_vonmises	0.07044917592968968	4.036440450945846	11.473181176461148	0.4650842528180369	0.13230389496902487	4.2433276381009515	-0.1461845579682607	-0.7219475541194686	0.575762996151208	38.4408991797159
1	1.0	perception	3	diff_vonmises	0.06762585272137205	3.874675946907911	15.669088832693983	0.6304077903651525	0.06801006503271434	3.9531278204731097	0.314651344942837	-0.6529511427644324	0.9676024877072694	33.81856121627615
2	1.0	wm	3	diff_vonmises	0.1472849218147583	8.43880440589996	3.0160313659377684	0.7924881534034088	0.09662770370039343	5.482915904105142	-0.4383408997094639	-0.8452020507127088	0.40686115100324494	70.29624106113218
3	2.0	ltm	3	diff_vonmises	0.1431720576492328	8.203154647504753	7.899247450819543	0.5879689707832008	0.3751714585983291	1.6911221580654536	0.26986908664007964	-0.3012943007513847	0.5711633873914643	45.37995135140312
4	2.0	perception	3	diff_vonmises	0.020030047289926377	1.1476371731602337	6.102513619211336	1.3784436002689817	0.38134142893505846	3.0268082088620596	0.6477248539860881	-0.5071158566306638	1.154840710616752	51.446755072332564
5	2.0	wm	3	diff_vonmises	0.09036166434119232	5.177341996528108	1.024281794559967	107.52389359695898	0.9859683964348642	109.6732458031841	0.05020367530185865	-0.5036757388977584	0.5538794141996171	80.54906572769116
6	3.0	ltm	3	diff_vonmises	0.07328539157130151	4.198943636999193	1.7953123603485062	107.63991250199706	1.7686699094732614	108.22714383578916	0.18985229559254435	-0.22357011233262192	0.41342240792516627	64.28891028253418
7	3.0	perception	3	diff_vonmises	-0.04463912854603096	-2.557633666829529	4.146641328955106	1.7255032726898623	0.26819308356837107	2.540708828887258	0.8334089011922144	-0.37622405515741186	1.2096329563496262	63.49360868922548
8	3.0	wm	3	diff_vonmises	0.01963052020473519	1.124745957377615	2.8641952944210627	1.1477208057469754	0.4054672795321191	2.7000058279944077	0.1131569675906513	-0.37434550267210076	0.48750247026275206	68.34737944738657
9	4.0	ltm	3	diff_vonmises	-0.12845119838164817	-7.359711540666111	1.055849293484845	261.1170132170379	1.0418187940320367	262.92522559997934	0.05765995632859244	-0.43176799655432063	0.4894279528829131	79.1275857069677
10	4.0	perception	3	diff_vonmises	-0.061689829434909305	-3.5345668655022195	1.0901124700053213	259.9202817720248	1.0647724338816662	261.7148478112921	0.60112413069686	-0.6106673470379604	1.2117914777348204	84.19613065610008
11	4.0	wm	3	diff_vonmises	-0.0514672406597531	-2.948855672987959	0.8956280047220463	220.32055856118845	0.8786670034399141	222.92837345006947	-0.11887079844390769	-0.5449190172115976	0.42604821876768995	81.66831432072718
12	5.0	ltm	3	diff_vonmises	-0.12287490037135244	-7.040213199368967	2.614654902951911	0.7898349827824224	1.2467174201560593e-13	1.9250089925423843	0.17150467529050506	-0.30381458769254926	0.4753192629830543	85.05284234076166
13	5.0	perception	3	diff_vonmises	-0.0452768178070787	-2.5941705701283806	0.856231351494997	244.36670579305047	0.83534905291837	246.0278942461171	0.4581574019061634	-0.5460032990304136	1.004160700936577	94.71091712200732
14	5.0	wm	3	diff_vonmises	0.2051810582788225	11.756008675404308	0.08260326238160755	17.03299588031828	5.901569154485399e-11	18.951204518353656	-0.07687408978650767	-0.5244716199804613	0.44759753019395365	173.97215407310176
15	6.0	ltm	3	diff_vonmises	0.3782905491429836	21.67445189557922	0.5885293764467573	138.61863685401298	0.5765096338616137	139.81819221337568	0.001564177266409672	-0.27656468213649354	0.2781288594029032	106.09851106378397
16	6.0	perception	3	diff_vonmises	-0.10490021969031021	-6.010339858249911	0.5708236484994926	358.7697111615341	0.5603715808446189	360.54261214733907	0.24960555269449003	-0.547875546158437	0.7974810988529271	113.85689153540761
17	6.0	wm	3	diff_vonmises	0.4293452536617424	24.599670988791594	0.0004083230443705145	4192.989610247974	2.116570037562727e-33	4194.8704596669695	-0.02683705608615128	-0.5718002822164863	0.544963226130335	174.35333464523433
18	7.0	ltm	3	diff_vonmises	0.03744547171778455	2.1454674913055434	3.4937432717499726	0.5099042071014881	0.13547862158907314	2.2932338792962073	-0.05214656394548972	-0.3526520642705727	0.300505500325083	66.77980751442217
19	7.0	perception	3	diff_vonmises	0.056635001887364006	3.2449465808614093	1.2335867504156806	3.9012773307251734	0.32216477399573784	5.5350139790985144	0.31841668843082926	-0.5006758768258899	0.8190925652567191	100.46034886906975
20	7.0	wm	3	diff_vonmises	-0.11431507551826237	-6.549771361915716	0.8139392121777648	210.231529132159	0.7999705605055781	212.3643860772187	-0.08685937103655306	-0.44357627182544945	0.3567169007888964	86.20523410374074
0	1.0	ltm	4	diff_vonmises	-0.06200422872169764	-3.552580617717114	6.7212503213249155	0.39025941294825656	0.13011754343740164	2.8943662811875797	-0.12699714575132776	-0.47656599461818094	0.3495688488668532	49.2747960036026
1	1.0	perception	4	diff_vonmises	-0.006970501144803354	-0.39938029668834085	14.862299045369076	0.65678751648351	8.373146075785395e-18	3.0518004292997976	0.5152951708013476	-0.4857091236529076	1.0010042944542552	35.14628113601486
2	1.0	wm	4	diff_vonmises	0.0322858831405586	1.8498448418065874	8.648092962835168	0.28902190404238337	3.078335603530013e-20	3.3155689564511195	-0.1938068518709382	-0.5276891783015163	0.3338823264305781	46.19496162513437
3	2.0	ltm	4	diff_vonmises	0.07703167325248982	4.4135897661984576	3.5063783553200905	1.0378905410343526	0.60629289659533	2.119755543724659	0.17665134393356907	-0.30612974796886505	0.4827810919024341	61.29204872110631
4	2.0	perception	4	diff_vonmises	-0.022568268362326293	-1.2930665280799187	6.514363063979509	1.2283942591847528	0.2705831919888326	2.4839360413127127	0.7158945690172637	-0.409003249419885	1.1248978184371485	51.02237868774992
5	2.0	wm	4	diff_vonmises	0.08622919467109447	4.940568925465682	3.8803717505267294	0.5781418861745006	1.6829610789894777e-15	2.016205900828496	0.11629709084946349	-0.32070283225443674	0.43699992310390023	69.5353547326921
6	3.0	ltm	4	diff_vonmises	0.024291894698619445	1.391823042607113	3.3349379051806816	0.8132601757693133	0.580829321357907	1.2098557616184245	0.24854317108252005	-0.1602077822988524	0.40875095338137246	65.4302746049027
7	3.0	perception	4	diff_vonmises	-0.04138035124970887	-2.3709194813772196	4.438794267665432	1.6769305550711258	0.3025012363433766	2.1727964130111035	0.9066563281867703	-0.3233353624895532	1.2299916906763235	61.56283717719552
8	3.0	wm	4	diff_vonmises	-0.14355621109007757	-8.225165018350587	1.5067126538284552	166.70324288126793	1.4886011536874506	167.40994705714036	0.22371904555352273	-0.24899755544251434	0.4727166009960371	70.5440143046547
9	4.0	ltm	4	diff_vonmises	-0.09998717899101696	-5.7288433616044045	1.2066284494959594	142.1973823261788	1.1829583402087434	143.35959013421788	0.18522874855271	-0.3309376041319787	0.5161663526846887	77.29609805410794
10	4.0	perception	4	diff_vonmises	-0.08186585144728738	-4.690567774174529	3.3167472087539074	1.9874241211227115	0.024648819649167725	3.5509988158455372	0.798438342402779	-0.5505698729381344	1.3490082153409135	74.51179465317045
11	4.0	wm	4	diff_vonmises	-0.1953242107582556	-11.191252913171835	1.0798359984883035	262.9912028706847	1.0648387931432737	264.73430123911766	0.12384322953577964	-0.4389294143984799	0.5627726439342595	79.59992438183099
12	5.0	ltm	4	diff_vonmises	-0.03280750443162315	-1.8797315402887511	2.5295970027036003	0.9424168302035992	4.369333431627603e-20	1.434196531399078	0.3310117191827566	-0.22470767761428728	0.555719396797044	86.48225998040999
13	5.0	perception	4	diff_vonmises	-0.02024728914678488	-1.1600842146918113	2.007048716707656	2.189560165472769	0.10226701712865773	2.9072885755631273	0.6207616919587156	-0.3962118622524	1.0169735542111156	92.75362654980626
14	5.0	wm	4	diff_vonmises	-0.05741545513222152	-3.289663257899035	0.4247314687564649	162.76611077129053	0.4126391778824116	163.51560202118762	0.18972511322422747	-0.31347859629278574	0.5032037095170132	131.37249091816165
15	6.0	ltm	4	diff_vonmises	0.24764035851775273	14.188747380173819	0.8165601860005047	80.47309568992239	0.8012356444979448	80.73078496214274	0.15718168375524755	-0.122440380129758	0.27962206388500555	99.72466512148111
16	6.0	perception	4	diff_vonmises	-0.1349254653562867	-7.7306597137538295	0.673240410886582	199.63467614961849	0.6616573969785989	200.23668289794898	0.27307662283398315	-0.26779911586180205	0.5408757386957852	108.84896037722676
17	6.0	wm	4	diff_vonmises	0.20927521810544147	11.990586754121589	0.2038099140513355	99.25019269442716	0.1918857122935791	99.51651246766174	0.1540716411984171	-0.20277573938502336	0.35684738058344045	156.28617664273855
18	7.0	ltm	4	diff_vonmises	-0.040627544313432955	-2.3277868211404362	0.7332374167555898	111.63081078065683	0.7185110696689034	112.36481820702903	0.10216934110079023	-0.20716785671073445	0.3093371978115247	99.88353796733739
19	7.0	perception	4	diff_vonmises	-0.11201453809899246	-6.417960277179632	0.8288994810017976	192.62535784578205	0.8111242403603444	193.29282294795414	0.4496204038744196	-0.3335131144678165	0.7831335183422361	99.34973798825936
20	7.0	wm	4	diff_vonmises	-0.004579281154437617	-0.2623734833530708	0.8660680678261249	88.17138651366585	0.8471188530872258	88.8740601195179	0.09906182480089853	-0.1928636659331051	0.29192549073400365	91.64315510730393
0	1.0	ltm	5	diff_vonmises	-0.056667182792273	-3.2467904108936065	18.268487876564485	0.1907539016917105	5.062587801887259e-15	2.9551564666777357	-0.14740164172202042	-0.4703277592817392	0.3229261175597188	31.67533443436642
1	1.0	perception	5	diff_vonmises	0.06123452818865419	3.508480025684755	13.561381343929224	0.7032934150566976	5.422359829501052e-15	3.4278246560418255	0.4773098176900685	-0.5455552380596275	1.0228650557496959	36.81070167861901
2	1.0	wm	5	diff_vonmises	0.19016354760079265	10.89556869476055	7.735919011730623	0.37254381328311387	7.945876872172054e-34	3.618928698584828	-0.16972536622367096	-0.5759703135476889	0.40624494732401795	48.88353812399157
3	2.0	ltm	5	diff_vonmises	0.16155278337738385	9.256292656115336	6.412682859035642	0.5564105690031125	0.33827296180664423	1.5988271322139955	0.20331084751270434	-0.27185803513606266	0.475168882648767	49.991888192263815
4	2.0	perception	5	diff_vonmises	0.0025461391935207986	0.1458830298415849	8.03986344106909	1.2267705875925183	0.25034012865651445	2.4819778363300316	0.8651953671244359	-0.41915286083929854	1.2843482279637344	46.39292262998944
5	2.0	wm	5	diff_vonmises	0.09388973857823961	5.379485760119756	3.001492860876036	0.7454781318179545	1.6925651396640668e-14	2.2309699328125974	0.13329304829617394	-0.3538628119872063	0.48715586028338026	79.31494455180288
6	3.0	ltm	5	diff_vonmises	0.11923476967443984	6.83164907355986	3.2769137862351516	1.0784157041425397	1.1489113118121759	1.4444314568522068	0.20853964163892746	-0.16479462475661427	0.37333426639554174	59.782637593218425
7	3.0	perception	5	diff_vonmises	0.00280272074836923	0.1605840700353045	3.7723922786766386	1.8071513188480248	0.44661707883916013	2.1383509646652223	0.8391512316682834	-0.29397052108874844	1.1331217527570319	65.04503844783179
8	3.0	wm	5	diff_vonmises	-0.02800188291456776	-1.6043897094242214	1.3210314061629598	83.92952524060102	1.2911818745989758	84.51385385342557	0.2235614914255919	-0.21086812838390223	0.4344296198094941	76.5161574616566
9	4.0	ltm	5	diff_vonmises	0.013569533139137347	0.7774769788354773	1.3386179795641575	232.44923405749716	1.3226734838132816	233.79493327706504	0.12966671918967165	-0.36909146006215465	0.4987581792518263	71.68671647043092
10	4.0	perception	5	diff_vonmises	-0.09065688797039204	-5.1942570644937875	2.645331571816794	2.420385821832093	0.2393090493540198	3.9072380520246437	0.6955924125506857	-0.523458565531674	1.2190509780823597	77.38582474887704
11	4.0	wm	5	diff_vonmises	-0.11427468384080869	-6.547457089270166	1.1725927128124343	358.0056549546991	1.1611720953974431	359.6071232476893	0.16316397528660787	-0.4254153183223721	0.58857929360898	76.98930853697829
12	5.0	ltm	5	diff_vonmises	-0.17499051342270083	-10.02621787394814	2.0597454608160057	0.7808800758973216	7.194202727607054e-26	1.802384468890913	0.12320798701420871	-0.28019367339305096	0.40340166040725967	95.62731002361446
13	5.0	perception	5	diff_vonmises	-0.011785355005468384	-0.6752511018767177	0.8771503197421945	254.99941148857442	0.8581863591687137	256.1166472924884	0.5705633581968925	-0.4710591094667542	1.0416224676636467	95.68048126781525
14	5.0	wm	5	diff_vonmises	0.16878549927776595	9.670696751624394	0.5256652370090382	68.80377283237394	0.500289865395783	69.90170974565709	0.05598660897096508	-0.29429591800384003	0.3502825269748051	116.54370149564403
15	6.0	ltm	5	diff_vonmises	0.3293355240929152	18.86953557425308	0.927499176036607	104.86612824414262	0.9116317659176424	105.73739326590544	0.0334829718980032	-0.20623024864836026	0.23971322054636346	85.06260863914639
16	6.0	perception	5	diff_vonmises	-0.1948189008023147	-11.16230078535048	0.5421940806934951	277.79908309217933	0.5315937940276761	278.91140197324256	0.2722829551473467	-0.41845855615233774	0.6907415112996844	118.71861266585209
17	6.0	wm	5	diff_vonmises	0.04680007226070949	2.681446621445931	0.5256131386648994	107.67135513581992	0.506445533628249	108.83666438831762	0.0977218213315858	-0.33442507405162836	0.43214689538321416	117.5206620136888
18	7.0	ltm	5	diff_vonmises	0.10333548945249872	5.920687419546811	3.850748202486397	0.39514130403787434	0.0009270572775489635	1.5674885173940527	0.047844310273190555	-0.24910778547652557	0.29695209574971615	69.74247949517328
19	7.0	perception	5	diff_vonmises	-0.02143603115345815	-1.228194114604102	1.9765030754210005	2.0292239103016745	0.10161134904633767	2.974873194998508	0.5166217741592479	-0.4067651616570808	0.9233869358163287	93.00277595497036
20	7.0	wm	5	diff_vonmises	-0.021610656173822525	-1.2381993912683666	0.7504391508053346	74.41906985108585	0.7226985874795558	75.52217137507	0.07530251041024627	-0.27634265015559123	0.3516451605658375	96.89342687084519
0	1.0	ltm	6	diff_vonmises	-0.0014171585019275995	-0.08119720106153379	8.344931781793571	0.46830834917022746	0.1406873085219576	4.1024995976313825	-0.21674201716748331	-0.6895724919067581	0.47283047473927475	44.291285256231106
1	1.0	perception	6	diff_vonmises	0.053073069014091784	3.040862860314004	14.750216072131943	0.7594381825578258	0.046622558589010606	4.034463632619104	0.48102860064208597	-0.6570098990211406	1.1380384996632267	34.99792859534455
2	1.0	wm	6	diff_vonmises	0.18871167136362751	10.812382313995654	6.470250566294682	0.4481839726367513	5.7553113211544155e-21	4.690391542227422	-0.30122360477497245	-0.7464979307375923	0.44527432596261984	53.530872395734264
3	2.0	ltm	6	diff_vonmises	0.08349918445010432	4.784150861775369	2.718559239231375	1.4139938626595874	0.5914904964872998	2.711776420925503	0.1593482071594442	-0.3465281751906317	0.5058763823500759	67.35430891144983
4	2.0	perception	6	diff_vonmises	0.005902388884650174	0.33818197213538426	5.693749173149786	1.4546914157589783	0.33896349294484096	3.0816672988864027	0.6822560141237526	-0.5033534474945011	1.1856094616182538	53.51061167905431
5	2.0	wm	6	diff_vonmises	0.10266556123920803	5.882303360348514	4.233688983412301	0.7221519920537864	0.02575185502550503	2.4235576529760094	0.17692683110684998	-0.38035712074238	0.55728395184923	65.4623756786344
6	3.0	ltm	6	diff_vonmises	0.07632746387813596	4.373241541154433	4.546238181274227	0.7222935373114071	0.3788378889035034	1.4296542890003676	0.2744402188411863	-0.22173131495532988	0.4961715337965162	58.73824354171961
7	3.0	perception	6	diff_vonmises	-0.03282936021068822	-1.88098378418715	5.316802432081252	1.2328027209385166	0.04577397888360806	1.8307198737526469	0.7996356555406684	-0.2867804256225269	1.0864160811631953	58.59930156953169
8	3.0	wm	6	diff_vonmises	-0.01748801088666926	-1.0019892158849852	1.3099059794422092	55.2600819775076	1.2525645067755975	56.140214592559055	0.23561280058338951	-0.28427309758202135	0.5198858981654109	76.11844194527586
9	4.0	ltm	6	diff_vonmises	-0.13051791477654057	-7.478125667543938	1.0304495867896002	219.3788015234801	1.0116905394380644	221.18066002337653	0.15728213560788618	-0.45990681095036834	0.6171889465582545	82.18978548914814
10	4.0	perception	6	diff_vonmises	-0.04298460513300934	-2.4628364581578097	2.8917662538672135	1.8605132394215476	4.2241419582879435e-15	3.920576977822655	0.5691298155148431	-0.6203063335118194	1.1894361490266625	80.83660383189559
11	4.0	wm	6	diff_vonmises	-0.09497059431644539	-5.441414232181444	1.0165914511905607	250.3339303372396	0.9993058875010601	252.42614910854812	0.10330746621629316	-0.5075793608175481	0.6108868270338412	81.48612934711085
12	5.0	ltm	6	diff_vonmises	-0.10113023598724578	-5.7943357032312175	2.366719704295507	0.9875257504742564	4.098601928355869e-15	1.9653482050995228	0.25069448295025065	-0.3078381849670196	0.5585326679172702	89.39104388996174
13	5.0	perception	6	diff_vonmises	-0.034429108650297885	-1.972642618059423	0.886177968161493	138.70268241381822	0.8495235533107578	140.05606476515038	0.5458297012896764	-0.5115466909778483	1.0573763922675248	94.85284517937072
14	5.0	wm	6	diff_vonmises	0.03593094899202115	2.0586917311426514	0.4710694503124606	193.91106358362543	0.45906105896448973	194.96035131734243	0.18180388628887556	-0.3708292830534994	0.5526331693423749	125.32253961224303
15	6.0	ltm	6	diff_vonmises	0.16215123665997946	9.290581503443814	0.9043826359614845	19.83739986774519	0.8209235784843522	20.432112885032076	0.13279613441907934	-0.18220222372303008	0.3149983581421094	92.97408857324584
16	6.0	perception	6	diff_vonmises	-0.21639240641495133	-12.398371606256353	0.391530745782013	95.65307450656701	0.3653921252905383	96.73484362007699	0.21642180140820244	-0.4275246311265395	0.6439464325347419	135.0359200372236
17	6.0	wm	6	diff_vonmises	0.46866340413614	26.852435069234872	0.2764253479443101	131.4368449639568	0.26469866869639924	131.9345104818215	0.1719702513895136	-0.26815045296487305	0.44012070435438666	145.2946780729508
18	7.0	ltm	6	diff_vonmises	-0.06475502599891232	-3.7101896919975936	0.5814532887853223	101.54027869500854	0.5620720822422884	102.96027452942288	0.004452493036673388	-0.3301629885941697	0.3346154816308431	107.2992563458748
19	7.0	perception	6	diff_vonmises	-0.037335353075977386	-2.13915815788428	0.8754201977828266	66.2575644162488	0.8116924712664889	67.5403546026099	0.4134087776042392	-0.44620379119090803	0.8596125687951472	95.42791161188384
20	7.0	wm	6	diff_vonmises	0.02168498879970505	1.2424583370115603	0.9108817362637056	159.6979214493783	0.8934857369792761	160.87774844474887	0.14975400036917108	-0.3162418290123554	0.4659958293815265	88.8420521861728
0	1.0	ltm	7	diff_vonmises	-0.010294267142499036	-0.5898180604453928	5.9444268182555025	0.43648332608938206	0.3284175738149568	1.8144594407659833	0.024289371663788695	-0.31031038967050695	0.33459976133429564	50.43414911052008
1	1.0	perception	7	diff_vonmises	-0.06035956497721302	-3.458348326439963	18.672604139383036	0.5679524063553756	5.136642462643624e-16	1.9863325162434502	0.6556612929477179	-0.31613463858430735	0.9717959315320253	31.338056425640104
2	1.0	wm	7	diff_vonmises	-0.02935628172884416	-1.6819910452597822	6.894999474858078	0.4281019157246575	0.2973514290843297	2.1963890099225276	-0.020720950197858967	-0.3831204160829143	0.36239946588505534	47.175036827265416
3	2.0	ltm	7	diff_vonmises	0.06775646180794873	3.8821592963348133	1.8643138932315235	85.22510134509432	1.83014685207247	85.78065879216645	0.19936026833046583	-0.22132098438216552	0.42068125271263135	63.3324540075119
4	2.0	perception	7	diff_vonmises	-0.052849945554080534	-3.0280788277450035	6.718412939175936	1.1386225640074583	0.42245567630418773	1.8405998568037432	0.7261105928266427	-0.3114094425888075	1.0375200354154501	49.75554749946053
5	2.0	wm	7	diff_vonmises	0.08386097186055855	4.804879753475364	4.69367296415131	0.4313960386168194	0.03561517165698485	1.2408493542253114	0.1570541880704888	-0.19474254784805847	0.35179673591854727	62.07475558068808
6	3.0	ltm	7	diff_vonmises	-0.11792399117753803	-6.756546997810884	1.7615470419487873	51.16665221408473	1.7287701230322379	51.136129009711965	0.29224097125879567	-0.08845163797714228	0.38069260923593795	71.62413258065848
7	3.0	perception	7	diff_vonmises	-0.0829153203720397	-4.75069791429297	5.667355398692818	1.3204909046077136	0.2404122114289873	1.4912660060487688	0.9261203311643935	-0.23264751361128524	1.1587678447756788	55.607844278750036
8	3.0	wm	7	diff_vonmises	-0.2000807026574008	-11.463779824281021	1.921452898066193	169.27763010878198	1.9063868278124279	169.6080943934384	0.2402961064549629	-0.17217483835231917	0.4124709448072821	63.991806931249045
9	4.0	ltm	7	diff_vonmises	-0.17919594472929634	-10.26717133884825	1.5642467713677277	157.53261810825958	1.547000571357023	158.05885917037966	0.23743729659580026	-0.20974833671552773	0.447185633311328	70.1892642858196
10	4.0	perception	7	diff_vonmises	-0.0712278646788978	-4.081056029829792	3.6251074003470336	1.8825241691616956	1.7066073895223984e-18	3.000077894531342	0.89371943140999	-0.4765036399113685	1.3702230713213586	72.00639050606907
11	4.0	wm	7	diff_vonmises	-0.17085198186714715	-9.789097482433203	1.1683493924823856	173.32096602097928	1.151970914336454	174.52028995213968	0.08333612676022994	-0.3064846246452042	0.38982075140543415	76.32041518217227
12	5.0	ltm	7	diff_vonmises	0.00017383265896034282	0.009959877699964637	3.0079760451107056	0.9066323001005957	1.682977396928002e-10	0.8766240345476003	0.45518593174736405	-0.1380682507408243	0.5932541824881883	79.22794107691271
13	5.0	perception	7	diff_vonmises	-0.061588945762493186	-3.5287866568509956	2.194215888273336	1.6896364365382448	3.3084323276563104e-18	2.009963885774896	0.6016792225695708	-0.3084478520423467	0.9101270746119176	92.78544688180585
14	5.0	wm	7	diff_vonmises	-0.1739516869062286	-9.966697498908003	0.3573513673170937	107.41145219455386	0.34182210633587984	107.61540724709792	0.25803805760968146	-0.23522745225941755	0.493265509869099	140.70059789362406
15	6.0	ltm	7	diff_vonmises	0.0213024083227461	1.2205380903577103	1.6591353846017574	0.6932098781952604	2.9227363276828376e-15	0.5561510177148481	0.23071946373772645	-0.0769527243777428	0.30767218811546926	105.73298559425535
16	6.0	perception	7	diff_vonmises	-0.19379891696028873	-11.103860016030852	0.9185736939661695	95.38868440184451	0.8977426205374394	95.70053126151704	0.2777875630009774	-0.1768548643270158	0.4546424273279932	95.14639797908733
17	6.0	wm	7	diff_vonmises	0.2839428178237839	16.268725084354823	0.000453702882402509	2222.3368318397884	2.854845217193387e-29	2222.0678249602424	0.20330305350637445	-0.11763910240159703	0.3209421559079715	177.39279184896634
18	7.0	ltm	7	diff_vonmises	-0.2233509531753662	-12.797066967172556	1.0854942263612626	103.75748848702013	1.0697165795971395	104.07688319024842	0.19395146468255575	-0.13946519925227818	0.33341666393483393	86.16614381383049
19	7.0	perception	7	diff_vonmises	-0.16864997915083318	-9.662932020312068	0.7997110845882933	132.38660687591872	0.7757730185405	133.05834047589832	0.4043218717047381	-0.32051862851645296	0.7248405002211911	101.02528375754974
20	7.0	wm	7	diff_vonmises	0.10341817031135177	5.925424683805607	0.9749147226597689	38.39647684722678	0.9514840054404449	38.72293952189743	0.062136834794083384	-0.09476780390470374	0.15690463869878712	87.20220143046382
0	1.0	ltm	8	diff_vonmises	-0.02019421505140064	-1.1570432930248193	7.125768998287363	0.4716932302853942	0.13625416956773015	4.066402367726639	-0.24537658154532388	-0.675651797742314	0.4302752161969901	47.549524337691054
1	1.0	perception	8	diff_vonmises	0.05449164160876311	3.1221410829215936	16.260852942782797	0.7559113382583248	3.574397720282085e-19	3.6301009601088547	0.6286424812055565	-0.5777485117239504	1.206390992929507	33.58302157012065
2	1.0	wm	8	diff_vonmises	0.18608570861066617	10.661925731092413	6.650129732556664	0.4675330944654683	3.5509047647716012e-15	4.452224922285065	-0.23742245421077018	-0.7085928151877436	0.47117036097697346	52.79158436819449
3	2.0	ltm	8	diff_vonmises	0.08427588859193821	4.828652731032782	1.9971790430112923	2.654534493325719	0.8369643914479602	3.987647829146218	0.12928900743219973	-0.35776477118036726	0.487053778612567	70.54861135766947
4	2.0	perception	8	diff_vonmises	0.011142904123695195	0.6384413778066557	5.935004559270945	1.4865384492776954	0.3213499727354203	2.957573975372008	0.7786773622506198	-0.4836740600161633	1.262351422266783	52.84825120897696
5	2.0	wm	8	diff_vonmises	0.10043494846870626	5.7544986628707795	4.343939396891032	0.6985116956663169	0.04744384463371111	2.2506947593882405	0.18624141841685055	-0.3516682951816706	0.5379097135985211	64.05184574643252
6	3.0	ltm	8	diff_vonmises	0.17674794752049794	10.126911430524295	8.723803179680882	0.4320577995823537	0.03701967447733546	1.1263324634809966	0.3154173713552816	-0.18014536951639587	0.49556274087167745	45.67376876138215
7	3.0	perception	8	diff_vonmises	-0.05780476911820098	-3.3119693062010738	5.9991787070962515	0.9345223571993058	7.34032780619451e-15	1.2684996820842918	0.6904209715123346	-0.2018825021887091	0.8923034737010437	55.63608498519801
8	3.0	wm	8	diff_vonmises	0.02079497309208329	1.191464193264484	2.3629781160246583	1.965073138245438	0.8952373612074889	2.578228589380973	0.29052657537770443	-0.23740206549968496	0.5279286408773893	69.71125424881933
9	4.0	ltm	8	diff_vonmises	-0.262969148720821	-15.067022363851114	0.8129443020433639	153.9261353842142	0.7903989157850921	155.89942654103402	0.06715257738271418	-0.4630692059109087	0.5302217832936229	91.23361122335636
10	4.0	perception	8	diff_vonmises	0.019152634846391205	1.0973651432534077	1.5157257585043016	2.7382323342145964	3.325743208903835e-15	5.110343691949408	0.38025479864719347	-0.755750731110125	1.1360055297573184	109.96791562520207
11	4.0	wm	8	diff_vonmises	-0.08266210855665637	-4.736189945948659	1.1856153312460143	253.93196649890535	1.1659709356139476	256.05031774795833	0.13488159683926426	-0.5395819020114914	0.6744634988507556	75.60859261846971
12	5.0	ltm	8	diff_vonmises	-0.08439617744316805	-4.835544774530728	2.4423129863634956	0.9116609899495728	1.0014541950110596e-15	1.6581403046030887	0.2660589826521105	-0.2598936117295003	0.5259525943816108	88.00821076564131
13	5.0	perception	8	diff_vonmises	-0.037048965890686784	-2.1227493808604976	1.0777516173900465	12.394689863198908	0.7030437863885279	13.466514245028344	0.5772048011918116	-0.46053327625740237	1.037738077449214	94.83239402617994
14	5.0	wm	8	diff_vonmises	0.02582169852450064	1.4794743453130719	0.6348474995084867	181.0694549236104	0.6216221161982132	181.6476566645189	0.2984521126457409	-0.2849652888331242	0.5834174014788651	112.66555824284839
15	6.0	ltm	8	diff_vonmises	0.17544617389751666	10.052325296046014	1.1089103280291135	35.366711972267005	1.0684361551180375	35.65254216353551	0.16699446669490214	-0.1222983866062135	0.28929285330111565	85.59474214369234
16	6.0	perception	8	diff_vonmises	-0.32985935111582154	-18.899548651860517	0.4047710161590003	4.57295669628438	6.792878314481694e-08	5.174855051065176	0.22399987654699183	-0.3573546939739975	0.5813545705209893	155.3082676723409
17	6.0	wm	8	diff_vonmises	0.446683921597779	25.593103483905296	0.42959376147743417	122.11421260655389	0.4176043582777324	122.0886330683315	0.2758394066943559	-0.17359668278532325	0.44943608947967917	132.9779432101408
18	7.0	ltm	8	diff_vonmises	-0.018033162846618822	-1.03322412238338	0.5519330557318439	112.21748874814672	0.5354948881021181	113.61647885219661	-0.0075689593498573515	-0.32296450479442385	0.3153955454445665	109.62943610671634
19	7.0	perception	8	diff_vonmises	-0.05922400891147029	-3.3932857564724244	1.4969699852336276	4.161036194317557	0.5889754479534421	5.154459066692512	0.4420660644087071	-0.3746374676772155	0.8167035320859226	87.66544825844377
20	7.0	wm	8	diff_vonmises	0.09460542134953796	5.420491362385378	0.780700099743622	124.17367114689071	0.7618591795587887	125.2446263976932	0.12934193677565275	-0.28979221867317406	0.4191341554488268	96.27920840195685
0	1.0	ltm	9	diff_vonmises	0.12957811101841227	7.424278878632652	0.8129001444424983	1.2246896899711142	1.0655112894500152e-11	2.6125581776011972	-0.04092267834887198	-0.34203928606064693	0.30111660771177495	136.56649469382043
1	1.0	perception	9	diff_vonmises	0.0027723581414140293	0.15884442080175692	14.357393584087358	0.4718787000048499	3.7044470889961785e-27	1.9268087213670777	0.4001945000928334	-0.3066611323979057	0.7068556324907391	35.75648573811094
2	1.0	wm	9	diff_vonmises	-0.03831301298025012	-2.1951739441982716	5.442066719484063	0.37140149152679597	1.7231190124983245e-26	1.7522796044873414	0.057986201323230846	-0.2788776428604753	0.33686384418370613	58.47091703299523
3	2.0	ltm	9	diff_vonmises	0.13845716643804762	7.933011280240518	8.221327674611471	0.37016391579825475	0.17212314528177566	1.3061394982028545	0.17148064854215664	-0.21843907134611001	0.3899197198882667	45.734163371789776
4	2.0	perception	9	diff_vonmises	0.03064928715574617	1.7560747991087786	5.488458096941961	1.2534895320495798	0.37050569823328106	2.2965271931284947	0.6303380567387409	-0.3704015437915357	1.0007396005302767	54.50474420419715
5	2.0	wm	9	diff_vonmises	0.13453117432517175	7.708068501771082	1.5805352285765206	1.3292918433418173	0.33237672391040185	2.1230572876880456	0.13597299201455576	-0.22300338318278023	0.358976375197336	90.6350163788795
6	3.0	ltm	9	diff_vonmises	0.06130747650926793	3.5126596565784896	1.5762026185931854	5.0243318798446985	1.1660389459363834	5.7398744883519885	0.10260491168411079	-0.2069232869058556	0.3095281985899664	71.70714551719513
7	3.0	perception	9	diff_vonmises	-0.030600450685605685	-1.7532766754834122	5.0649283887891325	1.5267286900812604	0.12703293901591353	2.1240913658316303	0.9506444523913531	-0.3282814087133003	1.2789258611046534	59.275101675177666
8	3.0	wm	9	diff_vonmises	-0.05696596486591277	-3.2639093627073326	1.1856384513191949	118.13472226869102	1.1640924492026052	118.80642439611944	0.22168236507327066	-0.2279226994070278	0.44960506448029847	80.40523247504962
9	4.0	ltm	9	diff_vonmises	0.0652226620912268	3.7369832664352036	4.12777475135441	0.5461651497042549	0.40152462220984053	1.7104793904755828	0.03633328175683226	-0.2718490167015566	0.30818229845838885	58.18740898629193
10	4.0	perception	9	diff_vonmises	0.03321408982458762	1.9030271673172836	3.445095648738244	1.4606536006827613	7.701027309457416e-16	3.4113127508895023	0.4913139642094244	-0.5418747092374739	1.0331886734468982	73.91319899322431
11	4.0	wm	9	diff_vonmises	0.07515613177885443	4.306129155457403	1.2407254183363838	220.52619126604813	1.2241524222855185	222.10757310604038	0.06515743204101909	-0.39832954775089746	0.46348697979191655	73.04210409119409
12	5.0	ltm	9	diff_vonmises	0.02093016964181845	1.1992103849690392	0.7750890110433089	3.554126432096282	0.2767860397641158	4.0521000526111886	0.2277751119342437	-0.25432277696122724	0.48209788889547095	122.82594927733814
13	5.0	perception	9	diff_vonmises	-0.05784050704996799	-3.3140169388598495	1.9776353981006554	1.728522504302245	2.419846331264877e-17	2.5001987284213407	0.48773070804082014	-0.38095470391308417	0.8686854119539043	97.53655907258286
14	5.0	wm	9	diff_vonmises	0.20277438299586084	11.618116339032152	1.220375460454472	1.2395223725893358	1.1427536046769262e-12	1.773119960980203	0.19239337654775446	-0.24086358337031116	0.4332569599180656	119.68503499931415
15	6.0	ltm	9	diff_vonmises	0.3485009468377198	19.96763341011442	0.6950819599937132	134.5237041608806	0.6830727241679115	134.9998783271752	0.17380375187183716	-0.18781383247089956	0.3616175843427367	106.3153389369356
16	6.0	perception	9	diff_vonmises	-0.16491014361713097	-9.448655228157875	0.8747193774063813	156.4077625189306	0.8566734506892878	157.1342568939185	0.3098359912119406	-0.28162962096754285	0.5914656121794835	95.17293599210406
17	6.0	wm	9	diff_vonmises	0.006620444511480934	0.3793235290084076	0.4019576300611043	159.22102538767592	0.3910752527696923	159.80098433141418	0.18622057116836999	-0.2732165218393625	0.4594370930077325	134.30924769234792
18	7.0	ltm	9	diff_vonmises	-0.0119277771250812	-0.6834112882398393	1.6750476079255405	1.0107720654897085	4.2878036674407705e-15	2.10644321938158	0.13293155519835448	-0.31882569734187444	0.4517572525402289	105.28943959449084
19	7.0	perception	9	diff_vonmises	-0.0522294800032343	-2.992528770348255	0.9966881732732823	281.0833243602655	0.9777869134071352	281.9385048589949	0.7174983713941003	-0.4544054010602032	1.1719037724543035	91.06713444790728
20	7.0	wm	9	diff_vonmises	0.019610203308295323	1.1235818849588064	1.0418386917783897	172.69874826160634	1.0262611992875164	173.81903450209256	0.11894285319135633	-0.29326230658125496	0.4122051597726113	82.16771731612022
0	1.0	ltm	10	diff_vonmises	0.04021340548397592	2.30405841408006	12.215717869082168	0.4375164116950249	0.223270537552221	2.1865190882042036	0.17377917050260883	-0.3890674558957525	0.5628466263983614	37.3742623455895
1	1.0	perception	10	diff_vonmises	0.014359941342289089	0.822764032968591	18.223481681985305	0.6306480152862256	4.40603113271939e-18	2.2688898485728086	0.7052678755734392	-0.3611050347313842	1.0663729103048234	31.711787877323474
2	1.0	wm	10	diff_vonmises	0.1758973262392294	10.078174421143597	4.66190824666354	0.4266703572821067	0.0022627890523363816	2.6584348521123053	-0.06767789930573936	-0.4223231111220027	0.35464521181626335	63.102186153402556
3	2.0	ltm	10	diff_vonmises	0.23216646724890513	13.302158717824517	5.000630714515513	1.0084747723949337	1.3598699292724434	1.4062434797972614	0.3003382785845121	-0.21963568558105429	0.5199739641655664	50.20820429259365
4	2.0	perception	10	diff_vonmises	-0.013632157438569902	-0.7810650868879262	6.912511452161932	1.2069137340088176	0.5022205784975492	1.6903401441649386	0.8234394705244186	-0.2896757456202226	1.1131152161446412	48.999654808096295
5	2.0	wm	10	diff_vonmises	0.09914056177363029	5.680335768185039	1.1322089654023093	79.65202511743678	1.0980618909071316	80.60723725048102	0.16422279418950936	-0.27280319574749434	0.4370259899370037	80.41289517674352
6	3.0	ltm	10	diff_vonmises	0.13994450862825628	8.018229710431218	2.5461269272096727	93.63237459614456	2.522236495999366	93.78254157778693	0.2184589607729066	-0.1273259553875956	0.3457849161605022	56.243807723432184
7	3.0	perception	10	diff_vonmises	-0.06844876638469306	-3.9218254267198547	5.381968598166408	1.0235347735132427	0.018001286107187927	1.0505375146472966	0.7527296633884595	-0.1654959091712602	0.9182255725597197	58.619296808439174
8	3.0	wm	10	diff_vonmises	0.05701266249826032	3.2665849399541007	4.135354704002699	0.7876595378433066	0.621660892094904	1.3000138924037592	0.2660902038368145	-0.19275663575899696	0.4588468395958114	59.12387403846421
9	4.0	ltm	10	diff_vonmises	-0.02456050608812355	-1.407213341554843	1.678154564332423	172.67379404869646	1.6607300023118194	173.41957177342212	0.1635260194644701	-0.25249841170411	0.4160244311685801	65.50281755772738
10	4.0	perception	10	diff_vonmises	-0.053052346769348356	-3.039675563148169	2.6140416477456663	2.107726734365162	4.779001632496913e-17	3.138316817153423	0.7755995259969005	-0.49263936638621336	1.2682388923831138	85.06847635757404
11	4.0	wm	10	diff_vonmises	-0.04759337473387212	-2.7268995050354397	1.3647581795975643	275.97436477978715	1.349916973087832	277.43361635060523	0.14371516472716905	-0.4040104878600772	0.5477256525872463	70.98703442154809
12	5.0	ltm	10	diff_vonmises	-0.10104881953905871	-5.789670884367153	2.6229708613277603	0.6216389487829328	2.420125394148558e-19	1.0515292550556592	0.20944917181681902	-0.16537067538079805	0.3748198471976171	84.91995240237921
13	5.0	perception	10	diff_vonmises	-0.028148308769200832	-1.6127792929062925	1.114563120935089	9.120976070532272	0.672300110059215	9.819633701647144	0.5707939623291067	-0.37856986564988726	0.949363827978994	95.97240654137528
14	5.0	wm	10	diff_vonmises	0.24839946000862786	14.232240691823051	1.7826103435827185	0.7614974245777546	1.1590655957871723e-42	1.3723858544825376	0.1479229741826248	-0.20805751830722047	0.35598049248984526	102.22563618616775
15	6.0	ltm	10	diff_vonmises	0.28715765488783335	16.452921679947085	1.0404002822834815	91.2496864261099	1.0274157566144158	91.60273725510704	0.10095204144174019	-0.11421713118505039	0.21516917262679058	85.46129537036279
16	6.0	perception	10	diff_vonmises	-0.27066249166625217	-15.507818444971067	0.5966900910171145	146.0094515391999	0.5762751515174701	146.73288691964467	0.37449585877804736	-0.37048346975492663	0.744979328532974	116.30621422207656
17	6.0	wm	10	diff_vonmises	0.22582738375714545	12.938955987765635	0.5768492673420191	2.806292289952732	3.712616792957201e-16	3.364605877955379	0.1974517903775126	-0.3042727882788878	0.5017245786564004	147.38194300601666
18	7.0	ltm	10	diff_vonmises	-0.1048639231299807	-6.008260218532188	2.2281842303036052	0.50451816539474	1.5783712248589077e-16	1.3985504759220886	0.055152088310331	-0.21936322681704373	0.2745153151273747	92.07983537331113
19	7.0	perception	10	diff_vonmises	0.02918233265225691	1.672024497321135	1.9774092495432951	2.079366950945119	0.27937719918873094	3.1733670009429735	0.4103430175940257	-0.37626345250177495	0.7866064700958006	86.25949868131977
20	7.0	wm	10	diff_vonmises	0.536937318432912	30.7642422092778	120.332137584902	0.43663114602410924	6.942329699542389e-49	1.4370034636961742	1.6781597016280776	-0.2287062044874211	1.9068659061154987	12.32423071227771
0	1.0	ltm	11	diff_vonmises	-0.2724826298642099	-15.612104681844592	0.2870153792624455	97.91224403017468	0.2713354749745284	101.14470034319804	-0.389553805183116	-0.5914177358222368	0.20186393063912078	130.2775990846659
1	1.0	perception	11	diff_vonmises	0.09616327934664214	5.509750050700151	8.156017789249436	0.7543297458804784	0.1078131690356688	4.076802441680485	0.12457384747858158	-0.6696104059496059	0.7941842534281874	46.01509988987843
2	1.0	wm	11	diff_vonmises	0.09964644278974573	5.709320615344243	9.657794354825553	0.329389958489816	1.2943935704934704e-39	3.809688623881163	-0.2035623741535631	-0.6063307744853446	0.40276840033178146	43.6865874864381
3	2.0	ltm	11	diff_vonmises	-0.026485148302383077	-1.5174872175046275	6.286783605563533	0.45466081898496347	1.3793696089483863e-19	2.3810671680518585	0.06591161424785269	-0.37895706865242074	0.4448686829002734	54.329741062488296
4	2.0	perception	11	diff_vonmises	0.025610368443490142	1.4673660235870125	6.920311348892326	1.302614168899771	0.21643455561435548	3.6185078412826677	0.6334191629763384	-0.5996689144150352	1.2330880773913737	49.512052478637514
5	2.0	wm	11	diff_vonmises	0.11034423086839674	6.322258722376312	2.752776639667544	0.7867220461283506	3.9644887419255646e-19	2.6100749426583	0.07501553970523817	-0.41341301257101776	0.4884285522762559	82.87434059060072
6	3.0	ltm	11	diff_vonmises	-0.03643882499096782	-2.0877908823982865	4.857179291606553	0.5284622932513332	2.516387475496155e-18	1.6017229080663362	0.19629027197707233	-0.25489486030398734	0.45118513228105966	61.970379402703855
7	3.0	perception	11	diff_vonmises	0.021815362474028974	1.2499281983099342	3.588108860146412	2.666512797018304	0.5151663766839769	3.839730868536419	0.9728792918436733	-0.5270561321071493	1.4999354239508227	64.64037652448917
8	3.0	wm	11	diff_vonmises	-0.11992974279060467	-6.8714680999911595	1.1278342165603794	208.94225956052648	1.1136862468057513	209.94750814316382	0.1870395036792445	-0.2919057886807437	0.4789452923599882	80.45412511179418
9	4.0	ltm	11	diff_vonmises	-0.054954767884625916	-3.148676263910144	2.1230078813381392	1.4793583223414701	0.3387833038472318	3.55396218139256	0.01970881818964698	-0.45537229975847715	0.47508111794812413	76.96793213943465
10	4.0	perception	11	diff_vonmises	-0.06739048826355552	-3.8611905568276392	2.674023208724544	2.6057585389351985	0.39059996260850394	4.910977318391501	0.48503499635668956	-0.6424500976039085	1.127485093960598	72.44428466687111
11	4.0	wm	11	diff_vonmises	0.0022795405814279484	0.1306080545446192	0.8177804111975979	206.27242744209255	0.8021337950977128	208.32423668962105	-0.007556894602053887	-0.4529119883139643	0.4453550937119104	88.71881617219665
12	5.0	ltm	11	diff_vonmises	-0.078522569842415	-4.499011848491617	1.813574199032144	1.2022523098803837	4.233160628556049e-14	2.6971084478732266	0.15518687663659758	-0.41371449647308073	0.5689013731096784	101.55988249749963
13	5.0	perception	11	diff_vonmises	-0.05507159062430581	-3.1553697138449577	1.1771902092986075	6.513687468026761	0.49685097864700517	8.026397847709342	0.46638487015640595	-0.5209489756351062	0.9873338457915122	96.7420870608947
14	5.0	wm	11	diff_vonmises	-0.03551729999707633	-2.034991389532485	0.440660571774714	180.27716614030706	0.42824009498255133	181.68184954200498	0.08585540988181606	-0.40625732089888444	0.4921127307807005	126.30854869949135
15	6.0	ltm	11	diff_vonmises	0.23620139490701342	13.533343043274726	0.6216023196278592	190.7357295558366	0.6111346199595807	191.98452921928356	0.044187501874866086	-0.30533401535590343	0.3495215172307695	104.94929839301733
16	6.0	perception	11	diff_vonmises	-0.0934452717523436	-5.354019686862339	0.7311414716420117	280.3606868024085	0.7202265204851004	281.6631686462565	0.20815342438044127	-0.3796552055834681	0.5878086299639094	100.400316605525
17	6.0	wm	11	diff_vonmises	0.026928716155893387	1.5429017834384453	0.5034957721117354	142.49963799094203	0.49019671846039675	143.72329633384103	0.05432962585199874	-0.32675361000116787	0.3810832358531666	118.16604285226377
18	7.0	ltm	11	diff_vonmises	0.03235166567116072	1.853613903175779	0.8630931051444718	174.9101190772091	0.8473364061838597	176.54614889846118	0.014255635575281644	-0.36900300094151106	0.3832586365167927	86.92283711640354
19	7.0	perception	11	diff_vonmises	-0.1142026353819458	-6.543329016656901	1.8301004907406782	2.436612740049956	9.189679365266129e-14	3.4603311652583275	0.6403341174104242	-0.5200823642466774	1.1604164816571017	101.12124793613161
20	7.0	wm	11	diff_vonmises	-0.2312923632327655	-13.25207624684428	1.1439637548610315	157.19545242111136	1.1237186966390975	158.29234862591565	0.19296493950663773	-0.3153600703828836	0.5083250098895213	79.78131210425722
0	1.0	ltm	12	diff_vonmises	-0.026038302361049585	-1.4918848309736679	3.394674713312048	0.3172761837324189	1.2480196008432964e-16	2.663005072922033	-0.20104523673593092	-0.42357956860107604	0.22253433186514512	74.48228798023962
1	1.0	perception	12	diff_vonmises	0.022612252893108604	1.2955866560576084	13.730037348103703	0.6072902655443374	3.7182627388721175e-20	2.747656024182756	0.45180111548460083	-0.4373030381638547	0.8891041536484555	36.574577228153686
2	1.0	wm	12	diff_vonmises	0.046034506719110774	2.6375829469716776	7.967647756510575	0.32923780221266963	4.38209267831489e-17	2.87340932885031	-0.09281244137313999	-0.4573172544374182	0.36450481306427823	48.161645231004115
3	2.0	ltm	12	diff_vonmises	0.08487375601615126	4.862908011148547	4.463308853545777	0.6450154362561104	0.3418080160319117	1.8983991300128045	0.1131847046622243	-0.30212256114471003	0.41530726580693433	57.89052108721157
4	2.0	perception	12	diff_vonmises	0.005790122307623427	0.33174957109137126	7.086374615020341	1.2340450233706277	0.25402039528670556	2.5765001195415875	0.7653425774439365	-0.42853304442199613	1.1938756218659328	49.143765174260494
5	2.0	wm	12	diff_vonmises	0.08272195336364267	4.739618800814749	3.522822680295191	0.5886756427002692	2.2203187907179004e-11	1.8901223493533337	0.1211942754177443	-0.3004546296813504	0.4216489050990947	73.07449627882377
6	3.0	ltm	12	diff_vonmises	0.09569670850141157	5.483017510424588	5.432706899779174	0.44267437165176043	0.15601648249299116	1.033564079668418	0.2099802399470827	-0.16349639998584126	0.37347663993292396	56.33022128728254
7	3.0	perception	12	diff_vonmises	-0.03854864791963792	-2.2086748317310136	5.819376705422648	1.2110773207022116	5.575272240474748e-17	1.659870478203664	0.8738781334150147	-0.2641665557379417	1.1380446891529563	56.5037457224301
8	3.0	wm	12	diff_vonmises	-0.0730234061629125	-4.183932978804491	1.4884000690255823	165.63843829075105	1.4715102053884395	166.21430027896017	0.2448694081706151	-0.2215022397627031	0.4663716479333182	71.90937992302432
9	4.0	ltm	12	diff_vonmises	-0.11142663407110802	-6.384275857623112	1.1250701824477978	19.021333884102816	0.9781778759560374	20.505280827033502	0.024845691172630247	-0.3475892499978084	0.3724349411704386	78.41715613454676
10	4.0	perception	12	diff_vonmises	-0.02825423040209891	-1.6188481554304865	3.1370315209205293	1.7153400652726816	1.7396782652560526e-16	3.7111957987792774	0.5616031279958352	-0.5884833594422213	1.1500864874380565	77.55031812519655
11	4.0	wm	12	diff_vonmises	-0.06789303910916572	-3.889984599271834	1.1599680406010362	308.41486163924725	1.1476218933489575	310.18539606156713	0.05392838913512321	-0.43176990985870134	0.48569829899382455	75.2148119800274
12	5.0	ltm	12	diff_vonmises	-0.04376645821170888	-2.507633339766603	2.1839753133602087	0.9566972365539096	5.256530870232148e-16	1.6136765746939195	0.26352204166728616	-0.25022700394130354	0.5137490456085897	92.99843269790878
13	5.0	perception	12	diff_vonmises	-0.04267845354642884	-2.445295264355513	1.97964518930258	2.0345335052430618	0.08228521276945962	2.829269597464056	0.5549671399711198	-0.39412292783541547	0.9490900678065353	93.98929385723824
14	5.0	wm	12	diff_vonmises	0.0010556892675793305	0.060486539509552684	0.5613614082596322	176.51210378689515	0.5499989886487826	177.1225519621871	0.22141472737469314	-0.2672387743354143	0.48865350171010746	118.22229221727866
15	6.0	ltm	12	diff_vonmises	0.23837428492252466	13.657840470509637	0.8784824761211257	98.85494675988876	0.8633177469468463	99.24742987728209	0.16193704445171164	-0.14967973810164992	0.31161678255336156	94.76306172271703
16	6.0	perception	12	diff_vonmises	-0.21999731418695584	-12.604917607126119	0.6445983131592874	145.07397723737793	0.6294260445272177	145.64546564736207	0.26297989818538525	-0.2627235953724174	0.5257034935578027	111.49701877948273
17	6.0	wm	12	diff_vonmises	0.1713203650192009	9.815933860240916	0.364666709502994	132.47236145701584	0.35381355370892176	132.784369303834	0.19271848476757114	-0.2158815854858549	0.40860007025342604	138.99352871974088
18	7.0	ltm	12	diff_vonmises	-0.004911879269023957	-0.2814299515928766	0.8297074653339902	135.73127075051084	0.8143168882193503	136.81950026693633	0.06542704923520404	-0.2658590791027944	0.3312861283379984	91.14163744145733
19	7.0	perception	12	diff_vonmises	-0.1009237806272563	-5.782506682445966	0.9515409300321085	41.62407141420837	0.8538340670312521	42.325054547789605	0.5542956911788668	-0.37034525274311614	0.9246409439219829	95.12598392679575
20	7.0	wm	12	diff_vonmises	-0.07456287442506988	-4.272138012920449	0.886069172370077	109.95683295501918	0.8685190962285476	110.84620798172088	0.08620539244646608	-0.22884045994292812	0.3150458523893942	89.314841603073
0	1.0	ltm	13	diff_vonmises	0.23661914869164297	13.557278572009617	0.5699114514415164	82.33991681842097	0.5409189908604906	85.69221766249274	-0.40324778149675566	-0.5931533882749722	0.18990560677821655	89.76131319074153
1	1.0	perception	13	diff_vonmises	0.06797405050544983	3.8946262103713756	14.509207049264806	0.6079661472078107	5.047417478558157e-15	3.095833022045954	0.42291229723237667	-0.492717128445503	0.9156294256778796	35.567448266249755
2	1.0	wm	13	diff_vonmises	0.12655902398497965	7.251297933634291	8.35825094909286	0.36964760241666345	0.012034162924827105	3.9260032602548605	-0.21284186772057018	-0.6259146651964733	0.41307279747590314	46.57430594798362
3	2.0	ltm	13	diff_vonmises	0.10406149192829639	5.9622842973260655	7.919120297407851	0.460997446736831	0.22212918336888132	2.0301532763353305	0.11029977096367793	-0.3469473994069296	0.4572471703706075	45.70124570347804
4	2.0	perception	13	diff_vonmises	0.0319143184525684	1.8285557533686538	8.39251089568571	1.3243224870861319	0.24279372576034278	3.0424170926766605	0.8980452334098097	-0.5173465407053155	1.4153917741151252	45.35802580567642
5	2.0	wm	13	diff_vonmises	0.02580662610210058	1.47861075912251	1.977388159237071	1.6920943303377978	0.4167671297106653	3.507475695505487	0.055643380404210574	-0.4150303952461234	0.47067377565033397	77.62725144417192
6	3.0	ltm	13	diff_vonmises	0.1875723603107857	10.747104599115211	8.74659420470729	0.32186228085487517	0.06537274933687928	1.0076819782920687	0.2029510594748561	-0.16264503278084547	0.36559609225570155	45.33617960481408
7	3.0	perception	13	diff_vonmises	-0.06498596074657847	-3.723421278381783	6.386863800231016	0.974985298149893	2.2218941388118033e-13	1.3783172112108792	0.7426963104629855	-0.21936327016657758	0.9620595806295631	53.88816465422735
8	3.0	wm	13	diff_vonmises	0.03336566541316422	1.911711808819934	1.6601222800056257	106.01168107120466	1.6286605516952564	106.71415949152228	0.24557737830745197	-0.2634578555000573	0.5090352338075093	67.37350537105857
9	4.0	ltm	13	diff_vonmises	-1.3028065900109653	-74.64531912945891	0.0001828051934598271	7281.4160807979015	1.4905550892802508e-29	7283.752884308059	-0.16006013918695317	-0.5837481581854718	0.4236880189985186	136.8600902617802
10	4.0	perception	13	diff_vonmises	0.014941588951574136	0.8560899861444986	2.07240355917611	1.9798688880536586	1.7388339568491646e-12	4.55117200557302	0.31919322654709703	-0.7078049401498695	1.0269981666969665	95.3844564707438
11	4.0	wm	13	diff_vonmises	0.03686522785084652	2.112221966641644	1.2318268624678892	209.81439030187244	1.2110435966747255	212.22182987633218	-0.1147658559155218	-0.5500290835774706	0.4352632276619488	69.3111808943213
12	5.0	ltm	13	diff_vonmises	-0.07372837738933127	-4.224324854756449	2.7355685173488054	0.7480811004896172	2.0938610201520164e-11	1.632682798425301	0.2048060158542619	-0.25789490714656327	0.46270092300082516	83.14070829270798
13	5.0	perception	13	diff_vonmises	-0.06860132166753652	-3.9305662005692095	1.2877432104485471	5.053505997463021	0.4947090761625836	6.080801893080115	0.5029639667323245	-0.4228009110528353	0.9257648777851597	95.35436284963811
14	5.0	wm	13	diff_vonmises	-0.047688805448227234	-2.7323672822039065	0.6778326867528754	184.44793844155657	0.6644248766569658	185.2290845499615	0.253672932573771	-0.29636898522737454	0.5500419178011455	107.3162131235296
15	6.0	ltm	13	diff_vonmises	0.22773867576469073	13.048464953215065	0.971885038565228	92.63858754341437	0.9550690434035923	93.14752455406516	0.12598086057138147	-0.15832201252541012	0.2843028730967916	88.13050547467202
16	6.0	perception	13	diff_vonmises	-0.31837111478321883	-18.24132119595353	0.4033460947411544	110.29571388555479	0.3844410952496509	110.8956219876685	0.24681842205556848	-0.31966255327708915	0.5664809753326576	134.2379951168945
17	6.0	wm	13	diff_vonmises	0.3545253512096243	20.31280635470471	0.23639179080826409	125.15029259786816	0.222417832493598	125.60561867391421	0.21675254139672973	-0.3005867612586002	0.5173393026553299	151.2967964456521
18	7.0	ltm	13	diff_vonmises	0.10357471108711028	5.934393809578274	1.0941006128032258	209.04462364739717	1.0805481249112714	210.71582575333355	-0.06522029005250829	-0.3695201833163253	0.304299893263817	74.05680852563265
19	7.0	perception	13	diff_vonmises	-0.08966162517349226	-5.137232706725044	1.8755998973361576	2.12418275797894	0.22532582792121988	2.874618014155717	0.4880764600817745	-0.34248456042313175	0.8305610205049063	90.94311733282439
20	7.0	wm	13	diff_vonmises	-0.2605684058859242	-14.929469931715257	0.708817589499934	55.98676126608813	0.6754658700851638	57.3480507620263	-0.025235675741200225	-0.2937677803104757	0.26853210456927545	95.3494601878479
0	1.0	ltm	14	diff_vonmises	0.19426387088317748	11.13049991348043	0.5234533379904369	71.06904213919363	0.4989585730007897	73.43050509025161	-0.256288258280982	-0.426703826491325	0.17041556821034298	97.61476024596465
1	1.0	perception	14	diff_vonmises	0.030809259407686435	1.7652405339841593	13.588972390798927	0.5906448380373536	4.198754492428214e-17	2.5238992666982356	0.4585606463010027	-0.4016910441596805	0.8602516904606832	36.76500165700196
2	1.0	wm	14	diff_vonmises	0.054790145226260585	3.1392440803735866	8.562907072186453	0.30870720458885953	0.007336964924649872	2.8706317311078764	-0.10542796116648556	-0.45716453375911104	0.3517365725926255	46.185327380372314
3	2.0	ltm	14	diff_vonmises	0.07283309754760393	4.173029098342332	15.946564914149752	0.30375262197974867	0.19307058294411245	1.5091720351250957	0.19132005230368998	-0.268455576032863	0.459775628336553	33.11977826611616
4	2.0	perception	14	diff_vonmises	0.013803079009057693	0.7908581715046245	8.913828328096747	1.191520040212233	0.2374935651487952	2.4204644683085896	0.9164158538106489	-0.4123487675171622	1.328764621327811	44.24780198299371
5	2.0	wm	14	diff_vonmises	-0.0021804117180512362	-0.12492838904520465	0.9690636922160658	44.194082484898125	0.907728360176906	45.60624017748227	0.05731738182905488	-0.3357863918790036	0.3931037737080585	84.25785100095001
6	3.0	ltm	14	diff_vonmises	0.18941670204466662	10.852777596446428	6.249477884945065	0.3688891957729003	0.36689271830814724	0.7871735656099149	0.18501538010679708	-0.13185999264319492	0.316875372749992	51.110531474362375
7	3.0	perception	14	diff_vonmises	-0.060134270274662734	-3.4454398908371764	6.1494068401961295	1.049750417304502	4.7645778022890844e-15	1.2919730430389056	0.8097207711428355	-0.2056192673456254	1.015340038488461	54.94070659468014
8	3.0	wm	14	diff_vonmises	-0.010821962823245598	-0.6200527958194536	1.7946113763338667	113.40505822259259	1.769502309685465	113.87820934363096	0.2410388687022973	-0.207180053791566	0.4482189224938633	65.56516969864438
9	4.0	ltm	14	diff_vonmises	0.04874664843912618	2.792977220969912	1.2172119149282676	17.2142956109282	1.071828178854897	18.80274766994071	-0.09848779432024113	-0.34850192075950925	0.2500141264392681	70.63217983535236
10	4.0	perception	14	diff_vonmises	-0.029424012848192793	-1.6858717525401556	2.7069952057287896	1.8397875146897957	3.776214091758531e-18	3.821728841161028	0.5275459461232014	-0.6031879933760199	1.1307339394992213	83.58577322704627
11	4.0	wm	14	diff_vonmises	-0.0058469512167865015	-0.33500562774074777	1.30957163437005	246.85034823893943	1.293774574619513	248.7210355929428	-0.03281868575494684	-0.4522613577644421	0.41944267200949525	68.70478657263911
12	5.0	ltm	14	diff_vonmises	-0.04971992248751869	-2.8487417162524147	2.751957621313097	0.718194500832645	3.6638705646140876e-12	1.355137770971137	0.23196487615438588	-0.2138545789258786	0.4458194550802645	82.89060425955927
13	5.0	perception	14	diff_vonmises	-0.05500728709410115	-3.1516853929564386	1.8156521212168946	2.241130861517724	0.1744211669336998	2.9224493215498324	0.5407306001457817	-0.3600894044144888	0.9008200045602704	94.28137452094089
14	5.0	wm	14	diff_vonmises	-0.04310279706038125	-2.469608356768737	0.6638129264523827	154.23887006109663	0.6506662010718975	154.8011072197075	0.23085316604012007	-0.23987711790291044	0.4707302839430305	109.34853657172496
15	6.0	ltm	14	diff_vonmises	0.26141932335256995	14.97822391126802	0.9303067404706172	93.2048366860202	0.9157125762021012	93.5915211706021	0.13280751384508704	-0.13498621477994988	0.2677937286250369	91.32283214967032
16	6.0	perception	14	diff_vonmises	-0.27644343487156425	-15.839042092240279	0.6322929475105316	139.38886251638021	0.6171932263944445	139.80719420484263	0.2867999991004382	-0.2443687569261357	0.5311687560265739	113.74309418989981
17	6.0	wm	14	diff_vonmises	0.2023728610089003	11.595110823797606	0.1934984833420097	115.4636812094622	0.18017293918629143	115.81350425211934	0.19926706288859108	-0.2662333532173573	0.4655004161059484	157.5689419371446
18	7.0	ltm	14	diff_vonmises	0.07150804886082118	4.097109400940328	1.162597003380497	155.7843472520686	1.1472412268974186	156.92180241563193	0.024610511614341135	-0.2746504459650616	0.29926095757940274	74.83350624011217
19	7.0	perception	14	diff_vonmises	-0.11163981230142873	-6.396490070504556	1.8027340972924542	2.182744341109216	0.2328689892106754	2.7346469599499135	0.5152698047440293	-0.31551754936133364	0.830787354105363	92.82503194979104
20	7.0	wm	14	diff_vonmises	-0.25308087598277973	-14.500466069287079	0.6862458049988921	75.23800410650392	0.6678617091160182	76.24672286613368	-0.017542410697899413	-0.21853338935976385	0.20099097866186444	96.56589901972615
0	1.0	ltm	15	diff_vonmises	-0.0425078190291547	-2.435518626676453	17.10677634306129	0.29538802254067137	0.10981942168870318	3.224802199839138	-0.08758975699035343	-0.5498086492707648	0.46221889228041135	31.944200647413936
1	1.0	perception	15	diff_vonmises	0.05366326681232196	3.074678703230507	14.205812489505014	0.7475406508094719	8.998235161227659e-22	3.5757194232647334	0.5447024028578707	-0.5690934213217732	1.113795824179644	35.94605693308813
2	1.0	wm	15	diff_vonmises	0.24441109911459674	14.003724445420046	6.658027852360141	0.3804712348141218	1.169832231457442e-32	3.996627604181993	-0.25236885557472066	-0.6360824066101158	0.3837135510353952	52.757110977961275
3	2.0	ltm	15	diff_vonmises	0.18254584386513534	10.459106421126346	6.563279872701817	0.6254407531289317	0.4909920220432689	1.5328935897786278	0.2502918837494023	-0.27040543958196095	0.5206973233313632	48.655679127729854
4	2.0	perception	15	diff_vonmises	-0.0055556998657957015	-0.31831815455149154	8.016785510117877	1.2303356128051095	0.26371307738217015	2.355685384307063	0.8868461690357832	-0.39857711235938575	1.285423281395169	46.45487497996655
5	2.0	wm	15	diff_vonmises	0.08998080094033928	5.15552013108823	3.1942485447885156	0.7296210019902875	2.0234104434141487e-13	2.3419417352804213	0.12244159525251885	-0.37189930662531046	0.4943409018778293	76.83231351295171
6	3.0	ltm	15	diff_vonmises	0.12844764049393978	7.359507688716438	2.1944291762655093	40.10457787771522	2.1386705527074903	40.350995817696806	0.20254436467179815	-0.14362690597203187	0.34617127064383	60.092687926875584
7	3.0	perception	15	diff_vonmises	-0.003600105797877519	-0.20627086801895964	3.4685726695298738	1.9223344207139603	0.5373373874563798	2.1754227509606734	0.8142973944304158	-0.28067356188995124	1.0949709563203671	66.6773625933767
8	3.0	wm	15	diff_vonmises	-0.01617401300805618	-0.9267026831513123	2.5273609068517966	1.2959895657119047	0.6866109477300103	1.9249369410223947	0.22585530052796088	-0.21357191573311796	0.43942721626107883	70.24380465968642
9	4.0	ltm	15	diff_vonmises	0.012266021052447533	0.7027912377238598	1.3920367179058042	246.50971296041928	1.3766922070684993	247.7317082976177	0.17448986567143265	-0.3563551493115398	0.5308450149829724	71.17601527187415
10	4.0	perception	15	diff_vonmises	-0.10990470103651787	-6.2970755180395575	2.1259288502533904	3.5866531741778434	0.433051976609146	4.84988732288332	0.7833065726432826	-0.5266849923153762	1.3099915649586589	81.07649270363135
11	4.0	wm	15	diff_vonmises	-0.16428507696629424	-9.412841547150554	1.1902667437890657	365.0937639729433	1.178192349648161	366.7410224282875	0.198250074210506	-0.44832484981068177	0.6465749240211878	76.83623611695734
12	5.0	ltm	15	diff_vonmises	-0.15487629343038772	-8.873757960190936	2.5042304622402956	0.6635941324023634	1.3356117144339088e-22	1.5744514393224676	0.1409012740116492	-0.2479661297072431	0.3888674037188923	86.90736769316348
13	5.0	perception	15	diff_vonmises	0.004881138288982344	0.2796686231783963	0.8961539719437281	280.59465415697105	0.8783797730618329	281.64906123712785	0.6144665966198772	-0.47199312600750076	1.086459722627378	95.02880911862206
14	5.0	wm	15	diff_vonmises	0.19107348177604166	10.947704082637037	1.266144621593723	0.9285541892294397	7.561748302370747e-15	2.118731628582044	0.02613029431906405	-0.30832970126658	0.33445999558564404	118.06311302455086
15	6.0	ltm	15	diff_vonmises	0.4030258330832669	23.091679270415177	1.0029463202770315	88.89255103295928	0.9855378021557705	89.66596647312967	0.03072005360283825	-0.18489767892429043	0.21561773252712868	81.69448130838694
16	6.0	perception	15	diff_vonmises	-0.17709119366862158	-10.146577986145902	0.5022796587115859	287.0773157088625	0.49178462850304544	288.1757140771187	0.29352464091149955	-0.4414038150411841	0.7349284559526836	123.05573822670804
17	6.0	wm	15	diff_vonmises	0.0839593634803087	4.810517178026504	1.0359767724935016	1.4278695324262585	2.4838335556862513e-10	2.640894828809577	0.0773057842953247	-0.35764108194609096	0.43494686624141565	127.02773146929232
18	7.0	ltm	15	diff_vonmises	0.12423539840036683	7.118163994467358	4.276921346875757	0.33823264300433536	5.208078736018776e-16	1.3561604955997988	0.05384897407142997	-0.21578764883572318	0.2696366229071532	66.14695702911388
19	7.0	perception	15	diff_vonmises	-0.0022224267795461702	-0.12733567474484697	1.9473767096518264	1.816164647480597	0.09507620029939512	2.7050857615773727	0.44953098807098896	-0.37184000783380644	0.8213709959047955	93.8542846213449
20	7.0	wm	15	diff_vonmises	0.06484474965257095	3.7153304786747268	1.8344577119478742	0.6934175059329223	1.6640317261770034e-10	1.8210378882625793	0.04963097735009664	-0.281169209071558	0.33080018642165465	101.02043846539055
0	1.0	ltm	16	diff_vonmises	-0.36913819179477886	-21.150060446931544	0.6485671590689229	104.7781888735513	0.6269713899704065	107.32596088820793	-0.2599209806786362	-0.4697782713274208	0.20985729064878456	88.55172203088493
1	1.0	perception	16	diff_vonmises	0.0189842626926828	1.0877181294583882	10.747276496139376	0.7667092317600449	2.6473301554511956e-19	3.4938742249903654	0.4344711178206082	-0.5560673529905277	0.9905384708111359	41.38465250747515
2	1.0	wm	16	diff_vonmises	0.06031670569703229	3.4558926705726387	15.143644641788296	0.2721055404114988	2.3905430228083218e-21	3.113027896375078	-0.0768123583382504	-0.4954537776910288	0.4186414193527784	34.818387367509814
3	2.0	ltm	16	diff_vonmises	-0.05109709476468727	-2.9276478753965947	2.329606877123504	1.169743553576618	0.3587515485881172	2.6843931296290986	0.06885626958541635	-0.3494521213863214	0.4183083909717378	74.70962525009509
4	2.0	perception	16	diff_vonmises	-0.02114278786448922	-1.211392511775647	7.371871975118764	1.1713015208950837	0.09990962658502076	2.7403439451584144	0.7648682232188024	-0.44122576372275973	1.2060939869415621	49.188854594957746
5	2.0	wm	16	diff_vonmises	0.13542275364126466	7.759152233684366	1.1373585096344747	1.380506725782168	8.110439264392196e-40	2.769739623627316	0.06653249497148639	-0.3886479061409516	0.455180401112438	122.93020852040887
6	3.0	ltm	16	diff_vonmises	0.04596512588167228	2.6336077178073687	5.029277285691185	0.5115047417108547	2.3825268874623653e-20	1.1177396419606136	0.26698717036469044	-0.17787473632617234	0.4448619066908628	60.88038286347833
7	3.0	perception	16	diff_vonmises	0.027276886452375318	1.5628504719786784	3.0161869295647246	3.274524056460788	0.7640171090741019	3.8977231031824213	0.9943584826916356	-0.43920087354135606	1.4335593562329918	67.46378308882359
8	3.0	wm	16	diff_vonmises	-0.1950798005916941	-11.177249242157773	1.3712413591553327	116.93661274791931	1.3491490991115627	117.3802235881197	0.2842888655554532	-0.1982657604202558	0.482554625975709	76.4668924672477
9	4.0	ltm	16	diff_vonmises	0.03685786679261104	2.111800209072001	2.894793111007336	1.3678579098184922	0.43164122559013113	2.6607770412509337	0.2550682243892236	-0.3574380353588851	0.6125062597481087	69.24958159392898
10	4.0	perception	16	diff_vonmises	-0.10273997672595847	-5.886567053669726	3.0498664616452813	2.3888521142631958	0.235055017584635	4.10908745486528	0.7633771771425639	-0.5753525370549732	1.3387297141975372	72.61970487055044
11	4.0	wm	16	diff_vonmises	-0.19585437900570046	-11.221629316182273	1.131918311137533	262.68837469841463	1.1154859150907104	264.1117181470745	0.28850781242439894	-0.4211977600681891	0.709705572492588	80.62883452238646
12	5.0	ltm	16	diff_vonmises	-0.0371196148961535	-2.1267972707005374	1.8552020874562725	1.1495560096633233	1.391520449564268e-19	1.9063191783353755	0.2632269676653526	-0.2895359712657435	0.5527629389310961	100.50457670957482
13	5.0	perception	16	diff_vonmises	0.015419489064886405	0.8834716456661154	1.8827883639062746	2.582664895914497	0.14887797691099566	3.2893743431589635	0.6802754279395045	-0.41944065188661156	1.099716079826116	93.89393503454414
14	5.0	wm	16	diff_vonmises	-0.010272351191215256	-0.5885623689328179	0.5079027355861101	147.87224844020764	0.49511820905748216	148.6112290921444	0.1717444992343502	-0.28041344048032	0.4521579397146702	122.28157470833496
15	6.0	ltm	16	diff_vonmises	0.3092105841785347	17.716461454204705	0.9023896497897664	107.13804451739264	0.8883295097075053	107.57783203478715	0.14600540479591473	-0.15250935127322762	0.29851475606914235	92.64387976164241
16	6.0	perception	16	diff_vonmises	-0.10138451255242924	-5.808904677245312	0.6685515338042171	170.95491289504892	0.656499691293644	171.55963218611845	0.2248433348802621	-0.2451090584333624	0.4699523933136245	108.53633583993322
17	6.0	wm	16	diff_vonmises	-0.2613909013560926	-14.976595450824533	1.0359712299320574	88.21355865045975	1.0170491411016436	88.59332361476758	0.18400959972459674	-0.150077328062574	0.33408692778717075	87.61807142368187
18	7.0	ltm	16	diff_vonmises	0.13444782059043822	7.703292684564198	0.5577186219972129	45.289504035410616	0.5235806807620295	45.97302994805853	0.1189731801803191	-0.22842044872757672	0.3473936289078958	117.20884839063581
19	7.0	perception	16	diff_vonmises	-0.14805074755881897	-8.482682988877103	0.9412018095951928	68.48319825288165	0.8833637962313349	68.76833381685852	0.6627015593407357	-0.32561147022056414	0.9883130295612998	96.81946941063755
20	7.0	wm	16	diff_vonmises	-0.014026812641162678	-0.8036771643593728	0.9213748230736901	18.92731563124377	0.830093803750509	19.289420721067238	0.21731652184273553	-0.16537779824127385	0.3826943200840094	95.76668500071105
0	1.0	ltm	17	diff_vonmises	-0.062004233650773656	-3.5525809001323667	6.721250114353281	0.3902594276944659	0.13011755398036787	2.8943662986284746	-0.12699714536641038	-0.4765659982017059	0.34956885283529554	49.274796522607886
1	1.0	perception	17	diff_vonmises	-0.006970501187272074	-0.3993802991216193	14.862299033079879	0.6567875167206164	8.366245716435252e-18	3.051800429442969	0.5152951707144919	-0.485709123675694	1.001004294390186	35.146281150705676
2	1.0	wm	17	diff_vonmises	0.03228588371977468	1.8498448749932241	8.648093141386045	0.2890219020817772	3.07819231550079e-20	3.3155689541067206	-0.1938068501978551	-0.5276891779283973	0.3338823277305422	46.19496114165463
3	2.0	ltm	17	diff_vonmises	0.07703167601661594	4.413589924571219	3.5063781812059798	1.037890612454807	0.6062929302030737	2.1197556152269064	0.17665134190537723	-0.3061297501622805	0.48278109206765774	61.29204950290884
4	2.0	perception	17	diff_vonmises	-0.022568267846920592	-1.2930664985493474	6.514362887918257	1.2283942813288558	0.2705832045224802	2.4839360622436844	0.7158945639887949	-0.4090032520822191	1.1248978160710141	51.022379243202494
5	2.0	wm	17	diff_vonmises	0.08622919432648647	4.940568905721098	3.880371737268891	0.5781418867030526	1.684717427939347e-15	2.016205900958827	0.11629709040915676	-0.32070283227041785	0.4369999226795746	69.5353548542677
6	3.0	ltm	17	diff_vonmises	0.02429189483818358	1.391823050603549	3.3349380962882424	0.8132601209577939	0.580829283796546	1.2098557056763117	0.2485431743607862	-0.16020778085724927	0.4087509552180355	65.43027354074573
7	3.0	perception	17	diff_vonmises	-0.04138035203109244	-2.3709195261472007	4.438794316203198	1.676930541792756	0.3025012303576602	2.1727963995867334	0.9066563305532253	-0.3233353615654666	1.2299916921186917	61.562836921977606
8	3.0	wm	17	diff_vonmises	-0.14355617944579563	-8.225163205266787	1.506760042627883	165.8369624777667	1.4885541345852127	166.54366665221076	0.2237190140071874	-0.24899752911957762	0.47271654312676503	70.54401139833789
9	4.0	ltm	17	diff_vonmises	-0.09998724375627467	-5.728847072380331	1.2062497320460062	146.8818869342221	1.183331594858507	148.04409472211412	0.18522869512499796	-0.33093776789468876	0.5161664630196867	77.2961493926812
10	4.0	perception	17	diff_vonmises	-0.08186585170225807	-4.690567788783274	3.3167472972238894	1.9874240791911642	0.024648808038690503	3.550998775912729	0.7984383471026798	-0.5505698722836534	1.349008219386333	74.51179400697549
11	4.0	wm	17	diff_vonmises	-0.19532424817366664	-11.191255056916976	1.0798364791647923	262.9812088874141	1.0648387030212478	264.7243072227566	0.12384329706738129	-0.4389294415181446	0.5627727385855259	79.59991810660185
12	5.0	ltm	17	diff_vonmises	-0.0328075039779015	-1.8797315142924154	2.5295970164533133	0.9424168266178421	4.39456244031047e-20	1.4341965269402674	0.3310117195457565	-0.2247076770045018	0.5557193965502583	86.48225974442417
13	5.0	perception	17	diff_vonmises	-0.020247290005319652	-1.1600842638822302	2.0070487895714098	2.189560057896389	0.10226698745036875	2.9072884683912337	0.6207616944111515	-0.3962118632939422	1.0169735577050938	92.75362610027051
14	5.0	wm	17	diff_vonmises	-0.05741533680550955	-3.2896564782778355	0.42460708724718804	166.18460641911346	0.41276298894718055	166.934097674485	0.18972495613368778	-0.31347846443433625	0.503203420568024	131.37248419503874
15	6.0	ltm	17	diff_vonmises	0.24764035851775273	14.188747380173819	0.8165601860005047	80.47309568992239	0.8012356444979448	80.73078496214274	0.15718168375524755	-0.122440380129758	0.27962206388500555	99.72466512148111
16	6.0	perception	17	diff_vonmises	-0.1349255351826133	-7.730663714507643	0.6736749951425807	185.7145734022534	0.6612251781133128	186.3165801199314	0.27307671705865033	-0.267799168476051	0.5408758855347013	108.84893877014126
17	6.0	wm	17	diff_vonmises	0.2092745604910973	11.99054907559512	0.20359056836461387	103.01780738061524	0.19210187457359273	103.28412716450744	0.15407214115850465	-0.20277635565555663	0.3568484968140613	156.28632589230983
18	7.0	ltm	17	diff_vonmises	-0.040627222973069324	-2.327768409693813	0.7330126762305424	115.15615565989398	0.7187357200371024	115.89016306360202	0.10216952191137096	-0.20716788951155962	0.3093374114229306	99.88349580245479
19	7.0	perception	17	diff_vonmises	-0.11201459153893618	-6.417963339062864	0.829277587116406	184.7847140616692	0.8107494622847008	185.45217912608223	0.4496205119812444	-0.3335130123743415	0.7831335243555859	99.34968737658481
20	7.0	wm	17	diff_vonmises	-0.004579468494865645	-0.26238421716892896	0.8658212594656622	90.5209152210134	0.84736200535351	91.2235888661168	0.09906176954513413	-0.19286371859904428	0.2919254881441784	91.64320785474825
0	1.0	ltm	18	diff_vonmises	-0.013003055852417244	-0.7450202211163931	3.6257541677592617	0.5058748567396419	4.4136924966318334e-15	2.9203749002884973	-0.09629750182114388	-0.4645307812987857	0.36823327947764184	72.00339265668899
1	1.0	perception	18	diff_vonmises	0.0005606648956338343	0.03212373224096148	15.215195527943658	0.5154369664030547	4.429534345703422e-20	2.933173374234771	0.3284676763066294	-0.46682904145494925	0.7952967177615786	34.72756822526085
2	1.0	wm	18	diff_vonmises	-0.06320128966054732	-3.6211671573331685	3.7694251518281456	0.4730946589737103	6.075405321788921e-26	3.2027768538301475	-0.15766931395689116	-0.5095504334819881	0.351881119525097	70.58292519727502
3	2.0	ltm	18	diff_vonmises	0.10436566111226671	5.979711907825504	6.357796247621269	0.6078811273102653	0.244885749660274	1.8853936984613608	0.2207878191403651	-0.31286760710687794	0.533655426247243	50.92591256363437
4	2.0	perception	18	diff_vonmises	0.020125722945546317	1.1531189844294034	4.442571881060089	1.432285939946442	0.3577655285822707	2.9776015761287735	0.5091533043278839	-0.4604192139692544	0.9695725182971382	59.36309379206946
5	2.0	wm	18	diff_vonmises	0.12929505007261527	7.408060681093503	2.890051059847741	0.6742002336252388	3.3074973760032795e-12	2.1306893889980714	0.09310303513367252	-0.337774706797071	0.4308777419307435	80.85432958249439
6	3.0	ltm	18	diff_vonmises	-0.019484439183816548	-1.1163761314120146	1.2531638832447531	89.65456629310833	1.2227842040223462	90.59936067239616	0.13801869616936102	-0.2672712795679715	0.4052899757373325	75.59509987005194
7	3.0	perception	18	diff_vonmises	-0.02288741245300888	-1.3113521375325714	3.2504529238377704	2.857849333776306	0.4932847733213343	4.0374961716782956	0.9674907854412461	-0.5311520110711275	1.4986427965123736	67.6500406955389
8	3.0	wm	18	diff_vonmises	-0.11964388129464695	-6.855089442747486	1.3510070566135308	4.898445487229271	0.7479585614381872	6.353410286629811	0.1261293387423652	-0.36889301965151317	0.49502235839387837	81.62903681937004
9	4.0	ltm	18	diff_vonmises	-0.02128350795605147	-1.2194551791148585	2.8236353609553633	0.8966735489347871	0.17307275924078527	2.3785044971101548	0.1205078426434818	-0.3440498607897815	0.4645577034332633	74.36520684145685
10	4.0	perception	18	diff_vonmises	-0.025714747920548377	-1.473346527090232	1.32057932387075	14.497763050630196	0.8729914631885023	16.514550090495245	0.5717653298863983	-0.6479581708470668	1.219723500733465	83.08452101591118
11	4.0	wm	18	diff_vonmises	-0.10193935005412506	-5.840694524408066	0.9027869967021067	254.82164161416176	0.8874211218899891	257.0581888589117	0.02949197748985455	-0.509372120667738	0.5388640981575925	85.09898823897524
12	5.0	ltm	18	diff_vonmises	0.03822305058641512	2.1900194787166325	0.6353978677123165	94.9639086319315	0.6100383395862441	95.60202813217894	0.28607333187709827	-0.2930194762025433	0.5790928080796416	112.68432105757387
13	5.0	perception	18	diff_vonmises	-0.017958287481141234	-1.0289340799520146	2.1775089724761654	1.8387109521569605	4.4963560753142856e-17	2.892580716749638	0.5380100482245155	-0.4475471258880303	0.9855571741125457	93.1311784414799
14	5.0	wm	18	diff_vonmises	0.15433256013911212	8.842604337420086	0.26161215006443383	62.30230692695868	0.23079664172003944	63.42066486199599	0.1167093659150229	-0.4034839964329944	0.5201933623480173	149.89337409641013
15	6.0	ltm	18	diff_vonmises	0.4456881149246486	25.536047964323963	0.6210105518006631	163.92586244273517	0.6105931274723086	164.50510884193847	0.16868725276030716	-0.21890397607887024	0.3875912288391774	111.64609312576764
16	6.0	perception	18	diff_vonmises	-0.025719284200814256	-1.4736064368041553	0.8151440175141897	254.36340069739543	0.8024055425345858	255.40886445267128	0.3007701380001464	-0.3527867934532516	0.653556931453398	97.08395244170492
17	6.0	wm	18	diff_vonmises	0.04981232733579254	2.854036124065053	0.31897100364961617	149.22824258639582	0.30816450654005967	150.0618818459497	0.1132731690464368	-0.30661621574086695	0.41988938478730375	142.32218905805695
18	7.0	ltm	18	diff_vonmises	0.007105093883866162	0.4070918925897454	0.8891889654177904	1.8523628317781857	1.6464910095002783e-14	3.0189694650667245	0.11348742710609894	-0.3801505749425862	0.49363800204868513	133.34197141501244
19	7.0	perception	18	diff_vonmises	-0.037161678320872374	-2.129207327408795	0.8689374906938943	288.37399859417866	0.8528126782522547	289.37234361898965	0.5737980888599168	-0.4482817141600428	1.0220798030199596	96.44890829293058
20	7.0	wm	18	diff_vonmises	-0.018502414080965538	-1.0601102376427511	1.039914634077459	217.54943474971546	1.0248067676429242	218.8722656077574	0.1616802186860724	-0.353254496996108	0.5149347156821804	82.6514815006837
0	1.0	ltm	19	diff_vonmises	0.048634090425947823	2.7865281218644142	6.350526786499696	0.33635066536715874	0.11894871282015007	2.6178646174816835	-0.1367057922871106	-0.4281258441102865	0.2914200518231759	50.618293266977275
1	1.0	perception	19	diff_vonmises	0.015919215865145216	0.9121038822305224	15.984514979543455	0.5455309586998673	0.026146628761589383	2.5963571700579626	0.43900207280994924	-0.41848712055465026	0.8574891933645995	33.739816279551235
2	1.0	wm	19	diff_vonmises	0.057404852025075795	3.28905574460986	3.5132942551959996	0.7966836853628354	0.2906102745410929	3.4687964352302103	-0.15264122605119457	-0.5410888792392797	0.38844765318808516	61.697550328450006
3	2.0	ltm	19	diff_vonmises	0.10755963747945323	6.162713273529818	5.061424794776508	0.6559359626406557	0.5261664295573537	1.5980021000967315	0.17036854382533656	-0.26596208608032057	0.43633062990565713	53.63111122171523
4	2.0	perception	19	diff_vonmises	0.0009096321626024738	0.05211808382647958	7.281594771259253	1.2362158277156146	0.3842219772448176	2.4335961856124406	0.7579874752648524	-0.42006492289491526	1.1780523981597677	47.808829729938424
5	2.0	wm	19	diff_vonmises	0.032462536863062316	1.8599663545413256	1.1805697244962048	20.044568129157984	1.0317612153413287	21.357642273252733	0.10131609192663404	-0.3348163701238329	0.43613246205046696	78.5284862789157
6	3.0	ltm	19	diff_vonmises	0.07139020301233884	4.090357331189152	1.8839904158786385	49.661249904611815	1.834978836246754	50.031806789345005	0.2110689292123631	-0.17228255724212183	0.3833514864544849	64.3641737278329
7	3.0	perception	19	diff_vonmises	-0.07799407036466723	-4.468731058941802	6.56564328149179	1.0688391382795617	4.936633444475886e-15	1.4202347103918502	0.8438307091772508	-0.2260352528496212	1.069865962026872	53.13945199608938
8	3.0	wm	19	diff_vonmises	-0.04459612555069489	-2.5551697766903514	1.6290933948373336	253.76816023053	1.617797572067646	254.40939098611	0.19741494336759047	-0.23117260090703695	0.4285875442746274	67.472906923789
9	4.0	ltm	19	diff_vonmises	-0.21280760181607483	-12.19297743236164	1.196433007467483	172.5821983463965	1.179913268249985	173.86498273008766	0.04596927812673357	-0.3174824589267011	0.3634517370534347	74.26513115845276
10	4.0	perception	19	diff_vonmises	-0.03970258843342793	-2.2747907529803393	3.399135804305034	1.6515325648720363	1.3216983532445656e-15	3.3479239803897385	0.6277864794737359	-0.5315436377207208	1.1593301171944566	74.42682406942365
11	4.0	wm	19	diff_vonmises	0.05419785900533684	3.105308579650903	1.1626821313022928	211.7283291010769	1.1477201026091268	213.49063013307003	-0.06214831480414773	-0.3992333161298909	0.33708500132574315	72.04578736836558
12	5.0	ltm	19	diff_vonmises	-0.06344764057618256	-3.6352820250782516	2.986782031119849	0.7767482016517622	1.6505724824804242e-12	1.4559786373171992	0.2757008469687059	-0.23043456080975572	0.5061354077784617	79.51604059911858
13	5.0	perception	19	diff_vonmises	-0.09097762372234858	-5.212633869419852	1.435508178441916	3.6528780350597843	0.4065891566954278	4.580201525482177	0.489963556004418	-0.3932963144450052	0.8832598704494232	94.67352252194232
14	5.0	wm	19	diff_vonmises	-0.07241539182945333	-4.149096323613821	0.460251573339841	110.35988654846763	0.44290047247105685	111.12789792109324	0.17361730120999042	-0.2999024370487948	0.47351973825878524	127.5037056947424
15	6.0	ltm	19	diff_vonmises	0.08743781948417746	5.009818026270126	0.8694636707033092	63.95364715968975	0.8457883076240457	64.42883819663405	0.14041278621749953	-0.1594491552284092	0.2998619414459087	94.28781330544336
16	6.0	perception	19	diff_vonmises	-0.24507438674547127	-14.041728027272386	0.7676091090404646	53.140488449952386	0.7166429069347768	53.90019373852829	0.2983294967300907	-0.29979131877474874	0.5981208155048394	102.64515367152265
17	6.0	wm	19	diff_vonmises	0.3854523643355731	22.084793679767273	0.03095616904573044	47.794170004425304	2.1559450825053083e-06	48.24466293222635	0.1655619106925066	-0.3053141078757582	0.4708760185682648	173.77468252542275
18	7.0	ltm	19	diff_vonmises	-0.10222966716703898	-5.857328469698456	1.0978026571316915	174.8622614397055	1.0840130739826537	176.02586300845246	0.035900758672973154	-0.2798311057235807	0.3157318643965539	77.46989467489448
19	7.0	perception	19	diff_vonmises	-0.0926475393391532	-5.308312986405743	2.0599364148869643	1.6430893356622944	5.83293084476145e-12	2.7789337910915504	0.42058307828542624	-0.4282616217606156	0.8488447000460418	95.65334242476263
20	7.0	wm	19	diff_vonmises	-0.13189789873400945	-7.557192924102665	0.897291955486309	131.02957349811646	0.8842038757042213	132.11710693755566	-0.02095317797333962	-0.23609787790272918	0.21514469992938956	83.44030684890714
0	1.0	ltm	20	diff_vonmises	-0.5582478335928882	-31.985244787193995	11.143397276032404	0.18931373392091894	1.0376284106333443e-21	0.9459064931705972	0.09861904981930716	-0.1505456940386466	0.24916474385795376	40.634749742680455
1	1.0	perception	20	diff_vonmises	-0.035466522714312755	-2.03208206553499	8.827662844479349	0.730099683408825	3.5349361074338286e-24	1.6579738578388086	0.5885689244608567	-0.2638747166666634	0.8524436411275201	45.715295940085696
2	1.0	wm	20	diff_vonmises	-0.36255270609016593	-20.772739910013485	0.00017082296473480403	4999.886454757606	4.167978123824582e-31	5000.642489485745	0.015611580366794442	-0.2562532987145687	0.27186487908136314	176.2659994239777
3	2.0	ltm	20	diff_vonmises	0.10844896106678512	6.213667761705369	9.874218288983108	0.1915594989345475	0.12470102616815328	0.7652933534536771	0.09949047862182725	-0.12743496197479195	0.2269254405966192	42.173732625470336
4	2.0	perception	20	diff_vonmises	-0.029983454129793436	-1.7179253768612623	10.297512479779428	0.961939953268137	2.2497050839454903e-25	1.3763670241398143	0.9966020453969691	-0.2190556140181963	1.2156576594151653	42.29185735463756
5	2.0	wm	20	diff_vonmises	0.10196837981233496	5.842357807033778	0.0006406401949170385	1756.2638985349718	6.5693072463841126e-24	1756.6632131760127	0.11554561440732414	-0.24259405333469886	0.358139667742023	179.55567940254528
6	3.0	ltm	20	diff_vonmises	0.16766376043672795	9.60642585031702	6.785377524348673	0.2956187223884311	0.5259681015859337	0.34271327048894146	0.21482954462330522	-0.05775957504227795	0.2725891196655832	49.698252528368954
7	3.0	perception	20	diff_vonmises	0.026013383743482808	1.490457099355791	2.986022679108075	3.2501670011208534	1.0273647084591582	3.194700798186978	1.0146891810012453	-0.29532080072060163	1.310009981721847	66.91686963008411
8	3.0	wm	20	diff_vonmises	-0.24596997754081631	-14.093041600016422	1.7860224872434913	78.72067501068776	1.7692773751025574	78.53542099971186	0.30544639804465135	-0.05544718798336401	0.36089358602801536	73.86281239436863
9	4.0	ltm	20	diff_vonmises	0.19210753311300224	11.006950860044737	2.4239023111294946	52.073642027353735	2.3535848740708265	52.57378809992676	0.23588356131002897	-0.24892618485143636	0.4848097461614653	55.700089265567755
10	4.0	perception	20	diff_vonmises	-0.09019578274047262	-5.167837680907995	3.841554271039395	1.7865132786804276	0.04749928104967671	2.8405433619639706	0.8696880363515419	-0.43716967023860626	1.306857706590148	68.80882812919873
11	4.0	wm	20	diff_vonmises	-0.18211929189727744	-10.434666793625087	1.4307483945003507	250.15356707804494	1.4169437745260827	250.8835008989238	0.3079603046120951	-0.27722947863141556	0.5851897832435107	73.3883964094995
12	5.0	ltm	20	diff_vonmises	-0.03949319224706952	-2.2627932352558675	1.386834629421532	0.9136682261998557	5.7965627132622175e-15	1.1555954520523315	0.1935373310693473	-0.16035251433913103	0.35388984540847834	114.10276234493958
13	5.0	perception	20	diff_vonmises	0.017936448160747232	1.0276827790660044	1.9420679379348647	2.008877089261193	9.060699577490809e-13	2.0264126550263595	0.6955643394486669	-0.3015762056459871	0.997140545094654	98.37709415610425
14	5.0	wm	20	diff_vonmises	0.18259949770996953	10.462180559989994	0.8127666201317761	58.49602479752765	0.7927872463980716	58.68752234959225	0.1652844980309247	-0.11240896472886774	0.27769346275979245	101.12034032396934
15	6.0	ltm	20	diff_vonmises	0.4514473890421767	25.86603006431725	1.1190235863715408	75.67383574600301	1.1031153136078216	75.91101080151537	0.13943528156107732	-0.10156622704465956	0.24100150860573688	84.71645089072368
16	6.0	perception	20	diff_vonmises	-0.1602406710161696	-9.181114155570814	0.8542795790926734	141.6801221051003	0.8407066462054134	141.96172859479637	0.2792672031539425	-0.17634591201140992	0.4556131151653524	98.77211309567656
17	6.0	wm	20	diff_vonmises	-0.3832681296753595	-21.959646252270844	0.7643389657687792	118.30023744447857	0.7503468628958061	118.63179311441928	0.21850139294971171	-0.16971566714751596	0.3882170600972277	103.32544026828072
18	7.0	ltm	20	diff_vonmises	0.1513028278697349	8.669013465330178	2.2312408383630977	0.5801082469924937	9.233207959679618e-12	0.8656886415948387	0.18182189211502528	-0.13409217396528209	0.31591406608030737	92.00664277278162
19	7.0	perception	20	diff_vonmises	-0.14670146606668352	-8.405374854002627	1.47187445096898	4.784536433574036	0.6406825819439367	4.594427153024225	0.7932514874410783	-0.25602478017283514	1.0492762676139136	92.77005995343492
20	7.0	wm	20	diff_vonmises	0.43020016884707035	24.64865402075253	0.00045658729341317694	1794.3541175482376	4.765914283858159e-21	1794.5119760319153	0.10528081969363257	-0.15549897016114755	0.2607797898547801	174.32931700079524
0	1.0	ltm	21	diff_vonmises	-0.11869341527898392	-6.800631751479379	8.07804033321243	0.22635320921404792	0.028615997265427795	3.6449550175835705	-0.34441041555632806	-0.5846903552075339	0.2402799396512058	46.529463526804676
1	1.0	perception	21	diff_vonmises	0.05621952235610327	3.2211413572460956	11.025358913278913	0.7445113197369725	0.07446350656010252	4.260970842505414	0.24490581733752903	-0.6990513613761192	0.9439571787136483	40.1257839478678
2	1.0	wm	21	diff_vonmises	0.13106063536137755	7.509221266509968	9.991479605359048	0.3129183220248837	3.5842249022093924e-30	4.304763097503214	-0.29584841632231185	-0.6851243249904693	0.3892759086681574	42.946679229463086
3	2.0	ltm	21	diff_vonmises	-0.00345389980231818	-0.19789388153390106	4.086447141494827	0.7074648460057361	0.17835576476721224	2.3152997168438514	0.1133466360064595	-0.3584390397715129	0.4717856757779724	62.677052071138974
4	2.0	perception	21	diff_vonmises	-0.0005629915158916844	-0.03225703776226593	6.814605401264872	1.3150244784677865	0.24871928849257444	3.3460004871085625	0.6699618020487219	-0.5567893408942522	1.226751142942974	49.73269774162961
5	2.0	wm	21	diff_vonmises	0.0928673923039064	5.3209096333995385	3.521994559402005	0.7265817531265489	9.42268108163264e-13	2.563789402338209	0.11276269853300858	-0.407585233913047	0.5203479324460556	73.0836985257491
6	3.0	ltm	21	diff_vonmises	-0.02223319467800672	-1.2738682201425084	4.135070878986627	0.718516923150886	0.2434401669185001	1.4761299579333735	0.2672002287253616	-0.22358866602666905	0.49078889475203064	62.84576867663165
7	3.0	perception	21	diff_vonmises	0.004499946301665527	0.25782793112093827	3.6335180486500835	2.487738782093542	0.5507806189058838	3.394523378314896	0.9443971425161952	-0.4620022447307666	1.4063993872469618	64.21551619652246
8	3.0	wm	21	diff_vonmises	-0.13885438786738025	-7.955770391673432	1.2561752908929174	181.55969383379542	1.2400604270912956	182.4316837565747	0.19941652375796082	-0.2694980597736816	0.4689145835316424	76.66101698056332
9	4.0	ltm	21	diff_vonmises	-0.08993540653676912	-5.152919223350146	1.0927471705535234	169.79181298654453	1.0690473031382746	171.50704858765508	0.1466295758824856	-0.44023878232221136	0.586868358204697	79.70352102142795
10	4.0	perception	21	diff_vonmises	-0.09220032634414907	-5.282689569248601	3.2411841422153813	2.153146733973366	0.24629351339835648	4.072530945136039	0.6565563146582132	-0.5816321955045952	1.2381885101628085	70.10171762963142
11	4.0	wm	21	diff_vonmises	-0.09027608733789805	-5.172438795415969	0.8664944488877528	232.7829617945279	0.8520354703977899	234.64903769131186	0.056913762457483585	-0.43520455302535765	0.49211831548284124	87.79581561566553
12	5.0	ltm	21	diff_vonmises	-0.09918609449722147	-5.682944601076549	2.465844088793558	1.0202245767453022	1.1049700027229375e-16	2.3246242752609545	0.22643779076669907	-0.36567240701766246	0.5921101977843615	87.58947787359867
13	5.0	perception	21	diff_vonmises	-0.04468795766721077	-2.5604313693904652	0.8647608926265077	179.95783721916345	0.8366167748517903	181.3857795833766	0.5227827029090477	-0.5211383637430593	1.043921066652107	95.48112249328199
14	5.0	wm	21	diff_vonmises	-0.09239221411235525	-5.293683928507	0.4044791575404331	187.39328849887906	0.39280055525520763	188.77456129761939	0.08797007484887587	-0.41157345442567816	0.49954352927455403	130.71733305583246
15	6.0	ltm	21	diff_vonmises	0.0958245779302808	5.490343889027543	0.6534947585106534	90.18741603320233	0.6344522929010389	91.1580474312587	0.06215442577919106	-0.248228958881219	0.31038338466041004	103.84847039848938
16	6.0	perception	21	diff_vonmises	-0.1071561822679387	-6.139596992687477	0.66185730590197	241.48281007204062	0.6498014259876633	242.73085805651806	0.2103280597740138	-0.381013097585317	0.5913411573593308	106.03907297771777
17	6.0	wm	21	diff_vonmises	0.45487502861916557	26.06241934577072	0.00031811227420556565	3439.275317601365	9.18237110644634e-29	3440.2352739109538	0.02135950601427794	-0.32689539367083853	0.34825489968511647	173.70722852686015
18	7.0	ltm	21	diff_vonmises	-0.035327423830836785	-2.0241122865768344	0.8646640655931975	164.9159178168439	0.8504964218569396	166.2033343386658	0.042413359295395026	-0.3013591145944865	0.3437724738898815	87.99819038741069
19	7.0	perception	21	diff_vonmises	-0.10893759312221366	-6.241664316216227	1.6976336478782743	2.197725265155469	6.8823374370297685e-18	3.3131824712856206	0.49900758569180403	-0.4928942888962828	0.9919018745880868	104.63290407739964
20	7.0	wm	21	diff_vonmises	-0.1831244627881325	-10.492258843360489	1.1174565632772784	129.3556957420195	1.0973546383253732	130.23058605929788	0.17136511699503387	-0.25655885103432574	0.4279239680293596	81.1415138747974
0	1.0	ltm	22	diff_vonmises	0.05311697832424718	3.0433786784672394	7.914058494679847	0.47483207451482856	0.1274496374513377	3.8737123599575103	-0.17354572221151832	-0.6444115884271806	0.4708658662156623	45.69944318409725
1	1.0	perception	22	diff_vonmises	0.02962040834817834	1.6971243858046892	13.951011334858965	0.6288162202736477	0.08741427101583997	3.9272746268219727	0.24729130630002893	-0.6539976243512453	0.9012889306512742	35.683744792769005
2	1.0	wm	22	diff_vonmises	0.035497330734646074	2.033847235075242	2.791197654843695	0.9603603015016401	0.1908626592456674	5.0964661122944	-0.3693205467859001	-0.7708591585948253	0.40153861180892525	68.70938696043018
3	2.0	ltm	22	diff_vonmises	0.06554818249441266	3.7556342116831503	4.401678688978162	0.8412937759752747	0.36584295295148356	2.165325513608081	0.20065758831336944	-0.34077188977158895	0.5414294780849584	58.50360610119603
4	2.0	perception	22	diff_vonmises	0.006069751233179943	0.34777112835553753	4.9575951274097925	1.463977145411427	0.3950149112768104	3.298041336776232	0.5139700206969885	-0.5297063764532914	1.0436763971502798	55.960023049160895
5	2.0	wm	22	diff_vonmises	0.08633983456996266	4.946908124716583	3.2505306069763376	0.9155962597896913	0.16056626619351877	2.8036330646373444	0.1069699922016688	-0.41916116117098373	0.5261311533726525	69.81760571794831
6	3.0	ltm	22	diff_vonmises	-0.04756415513991167	-2.7252253456224205	1.9337141070328498	3.7152887631791596	1.0847329745855738	4.562382170439692	0.24608842894020833	-0.2860544419748475	0.5321428709150557	70.4652852139638
7	3.0	perception	22	diff_vonmises	-0.03683189113584412	-2.1103119135691757	3.8329077226792383	2.3080984905877013	0.41919060445569434	3.466208908817611	0.9303587234384995	-0.4960245951862621	1.4263833186247616	63.83860627329929
8	3.0	wm	22	diff_vonmises	-0.11523499307575782	-6.602478755460188	1.1507267440401467	231.79183355812222	1.1352407446021884	233.30637109850676	0.11235598010161141	-0.38778595608717836	0.5001419361887898	77.0676444785542
9	4.0	ltm	22	diff_vonmises	-0.14568874352651381	-8.347350126633135	1.0559799307531166	196.60315333269384	1.0360908258929475	198.27900326317683	0.15239791974617845	-0.43096798208959086	0.5833659018357693	81.25286520036613
10	4.0	perception	22	diff_vonmises	-0.06111203012490464	-3.501461403633381	2.312584697074112	3.2552323249630652	0.4335131846942636	5.183492980720804	0.6171033691092493	-0.6102120342745498	1.2273154033837992	76.92338759727886
11	4.0	wm	22	diff_vonmises	-0.05771178291128063	-3.3066415889916074	0.7181459388364502	158.15514720405915	0.6982510122792084	160.52518207639284	-0.07370349404889964	-0.49905778781311483	0.4253542937642152	93.18276830712247
12	5.0	ltm	22	diff_vonmises	-0.06591158409313251	-3.7764555895581045	2.3081526428025043	1.1321413135307212	3.117265280697811e-16	2.2016590632275697	0.28606575076062035	-0.34411047354677265	0.630176224307393	90.50825704100052
13	5.0	perception	22	diff_vonmises	-0.055154633590829345	-3.160127725345002	1.6836472633885242	3.0026620964497366	0.25452672614471405	4.544510858008336	0.47718512720509887	-0.5165914267674514	0.9937765539725503	92.63707542897362
14	5.0	wm	22	diff_vonmises	0.001701697474657756	0.09750008330595979	0.19909993218701588	173.31131427400229	0.18710786902005214	174.9495802807563	0.04766692008874429	-0.5104981809953131	0.5581651010840574	156.32182591330877
15	6.0	ltm	22	diff_vonmises	0.16511618623742189	9.460460600700362	0.49679688646212744	116.26448832589709	0.4825140259861583	117.18072806799087	0.08676609880225072	-0.2739674911088734	0.36073358991112414	120.78532637722697
16	6.0	perception	22	diff_vonmises	-0.05747225653869627	-3.2929177387604454	0.7104021166195755	270.47833405714283	0.6973460673816765	272.0165053574264	0.2362659321739642	-0.4479147845736797	0.6841807167476439	101.8621036555391
17	6.0	wm	22	diff_vonmises	0.47870577823986304	27.427820721669676	0.0005865130416956316	2291.825048772703	5.262390191199348e-26	2292.9405463148328	0.03642217923197677	-0.39143334444241873	0.4278555236743955	173.05874499999095
18	7.0	ltm	22	diff_vonmises	-0.13934615655738955	-7.983946662107642	0.6995264685360805	130.93183768284192	0.6815082205482536	132.41943865368506	0.031396220931576124	-0.3460297267944288	0.3774259477260049	98.04601257606282
19	7.0	perception	22	diff_vonmises	-0.03627777859976738	-2.078563603876688	0.6701848455407113	220.06929994416183	0.6510221147301997	221.6599330906395	0.364286174002423	-0.5318488924931764	0.8961350664955994	106.83035843441513
20	7.0	wm	22	diff_vonmises	-0.09483372764258345	-5.433572349413161	1.0789223515310584	244.86205099819546	1.0655655813662925	246.30350123549934	0.1038781610495505	-0.3634306514240464	0.4673088124735969	79.64039907883213
0	1.0	ltm	23	diff_vonmises	0.03030090755071077	1.7361141180718156	5.4889130700882935	0.26655196133634945	3.938030727362041e-13	2.582326620767979	-0.16812816619370893	-0.4109858987371637	0.24285773254345475	58.21714787428053
1	1.0	perception	23	diff_vonmises	0.02629395290679619	1.5065325282751645	15.724978394047138	0.5015948094382641	4.052980385364067e-18	2.5159814573418	0.3861342596161786	-0.40043088566348084	0.7865651452796594	34.17038204416298
2	1.0	wm	23	diff_vonmises	0.03516543329083172	2.0148309123134993	3.8917449375188586	0.6131934231046199	0.17816700440142902	3.2494900083959277	-0.14872123227564216	-0.5113892839328376	0.3626680516571954	61.688690803086416
3	2.0	ltm	23	diff_vonmises	0.0964913501347319	5.528547122239225	10.654397603475761	0.41117504061500126	0.31818613931666706	1.4542744080004875	0.21840811952491607	-0.26576131401401987	0.48416943353893593	39.70826272837658
4	2.0	perception	23	diff_vonmises	0.015521989699366396	0.889344499419232	7.64586648731104	1.2059545780830483	0.3356851640603932	2.4895697802863235	0.7680889189430349	-0.4286263044108818	1.1967152233539167	46.966529513019196
5	2.0	wm	23	diff_vonmises	0.0314248086398595	1.800508907070194	1.0484146347178893	128.5348214198215	1.0251206574159126	129.9651191917595	0.06892414248137158	-0.34795005537508494	0.4168741978564565	80.23887679944545
6	3.0	ltm	23	diff_vonmises	0.11219475946907088	6.428286201063191	1.7607868204496488	66.64511440971978	1.727057075832313	67.10416553241757	0.15584869881845975	-0.17522943787813006	0.3310781366965898	65.1891775589512
7	3.0	perception	23	diff_vonmises	-0.07028800842688793	-4.027206233240643	6.124189847398494	1.1559735757907468	2.2272272982603063e-23	1.6057186086675166	0.8603249586737145	-0.25555270548663506	1.1158776641603496	55.05157251931854
8	3.0	wm	23	diff_vonmises	-0.02770611756164164	-1.5874436029753574	1.5530005929184598	158.45728015322717	1.5338725814198193	159.2548781540352	0.17515183603998707	-0.2608244694468489	0.43597630548683597	68.33009560593874
9	4.0	ltm	23	diff_vonmises	-0.16430164728449367	-9.41379095644857	1.0835488176069614	133.21398669787212	1.0644217193861423	134.68174286303966	-0.04091776220852239	-0.32752937597923193	0.28661161377070954	75.23081081900759
10	4.0	perception	23	diff_vonmises	-0.03007906917857524	-1.7234037156143973	3.277585276087391	1.6389450520282915	1.3025323715415614e-13	3.4853113248876877	0.573817423607083	-0.553098809386245	1.126916232993328	75.82901402342779
11	4.0	wm	23	diff_vonmises	0.09487690084376112	5.436045991628711	1.198575995145709	192.1873707615316	1.1805824293644667	194.1806282954852	-0.10881960087456832	-0.44753368526188453	0.3387140843873162	69.7867730600195
12	5.0	ltm	23	diff_vonmises	-0.060313958888443035	-3.455735290033344	2.634387305227143	0.773348757597069	2.0492878284351005e-16	1.50549829539305	0.2303134742654909	-0.23718703798264723	0.46750051224813816	84.74055508256444
13	5.0	perception	23	diff_vonmises	-0.07920998760936884	-4.53839798530038	1.6861647236819055	2.486617136030508	0.22676335372720705	3.4349869470865477	0.47928835562938776	-0.3948449955929662	0.8741333512223539	94.67116228755629
14	5.0	wm	23	diff_vonmises	-0.023310288459504554	-1.3355811479621202	0.49888677551804794	45.91564129286614	0.4568051249687062	46.80695412906212	0.1470687310683143	-0.30747331489086616	0.45454204595918046	123.80106559389843
15	6.0	ltm	23	diff_vonmises	0.27295972798879786	15.639440390797088	0.727233786435525	116.2328577071765	0.7144566334081398	116.84226935728246	0.10819386954938182	-0.18285781123627487	0.2910516807856567	101.1447203813502
16	6.0	perception	23	diff_vonmises	-0.21703810516627414	-12.435367419544017	0.7521753721295206	199.73012906799184	0.7378151712363499	200.52293853054056	0.3161310543377809	-0.31453463266594994	0.6306656870037308	102.4960259619649
17	6.0	wm	23	diff_vonmises	0.2532162497889181	14.50822241703543	0.043473623500801285	36.69159266278191	8.19252837365854e-12	37.45922963916598	0.13440612974300592	-0.37323656268741967	0.5076426924304256	175.5147945153838
18	7.0	ltm	23	diff_vonmises	0.004444805419746366	0.2546685913083411	1.1310457312121123	187.73725503097222	1.1170543283453618	189.061576823666	0.008626403628397838	-0.3117496834958544	0.32037608712425225	75.24855305706546
19	7.0	perception	23	diff_vonmises	-0.0673217398557267	-3.8572515632108035	1.1637237799561309	5.3282857879064505	0.4742915512029358	6.354180605068896	0.4469954874646236	-0.4120925641081099	0.8590880515727335	99.05191123067146
20	7.0	wm	23	diff_vonmises	-0.2378447424290926	-13.627499920563146	0.7772463267498219	130.13199391105087	0.7636884951370579	131.4943433079095	-0.0673274474767851	-0.27837485328524814	0.21104740580846304	87.51170920470707
0	1.0	ltm	24	diff_vonmises	-0.03680160697128915	-2.1085767587540962	7.648093348649514	0.2958363769622747	0.00428665445873318	1.9227233273132605	0.0133681163586859	-0.30585764059355625	0.31922575695224215	49.02975824560741
1	1.0	perception	24	diff_vonmises	-0.020342786153670994	-1.1655557901425173	14.64996209125665	0.6173525324610422	2.526036964387351e-16	2.4169722630620156	0.5496408164749176	-0.3846730829821484	0.934313899457066	35.396406412377075
2	1.0	wm	24	diff_vonmises	0.01703640510570327	0.9761141106319245	7.005009016845974	0.31391474812906867	9.531886248632586e-15	2.296315609672244	-0.04037293887153953	-0.36546971254519167	0.32509677367365214	51.41057237486507
3	2.0	ltm	24	diff_vonmises	0.14094697348672577	8.0756667159317	4.99828855547214	0.7000672516353809	0.6150440869171514	1.3782268407500098	0.23701705616009305	-0.22554632433776653	0.4625633804978596	54.05498201340433
4	2.0	perception	24	diff_vonmises	-0.02590331328874178	-1.4841505268500443	6.794475623427912	1.1172075209739498	0.28177320345197193	1.9621683057393944	0.7326246628118172	-0.3241637617484847	1.0567884245603019	50.208023540996834
5	2.0	wm	24	diff_vonmises	0.1068634553436596	6.122824975376439	2.5066986941878904	0.6677244586027048	2.255280295645755e-16	1.6128065340664495	0.13746163506227776	-0.2540656979882951	0.39152733305057286	86.86938775802716
6	3.0	ltm	24	diff_vonmises	0.050033413765150636	2.866703443374889	1.9973102202306727	109.97312770833162	1.9761564804069136	110.22307724933174	0.2358530185228247	-0.14978013617882624	0.38563315470165094	63.30815018131321
7	3.0	perception	24	diff_vonmises	-0.0207462831738176	-1.1886744664430229	3.3056843934354254	2.5674401273068113	0.686152898765352	2.9267865098301806	0.9512659354925738	-0.3543110476754685	1.3055769831680424	66.36073812930837
8	3.0	wm	24	diff_vonmises	-0.15420607371535988	-8.835357199173378	1.38213710440634	151.38140904544778	1.365762677215635	151.92445700244554	0.22230804705870355	-0.20247233678482957	0.4247803838435331	74.697243489962
9	4.0	ltm	24	diff_vonmises	-0.004606816223815643	-0.2639511266170316	1.5349777350846243	188.6000650357431	1.5183214087060388	189.35020687974261	0.2191293350100949	-0.26048688545272114	0.47961622046281605	69.5776954884654
10	4.0	perception	24	diff_vonmises	-0.08124152796051938	-4.654796673331831	3.1758014293828136	2.1278800802014675	0.14302617247260074	3.308100237202173	0.8349939165877538	-0.47863850195680957	1.3136324185445634	73.51225245333544
11	4.0	wm	24	diff_vonmises	-0.15678576662498633	-8.983162715334798	1.1735920722110198	288.5956700752896	1.1606360622034364	289.9252192465471	0.19957885235288586	-0.3730407724624669	0.5726196248153528	78.07406100916006
12	5.0	ltm	24	diff_vonmises	-0.04457709654719536	-2.554079495101489	2.000987980214935	0.9254118391408899	4.2765445389876097e-17	1.335161243848512	0.26502255001355646	-0.20376763360442177	0.4687901836179782	96.99774320261136
13	5.0	perception	24	diff_vonmises	-0.008708734159278456	-0.49897371222806675	1.8543769356867317	2.3151230191484244	0.1268847200955963	2.927907369103201	0.6138551102407799	-0.3808542870652763	0.9947093973060561	95.42195103052705
14	5.0	wm	24	diff_vonmises	0.16682701943682166	9.558484122476832	0.7290380976311034	1.651675174270426	1.5989167332749795e-12	2.3383984398873143	0.10696638296004618	-0.26067626424294343	0.3676426472029896	140.3250909899204
15	6.0	ltm	24	diff_vonmises	0.33839837119051014	19.38879846331766	0.8398533687981193	92.20082977628729	0.8266026938261166	92.54384471187922	0.12730861419027661	-0.12665989203294714	0.25396850622322376	96.54920145525455
16	6.0	perception	24	diff_vonmises	-0.10988808026897048	-6.296123218206825	0.7703778634159555	243.74256486175614	0.7589753211596144	244.48350613375968	0.31149779259881427	-0.2980220633622146	0.6095198559610289	101.33189939873185
17	6.0	wm	24	diff_vonmises	-0.08890999805605367	-5.094167645128229	0.4821859326615882	73.80051277253966	0.46137727063825906	74.36255362202401	0.15106720078628655	-0.23098381618853736	0.3820510169748239	125.79019473956879
18	7.0	ltm	24	diff_vonmises	-0.033891740247238206	-1.9418536765204184	1.4161512613798781	0.9853414181464839	0.07437229149738307	1.6042566618548282	0.13756715209297932	-0.2124270785530289	0.3499942306460082	108.46422312566713
19	7.0	perception	24	diff_vonmises	-0.06651862428599643	-3.8112364306040147	0.8609728095941617	237.60604314443998	0.8443441676967818	238.31451698059698	0.5327427013738202	-0.37142217308444714	0.9041648744582673	97.73623491602459
20	7.0	wm	24	diff_vonmises	0.09035536628985397	5.1769811447672645	0.9099789434786613	103.176290727931	0.8922569398495691	103.8615770593199	0.12808172769231163	-0.19904861599138357	0.3271303436836952	90.2258485872498
0	1.0	ltm	25	diff_vonmises	-0.026038295219272166	-1.4918844217799636	3.3946745907061127	0.31727618810548264	1.2476899862422346e-16	2.6630050779803724	-0.20104523891874934	-0.4235795693462819	0.22253433042753254	74.48228934307213
1	1.0	perception	25	diff_vonmises	0.022612253168932703	1.2955866718611653	13.730037372018034	0.6072902650203807	3.719744001226399e-20	2.7476560232972798	0.45180111563034103	-0.43730303802292675	0.8891041536532678	36.57457719687153
2	1.0	wm	25	diff_vonmises	0.046034506719110774	2.6375829469716776	7.967647756510575	0.32923780221266963	4.38209267831489e-17	2.87340932885031	-0.09281244137313999	-0.4573172544374182	0.36450481306427823	48.161645231004115
3	2.0	ltm	25	diff_vonmises	0.08487375774793712	4.862908110372568	4.463308626806869	0.6450154731246155	0.34180804244751317	1.898399167865988	0.11318470303275446	-0.30212256431333345	0.4153072673460879	57.89052199690309
4	2.0	perception	25	diff_vonmises	0.005790122177086695	0.3317495636121675	7.086374680463614	1.2340450169976207	0.25402039260572884	2.576500113588998	0.7653425794160529	-0.428533043742728	1.1938756231587808	49.14376497802252
5	2.0	wm	25	diff_vonmises	0.082721953537676	4.739618810786125	3.522822679194648	0.5886756421281458	2.214704135957558e-11	1.8901223479811193	0.12119427515393644	-0.30045462946258544	0.4216489046165219	73.07449629044353
6	3.0	ltm	25	diff_vonmises	0.09569670800644771	5.4830174820652475	5.432706808055917	0.4426743793330703	0.15601649586982239	1.0335640877455003	0.20998023948050548	-0.16349640114227937	0.37347664062278485	56.33022158908423
7	3.0	perception	25	diff_vonmises	-0.03854864770025215	-2.208674819161135	5.819376670199138	1.2110773231559995	5.5317262955264624e-17	1.6598704819092764	0.8738781315071389	-0.26416655632701297	1.138044687834152	56.50374589752124
8	3.0	wm	25	diff_vonmises	-0.07302341867068156	-4.1839336954468695	1.4886557394755127	160.78677107711445	1.471257132022281	161.36263301316558	0.24486948481404625	-0.2215021910162065	0.46637167583025274	71.90935822855033
9	4.0	ltm	25	diff_vonmises	-0.11142299036980022	-6.384067088916368	1.126052376130442	18.776033102810956	0.9773076882370414	20.259980398063544	0.02484771113545481	-0.34758767779858024	0.37243538893403505	78.4160435408194
10	4.0	perception	25	diff_vonmises	-0.028254230676074465	-1.6188481711281295	3.1370314795049343	1.7153400775488168	1.7391977077321653e-16	3.711195813439025	0.5616031253089617	-0.5884833615961956	1.1500864869051575	77.55031864949302
11	4.0	wm	25	diff_vonmises	-0.06789425674072747	-3.890054364421324	1.159656915672386	324.7465852327422	1.1479299891809056	326.5171197459469	0.053928268057248374	-0.431769958868351	0.4856982269255994	75.21483832968772
12	5.0	ltm	25	diff_vonmises	-0.043766458888013546	-2.5076333785160063	2.1839753148108407	0.9566972362660362	5.639909817821541e-16	1.6136765751327342	0.2635220416544335	-0.25022700402972864	0.5137490456841621	92.99843266729593
13	5.0	perception	25	diff_vonmises	-0.04267844982528195	-2.4452950511495013	1.9796448053234568	2.034534062035643	0.08228537921855542	2.829270154398303	0.554967129122907	-0.3941229191969793	0.9490900483198863	93.98929556348119
14	5.0	wm	25	diff_vonmises	0.001055565451118457	0.06047944534891039	0.561628817817874	168.5659482320428	0.549731742940732	169.1763964090973	0.22141464708603564	-0.2672388934417764	0.48865354052781207	118.22234240130476
15	6.0	ltm	25	diff_vonmises	0.23837408620975678	13.657829085106702	0.8785018138821098	98.61505218190537	0.8633002599375408	99.00753524862117	0.16193712189881637	-0.14967971439644678	0.31161683629526316	94.76301434750374
16	6.0	perception	25	diff_vonmises	-0.21999729110002084	-12.604916284342181	0.644914157050997	139.27350778295224	0.6291112775761037	139.84499621384742	0.26297989508928055	-0.26272376102820694	0.5257036561174875	111.49704790804253
17	6.0	wm	25	diff_vonmises	0.17132022388007148	9.815925773564476	0.36461449715043703	133.75894418327277	0.35386561035689273	134.07095203000705	0.19271855810194438	-0.21588163210603106	0.40860019020797544	138.99352993377082
18	7.0	ltm	25	diff_vonmises	-0.004911780308161976	-0.28142428155314814	0.829608111569618	137.488819058696	0.8144135181266312	138.57704864545303	0.06542688070887692	-0.2658590696479397	0.3312859503568166	91.14169119440373
19	7.0	perception	25	diff_vonmises	-0.10092188151292932	-5.782397871210217	0.9498137316625115	43.12801138504683	0.8554885059098952	43.82899446998736	0.5542941161543649	-0.3703487292188399	0.9246428453732047	95.1270272845251
20	7.0	wm	25	diff_vonmises	-0.07456295507392141	-4.272142633759264	0.8861542938968594	108.89957734683061	0.8684345243265913	109.78895237732189	0.08620532331227082	-0.2288404161267774	0.31504573943904823	89.3148403072978
0	1.0	ltm	26	diff_vonmises	-0.07511499565266168	-4.303772229041041	7.807866071878809	0.2899010437508128	0.6215706692613829	0.2614849146849208	0.24711027248864822	-0.04577006059132113	0.29288033307996936	46.681025524539734
1	1.0	perception	26	diff_vonmises	-0.08227313370681671	-4.713903328716111	16.785172958577615	0.6456963280978986	5.3726034047975406e-27	0.7480559478277471	0.9280072405231099	-0.11905680180607615	1.0470640423291862	33.055467347185356
2	1.0	wm	26	diff_vonmises	-0.10599130327617148	-6.072854342815761	6.442123996575511	22.06078932150234	6.304751965284567	22.01582797667297	0.28963343650721285	-0.09278417133690997	0.3824176078441228	36.87067093460186
3	2.0	ltm	26	diff_vonmises	0.23129324681617555	13.252126872444524	4.035919934267326	45.789714392923976	3.989564218817282	45.67250532036262	0.312280390002762	-0.06946875937169139	0.38174914937445337	47.928503286112516
4	2.0	perception	26	diff_vonmises	-0.07192938084757079	-4.1212499455549425	7.379138393183715	1.1077119080762545	0.9985014466592309	0.7916110861277859	0.9083737915866721	-0.1357202641103744	1.0440940556970464	47.2611824295704
5	2.0	wm	26	diff_vonmises	-0.0029065730476254274	-0.16653436847541422	0.6121020037064401	28.471758176292365	0.5841602956938242	28.318410680803662	0.1908063923733181	-0.06953808898699476	0.26034448136031285	121.94352090642845
6	3.0	ltm	26	diff_vonmises	0.09867101487513401	5.653432712617744	3.663028694132062	6.553098325839905	3.495195398909208	6.3496472911530635	0.26839096673281304	-0.0235919214071591	0.29198288813997214	54.39962824785502
7	3.0	perception	26	diff_vonmises	-0.045188994509182914	-2.589138665816032	3.462667207356932	2.300982359926499	1.084497641326241	1.9701680625111442	0.9291663928894364	-0.19420072864856236	1.1233671215379988	64.03269734250853
8	3.0	wm	26	diff_vonmises	-0.21116379614107045	-12.098794304844237	2.3027240615568103	11.549844550297722	2.1971553448752332	11.367704309520773	0.27846005441589483	-0.042968141601230525	0.32142819601712536	66.2277104475238
9	4.0	ltm	26	diff_vonmises	0.07096551810020069	4.066024678100751	2.740929000594606	18.067559214456708	2.6146095276234655	18.086251509876604	0.29251253523759146	-0.11000381014639249	0.40251634538398395	56.52033185049163
10	4.0	perception	26	diff_vonmises	-0.09044341194194092	-5.182025789036324	3.54455459079115	1.9682153471501027	6.693839667962876e-15	2.2712020666128305	1.0543773139852717	-0.3602919758548652	1.414669289840137	72.84386141330936
11	4.0	wm	26	diff_vonmises	-0.1906490285969435	-10.9233847068738	1.4972140931066147	174.62165810833986	1.4806424154636015	175.116315622146	0.2948034175838501	-0.21729007682001722	0.5120934944038673	72.68136852387545
12	5.0	ltm	26	diff_vonmises	0.009735946109372218	0.5578286216338423	2.6436915095022644	0.6142592399658034	2.2996013477138525e-14	0.26104838991239376	0.3324729101445062	-0.03965618314319132	0.3721290932876975	84.59176075179695
13	5.0	perception	26	diff_vonmises	-0.001668991404539164	-0.09562616352370552	1.9133579602591966	1.9239489187220165	3.063458785011315e-10	1.685496434193478	0.6980164465880894	-0.24720858853543035	0.9452250351235197	99.07071576179465
14	5.0	wm	26	diff_vonmises	0.2949053144052058	16.896829871396893	13.382387046719602	0.2538693405611766	2.9885009446652226e-20	0.09634983432544018	0.35157253643689795	-0.015334552398106445	0.3669070888350044	37.04883986632859
15	6.0	ltm	26	diff_vonmises	0.2532612236844604	14.510799231438266	1.3568751788291429	8.340274936673348	1.3022870239542963	8.119891568745365	0.1699985478648922	-0.014356855424416393	0.1843554032893086	91.02811387416236
16	6.0	perception	26	diff_vonmises	-0.19007210594311255	-10.890329473703801	0.9375251433259371	141.3210190340468	0.9222304311047237	141.5030919303606	0.3514724373715268	-0.1773739681388502	0.528846405510377	95.63367675207019
17	6.0	wm	26	diff_vonmises	-0.3181584980281413	-18.22913915323382	0.5461398447753877	66.57198454429798	0.5285460595443161	66.45071650791527	0.2506584258927589	-0.11716149572420687	0.36781992161696575	125.13514875792212
18	7.0	ltm	26	diff_vonmises	-0.113782332988386	-6.5192474633866775	0.8255867416241592	52.19652825427684	0.8052124454489957	52.19598711269321	0.20321037709162937	-0.0884860684770925	0.2916964455687219	103.79418768226654
19	7.0	perception	26	diff_vonmises	-0.09870965047102147	-5.655646369201069	0.9534545704558538	85.85511163653494	0.9143074865749177	86.1681819597473	0.5370061671479291	-0.2776911034865748	0.8146972706345039	95.23913228681705
20	7.0	wm	26	diff_vonmises	0.5389690324128239	30.880650845504476	134.34009016139487	0.4688725489951678	4.063068849634435e-37	0.2829795854558143	2.1203492660656056	-0.04503759981938826	2.1653868658849937	11.65520365777681
0	1.0	ltm	27	diff_vonmises	-0.20144735107476758	-11.54208301067437	5.050334638609786	0.2046991952925623	5.180844202088501e-24	2.6245345649257095	-0.23928435441822438	-0.417700322314514	0.1784159678962896	60.75267090893314
1	1.0	perception	27	diff_vonmises	0.033705851614614486	1.9312030424116213	11.608668811779363	0.6385575204933377	0.021322830021248594	3.251018674663675	0.32971344910147127	-0.5209880673349024	0.8507015164363737	39.59355713880072
2	1.0	wm	27	diff_vonmises	0.07547571140123427	4.3244397190381525	9.341104426690753	0.2924042397491384	5.640078997010172e-30	3.0665919800785275	-0.13661386899211597	-0.48806326936893174	0.35144940037681577	44.430668441287935
3	2.0	ltm	27	diff_vonmises	0.0314995468315984	1.8047910900252726	5.6485324569628075	0.47649557408905685	0.14886142925266593	1.7243620768877588	0.12405095606828115	-0.276992403667945	0.4010433597362261	54.58432324593147
4	2.0	perception	27	diff_vonmises	-0.004163199878683193	-0.23853378231792333	8.247834618325712	1.161378015596115	0.22404319613312823	2.6851312069615783	0.7810929935497632	-0.45284756708099466	1.2339405606307579	45.83082373738989
5	2.0	wm	27	diff_vonmises	0.0976472984032334	5.594778079359816	2.7167518046035837	0.7143867113826424	5.7367928466350035e-21	2.0973429029261386	0.10813306780928583	-0.33187195692301985	0.4400050247323057	83.43088820778775
6	3.0	ltm	27	diff_vonmises	0.024794150891866366	1.4206002027144689	3.754368087337151	0.7502414697058403	0.5910159140232677	1.2299540811637213	0.23255107193019847	-0.17498201722655696	0.40753308915675546	61.75627258234729
7	3.0	perception	27	diff_vonmises	0.0029545059049507307	0.16928071890015683	3.689521368985651	2.3520654133321823	0.6022838059105671	2.913558894805491	0.9549644158389484	-0.3892975053308064	1.3442619211697548	63.833914268678996
8	3.0	wm	27	diff_vonmises	-0.15351718191435992	-8.795886606434916	1.3573063850209328	144.50397918923548	1.3407099387304688	145.0469522545836	0.21233258378399	-0.19854501975272498	0.410877603536715	75.28099031371198
9	4.0	ltm	27	diff_vonmises	-0.04208322212382143	-2.4111910160065406	1.2971237242146292	195.40933784005057	1.27947400815356	196.69513634410336	0.12188555660149802	-0.34824934583426526	0.4701349024357633	72.8904837154702
10	4.0	perception	27	diff_vonmises	-0.08701527432244215	-4.985607971849019	3.7258434260977644	1.8157643801665355	0.15638126255168194	3.4080030007148787	0.7123898717975151	-0.5084442351762047	1.2208341069737199	67.55750380096163
11	4.0	wm	27	diff_vonmises	-0.0931786631860728	-5.338744141232988	1.0413802174528388	264.567238319552	1.029399243279495	266.0305003703759	0.08951437237533355	-0.36186089749114814	0.4513752698664817	80.75738745084499
12	5.0	ltm	27	diff_vonmises	-0.10084259213312124	-5.777854924387005	2.340611458131915	0.8717084538644965	6.250882076115741e-17	1.9193320853930804	0.18867022559356517	-0.30089148646611896	0.48956171205968413	89.8828133441989
13	5.0	perception	27	diff_vonmises	-0.04718981563173074	-2.70377727169865	0.8625086127127701	120.94862648624537	0.8251906993108582	122.01110738960108	0.5336271039284668	-0.44850557825154347	0.9821326821800103	96.98860942238747
14	5.0	wm	27	diff_vonmises	-0.030460923690907207	-1.7452823675590452	0.43025985595821487	133.89773330883773	0.41737481432851853	134.94174785472478	0.07650791171370486	-0.3124043287429412	0.3889122404566461	127.96301415916805
15	6.0	ltm	27	diff_vonmises	0.15018666825667365	8.605062230238813	0.7141109212531022	116.72892947900584	0.7008121642744083	117.58382638945965	0.05256310666027275	-0.2131374340028671	0.26570054066313986	98.70370065434841
16	6.0	perception	27	diff_vonmises	-0.14171148709806888	-8.119470119241965	0.753070524750586	269.8025785910158	0.742361170047459	270.82723015353946	0.25171385869873575	-0.3351939784278919	0.5869078371266276	100.47400493970224
17	6.0	wm	27	diff_vonmises	-0.081891461838212	-4.69203514148619	0.5845485402077922	110.41382918158092	0.5683172217811248	111.35296293427841	0.0945966941591827	-0.26704835456508036	0.36164504872426306	111.53491968951921
18	7.0	ltm	27	diff_vonmises	-0.016553032875571996	-0.9484189219115761	0.9939244260305486	139.45165470147495	0.9777528132384751	140.49488221534813	0.07503607646827248	-0.2600518517728414	0.3350879282411139	83.23075679786061
19	7.0	perception	27	diff_vonmises	-0.10763071915874016	-6.166785953753662	1.807863560821194	2.1582174170654898	7.774076528584239e-19	3.036364069834868	0.5639647747775685	-0.45508454273615895	1.0190493175137274	101.69081939916062
20	7.0	wm	27	diff_vonmises	-0.18002654561957734	-10.31476126432116	1.0403382887589179	109.65707365335562	1.0219212188209006	110.40440148211644	0.1224770315014041	-0.21004699997217458	0.3325240314735787	83.63685542589407
0	1.0	ltm	28	diff_vonmises	-0.1051020662662524	-6.021904815160565	2.830463444535996	0.46934114385343106	2.3684591106541377e-15	3.038249786004339	-0.1862285852078458	-0.4825179951924138	0.296289409984568	81.71309499893815
1	1.0	perception	28	diff_vonmises	0.041146742198594495	2.35753466869231	12.74858564145354	0.5746700968755954	3.865526002546643e-16	3.1943470025095486	0.3016522341619976	-0.5083961153933273	0.8100483495553249	37.97278106608687
2	1.0	wm	28	diff_vonmises	-0.014339926412848073	-0.8216172619843687	3.4866349767231792	0.49514392817327146	4.262292839565685e-40	3.4241908503517426	-0.192037624273235	-0.5446463310134261	0.35260870674019107	73.46213208503721
3	2.0	ltm	28	diff_vonmises	0.12898187537553554	7.390117092700547	9.113738672965644	0.46220250577855543	0.16448166834984088	1.7027332995599058	0.23119406933184333	-0.2865113013299709	0.5177053706618142	43.598924689436245
4	2.0	perception	28	diff_vonmises	0.017354011454984542	0.9943116139922993	6.130593768609373	1.2570158946904941	0.26868103021878037	2.7868393803125038	0.6441653184424566	-0.45607430276920474	1.1002396212116614	52.282589558040854
5	2.0	wm	28	diff_vonmises	0.12569409363091985	7.201741074773909	2.4591879528820213	0.7887456711411134	0.01464791188932694	2.318714983429338	0.08590973368423122	-0.3602834190616822	0.4461931527459134	86.5750066236948
6	3.0	ltm	28	diff_vonmises	0.05559397082492073	3.1852998946413895	2.506649815258236	1.3977004059271771	0.8508021456000889	2.1185834032722983	0.16118554513703975	-0.2250899187083012	0.38627546384534095	66.91804346889495
7	3.0	perception	28	diff_vonmises	0.003273997555025525	0.1875862420391131	2.9675501579499763	3.158532069363032	0.6416629277727406	4.0460373741270566	0.9494643161695646	-0.4790567850305746	1.4285211012001393	68.75663997804048
8	3.0	wm	28	diff_vonmises	-0.07510881433248041	-4.303418065482835	1.0267836495223015	143.34458721529413	1.0067709244490752	144.48509347483284	0.15067118247401368	-0.3080113768757382	0.4586825593497519	83.55719579326276
9	4.0	ltm	28	diff_vonmises	0.011493172453850873	0.6585102748216709	1.2587277105805244	10.610335041980752	0.9634752047152344	12.116263856689157	0.08092415736047709	-0.3728801246199078	0.4538042819803849	77.70354102575001
10	4.0	perception	28	diff_vonmises	-0.05968531461921439	-3.4197166265914567	1.1646448455138823	138.10179874001196	1.1159891543213314	139.90601355793794	0.5956750216719513	-0.6112405451054546	1.2069155667774059	81.68389280051238
11	4.0	wm	28	diff_vonmises	-0.08991933679590677	-5.151998495020865	1.003699724491955	325.1548015065454	0.9914712219987059	327.15823142474824	0.07097690504815546	-0.4764692994199464	0.5474462044681019	81.37868729002133
12	5.0	ltm	28	diff_vonmises	-0.06849804001932945	-3.9246485980257892	1.5840167163837375	1.1228598018018696	3.502527774387987e-15	2.0839529374212553	0.17105514199782573	-0.31051346167149824	0.48156860366932397	107.89494354831638
13	5.0	perception	28	diff_vonmises	-0.01230193193640623	-0.7048487798132772	1.8492694263891563	2.3863270979356037	0.132130062921478	3.573790396756767	0.5276266285076361	-0.467860479730167	0.9954871082378031	94.33905649468088
14	5.0	wm	28	diff_vonmises	0.2170476107489172	12.435912049311277	0.3344264230284096	27.694209651416383	0.27343106914988086	28.984510962167864	0.03757114031693565	-0.37635032468810925	0.4139214650050449	141.37597198423197
15	6.0	ltm	28	diff_vonmises	0.48381502688345834	27.720559105430628	0.6638963012316498	166.18337191209915	0.6532324491142228	167.15930497281374	0.06798865040310886	-0.25078025828829276	0.3187689086914016	102.84626835435239
16	6.0	perception	28	diff_vonmises	-0.05905445750282933	-3.3835711763467993	0.7320057161552417	290.6641676807372	0.7204830582414148	291.91212260440744	0.2789794137311503	-0.3996654920137459	0.6786449057448962	101.6350556061507
17	6.0	wm	28	diff_vonmises	-0.016952332089446284	-0.9712970816294645	0.3854863804367436	137.3437555679595	0.3712017478443126	138.6792129357068	0.060445271909305376	-0.38651413058534523	0.4469594024946506	132.76700602226225
18	7.0	ltm	28	diff_vonmises	0.03695359529162613	2.117285048044688	2.1423884160588096	0.7172942732385909	1.5178889962814462e-17	2.0353025760527332	0.061765272959364514	-0.3186148326972086	0.3803801056565731	93.86517455208934
19	7.0	perception	28	diff_vonmises	-0.022091426160085047	-1.2657454823977716	0.8339155105087259	262.71497007338553	0.8164623293450411	263.6933758697699	0.5752186404165229	-0.451877303634447	1.02709594405097	98.61116867390942
20	7.0	wm	28	diff_vonmises	-0.07681408743894728	-4.4011230174005505	0.9288038822524645	192.57802843607837	0.9135769981969138	193.95017856694614	0.11147628232256324	-0.3451028931888125	0.4565791755113757	86.56909983197224
0	1.0	ltm	29	diff_vonmises	-0.1663584409794763	-9.531636554500192	5.206449026950818	0.316583742369589	1.0832366464252197e-15	3.0971533936286937	-0.21247981052203718	-0.4929188438398221	0.2804390333177849	59.81659422012115
1	1.0	perception	29	diff_vonmises	0.03902549581193819	2.235996203429528	11.942699324473363	0.7269047106041848	6.242758992076223e-16	3.345408614687632	0.4587122490795561	-0.5324383176477769	0.991150566727333	39.23972431073366
2	1.0	wm	29	diff_vonmises	-0.24850670674602654	-14.238385477242543	0.0001277460223895187	9187.921671891256	4.9903629046070397e-29	9191.132654190054	-0.32423594544707157	-0.6978395333389926	0.37360358789192105	178.23320302709038
3	2.0	ltm	29	diff_vonmises	0.15263685346626762	8.745447501773926	8.514407058110168	0.5010867551229246	0.24965338789781463	1.7587954158698111	0.220424262868117	-0.3041810441305722	0.5246053069986891	44.41118231627448
4	2.0	perception	29	diff_vonmises	0.002264671527705254	0.12975612052095553	7.486765601334577	1.1970367529055064	0.1531495350971967	2.5478317117242124	0.8134642270991197	-0.4155176448392998	1.2289818719384196	48.523711980921234
5	2.0	wm	29	diff_vonmises	0.0655122875335441	3.7535775819195947	2.1991207020807435	0.827306156179105	2.922172607248605e-14	2.4695983998933713	0.05881479604581147	-0.38749111913673245	0.4463059151825439	92.67849534968062
6	3.0	ltm	29	diff_vonmises	0.14353626921826204	8.224022433259966	4.90781357231943	0.47567398939543143	0.34204491876646925	0.9790103856781122	0.1953034869930165	-0.15464652875423368	0.34995001574725015	57.131250008625244
7	3.0	perception	29	diff_vonmises	0.00682015974349942	0.39076636890754285	3.2798115980749527	2.314147596714278	0.4944510895446072	2.8382105776902535	0.8966456588397462	-0.3654884537788341	1.2621341126185803	68.27142409937798
8	3.0	wm	29	diff_vonmises	-0.07779645594240645	-4.457408586575343	1.8367226102557819	2.498851175705352	0.8049583428301009	3.295764744829493	0.22033496176818979	-0.2537759626078461	0.47411092437603586	75.94621325245734
9	4.0	ltm	29	diff_vonmises	0.06002931894257574	3.4394266224543157	2.1108605564426624	2.020544423179049	0.6336300593852362	3.5223234052381316	0.11895314130378165	-0.38043554924087036	0.499388690544652	72.32709012849094
10	4.0	perception	29	diff_vonmises	-0.09127790054169695	-5.229838463854126	1.092356456363158	200.25111304290053	1.0579733864975995	201.93452406560226	0.6991126850213902	-0.6202779237179321	1.3193906087393223	85.02962101025986
11	4.0	wm	29	diff_vonmises	-0.19085789723073185	-10.935351998062536	1.168045967699478	389.56730771526156	1.1554044452026346	391.47808478742303	0.20605352530949972	-0.5105385491422965	0.7165920744517962	77.31487663579315
12	5.0	ltm	29	diff_vonmises	-0.0783273167153555	-4.487824668374376	1.9435670789520132	0.8867918468948773	1.4056674486698474e-11	1.6439145948464375	0.18795829282286364	-0.2524173198391069	0.44037561266197056	98.33993054226528
13	5.0	perception	29	diff_vonmises	0.02187954892418109	1.2536058110055774	1.7848006519601731	2.7932863957572227	0.2076597616254187	3.6186583805139407	0.6435425626253162	-0.4284702413678425	1.0720128039931587	93.79647145868802
14	5.0	wm	29	diff_vonmises	0.12587261772792385	7.211969752073622	0.5269227745244649	125.86048182912133	0.5115934478643699	126.85559873840569	0.11394735458765481	-0.30296226923680436	0.4169096238244592	118.08534605981603
15	6.0	ltm	29	diff_vonmises	0.5115089447043327	29.307303714748866	0.9462274467071988	135.46023488576412	0.9346394856054203	136.04112033477656	0.10698305383449735	-0.16753759805455282	0.27452065188905017	88.18434379057365
16	6.0	perception	29	diff_vonmises	-0.12833110484010726	-7.352830687589037	0.576332353752217	239.61253317344787	0.5654610386463061	240.37695153742558	0.29349938375442264	-0.3395140490971116	0.6330134328515342	116.92440506971094
17	6.0	wm	29	diff_vonmises	-0.05927318777045706	-3.3961034975336353	0.49478941300156	140.837734462867	0.48158885307096433	141.709279204449	0.13476688632368194	-0.2927785731729138	0.4275454594965957	122.45481109140775
18	7.0	ltm	29	diff_vonmises	0.16128523535532877	9.240963283634507	2.5905744911846447	0.5134571587025071	3.0714165788688243e-18	1.457403489276566	0.07702737264824036	-0.23021594333049417	0.30724331597873455	85.44115079365852
19	7.0	perception	29	diff_vonmises	-0.059980530148346325	-3.4366312304574382	0.9197722570965884	221.5382144342154	0.9030395393386774	221.9749478661816	0.5643638723531978	-0.3175873836973011	0.881951256050499	95.85628800943579
20	7.0	wm	29	diff_vonmises	-0.018287527956152124	-1.0477981696150211	1.7487479888861774	0.9354524822592558	0.0703973994252879	1.9826887734787892	0.10666525416305384	-0.2802743713666687	0.38693962552972255	98.19133578319708
0	1.0	ltm	30	diff_vonmises	-0.018379089952141384	-1.0530442855489994	9.64680905484437	0.2950146952714254	0.108915271457993	2.9407024370094508	-0.15977047697865543	-0.4908311970086288	0.3310607200299734	41.767110527694626
1	1.0	perception	30	diff_vonmises	0.012159443329766269	0.6966847840241077	14.009999729934338	0.5794569422587177	1.2334972493157654e-20	3.176003505960038	0.35164063190383466	-0.5054766572501489	0.8571172891539836	36.20629006563678
2	1.0	wm	30	diff_vonmises	0.03677637428779256	2.1071310324839527	6.273765249295798	0.2617779856685792	6.714686299547737e-21	3.668515266263247	-0.3279454635609366	-0.5838614289705472	0.25591596540961054	54.37751628500169
3	2.0	ltm	30	diff_vonmises	0.10131055152622098	5.804667022595123	10.953803709470867	0.4743939426535176	0.42422979575149095	1.405451100851502	0.2918634634339449	-0.26874836206593544	0.5606118254998804	38.95255310022705
4	2.0	perception	30	diff_vonmises	-0.005838517900373528	-0.334522434302986	8.489447120451452	1.1339513966620176	0.2764906232781518	2.4346876366884453	0.7960572393745219	-0.4185284443671193	1.214585683741641	45.01892482432973
5	2.0	wm	30	diff_vonmises	0.036244908444501775	2.076680282708029	0.8562821511408761	156.89380824753408	0.837882282965591	158.68521259320212	-0.006011728606374334	-0.3964045047300999	0.3903927761237256	86.6725451249253
6	3.0	ltm	30	diff_vonmises	0.07049543003935102	4.039090616214576	2.1009590049710476	85.10112418810637	2.076209909610237	85.3373345590731	0.19680055293521548	-0.1361499248456539	0.3329504777808694	61.333391244703506
7	3.0	perception	30	diff_vonmises	-0.030742260890548313	-1.76140180171851	3.2907838883436176	2.6077796281868335	0.6696922375066021	3.131017466630657	0.9268258863292393	-0.38475579443524854	1.3115816807644878	66.27562907889771
8	3.0	wm	30	diff_vonmises	-0.13506664689468062	-7.738748820048966	1.4319465124407285	155.27421146248454	1.4136698870952586	156.23614934675243	0.10224350662191739	-0.2733767233473898	0.3756202299693072	69.4087724022798
9	4.0	ltm	30	diff_vonmises	-0.06496475444212514	-3.7222062466375374	1.3028793611679461	201.48345510939524	1.2878955710222681	202.6279832949726	0.09680226429287586	-0.3071944986488333	0.40399676294170916	72.41937894164454
10	4.0	perception	30	diff_vonmises	-0.10952929963619233	-6.275566602177603	2.160892588292114	4.331877273532087	0.634614665835288	5.567187625422478	0.8263590934881486	-0.5364407933900686	1.3627998868782172	76.92391125647501
11	4.0	wm	30	diff_vonmises	-0.20043473820147084	-11.484064566753851	1.0166214697457445	260.3920528161038	1.0037217927836466	262.2989860756249	-0.018142351177075966	-0.4285999814074728	0.41045763023039683	78.72489921158393
12	5.0	ltm	30	diff_vonmises	-0.08423615193042916	-4.826375988036373	3.1625458473705605	0.6606229435800062	1.2924076685681643e-20	1.4838817073748856	0.2096598894974629	-0.23536869761006524	0.44502858710752813	77.2258677291085
13	5.0	perception	30	diff_vonmises	-0.03360895958265732	-1.9256515379120291	1.1757892797095078	7.417725507127491	0.595857434611488	8.417655529100788	0.5503398163325821	-0.4358528070596354	0.9861926233922176	95.48388140415028
14	5.0	wm	30	diff_vonmises	-0.07086573559168063	-4.060307561493324	0.2457948994007642	62.67014864983256	0.22377296907191827	64.15548887915409	-0.04997429686889632	-0.3779487397608756	0.3279744428919793	149.48876440525575
15	6.0	ltm	30	diff_vonmises	0.5090036679668475	29.16376193117866	0.5413619178872926	116.5679144226633	0.5310669940478213	117.41297100573493	0.012044473921729804	-0.20510486714509923	0.21714934106682904	111.82013353865435
16	6.0	perception	30	diff_vonmises	-0.08633726871471029	-4.9467611120397805	0.7718007941295514	326.0488511568813	0.7612463654000259	327.1509453894341	0.33061557681809006	-0.38400852582324063	0.7146241026413307	99.95620406969634
17	6.0	wm	30	diff_vonmises	0.11950469406525774	6.847114601941365	0.00020393859401731626	6751.381723744987	8.87687429651282e-32	6752.863193441807	-0.01663759760276662	-0.4549065082294419	0.4382689106266753	179.45208326668273
18	7.0	ltm	30	diff_vonmises	0.11241145869563036	6.440702152168798	1.292676797988639	58.07065099044402	1.253679996516416	59.00450424308514	0.05020176539658294	-0.24109034411536978	0.2912921095119527	72.21276666762651
19	7.0	perception	30	diff_vonmises	-0.0681723389452906	-3.905987301100485	0.8517262947461817	6.702624362208082	0.40251880197938067	7.551868587637516	0.37449059429757003	-0.3894834640831967	0.7639740583807667	113.06241540135598
20	7.0	wm	30	diff_vonmises	-0.4132264878385809	-23.676133736164726	0.7142228512552836	126.24826631865103	0.7023021406095105	127.45691447528702	-0.057516856318294174	-0.24692366682019262	0.18940681050189845	91.65066788515834
0	1.0	ltm	31	diff_vonmises	-0.07167373625904745	-4.1066025895771965	4.251372904836519	0.29756525183251986	1.6314152349138344e-19	2.669933160325779	-0.18843884778016753	-0.42488507233753897	0.23644622455737144	66.35135953854419
1	1.0	perception	31	diff_vonmises	0.016071262632232425	0.9208155202732281	13.078663910442016	0.5633338339548588	0.011199966776903306	3.0457888947392457	0.3144926239927746	-0.48661426800915	0.8011068920019246	37.37740010449812
2	1.0	wm	31	diff_vonmises	0.015623449313013977	0.8951577070722663	6.8002122861680885	0.3298093422035424	0.00198022744533829	3.0674203995670677	-0.15285411228378953	-0.4879147896660278	0.33506067738223827	52.07130876841174
3	2.0	ltm	31	diff_vonmises	0.06013754810943328	3.4456276969354698	6.165524752378225	0.5193907135553713	0.21749392578965476	1.7296957589076425	0.1648978388207581	-0.28451308415650095	0.44941092297725904	51.7725664284676
4	2.0	perception	31	diff_vonmises	0.00047785080477287653	0.02737883435041568	6.77392660274081	1.2034554980978618	0.27525377231357745	2.7234385184818817	0.6645702325921783	-0.4538996169432214	1.1184698495353997	49.87459764085463
5	2.0	wm	31	diff_vonmises	0.10380657276790609	5.947678505318683	3.0524453557433118	0.6456260438935836	6.400851051964629e-12	2.0616088861183712	0.09893407310152774	-0.3271621003506514	0.42609617345217915	78.63399080059281
6	3.0	ltm	31	diff_vonmises	-0.00604864619854296	-0.346561898944361	2.8979486466956104	1.0651167824051897	0.7199033513793192	1.656007808868536	0.20639382169449066	-0.20113260099357066	0.40752642268806133	66.16649646613712
7	3.0	perception	31	diff_vonmises	-0.015087225335978201	-0.8644343363143964	3.7575983853350103	2.3397278893034836	0.5104150980123765	3.102951366175269	0.9666381683733181	-0.4288478272269401	1.395485995600258	63.94442356648062
8	3.0	wm	31	diff_vonmises	-0.15633037138314396	-8.95707048996689	1.277379856894716	215.82605555662659	1.2644025315250114	216.67928480002087	0.17804333062784394	-0.2593668300182088	0.43741016064605276	75.63499836322632
9	4.0	ltm	31	diff_vonmises	-0.07141925904999566	-4.092022119516261	1.1958974788498897	163.87358223059036	1.1761913383022953	165.19588154471296	0.10223742730577356	-0.3428889571190261	0.4451263844247997	75.66651055238901
10	4.0	perception	31	diff_vonmises	-0.0700736142572376	-4.014922352167467	3.0869273256148846	2.1740886916374538	0.24895785173281115	3.880464135453754	0.6672071927347756	-0.5446757461248094	1.2118829388595849	71.79014392982788
11	4.0	wm	31	diff_vonmises	-0.07793002501437826	-4.465061530672807	0.9706419712507078	243.99691014065408	0.9573699786113237	245.7452347980923	0.031036619523405307	-0.4040579276507401	0.4350945471741454	82.0767997887097
12	5.0	ltm	31	diff_vonmises	-0.05523517295015065	-3.1647422907188005	2.0756706110436536	1.0142762813739399	4.089454886136816e-17	1.8977767266122691	0.233063151421891	-0.29361611122363035	0.5266792626455213	95.31012152299235
13	5.0	perception	31	diff_vonmises	-0.04549806990945994	-2.606847381803222	1.742529633439017	2.550194558811233	0.18848777012581605	3.6207898105386533	0.5203086829813444	-0.4386826743104194	0.9589913572917638	94.7060481987165
14	5.0	wm	31	diff_vonmises	0.007745716305011992	0.4437968535828538	0.34599382573781545	134.6294471563015	0.3327926069518188	135.73191147716835	0.08327645434688336	-0.35090745062913165	0.434183904976015	138.3668948855033
15	6.0	ltm	31	diff_vonmises	0.25541035637111836	14.633935463997378	0.609654734320375	135.46219009075136	0.5983648385021013	136.23081906808108	0.08568849041633797	-0.21915831087239646	0.3048468012887344	109.16191575525798
16	6.0	perception	31	diff_vonmises	-0.10380681708568826	-5.947692503696461	0.8011458409047967	273.5765745634988	0.7898621328832128	274.62718977632215	0.27254312397501224	-0.3435700632461831	0.6161131872211953	97.51737667832398
17	6.0	wm	31	diff_vonmises	0.07374200168292848	4.225105469278415	0.29263541393788745	96.43048605075562	0.27695152061315836	97.36139955256164	0.07766524164798483	-0.31264381833891086	0.3903090599868957	145.1990871220157
18	7.0	ltm	31	diff_vonmises	-0.03672349842655363	-2.1041014687968427	0.8635180173854172	142.0618567458385	0.8478367173737751	143.16081961532672	0.08128549359830828	-0.2736839520328971	0.35496944563120536	89.73920440386917
19	7.0	perception	31	diff_vonmises	-0.08793163672441981	-5.03811166998681	0.7761090738035595	78.17518040524978	0.7217753285707258	79.15268287494143	0.5285857566401688	-0.4502194524802414	0.9788052091204102	103.28342388322362
20	7.0	wm	31	diff_vonmises	-0.14239842128919492	-8.15882854919672	1.0259814096722135	161.19636326084338	1.0115468074947294	162.1746272696599	0.10300723126247391	-0.2554375851605286	0.3584448164230025	82.79221527434325
0	1.0	ltm	32	diff_vonmises	0.06100477167875132	3.4953159473516644	5.688708237745037	0.3301802582791944	1.9904002919171104e-15	2.594760800793356	-0.1064438754461709	-0.4129654960157306	0.3065216205695597	57.168790613280606
1	1.0	perception	32	diff_vonmises	0.043894068234727086	2.5149448555091136	15.232118484733094	0.5854428867096516	0.0684517056963893	2.7580157467171573	0.433833006387378	-0.4547718654525361	0.8886048718399141	34.390318448819954
2	1.0	wm	32	diff_vonmises	0.06979644013856942	3.9990414449775225	4.280344841527801	0.6181761891017711	0.13750873621597542	3.02277442468899	-0.056288792556020484	-0.47611029893057444	0.41982150637455395	60.976853169754435
3	2.0	ltm	32	diff_vonmises	0.11250108294050983	6.445837243142438	3.3767699576512613	0.8750915389946085	0.4627961874183843	1.9395155574835368	0.14757202722148438	-0.28017670032101466	0.42774872754249904	63.914603464394304
4	2.0	perception	32	diff_vonmises	0.0282533296280996	1.618796544882031	5.411269713194544	1.4392961095814931	0.44590394498610453	2.7447643469092853	0.6518394781970024	-0.44754386607800545	1.0993833442750078	54.05227312228149
5	2.0	wm	32	diff_vonmises	0.09906469529956702	5.675988939414674	2.7033966642935554	0.9873314230200112	0.2798397212569515	2.061064278358875	0.1834772953509427	-0.2817175968778065	0.4651948922287492	74.05800642272513
6	3.0	ltm	32	diff_vonmises	0.061276295189866783	3.510873098577154	3.5482506471994335	0.9664321679704279	0.6480250497530229	1.7248006419314408	0.22180357651336657	-0.24304508670990166	0.46484866322326823	61.59941354383449
7	3.0	perception	32	diff_vonmises	-0.05252222931560258	-3.009302070402314	6.275661758762791	1.1224031269155967	1.9658073598920774e-12	1.6310184619597505	0.8378741645455996	-0.2595807652553521	1.0974549298009517	54.36886890424344
8	3.0	wm	32	diff_vonmises	0.010901102354221396	0.6245871569370117	1.2707155022400367	110.46646335474298	1.2456977609219422	111.15582775104076	0.23869568599055668	-0.2393064174847872	0.4780021034753439	77.71158916054833
9	4.0	ltm	32	diff_vonmises	-0.14790154658561316	-8.474134402813165	1.140034037275279	193.27113655473798	1.1236579341030566	194.76139928001712	0.04629600812836543	-0.361791352729977	0.4080873608583424	76.0058716507173
10	4.0	perception	32	diff_vonmises	0.031220980844742337	1.7888304346625237	3.166133210734119	1.4878556965362093	1.0190736902005866e-21	3.5604822746174287	0.4380600680739344	-0.564881870330925	1.0029419384048595	77.18218385338491
11	4.0	wm	32	diff_vonmises	0.10365408203075767	5.93894142966524	1.165547059692087	226.40058205885512	1.1493049232044474	228.1152724801641	0.049417828971115796	-0.4177374289701312	0.467155257941247	75.02954152422637
12	5.0	ltm	32	diff_vonmises	-0.1026060675915755	-5.878894625431332	1.7208721384367514	1.1339778129811902	8.727892939669684e-20	2.026244467774164	0.21147817622344417	-0.3053951103439199	0.5168732865673641	103.99805017253118
13	5.0	perception	32	diff_vonmises	-0.0838338745222881	-4.803327190356429	1.62599981672207	2.7791969559813503	0.25751064246824956	3.9983058150415665	0.45447843322150616	-0.44307532647759956	0.8975537596991057	94.30881779987831
14	5.0	wm	32	diff_vonmises	0.13204407417299782	7.565568159825172	0.516143364692221	79.34369988318406	0.4912874092714974	80.06428204453901	0.19217218743735742	-0.28781782919824117	0.4799900166355986	122.40020592829175
15	6.0	ltm	32	diff_vonmises	0.0701467625542941	4.019113440867374	2.0469869673862116	0.8150185628762759	0.1091611708844609	1.4705978049400712	0.16612006043814537	-0.20316058586478228	0.3692806463029277	90.19910437343796
16	6.0	perception	32	diff_vonmises	-0.27974878719246793	-16.02842483003183	1.5485085123573963	1.505227042593069	1.9390923015832928e-22	2.554818265696811	0.25808963836990045	-0.37657821120466617	0.6346678495745666	108.72843486070585
17	6.0	wm	32	diff_vonmises	0.3207927877384727	18.38007283565055	0.4957724974150974	157.63966832286278	0.4838765907504914	158.16002017048606	0.22309297942105388	-0.26156417358163253	0.4846571530026864	124.669798556497
18	7.0	ltm	32	diff_vonmises	-0.13497018589297763	-7.733222011763781	1.305373694202783	1.9372660596574756	0.3052903678235866	3.5202864944667493	0.02899110003808425	-0.3610093102879939	0.39000041032607813	94.51405048882404
19	7.0	perception	32	diff_vonmises	-0.02928704776502795	-1.6780242313341518	1.6303704264137004	3.9419728665538925	0.4111587326627855	5.525912288675614	0.5236995219814817	-0.5323149599102411	1.0560144818917228	88.85854743514597
20	7.0	wm	32	diff_vonmises	0.03243983430091169	1.8586655935459613	1.0494551755477177	229.7916841910389	1.0359895279476452	231.08764981925185	0.13135663466572112	-0.3375177856285809	0.46887442029430204	81.67778623642158
0	1.0	ltm	33	diff_vonmises	-1.2636147936637852	-72.39979460722925	0.00025394861525743483	1775.8600244303725	2.4242569456468947e-28	1779.5432703836361	-0.5144287417628561	-0.6579757456823927	0.14354700391953656	139.16486640059892
1	1.0	perception	33	diff_vonmises	0.09226299791792296	5.2862803859212875	11.134713702937	0.7072117960132318	0.036437595997330666	4.350007270923504	0.21251567367141866	-0.7015157203059017	0.9140313939773204	40.23836953715136
2	1.0	wm	33	diff_vonmises	0.18809027688844548	10.776779033154977	131.51936950365229	0.5007698076745872	3.0852132042245625e-47	4.613599832462031	1.5523492899198101	-0.7342772187842723	2.2866265087040825	11.7891520667836
3	2.0	ltm	33	diff_vonmises	0.024760344436794493	1.4186632355185518	13.75656432524918	0.33647023884362826	0.034402853278597455	1.9498643593506637	0.17190647697996592	-0.31517907207988155	0.48708554905984747	36.28625291365552
4	2.0	perception	33	diff_vonmises	0.013959197015917706	0.7998030744036976	10.988502419982325	1.178883254653582	0.16085659604637137	3.256538208334559	0.9355646103513021	-0.5519962306239105	1.4875608409752126	40.13086526095688
5	2.0	wm	33	diff_vonmises	0.06553688609427265	3.7549869756314367	2.7425150657239836	0.7743413786132826	1.482908500308538e-12	3.0104418679185185	0.0025444769428687453	-0.4771284343733004	0.4796729113161691	83.0338282022922
6	3.0	ltm	33	diff_vonmises	0.06838655550093972	3.918261005641009	3.80751089683401	0.6675054399886214	0.6297929004157558	1.128300989204116	0.19354001469567766	-0.16222966128602928	0.35576967598170695	60.72591702351289
7	3.0	perception	33	diff_vonmises	0.025133206990908534	1.4400266862077546	3.0161674924118875	3.211778523970462	0.7970781401982159	3.8971039791508675	0.9287113427418332	-0.4374163472334592	1.3661276899752923	66.87406113394186
8	3.0	wm	33	diff_vonmises	-0.13466420948341257	-7.715690854865136	1.321077159019076	130.66188919885872	1.301471861561924	131.43274350200835	0.1581214283964556	-0.23528919689943706	0.39341062529589266	74.33463232928133
9	4.0	ltm	33	diff_vonmises	-0.024969778353014636	-1.4306629150048624	1.132373969679347	227.49014865612983	1.1161372741089413	229.28974391535547	0.035189842323021026	-0.43020422388428514	0.46539406620730617	75.81047509214466
10	4.0	perception	33	diff_vonmises	-0.13102970670063324	-7.507449184783328	2.0438524006529497	5.09553726553065	0.7340856882497114	6.7827911582281395	0.6890274003643346	-0.6025681597650169	1.2915955601293514	75.5112308684935
11	4.0	wm	33	diff_vonmises	-0.15620431415014882	-8.949847942539172	0.9738906561518348	216.14788604733005	0.9582163301134382	218.04177244593174	0.010498051366425898	-0.4306007775439227	0.4410988289103486	81.38041637016468
12	5.0	ltm	33	diff_vonmises	-0.14552684789156223	-8.338074190028818	3.279842506642834	0.6636266401611458	7.752523273372841e-17	2.178169482713837	0.11045247502192351	-0.3460189340907467	0.4564714091126702	75.80091889604154
13	5.0	perception	33	diff_vonmises	-0.03478073471998828	-1.9927893078194554	0.8768879184875088	275.6913810309379	0.8580855281777603	277.13068899894614	0.5355980370649434	-0.5259565264959392	1.0615545635608825	94.58167688073422
14	5.0	wm	33	diff_vonmises	-0.19343930327238604	-11.083255669458895	0.499347727489557	157.112257793401	0.4860149315291556	158.86823834528835	-0.037618903462536935	-0.4000278569250053	0.3624089534624684	114.31777206113065
15	6.0	ltm	33	diff_vonmises	0.269155366653096	15.421466542518617	0.7047592942628252	129.5015096023273	0.6917203542674137	130.86591346642277	-0.06429159315268862	-0.2789704175415828	0.21467882438889418	92.39399678956389
16	6.0	perception	33	diff_vonmises	-0.11281458868883558	-6.463799799374594	0.6656763731489648	312.1196684096953	0.6553404473779845	313.46652133107995	0.24174281211908522	-0.4173880031373969	0.6591308152564821	105.89324761520348
17	6.0	wm	33	diff_vonmises	-0.1580208789740195	-9.053929440158887	0.541580663948435	120.08761146071637	0.522782495281233	121.93102130692226	-0.03880150705657215	-0.41200272945917504	0.3732012224026029	109.61999136488315
18	7.0	ltm	33	diff_vonmises	0.14028703757484995	8.037855173432098	1.3461766534306323	123.78789076737382	1.3223862144162333	125.09036720123929	0.009112223148925125	-0.32615572790665226	0.3352679510555774	68.8669995837489
19	7.0	perception	33	diff_vonmises	-0.10943185718496391	-6.269983560976806	1.3634569554965135	2.422749814057849	1.7346106012045518e-15	3.2446128983606206	0.4743369589123734	-0.45157959193705627	0.9259165508494296	114.84367365941445
20	7.0	wm	33	diff_vonmises	-0.42797646239596915	-24.521245026228417	0.981271675751115	134.7188631643322	0.9648902210368017	135.78234445089586	0.06204596790511374	-0.26001558239759603	0.3220615503027098	83.34009485982234
0	1.0	ltm	34	diff_vonmises	-0.04933585755637063	-2.826736416638648	4.94765533601575	0.4301657530712899	0.026650075765361464	3.9118022310806615	-0.2683677578457241	-0.6199294217588908	0.3515616639131667	59.58472260332425
1	1.0	perception	34	diff_vonmises	0.04161114436542165	2.3841429528482365	12.448436086781216	0.6624592397527426	0.03594204100192244	4.094094996264664	0.24724730215088075	-0.6613705555006059	0.9086178576514866	38.09367865293092
2	1.0	wm	34	diff_vonmises	0.04819004047945474	2.761085934037351	5.100852870030907	0.4424877356066433	2.060606688123364e-29	4.41715617660142	-0.3152292113633825	-0.7029978491855996	0.3877686378222171	60.43948201878024
3	2.0	ltm	34	diff_vonmises	0.030056418031212145	1.722105900469363	3.5279762519840285	0.983063660950428	0.29085548665868854	2.682244626910934	0.1462092066282309	-0.40149317483814584	0.5477023814663767	64.89385553484007
4	2.0	perception	34	diff_vonmises	0.013803576656693428	0.7908866846138367	4.681165814776397	1.5075624984210247	0.3077261560137796	3.544121999361443	0.5125055838852791	-0.5573291842580153	1.0698347681432945	58.23573009970278
5	2.0	wm	34	diff_vonmises	0.10978915917112303	6.290455456795365	3.388716392524635	0.7479345320268989	7.87037791141187e-15	2.622097004841336	0.1073928999454194	-0.41672189718781033	0.5241147971332297	74.54242501809372
6	3.0	ltm	34	diff_vonmises	-0.02304512080816797	-1.3203881606771375	3.652635730120121	0.8270899750159096	0.1975827950734821	1.9618785369947918	0.22816445099952648	-0.293569039010322	0.5217334900098485	66.61227058667981
7	3.0	perception	34	diff_vonmises	-0.0017431248433513596	-0.09987369668843567	3.153920347778623	3.0614638168438186	0.5357293815539446	4.398608175028402	0.9481319387718266	-0.5676751626860504	1.515807101457877	67.72913041146464
8	3.0	wm	34	diff_vonmises	-0.10308042754634787	-5.9060734488098054	1.0434949562313192	179.65995118207394	1.0236662948143023	181.12292233720476	0.16536925632004085	-0.38626332850905243	0.5516325848290933	82.36873032667066
9	4.0	ltm	34	diff_vonmises	-0.05299697349703042	-3.0365029083465225	2.2779723485690817	1.5484229596490415	0.23500802727016054	3.494416919509511	0.16984477409559995	-0.4672788520898503	0.6371236261854503	79.79701814324036
10	4.0	perception	34	diff_vonmises	-0.05861967043538517	-3.3586597123953794	1.5365581814832683	8.260176144171965	0.7454377440934856	10.502432124642478	0.5508949207477274	-0.6867958320275579	1.2376907527752854	81.40579093195123
11	4.0	wm	34	diff_vonmises	-0.1128332222242712	-6.464867422312462	1.1279079926381637	5.943093301432057	0.5360752319694947	8.331521055889612	0.06162050780437278	-0.5504143189554801	0.6120348267598529	90.29129902395542
12	5.0	ltm	34	diff_vonmises	-0.025030546928873278	-1.4341446979285832	1.710273698849155	1.428125993893235	2.3736418991837854e-16	2.481374095399568	0.27499480201465054	-0.37301815388504816	0.6480129558996988	104.3149518004594
13	5.0	perception	34	diff_vonmises	-0.012002542563110216	-0.687695032292349	2.0882609080590266	2.197692557906295	0.07058146719558978	3.6039389558399555	0.5488788109662104	-0.5159672040101437	1.0648460149763541	91.60958725594048
14	5.0	wm	34	diff_vonmises	0.044657373393044236	2.5586790195612514	0.3307695721928275	235.48826732370352	0.32091687496570526	236.88696240288473	0.11898245990298761	-0.4588121032933117	0.5777945631962993	140.1809840341704
15	6.0	ltm	34	diff_vonmises	0.3043173820964372	17.436101626595892	0.6293506674553205	160.15961276452202	0.6179157195810967	160.95742881848815	0.1327885569122671	-0.24746416684268446	0.38025272375495156	108.81350583195683
16	6.0	perception	34	diff_vonmises	-0.0310119308421647	-1.776852751807626	0.6635912998905233	225.94709246371343	0.6501876640112625	227.20945803779648	0.22862242701947366	-0.3930054652901056	0.6216278923095793	106.2270899010954
17	6.0	wm	34	diff_vonmises	0.17187028548174432	9.847441981812537	0.4061744814395702	126.8516512719733	0.3938248726430752	127.70993483536614	0.09249887260778067	-0.28080215828397037	0.37330103089175104	131.393947407526
18	7.0	ltm	34	diff_vonmises	0.03821450518764229	2.1895298634326936	0.4016364071388806	64.52269250485278	0.37015540341500797	65.9348545438195	0.05690435153987039	-0.4019838846822781	0.45888823622214847	131.64944678159657
19	7.0	perception	34	diff_vonmises	-0.06124558084012283	-3.509113295966337	0.8082446352854732	276.86305365601083	0.7916799781441185	277.98346371472627	0.5373157890194591	-0.47153628073347775	1.0088520697529368	99.49697708879938
20	7.0	wm	34	diff_vonmises	-0.07298293759766522	-4.181614300812872	1.0772631271305142	198.9651942723029	1.0594335334374119	200.15465063329398	0.24679839217796484	-0.3525120761514309	0.5993104683293957	82.88250958594759
0	1.0	ltm	35	diff_vonmises	-0.32581720929945546	-18.667950985589396	13.085047269233872	0.14953357452792107	4.18958858547377e-28	3.592758509324453	-0.3581964089272922	-0.571805276093535	0.21360886716624283	37.474692372698485
1	1.0	perception	35	diff_vonmises	0.05091442558245547	2.9171817022076065	12.370553174196589	0.6777116438710951	1.2761096209085644e-16	3.652428087742265	0.3596359488494085	-0.5813019844349306	0.9409379332843392	38.54666086948873
2	1.0	wm	35	diff_vonmises	0.12560123794417746	7.196420835819781	13.511622311882313	0.27613432458457965	1.2169493707531585e-34	4.143584246846258	-0.2584480450113891	-0.6594719150025536	0.4010238699911645	36.87063341687454
3	2.0	ltm	35	diff_vonmises	0.03869358781681958	2.216979276122583	7.310346601773254	0.4739975502867622	0.15238956593447972	2.1888799275899133	0.0985118549050179	-0.36203250882419846	0.46054436372921637	48.068033675401296
4	2.0	perception	35	diff_vonmises	0.0113114748736464	0.6480997703282149	8.548179282683956	1.2560608432938307	0.17681276461828446	3.1687296523496298	0.8449651448964339	-0.5288883952040279	1.3738535401004617	45.24953915026529
5	2.0	wm	35	diff_vonmises	0.060237213238173964	3.4513380881769393	3.5909971049984017	0.6376458448946879	2.0655644296652228e-16	2.617252136035033	0.045426685392027544	-0.41619736578500466	0.4616240511770322	72.36415844129749
6	3.0	ltm	35	diff_vonmises	0.07063425597501903	4.047044756415308	5.512506082287026	0.40756370733666414	2.734128703231265e-20	1.0535328627533813	0.20453057674666875	-0.16766889988770384	0.3721994766343726	58.08521889734021
7	3.0	perception	35	diff_vonmises	-0.022695054437649825	-1.3003308350969849	5.451497377053461	1.3127350021984916	0.05890812891220857	1.9203105403256246	0.8678323688248195	-0.3006207258434339	1.1684530946682534	57.75393646058501
8	3.0	wm	35	diff_vonmises	-0.08902458836246607	-5.100733186058771	1.507075435352014	147.26714385870565	1.4864098186183148	148.0020058253256	0.2161938327238886	-0.2538458801114203	0.4700397128353089	70.3410450492776
9	4.0	ltm	35	diff_vonmises	-0.20175774883146239	-11.559867492103312	0.9126147969541415	14.829875043037452	0.719224960330688	16.84387269899569	-0.03327562792612504	-0.43529466311460796	0.4020190351884829	87.68769714030773
10	4.0	perception	35	diff_vonmises	-0.08092579057398433	-4.636706253648882	2.8458041488506964	2.1507471981155444	0.13048548176616007	4.341902793369969	0.5826374544866457	-0.6280726333761911	1.2107100878628367	76.70998948794983
11	4.0	wm	35	diff_vonmises	-0.1573700858157954	-9.016641738856658	1.0470901632898872	206.0426268652594	1.0279887156953833	208.20335146854399	-0.007833123642399187	-0.4921672550320899	0.4843341313896907	77.94405964220707
12	5.0	ltm	35	diff_vonmises	-0.06577687749252803	-3.768737469870913	2.781209981713099	0.8433134202853404	1.545664522737759e-22	1.8086479459387428	0.24098606285772095	-0.28582469651959697	0.5268107593773179	82.44710362004614
13	5.0	perception	35	diff_vonmises	-0.03835253934120725	-2.197438637860626	1.4805001598444854	3.91201476060741	0.3890307008400241	4.918629448763206	0.5685169849186584	-0.43971138382309005	1.0082283687417486	94.3131462484788
14	5.0	wm	35	diff_vonmises	-0.12809255102806447	-7.339162560972228	0.5762027521679326	202.48895510316737	0.5642362936933926	203.49434779649926	0.1969700466655624	-0.3407130450523539	0.5376830917179163	114.61738778488166
15	6.0	ltm	35	diff_vonmises	0.2700018049526839	15.469963884703235	0.8446915759666379	112.27054158179592	0.8311105933037173	112.85116784863585	0.11126067607198564	-0.17148061510611257	0.2827412911780982	93.80917384858051
16	6.0	perception	35	diff_vonmises	-0.18411020306285514	-10.548737600798162	0.5701132822649153	181.1231820279305	0.5582703296451355	181.7822533387476	0.23458822469861218	-0.283966233631304	0.5185544583299162	117.28910505077327
17	6.0	wm	35	diff_vonmises	0.30491494712804135	17.470339580891412	0.09091648137380667	112.24175974616854	0.07927454154170224	112.81608996996775	0.117621768840948	-0.283066259870278	0.400688028711226	167.64212391228534
18	7.0	ltm	35	diff_vonmises	0.08929201256301929	5.11605546409013	1.0449580851954057	163.2575873660016	1.030798883713875	164.46756573709317	0.015249765547963534	-0.28134295801106646	0.29659272355903	78.72681027452401
19	7.0	perception	35	diff_vonmises	-0.14046838591529914	-8.048245667961538	1.7372280819659802	2.0203736020005474	0.1108476512506292	2.5811289411239673	0.4992985584691547	-0.33692756544063956	0.8362261239097943	98.84000476685563
20	7.0	wm	35	diff_vonmises	-0.27804009810102476	-15.930524156592094	0.9063340771310188	54.74193568121281	0.8720631077664952	55.66056903044258	0.06590861399625325	-0.22785146245672205	0.2937600764529753	87.86871109693956
0	1.0	ltm	36	diff_vonmises	-0.0017689035583090484	-0.101350708256782	3.0460729520614875	0.4524079311840954	4.687290574831981e-22	2.6718488619298038	-0.12634910141126943	-0.4245622931060568	0.2982131916947874	78.7211140201918
1	1.0	perception	36	diff_vonmises	0.03700322706531659	2.1201287392069	11.708247843492497	0.5722639265385827	0.1064977979428132	2.9833686503268133	0.2457967250999098	-0.4980989242057307	0.7438956493056406	38.805242989624816
2	1.0	wm	36	diff_vonmises	-0.0033517815764982643	-0.192042938183056	4.008707969602854	0.5860496826696787	0.11377481837161327	2.9867503587776985	-0.07980292419343804	-0.46708897474008815	0.3872860505466501	63.29129977127806
3	2.0	ltm	36	diff_vonmises	0.06902771067619336	3.954996491196013	4.369603229609418	0.6530262681052859	0.23428159969754173	1.860910430594765	0.15748683101185323	-0.29019582899757573	0.44768266000942897	60.351867489455174
4	2.0	perception	36	diff_vonmises	0.034581114319931695	1.9813519013915002	4.715531946549962	1.4725287411238532	0.43566124645061916	3.0599901601193427	0.5191059995396076	-0.48408447849276126	1.0031904780323688	56.991189143634415
5	2.0	wm	36	diff_vonmises	0.13064531143466146	7.485424958378336	2.475818757429474	0.9413503323915646	0.17112317786868012	2.1340536447600416	0.15148644075868128	-0.2982273736663892	0.44971381442507047	79.50979969833014
6	3.0	ltm	36	diff_vonmises	-0.03558849292314559	-2.0390704437274403	2.4587813163363146	1.7957598808843265	0.8280675489576504	2.7611183732918465	0.194854610243129	-0.29331361049486304	0.48816822073799204	67.43784729849622
7	3.0	perception	36	diff_vonmises	-0.01893309500459672	-1.084786436883614	4.155930886525238	2.104638719125964	0.3677808184660432	3.11311289727839	0.9601025400047396	-0.4581323653720799	1.4182349053768195	62.308531977159134
8	3.0	wm	36	diff_vonmises	-0.039937203510326535	-2.2882332066967663	1.017600487695231	158.90473422049075	0.9994338440091046	159.99387560953286	0.17362120686676263	-0.3041871979818076	0.47780840484857023	84.52457883068004
9	4.0	ltm	36	diff_vonmises	-0.09870054210954705	-5.655124498530305	1.1415369065954992	132.52648476648147	1.1167155317999822	133.9910488533089	0.08101472928326814	-0.36568135048406347	0.4466960797673316	76.9666513470772
10	4.0	perception	36	diff_vonmises	-0.008176512020931434	-0.4684796299373546	3.489937983402253	1.62422668691208	0.13210480892416307	3.6327121234703066	0.5013008418084899	-0.5434248921507785	1.0447257339592684	69.60234981884199
11	4.0	wm	36	diff_vonmises	0.1102456627970599	6.316611187893966	0.9258172105570078	192.54324288494536	0.9091426354229419	194.37581361309034	0.016309975278581135	-0.41576260315056857	0.4320725784291497	83.78657045872325
12	5.0	ltm	36	diff_vonmises	-0.040036301737754784	-2.2939111168856328	1.3735690909699307	1.4609289102251486	2.0825371740364922e-16	2.500628273007139	0.20207983296193543	-0.359515008872648	0.5615948418345834	114.54628998507044
13	5.0	perception	36	diff_vonmises	-0.0742858488042989	-4.25626561403328	1.9664466401446823	1.9565250982147213	0.06358335096630446	3.3616553642534437	0.4294748705108685	-0.48198864597114693	0.9114635164820155	94.41221156807899
14	5.0	wm	36	diff_vonmises	0.16838532177112503	9.647768269437801	0.29219089368294127	89.6612726096835	0.27202436313196504	90.79247058199739	0.08982367827212556	-0.3771560693511482	0.46697974762327377	145.1668725099795
15	6.0	ltm	36	diff_vonmises	0.14193259293748398	8.132138550666147	0.5145092999565013	147.94288678679536	0.5023654243862179	148.93128687404024	0.09190965010456154	-0.2905810372013349	0.3824906873058964	118.6393746098222
16	6.0	perception	36	diff_vonmises	-0.10860315137277175	-6.222502215480234	0.8177336239869728	221.4493928762903	0.8017325263337208	222.9062999515766	0.23376592628638093	-0.4145092138315718	0.6482751401179527	94.83782536511498
17	6.0	wm	36	diff_vonmises	0.17162719477407684	9.833513910224342	0.42239035634667044	141.45176773868246	0.4091284246188291	142.5275450787281	0.09799701642977965	-0.3362843144243417	0.43428133085412135	129.19554806671454
18	7.0	ltm	36	diff_vonmises	-0.1198060146613814	-6.864379000379617	1.9867537325813274	0.9382857625294501	1.035607403510672e-12	2.5082020782838583	0.08291157988719317	-0.39012555249179337	0.47303713237898654	97.30714515358869
19	7.0	perception	36	diff_vonmises	-0.02340620464674007	-1.341076740677702	0.8253007915401024	228.00531374326383	0.8010186677554527	229.66755000124618	0.5520855306274655	-0.5911104522494917	1.1431959828769571	97.35167246194723
20	7.0	wm	36	diff_vonmises	-0.0365052351097811	-2.0915959019232493	1.15308585163517	253.6336170386447	1.1387596973350824	254.9895391775832	0.17767163882338366	-0.37105812016617534	0.548729758989559	78.42559627992159
0	1.0	ltm	37	diff_vonmises	0.011505271092379853	0.6592034757472358	10.307786783147984	0.3089821969327893	0.04918550101946583	4.051611067714702	-0.28627755226054197	-0.6583895130977653	0.3721119608372233	41.147375847199356
1	1.0	perception	37	diff_vonmises	0.07568902159803169	4.336661493041749	13.770510089027528	0.661532415807097	0.04640209329416394	4.02693374466787	0.29893379393339437	-0.6551551711795505	0.9540889651129448	36.17482349216007
2	1.0	wm	37	diff_vonmises	0.16699307640177818	9.567998485727594	5.851924808408731	0.4143337010988133	6.827509424088291e-35	4.8932626684861305	-0.3883399252492783	-0.778783714608555	0.3904437893592767	56.34944710977612
3	2.0	ltm	37	diff_vonmises	0.12344624409134534	7.072948783175864	8.312228491543323	0.5325835713141548	0.24964622812633466	1.8656977148625145	0.2275251314736742	-0.3217903698122092	0.5493155012858835	44.89808129849675
4	2.0	perception	37	diff_vonmises	0.020235194730625954	1.15939125569023	7.006526046235895	1.3229196038108935	0.29021021008193243	3.1231393010852475	0.7195075855854823	-0.5263118506731377	1.24581943625862	48.92780054098432
5	2.0	wm	37	diff_vonmises	0.08352509370638896	4.785635352810802	2.163939757404367	1.46792826498862	0.2826715247732981	3.595010499128905	0.04992819017860861	-0.4718419067342473	0.5217700969128559	78.53036284495926
6	3.0	ltm	37	diff_vonmises	0.08625053482398443	4.94179162616044	2.5947014974766924	1.5461939130806082	1.0211520423396268	2.167028231595424	0.1821714345766352	-0.2153682325452319	0.3975396671218671	64.66538424558775
7	3.0	perception	37	diff_vonmises	-0.01964868779132385	-1.125786883413084	3.9430529360249498	1.8666258786729035	0.327492506077697	2.6576408861034295	0.8525067712774606	-0.3850483098892964	1.2375550811667568	64.35219852222437
8	3.0	wm	37	diff_vonmises	-0.022542744273463054	-1.2916041055121383	1.207819594912469	63.54171877156928	1.156300432962798	64.81412901284133	0.13414796214783564	-0.3403526997731854	0.474500661921021	76.5554541225996
9	4.0	ltm	37	diff_vonmises	-0.08630876749939943	-4.945128112691475	1.0215500845534766	255.46773072304993	1.0072061119817424	257.3898284044273	0.03290504427457108	-0.4474972592973643	0.48040230357193536	79.88130382917609
10	4.0	perception	37	diff_vonmises	-0.07702846551507166	-4.413405976382611	1.1010112296557697	240.30298881986667	1.0730679737545243	242.20830614367287	0.5817060272935635	-0.6287046547650696	1.2104106820586331	83.48030625541404
11	4.0	wm	37	diff_vonmises	-0.08926138108244282	-5.114300409532861	0.9398178032678304	260.0746151009298	0.9248523375475629	262.49647683086306	-0.05306610892152719	-0.5273203007871743	0.4742541918656471	81.30791388906644
12	5.0	ltm	37	diff_vonmises	-0.12437587088781374	-7.1262124751357705	2.4989132632925464	0.8089779632832784	1.7011397354848204e-14	2.0178245707615985	0.15550894455053849	-0.31792804676687575	0.47343699131741424	87.00451686619999
13	5.0	perception	37	diff_vonmises	-0.03523810604885585	-2.0189947546338574	0.8594559403813568	232.1054686135242	0.8375436394061486	233.64674952522336	0.49147242337541286	-0.5331483434622051	1.024620766837618	95.09447306338168
14	5.0	wm	37	diff_vonmises	0.06087499003341522	3.4878800068156424	0.3607166366199478	122.35309927595333	0.34404483124078084	124.06735660130967	-0.0036515580398521763	-0.4475188174934317	0.4438672594535795	134.39804922781974
15	6.0	ltm	37	diff_vonmises	0.37294333884238906	21.368079313186275	0.6687769004534269	172.36128108030832	0.6586895460797094	173.5121440759355	0.012311862330925294	-0.2639624162352696	0.2762742785661949	99.52416653766053
16	6.0	perception	37	diff_vonmises	-0.12087055496885112	-6.92537266711919	0.5661906513770999	351.0261349733601	0.5565382816506939	352.5382911896811	0.24947011382197104	-0.4895113381729743	0.7389814519949454	114.87871794272907
17	6.0	wm	37	diff_vonmises	0.3572602448299851	20.469504216568634	0.0013461121766284688	1150.768317997911	5.006962934617161e-25	1152.4301354254726	-0.017870743202422545	-0.5109362593809692	0.49306551617854666	175.95346081575929
18	7.0	ltm	37	diff_vonmises	0.1002858708656185	5.745957145393924	2.945818074485334	0.655709529572948	0.2285891118636952	2.31047239578185	-0.03117986407850415	-0.3413922885628676	0.3102124244843634	69.38973383921746
19	7.0	perception	37	diff_vonmises	-0.0020601238946767126	-0.11803640443902935	1.1545416956087409	4.663387457990924	0.3723918897366298	5.940567263894214	0.40306403376211875	-0.46181721607997206	0.8648812498420908	102.25004423194363
20	7.0	wm	37	diff_vonmises	-0.1887317614440872	-10.813533390816072	0.8052444440662653	204.50178679900657	0.7920144804045022	206.24516804791688	-0.010034568595450821	-0.3834171828753483	0.3733826142798975	89.24933174242656
0	1.0	ltm	38	diff_vonmises	-0.07750073775558183	-4.440465182545031	13.195057486203725	0.2432203654747274	0.014522535118941696	3.098008409016124	-0.15138069180570385	-0.49615931719355705	0.3447786253878532	37.05978944642459
1	1.0	perception	38	diff_vonmises	0.045996170874608305	2.6353864648776164	13.087797838110037	0.7358405000313814	1.5493186911254567e-23	3.4585817784217827	0.5007637159246884	-0.5504503861188769	1.0512141020435652	37.472190842858225
2	1.0	wm	38	diff_vonmises	-0.14064978813262005	-8.05863924940834	0.0001966099074634393	5602.621150878661	1.8151418970690768e-28	5606.033567231505	-0.36778032979043473	-0.7184082968896064	0.35062796709917166	179.42305890001631
3	2.0	ltm	38	diff_vonmises	0.16753076029755287	9.598805503667636	7.434906576231	0.5631011220816693	0.3601983891720079	1.6391914158757273	0.23924959763877635	-0.28784968428026847	0.5270992819190448	46.683198351798126
4	2.0	perception	38	diff_vonmises	-0.00168195626651959	-0.09636899539715355	7.795171569704884	1.2108324428854285	0.20451703988687345	2.4466160869171665	0.8528070359695434	-0.4059378919866869	1.2587449279562304	47.336094070662455
5	2.0	wm	38	diff_vonmises	0.07729554322003597	4.428708401679106	2.698783003890956	0.7642745455944666	4.537590321404643e-17	2.391649061571917	0.09033488692790131	-0.37851005544940214	0.46884494237730345	83.71381207724818
6	3.0	ltm	38	diff_vonmises	0.13333302619754123	7.639419670826351	3.589465181554093	0.8164567840872734	0.9289852896417926	1.179231448645591	0.2043452701400701	-0.1543295753578593	0.3586748454979294	59.74156303163201
7	3.0	perception	38	diff_vonmises	0.001653167326691007	0.09471951064831967	3.370550609277198	2.1216412858372213	0.515790013629996	2.500426910268372	0.8596872364753573	-0.3221478479923742	1.1818350844677314	67.48316252817486
8	3.0	wm	38	diff_vonmises	-0.04634853824142732	-2.6555756278344838	2.191744783580595	1.6824974130324029	0.7251124799713297	2.393965372813735	0.22441632043046977	-0.23350296734063047	0.45791928777110025	73.07788894225297
9	4.0	ltm	38	diff_vonmises	0.032168056099984924	1.843093849669199	1.2916505289886895	185.5939401827395	1.271599503321041	186.95509579663354	0.14459005920528512	-0.3725464759583055	0.5171365351635906	73.3640915030876
10	4.0	perception	38	diff_vonmises	-0.10184666280682252	-5.835383936322945	1.6662672493945878	6.128753526951407	0.6493046375870789	7.594445641627036	0.742008355450456	-0.5749020467337986	1.3169104021842546	83.45848436466252
11	4.0	wm	38	diff_vonmises	-0.17753882246142821	-10.172225226762258	1.1790632022541017	383.8044205772637	1.16689693123126	385.58248463235157	0.20269689720583983	-0.4794499581160636	0.6821468553219034	77.07313531003393
12	5.0	ltm	38	diff_vonmises	-0.12166133263006286	-6.9706808896398496	2.2113073451470013	0.7627740288589515	2.7984414666802614e-16	1.599625283855484	0.1634165569330841	-0.2495710365914324	0.4129875935245165	92.42014622553747
13	5.0	perception	38	diff_vonmises	0.01174605067604404	0.6729991296841108	0.9001027439238704	111.03539458323885	0.8567843066995141	111.97203286549438	0.6223244545656001	-0.45177949524366134	1.0741039498092615	95.92291898109454
14	5.0	wm	38	diff_vonmises	0.15192529545799097	8.704678231020937	0.5047084185780423	70.25936260737193	0.4792494022829123	71.34977829738482	0.06906283791815326	-0.3047051254378541	0.37376796335600737	119.48971678369335
15	6.0	ltm	38	diff_vonmises	0.4568602987225706	26.17616694388933	0.973899950113267	112.78872345146476	0.9600884799821219	113.46517404025043	0.06943688761388245	-0.17542117333027818	0.24485806094416063	85.02212117376851
16	6.0	perception	38	diff_vonmises	-0.15384109416986638	-8.814445411607998	0.532303474243689	262.7226352730491	0.5216154040649214	263.6490855249391	0.29456815537744774	-0.3910802577383059	0.6856484131157536	120.5734589573899
17	6.0	wm	38	diff_vonmises	-0.0025216359361203977	-0.14447909660821925	0.4820642647052044	101.74439757148782	0.4630906431632108	102.78040967122794	0.11069328364026632	-0.32137008832382286	0.43206337196408917	123.1446630877412
18	7.0	ltm	38	diff_vonmises	0.13993506484617624	8.01768862157539	3.348424729995564	0.41147175792473856	1.4838219492787273e-18	1.3974181750570545	0.06434886663743478	-0.22205192622313175	0.2864007928605665	74.99872861295614
19	7.0	perception	38	diff_vonmises	-0.028933854584827556	-1.6577877527558658	0.8686007456242326	159.4971154450503	0.8455032625838638	160.16541737447812	0.49406052541250034	-0.3461080918225026	0.8401686172350029	97.43740317018361
20	7.0	wm	38	diff_vonmises	0.013559507586392423	0.7769025569759073	1.600299280926345	0.9598315337237763	0.0922562838352144	2.0475391034013986	0.07580039494059443	-0.2789099814922568	0.35471037643285125	100.27001789210092
0	1.0	ltm	39	diff_vonmises	-0.06506403506654251	-3.7278946074040764	9.581604388885026	0.330407070561822	0.11919318024399277	3.98060063714183	-0.3088251179257462	-0.6693792235154642	0.360554105589718	41.425003428653014
1	1.0	perception	39	diff_vonmises	0.04588366427163208	2.6289403113597247	12.379156172633147	0.7506870533105534	0.0480690813130827	4.408489578342416	0.3066128292358308	-0.7162380292721602	1.022850858507991	38.120183803876444
2	1.0	wm	39	diff_vonmises	0.17417105050322726	9.979266107194835	10.941874180429554	0.2900231191702696	2.404323925094825e-34	4.759393551815157	-0.37932178406818295	-0.7574810097725844	0.3781592257044014	41.01170724152834
3	2.0	ltm	39	diff_vonmises	0.04023358572874321	2.3052146569347665	4.013948844021676	0.8182785206317993	0.30674748462570434	2.2598685465656976	0.15281088820748873	-0.3483793851118159	0.5011902733193045	61.318643545179896
4	2.0	perception	39	diff_vonmises	-0.010071524363898058	-0.5770558393145399	6.874957658148256	1.3109537294044598	0.2563923943233712	3.182579131910799	0.7002690887698306	-0.5304018223194494	1.23067091108928	49.564823662226075
5	2.0	wm	39	diff_vonmises	0.09001407773953775	5.157426751238006	3.7818636100533203	0.7172100690554227	1.474661713234261e-19	2.7058291553342846	0.1040931716615831	-0.43036858108933856	0.5344617527509217	70.45976617687771
6	3.0	ltm	39	diff_vonmises	0.007414294117353442	0.42480776099302614	3.772405645791045	0.8229590939388949	0.48219909583304466	1.4010060477115518	0.2716617942130306	-0.20191279533201814	0.4735745895450487	62.8013370600992
7	3.0	perception	39	diff_vonmises	-0.001879184202730078	-0.10766932374408994	3.3123857762833295	2.7138384096302834	0.6383753456392548	3.5115552546955886	0.9217665421341552	-0.4444383210535461	1.3662048631877013	65.90996300058455
8	3.0	wm	39	diff_vonmises	-0.1393509678946216	-7.984222331424852	1.2889734587610622	183.19035028988165	1.2725186012342216	184.11421299001165	0.1871559131179339	-0.2795894907498777	0.4667454038678116	75.23057226451374
9	4.0	ltm	39	diff_vonmises	-0.08465337090117792	-4.850280874193069	1.1326696220000387	216.0959514361869	1.113496587589946	217.6928677396984	0.1937209094638348	-0.4305905955592664	0.6243115050231012	79.040704081281
10	4.0	perception	39	diff_vonmises	-0.11067520111781284	-6.341221920812247	2.6998114001158577	2.8432356777340915	0.3711521536052385	4.539252203306943	0.7406002959789644	-0.5828526019499534	1.3234528979289177	73.9754073585884
11	4.0	wm	39	diff_vonmises	-0.1625952270405812	-9.316020278396701	0.9140945256814075	194.8457177327895	0.8950549090645714	196.76546602007275	0.08864194853563845	-0.4590576197174485	0.547699568253087	86.12491358238857
12	5.0	ltm	39	diff_vonmises	-0.10184513267599492	-5.835296266284421	2.7906653029956274	0.9158741114694926	4.775047615447185e-19	2.0969450376838292	0.24173751740742266	-0.3315709814955241	0.5733084989029468	82.30263395479264
13	5.0	perception	39	diff_vonmises	-0.02666317950916153	-1.5276876542746536	0.8848877730055005	231.06923805112788	0.8622455261980786	232.43620077679154	0.5661951369138336	-0.5217549399513786	1.0879500768652122	94.63150975615699
14	5.0	wm	39	diff_vonmises	-0.10509224019414148	-6.021341822699418	0.3812814885051597	184.15130697207013	0.36966091234673965	185.64050646446773	0.058831136776234416	-0.4259347889828682	0.4847659257591026	132.88291005953846
15	6.0	ltm	39	diff_vonmises	0.14917030775227452	8.546829062872956	0.6719065880118633	110.1387486787097	0.6578436605818174	111.01914559247838	0.05119934701343709	-0.22096820655826477	0.27216755357170186	101.8590515861118
16	6.0	perception	39	diff_vonmises	-0.08868137992330309	-5.081068791001459	0.6143260477662678	260.1214080414435	0.6029909757352624	261.3671043271829	0.22701475908196755	-0.40069378535646294	0.6277085444384305	110.55146886204824
17	6.0	wm	39	diff_vonmises	0.47753399757606635	27.360682635119087	0.00025741946155821986	4317.183021233528	9.555641274950754e-32	4318.1877389534475	0.016975258760567158	-0.33676407834082056	0.3537393371013877	173.10688614806605
18	7.0	ltm	39	diff_vonmises	-0.026962247240952555	-1.5448229730948297	0.8455836464853065	138.10967169485957	0.8308396636848222	139.23994527667	0.03879159121667897	-0.26510191708228703	0.303893508298966	89.131283776596
19	7.0	perception	39	diff_vonmises	-0.09116058093248512	-5.223116545392164	1.393099847486303	2.5849425424923482	0.11435279259027667	3.6293626989577947	0.4252987955753126	-0.44751293112145973	0.8728117266967723	107.68089162257948
20	7.0	wm	39	diff_vonmises	-0.15376315260456083	-8.809979688867347	1.010299197373915	107.44283293541513	0.9887002030793227	108.33913410237983	0.13466104104350762	-0.24742515878169158	0.3820861998251992	84.72693760309608
0	1.0	ltm	40	diff_vonmises	-0.07325581579071488	-4.197249069595775	5.883967036290686	0.33203575352717507	0.06945449155263494	2.7402251726771865	-0.15308820987939714	-0.4396638038354408	0.28657559395604365	53.53073001988594
1	1.0	perception	40	diff_vonmises	0.00023512928319288035	0.013471915566888365	14.638622666749667	0.658977239902121	5.4429760003125095e-18	2.8342874015531354	0.5458861559779226	-0.451090850100073	0.9969770060779956	35.40913764436442
2	1.0	wm	40	diff_vonmises	0.03344694215819571	1.916368623282799	9.430313328622551	0.299420569285097	4.009146327720426e-17	3.043555234487563	-0.12269768432635492	-0.48439685781226105	0.36169917348590613	44.21140439437937
3	2.0	ltm	40	diff_vonmises	0.06323570962538226	3.6231392760491996	2.8378283848597396	1.2634017737633993	0.648446435932115	2.4396404406662393	0.1312337552098899	-0.3167341380982533	0.4479678933081432	65.2284253643941
4	2.0	perception	40	diff_vonmises	-0.014549976500505116	-0.8336522454934703	6.632948092479156	1.2426136861186559	0.25196132671017885	2.4775719291431852	0.7513496969675448	-0.40715169216881814	1.158501389136363	50.75850959314212
5	2.0	wm	40	diff_vonmises	0.08325632143473295	4.770235835994769	3.9302753834124187	0.5648454447840345	2.4909560142687414e-15	1.884650112669115	0.13016684907498088	-0.29978549094505663	0.4299523400200375	69.08253940613426
6	3.0	ltm	40	diff_vonmises	0.07764466791837808	4.448711773417887	5.422034227565858	0.45657020176742186	0.07492525885503315	0.9359023961238441	0.25293955200702656	-0.14693226311175386	0.39987181511878045	57.50167926575298
7	3.0	perception	40	diff_vonmises	-0.04690547438626799	-2.6874857183921415	5.73872844173515	1.2097479945638263	1.2885482713509824e-12	1.6075037460538377	0.8725782403048772	-0.25583047360526756	1.1284087139101446	56.90962305030885
8	3.0	wm	40	diff_vonmises	-0.10564062658435859	-6.052762048401273	1.5937220883200258	155.9657854086903	1.5748380576332692	156.51673552552762	0.26023257875900185	-0.2245325954128674	0.48476517417186926	69.63847232953717
9	4.0	ltm	40	diff_vonmises	-0.14329791256939434	-8.210365603260966	1.1108769490284744	44.06155722053797	1.0415116073902932	45.34660758753338	0.12457748101808086	-0.33421675898857917	0.45879424000666	80.21821409358986
10	4.0	perception	40	diff_vonmises	-0.051257946684873455	-2.9368640115498383	2.9350551018622593	1.9730631326291943	1.2486566421309183e-15	3.795964224179702	0.6720725759577851	-0.6005442495254412	1.2726168254832264	80.2224574281945
11	4.0	wm	40	diff_vonmises	-0.1563886687759458	-8.960410684531052	1.1537321817762876	274.72088525124656	1.1389663590859251	276.44951374061435	0.11920627697236341	-0.44018920782949067	0.5593954848018541	76.78723847128188
12	5.0	ltm	40	diff_vonmises	-0.02273828888846163	-1.3028079866580673	2.4289631785233534	0.9676649223147071	1.540634321299313e-11	1.3995344268779732	0.33794402386867384	-0.21838791169039484	0.5563319355590687	88.25500552451149
13	5.0	perception	40	diff_vonmises	-0.026021283697476583	-1.4909097333779817	2.170974759048816	1.8763197645782623	0.012154703550807945	2.495639502204365	0.6148500214827057	-0.37914755212122664	0.9939975736039324	92.8045407312834
14	5.0	wm	40	diff_vonmises	-0.04688312041960508	-2.6862049304469804	0.5320070342466436	161.9511701146473	0.5194049998466672	162.44101849950962	0.2602507270533039	-0.26840269053106525	0.5286534175843691	122.17605349806844
15	6.0	ltm	40	diff_vonmises	0.22436459985259666	12.85514464369532	0.9289472802657207	66.88870919338804	0.9104249896478647	67.04591182085888	0.18467597020043058	-0.10649058319484261	0.2911665533952732	95.21598423252519
16	6.0	perception	40	diff_vonmises	-0.1971519393256625	-11.295974046179742	0.6203713555075818	93.49711328794771	0.6001744492403391	93.90769526856222	0.24870001740054448	-0.22537024696045194	0.4740702643609964	114.6945516553684
17	6.0	wm	40	diff_vonmises	0.2133109936986521	12.221819662674465	0.32326297644917196	108.50752740897491	0.31264214902268356	108.53510692079765	0.20136606795070833	-0.1537172886577416	0.3550833566084499	144.21540988493834
18	7.0	ltm	40	diff_vonmises	-0.01737684076820942	-0.9956196372892671	0.7239068506922552	127.9700755718097	0.7105122668762495	128.759008489735	0.10085699898254319	-0.21933386753877926	0.32019086652132245	100.20727709201998
19	7.0	perception	40	diff_vonmises	-0.12564363497532544	-7.198850006768445	0.9213831055199496	158.55910558436423	0.898944980305462	159.13070416165866	0.4928955177713661	-0.317388516686675	0.8102840344580411	94.95536935208776
20	7.0	wm	40	diff_vonmises	0.01714537045389583	0.9823573651965317	0.8335673793294648	83.42916521991592	0.8144244443160026	84.08527760647142	0.10388529209700081	-0.18554649917915444	0.28943179127615526	93.92909025056383
0	1.0	ltm	41	diff_vonmises	-0.010116745880642087	-0.5796468413671528	4.032754160028009	0.4659095600718109	1.3728074387746884e-14	2.0031297340135823	0.040968445901122974	-0.3186949356318948	0.3596633815330178	68.18043630218676
1	1.0	perception	41	diff_vonmises	-0.04419005517930137	-2.5319036582241927	16.616605763998294	0.5327650678852107	5.634852681334563e-23	2.1722672598685673	0.5134921338810265	-0.3457270721247661	0.8592192060057926	33.23076056575783
2	1.0	wm	41	diff_vonmises	-0.5485350970057118	-31.428745973226487	0.0002665867135334303	3464.682150143282	3.669284602165659e-27	3466.5097837103976	-0.1438696472880565	-0.4378645933053349	0.2939949460172784	171.5747488636217
3	2.0	ltm	41	diff_vonmises	0.13557455330069815	7.767849713501429	6.930543858648569	0.5787381287808862	0.4649807729619306	1.3554070589666456	0.27040660816750745	-0.23946145303400854	0.509868061201516	47.88761283728755
4	2.0	perception	41	diff_vonmises	-0.01475932643036903	-0.8456471129160323	5.284357809336552	1.1629108046078487	0.28820743838915747	2.1230729560862716	0.5969384348307462	-0.3359863118407941	0.9329247466715402	56.18145244858664
5	2.0	wm	41	diff_vonmises	0.12916202745012045	7.400439046244788	2.2810760926439224	0.6417098598578028	1.0157440779886842e-19	1.6379420719145674	0.09753399630119414	-0.25694649291366506	0.3544804892148592	91.02299556035325
6	3.0	ltm	41	diff_vonmises	-0.005052138611330377	-0.2894662199443152	1.4765169060701655	107.12003246974909	1.4573621718987795	107.59076619191501	0.1610067151948087	-0.16843727949904697	0.32944399469385566	71.57457284290686
7	3.0	perception	41	diff_vonmises	-0.03737412519596493	-2.1413796367223417	3.215724482029761	2.8038032581825023	0.5754761768819249	3.5200136208113757	0.991628407229897	-0.44180605094021774	1.4334344581701148	67.6659225555525
8	3.0	wm	41	diff_vonmises	-0.20137537230230942	-11.537958930797986	1.2618620973779764	156.37560130429992	1.2428299242102265	157.33578304223175	0.1736576568756263	-0.2826401156578733	0.45629777253349957	75.78074858591972
9	4.0	ltm	41	diff_vonmises	0.01585547937382302	0.9084520502767883	3.037042166871293	0.8603295820295658	0.39962645851446194	1.6966319404264723	0.18035495568241988	-0.23328726835788677	0.41364222404030665	68.59952985099773
10	4.0	perception	41	diff_vonmises	-0.05092370474143197	-2.917713358854391	2.3095661164232357	3.2146678197567136	0.3638796508662243	4.704443140034096	0.7653589512845627	-0.560824760013979	1.3261837112985417	79.44308244616926
11	4.0	wm	41	diff_vonmises	-0.16892402286780556	-9.678633568696663	1.088240859214547	299.6686400004635	1.074830424251775	301.3863577308263	0.14280752048951229	-0.43967179715482985	0.5824793176443421	79.61244255091464
12	5.0	ltm	41	diff_vonmises	0.06489094628321752	3.7179773506385003	0.7297800901218656	63.12386706431392	0.6981682823054095	63.275041778350364	0.337572762307218	-0.19426402036885548	0.5318367826760735	109.07217567184276
13	5.0	perception	41	diff_vonmises	-0.006092918921518804	-0.34909853911842875	2.0944855580337847	1.854105255330233	7.066370914524275e-18	2.3911064887022877	0.6029161799601976	-0.36564396745011807	0.9685601474103157	94.90216835758315
14	5.0	wm	41	diff_vonmises	0.172236806313298	9.868442078564188	0.5411495234563846	2.7137849484446677	1.2725808392222586e-16	3.3641968657516506	0.15510036463978272	-0.3014658682996666	0.4565662329394493	149.51983234650163
15	6.0	ltm	41	diff_vonmises	0.4820906539213432	27.621759812394956	0.8170625266888883	98.95712807544083	0.8041377138119791	99.0770533849508	0.20770983933329745	-0.11543802680554016	0.3231478661388376	102.13848349503357
16	6.0	perception	41	diff_vonmises	-0.05403429201528373	-3.095936881453201	0.8998461772360367	217.51331034999149	0.8869505282265238	218.10539917607315	0.3447857900157345	-0.26433475897303893	0.6091205489887734	94.69386244504659
17	6.0	wm	41	diff_vonmises	-0.08701116541901133	-4.985372549024007	0.2876234025601876	95.66915156646522	0.27303604108657636	96.11418290585225	0.1569140587286526	-0.24031966421944873	0.39723372294810133	147.33781942383314
18	7.0	ltm	41	diff_vonmises	0.03840136111511497	2.2002359194538803	0.7574598004135978	1.958317572045034	1.6266581671359014e-11	2.4752692677394506	0.18476986438731596	-0.2667322773647248	0.4515021417520408	139.33008095379736
19	7.0	perception	41	diff_vonmises	-0.0775239637669152	-4.441795934969356	0.9382975108969751	266.2989249281686	0.9231588308106073	266.8593312220387	0.5831550555454754	-0.3480442618491395	0.9311993173946149	94.37273730254051
20	7.0	wm	41	diff_vonmises	0.0824949133442099	4.726610365920683	1.0058110488661858	108.12931323797822	0.9844840384124893	109.01069085480248	0.1378307428355825	-0.24515775561232367	0.38298849844790617	85.05498245706974
0	1.0	ltm	42	diff_vonmises	-0.02289515150095897	-1.311795552317561	4.5077300124930915	0.2515900263535711	9.664741504334685e-15	2.5709613188013662	-0.20281405996330606	-0.40915612201269314	0.20634206204938707	64.39162646097634
1	1.0	perception	42	diff_vonmises	0.03512596370377651	2.0125694715561115	14.598791745290717	0.6218405397759347	1.3972705768883411e-19	2.6470552945130663	0.5181960566925197	-0.42129193475913124	0.939487991451651	35.45753164671393
2	1.0	wm	42	diff_vonmises	0.08110648613539014	4.647059346694181	7.063315168658364	0.38665779480392404	0.04235951275186345	2.851704309619145	-0.07117729933301625	-0.45659734137389374	0.3854200420408775	49.996352561465386
3	2.0	ltm	42	diff_vonmises	0.10487349911330429	6.0088088819613175	3.491186042047753	0.799296063223941	0.4633507833425325	1.961840252356522	0.09949980258199831	-0.291000781862504	0.3905005844445023	62.33679336358753
4	2.0	perception	42	diff_vonmises	0.007735313104705844	0.44320079411188235	7.515460598693429	1.2654587626760747	0.29266142877296253	2.4669037606043083	0.84407335951278	-0.4172325529050643	1.2613059124178443	47.69277314937591
5	2.0	wm	42	diff_vonmises	0.07363612307048119	4.2190390716444846	3.2902545144893676	0.6994791282405591	0.11140839430342968	1.8750061740024262	0.15013688215705062	-0.28164210663010997	0.4317789887871606	71.44944897892762
6	3.0	ltm	42	diff_vonmises	0.1540762887642519	8.82792106923058	6.738566540161243	0.42800067385220647	0.24332313609344475	0.9450498003523942	0.24532011295427752	-0.15595604593733614	0.40127615889161367	50.283683323261215
7	3.0	perception	42	diff_vonmises	-0.05593774372106744	-3.204996630701585	6.480800651530668	0.9907349838276099	1.7331346856938663e-13	1.2224104137123195	0.7905858364758878	-0.19455034573315297	0.9851361822090408	53.48683864646813
8	3.0	wm	42	diff_vonmises	-0.019188503858879165	-1.09942028628427	1.6422193386689459	131.22038764746733	1.6227092754424781	131.59587676701042	0.26459362987456814	-0.18207047586753156	0.4466641057420997	69.64059307989186
9	4.0	ltm	42	diff_vonmises	-0.15109294269608894	-8.656987930697895	1.0638625793837837	105.96759445585246	1.0379124154787267	107.45468270913999	-0.0011353158328546442	-0.3409614238804082	0.33982610804755353	77.57722218024847
10	4.0	perception	42	diff_vonmises	-0.0073438446593416945	-0.4207713043799689	2.5373971692689503	1.8255487157115038	6.444659444426977e-23	3.84621076518704	0.47310569472993047	-0.6053571452396778	1.0784628399696081	86.3541062206809
11	4.0	wm	42	diff_vonmises	-0.006612649397896936	-0.3788769018992194	1.275824322368415	268.049882985572	1.2616065186143406	269.6751738344378	0.06177610399387845	-0.41207738439354813	0.4738534883874266	71.83530781529723
12	5.0	ltm	42	diff_vonmises	-0.0707021392132586	-4.0509341794661164	2.4376387448968098	0.8458121364083337	3.0767867398125215e-17	1.5290633030958636	0.2477727560178161	-0.23960918669547626	0.4873819427132924	88.0918463184658
13	5.0	perception	42	diff_vonmises	-0.06483679120005308	-3.714874492933997	1.5799721772625979	3.015297239044729	0.3179120619812717	3.805040957979421	0.5362903277970349	-0.3809483651747529	0.9172386929717877	94.64464722276992
14	5.0	wm	42	diff_vonmises	0.009486836416131196	0.5435556875753331	0.6505257552426649	157.59733999551963	0.6380629255892467	158.04003968341544	0.25237273884805234	-0.22749598276983107	0.4798687216178834	111.58582533304552
15	6.0	ltm	42	diff_vonmises	0.1390344108903851	7.966084951106796	1.0363124990994257	69.44589651896075	1.013931401160234	69.80346588068167	0.17022912872654672	-0.1402299664476816	0.3104590951742283	87.62064841565763
16	6.0	perception	42	diff_vonmises	-0.31716108420859157	-18.1719915509456	1.2476888185214023	1.5253976078724967	0.010974112684177919	2.023910298558108	0.26606026834591306	-0.26979321541065093	0.535853483756564	117.85217894294209
17	6.0	wm	42	diff_vonmises	0.27312514821074957	15.648918271361039	0.40234488111867145	124.16550342261026	0.39054367104085574	124.288461304126	0.2407563810063671	-0.19298292784014848	0.43373930884651557	135.81261375242582
18	7.0	ltm	42	diff_vonmises	-0.049725845096441026	-2.8490810567473708	0.9197596653028361	152.81355168239804	0.9051891860261861	154.00259705563766	0.03889082035174596	-0.27899994317020926	0.3178907635219552	85.1624726800816
19	7.0	perception	42	diff_vonmises	-0.10756850614062945	-6.163221410385146	2.6596628380804304	1.5381045281383807	1.1636369019116919e-10	2.367197608435622	0.5631469803668865	-0.37214930890801656	0.935296289274903	84.32599485119837
20	7.0	wm	42	diff_vonmises	-0.02557389231296335	-1.4652760952548591	0.8363036806618169	96.74295430929044	0.8181247639055986	97.61030291102438	0.06936630754189821	-0.2184032567930796	0.2877695643349778	91.56669047607286
0	1.0	ltm	43	diff_vonmises	-0.06744176123424803	-3.8641282816514178	2.4321800054514013	0.42277879486071435	3.921118878716529e-19	2.8996802608030556	-0.2163328701908253	-0.45960653581173855	0.24327366562091324	88.19156445696606
1	1.0	perception	43	diff_vonmises	0.028155032283092553	1.6131645218757857	12.718219665486737	0.581004810525987	1.0673963656745706e-17	2.906760971825943	0.355321414230659	-0.462625377045354	0.817946791276013	38.019793418274645
2	1.0	wm	43	diff_vonmises	0.01305207186160009	0.7478286315711447	5.93791011915238	0.36100232415465544	1.6332768444576574e-32	3.1459115707269154	-0.15783741854947353	-0.5006849916680692	0.3428475731185957	55.92689387331066
3	2.0	ltm	43	diff_vonmises	0.10352761857697869	5.931695607501056	10.687148738248984	0.40893469350714784	0.1940509562186668	1.6762338068989369	0.2059151922459519	-0.2898772852696513	0.4957924775156032	40.15838172488296
4	2.0	perception	43	diff_vonmises	0.01315311469084378	0.7536179592368691	7.28378588409721	1.18880077532349	0.2257184469609873	2.6444389183359744	0.7355456307907412	-0.43904440051072524	1.1745900313014666	48.6172925971523
5	2.0	wm	43	diff_vonmises	0.0759912916276998	4.353980290015026	2.2627103426622686	0.8697178407045083	0.1131924513408271	2.409216478288712	0.05515439854138604	-0.3450673464355415	0.40022174497692753	83.82572173247391
6	3.0	ltm	43	diff_vonmises	0.09369958799598169	5.368590934284422	2.9760320972447096	0.793259842398817	0.6061354401559191	1.3932334276321365	0.14555267966062974	-0.18100455216920364	0.32655723182983337	66.205255143606
7	3.0	perception	43	diff_vonmises	-0.020997976358267455	-1.2030954236442075	4.202549491513659	1.8126361046922637	0.28267667121207046	2.481189563702226	0.9180120821549552	-0.3662108873494391	1.2842229695043943	63.154784087732025
8	3.0	wm	43	diff_vonmises	-0.09847388262725106	-5.642137866808124	1.2925151765993184	165.17669993530652	1.2748913469352827	166.08251864025948	0.17470991608901443	-0.27158934460065254	0.44629926068966697	74.98817692100167
9	4.0	ltm	43	diff_vonmises	-0.018269585514180085	-1.046770143415865	1.6932467076436575	2.3166875655229378	0.6598815031617004	3.854225204204331	0.012875091021759433	-0.35411969418885236	0.3669947852106118	75.1774693021313
10	4.0	perception	43	diff_vonmises	-0.056275056638764226	-3.2243232372608546	2.0290989582109713	3.642391646144016	0.4400601940093512	5.520593654487228	0.5948947977938934	-0.6009576429555358	1.1958524407494293	80.83847379154125
11	4.0	wm	43	diff_vonmises	-0.10234816972969199	-5.864118166399959	1.0806263315066498	307.0419348289539	1.0680040501098207	309.05564216422897	0.013833212496948022	-0.4685580214464906	0.48239123394343864	77.05677779928712
12	5.0	ltm	43	diff_vonmises	-0.04602882151884217	-2.6372572089906	2.002444687216563	0.939171459769442	3.666962843676497e-12	1.7187449362702463	0.21129651443777392	-0.26470914174703625	0.47600565618481017	96.96318360051535
13	5.0	perception	43	diff_vonmises	-0.022594117503800443	-1.294547574790424	2.1000990300268634	1.9088286823324743	0.02550839510334595	2.833484733017565	0.5516036234528501	-0.424328393251555	0.9759320167044051	93.66032832261712
14	5.0	wm	43	diff_vonmises	0.051784532365452614	2.9670351485990483	0.46800149848933403	143.2999121779602	0.4544984685243423	144.30663789537803	0.11945344819597636	-0.3222865141673452	0.4417399623633216	124.70186863842216
15	6.0	ltm	43	diff_vonmises	0.45391083117485564	26.007174901594464	0.6914250647448944	152.29765552881452	0.6812617044080747	152.9719234842892	0.10537419476967358	-0.19871226294083044	0.304086457710504	103.27368961275025
16	6.0	perception	43	diff_vonmises	-0.12631221603248885	-7.237156879606303	0.7301049019803427	274.78374854548065	0.7198614068457463	275.6056577236909	0.29999993093863964	-0.3169784858889564	0.616978416827596	103.59783930233455
17	6.0	wm	43	diff_vonmises	0.041681245994832715	2.388159480350481	0.2615512507537131	150.10464080145437	0.25046160849988286	151.01609694496653	0.11046865336105327	-0.3385606375996133	0.44902929096066657	149.18785194647768
18	7.0	ltm	43	diff_vonmises	0.0631154914395001	3.6162512813774326	1.4185685303948532	1.9760102411885299	0.501290402889627	3.14277820040167	0.05131081314512098	-0.2744988509818371	0.32580966412695805	85.45064740725584
19	7.0	perception	43	diff_vonmises	-0.0739692241779957	-4.2381243592562	0.8513660064230075	236.98076278127726	0.8343342225311144	237.66200726024175	0.5589781086888337	-0.3785464665517111	0.9375245752405448	98.55044886238258
20	7.0	wm	43	diff_vonmises	-0.16635286298183635	-9.53131695877729	0.8215577611175473	149.89358463007022	0.8072796218911339	151.10138688606233	0.04022034669868191	-0.2829564201322512	0.3231767668309331	90.44738927823813
0	1.0	ltm	44	diff_vonmises	0.049118828589899736	2.81430157282778	7.709875430342342	0.4506707921444805	0.10651110952328972	3.953138293130975	-0.2073252031428272	-0.6513886216833468	0.44406341854051956	46.468382938281394
1	1.0	perception	44	diff_vonmises	0.05101592611059323	2.922997254088249	15.681611857992634	0.624571501544144	0.04725320005969329	3.5922083417291373	0.3795434548597494	-0.5859829405801186	0.965526395439868	33.9306920583052
2	1.0	wm	44	diff_vonmises	0.10520615412351259	6.027868610080134	3.295629663130236	0.7867919161048739	0.1259055765202819	4.883443228720908	-0.33457337947625443	-0.7560407222261827	0.42146734274992825	66.95737047394144
3	2.0	ltm	44	diff_vonmises	0.12098393030685753	6.931868595487827	5.262704650004065	0.7241693408646597	0.3834869783307368	1.9999529945780528	0.19492711780149907	-0.33039148337818747	0.5253186011796865	53.917170825223394
4	2.0	perception	44	diff_vonmises	0.02090732238943858	1.1979013338342024	5.623495622632922	1.4518815610119353	0.37778503300873206	3.126411624485094	0.6391546401149321	-0.5136180733582221	1.152772713473154	53.38780118279152
5	2.0	wm	44	diff_vonmises	0.07502876082657976	4.298831337459502	2.5586942156764305	1.3023637866477646	0.32412959442157635	3.1621266580550986	0.10004857232783726	-0.43011053144399325	0.5301591037718305	72.96810345717762
6	3.0	ltm	44	diff_vonmises	0.06115161460760366	3.5037294274262436	3.0086480318983404	1.1268265562395081	0.7049638285432346	1.87368968597564	0.20421953156953865	-0.2379667921493388	0.44218632371887745	64.86292148829602
7	3.0	perception	44	diff_vonmises	-0.05859290719094542	-3.3571262914429045	5.61879750042922	1.2365746043788728	4.908375175537275e-15	1.989483992146601	0.8239942904617733	-0.31662118655906735	1.1406154770208405	57.527977513689535
8	3.0	wm	44	diff_vonmises	-0.010340102121187777	-0.5924442112783297	1.7227443235894944	4.07068028426342	0.9293771970448633	5.3145418225527985	0.17319040375502603	-0.34903029319529594	0.522220696950322	73.37036652947955
9	4.0	ltm	44	diff_vonmises	-0.19441083794894787	-11.138920506076495	0.9511145303364962	214.72113166349334	0.9345170305306822	216.65869839173374	0.039089659170727487	-0.44800634341090273	0.4870960025816302	83.14717771124104
10	4.0	perception	44	diff_vonmises	-0.02625720725752774	-1.5044271576566144	2.0254091247939376	2.9494354707350747	0.25745725947504194	5.101157654939535	0.5000332037187771	-0.6304690415020552	1.1305022452208324	85.02733434443891
11	4.0	wm	44	diff_vonmises	-0.028324576006981426	-1.6228786616975495	0.956564521988377	174.02418605182865	0.9343158713446501	176.52113937216245	-0.0866545096093958	-0.5356913768708047	0.4490368672614089	79.86164748062905
12	5.0	ltm	44	diff_vonmises	-0.08218686636901676	-4.708960574350345	2.4425968209584403	0.9301028268572148	6.147905304329775e-14	1.88359193308322	0.24092316741578734	-0.2956962361630478	0.5366194035788352	88.0055824353866
13	5.0	perception	44	diff_vonmises	-0.056081806489996965	-3.2132508193462153	1.4513337599091831	4.011704388799241	0.384966109535499	5.398466265566277	0.4862170025999233	-0.4905840869677113	0.9768010895676346	93.85865048968094
14	5.0	wm	44	diff_vonmises	0.020207919692118128	1.1578285110976747	0.4121339525729088	128.16321264636943	0.3938747267187292	129.4486909553767	0.13767827002275368	-0.41911349927585917	0.5567917692986128	131.2442342264374
15	6.0	ltm	44	diff_vonmises	0.2408519879013219	13.799802394081711	0.7543695124564901	111.34870257490435	0.7391092343246668	112.07489784056756	0.11229506177261328	-0.20843591230149272	0.320730974074106	98.79264210941784
16	6.0	perception	44	diff_vonmises	-0.17759358755241944	-10.175363035340705	0.5166736438665449	124.71427129302252	0.49342826968862946	125.91815146584499	0.24668589601266433	-0.4356831785640001	0.6823690745766644	121.42965491440061
17	6.0	wm	44	diff_vonmises	0.4453167062300675	25.514767813650003	0.18080062219351695	155.5757932129664	0.16940631738374085	156.44370217447508	0.14199000877822954	-0.3712714297675035	0.513261438545733	155.33489940118773
18	7.0	ltm	44	diff_vonmises	-0.0768230838316811	-4.40163847273504	0.7367501871190076	129.70948862229363	0.7189720573900596	131.37814192152476	-0.04090289146954973	-0.3553952320348692	0.3144923405653195	92.37784771363141
19	7.0	perception	44	diff_vonmises	-0.014386697953149981	-0.8242970738449941	0.8067958259438637	179.825541514317	0.7836021260435286	181.21381926236447	0.37930194272796314	-0.4621940863583287	0.8414960290862918	97.7351510893474
20	7.0	wm	44	diff_vonmises	-0.06819847465394449	-3.9074847669009367	0.8996692296985376	225.11039473919453	0.886828567053849	226.77255713491803	0.01845844027437238	-0.37733754734334113	0.3957959876177135	85.0844645719441
0	1.0	ltm	45	diff_vonmises	0.014418484204898264	0.826118291916711	5.444821891269349	0.3762835360068179	0.1673699420582263	2.584393485393105	-0.14147793170794837	-0.42372485695505907	0.2822469252471107	53.21953164814309
1	1.0	perception	45	diff_vonmises	-0.032065643318309744	-1.8372260295110165	16.316651427769735	0.5174785061245307	2.8064244615073676e-22	2.5593083119843354	0.4199544200349281	-0.40732656874847606	0.8272809887834042	33.52600126335574
2	1.0	wm	45	diff_vonmises	-0.0006201067881321026	-0.0355295018073826	4.338848486741449	0.6056239407250916	0.274872363014045	3.330011875580593	-0.1979956944006514	-0.5445464360756656	0.34655074167501415	56.2590272276328
3	2.0	ltm	45	diff_vonmises	0.02919735308872239	1.6728851049370512	6.9256854993109505	0.5622797866383894	0.44983355608327075	1.5851611971804593	0.20248105409170564	-0.2824337027395402	0.48491475683124585	47.4622092186645
4	2.0	perception	45	diff_vonmises	-0.020824564891822224	-1.1931596784977212	7.06979636999433	1.1768505572351058	0.32932228505798133	2.4749487572925783	0.69160384650881	-0.42002463760515985	1.1116284841139699	48.67511141042755
5	2.0	wm	45	diff_vonmises	-0.046667929788943165	-2.673875415519294	1.0792816231705298	69.54398410699599	1.03741140130275	71.01377261069463	0.035087989512653905	-0.3480633994788249	0.3831513889914788	78.42616123819559
6	3.0	ltm	45	diff_vonmises	-0.1667109098642429	-9.551831534007002	1.356989877457658	13.282841227692048	1.2281611348643688	13.536731334817567	0.21380224148911608	-0.1299784301291831	0.34378067161829917	79.31781584086207
7	3.0	perception	45	diff_vonmises	-0.077643099997707	-4.448621938180822	5.515435403002916	1.443434760763438	0.17752206639628385	1.9869001923755762	0.9436664565015533	-0.310211954267694	1.2538784107692473	56.50346818351784
8	3.0	wm	45	diff_vonmises	-0.18516954506156333	-10.609433426385094	1.7064755805861043	178.58005654520946	1.6887581877137978	179.3734431900222	0.16059098950933048	-0.26692984711561607	0.42752083662494655	64.69974613411674
9	4.0	ltm	45	diff_vonmises	-0.2408642931395021	-13.80050743229534	1.1630449364250932	88.69361402860233	1.1323489520027927	89.7976044001707	0.10193392094667786	-0.2889789822936546	0.39091290324033245	77.41226581866715
10	4.0	perception	45	diff_vonmises	-0.08051372344800015	-4.613096546453902	3.854456275205441	1.766888605036399	2.5647992638196404e-15	3.3284441797013704	0.8013542117467711	-0.5291408323178219	1.330495044064593	69.7803912968323
11	4.0	wm	45	diff_vonmises	-0.1567762590420239	-8.982617970957682	0.9541671496383733	149.01980125365824	0.9359759948199925	150.87780157795586	-0.09736371181958248	-0.3894699593310875	0.29210624751150505	78.5090797003036
12	5.0	ltm	45	diff_vonmises	-0.013734540694691938	-0.7869312153565258	2.727230757777006	1.0220440936019592	0.11130571958316551	1.429086180227705	0.3802632150444341	-0.2040477470241843	0.5843109620686184	79.9559163618795
13	5.0	perception	45	diff_vonmises	-0.0651419456736607	-3.7323585563712505	2.2203031012971417	1.67588489223942	3.645149938060827e-10	2.356074505843282	0.5456238171113854	-0.36412756226255244	0.9097513793739378	92.24894451218856
14	5.0	wm	45	diff_vonmises	-0.23619412388874028	-13.532926444614914	0.4075865580065903	134.87576070542335	0.3919919138637817	135.65648658234042	0.2088114396966816	-0.33884316624356536	0.547654605940247	133.18736595686153
15	6.0	ltm	45	diff_vonmises	0.20428782844727164	11.704830375921263	0.6399462562163721	75.04546112725941	0.6240216352367149	75.27094594939513	0.16592103299255712	-0.1368175068729638	0.3027385398655209	113.34774736237478
16	6.0	perception	45	diff_vonmises	-0.1476281719937233	-8.458471192471764	0.898116587065499	151.7239537632908	0.8819998216550389	152.26357984015667	0.2936079292146374	-0.23293470557825913	0.5265426347928965	94.65859441840136
17	6.0	wm	45	diff_vonmises	0.297062430776375	17.02042353538346	0.00024840798013451497	4943.560643594274	1.714866378269758e-28	4943.812079053076	0.15544036754158697	-0.2354504847185126	0.39089085226009956	177.17549750040283
18	7.0	ltm	45	diff_vonmises	-0.1092092221592201	-6.257227513629899	1.1502226581350656	132.00047146144885	1.1351134948125732	132.7199346206625	0.10727602834106875	-0.20089826945079992	0.30817429779186867	78.93326750757055
19	7.0	perception	45	diff_vonmises	-0.16390798809233229	-9.391235946171193	0.7018949228443107	193.19696147677152	0.6859040017807482	193.9305324796067	0.38188378179957283	-0.3437914505511426	0.7256752323507154	107.2028252181494
20	7.0	wm	45	diff_vonmises	-0.3135651896296058	-17.96596196799574	1.0077945616575354	76.94943773449164	0.9902332302048843	77.70252733736461	-0.00028825097917462017	-0.17088428016470658	0.17059602918553196	79.66609044300284
0	1.0	ltm	46	diff_vonmises	-0.026038295219272166	-1.4918844217799636	3.3946745907061127	0.31727618810548264	1.2476899862422346e-16	2.6630050779803724	-0.20104523891874934	-0.4235795693462819	0.22253433042753254	74.48228934307213
1	1.0	perception	46	diff_vonmises	0.022612253149426557	1.2955866707435453	13.73003737837434	0.6072902649974059	3.718650885396808e-20	2.7476560231943057	0.451801115824108	-0.4373030380065379	0.8891041538306459	36.57457718834351
2	1.0	wm	46	diff_vonmises	0.046034506719110774	2.6375829469716776	7.967647756510575	0.32923780221266963	4.38209267831489e-17	2.87340932885031	-0.09281244137313999	-0.4573172544374182	0.36450481306427823	48.161645231004115
3	2.0	ltm	46	diff_vonmises	0.0848737562745373	4.862908025952977	4.463308679442983	0.6450154645709185	0.34180803723272885	1.8983991588733673	0.11318470313904239	-0.30212256359127676	0.41530726673031915	57.89052177241766
4	2.0	perception	46	diff_vonmises	0.005790122307623427	0.33174957109137126	7.086374615020341	1.2340450233706277	0.25402039528670556	2.5765001195415875	0.7653425774439365	-0.42853304442199613	1.1938756218659328	49.143765174260494
5	2.0	wm	46	diff_vonmises	0.08272195349134569	4.739618808131593	3.5228227174484954	0.5886756395372671	2.203450361063465e-11	1.8901223457870115	0.12119427619139578	-0.3004546291409465	0.4216489053323423	73.07449588364622
6	3.0	ltm	46	diff_vonmises	0.09569670788966413	5.483017475374042	5.432706468879315	0.4426743996262918	0.15601652452518028	1.0335641068752865	0.209980236028092	-0.1634964033898282	0.3734766394179202	56.33022293848373
7	3.0	perception	46	diff_vonmises	-0.0385486478642667	-2.2086748285584767	5.819376686345333	1.2110773221731312	5.249823523562278e-17	1.6598704808975984	0.8738781324042059	-0.26416655616631696	1.1380446885705229	56.503745817290934
8	3.0	wm	46	diff_vonmises	-0.07302341164370327	-4.1839332928306705	1.4887434213103783	159.18053309496347	1.4711695684568364	159.75639508094415	0.2448694209579827	-0.2215021463600948	0.4663715673180775	71.90935938507698
9	4.0	ltm	46	diff_vonmises	-0.11143206041037176	-6.3845867639611305	1.1235812622381873	19.405490390347342	0.9794988566917602	20.889436782640768	0.02484269057889943	-0.3475915709491244	0.37243426152802384	78.41883150889498
10	4.0	perception	46	diff_vonmises	-0.02825423069623084	-1.6188481722830046	3.137031473750002	1.7153400771497085	1.7390963053006933e-16	3.7111958108434484	0.5616031242585073	-0.5884833611608606	1.150086485419368	77.55031872237228
11	4.0	wm	46	diff_vonmises	-0.06789317066921166	-3.8899921371072192	1.1599996102010617	306.8476487246226	1.1475905860010258	308.6181831738322	0.0539283695097339	-0.4317699002092894	0.4856982697190233	75.21480923977006
12	5.0	ltm	46	diff_vonmises	-0.043766458888013546	-2.5076333785160063	2.1839753148108407	0.9566972362660362	5.639909817821541e-16	1.6136765751327342	0.2635220416544335	-0.25022700402972864	0.5137490456841621	92.99843266729593
13	5.0	perception	46	diff_vonmises	-0.04267845201076959	-2.4452951763687194	1.979645046683101	2.034533722790792	0.08228528016083247	2.829269814251076	0.5549671371323739	-0.3941229235746279	0.9490900607070019	93.98929426196105
14	5.0	wm	46	diff_vonmises	0.0010555504205918985	0.060478584163174726	0.5617680308674156	164.72017799576315	0.5495937034213944	165.33062615383653	0.22141459721238732	-0.2672388274984847	0.48865342471087203	118.22231677690688
15	6.0	ltm	46	diff_vonmises	0.23837413198012777	13.657831707555786	0.8780195332114715	105.26932254307617	0.8637771335017269	105.6618057153349	0.16193697653136496	-0.1496797902242939	0.31161676675565886	94.7631079147744
16	6.0	perception	46	diff_vonmises	-0.21999736137849885	-12.604920311002362	0.6446954500093796	143.23754795799388	0.6293290446679686	143.80903637883512	0.26297989362847574	-0.2627236664204826	0.5257035600489584	111.49703577642391
17	6.0	wm	46	diff_vonmises	0.1713200114380292	9.815913601532062	0.3646476598945835	132.91892273915678	0.3538309122688782	133.23093059407572	0.19271877102304558	-0.21588193725969518	0.40860070828274075	138.99361779711094
18	7.0	ltm	46	diff_vonmises	-0.004911741655426021	-0.28142206691451127	0.8298171333687828	133.80625350454645	0.8142060446893971	134.89448309473153	0.06542685280107463	-0.2658590158684433	0.3312858686695179	91.14168628458813
19	7.0	perception	46	diff_vonmises	-0.10092433381600001	-5.7825383778262545	0.9520372188150596	41.211209568321955	0.8533591580952974	41.91219270956029	0.5542962953659281	-0.37034428636297	0.9246405817288981	95.12567796725246
20	7.0	wm	46	diff_vonmises	-0.07456328301481728	-4.2721614233885274	0.8854294439207389	118.59313927174455	0.8691526826407764	119.48251430508904	0.08620528087501356	-0.2288405707739667	0.31504585164898025	89.3148895764156
0	1.0	ltm	47	diff_vonmises	0.32018007108502505	18.34496675737062	0.9560755248903716	107.40577589546102	0.9385765303510749	108.7612778855326	-0.09041933546583181	-0.2792745067289175	0.1888551712630857	77.14180582699677
1	1.0	perception	47	diff_vonmises	-0.03234702882222974	-1.8533482313017944	16.279414396968743	0.5043287666456933	9.126067454665791e-17	1.7551599347297724	0.5259909049690668	-0.2793423795290858	0.8053332844981526	33.56413686857738
2	1.0	wm	47	diff_vonmises	0.01100165436906998	0.6303483630093725	4.937685227845367	0.5515162460797626	0.3980944433863407	2.1845424696922273	-0.022766587008716366	-0.36846867834082764	0.34570209133211127	53.2140986742821
3	2.0	ltm	47	diff_vonmises	0.0726402329054888	4.161978768331833	6.971722600466908	0.4992430948611879	0.7858173521933842	1.0875634090906738	0.18844492006967284	-0.20771389174860236	0.39615881181827517	45.75614395225597
4	2.0	perception	47	diff_vonmises	-0.019331878366444	-1.1076350404575015	8.686261827346867	1.107836646122057	0.4220239766797981	1.7779231401890718	0.8697797417191839	-0.31772022450805065	1.1874999662272345	44.26747097414969
5	2.0	wm	47	diff_vonmises	-0.044317107481304595	-2.539183218906399	1.177584142063321	107.61494878602177	1.1564608334455608	108.5095004834186	0.08993420076793512	-0.23726909636402205	0.32720329713195717	76.95107192863722
6	3.0	ltm	47	diff_vonmises	0.0789770581539898	4.525052110582879	2.487574211520585	41.39535417679194	2.4506727825639594	41.39827555470028	0.21131797343031877	-0.07425007886979618	0.28556805230011495	59.22909107543211
7	3.0	perception	47	diff_vonmises	-0.09330486465240058	-5.3459749526219325	6.930293064866245	1.005211285566602	2.6233726479892466e-15	1.0444877295989394	0.8688492232033276	-0.1662343954509382	1.0350836186542658	51.69653477206248
8	3.0	wm	47	diff_vonmises	-0.0741914231335433	-4.250855421621292	2.1393177872586424	101.85372732982607	2.116206451000779	102.13259038935698	0.2070235637603588	-0.1539415404360973	0.3609651041964561	60.45003220678777
9	4.0	ltm	47	diff_vonmises	-0.15924655012116992	-9.124155223961566	1.5096541567333857	108.07985717944273	1.489075750309434	108.85100095995716	0.056577761556198425	-0.21722383390774702	0.27380159546394545	66.76085883297455
10	4.0	perception	47	diff_vonmises	-0.05853529565930879	-3.353825393828841	3.5419722039863557	1.7383994110367447	1.0325890882649034e-20	2.9930161246121205	0.7736093388278589	-0.47530512648872286	1.2489144653165818	72.87299536451141
11	4.0	wm	47	diff_vonmises	0.07590167313117563	4.3488455283978835	1.4040303731002441	165.15254063205924	1.387158143645535	166.47381207615655	-0.04819500241310948	-0.32405388095071075	0.27585887853760127	65.43949751047168
12	5.0	ltm	47	diff_vonmises	-0.01900977441963441	-1.0891798437408056	3.451789582658378	0.6852271234860765	0.01734156016897664	0.9145981885484974	0.3376146369126447	-0.1426096636198979	0.4802243005325426	73.38905842658713
13	5.0	perception	47	diff_vonmises	-0.09118661632851671	-5.224608263702726	1.885894910813904	1.9069783265186726	0.14278695717249912	2.292126512395351	0.5307145384269728	-0.2929043044572509	0.8236188428842237	94.37440317434503
14	5.0	wm	47	diff_vonmises	-0.18367398068478635	-10.52374389960566	0.4956553560293195	53.49181454176137	0.4665791663232035	53.77248449362403	0.22229090389493678	-0.2048623605284119	0.42715326442334867	127.12754285613477
15	6.0	ltm	47	diff_vonmises	0.06924103268981127	3.967218942253552	1.0038202624966703	48.71719950910267	0.9807163261348464	48.83059589263319	0.17473048817862846	-0.09043698767817299	0.26516747585680145	92.21692237219528
16	6.0	perception	47	diff_vonmises	-0.2665164978190462	-15.270270495638956	0.9735518378159226	111.00907705810711	0.9534817076386881	111.30801385301764	0.32317433093074754	-0.18795706668968748	0.511131397620435	92.83554271184826
17	6.0	wm	47	diff_vonmises	0.2136351762304784	12.240393953539975	0.00023207552383473553	5765.233131453264	2.7627380700618697e-31	5765.236733679934	0.21238162640793234	-0.21350354204173527	0.4258851684496676	178.4644281355245
18	7.0	ltm	47	diff_vonmises	-0.10842072544783075	-6.212049979907345	1.393091693705435	118.14415343552747	1.3762152532033516	118.74425795759467	0.110123528690238	-0.18220322406940248	0.2923267527596405	71.87445373812415
19	7.0	perception	47	diff_vonmises	-0.1559192060710565	-8.9335124529021	1.918757960083512	1.5473283276547556	3.789629861367882e-10	2.2104328339670007	0.42664915616511184	-0.33502794984212303	0.7616771060072349	98.90115357801926
20	7.0	wm	47	diff_vonmises	-0.40809299514300096	-23.382006270546757	0.8425284318654921	45.78945026214686	0.8255999293618148	46.4104579262746	-0.043639454029717584	-0.12407570861312056	0.08043625458340298	81.87876104723289
0	1.0	ltm	48	diff_vonmises	-0.14396155307221617	-8.248389403186597	7.641574753400341	0.28691199414057417	0.06628720247191978	2.727695753846896	-0.15250673145637456	-0.4422001970886295	0.28969346563225495	47.346222997984
1	1.0	perception	48	diff_vonmises	0.004380078945881113	0.2509600375330983	13.544658445505512	0.7420742142845393	2.027177731038299e-19	3.2505314507769714	0.5616486463649513	-0.5173381480649697	1.078986794429921	36.82597771112674
2	1.0	wm	48	diff_vonmises	0.05679860071423347	3.254320103174321	10.720229331286028	0.3048037972663027	1.796902596792755e-18	3.0689687146655826	-0.09520007057528812	-0.4884415409414182	0.39324147036613005	41.43896626914676
3	2.0	ltm	48	diff_vonmises	-0.020544838648432182	-1.1771325453324226	1.159283902938437	106.55720879584504	1.129780002353269	107.8209496803919	0.12262993479416195	-0.3324191266073271	0.45504906140148904	77.6504290655028
4	2.0	perception	48	diff_vonmises	-0.02768953351991331	-1.5864934073770551	6.4444941777164	1.2512376488869799	0.2203165150183691	2.5868533917039125	0.7333480616811833	-0.42097837245499803	1.1543264341361814	51.627988035692
5	2.0	wm	48	diff_vonmises	0.09069925553367206	5.196684547057986	3.362746986405727	0.6789197204024671	1.4534649750980488e-21	1.8622574875928637	0.17787442621171418	-0.2958183819046845	0.4736928081163987	74.83698852677969
6	3.0	ltm	48	diff_vonmises	0.03978293062919157	2.2793940217144093	5.258724697493975	0.5529985571232126	2.4075906830301214e-12	1.1034394384517585	0.3169197964961703	-0.17560451123600707	0.49252430773217737	59.50546409793813
7	3.0	perception	48	diff_vonmises	-0.011850367867302494	-0.6789760644738793	4.616925735395549	1.6228373972270949	0.30616410756006635	2.0627715070009973	0.912742903516191	-0.3095795564882279	1.222322460004419	60.481557701667526
8	3.0	wm	48	diff_vonmises	-0.13996893217441994	-8.019629076547139	1.479513124217801	122.49635044661737	1.4585486275264035	122.8827731964162	0.28755695127604497	-0.18764936096728668	0.47520631224333165	73.8224452896705
9	4.0	ltm	48	diff_vonmises	-0.06207349797425368	-3.5565494535386013	1.6697683360754374	4.687843849694988	0.9161861217275142	5.819364507072809	0.2712313965559694	-0.35057153781903244	0.6218029343750018	75.92935158631352
10	4.0	perception	48	diff_vonmises	-0.06810133067404774	-3.901918826847749	3.593821924954864	1.7882579235021587	7.387504736354603e-17	3.5076310426340904	0.7380406328607451	-0.5572769789452238	1.2953176118059688	72.32827136845066
11	4.0	wm	48	diff_vonmises	-0.1595586798355026	-9.142038939253451	1.1289424119314266	266.63829457844525	1.1139889833753591	267.99993911356114	0.25003298631440884	-0.3943383674224208	0.6443713537368296	80.38330419666846
12	5.0	ltm	48	diff_vonmises	-0.043443969154292605	-2.4891560778374986	2.1724614838465675	1.12110040131498	1.9022172069857878e-20	1.6893819472245781	0.33896492479808216	-0.26098705063561795	0.5999519754337002	93.23890510400659
13	5.0	perception	48	diff_vonmises	-0.016455631286726502	-0.9428382219528608	1.717881407954165	2.9138595719704177	0.2455594647354399	3.620672218733954	0.6449655560222278	-0.40436456004657306	1.0493301160688009	94.29826171719185
14	5.0	wm	48	diff_vonmises	-0.023725107078137003	-1.3593485040732065	0.5037390794812742	161.84989171952523	0.49183060004749457	162.34926599913865	0.237646841159588	-0.2635844152039635	0.5012312563635515	124.63286788193528
15	6.0	ltm	48	diff_vonmises	0.10553234145593662	6.046557767558662	2.2266586220223896	0.6022163389606474	3.2516455247944736e-11	0.8163677423676651	0.20145654164651827	-0.1260716649326837	0.327528206579202	92.10699878334316
16	6.0	perception	48	diff_vonmises	-0.1787152613841999	-10.239630211891994	0.5894839677145325	91.33934442604934	0.5689548724455371	91.87501004710408	0.2150312733509523	-0.24144982918171998	0.45648110253267227	116.2631528920221
17	6.0	wm	48	diff_vonmises	-0.004192166539220852	-0.2401934497133193	0.8479638626336317	73.37893551024797	0.8330407981458426	73.3929651348989	0.2046482737498998	-0.09012685008284294	0.29477512383274274	102.02222136060703
18	7.0	ltm	48	diff_vonmises	-6.116098051189545e-05	-0.0035042660542134864	0.5839684383402363	122.78381170460231	0.5701910868157971	123.50538597076688	0.13186408553347206	-0.2379187003091019	0.36978278584257396	113.66804403127452
19	7.0	perception	48	diff_vonmises	-0.1366045365562098	-7.82686340701139	1.589223166564443	3.1499733336178397	0.3740570948455865	3.792637541585082	0.5655913624285025	-0.35470463610402214	0.9202959985325246	93.2126803210225
20	7.0	wm	48	diff_vonmises	0.09373179845444253	5.37043645761041	0.8660931993950263	60.72332486228891	0.8390025569942988	61.07600815952771	0.20414422460153148	-0.1595256092945876	0.36366983389611907	96.95100605222527
0	1.0	ltm	49	diff_vonmises	-0.064407272315039	-3.6902648736015258	4.838328461100462	0.23973585815330709	2.1348467756614206e-22	1.7023444328410757	-0.06668326559616672	-0.2709237165352146	0.20424045093904786	62.09878843992874
1	1.0	perception	49	diff_vonmises	-0.018586923274400584	-1.064952257756634	14.014272588479868	0.5483448340505268	7.84656241537943e-17	2.2368328701615616	0.4553721041100485	-0.356003008156099	0.8113751122661474	36.19332189093862
2	1.0	wm	49	diff_vonmises	-0.0032778829343155036	-0.1878088578742364	7.256191871346311	0.32713962787768724	0.07487448137009557	2.0366087254490477	-0.003795085369726836	-0.3292075955003789	0.3254125101306521	48.90267918703299
3	2.0	ltm	49	diff_vonmises	0.08198154474245242	4.697196511705448	4.951675647028455	0.5465972796522406	0.4528732326040877	1.2711790188321266	0.1689999952606659	-0.20657968286142722	0.37557967812209314	55.178432792097965
4	2.0	perception	49	diff_vonmises	-0.019950172588617615	-1.1430606898853737	7.827473453089402	1.0914407769459642	0.3192045501982098	2.0181192754546067	0.7665216304771495	-0.34544115442787815	1.1119627849050278	46.72742436622363
5	2.0	wm	49	diff_vonmises	0.105564133649846	6.048379326091131	2.7783732788095725	0.5898058617111009	1.4293001504051841e-11	1.4342746866057088	0.1413851263852851	-0.22684453973313698	0.3682296661184221	82.48539728831355
6	3.0	ltm	49	diff_vonmises	0.02192010032058915	1.255929234873121	2.050778909560223	79.44287774159652	2.0219793871885097	79.66826055186493	0.2365425728433337	-0.1442410553228246	0.3807836281661583	62.6968683513704
7	3.0	perception	49	diff_vonmises	-0.027016189353575436	-1.5479136284861401	4.185590289391827	1.9521346144698206	0.539683799188042	2.2664476741876904	0.9621607898531723	-0.32040192608165974	1.282562715934832	61.44977186670164
8	3.0	wm	49	diff_vonmises	-0.17834726099410345	-10.218545342680299	1.5245632988963498	140.55341167401886	1.5092286015618843	140.9160349341858	0.2180500649751309	-0.16061257199611667	0.3786626369712476	71.98867867308365
9	4.0	ltm	49	diff_vonmises	-0.05311236122141754	-3.043114137961523	1.5870364879296335	194.86264042691167	1.5720116128265815	195.6482668760077	0.15343705947535113	-0.25383197688487513	0.40726903636022627	67.15304055013797
10	4.0	perception	49	diff_vonmises	-0.07054048291118967	-4.0416719556258744	4.359622575076277	1.523797593476907	8.988526752998779e-17	2.7756191133558437	0.7859037274994722	-0.44155288949300064	1.2274566169924728	65.50124147420607
11	4.0	wm	49	diff_vonmises	-0.06525241545189336	-3.738688008427728	1.1576256136719032	214.36832587712897	1.1444855325921537	215.53343033409885	0.09420311120457825	-0.3011343169634131	0.39533742816799133	76.97400992808707
12	5.0	ltm	49	diff_vonmises	-0.05981833333070967	-3.4273380373564044	2.295099621342039	0.837476065866139	1.6670816085658958e-17	1.3991580798856704	0.2465247844052058	-0.2179194660975382	0.464444250502744	90.76468925812011
13	5.0	perception	49	diff_vonmises	-0.0589313357934823	-3.376516822034778	1.596042906669378	2.77367204198842	0.2609926445942878	3.4784569844795556	0.5408879035905948	-0.37123004729116643	0.9121179508817612	96.42077441414327
14	5.0	wm	49	diff_vonmises	0.023695653489258815	1.3576609377389728	0.3607166197524267	84.95439420055587	0.3448120430073241	85.60598488819046	0.10301588002325346	-0.24329932645909658	0.34631520648235004	137.93120229228185
15	6.0	ltm	49	diff_vonmises	0.09421395829862296	5.398062181732634	0.6819879658864999	82.69437100626284	0.6668056115561122	83.18094377588206	0.10359951650661614	-0.15753416989815605	0.2611336864047722	105.41309403134025
16	6.0	perception	49	diff_vonmises	-0.16918315386114288	-9.693480680955926	0.8887648413242575	206.2162599205143	0.8747750678626943	207.01255797689558	0.2967282061020313	-0.28993579256220414	0.5866639986642355	93.79864402776303
17	6.0	wm	49	diff_vonmises	-0.05117965472393981	-2.9323782126185374	0.4059442542180137	85.82726296644599	0.3890304161581232	86.42004364163009	0.13208432820524507	-0.2399926044860532	0.37207693269129827	133.44910649882652
18	7.0	ltm	49	diff_vonmises	-0.09743923120624075	-5.5828567071170205	1.017895920026862	129.6246555131669	1.0022446332074892	130.34458017384873	0.13711957679647213	-0.20883573757410367	0.3459553143705758	85.06285991052133
19	7.0	perception	49	diff_vonmises	-0.10258989272752805	-5.877967873987215	1.7424889126419094	2.3511398587045518	0.09208338924872678	3.226681734010384	0.5536609294011349	-0.4331776766038236	0.9868386060049585	99.19825678722188
20	7.0	wm	49	diff_vonmises	-0.06043470407620682	-3.4626534796887234	1.0178272160699218	89.24389163374454	1.0003696297620235	89.85717087188398	0.08486589850271287	-0.16686708036605324	0.2517329788687661	84.04230188217173
0	1.0	ltm	50	diff_vonmises	-0.11179023995020822	-6.405108939901697	9.413323290690423	0.3398628787282945	0.19640028952269215	2.0386866575139337	0.018981470153242253	-0.3522665015691736	0.37124797172241586	42.02096843656892
1	1.0	perception	50	diff_vonmises	-0.027816141598437323	-1.5937475159287422	14.052225036596626	0.7445453283648109	6.772210393032893e-19	2.6289568595083392	0.6844174414209079	-0.41841147936541023	1.102828920786318	36.1562926550468
2	1.0	wm	50	diff_vonmises	0.021809064013675536	1.2495673231142517	11.632890808388403	0.24245355882753156	1.5441530399530667e-24	2.3848848453954186	-0.05339445334142273	-0.37956621182396644	0.3261717584825437	39.76411693129518
3	2.0	ltm	50	diff_vonmises	0.09529185964427449	5.459821379569938	2.0760745669847016	3.6579341524742626	1.3184795036429768	4.3010514951724925	0.20606787314910036	-0.23453618167028772	0.4406040548193881	66.2791013342883
4	2.0	perception	50	diff_vonmises	-0.048190487390312765	-2.761111540143334	7.40563721536228	1.1229473606580085	0.24308609223147823	1.8606001801592296	0.824940725113117	-0.30801638940155873	1.1329571145146757	48.5098407081162
5	2.0	wm	50	diff_vonmises	0.07362168495886195	4.218211828784564	2.2410529801600774	0.745806223529602	7.308102886215414e-20	1.666087607820313	0.14680944294265363	-0.26050666072844414	0.4073161036710978	91.82583470363775
6	3.0	ltm	50	diff_vonmises	0.06316484495987912	3.619079029799263	2.275480623968623	30.417088689914774	2.20205152578942	30.489750063132686	0.28905182170271004	-0.12007788012061527	0.4091297018233253	61.47108105931784
7	3.0	perception	50	diff_vonmises	-0.014349383145686139	-0.8221590928639726	3.1361761608228753	2.75512439865912	0.8707545984019396	2.8987173453348793	0.9312133893988687	-0.3101211272944761	1.2413345166933447	66.4790858692985
8	3.0	wm	50	diff_vonmises	-0.18433125733991096	-10.561403077916776	1.6150994210894243	105.63096940040582	1.5940349550905581	105.88578684794493	0.266026011333814	-0.15072226689498436	0.41674827822879834	71.2659973202586
9	4.0	ltm	50	diff_vonmises	-0.0050766425077002145	-0.29087018978793283	1.661762994969645	184.6931576780885	1.643034049551168	185.27076629459893	0.32093400425299023	-0.2539081601593196	0.5748421644123098	68.54137485945441
10	4.0	perception	50	diff_vonmises	-0.1070034140546178	-6.130844018820436	3.6234429231670937	1.9889549865919844	0.01994674151286571	2.9186324475310608	0.974516238715712	-0.4550193232523941	1.429535561968106	71.498359599378
11	4.0	wm	50	diff_vonmises	-0.2190286156237958	-12.549415267836663	1.2499389326128958	262.13343028316086	1.2351366369327363	263.18052438164756	0.30824599391496577	-0.3453082347443015	0.6535542286592673	77.68762664238801
12	5.0	ltm	50	diff_vonmises	-0.05305960592029904	-3.0400914818604914	2.573740030719605	0.8112765200909012	8.5241080601253e-23	1.1376305609808237	0.30529203129241034	-0.1782318575276072	0.4835238888200175	85.73356432942577
13	5.0	perception	50	diff_vonmises	0.008124401739725522	0.46549393075501594	1.3046385885194263	5.466707499635609	0.5336663754619806	5.863096421860238	0.6937294727902168	-0.36208761483455865	1.0558170876247754	96.62465272143842
14	5.0	wm	50	diff_vonmises	0.03996877718777569	2.2900422451583102	0.40496213278033627	72.66574644731571	0.3859889742788865	73.17593873748183	0.13755362011223937	-0.22290866615517224	0.3604622862674116	134.0611486071208
15	6.0	ltm	50	diff_vonmises	0.24506327872141145	14.04109158437503	0.9716372877853371	43.93581954602425	0.9482524877793643	44.11619020258779	0.13511357315432448	-0.09041653421692653	0.225530107371251	92.05193410652262
16	6.0	perception	50	diff_vonmises	-0.12753909320784165	-7.30745176373495	0.6855639135061103	194.58318856812832	0.6737836873065637	195.1329765113738	0.2827580121846296	-0.2587924688403742	0.5415504810250038	108.28678015502273
17	6.0	wm	50	diff_vonmises	-0.21598541879103297	-12.375052933091773	0.9412412344003115	28.13107184617133	0.8902600197470653	28.347863879373318	0.2033402051845865	-0.12663600505009853	0.32997621023468504	94.88699029317056
18	7.0	ltm	50	diff_vonmises	-0.048997966060954884	-2.8073766600179617	0.6856181470750703	79.8967538232747	0.6694037241290898	80.29518988664991	0.13558731791474798	-0.1535605130223221	0.2891478309370701	106.97537558585414
19	7.0	perception	50	diff_vonmises	-0.10474953531992495	-6.001706279788249	0.8497058327182209	128.6171945178774	0.8233549837964227	129.12516105954873	0.49040856593583015	-0.3144063055712376	0.8048148715070678	99.34835986837012
20	7.0	wm	50	diff_vonmises	0.30703590721117485	17.591861642170677	1.136493799313602	0.8781880104709595	2.654268344905014e-26	1.1768483428098617	0.13529420880499352	-0.15407069878136845	0.28936490758636196	122.4546378659899
0	1.0	ltm	51	diff_vonmises	0.023368928320902642	1.338940964531463	5.373501007691841	0.46591344088244224	6.990047792025887e-19	3.993336869632023	-0.21581932782551494	-0.6355502720131606	0.41973094418764567	58.853485722757824
1	1.0	perception	51	diff_vonmises	0.0449301335755407	2.574307026837517	15.702734808361269	0.5942200951882315	8.624798343444769e-16	3.5220927963874793	0.37072402539658067	-0.5605584785734019	0.9312825039699826	34.19084776308
2	1.0	wm	51	diff_vonmises	0.02051881392489723	1.1756414385108749	3.22338807345002	0.6004956977273711	3.558503470218722e-25	4.476287206214189	-0.30279336304081395	-0.7117736962139101	0.4089803331730961	76.47708530082028
3	2.0	ltm	51	diff_vonmises	0.12292418480746048	7.04303698955364	5.625262228256572	0.7265225929658715	0.26448033728894366	2.33870370738679	0.19409577572171471	-0.3840070149560488	0.5781027906777635	53.37470005378617
4	2.0	perception	51	diff_vonmises	0.04298973248817786	2.463130233969031	4.057775324617371	1.7664270256011878	0.40838849245768993	3.6031479109825817	0.5407957812965045	-0.544299435416808	1.0850952167133125	61.009791771076834
5	2.0	wm	51	diff_vonmises	0.09616728209056154	5.509979391033204	3.4043647757233635	0.7851338023974426	0.07203137263679395	2.6605353893426904	0.09771200016848003	-0.4075638944039237	0.5052758945724037	70.9582535812174
6	3.0	ltm	51	diff_vonmises	0.0921204240737939	5.278111506383736	4.573098346758538	0.5578769435365949	0.07059215959159872	1.7387324297856603	0.16456487400619574	-0.2716482025448228	0.43621307655101854	61.98454766245706
7	3.0	perception	51	diff_vonmises	-0.036078648261499244	-2.0671542759209114	4.847155715495644	1.4747031514279225	7.75719960294983e-11	2.596955260920097	0.8444281680207496	-0.4132407473990166	1.2576689154197662	62.035625767004774
8	3.0	wm	51	diff_vonmises	-0.004997353729128812	-0.28632727741304415	3.1093524551130476	1.0979885815269463	0.2231570088822437	2.72274897671126	0.19889237016088523	-0.3953088658085666	0.5942012359694518	70.44258013990625
9	4.0	ltm	51	diff_vonmises	-0.15211204249988586	-8.715378048358067	2.095175849222259	1.2634541342220502	0.13228235273969655	3.5893246584452054	0.021107323569228842	-0.503816184467644	0.5249235080368728	85.20994155832014
10	4.0	perception	51	diff_vonmises	0.029135486050152936	1.6693403847360484	0.8550465834025537	262.18745990572023	0.8310125919092334	264.8338234405806	0.383358695933282	-0.7317613292336134	1.1151200251668953	92.5074236273513
11	4.0	wm	51	diff_vonmises	-0.09359642620700898	-5.362680199169266	1.64281217395255	3.0585354289055093	0.46650429790708153	5.939141896831186	-0.028297989859943584	-0.6257129435527105	0.5974149536927669	79.93787407353292
12	5.0	ltm	51	diff_vonmises	-0.018765316558053666	-1.0751734400034358	1.6580985360667089	1.3635819246723375	0.030290281747831157	2.168644202801856	0.27203452300549846	-0.31199539063504067	0.5840299136405391	104.08344327234988
13	5.0	perception	51	diff_vonmises	-0.01529392760480516	-0.8762775039339596	2.257610868978593	1.8699973279173616	8.596042645374151e-18	3.1231690087836577	0.540457237530513	-0.4857159195869089	1.026173157117422	91.5016389021948
14	5.0	wm	51	diff_vonmises	0.09073430540601153	5.19869275681551	0.4378635368486425	190.2845198014912	0.4244683915304688	191.42131661633894	0.20609839639089955	-0.41798613240093374	0.6240845287918333	129.15676500827556
15	6.0	ltm	51	diff_vonmises	0.4064752832951876	23.289318209198743	0.7840241392804943	137.62243646407282	0.7711553704808958	138.16140748343315	0.17751247687407812	-0.19381134190587979	0.3713238187799579	99.57726085130341
16	6.0	perception	51	diff_vonmises	-0.14174535742483407	-8.12141074601634	0.47095410354891465	87.01235184049862	0.44087646928388874	88.02735560576372	0.24623631136157087	-0.4056350064532168	0.6518713178147877	127.15097234888736
17	6.0	wm	51	diff_vonmises	0.268866279594468	15.404903074147384	0.3776029763442661	163.67432185239878	0.36681560257341034	164.32191851239725	0.1780093343679141	-0.2904463570609934	0.46845569142890753	136.00742468115476
18	7.0	ltm	51	diff_vonmises	-0.016752875164872658	-0.9598690416567365	0.8427810303801637	1.771087637537834	1.2095473256300575e-15	3.5095047167622773	-0.0063079934715649655	-0.4562013894876254	0.44989339601606043	135.41842029532526
19	7.0	perception	51	diff_vonmises	-0.0057679097521333746	-0.33047688540959114	0.9349464341785491	274.9680769152853	0.9181802871639	276.06334107910226	0.5195053513869539	-0.4374291976735307	0.9569345490604846	92.28222589158094
20	7.0	wm	51	diff_vonmises	-0.021356986616994835	-1.223665196271186	0.9365709756500802	209.85193429729065	0.9190547575917057	211.57613985249716	0.13633835036283415	-0.43240174642672	0.5687400967895542	86.17055322884278
0	1.0	ltm	52	diff_vonmises	-0.12617988355836993	-7.229574787346765	7.159917114006812	0.2418476840681188	0.0077877400337111906	2.718540730695505	-0.182726429274911	-0.4326021546863996	0.24987572541148861	50.43207026486266
1	1.0	perception	52	diff_vonmises	0.022949954023516392	1.3149355055667717	12.553582906190877	0.6858919062921509	0.009973450243822618	3.395800226234159	0.4134373996457491	-0.5420984771037075	0.9555358767494566	38.1751561883998
2	1.0	wm	52	diff_vonmises	0.08138549906809973	4.663045610168009	8.703368164745381	0.3255669311763568	5.691082511577818e-20	3.1665695825947693	-0.12668146467528701	-0.5039751913113448	0.3772937266360578	46.05197104743837
3	2.0	ltm	52	diff_vonmises	0.009128814382483448	0.5230425360746265	2.561774453016346	1.1451765033671408	0.431369346416738	2.386666937912162	0.12615534138830597	-0.31068071120721186	0.43683605259551783	71.48306725553755
4	2.0	perception	52	diff_vonmises	-0.015174718529835445	-0.8694473270585363	6.720144615415417	1.2289475409639152	0.23895264262686813	2.6949951988979635	0.7084268011475906	-0.44397396722041127	1.1524007683680018	50.39179604579067
5	2.0	wm	52	diff_vonmises	0.10673872606433271	6.1156785140893	2.8376696487398325	0.7543800400484171	2.0026202262218466e-22	2.031345877032618	0.15529220882553263	-0.32165738835556434	0.476949597181097	81.6070435957482
6	3.0	ltm	52	diff_vonmises	0.017157340585298345	0.9830432032061127	4.189876991951653	0.7224279413678224	0.3741920206782868	1.295015833780604	0.2802214250418217	-0.19461801380227636	0.47483943884409807	61.25876877489182
7	3.0	perception	52	diff_vonmises	0.0055113766478381	0.31577862122808253	3.536710310755096	2.4622386624443324	0.6089393934274814	3.059717120112148	0.951291155840262	-0.39986924857451517	1.3511604044147771	64.84325231508723
8	3.0	wm	52	diff_vonmises	-0.13734423245690958	-7.869244860244616	1.2988211604203588	145.9490366263113	1.2814063533853388	146.4962676080763	0.24713619433626377	-0.20936437021637566	0.45650056455263943	77.54944703712232
9	4.0	ltm	52	diff_vonmises	-0.03683091626561045	-2.1102560576192135	1.2990605702123632	153.44252235670706	1.2740676592552898	154.64854809689794	0.22503950467595502	-0.35947429837201383	0.5845138030479688	74.79466369491712
10	4.0	perception	52	diff_vonmises	-0.07894329200143631	-4.52311745255117	3.867696363045592	1.7259061919490106	0.0657369817390787	3.349333724016308	0.7339391882719791	-0.5135584018901016	1.2474975901620806	68.0040676044512
11	4.0	wm	52	diff_vonmises	-0.11729381855126052	-6.720440765960507	1.0489695920071296	279.8890325738083	1.0360636475878275	281.299575065592	0.18899449350067243	-0.38252750708497985	0.5715220005856523	82.50744852686557
12	5.0	ltm	52	diff_vonmises	-0.08193100994058461	-4.6943010808398915	2.0049468023856227	1.0752743912119616	1.6282916342205147e-16	1.9724815294837699	0.24160116979714674	-0.3038548690637839	0.5454560388609306	96.89883912756865
13	5.0	perception	52	diff_vonmises	-0.023596970008159104	-1.3520067907643003	1.2257063224164373	6.3620190289474285	0.5323526263582984	7.372636144181055	0.5783903795190988	-0.45160013707692614	1.0299905165960248	96.24282050430463
14	5.0	wm	52	diff_vonmises	0.029149730075587636	1.6701565072767337	0.4230988344477326	153.03728718841828	0.41130683832767423	153.91869878022658	0.1292940490547636	-0.30744417995333606	0.43673822900809967	130.28405718398233
15	6.0	ltm	52	diff_vonmises	0.11275912142685961	6.460621759362224	0.7064938479751633	47.470891092887584	0.6753117908513737	48.09084374955813	0.1085015883194167	-0.1877977855728945	0.2962993738923112	103.35166837620443
16	6.0	perception	52	diff_vonmises	-0.13030196627486879	-7.4657527298059705	0.677559747819219	198.0952343085633	0.6643845678582494	199.0428216652696	0.23347562342647166	-0.32292922751859265	0.5564048509450643	106.26319874493763
17	6.0	wm	52	diff_vonmises	-0.09789072162230032	-5.60872520244784	0.8306087888964907	89.74963840809845	0.8113339999187005	90.31713969880808	0.15672934987250997	-0.18799428904580662	0.3447236389183166	96.18387088386737
18	7.0	ltm	52	diff_vonmises	-0.023141697295817297	-1.3259215858196414	0.6844562354443222	116.61304034414592	0.6679540463803311	117.54584072476383	0.1066012206306155	-0.25761850727048596	0.36421972790110146	102.95507841958651
19	7.0	perception	52	diff_vonmises	-0.09933259123030781	-5.691338245594851	1.5377024249663522	3.1702826647092297	0.2555434694415417	4.062463366420252	0.5726642761596619	-0.4309899078735443	1.003654184033206	97.77214268071533
20	7.0	wm	52	diff_vonmises	-0.023319474138012455	-1.336107448572587	1.0156457174063733	103.67630772820688	0.994917971153961	104.26012400691894	0.20738998509624196	-0.20378751178185084	0.4111774968780928	87.4969508195183
0	1.0	ltm	53	diff_vonmises	-0.029173573550734477	-1.6715226377715728	8.904148032093575	0.19605536531698142	0.030148476551525562	2.6564558792593504	-0.2057326337313844	-0.42677040811772937	0.22103777438634498	44.52650276091856
1	1.0	perception	53	diff_vonmises	0.034656251661541584	1.9856569539495794	13.856563245462235	0.5752428125178544	0.0188964444514384	2.9389205830410785	0.36966306025802365	-0.47133473258818487	0.8409977928462085	36.26348660547305
2	1.0	wm	53	diff_vonmises	0.06929391383746061	3.9702488088296675	5.4289956140865705	0.4265820107818414	0.0975012313997887	3.381171516185419	-0.2053943478958991	-0.5442390984768521	0.33884475058095304	54.70933079411674
3	2.0	ltm	53	diff_vonmises	0.08819018774237067	5.052925552104205	10.619876358811124	0.3968530636514604	0.2951432134559634	1.385017733904137	0.21981937026966714	-0.2502136178854975	0.47003298815516464	39.894265300323184
4	2.0	perception	53	diff_vonmises	0.0045495713910185046	0.26067123929882347	8.922612345597717	1.1682540167501652	0.3073869308639023	2.469722163928151	0.8493339670915556	-0.4318987450333736	1.2812327121249292	43.85304743523298
5	2.0	wm	53	diff_vonmises	0.045248068492384004	2.592523355732481	0.9644047450594255	87.49708795734658	0.9307896626406116	89.015295654584	0.059755739394105944	-0.3607391098044861	0.42049484919859204	83.77562304041251
6	3.0	ltm	53	diff_vonmises	0.09808829552130231	5.620045353002598	2.063608869376285	76.82000835650162	2.033941196161462	77.1218755190049	0.19382750216549738	-0.1539486202233462	0.3477761223888436	61.36010366878469
7	3.0	perception	53	diff_vonmises	-0.04093503533611123	-2.345404758978063	4.901247156366531	1.4551484293924122	0.2743232637310785	1.8276777993810525	0.8727451772837128	-0.27832364309746616	1.151068820381179	59.12256096830538
8	3.0	wm	53	diff_vonmises	-0.062480213680292475	-3.5798525469563076	1.5399556587894496	136.56456939160665	1.5209289162838444	137.21537981117996	0.16733328866778407	-0.2193507000482846	0.3866839887160687	69.10550901315091
9	4.0	ltm	53	diff_vonmises	-0.0925839154545216	-5.304667606340125	1.2999083863452636	199.85307273717106	1.2849294102891968	201.13966287156404	0.03700162255542239	-0.32524379309548834	0.36224541565091073	70.82519605541825
10	4.0	perception	53	diff_vonmises	-0.08274810861642236	-4.741117386411123	3.6055195008429455	1.7507831901235664	0.08515120009266258	3.2311041966820726	0.7124391461838647	-0.48865575041994297	1.2010948966038077	70.0099949184634
11	4.0	wm	53	diff_vonmises	-0.03533901066001835	-2.024776162986877	1.1101521528172547	241.4893716223547	1.0974351254149148	243.1903243382369	-0.03772755939559147	-0.38518050377675195	0.3474529443811605	74.50472874797859
12	5.0	ltm	53	diff_vonmises	-0.10012002914379142	-5.736455114666049	3.1758181656228275	0.6514233434675715	3.026033956121545e-16	1.5910601723654176	0.1874263275667007	-0.25245659141440463	0.4398829189811053	77.0609884992038
13	5.0	perception	53	diff_vonmises	-0.07165806307039276	-4.10570458201577	0.8691041297630664	175.26162640754916	0.844299507042664	176.31894430015035	0.4993798657955324	-0.4309986724416497	0.9303785382371821	96.03425785914732
14	5.0	wm	53	diff_vonmises	-0.0711992818482387	-4.0794183542664895	0.434365999209686	91.56285342563272	0.4160112260776791	92.70924162505173	0.04495966525059458	-0.3172743333060577	0.3622339985566523	126.66167817386557
15	6.0	ltm	53	diff_vonmises	0.17455288462858748	10.001143591052045	0.7605075510445025	114.95769086063304	0.7475811639393815	115.81132712322791	0.033040296474759145	-0.2027471992177574	0.23578749569251656	94.4516542262636
16	6.0	perception	53	diff_vonmises	-0.19214414215014275	-11.009048403364927	0.7494303209177937	271.1476115926667	0.7377904590112813	272.1814731041986	0.30078337158553836	-0.35986530771790726	0.6606486793034456	101.4099870363945
17	6.0	wm	53	diff_vonmises	0.2552663053547576	14.625681948725337	0.0002775828123715651	5163.421674192172	7.2192554865435826e-31	5164.597901320478	0.04092173437891233	-0.415294800276115	0.4562165346550273	177.86816588135957
18	7.0	ltm	53	diff_vonmises	0.049386989457472705	2.829666058770277	1.2759695551566228	155.91810686182387	1.2590930107557246	157.09545556065734	0.021766880447287917	-0.2922485908577066	0.3140154713049945	71.17134510290379
19	7.0	perception	53	diff_vonmises	-0.07770693058005959	-4.452279161153489	1.7364609972131189	1.9025506914372912	1.1131941933495507e-14	2.9337035160631646	0.43384255496213536	-0.4389633215234707	0.872805876485606	103.59100651671206
20	7.0	wm	53	diff_vonmises	-0.3329385520330275	-19.075973868689232	0.8110671007778919	133.91779929476354	0.7988571569920668	135.07236496252477	-0.038075968290549156	-0.24303691321859233	0.20496094492804318	86.94976649953915
0	1.0	ltm	54	diff_vonmises	-0.022899792811207683	-1.3120614798062231	7.746144307742946	0.5340737566105097	0.15167396077464915	4.302826145763494	-0.20968286840249017	-0.722621395442902	0.5129385270404119	45.75950322040512
1	1.0	perception	54	diff_vonmises	0.041478420052853765	2.3765384098993216	15.56580241814088	0.7384624093378309	3.051593356800002e-20	4.020901536263168	0.5123661368591409	-0.6399463551820443	1.1523124920411854	34.338828207935904
2	1.0	wm	54	diff_vonmises	0.175301032818752	10.044009324798823	5.454523103618496	0.4603511527216911	1.930026341437616e-21	4.9213877189207125	-0.3651953215598717	-0.7832555350118922	0.41806021345202043	58.40158728751115
3	2.0	ltm	54	diff_vonmises	0.09410170361359757	5.3916304620501085	3.0983660779925386	1.3103817813578533	0.5730098766779834	2.6631243165633975	0.18045462374327315	-0.36576187928435494	0.546216503027628	64.45113353853583
4	2.0	perception	54	diff_vonmises	0.00043151157095880544	0.024723791826999495	5.5011735304276	1.445929759335344	0.30789495882854356	3.051490464930578	0.6736713306139096	-0.4922279612627607	1.1658992918766704	54.62975328169506
5	2.0	wm	54	diff_vonmises	0.10330757754633167	5.919088185125274	4.421643680391587	0.6842457427509355	9.682592438741517e-18	2.545350707102611	0.15038064067930834	-0.4050249632773121	0.5554056039566204	65.02923973956271
6	3.0	ltm	54	diff_vonmises	0.09090240771508899	5.208324309652053	4.987107987160004	0.621405957678718	0.24508651381237717	1.3312481908085587	0.2713862740028726	-0.20928807595126314	0.4806743499541357	57.70339663248231
7	3.0	perception	54	diff_vonmises	-0.03255057611488617	-1.8650106321023217	4.816851753307531	1.3650997291873412	0.07517276606000489	2.027625922609554	0.8129486912618711	-0.3140959586997155	1.1270446499615865	61.21000975996526
8	3.0	wm	54	diff_vonmises	-0.034834051833834326	-1.9958441534186524	2.2576215568570492	1.9426512946268057	0.6743744653914217	2.9897787207881534	0.24167224012999877	-0.3145573002254696	0.5562295403554685	72.29690717546424
9	4.0	ltm	54	diff_vonmises	-0.12025596861364826	-6.890159462819739	0.9863012296184166	135.6090618553903	0.9557336004629547	137.45172596909188	0.17180833654960992	-0.47200300784611926	0.6438113443957292	84.56703582956379
10	4.0	perception	54	diff_vonmises	-0.057459652696720785	-3.2921955918096004	1.9347620978687745	3.347097489322054	0.2506185324230783	5.397974532203668	0.6056892005611343	-0.6533304067141215	1.2590196072752557	87.424727108913
11	4.0	wm	54	diff_vonmises	-0.16474809199893464	-9.439370354371961	1.022719012052209	210.20534823717747	0.9995388247973157	212.50888500662467	0.1338617043433885	-0.5654947061721813	0.6993564105155698	81.66633287537721
12	5.0	ltm	54	diff_vonmises	-0.072428059279737	-4.149822115052268	2.3466701806768633	0.9920362940572578	1.3179235204249587e-17	1.7887182848979188	0.2785362748244345	-0.27952640670386	0.5580626815282945	89.77046544947558
13	5.0	perception	54	diff_vonmises	-0.010575683787548586	-0.6059420464914631	1.4089860448970257	4.873450461871772	0.4478812650945281	6.0498955563046275	0.5985178889600531	-0.48739793224952815	1.0859158212095812	93.91888994478839
14	5.0	wm	54	diff_vonmises	0.028005939046692362	1.6046221086761085	0.4653636477816539	196.3293479034357	0.45309633299395674	197.372317655319	0.1988299436366816	-0.38162572567430075	0.5804556693109824	126.23277308216291
15	6.0	ltm	54	diff_vonmises	0.2723564590874339	15.604875628837439	0.922916507714012	108.57253410873582	0.9091205619256749	109.00219507190137	0.14562335624400902	-0.1494646634387724	0.2950880196827814	91.6370285033496
16	6.0	perception	54	diff_vonmises	-0.18057935849891038	-10.346435109167418	0.37278098015239614	175.53561582851972	0.3591116586550967	176.44364087201856	0.23632927916157342	-0.40004999212480996	0.6363792712863834	137.0293106267995
17	6.0	wm	54	diff_vonmises	0.3857549869541719	22.10213267859818	0.30016023744128795	119.75741245468578	0.28791817133350106	120.17351275791592	0.17534466894540301	-0.24359051332145576	0.4189351822668588	144.01351533500016
18	7.0	ltm	54	diff_vonmises	-0.021576088657732837	-1.236218818488177	0.46718571127747777	59.26446231094448	0.43886881062668653	60.49330118372329	0.021929047802760948	-0.31729541100293357	0.3392244588056945	122.22965974269478
19	7.0	perception	54	diff_vonmises	-0.04315468208698312	-2.472581149812948	0.8767802831330872	215.12445685037358	0.85909404398298	216.10780832019253	0.4158710466656004	-0.37949515405099987	0.7953662007166002	95.01804848085163
20	7.0	wm	54	diff_vonmises	0.037351260325947176	2.140069576171209	0.8511699822735521	143.5118018924082	0.8326999333359301	144.6728725047193	0.14608950454255165	-0.312460488084227	0.45854999262677865	92.08854302385046
0	1.0	ltm	55	diff_vonmises	-0.026009226860316658	-1.4902189274944417	6.267824129679919	0.43420872164580626	0.07577696848170852	3.9721806363345125	-0.25679634747376673	-0.6410614269897387	0.38426507951597194	51.64551387051395
1	1.0	perception	55	diff_vonmises	0.047527911508472964	2.723148738506755	14.522580931962652	0.7095693395764416	0.016407153143329977	3.8562984101754947	0.4451359932436425	-0.6180139656802123	1.0631499589238547	35.43625519854527
2	1.0	wm	55	diff_vonmises	0.13066216282226228	7.486390471766802	6.186064708692057	0.44278513916788376	4.671369348360864e-23	4.422464613248639	-0.27426195643561857	-0.7038552837048061	0.42959332726918753	54.77671721470472
3	2.0	ltm	55	diff_vonmises	0.05862294075783442	3.358847088069368	2.6500448945976642	1.4305711311829576	0.5200892190960354	2.9442493380598114	0.1347870046657581	-0.3823016610239798	0.5170886656897379	68.64510861091105
4	2.0	perception	55	diff_vonmises	0.012889219179076362	0.7384978601801512	5.292111973606276	1.4910146124463914	0.3125810383827748	3.244711842571227	0.6435015723142816	-0.520775538206232	1.1642771105205136	55.43376929697254
5	2.0	wm	55	diff_vonmises	0.10090119513855361	5.781212629265061	4.135681956056119	0.6835968228452302	8.184535283509232e-16	2.394886557202932	0.15405283998651698	-0.38102115264634506	0.535073992632862	67.2990112179375
6	3.0	ltm	55	diff_vonmises	0.08091785177110379	4.636251393749441	5.507462747661394	0.5681668723054266	0.07526114745693294	1.4720463619509991	0.26632916046585464	-0.23209682558725725	0.4984259860531119	56.83690079748527
7	3.0	perception	55	diff_vonmises	-0.025761390287226325	-1.47601893784738	5.243299101051237	1.3221924996657322	0.023804434646722168	2.08539836256171	0.8358104099044379	-0.3282201523150662	1.1640305622195042	59.2453285696094
8	3.0	wm	55	diff_vonmises	-0.035304275787290236	-2.022786001377632	1.2618785288882681	66.06975821873071	1.2107810272941975	67.06233023374439	0.24185031237349008	-0.3108990199899617	0.5527493323634518	77.25895002820653
9	4.0	ltm	55	diff_vonmises	-0.13432788350441432	-7.696420795727931	1.4249199900525265	3.7559708370515437	0.5421363280590621	5.727576252142512	0.11871695803274829	-0.4757149943967624	0.5944319524295107	84.6732413876214
10	4.0	perception	55	diff_vonmises	-0.025166020481674198	-1.4419067607397187	2.752443675560212	1.9081406257734999	0.010894274803415751	4.2228394192237975	0.5099286723450409	-0.659946389127502	1.1698750614725428	82.3104345830582
11	4.0	wm	55	diff_vonmises	-0.10860689828362244	-6.222716897658191	0.9971374421843627	236.53755421612297	0.9780197842970503	238.78706981548203	0.09701226885219683	-0.5397508475567498	0.6367631164089467	82.11983212722998
12	5.0	ltm	55	diff_vonmises	-0.06672392315344056	-3.8229991892473785	2.0771088940102342	1.132777604826103	4.414367926455848e-19	2.0290786503345215	0.2749323601327566	-0.3135523045916445	0.5884846647244011	95.27683047732168
13	5.0	perception	55	diff_vonmises	-0.025141930461582758	-1.4405265042600939	1.621859729313892	3.3494204358949586	0.2959901029875954	4.581627585387854	0.5619901903559268	-0.4839295380923908	1.0459197284483177	93.51031915712838
14	5.0	wm	55	diff_vonmises	0.02902641781506406	1.6630912351865152	0.4902784189846752	224.17452906453443	0.47947863823145537	225.1308975156458	0.21908593383125918	-0.3657058174369787	0.5847917512682379	123.98334053849679
15	6.0	ltm	55	diff_vonmises	0.23125725615640735	13.250064759537915	0.87418846919	98.42108865580472	0.8571038100593908	98.9210712300366	0.16343045521221455	-0.17370206795558119	0.33713252316779574	94.2117291753759
16	6.0	perception	55	diff_vonmises	-0.196333768335867	-11.24909630154442	0.4139005140860908	83.92938054143367	0.38648025539680053	84.84333134624852	0.21589756587369635	-0.37746130673136413	0.5933588726050605	133.01816261164953
17	6.0	wm	55	diff_vonmises	0.33816791972385224	19.37559456689556	0.39605473959942744	132.84634395127543	0.384801099108025	133.2387999098234	0.18521177996254323	-0.22574806205034292	0.41095984201288616	134.5976705686391
18	7.0	ltm	55	diff_vonmises	0.009574758787105774	0.54859326835696	0.4751024656123943	106.24927025495172	0.4569526894968628	107.65626057620887	0.022508927860922512	-0.3586306804653727	0.38113960832629523	120.48793597009701
19	7.0	perception	55	diff_vonmises	-0.058344665318885366	-3.342903079875437	0.9005180800355768	216.41476816582463	0.8805479133700342	217.46928119018182	0.4870474214325924	-0.420418121076505	0.9074655425090974	94.08173894196634
20	7.0	wm	55	diff_vonmises	-0.003347902896386358	-0.19182070618256247	0.9358311415029212	155.96864136576963	0.9172346290745137	157.10618624891933	0.18078506155778484	-0.3178465775607435	0.49863163911852837	88.35629543856334
0	1.0	ltm	56	diff_vonmises	-0.1649955012660871	-9.453545861192222	9.312131445372657	0.2068885850207522	0.0021078450744727575	1.8623030560904927	-0.048787099637264464	-0.29640080206034347	0.247613702423079	44.4367961820154
1	1.0	perception	56	diff_vonmises	0.004218239912319781	0.24168734394955788	13.18603661157738	0.7516157833728132	2.9341146336149555e-23	2.3360925758392845	0.706214718728284	-0.3718006809613032	1.0780153996895872	37.327008097300705
2	1.0	wm	56	diff_vonmises	0.06416067374594134	3.6761358163582645	10.19625547473254	0.2976455537220871	2.533422441152185e-14	2.1560906998869336	0.031080362953802065	-0.3431524921203522	0.37423285507415427	42.504370491069864
3	2.0	ltm	56	diff_vonmises	0.15523923008363352	8.894552698652523	3.4846506475063848	0.8910892802986344	0.7226820869482333	1.649147158391429	0.15856482127933885	-0.23207414922548802	0.3906389705048269	60.51807069259817
4	2.0	perception	56	diff_vonmises	-0.02277548388385887	-1.3049391029133377	8.187844997152618	1.1479667608708477	0.2091279831640033	1.7717603781252456	0.9452570454062873	-0.29395087813323706	1.2392079235395244	46.46936412358784
5	2.0	wm	56	diff_vonmises	0.05790679774724984	3.3178151160350793	2.5614189197100927	0.6772812641938051	3.2788406294665677e-18	1.5131571752548825	0.16404245221468758	-0.23841360460915068	0.4024560568238382	85.94256534343526
6	3.0	ltm	56	diff_vonmises	0.18291658689438295	10.48034843198613	6.635838058322487	0.4340918923574011	0.6117550667815952	0.6127218702970699	0.27285428508255033	-0.10584718654809527	0.3787014716306456	49.30853152169297
7	3.0	perception	56	diff_vonmises	-0.020952179439537734	-1.2004714534862908	5.280940465093358	1.1325219595894276	0.06569977002136643	1.0990204810593376	0.824399234391346	-0.17068926224087885	0.9950884966322249	58.8263635478705
8	3.0	wm	56	diff_vonmises	-0.06685074062056179	-3.8302652948819644	1.7972756037592892	78.73354806505942	1.771159937678022	78.82609251816804	0.29319151672237354	-0.12039897013482026	0.4135904868571938	69.13218037795252
9	4.0	ltm	56	diff_vonmises	0.06924736129137142	3.9675815444131683	1.7194934716169794	104.11360666351747	1.6864056169161923	104.92599636780767	0.19845392393413874	-0.28365597592113545	0.4821098998552742	65.09561388167288
10	4.0	perception	56	diff_vonmises	-0.06878502083561665	-3.941091387600265	2.8626421525768353	2.0153428314403814	7.639631785834686e-18	3.3104866957498493	0.7581488324110098	-0.522687996947958	1.2808368293589678	81.24887669903569
11	4.0	wm	56	diff_vonmises	-0.14901241106367746	-8.537782249017253	1.3840747535195979	292.959644292212	1.3702977249464676	294.05971562985883	0.2722265387924665	-0.35469287381669545	0.626919412609162	73.00215445565502
12	5.0	ltm	56	diff_vonmises	-0.06824098195648427	-3.909920255934952	2.3514050857192688	0.7547802193307818	2.349072690368824e-21	1.1258086449601303	0.24985639674323304	-0.17528675180201367	0.4251431485452467	89.68126305015144
13	5.0	perception	56	diff_vonmises	-0.006499176680059295	-0.37237539407724374	1.6602935512537182	2.8645213148634783	0.27554725362483823	3.1921141496020726	0.6629967044202815	-0.33344305363988014	0.9964397580601616	95.67585849533845
14	5.0	wm	56	diff_vonmises	0.09279158357458045	5.316566113158912	0.732686699543703	82.16997332518244	0.7139298462463122	82.39625359666407	0.2290252516495812	-0.15647885858667543	0.38550411023625664	106.90813316408762
15	6.0	ltm	56	diff_vonmises	0.2537253673792361	14.537392706236522	1.1835626118596836	63.4179056184633	1.164951931426007	63.58929198650602	0.15494654891144677	-0.09187250853326212	0.2468190574447089	83.5422401538523
16	6.0	perception	56	diff_vonmises	-0.2731783130008208	-15.651964389450818	0.5795113510150146	119.32182398728605	0.5634390939898758	119.63695598668387	0.28036880916808116	-0.22921200868915115	0.5095808178572323	118.92784713093462
17	6.0	wm	56	diff_vonmises	-0.016094448486966888	-0.9221439718939162	0.6903328974022337	89.90865334055749	0.6756318170454929	89.93277015257762	0.2449721277401089	-0.12725809466499882	0.3722302224051077	112.49091278578277
18	7.0	ltm	56	diff_vonmises	0.009445997961511698	0.5412158164837994	0.7532535815059617	79.34363251607725	0.7346349509816391	79.94649236198529	0.10642937433395971	-0.17900949826494728	0.285438872598907	99.48085032986799
19	7.0	perception	56	diff_vonmises	-0.09829145764158871	-5.631685685051937	2.0907200776231223	1.9844867918000135	0.23880552491549353	2.384165276531405	0.5764838985412533	-0.2870873381127045	0.8635712366539577	87.39053030369092
20	7.0	wm	56	diff_vonmises	0.2706044460236876	15.504492674632992	1.1121230461605154	0.8815505181059883	5.72685741710481e-16	1.3229000122287444	0.10927033221151994	-0.1759553992507071	0.2852257314622271	123.52427345588904
0	1.0	ltm	57	diff_vonmises	0.4257856775246445	24.395722299280404	0.00021116242230817615	4125.482294712518	3.029801825790643e-33	4128.083760833379	-0.2753848563406791	-0.552672891345992	0.27728803500531285	174.4514301926642
1	1.0	perception	57	diff_vonmises	0.014146292298015057	0.8105228444346854	11.05631452151502	0.7289963523525317	1.4089650280041147e-19	3.1744310221103267	0.45033298894289453	-0.5052263884349295	0.955559377377824	40.79757030156679
2	1.0	wm	57	diff_vonmises	-0.3459004297409333	-19.81863475591694	0.00024649803422013253	4563.2335426225645	7.368060431446432e-35	4566.086179830806	-0.2749792265000224	-0.6330213347414428	0.35804210824142046	176.5928025093129
3	2.0	ltm	57	diff_vonmises	0.0825276424559303	4.728485605889475	5.219110748110568	0.600252233673329	0.2193251781053957	2.1344628781854835	0.11450788116732669	-0.3447530530729906	0.4592609342403173	55.45522358542152
4	2.0	perception	57	diff_vonmises	-0.005018164617891801	-0.28751965350707964	6.410025715047009	1.2124169829431326	0.10705851383797842	2.711300633263061	0.7197057875648017	-0.4324924854698611	1.1521982730346627	52.61089164937107
5	2.0	wm	57	diff_vonmises	0.07536183323347774	4.3179149806470205	1.6283374856722521	0.9698237517097853	1.3081781855062345e-25	2.516404500075677	0.04105018852879189	-0.3834905723749748	0.4245407609037667	106.59382747890672
6	3.0	ltm	57	diff_vonmises	0.1401178307879969	8.028160338680447	4.489910746328775	0.4500127045477299	5.995422032617092e-35	1.1881541649596339	0.17926094274224372	-0.18905422241051506	0.36831516515275875	64.51933505176535
7	3.0	perception	57	diff_vonmises	0.006811877354481371	0.3902918229725232	3.4747998190812384	2.305550422159835	0.40328244933376933	3.0423497216833577	0.9440634093739347	-0.41440865977987795	1.3584720691538128	67.36335454556996
8	3.0	wm	57	diff_vonmises	-0.15024336012828596	-8.608310435214896	1.2814156985502032	112.88126152230394	1.2543387086495452	113.67436551279188	0.24995078276395333	-0.26767905409067794	0.5176298368546313	77.08500220397434
9	4.0	ltm	57	diff_vonmises	0.07328995260311705	4.1992049648724485	4.336983408846816	0.710694167429706	0.11618395449512028	2.27020279385684	0.16648952205502998	-0.35292981197540246	0.5194193340304325	62.4739467138366
10	4.0	perception	57	diff_vonmises	-0.0737540649822683	-4.22579664541759	1.4541677344264077	8.43970681028792	0.6821016834929501	10.446432012062528	0.6506766470433409	-0.6694238005075056	1.3201004475508467	85.24494049280136
11	4.0	wm	57	diff_vonmises	-0.21771899379163548	-12.474379464095685	1.1482311396745977	306.2457854787991	1.1313804959909242	308.1927515027615	0.24788768823346174	-0.530044130918526	0.7779318191519877	78.57046967140616
12	5.0	ltm	57	diff_vonmises	0.01485196048492046	0.8509546532810139	1.6757677936438047	1.2041350006876168	4.277194254547916e-17	1.7251171581774676	0.2833429069198322	-0.25501704003848236	0.5383599469583146	105.2662062474329
13	5.0	perception	57	diff_vonmises	0.030023482529881938	1.7202188352469945	2.212558476394795	2.0023544919967593	3.1589660329550044e-16	2.594524719274859	0.6847135991553552	-0.3997888442031215	1.0845024433584767	92.40828842942304
14	5.0	wm	57	diff_vonmises	0.049969501838359534	2.8630415597092096	0.5408148645043189	201.86504573835435	0.5305026843600804	202.56909804176712	0.21334195547050427	-0.28897202970092906	0.5023139851714333	119.60682580054062
15	6.0	ltm	57	diff_vonmises	0.4863866202086042	27.867900549585496	0.9545626307196409	112.54433043208579	0.9417687884914029	112.82582591635754	0.1803913561839252	-0.1298431417359076	0.3102344979198328	92.16775551280418
16	6.0	perception	57	diff_vonmises	-0.0916016759916717	-5.248389430647628	0.6707323305531987	151.66366396280532	0.6575033326250881	152.11310436462503	0.2574275354919422	-0.22754844021430642	0.4849759757062486	109.91400828827784
17	6.0	wm	57	diff_vonmises	-0.09895536211812235	-5.669724609557157	0.5866741874865613	112.34813531222653	0.5741825160240177	112.71175956029347	0.17029669152099558	-0.17724045224771245	0.34753714376870803	116.66364225139766
18	7.0	ltm	57	diff_vonmises	0.22247565396445892	12.746916016576439	0.8697260715336226	1.407889243737397	5.222365919613494e-13	2.124899463024629	0.10804274294833327	-0.25982135873165757	0.36786410167999084	133.67211383672367
19	7.0	perception	57	diff_vonmises	-0.1377104043412694	-7.890224963794787	1.0565447559017003	196.65545172396702	1.0375307441848738	196.74892511028526	0.6716076665453272	-0.2694725411912309	0.9410802077365581	91.44494981032337
20	7.0	wm	57	diff_vonmises	-0.011808500164083852	-0.6765772217815448	1.6337525534156874	1.2270669980732918	0.1968285109501229	1.9585502308364247	0.1839262623100274	-0.23425713748020424	0.41818339979023167	95.68188103567638
0	1.0	ltm	58	diff_vonmises	-0.06963817869955641	-3.98997373246241	3.418192580379599	0.3406297060300734	0.0011563988926131	3.4677505721573385	-0.31241051291509525	-0.5510136992357767	0.23860318632068145	73.9743861182512
1	1.0	perception	58	diff_vonmises	0.0538357420515457	3.0845608065085366	9.957876600761901	0.681791380875688	0.10395554399560171	3.880208272589163	0.16363366296546544	-0.6429929101308882	0.8066265730963537	41.86571589242169
2	1.0	wm	58	diff_vonmises	0.01009268501987531	0.5782682555937647	4.929918773129261	0.5079552210712142	0.08096486114490503	3.966700198557206	-0.24633476050893371	-0.6323395884502958	0.3860048279413621	57.663509762571636
3	2.0	ltm	58	diff_vonmises	-0.018220560236524807	-1.0439612019167603	4.539288993829199	0.6485718417614255	0.11845841996994913	2.394864906044064	0.10644117765752742	-0.3754263227471334	0.4818675004046608	60.787924978456346
4	2.0	perception	58	diff_vonmises	0.018932870227003767	1.0847735580762088	5.371793737075554	1.4313225013322541	0.30897214232417863	3.5978452674456705	0.5277411035016133	-0.5839404617521535	1.1116815652537668	54.67510284205875
5	2.0	wm	58	diff_vonmises	0.10156159976651641	5.819051027218237	3.5552134796238364	0.6835717299975754	1.677378696178377e-13	2.402836538109979	0.11012924706222976	-0.3820211062571891	0.49215035331941887	72.73109764918541
6	3.0	ltm	58	diff_vonmises	-0.08792807945255596	-5.03790785332243	3.7311603977765415	0.7754991710402545	0.14191100956280503	1.8958461233726422	0.22793050819894278	-0.2866840961904389	0.5146146043893817	67.0487896368368
7	3.0	perception	58	diff_vonmises	-0.007092602798503907	-0.4063762061169505	4.019508882145339	2.32805672577512	0.407581249417983	3.5877514937166715	0.9707705690744188	-0.523650398376362	1.4944209674507807	62.598935135986466
8	3.0	wm	58	diff_vonmises	-0.1346318225796611	-7.713835221968681	1.159150680390743	221.69782222962908	1.1443654116410262	222.8740133953213	0.1758348079244456	-0.32901438286474516	0.5048491907891908	78.61149833095652
9	4.0	ltm	58	diff_vonmises	-0.1215385357041058	-6.96364514404533	1.9697099511813096	1.8154247948055688	0.3862569491277832	3.717320846316152	0.08897007180865368	-0.44226413289459493	0.5312342047032486	79.06188411081669
10	4.0	perception	58	diff_vonmises	-0.05008632191934131	-2.8697348573118417	3.1641491414565355	2.0455674896408698	0.23976320829127815	4.325303980620885	0.5184005334030636	-0.6207160421510304	1.139116575554094	70.39540937498495
11	4.0	wm	58	diff_vonmises	0.024931980402724204	1.4284972519789754	0.7343511876351321	207.0005615155367	0.7196427148029246	209.13540505830213	-0.03460625835200659	-0.4615471617216471	0.4269409033696405	93.06609205002965
12	5.0	ltm	58	diff_vonmises	-0.042560234880680885	-2.4385218337484873	1.879738236068931	1.3376126605216982	5.875003629693885e-16	2.591514440634213	0.25211862309989214	-0.39696882786104953	0.6490874509609417	99.8964825626809
13	5.0	perception	58	diff_vonmises	-0.06201766386669947	-3.5533503948228655	1.674027630039407	2.8405165982980334	0.22018769903511118	4.322863598648486	0.4680228802523543	-0.5062499273186782	0.9742728075710325	94.22409494090363
14	5.0	wm	58	diff_vonmises	-0.05019066919023598	-2.875713515537815	0.3672716284700484	209.883672390027	0.3563103964478069	211.2276426848708	0.12237445774601952	-0.4359323791419456	0.5583068368879651	135.88073497275192
15	6.0	ltm	58	diff_vonmises	0.14433255491673405	8.26964624306904	0.5582704183025086	119.0593310038395	0.542358300698931	120.03425707699513	0.10829352728666208	-0.2881943259695383	0.3964878532562004	114.62377477840047
16	6.0	perception	58	diff_vonmises	-0.08422048900283664	-4.825478568390503	0.7589676224459196	211.81751347309765	0.7443554926593794	213.10810858801307	0.21270338537547673	-0.3755499834396865	0.5882533688151632	98.68830868012714
17	6.0	wm	58	diff_vonmises	0.29189519415775506	16.72436268539109	0.23358590124934395	118.0995101747384	0.22181332979151913	119.00715398426664	0.0651304858677868	-0.3079404905993801	0.3730709764671669	150.87745217567408
18	7.0	ltm	58	diff_vonmises	-0.05227423731706842	-2.995093175533292	0.755818966123738	192.738115042756	0.7421773619835637	194.28293662200736	0.049898793412111786	-0.3631395567565576	0.4130383501686694	94.48084118450626
19	7.0	perception	58	diff_vonmises	-0.10264576182334847	-5.881168937382937	1.2047349984635154	5.0816882850665115	0.3420688601069339	6.377438900263569	0.54302207411342	-0.5292895352596453	1.0723116093730654	102.81785844109532
20	7.0	wm	58	diff_vonmises	-0.1709865402538984	-9.796807110092137	1.1843268274996093	200.78094270683303	1.168001161636771	201.87568976073916	0.19901488001525536	-0.31855310424511885	0.5175679842603742	78.35445637507596
0	1.0	ltm	59	diff_vonmises	-0.013003053665458794	-0.745020095812904	3.625754067898944	0.5058748624663156	4.413632279697544e-15	2.920374905635735	-0.0962975041282717	-0.46453078209864873	0.368233277970377	72.0033936771442
1	1.0	perception	59	diff_vonmises	0.0005606644656077026	0.032123707602279054	15.215195678117764	0.5154369647584198	4.4309640734905373e-20	2.9331733729306353	0.3284676779735146	-0.46682904124738955	0.7952967192209042	34.727568052084905
2	1.0	wm	59	diff_vonmises	-0.06320128811472692	-3.621167068764184	3.769425275464969	0.47309465528239875	6.023274902387785e-26	3.2027768501421257	-0.15766930977763688	-0.5095504329394172	0.3518811231617803	70.58292401570196
3	2.0	ltm	59	diff_vonmises	0.10436566130118129	5.979711918649511	6.357796131535498	0.6078811355713822	0.244885757266429	1.8853937073580644	0.22078781724250018	-0.31286760837773975	0.5336554256202399	50.92591291563568
4	2.0	perception	59	diff_vonmises	0.020125723478481527	1.1531190149643418	4.442571919627367	1.432285926375797	0.3577655215844183	2.977601564278861	0.5091533051312552	-0.4604192131135745	0.9695725182448297	59.363093643624325
5	2.0	wm	59	diff_vonmises	0.12929505007261527	7.408060681093503	2.890051059847741	0.6742002336252388	3.3074973760032795e-12	2.1306893889980714	0.09310303513367252	-0.337774706797071	0.4308777419307435	80.85432958249439
6	3.0	ltm	59	diff_vonmises	-0.019484542291710604	-1.1163820390591785	1.253138295337909	89.80794500067904	1.22281022188638	90.75273930479653	0.1380187859764419	-0.2672713273306506	0.4052901133070925	75.59509156317193
7	3.0	perception	59	diff_vonmises	-0.022887412457498247	-1.3113521377897932	3.250453025475153	2.8578492126959123	0.49328474290166696	4.037496051295972	0.9674907893927054	-0.531152006988578	1.4986427963812834	67.6500401926636
8	3.0	wm	59	diff_vonmises	-0.11964356486016571	-6.855071312387219	1.3510103249394227	4.8983992192303445	0.7479565428592589	6.35336400704904	0.12612944536015402	-0.3688930195664304	0.4950224649265844	81.62902425462491
9	4.0	ltm	59	diff_vonmises	-0.02128350811142001	-1.21945518801682	2.8236354135664095	0.8966735351685186	0.17307275527103994	2.378504483355461	0.12050784422410488	-0.34404986046048974	0.4645577046845946	74.36520635332113
10	4.0	perception	59	diff_vonmises	-0.025714571688459406	-1.473336429735319	1.320674666201408	14.49209347823841	0.8729182576429214	16.508880681076732	0.5717718686431503	-0.6479586696855588	1.2197305383287091	83.08430881367656
11	4.0	wm	59	diff_vonmises	-0.10193933895954845	-5.84069388873565	0.9027755240602366	255.19565889253516	0.8874320756599965	257.43220616408684	0.029491886077451568	-0.5093720923742389	0.5388639784516904	85.09899714398819
12	5.0	ltm	59	diff_vonmises	0.038222713360236714	2.1900001570798686	0.6373041000533998	82.57422157643764	0.6081539744329865	83.21234110405888	0.2860735310356901	-0.2930201593116397	0.5790936903473298	112.68419246376632
13	5.0	perception	59	diff_vonmises	-0.017958286357229642	-1.028934015556624	2.1775089620563963	1.8387109548891247	4.500101106820558e-17	2.892580718469065	0.5380100465734898	-0.44754712591221385	0.9855571724857037	93.13117865809053
14	5.0	wm	59	diff_vonmises	0.15433200614172166	8.84257259570775	0.2591132226619122	74.33847923259417	0.23325001460336667	75.45683719683738	0.11671330952496994	-0.4034868048624407	0.5202001143874107	149.89358302625243
15	6.0	ltm	59	diff_vonmises	0.44568808824586376	25.536046435742186	0.6215104883611619	149.59984620928742	0.6100973822255273	150.17909250083133	0.16868731010848137	-0.21890388835631036	0.38759119846479173	111.64600729128466
16	6.0	perception	59	diff_vonmises	-0.025719094592193813	-1.4735955730304446	0.8155708164663652	238.38031627744544	0.8019801037735377	239.4257800432922	0.3007701329275818	-0.3527867865307961	0.6535569194583779	97.0839663795085
17	6.0	wm	59	diff_vonmises	0.04981227343835091	2.854033035969121	0.3193016230486017	140.61925563060737	0.30783547980226417	141.45289488115583	0.11327309632102356	-0.30661624331474435	0.4198893396357679	142.32221644398282
18	7.0	ltm	59	diff_vonmises	0.007105094268117756	0.40709191460573996	0.8891890004774516	1.8523627632492723	1.651420106486367e-14	3.0189693956072734	0.11348742855960908	-0.38015057254425944	0.4936380011038685	133.34196986214354
19	7.0	perception	59	diff_vonmises	-0.03716160949919121	-2.129203384216925	0.8687399258228244	295.5885657373279	0.8530080229017926	296.5869108692442	0.5737980770527855	-0.44828188785922407	1.0220799649120096	96.44894951553971
20	7.0	wm	59	diff_vonmises	-0.018502078688967524	-1.0600910210967824	1.040246840003052	208.39220992081815	1.0244771874101433	209.7150407550513	0.16168020872684963	-0.35325435796845284	0.5149345666953025	82.6514610181487
0	1.0	ltm	60	diff_vonmises	-0.008990704105026774	-0.5151294000689782	10.04674620007784	0.41129859725732454	0.2042405959132885	3.09372719072687	-0.08457969580498148	-0.5417841510791955	0.45720445527421405	40.35793048280436
1	1.0	perception	60	diff_vonmises	0.019211992879649822	1.1007661080393238	15.430051245253832	0.6632320660675344	2.6258946106279235e-16	3.230923104090894	0.5164251070667605	-0.5142173827658351	1.0306424898325957	34.482378902597446
2	1.0	wm	60	diff_vonmises	0.1406601742100015	8.059234327807994	6.348132093660853	0.3266063459737723	0.003210237278833521	3.722255744869376	-0.2730440433287099	-0.591925615790442	0.3188815724617321	53.806130094953346
3	2.0	ltm	60	diff_vonmises	0.14422614489719746	8.263549398051689	5.081027299138651	0.761239588001934	0.6242696952169358	1.6126454425731	0.23007904667324247	-0.26845634183736333	0.4985353885106058	53.23162491880035
4	2.0	perception	60	diff_vonmises	-0.01535498693457773	-0.8797759458298254	7.2926000170870235	1.2292976432454723	0.3366303671797958	2.350484569389563	0.7907428903837853	-0.40002993503874823	1.1907728254225336	48.118858882456834
5	2.0	wm	60	diff_vonmises	0.08388462255528861	4.806234838465949	3.2157007649887785	0.7763377327606878	0.12323487495789244	2.306787707896852	0.11515318842040367	-0.3459635048492873	0.46111669326969096	71.4401689804692
6	3.0	ltm	60	diff_vonmises	0.08736768496865747	5.005799614532635	2.1248619351279876	75.4587916796247	2.0929249906821474	75.70321013195075	0.2364077011337784	-0.15218719916289558	0.388594900296674	61.34246537486675
7	3.0	perception	60	diff_vonmises	-0.04222073016987702	-2.4190696466946164	4.319117446432281	1.5690999855464738	0.3559727035711281	1.8907379357974656	0.8413602310240241	-0.2764028465677471	1.1177630775917713	62.049058897718936
8	3.0	wm	60	diff_vonmises	-0.0670855148935158	-3.8437168698604816	1.511969342890514	133.3618470910589	1.4907228666856285	134.05909212827646	0.1946493699177907	-0.23793709203201274	0.43258646194980344	70.06626706041425
9	4.0	ltm	60	diff_vonmises	-0.08601671158423402	-4.9283945413706665	1.3454040637720215	234.5222093705731	1.3307520285505148	235.63359693848506	0.17249298702415672	-0.3244286819534885	0.4969216689776452	72.70641804666624
10	4.0	perception	60	diff_vonmises	-0.09467554583670175	-5.424509199540383	3.0902174437149714	2.1253032376781293	0.10310624391236052	3.4089717432286144	0.8156307662587534	-0.5005964153578457	1.3162271816165991	75.23175074441497
11	4.0	wm	60	diff_vonmises	-0.15935247605442865	-9.130224332878274	1.1124399936244114	290.6255346434584	1.0994898510883018	292.32035395368956	0.09325478660400677	-0.42102179511676496	0.5142765817207717	77.79588448892588
12	5.0	ltm	60	diff_vonmises	-0.08754511472468912	-5.015965590713285	3.0701832591063516	0.7061119711772463	9.642264001124442e-13	1.4271586208906382	0.24145894067579945	-0.2261299253678882	0.46758886604368766	78.4025389938478
13	5.0	perception	60	diff_vonmises	-0.030759637100558304	-1.7623973852160155	0.9019258412408514	147.37116228420987	0.8705275610004366	148.32426194795102	0.5795756034421373	-0.4365512461056049	1.0161268495477422	95.22058461471414
14	5.0	wm	60	diff_vonmises	0.004159764633054141	0.23833695724178786	0.4125793650182601	14.34175815217186	0.30020404745217405	15.400009267921229	0.07024296457281842	-0.3265292964070645	0.39677226097988294	136.19635615058928
15	6.0	ltm	60	diff_vonmises	0.22659622260773088	12.983007209029868	0.8254277908584209	75.15640346507226	0.8083913535930669	75.71085372035313	0.07523618096794138	-0.15196401834273843	0.2272001993106798	93.8110634725411
16	6.0	perception	60	diff_vonmises	-0.1624273546985169	-9.306401901699441	0.6152590469997231	266.48758500444944	0.604372007033589	267.43218466966783	0.2979947997202288	-0.3710714184341306	0.6690662181543594	112.58740811473993
17	6.0	wm	60	diff_vonmises	0.33978967674424054	19.468514399559524	0.000387547245260866	3399.517024955462	9.926564726787061e-32	3400.2985699290575	0.08530896739637228	-0.33404183350285166	0.41935080089922394	176.3629566104281
18	7.0	ltm	60	diff_vonmises	-0.04775005223124646	-2.735876464379662	0.8995865667867882	84.59438303892897	0.8785837471478434	85.51811291040862	0.044213576690705025	-0.22128554032858005	0.2654991170192851	86.97894772528235
19	7.0	perception	60	diff_vonmises	-0.04980673119936047	-2.853715489065916	1.535296370250903	2.2453450639821724	0.17610888137159056	3.2155042204314204	0.38077825755503625	-0.38017197704985195	0.7609502346048882	100.1954185317809
20	7.0	wm	60	diff_vonmises	-0.01221352406355101	-0.6997833818229439	0.7641256495516365	98.87915503439886	0.7474407992418285	99.88292380654448	0.020255711928189868	-0.23091967459670748	0.25117538652489735	93.41670781953908
0	1.0	ltm	61	diff_vonmises	-0.056764290961545345	-3.252354299149154	3.2907037619562636	0.3528476447086492	2.1077396873193877e-25	2.8016819109119675	-0.20239538524978776	-0.44556402906253545	0.2431686438127477	75.67300727763117
1	1.0	perception	61	diff_vonmises	0.06952639702964954	3.9835691145498218	12.342042070965737	0.6420428505015185	0.07696338969883469	3.1329549915600206	0.35265572279164337	-0.5159743795462115	0.8686301023378549	38.045034968990535
2	1.0	wm	61	diff_vonmises	0.10617123307725411	6.083163561026424	5.8567137409246826	0.4270238060240712	1.987910838273954e-23	3.11301688558929	-0.09280860374081296	-0.4954487303184159	0.40264012657760295	56.318068165058094
3	2.0	ltm	61	diff_vonmises	0.1336076357287021	7.6551536379759355	5.776359705142064	0.519016258537132	0.23086928830600953	1.633255046755649	0.1626620217074385	-0.2667283055849877	0.4293903272924262	53.25686384892643
4	2.0	perception	61	diff_vonmises	0.022654612561752267	1.298013686292463	6.829162553398498	1.289074695098457	0.3384753849002196	2.7033042774123937	0.7306627616917888	-0.4570016275105918	1.1876643892023806	49.38472973057205
5	2.0	wm	61	diff_vonmises	0.11403716320116311	6.533848159071226	2.30234163503997	1.0993483376415525	0.21905527545410647	2.362752288236376	0.15450543051046367	-0.3170823708238256	0.4715878013342893	80.47389234181728
6	3.0	ltm	61	diff_vonmises	0.07758058706245101	4.44504021082568	3.157867286074631	1.168225889097351	0.917465487380204	1.8022702580526753	0.20005417771103573	-0.22288648132543393	0.42294065903646966	61.545902408313765
7	3.0	perception	61	diff_vonmises	-0.011484138863637335	-0.6579926882285845	4.611110520298952	1.5468326879301673	0.2506196460904523	2.083673837086524	0.8648720353598744	-0.31463116329933616	1.1795031986592106	60.87555447539705
8	3.0	wm	61	diff_vonmises	0.004392647231135822	0.25168014723390963	1.173178110055792	125.50051419876867	1.1528001894625168	126.20638206580264	0.21347322054668894	-0.23285508894394624	0.4463283094906352	80.53624937031282
9	4.0	ltm	61	diff_vonmises	-0.043444972182880105	-2.489213547142293	1.2365545406761072	205.80245608233636	1.2201668416102465	207.30205818743016	0.04613288779562197	-0.37301687007355966	0.4191497578691816	72.80957784897342
10	4.0	perception	61	diff_vonmises	-0.02970455138665976	-1.7019454267850813	3.9459919398530916	1.3899160308423255	7.458136098790157e-15	3.222063598023638	0.5478751251624647	-0.5124109001377825	1.0602860253002473	68.94214149913512
11	4.0	wm	61	diff_vonmises	0.04888517221947286	2.800914048945974	1.1185962392661877	249.37199152410383	1.1043637936646582	251.02650256912085	0.06569573292047437	-0.4039578918369351	0.46965362475740946	77.0532227962629
12	5.0	ltm	61	diff_vonmises	-0.17983710376552936	-10.303907045621077	1.5664456985778745	1.0366520317059744	1.4007670767412596e-18	2.2216826371305585	0.10739256091212596	-0.3334958551822724	0.4408884160943984	108.33775639831042
13	5.0	perception	61	diff_vonmises	-0.0615248898307311	-3.52511652230825	0.8336045650239118	175.5285469914689	0.8076927806209278	176.89641574550376	0.45098407008075014	-0.48370982683545094	0.9346938969162011	96.86963041150108
14	5.0	wm	61	diff_vonmises	0.19952099132446838	11.431710727158352	0.49200997267532937	61.204282411613256	0.4624089387967312	62.27715668195443	0.08014220300810848	-0.31041321366691577	0.39055541667502425	121.55543160332181
15	6.0	ltm	61	diff_vonmises	0.17139916514325448	9.820448774774293	0.7697288856989547	134.12176929217793	0.7557655094421986	135.2143553903767	0.035059556461568775	-0.25634025121477855	0.2913998076763473	93.56767392519791
16	6.0	perception	61	diff_vonmises	-0.21528020712824472	-12.334647281150604	0.644933612793738	217.72223447306683	0.6302303509337487	219.07988150495052	0.2395515596111082	-0.42436222686920644	0.6639137864803146	107.78949766198295
17	6.0	wm	61	diff_vonmises	0.1653295402884459	9.472684887366057	0.48197668715776315	141.64805881347633	0.4667333050713481	142.89136556921812	0.10279574077119236	-0.36657324198852415	0.4693689827597165	122.1689514989059
18	7.0	ltm	61	diff_vonmises	-0.019457658875510625	-1.1148417327720261	2.6296902557493143	0.6821795064307564	0.10583071012910193	2.283333027046396	0.011281038486649186	-0.3375075025347925	0.3487885410214417	78.04383991540669
19	7.0	perception	61	diff_vonmises	-0.013324352789635787	-0.7634291795894954	1.974742934178872	2.5193596293598888	0.1533768666882819	3.96263333179249	0.5588180580226813	-0.5182381313683819	1.077056189391063	90.51697399872637
20	7.0	wm	61	diff_vonmises	-0.05091145382801894	-2.9170114332206443	0.9693094796322205	205.23860277921324	0.9550849752492208	206.6050463805749	0.098642807698468	-0.34007241137131317	0.43871521906978117	84.31020745387383
0	1.0	ltm	62	diff_vonmises	-0.05395653076975512	-3.0914814902747314	1.6389861731972866	0.5234983679836512	9.31888341073507e-16	2.87075722684622	-0.2176002173711837	-0.44787263616732415	0.23027241879614044	106.30130765727161
1	1.0	perception	62	diff_vonmises	0.07237423692419975	4.146738321236531	12.478315458693828	0.6353214268188846	0.06275303459303244	2.899788960797204	0.39505475131013723	-0.474142276314995	0.8691970276251322	37.954335378667565
2	1.0	wm	62	diff_vonmises	0.10100376434788409	5.787089412067692	6.252216050781591	0.4189050768756152	1.773500913420388e-24	2.830873200314533	-0.041772999665332544	-0.4505459463415873	0.40877294667625474	54.474067969940734
3	2.0	ltm	62	diff_vonmises	0.1317407345049934	7.548188077089619	4.924785400833533	0.5314495836454723	0.21908900488084154	1.7382167913083009	0.11674861119836527	-0.2774585528478615	0.39420716404622674	57.13258301538173
4	2.0	perception	62	diff_vonmises	0.03075201765070257	1.7619608228970705	6.852818317985906	1.3191291888781171	0.3325579006675746	2.7125797864845596	0.7647407784938723	-0.4576921937739793	1.2224329722678515	49.388265611898845
5	2.0	wm	62	diff_vonmises	0.10307366939158671	5.905686235064694	2.5733454312179678	0.930784270871348	0.1765111593543823	2.0818698083783453	0.16570051057943386	-0.2922282923616189	0.45792880294105276	78.1443407747465
6	3.0	ltm	62	diff_vonmises	0.109390923749515	6.267638247884612	4.459002032709344	0.6584943615992159	0.4972342205265662	1.3779772056042006	0.19770166949875662	-0.21608376270774093	0.41378543220649755	57.50129997438401
7	3.0	perception	62	diff_vonmises	-0.02259529576878082	-1.2946150844009479	5.8245664157285	1.152644575777221	2.3992068306180972e-12	1.5928532160065787	0.8301019697891245	-0.25350100522009433	1.0836029750092189	56.47968967096378
8	3.0	wm	62	diff_vonmises	0.024631892972854678	1.4113035087625234	1.2658980410712446	94.69718668127264	1.2393631457867704	95.25303698831154	0.2455807667644052	-0.21022532737033117	0.4558060941347364	78.69717345955229
9	4.0	ltm	62	diff_vonmises	-0.035262003991956635	-2.020364005912576	1.1642096816500513	115.74273435969481	1.1372004719372246	117.3909950698275	-0.024199345086401536	-0.3814097500943525	0.357210405007951	73.32741603244455
10	4.0	perception	62	diff_vonmises	0.01257351114032813	0.7204091220015248	3.5208949613687994	1.3741764309321964	1.3347299389425915e-21	3.474330768227242	0.4318735331679697	-0.5520955503985562	0.9839690835665259	73.09594883116131
11	4.0	wm	62	diff_vonmises	0.0827569314445608	4.741622897226825	1.215127778416391	236.64659680695982	1.1992573021719863	238.28994137062966	0.07017043252974986	-0.41187766815452065	0.4820481006842705	73.89120288217543
12	5.0	ltm	62	diff_vonmises	-0.1728477099544483	-9.903444278891273	1.4084502982424312	1.1367691241051785	7.250836112358284e-19	2.2460210349775758	0.11655201884454103	-0.32912327733021157	0.4456752961747526	113.27565149019915
13	5.0	perception	62	diff_vonmises	-0.0728777132091144	-4.175585387447066	1.0627130516019567	8.980340328429742	0.6038618464563392	10.220879657125373	0.45320743391312934	-0.4560405616048574	0.9092479955179867	96.95310711934935
14	5.0	wm	62	diff_vonmises	0.15973552398977248	9.152171362924676	0.618711925192743	127.10258418625693	0.6032746597698958	127.88631091972418	0.16314418743601777	-0.26248006713015926	0.42562425456617703	110.85462858850863
15	6.0	ltm	62	diff_vonmises	0.15727651602642356	9.011280584835722	0.8906521907496231	136.92355260700793	0.8759708672537082	137.8209252416635	0.09765458042015496	-0.23477000126643688	0.33242458168659184	89.34110251170509
16	6.0	perception	62	diff_vonmises	-0.302406403807712	-17.326610635910804	1.221231562866077	2.0591445404606836	0.0779336124395305	3.132053313789865	0.2506791676241873	-0.3918284295122193	0.6425075971364066	114.65231970351226
17	6.0	wm	62	diff_vonmises	0.19940771494464773	11.425220468676107	0.5472976060834682	171.11685062872218	0.534875966645835	171.95589166376922	0.18708983239037025	-0.3040238074335093	0.49111363982387957	117.9709011169549
18	7.0	ltm	62	diff_vonmises	-0.02312556634391467	-1.3249973503560923	1.6981607911073882	1.3336673136449246	0.297990007534569	3.012730192820581	-0.008917560520559698	-0.3608057574139444	0.3518881968933847	84.77706933509691
19	7.0	perception	62	diff_vonmises	-0.03197197215420794	-1.8318590671459059	2.0753859180137146	2.6147806851369833	0.214204258182438	3.9183008848117122	0.6155738419978297	-0.49273260388050305	1.1083064458783327	86.83472104774842
20	7.0	wm	62	diff_vonmises	-0.04152724039270549	-2.37933560932722	0.9547400245841803	179.04359192233193	0.9388905718717948	180.34260578538948	0.11016339579192902	-0.32859101374224764	0.43875440953417666	85.4405474637789
0	1.0	ltm	63	diff_vonmises	0.08368152239071204	4.794598056217299	8.404495274589364	0.32698168747223805	0.0479201689027694	3.6986653957011133	-0.24501368489520303	-0.5974966934750882	0.3524830085798851	45.48525995365259
1	1.0	perception	63	diff_vonmises	0.08347733629303591	4.782899054585211	15.35903125813619	0.6256063372011877	0.08843464528264618	3.3902963283733127	0.3814880527718345	-0.5660797662996069	0.9475678190714414	34.107567553050046
2	1.0	wm	63	diff_vonmises	0.1135014522472957	6.503154182375696	3.398548609272684	0.8960248410621425	0.1720247834954927	4.625447854412945	-0.23833696688935713	-0.7149245545369405	0.47658758764758336	65.30326189048102
3	2.0	ltm	63	diff_vonmises	0.14433099958062534	8.269557128874286	5.829835063429304	0.5839340497897009	0.3210972555467454	1.8100102756100875	0.16212675575741636	-0.30267788361589487	0.46480463937331123	52.003668233032954
4	2.0	perception	63	diff_vonmises	0.03974543725351707	2.277245809528562	6.379977667370355	1.462792397843842	0.40138376940172654	3.1342453711967657	0.7265257416835831	-0.5316885453305923	1.2582142870141753	50.36953884050294
5	2.0	wm	63	diff_vonmises	0.07789154384011125	4.4628567217966	1.5486587149678988	4.128723933717959	0.7484979386505676	5.800483328303787	0.1190432437888973	-0.4187290407888329	0.5377722845777302	77.72348232875467
6	3.0	ltm	63	diff_vonmises	0.11271673617656588	6.4581932634067885	3.401658050585886	0.9856305990148967	0.7626239570799336	1.7168192095646937	0.1838605694738068	-0.23450191844331514	0.41836248791712194	61.01280956214754
7	3.0	perception	63	diff_vonmises	-0.06868535227565235	-3.9353807997641645	6.432579414258002	1.0066049130206747	1.1340642011017146e-15	1.548346262787799	0.7506232198917007	-0.24642438233020778	0.9970476022219085	53.68877406765148
8	3.0	wm	63	diff_vonmises	0.06841737820859156	3.920027016702625	2.4155089315411358	1.6467540019266664	0.6868423494809861	2.6044581667954083	0.2164829689974913	-0.28785925438502014	0.5043422233825114	70.26437207399616
9	4.0	ltm	63	diff_vonmises	-0.24378164692582616	-13.96765949159822	0.9141800366660406	204.30799477341216	0.8987508610169199	206.43482381733338	-0.08567981662388036	-0.4493385297207162	0.36365871309683584	81.19012014763821
10	4.0	perception	63	diff_vonmises	0.026400371016618133	1.5126298368317215	2.6413833380663667	1.6073414876425782	3.067278602251154e-15	3.946637142424338	0.350063031988732	-0.6231582590207827	0.9732212910095147	84.62945528743833
11	4.0	wm	63	diff_vonmises	0.15964727226762931	9.147114911711112	1.4363136531353484	6.666523622041827	0.9031253710413802	9.004789301332636	-0.098550420968059	-0.5221050347910897	0.4235546138230307	71.5918504327671
12	5.0	ltm	63	diff_vonmises	-0.1396596736073117	-8.001909865873575	2.33175394589232	0.8416273602499641	3.1140587775265363e-19	2.032388057393573	0.15256083987493857	-0.3189741084603382	0.47153494833527676	90.04113489069076
13	5.0	perception	63	diff_vonmises	-0.09412420849139759	-5.392919896566507	0.848700015601293	199.4820421807672	0.8249988008481985	201.0671022317242	0.413552535635084	-0.5126668879807568	0.9262194236158408	95.0235928655495
14	5.0	wm	63	diff_vonmises	0.06910301258368234	3.959310972684417	0.53686096349278	90.80704314617847	0.5110165433913285	92.0012612484771	0.1430677485793339	-0.36606317781197717	0.5091309263913111	117.74091358950928
15	6.0	ltm	63	diff_vonmises	0.1240895522415527	7.109807625109114	0.8837009438210064	105.4361896397598	0.8639262823377819	106.424399239746	0.0854170799817382	-0.25047736185663183	0.33589444183837003	89.17316320625008
16	6.0	perception	63	diff_vonmises	-0.30815680594997713	-17.656084409165583	0.9822967087702521	2.4922835042185536	8.606436020463745e-16	3.8719995294026126	0.22702371455607784	-0.49800614067339716	0.7250298552294749	128.57845392450156
17	6.0	wm	63	diff_vonmises	0.484082395809914	27.73587821648948	0.32214308050827595	105.48467053552538	0.30049293273725175	106.57677600353146	0.18036742037027764	-0.425715484603332	0.6060829049736096	140.07194549052844
18	7.0	ltm	63	diff_vonmises	-0.018374895838433176	-1.0528039805347211	0.9325171044608341	61.5224045017726	0.8851278385045781	63.67396174199574	-0.13324210379871104	-0.4417264955845752	0.3084843917858642	79.23441269441756
19	7.0	perception	63	diff_vonmises	-0.0016559578820150253	-0.09487939769088367	2.1240834578834025	2.1310723145784447	0.16217267358298357	3.879747366368775	0.41855804952630526	-0.5187261986172742	0.9372842481435795	86.49605613944658
20	7.0	wm	63	diff_vonmises	-0.08771957667281592	-5.025961524026581	0.877515971884674	223.65159326825773	0.8638208170343918	225.61689969953395	-0.03661434782299011	-0.4259101986761955	0.3892958508532054	84.4765807752523
0	1.0	ltm	64	diff_vonmises	-0.0009521686497764988	-0.054555245016863575	2.173760128448789	0.4761033565148641	4.0113462061269035e-18	2.8143574624767687	-0.18967245489363005	-0.44457748112237877	0.2549050262287487	93.20925875546891
1	1.0	perception	64	diff_vonmises	0.038289366811580135	2.1938191185318274	13.605082654048543	0.6146626234196679	3.3936447762510194e-18	2.8152323620365065	0.4477480639835895	-0.44805814636901753	0.895806210352607	36.7424372256431
2	1.0	wm	64	diff_vonmises	0.06288373918050924	3.6029728550446336	6.7345749400228	0.3868758867681788	3.112104510956596e-21	2.7995036388372663	-0.05310754512623295	-0.4455542872590994	0.39244674213286646	52.45641375020702
3	2.0	ltm	64	diff_vonmises	0.07550148843234979	4.325916634129449	3.2483690637695424	0.8356850098647366	0.35433769667608617	2.1602935046228215	0.09752962985748703	-0.31534246618227224	0.4128720960397593	65.8482079620837
4	2.0	perception	64	diff_vonmises	0.019427198705760422	1.1130964936020875	6.0639456548024455	1.326205194858662	0.2863498171282328	2.726428883620228	0.7074345384141814	-0.44538930385631026	1.1528238422704917	52.552511447683
5	2.0	wm	64	diff_vonmises	0.09972874384207962	5.71403611829246	3.316754438955181	0.6457018171433815	5.405101911412537e-13	1.825583939109506	0.15703087911292668	-0.28996184829394867	0.44699272740687535	75.36688037722439
6	3.0	ltm	64	diff_vonmises	0.11561440679858401	6.624217560467475	6.789070832042732	0.42044690395253276	0.028151541550608172	1.2252750291829635	0.22777074229801722	-0.19457947398817815	0.4223502162861954	51.81068232217453
7	3.0	perception	64	diff_vonmises	-0.022743028451578017	-1.303079543621372	5.637740339511984	1.2457448879083926	2.9659435368823855e-14	1.7811505348527432	0.8676894992233899	-0.2834643128369074	1.1511538120602973	57.42720295910337
8	3.0	wm	64	diff_vonmises	-0.0346543312350834	-1.9855469216186603	1.3045081809512358	141.36876179679825	1.2848695824166096	141.97543473720626	0.2656544941805663	-0.2294896718214936	0.4951441660020599	77.30596657575313
9	4.0	ltm	64	diff_vonmises	-0.04559278270033524	-2.612274024986282	2.4715136983640638	1.1299022946242134	0.38669830346400363	2.72979380379216	0.04509876208263308	-0.36374147817952185	0.40884024026215493	71.86804171649055
10	4.0	perception	64	diff_vonmises	0.011033812268718931	0.6321908749372626	2.990772005287764	1.6288145818484177	2.4717908106333596e-18	3.829826130964467	0.45533088768199714	-0.6068467203501209	1.0621776080321181	79.46260245336782
11	4.0	wm	64	diff_vonmises	-0.025861973613186283	-1.4817819379142743	1.1586429975021497	301.452711354673	1.14523380282175	303.19920020788703	0.10732550473969127	-0.44139526119550254	0.5487207659351938	76.36385888443874
12	5.0	ltm	64	diff_vonmises	-0.05656697857390929	-3.2410491320919586	1.6372379845055012	1.1919883815964087	1.0372096818982125e-17	1.9513787093217592	0.23393462684525967	-0.2899686574327635	0.5239032842780231	106.35194929559518
13	5.0	perception	64	diff_vonmises	-0.03997112631162538	-2.290176840040451	1.9710485232194437	2.043987426656307	0.07112186393365653	2.976514003162956	0.5371749571185281	-0.4203624983030215	0.9575374554215497	94.50213550605264
14	5.0	wm	64	diff_vonmises	0.08894741242160524	5.096311330367493	0.5838024967059873	168.19886566004683	0.5718143460370894	168.78909119144149	0.22717507750225963	-0.26092303293217967	0.4880981104344393	116.28640007917433
15	6.0	ltm	64	diff_vonmises	0.23100471029183053	13.23559494736418	0.8988896796118687	105.87372325957672	0.8826530296191969	106.34557474249614	0.17681998101737406	-0.17176730989942435	0.3485872909167984	93.329505027478
16	6.0	perception	64	diff_vonmises	-0.24290071400168392	-13.91718575301075	0.7635638215638594	5.40620985123759	0.3690923540979439	6.103352965682519	0.24558309102387654	-0.3009612552116845	0.546544346235561	117.72093432408228
17	6.0	wm	64	diff_vonmises	0.15433994639718254	8.843027538833915	0.5462949851680972	150.24968687557677	0.5356619739410804	150.590868988708	0.21388942904998487	-0.20334536969811445	0.4172347987480993	121.04379017976939
18	7.0	ltm	64	diff_vonmises	0.03560726306203488	2.0401458934666707	0.5840526833365032	88.18412916634558	0.5605245976708315	89.47799668859307	0.057608390852795566	-0.32918019218243	0.38678858303522556	109.66467252683236
19	7.0	perception	64	diff_vonmises	-0.07118537426646304	-4.078621508527511	0.985275531537618	166.0247927998971	0.9561398213611677	166.8788415216342	0.6325082961223316	-0.42394607539169193	1.0564543715140235	91.5015220091874
20	7.0	wm	64	diff_vonmises	-0.007575157058240037	-0.43402452858589047	0.9541294391493323	159.50458966737102	0.9380740597604162	160.47856902730658	0.16504864594764257	-0.2756128694247266	0.4406615153723692	87.61947410265512
0	1.0	ltm	65	diff_vonmises	-0.5172193269822951	-29.634484518682413	0.8446767892122667	85.21463564720338	0.8195676712775055	86.99132287118327	-0.13768182127335749	-0.3513099821958541	0.2136281609224966	81.132302860594
1	1.0	perception	65	diff_vonmises	0.005267550807094321	0.3018084296172351	10.47983792548201	0.7689175558768273	2.221768351226219e-21	2.7035487836666854	0.5502166632329193	-0.4302831520363467	0.980499815269266	41.91945160361061
2	1.0	wm	65	diff_vonmises	-0.20935793724990306	-11.995326211984171	0.00016128575393924526	6333.921245100561	1.5458892425598787e-29	6336.000556129602	-0.16833795731236023	-0.4935141881094296	0.32517623079706937	178.73981785647288
3	2.0	ltm	65	diff_vonmises	0.15125078980918363	8.666031904086545	8.343730002961387	0.41362628549180797	0.31797367116920744	1.2685830476369275	0.19841069254841154	-0.22375139261017463	0.42216208515858616	44.56450991138573
4	2.0	perception	65	diff_vonmises	-0.020520142206580806	-1.1757175434453484	9.539924626536587	1.0574184661267592	0.06378967283182307	1.9113190869254613	0.9610335391899787	-0.3081995906195424	1.2692331298095212	43.63696818520876
5	2.0	wm	65	diff_vonmises	0.006891944201313989	0.3948793153749525	0.8151014971389899	1.6283790977304406	2.034735466421348e-15	2.7146275371615425	0.06708818135320782	-0.33426723124708396	0.4013554126002918	136.67836908792532
6	3.0	ltm	65	diff_vonmises	0.13988946769363403	8.015076097176909	3.799522349013345	0.7083366908161137	1.1354458936787035	0.8615639369814309	0.2131557083517236	-0.10641796654959515	0.3195736749013187	58.27822588170591
7	3.0	perception	65	diff_vonmises	0.024876565483023916	1.4253222109580925	2.2208142098102277	6.663184175385366	1.292841002486872	6.8173394987346105	0.9599372981185512	-0.3476254668420147	1.307562764960566	70.45486911069915
8	3.0	wm	65	diff_vonmises	-0.1770436801923258	-10.143855664484159	1.4651967775151795	119.17840523249014	1.4485300264442718	119.403906058676	0.2549267477076853	-0.1377473884133309	0.3926741361210162	75.17879755430823
9	4.0	ltm	65	diff_vonmises	0.11226651538112119	6.432397511978785	1.6826142065234515	134.9460013272787	1.6559667536856302	135.78866567490053	0.21855477879240226	-0.29521941755618997	0.5137741963485922	65.97468441165643
10	4.0	perception	65	diff_vonmises	-0.12336908824179862	-7.068528078632091	2.5136358700836356	3.2247110009209776	0.4394672178852072	4.3049398412103494	0.8928632098716951	-0.5056671777851464	1.3985303876568413	76.14481874481984
11	4.0	wm	65	diff_vonmises	-0.22059504388490056	-12.639164996107981	1.3100047861396449	326.50081490523274	1.2969119825349755	327.66097785658894	0.31606774321301145	-0.37784437599150067	0.6939121192045121	75.48396154312928
12	5.0	ltm	65	diff_vonmises	-0.09719200548638952	-5.568691716782461	2.035569016090648	0.7342026152598532	3.9802371322432797e-16	1.330802037833131	0.17099286441769213	-0.20527323859399488	0.376266103011687	96.20086864545483
13	5.0	perception	65	diff_vonmises	0.03155947043240116	1.8082244594444978	1.441901498139867	4.186780712295702	0.42224297581377124	4.6006493959406125	0.701959571685123	-0.3687360246151059	1.070695596300229	96.37467726515433
14	5.0	wm	65	diff_vonmises	0.15600212480537512	8.938263346421124	0.5973257768227517	79.79533980476806	0.5796453259527865	80.49832268678813	0.08274115881945932	-0.2047721843680783	0.28751334318753763	110.86232777379786
15	6.0	ltm	65	diff_vonmises	0.5311128131031407	30.43052263613045	1.0942156446599494	116.01113590348874	1.0820280056836304	116.50908895757007	0.08721931580043929	-0.14237466407742616	0.22959397987786545	81.52116893485879
16	6.0	perception	65	diff_vonmises	-0.11727974516082419	-6.719634420085066	0.6916711384918733	218.415790703291	0.6805335593895628	218.99302225255818	0.30123412175360187	-0.2724950725042632	0.5737291942578651	107.8224618224139
17	6.0	wm	65	diff_vonmises	-0.32653867696553895	-18.709288037911133	0.7382117097963358	144.99598913399075	0.7242608734661855	145.76251077049494	0.16431206833525636	-0.24174303728250912	0.4060551056177655	101.11239386765851
18	7.0	ltm	65	diff_vonmises	0.17507316784540303	10.030953623527065	3.0938086812980203	0.41167250175759823	1.9100775288099608e-17	0.9252017387783136	0.12713946143540564	-0.14668663611790245	0.2738260975533081	78.08916824061336
19	7.0	perception	65	diff_vonmises	-0.09774231864027408	-5.60022233791058	0.907152214443283	126.54617564148334	0.8798593206850216	126.70449319576548	0.6074753894983473	-0.28064277847193964	0.888118167970287	98.36952179821904
20	7.0	wm	65	diff_vonmises	0.1929302721271584	11.05409033319664	0.6177948480043208	1.5449262552322152	2.762345214488119e-32	2.0351706004175556	0.09156463766227108	-0.2031448996504382	0.29470953731270927	145.5618295332349
0	1.0	ltm	66	diff_vonmises	0.020986158986717546	1.2024183381294595	5.936435674914515	0.3312810210858508	9.318062090804315e-18	1.069375414788874	0.1443920816909452	-0.17019418819393914	0.31458626988488436	55.93270641164597
1	1.0	perception	66	diff_vonmises	-0.03387999793216814	-1.941180891425191	17.170461467908083	0.5433515916903614	1.9176452902549722e-23	1.3824818804706662	0.6714646995301873	-0.22002882501188425	0.8914935245420715	32.67677045583724
2	1.0	wm	66	diff_vonmises	-0.01927924652733493	-1.1046194582085402	6.4595376738587715	0.31936322918700893	2.3015044560802906e-20	1.2273033742337844	0.12169172390461105	-0.19533062168957677	0.31702234559418785	53.57528873656287
3	2.0	ltm	66	diff_vonmises	0.22274382672575457	12.762281183979047	4.9033848877465624	1.0527388064940701	1.8356306562395286	1.2579495731929304	0.2873111204508745	-0.1702741274831463	0.4575852479340208	49.031793843220896
4	2.0	perception	66	diff_vonmises	-0.02345936263603455	-1.3441224691116773	7.1227911270970505	1.057559441974268	0.4488098855129709	1.2976331876413474	0.7968368306635277	-0.21976596925161854	1.0166027999151463	48.83716609887574
5	2.0	wm	66	diff_vonmises	0.08795394217375223	5.0393896780937	0.9693134980635882	100.09986404418966	0.9535001517532238	100.50662218983231	0.16495572666394054	-0.15049960345602642	0.31545533011996696	90.00859592916208
6	3.0	ltm	66	diff_vonmises	0.11404441151949539	6.534263457120233	2.564854485981631	89.7462391122856	2.5435990992075133	89.83505374744504	0.20804709472098182	-0.10287366003992915	0.31092075476091097	56.70967127686919
7	3.0	perception	66	diff_vonmises	-0.05501309271155624	-3.1520180303340823	4.738639523042485	1.4098283930674969	0.27124545907848757	1.4248653742903363	0.895878819462573	-0.21252641551625667	1.1084052349788296	60.50140196531066
8	3.0	wm	66	diff_vonmises	-0.07115741230141724	-4.077019405943494	1.6745066136250695	90.21024432500778	1.6504237178071581	90.47772774307325	0.24403336978482315	-0.14815048431157152	0.39218385409639467	69.61384863513345
9	4.0	ltm	66	diff_vonmises	0.051944147476854614	2.9761804208288933	2.0282541195906765	139.25021230979226	2.009864516555653	139.70349802765867	0.16288589517786534	-0.18936425666204926	0.3522501518399146	60.34337282605415
10	4.0	perception	66	diff_vonmises	-0.04203779331198878	-2.408588136820236	3.119744848046933	1.8655071920816433	1.2500227284429227e-16	2.846492835357948	0.7961715934485871	-0.45059600599154015	1.2467675994401273	77.77054787687521
11	4.0	wm	66	diff_vonmises	-0.037412083701440384	-2.143554498882709	1.4280414529872099	225.42420551113008	1.4124416340429224	226.51758625385142	0.16847068141282762	-0.32543161310032787	0.4939022945131555	70.41482856042862
12	5.0	ltm	66	diff_vonmises	-0.03428733122256079	-1.9645193698198666	1.893884214294432	0.7984172672288732	1.0529011238698313e-13	0.8801308451436309	0.25843459096873966	-0.13105243795567637	0.389487028924416	99.5437522704961
13	5.0	perception	66	diff_vonmises	-0.030286173255103847	-1.7352699051194407	2.007982436159469	1.7702294508926961	1.0234367088177938e-15	2.0786283391375413	0.5845930103275746	-0.31432236955129045	0.898915379878865	96.83670233673269
14	5.0	wm	66	diff_vonmises	0.268658147626752	15.392977990815503	2.0585115923532715	0.6512233998935559	5.773142844381052e-45	0.8879414831356167	0.2005190441471479	-0.13575016814803234	0.33626921229518025	95.59221213521906
15	6.0	ltm	66	diff_vonmises	0.34599940620684	19.82430568968451	0.9577786126914943	64.79234834422908	0.9420488501300731	64.9050869309846	0.1562597871006126	-0.0846904123554788	0.24095019945609142	94.03923547636268
16	6.0	perception	66	diff_vonmises	-0.20994868349109375	-12.029173478367614	0.8634378794256349	165.01505607254003	0.8471641160993579	165.44904115797485	0.3766608774428306	-0.24818449132441955	0.6248453687672502	97.9786182506246
17	6.0	wm	66	diff_vonmises	-0.07371357983317915	-4.223477017241824	0.2668829372989366	75.210445470304	0.24660860163844348	75.51831775654894	0.20755585371952812	-0.24590473206283825	0.45346058578236637	150.5272222404662
18	7.0	ltm	66	diff_vonmises	-0.08474954029099888	-4.855790974348158	1.8547015372838258	0.7263439771361814	1.7107296907491523e-11	1.2234544133315877	0.1632438651419339	-0.18595144277437697	0.34919530791631087	100.50684080547586
19	7.0	perception	66	diff_vonmises	-0.03680773483808106	-2.1089278596586913	0.9775629037779797	206.60102358228474	0.9574700098224442	207.3013187198085	0.5536975715887422	-0.3613869032682828	0.915084474857025	91.8382549357317
20	7.0	wm	66	diff_vonmises	0.5341811725689835	30.606326683552254	130.44944479725126	0.5453222652641447	1.0650730075687639e-32	1.0077393569287696	2.314352148212973	-0.16038670000346153	2.4747388482164343	11.860657201095421
0	1.0	ltm	67	diff_vonmises	-0.012519756990800978	-0.7173292361023038	4.585847919773002	0.3491024117675176	4.1433129226650736e-16	2.78178688203614	-0.15372128823194164	-0.44270508942471176	0.2889838011927701	63.82672854747011
1	1.0	perception	67	diff_vonmises	-0.0041879875230309725	-0.23995400972312236	14.606394873902998	0.510367591462774	3.416029918985848e-19	2.645301283243191	0.35016580791966473	-0.4210127751953292	0.771178583114994	35.45043740928159
2	1.0	wm	67	diff_vonmises	-0.08821774472537486	-5.0545044509264585	4.968653614039963	0.344510463849871	3.51940120453419e-24	3.227789095043917	-0.21598179003187318	-0.5137041978793633	0.2977224078474901	61.256583203413385
3	2.0	ltm	67	diff_vonmises	0.08853844402013379	5.072879167008968	14.121154671787433	0.4321913410150843	0.3391278087701188	1.5880787228046203	0.2971780404592891	-0.3023591515489651	0.5995371920082542	34.76520345551447
4	2.0	perception	67	diff_vonmises	0.008578210766288131	0.4914952726819937	6.858285336808553	1.1726805992946139	0.2617589919635349	2.570253326377224	0.6783438423665646	-0.42710717106134843	1.105451013427913	49.76327469378012
5	2.0	wm	67	diff_vonmises	0.0023052653826895497	0.13208197708572178	0.8873564313742519	148.88709439106796	0.8687343425372143	150.60044912714238	-0.014165046954687455	-0.37740062441004696	0.3632355774553595	84.76303329217913
6	3.0	ltm	67	diff_vonmises	0.07716853780546624	4.421431527448951	1.4148307029313656	77.40446569146012	1.391608109073214	77.91044360085155	0.1111353252828664	-0.15977541099229597	0.2709107362751624	71.90735256734439
7	3.0	perception	67	diff_vonmises	-0.05888986561625224	-3.3741407559038366	4.316734971333485	1.7916873465598562	0.22443309804519687	2.57283746908958	0.9295446142525136	-0.3853060689320948	1.3148506831846083	62.88067274618109
8	3.0	wm	67	diff_vonmises	-0.14028759021638373	-8.037886837459567	1.3859519901756916	185.76034347202108	1.368048558065246	187.01185511224108	0.08336470398184304	-0.3373019868580549	0.42066669083989794	69.64983186642218
9	4.0	ltm	67	diff_vonmises	-0.11581597844744859	-6.635766765216909	2.090749589716079	0.9541683919647581	0.3374131143720956	2.3859150838117573	-0.011716762126248392	-0.30674160093576985	0.29502483880952146	76.80201433608892
10	4.0	perception	67	diff_vonmises	-0.0543272477470258	-3.1127220084661884	1.125531051959045	93.09128347547161	1.0513791611737286	94.88448190699236	0.6639198503909114	-0.6319679532537616	1.295887803644673	84.09714218572614
11	4.0	wm	67	diff_vonmises	-0.13567040113253725	-7.773341389741288	0.999979496495607	230.59960571279822	0.984481725537526	232.9706210512686	-0.12673231835672993	-0.5022313650098624	0.3754990466531325	76.50910416686423
12	5.0	ltm	67	diff_vonmises	0.006313835022068881	0.3617560993064359	1.7749770923246675	1.3523848453399423	0.2425170064866366	1.8931807116523267	0.27048400826939933	-0.21892812730641492	0.48941213557581426	92.06344488528487
13	5.0	perception	67	diff_vonmises	-0.028163071688276423	-1.6136251458626172	2.203937250385024	1.7375920966430303	3.008700707472332e-17	2.5348220069916163	0.5468349415252516	-0.39185308196442437	0.938688023489676	92.58748320663565
14	5.0	wm	67	diff_vonmises	-0.0313271936694271	-1.7949159812471236	0.3785585801766023	77.19978893278648	0.3531487815710796	78.29666432861535	0.11612715527348172	-0.36606434538624555	0.48219150065972727	135.66789638266184
15	6.0	ltm	67	diff_vonmises	0.6058519637216757	34.712760530965085	0.5196512296671099	142.97144431426446	0.5102041798926007	143.47101854753572	0.12878955232569922	-0.19511363299137408	0.3239031853170733	119.81880355025547
16	6.0	perception	67	diff_vonmises	-0.09189161566519251	-5.265001750253772	0.8657646202795696	258.29513962743493	0.85416759138844	258.97315286508535	0.3585190867715369	-0.29174739773973357	0.6502664845112704	96.22966996849469
17	6.0	wm	67	diff_vonmises	0.06673217980673701	3.8234722606341682	0.00030867625076321545	4896.260455959002	5.599162724043288e-33	4897.137117960098	0.10103263406301721	-0.3800456920190527	0.4810783260820699	179.77972990597652
18	7.0	ltm	67	diff_vonmises	0.07837525603501568	4.490571389063633	1.0746326272020807	101.28231103760785	1.0526097349098134	102.29831037214937	0.06204984105022504	-0.2523242467761282	0.31437408782635323	79.62312000555582
19	7.0	perception	67	diff_vonmises	-0.08242077829410772	-4.7223627404358375	0.7839521175886629	189.5164292496888	0.7661928436681106	190.15301217895845	0.45351782748196	-0.3374112348227385	0.7909290623046985	102.36682074575722
20	7.0	wm	67	diff_vonmises	-0.35644525198580695	-20.422808566263864	0.6648971942443103	122.09389319489915	0.6514159748136392	123.48505785830743	-0.07000132979772644	-0.2830064067868143	0.21300507698908788	94.99816017987585
0	1.0	ltm	68	diff_vonmises	-0.028753873399491627	-1.6474755904443552	6.173831957201937	0.313831921956695	1.2016438597633682e-17	2.9318172003956624	-0.16241384493989097	-0.4666118791876038	0.3041980342477128	54.82810039972577
1	1.0	perception	68	diff_vonmises	0.05033064049710733	2.8837332806744738	14.629650859685361	0.6435546276240341	3.052660462406434e-20	3.0131306126464	0.4937564379656743	-0.47955463118399455	0.9733110691496689	35.420521689537
2	1.0	wm	68	diff_vonmises	0.1137873942615855	6.5195374529799714	5.290546639519565	0.44651674680704934	8.686427069567088e-26	3.3803671310096592	-0.13907823395586305	-0.5379920052917555	0.39891377133589245	59.32757177340278
3	2.0	ltm	68	diff_vonmises	0.17103473484760753	9.79956845690702	6.666545558389482	0.5611479345637013	0.3395218360836932	1.6600007395654053	0.20574628508004333	-0.2846702907095533	0.49041657578959663	49.07183681852439
4	2.0	perception	68	diff_vonmises	0.01516748745548423	0.8690330170168665	6.861617104762002	1.2777341895915935	0.2863081889911246	2.515088553042778	0.7868024506885707	-0.4186980008613559	1.2055004515499266	49.753149281714485
5	2.0	wm	68	diff_vonmises	0.09246545373969894	5.297880250046904	2.7968937339873925	0.8379488764238124	0.10773469357686136	2.2364444289023866	0.13189532712923102	-0.3297432022623939	0.4616385293916249	76.9560585485786
6	3.0	ltm	68	diff_vonmises	0.13662527003879976	7.828051348058404	4.138876857929685	0.6747511146858269	0.6300985261510089	1.2197623080341207	0.19764057261939844	-0.18391083536605224	0.3815514079854507	58.41555750253781
7	3.0	perception	68	diff_vonmises	-0.023941499094047903	-1.3717468533052288	5.040309211630119	1.256261747630166	0.030179269341856	1.6623759150429378	0.821286124908261	-0.260570256678161	1.0818563815864222	60.412598594956336
8	3.0	wm	68	diff_vonmises	0.010143630047731968	0.5811871906771275	2.711171476915999	1.197394924445272	0.5382314136742321	1.9269852465970165	0.2505869070297184	-0.2371443900692986	0.487731297099017	70.51276659151321
9	4.0	ltm	68	diff_vonmises	-0.015563448437642865	-0.8917199101464112	1.177984565439751	133.32743011308122	1.1530226475966985	134.86934743051694	0.04665591025136706	-0.3770249631352094	0.42368087338657645	74.81321532951247
10	4.0	perception	68	diff_vonmises	-0.03145162320981048	-1.8020452687578437	2.5255727299398196	2.0860813038902495	0.07868153471602105	3.941373844536836	0.5592148677672233	-0.5759376253030196	1.135152493070243	83.01254690481625
11	4.0	wm	68	diff_vonmises	-0.06008735763030654	-3.442751994309768	1.200519041099368	336.3190287427229	1.1874259143253338	338.2011312338995	0.10488882660105503	-0.4771269292667597	0.5820157558678147	74.75485170493664
12	5.0	ltm	68	diff_vonmises	-0.1134146961641405	-6.498183424963818	1.8935353219935593	0.897337976587655	2.7713260448095886e-18	1.7093219929813948	0.17575676940072021	-0.2618975111458417	0.4376542805465619	99.53857530127854
13	5.0	perception	68	diff_vonmises	-0.024085365985025798	-1.379989818969931	1.4960837652109276	3.59074640771277	0.347929973403807	4.600964982363336	0.5465370733195916	-0.4352269958211677	0.9817640691407592	95.17146774834393
14	5.0	wm	68	diff_vonmises	0.15279631529128007	8.754583991340592	0.5777940770644703	64.39896563025209	0.5471040558001384	65.2514269564522	0.15468698762202493	-0.2836928089155215	0.43837979653754644	115.11318682012467
15	6.0	ltm	68	diff_vonmises	0.3330136013660069	19.08027387872422	0.919631016229771	123.67892252757089	0.9063970093637509	124.30528020937659	0.10862700921464352	-0.17854223445191053	0.28716924366655405	89.34294459266346
16	6.0	perception	68	diff_vonmises	-0.23940625262691628	-13.716967864565081	0.4990038208542951	188.6656756140433	0.4848416623131148	189.54750331060356	0.28365912467319987	-0.38503420231069185	0.6686933269838917	123.99412794896888
17	6.0	wm	68	diff_vonmises	0.1654045879444667	9.476984801318398	0.4387602262336086	140.01821208739304	0.4250689478106463	140.78505924646814	0.17547119870314987	-0.3053939126701106	0.4808651113732605	129.5177563211887
18	7.0	ltm	68	diff_vonmises	0.042470909433459554	2.4334038626195866	2.477436373306573	0.5540163397126985	3.6792910928297416e-18	1.8788735419413956	0.02572497833667453	-0.2967424824863297	0.3224674608230042	87.39047626871022
19	7.0	perception	68	diff_vonmises	-0.014625694926934591	-0.8379905917592511	0.9446548951106638	206.01169622363287	0.9233292565430412	206.9464161649144	0.5293686848432486	-0.40592590671550965	0.9352945915587583	92.48969412278885
20	7.0	wm	68	diff_vonmises	0.0059622373591430074	0.34161103713412	0.8019964632673311	126.6224210754778	0.7829080375531942	127.930998354475	0.06849956824083847	-0.316540844047708	0.38504041228854646	92.60238695578835
0	1.0	ltm	69	diff_vonmises	-0.044194816175148983	-2.53217644319254	5.160819612637017	0.29143420113024393	1.321769442559653e-12	3.6597602870912014	-0.32550479537570975	-0.5824604798193339	0.25695568444362415	60.08654469204757
1	1.0	perception	69	diff_vonmises	0.06481212719393134	3.713461349477337	11.862639103075928	0.6629600221043492	0.06712132084120936	3.8060508963715582	0.25373662454155166	-0.6235704733498038	0.8773070978913554	38.78345209348373
2	1.0	wm	69	diff_vonmises	0.08083813270870756	4.631683827927397	5.988496711734574	0.4177580469499059	0.013004154982120833	4.202100584847787	-0.2790101040740742	-0.6678475710726213	0.38883746699854704	54.89980785278553
3	2.0	ltm	69	diff_vonmises	0.06275604248749962	3.5956563734774045	5.419130834584957	0.6053788340857891	0.18562521050621852	2.1907141235687897	0.1316247277046077	-0.35313839127341595	0.48476311897802365	55.03583735479964
4	2.0	perception	69	diff_vonmises	0.02323076645366402	1.331024872649043	6.173090017255181	1.3854628586014297	0.2949205926299635	3.367617359530615	0.6384541780586009	-0.5574925767515334	1.1959467548101343	51.68470508771813
5	2.0	wm	69	diff_vonmises	0.08824349157063184	5.055979636495461	3.2700714112005853	0.7914567925566245	0.06853588380079578	2.6332014877631007	0.09599774553978901	-0.4023639504604521	0.4983616960002411	72.46655477721424
6	3.0	ltm	69	diff_vonmises	0.0194428654386269	1.1139941312740955	3.936423203324698	0.7071687591996384	0.2958110945480501	1.6096971489951155	0.2020036381225379	-0.24307842226301365	0.44508206038555154	62.940630053353374
7	3.0	perception	69	diff_vonmises	-0.018313207141137364	-1.049269478536011	4.569668473724381	1.7254473558257402	0.23176103637813428	2.6765519565418923	0.8958726376983706	-0.4068991426095842	1.3027717803079548	60.99751617445483
8	3.0	wm	69	diff_vonmises	-0.06373481390547983	-3.651735844835706	1.1901071810021895	240.91735554492763	1.1767279112282247	242.04405074489927	0.17451369586886756	-0.3186533785194676	0.4931670743883352	77.60193351049546
9	4.0	ltm	69	diff_vonmises	-0.1283525148102579	-7.35405738851817	0.9471808063593888	151.72719129167487	0.923708188586099	153.73310400871657	0.020546356547271216	-0.45697874783556713	0.47752510438283835	83.00870618060765
10	4.0	perception	69	diff_vonmises	-0.049130667727282334	-2.814979905432878	2.500526277009763	2.505359483513841	0.2824382949096269	4.739338655681704	0.4959256864050673	-0.6256012781853589	1.1215269645904262	76.99429329370847
11	4.0	wm	69	diff_vonmises	-0.028603510874720097	-1.6388604523780153	0.8844208980741795	229.17849583833708	0.8690052439530795	231.44776848372732	-0.04540768597884437	-0.491170511124416	0.44576282514557164	84.08388517452875
12	5.0	ltm	69	diff_vonmises	-0.08461455519864668	-4.848056898259194	2.148732393196085	1.0520940303895114	1.6629149858710862e-16	2.2614767819877057	0.20679552773020832	-0.3522159888227986	0.559011516553007	93.72666622605843
13	5.0	perception	69	diff_vonmises	-0.054404793304567226	-3.117165041633301	1.3549970248792378	4.598904862643896	0.414058056773002	6.047087675057364	0.47802104683903424	-0.505280895212898	0.9833019420519322	95.08919579238551
14	5.0	wm	69	diff_vonmises	-0.007828332259307595	-0.44853039908443754	0.4273043751752224	200.70995123536588	0.41586655321497334	202.0587402548456	0.11132126449681579	-0.4123841676998907	0.5237054321967065	128.48552688439065
15	6.0	ltm	69	diff_vonmises	0.2403274081426398	13.769746187891236	0.6848014583530743	145.4374359883644	0.6719467680958584	146.41196720345874	0.08385358968922674	-0.2560346509027802	0.33988824059200695	101.85941413502002
16	6.0	perception	69	diff_vonmises	-0.13293369708103048	-7.616539797813598	0.6280943218327586	265.485594280705	0.6168738678315482	266.74402508753764	0.22674098688452204	-0.39960791206042146	0.6263488989449435	109.22400737205868
17	6.0	wm	69	diff_vonmises	0.31708564343097945	18.167669112785237	0.21078366972382057	141.80606541149214	0.19944661382759007	142.86069496968665	0.07625109732946811	-0.36342552213569235	0.43967661946516046	153.32554247713128
18	7.0	ltm	69	diff_vonmises	-0.01249673582885042	-0.7160102206830498	0.8095062059298521	172.54236701457248	0.7947423978008159	174.19566300055604	-0.013898518567017959	-0.36206999866923084	0.3481714801022129	88.87547817034212
19	7.0	perception	69	diff_vonmises	-0.06224004196762532	-3.566091721462051	1.0345382836387524	8.111164916534479	0.5166488244431121	9.339826481336138	0.49094118909522244	-0.4830090605522528	0.9739502496474752	101.12368693452949
20	7.0	wm	69	diff_vonmises	-0.16239501576853796	-9.304549017497678	1.0005230516650003	187.75599321257704	0.9845294758891536	189.12523074493208	0.10454011241139938	-0.3435523227970769	0.4480924352084763	83.0811779132867
0	1.0	ltm	70	diff_vonmises	-0.06744175481921114	-3.8641279140968785	2.4321799192662263	0.4227788020271619	3.920249120670778e-19	2.8996802691351857	-0.21633287249594338	-0.4596065368191447	0.24327366432320133	88.19156601614156
1	1.0	perception	70	diff_vonmises	0.028155032058696017	1.6131645090188111	12.71821965110572	0.5810048107489477	1.0673701987531854e-17	2.906760972049259	0.3553214140211572	-0.46262537708089585	0.817946791102053	38.01979344053669
2	1.0	wm	70	diff_vonmises	0.013052085854896037	0.7478294333279439	5.937910472540806	0.3610023167460298	1.613270581952977e-32	3.1459115633192143	-0.15783741354568165	-0.500684990490758	0.34284757694507634	55.92689215345081
3	2.0	ltm	70	diff_vonmises	0.10352761963310664	5.931695668012731	10.68714863104013	0.4089346956757913	0.19405095847385898	1.6762338095021097	0.2059151911836195	-0.28987728579293504	0.49579247697655454	40.158381904328394
4	2.0	perception	70	diff_vonmises	0.013153114778327278	0.7536179642493044	7.283785877621761	1.1888007749482414	0.22571844715799733	2.6444389163832245	0.7355456301100329	-0.43904440015409973	1.1745900302641328	48.61729261657092
5	2.0	wm	70	diff_vonmises	0.07599129556999168	4.353980515891712	2.2627104071155517	0.8697178130584896	0.11319244222844375	2.40921645015462	0.055154400039731266	-0.34506734583598625	0.4002217458757175	83.8257211070513
6	3.0	ltm	70	diff_vonmises	0.09369958828966334	5.368590951111141	2.9760324851944353	0.7932596818424573	0.6061353377551538	1.393233267914343	0.14555268308043967	-0.18100454892486745	0.3265572320053071	66.20525325230969
7	3.0	perception	70	diff_vonmises	-0.020997976359813094	-1.203095423732766	4.202549427804973	1.8126361310115646	0.28267668484008	2.481189589821122	0.9180120797399738	-0.3662108892351529	1.2842229689751266	63.15478439004022
8	3.0	wm	70	diff_vonmises	-0.09847382580203223	-5.642134610962916	1.2924594134921257	166.2232890637808	1.2749462502083815	167.1291077950203	0.17470991937091185	-0.27158936182425464	0.4462992811951665	74.98818641255815
9	4.0	ltm	70	diff_vonmises	-0.018269585514180085	-1.046770143415865	1.6932467076436575	2.3166875655229378	0.6598815031617004	3.854225204204331	0.012875091021759433	-0.35411969418885236	0.3669947852106118	75.1774693021313
10	4.0	perception	70	diff_vonmises	-0.05627505520050789	-3.224323154854837	2.0290981757014954	3.642394246945574	0.44006051192723966	5.520596254898654	0.5948947727375238	-0.6009576672889194	1.1958524400264432	80.83847854287842
11	4.0	wm	70	diff_vonmises	-0.10234822468559615	-5.864121315141326	1.0807824156979058	299.6614709060758	1.0678502850301248	301.6751781239243	0.013833358543450913	-0.4685580305651271	0.48239138910857804	77.05675201071045
12	5.0	ltm	70	diff_vonmises	-0.04602882149848782	-2.6372572078243817	2.002444683609753	0.939171460950095	3.6596116717321064e-12	1.718744936745836	0.2112965144436889	-0.2647091417574888	0.4760056562011777	96.96318368359499
13	5.0	perception	70	diff_vonmises	-0.022594119048214255	-1.2945476632788173	2.1000989193018516	1.9088288124237534	0.025508436878324218	2.8334848637387196	0.5516036199727845	-0.42432839101234143	0.9759320109851259	93.66032888709194
14	5.0	wm	70	diff_vonmises	0.05178458800743278	2.9670383366496758	0.46782990847976036	147.03500614836534	0.4546687275118301	148.04173187161655	0.11945350614714556	-0.3222865199603202	0.44174002610746577	124.7018697566055
15	6.0	ltm	70	diff_vonmises	0.45391153722921695	26.00721535552947	0.6910238810608585	165.37204822373567	0.6816624084066413	166.0463162049001	0.10537425259395405	-0.1987122320713688	0.30408648466532284	103.27364141934154
16	6.0	perception	70	diff_vonmises	-0.12631204062505821	-7.2371468295008325	0.7303367314482229	262.9020572827943	0.7196310069825644	263.7239664210816	0.2999999109034803	-0.3169784256647077	0.616978336568188	103.59781688519895
17	6.0	wm	70	diff_vonmises	0.041681288851477365	2.388161935855343	0.2621201459619789	136.11830346509723	0.24989481060460636	137.02975959858225	0.1104687007754599	-0.3385609262885865	0.44902962706404637	149.187960120372
18	7.0	ltm	70	diff_vonmises	0.06311541097425821	3.6162466710586747	1.4185640241808497	1.9760271854698088	0.5012927114386767	3.142795138416627	0.051310785590102936	-0.27449888780298104	0.325809673393084	85.45066970906112
19	7.0	perception	70	diff_vonmises	-0.07396940106982475	-4.238134494411434	0.8522088886399846	215.6835383873957	0.8334979530768488	216.36478278545212	0.55897827301375	-0.37854619060132677	0.9375244636150768	98.55035070728572
20	7.0	wm	70	diff_vonmises	-0.16635275531789556	-9.531310790087877	0.8216865704277978	147.23728113735436	0.8071518849538559	148.4450833947481	0.04022036134472273	-0.28295639660386485	0.3231767579485876	90.44738398498181
0	1.0	ltm	71	diff_vonmises	0.009332286542594439	0.5347006320973963	8.442355856944372	0.41217142386032013	0.10306953165211409	3.94941882118286	-0.22482128384240196	-0.6532428085917992	0.4284215247493972	44.530569260986994
1	1.0	perception	71	diff_vonmises	0.05654704632622453	3.2399070984234126	13.186337619685979	0.7545396366622917	0.08315983034047157	4.1693575036656245	0.36235309922447245	-0.6909047106602382	1.0532578098847107	36.75409937469442
2	1.0	wm	71	diff_vonmises	0.16494132545112894	9.450441815643437	6.464429036736176	0.43533628013962816	6.886295196510856e-16	4.5660483014589115	-0.2944731907591819	-0.7267081081212434	0.43223491736206154	53.56293583446475
3	2.0	ltm	71	diff_vonmises	0.06291073311283456	3.604519493439336	2.8993147518520628	1.20242965638868	0.4687063978051953	2.5598652675383797	0.15559119626904627	-0.3483505771722024	0.5039417734412487	67.56255366272774
4	2.0	perception	71	diff_vonmises	0.008901275446289273	0.5100055153558036	5.478015244572594	1.4605338444151683	0.3484309134042919	3.235233187114292	0.6212605662028097	-0.5266767223362793	1.1479372885390888	54.1993268666825
5	2.0	wm	71	diff_vonmises	0.10547089502685408	6.043037146506083	4.080232519889331	0.7226711020570663	0.009131805186762213	2.425555320737046	0.17210703297936236	-0.38310181505777774	0.5552088480371401	67.30810189833551
6	3.0	ltm	71	diff_vonmises	0.030325710075420086	1.7375351980589284	3.8523436992190736	0.9093460681186988	0.46355067032279484	1.7169133864885193	0.2729215382296808	-0.25303461239390407	0.5259561506235848	61.927059759834776
7	3.0	perception	71	diff_vonmises	-0.019498290635352526	-1.117169761125156	4.460841736216687	1.665022251031554	0.2592338646886973	2.467050918965491	0.8577455358163014	-0.3718069480239742	1.2295524838402756	61.497413812574365
8	3.0	wm	71	diff_vonmises	-0.03617593722877718	-2.0727285231391237	1.1770209304145287	152.4902663447713	1.1563998254982186	153.49599338528677	0.2104678256548027	-0.3011389893425154	0.5116068149973181	79.15167870484285
9	4.0	ltm	71	diff_vonmises	-0.11111655568843362	-6.366509674977626	1.0626012639151174	226.36943213788086	1.0440972411013432	228.14536596069746	0.1666862332178738	-0.45879924728222576	0.6254854805000996	81.03974679005793
10	4.0	perception	71	diff_vonmises	-0.05264735035402068	-3.0164709778319656	3.28298013297709	1.7787027717116481	0.058630963990739825	3.806638787670214	0.584056177360207	-0.5790643916334616	1.1631205689936686	73.63861272105984
11	4.0	wm	71	diff_vonmises	-0.05937259795585668	-3.4017992815976466	0.9197038780294519	262.42344299499933	0.9049101837721578	264.4733796063123	0.07542850833834791	-0.4838361674085654	0.5592646757469133	85.35126475725522
12	5.0	ltm	71	diff_vonmises	-0.10864038261120129	-6.224635408308292	2.195399893295774	1.0833276650570287	3.329722617378048e-14	2.2476575673008954	0.23337605382324428	-0.35040133102981624	0.5837773848530605	92.75017696977775
13	5.0	perception	71	diff_vonmises	-0.04161498905519456	-2.3843632373457617	0.8638747625913991	192.8276664414052	0.8371780320336683	194.36179478493665	0.5055118289145213	-0.5370069389718388	1.04251876788636	95.10186215418616
14	5.0	wm	71	diff_vonmises	0.04761116790792442	2.7279189788127787	0.3873786890414834	200.34758936077455	0.3762744042630706	201.62111692471794	0.12137564446441473	-0.4111657598828984	0.5325414043473131	133.5226736187568
15	6.0	ltm	71	diff_vonmises	0.09690888436217894	5.552470071274196	1.609734434784047	0.9540529669296071	0.13938533140811118	1.7927147913477188	0.10492668520997844	-0.23026168588610585	0.3351883710960843	97.7892242476
16	6.0	perception	71	diff_vonmises	-0.15662720201800703	-8.974077632574733	0.5113530551642954	162.31035085897494	0.49371543243169097	163.67508908054552	0.200138507162805	-0.4469990105815551	0.6471375177443601	120.67268544564804
17	6.0	wm	71	diff_vonmises	0.461375383437824	26.434862242217378	0.23239041139739075	124.67611086932529	0.2202057766670574	125.48483806059873	0.1071756928796681	-0.31379976101565177	0.4209754538953199	149.37083683097052
18	7.0	ltm	71	diff_vonmises	-0.0770451535593809	-4.414362130889858	0.6071698227619222	126.93675544900307	0.590064304007048	128.45333804503528	0.011008562057014615	-0.35208608833378996	0.3630946503908046	104.95555056319593
19	7.0	perception	71	diff_vonmises	-0.035928778442328294	-2.0585673678060274	1.1039893890195858	7.0800575805092265	0.5089840370963382	8.56824345127914	0.42938671338314816	-0.5054905965907268	0.934877309973875	98.16769941379528
20	7.0	wm	71	diff_vonmises	-0.028416902078910043	-1.6281685559580805	1.011283497892121	203.63901076557923	0.9958277403065873	204.86032303107467	0.1788224237240712	-0.3355874397842413	0.5144098635083125	84.46514017570837
0	1.0	ltm	72	diff_vonmises	-0.4122415459973074	-23.61970072559391	13.887449189258774	0.19214085980905812	0.08172982387540846	1.867727491633287	-0.03912596455889117	-0.31079160243115417	0.271665637872263	35.55632415671204
1	1.0	perception	72	diff_vonmises	-0.014714983174996393	-0.8431064315333094	10.472230184160862	0.8628442342934652	1.065514556489697e-16	2.7429641294882554	0.6634225862593381	-0.43655629905004434	1.0999788853093824	41.93001631587697
2	1.0	wm	72	diff_vonmises	-0.05233113945390335	-2.9983534278192097	0.00012148320858227675	6562.635598112326	2.1532569885179878e-29	6564.516113964356	-0.17240325695343017	-0.4261758225961785	0.2537725656427483	179.9146091029709
3	2.0	ltm	72	diff_vonmises	-0.11216271068223567	-6.426449940839018	1.026458156384948	98.43367150628005	1.003911081083932	99.45656640115153	0.06896702508724672	-0.2543077643783338	0.3232747894655805	81.81410493661605
4	2.0	perception	72	diff_vonmises	-0.043950387300889064	-2.518171700306313	9.465881919333025	1.0729677573761507	1.3645006018319749e-14	1.9574416233096714	0.9866989201498325	-0.3115365023709317	1.2982354225207642	44.140546082006466
5	2.0	wm	72	diff_vonmises	0.1394230903404163	7.9883546431770505	0.00040416093062918643	3373.060657319293	3.848732867110374e-25	3373.941628218094	0.07678050371828249	-0.35715840496175133	0.4339389086800338	179.27350717489998
6	3.0	ltm	72	diff_vonmises	0.12565396744933904	7.199442013921353	7.0738488050904635	0.37792217113180643	1.1646941726009638e-25	0.5155523545201285	0.3113149011496594	-0.08205242343687294	0.39336732458653234	51.1571841371904
7	3.0	perception	72	diff_vonmises	0.031462204921851894	1.8026515561978396	2.883351865483605	3.545257802589128	1.0700780690723604	3.597928495655176	0.9928972116096522	-0.3186256218987801	1.3115228335084321	66.99220052421202
8	3.0	wm	72	diff_vonmises	-0.2471985126008785	-14.163431473941836	1.7974935136727217	56.212482733716385	1.7674519504566248	56.12374390345277	0.3198003124329425	-0.08300369034093258	0.40280400277387507	71.71204849214763
9	4.0	ltm	72	diff_vonmises	0.08692153904322948	4.980237335958653	1.7946277709180474	92.1130177203597	1.7514953269892828	92.77271926104422	0.3399407985722789	-0.2894288964492553	0.6293696950215342	65.77351073210394
10	4.0	perception	72	diff_vonmises	-0.12004105203342935	-6.877845649825811	3.752562458660771	2.008958575113607	0.061928198132145174	3.12561020205185	0.9627262451845984	-0.4770242709728423	1.4397505161574407	69.35872592962593
11	4.0	wm	72	diff_vonmises	-0.23946646889140455	-13.720418002378302	1.367489119144486	249.60748209792044	1.351351422615828	250.40429488000285	0.4003251184759904	-0.320262328967889	0.7205874474438794	75.76340252857779
12	5.0	ltm	72	diff_vonmises	-0.04717072311990367	-2.702683351350655	2.2875969118023596	0.8441655791836822	1.3564517537252125e-17	1.253093431123245	0.2726144198317853	-0.19457156396777697	0.4671859837995623	90.91053613490106
13	5.0	perception	72	diff_vonmises	0.030224000472803415	1.7317076670930405	1.6418668138542292	3.2591515589390445	0.3055255636624889	3.3898278330235794	0.7758543997283395	-0.33519378071452965	1.1110481804428691	95.90681898224793
14	5.0	wm	72	diff_vonmises	-0.020691121309851446	-1.1855139244476876	0.6180066051326306	99.91811695952993	0.6038528078503966	100.22655690282527	0.18581069817426865	-0.16865249105843194	0.3544631892327006	114.66234732168205
15	6.0	ltm	72	diff_vonmises	0.31323811743291197	17.94722211152911	1.193278810134038	57.407152898019596	1.1727914502827992	57.591885944891466	0.1486853941073356	-0.09258859053971769	0.2412739846470533	82.91029605483604
16	6.0	perception	72	diff_vonmises	-0.15073235288650258	-8.636327656473169	0.671352172848563	127.27223781088558	0.6591519219416847	127.56849789084171	0.21340635114278683	-0.1720183498674146	0.38542470101020143	110.52461247135942
17	6.0	wm	72	diff_vonmises	-0.3802751871070274	-21.788163274780366	1.3581630991680322	81.80131772270316	1.3396390912429923	81.89847925923564	0.2337327854915756	-0.10070861750137361	0.3344414029929492	79.61861406249668
18	7.0	ltm	72	diff_vonmises	0.09103386479596648	5.215856245573442	0.7522368716739664	42.73361308381106	0.7248924140371369	43.03078551953722	0.13703876097539336	-0.1268528978954686	0.26389165887086197	103.46605075587044
19	7.0	perception	72	diff_vonmises	-0.17147048533762108	-9.824535120905553	1.8849558989304953	2.146261064949009	0.2059872369961589	2.1146681395032747	0.658988748462366	-0.24693543221754885	0.9059241806799149	93.5898435983793
20	7.0	wm	72	diff_vonmises	0.5452975361430826	31.243247399881103	0.00019873280913950737	4490.436005043542	2.1497515207417954e-30	4490.44832442083	0.14007447362450876	-0.143981740766435	0.28405621439094375	171.14621969325435
0	1.0	ltm	73	diff_vonmises	-0.009735945713066373	-0.55782859892719	6.893375495068192	0.3245697333996527	0.11118038785921283	3.7650439011522545	-0.3343658914616694	-0.6209187181039574	0.286552826642288	48.020812859004536
1	1.0	perception	73	diff_vonmises	0.053754966792613684	3.0799327250826556	14.782843564746587	0.6606336582825939	0.021454865614319606	3.4554467745531525	0.44265709647949836	-0.5552251669376378	0.9978822634171362	35.09649216445365
2	1.0	wm	73	diff_vonmises	0.13056392651742882	7.4807619461048835	5.595166070277098	0.5059810919817982	0.09074029020190143	4.4688664048466995	-0.31155224036596035	-0.7204192417584006	0.4088670013924402	53.91576511860089
3	2.0	ltm	73	diff_vonmises	0.10237826153584217	5.86584229989029	4.9864905490905125	0.6702704877848076	0.3761446679155209	2.010382178559489	0.1303541803043035	-0.33004163714137685	0.46039581744568037	54.824063426176934
4	2.0	perception	73	diff_vonmises	0.012031420018286635	0.689349588597036	7.835510527998223	1.3276199489699545	0.2893964819838096	2.9580602497812887	0.8413757883299241	-0.5056308378653847	1.3470066261953089	46.59540041092015
5	2.0	wm	73	diff_vonmises	0.049033383099660835	2.809405906858664	2.7221477339759987	1.1212135692010634	0.2788035827670807	2.9546062424735933	0.0849013722407761	-0.4156152682740692	0.5005166405148453	72.06866325085883
6	3.0	ltm	73	diff_vonmises	0.11932356131153579	6.836736459621515	4.745353319709565	0.5648468056281042	0.44470938358554485	1.0831086787093636	0.2201962719253896	-0.17040934174534866	0.39060561367073826	57.09363343922024
7	3.0	perception	73	diff_vonmises	-0.063639644269152	-3.646283026336326	6.2934572214281514	1.011276760380027	4.3604313244301317e-13	1.4066573165025615	0.7662761984646422	-0.22387308155902017	0.9901492800236624	54.29603906388979
8	3.0	wm	73	diff_vonmises	-0.004608892979665485	-0.2640701159623066	1.6243483454917487	143.2714753132035	1.6024470889423357	143.97195565115285	0.21981970698942632	-0.25312658765077956	0.4729462946402059	67.75115792956302
9	4.0	ltm	73	diff_vonmises	-0.2784168197327118	-15.952108716139044	0.8833059603797919	138.47152621506277	0.8612515574564399	140.37850984521006	-0.01902027964183617	-0.418714350475625	0.39969407083378883	84.95085681632868
10	4.0	perception	73	diff_vonmises	-0.050347964124138	-2.88472585138919	2.8121301552084104	1.8433078161583816	1.4411368836279541e-15	3.9465985758300435	0.535231560326409	-0.6239218160073078	1.1591533763337167	81.9856225247392
11	4.0	wm	73	diff_vonmises	-0.04856796165570294	-2.7827392224249925	1.1043954309832231	232.38995645857702	1.0880233245525435	234.55321344384163	-0.06242860033127329	-0.4851119083213291	0.4226833079900558	74.38221378046617
12	5.0	ltm	73	diff_vonmises	-0.08181700443175054	-4.687769046342458	3.191846205225617	0.7409121967019238	7.129498928559157e-14	1.6483916639415699	0.24025522409536526	-0.26150076394038096	0.5017559880357463	76.86378527272424
13	5.0	perception	73	diff_vonmises	-0.06927216167446133	-3.9690025016945283	0.8944769403198981	127.89323302142854	0.8586305057688012	129.01405601307414	0.521151624388061	-0.4503003914354302	0.9714520158234912	94.86746541435323
14	5.0	wm	73	diff_vonmises	-0.09866123866447926	-5.652872577007597	0.5785752790099936	176.12635381202074	0.5649314758458321	177.07348404648744	0.208220548546862	-0.3332817453502699	0.5415022938971319	114.8991553839111
15	6.0	ltm	73	diff_vonmises	0.14218844530100638	8.146797811274428	0.9573853460146855	93.78746146420058	0.9406506395060117	94.33212074174085	0.11808974151472285	-0.16350264095282085	0.2815923824675437	88.3465486602648
16	6.0	perception	73	diff_vonmises	-0.26453062370683483	-15.156488290364956	0.4840813570048076	131.17320321964806	0.46625514337887125	131.93923457879703	0.25108240950076777	-0.3419454967619995	0.5930279062627672	125.67476120046217
17	6.0	wm	73	diff_vonmises	0.5037056422288033	28.860207416637042	0.02143762431447191	71.60712326193837	3.3074638239738507e-09	72.09370792335328	0.16817343481409175	-0.3204395657113608	0.48861300052545253	171.31466724157679
18	7.0	ltm	73	diff_vonmises	0.015169958436601648	0.869174593806151	1.0630220021058572	179.39590739216135	1.049291768112858	180.80368479204452	-0.030700928390736237	-0.3149544841739491	0.2842535557832129	76.23686209142667
19	7.0	perception	73	diff_vonmises	-0.0993515374144712	-5.6924237819852905	2.143061261897389	1.479213015403865	9.17692289215191e-13	2.4415414600016923	0.4069278838628524	-0.3776379376144591	0.7845658214773115	93.84660769962976
20	7.0	wm	73	diff_vonmises	-0.20014527894281367	-11.46747977289181	0.7949880834712449	111.92360804152791	0.7787465932401595	113.08926588328684	-0.002081536305354348	-0.2580169199128193	0.25593538360746493	90.20505160258834
0	1.0	ltm	74	diff_vonmises	-0.057975931272991284	-3.3217761752829227	4.038770402678833	0.33044696246511074	2.3382598230575656e-22	2.772052830434163	-0.1857950352170442	-0.4411066184888594	0.2553115832718152	68.12562658238863
1	1.0	perception	74	diff_vonmises	0.009453130534313419	0.5416244828024077	13.548331404645992	0.6340512223894303	1.3448634896609623e-20	2.7766615847956397	0.4798479326805479	-0.4419194165120277	0.9217673491925755	36.82666140974169
2	1.0	wm	74	diff_vonmises	0.029855235288799065	1.710578978418226	8.856096041425815	0.3130320514935368	7.326748464769973e-23	3.020511099324956	-0.1146756888756621	-0.48072926468556776	0.36605357580990566	45.645732855376394
3	2.0	ltm	74	diff_vonmises	0.09781581113764323	5.604433147835709	5.439783528294741	0.6134692864387907	0.3464905371262999	1.9014787910905986	0.1408704770766217	-0.3161418390733188	0.4570123161499405	53.20227618302121
4	2.0	perception	74	diff_vonmises	0.00022336089788045619	0.012797636756802714	6.818244011889278	1.2234079687003447	0.2118236816463491	2.5456647526238037	0.7540816394681868	-0.4166828685639594	1.1707645080321463	50.333273959790034
5	2.0	wm	74	diff_vonmises	0.0709183433637018	4.063321764799723	3.293719041718281	0.5906060761810302	2.255374214038133e-14	2.0262997862051835	0.08531347067749834	-0.32193384150243887	0.4072473121799372	75.63497420813025
6	3.0	ltm	74	diff_vonmises	0.1282857570985301	7.350232453386216	6.907664004591092	0.3475155293518598	8.653742905988362e-28	0.9230140684319786	0.21033001949889257	-0.14690189414458868	0.3572319136434813	51.7828991708233
7	3.0	perception	74	diff_vonmises	-0.038154618852884015	-2.1860986292005364	5.357491617168349	1.3022291945754534	3.7179617864665956e-18	1.806042119722574	0.8839569663712464	-0.2874145129755397	1.1713714793467862	58.941751299689315
8	3.0	wm	74	diff_vonmises	-0.095250189624129	-5.457433863283376	1.5000818906794888	156.35569010324787	1.4803895874760578	157.05434591186474	0.239443567235611	-0.25137725426404245	0.49082082149965345	70.9835045433964
9	4.0	ltm	74	diff_vonmises	-0.09056847219838479	-5.1891912139153815	2.447463014645352	0.9771221206630291	0.3063695916284118	2.468480914841299	0.047316392101774296	-0.3346241091076241	0.3819405012093984	74.23869993912345
10	4.0	perception	74	diff_vonmises	-0.041014102315906006	-2.3499349632191495	2.8248652799195098	1.9869557418635884	0.013631955549605156	3.9687636914208615	0.6169327689897405	-0.618643439867566	1.2355762088573066	81.16305300127692
11	4.0	wm	74	diff_vonmises	-0.14764161779177276	-8.459241579952185	1.1590217640699725	282.8809844955799	1.1438144211279426	284.8342316585682	0.07989863775790695	-0.48189655671820475	0.5617951944761117	75.68856724245822
12	5.0	ltm	74	diff_vonmises	-0.012449483610377128	-0.7133028679919	2.161559990790961	0.9755330300296404	7.927159668948833e-18	1.4649904632326176	0.2941890917999779	-0.22616825605555477	0.5203573478555327	93.46540423594053
13	5.0	perception	74	diff_vonmises	-0.015721481326740155	-0.9007745277159449	2.1807853367422245	1.8373974251620078	3.753113213984539e-18	2.47818362394344	0.6041461480970174	-0.38167511272042376	0.9858212608174411	93.06330637806681
14	5.0	wm	74	diff_vonmises	-0.007953620181713618	-0.4557088682622652	0.5556828905817459	175.05957837395698	0.5437985174630364	175.65854287223036	0.2388468739875904	-0.2759077896127913	0.5147546636003817	119.0914503381691
15	6.0	ltm	74	diff_vonmises	0.3546543978851386	20.32020018457187	0.8740206825994927	103.03475040568051	0.8613577648181505	103.28593746285941	0.1696051066675679	-0.12282526768163748	0.2924303743492054	96.56670244868158
16	6.0	perception	74	diff_vonmises	-0.17686388405750747	-10.133554104786304	0.6437536742266057	170.1536737876922	0.6318044344540273	170.58483645176142	0.2689920246232802	-0.23498222851712214	0.5039742531404023	112.40671689361128
17	6.0	wm	74	diff_vonmises	0.115599965990284	6.623390163099128	0.3309538598978844	132.93292162186816	0.3208558173306066	133.18016675662605	0.1890178254861219	-0.20219304913125136	0.39121087461737325	142.92332812450914
18	7.0	ltm	74	diff_vonmises	0.059666159504902255	3.418619119385281	0.7249050987824326	95.52497339992034	0.7063520529333235	96.42330356346767	0.08128061947554599	-0.23492591592761158	0.3162065354031576	99.18724182976246
19	7.0	perception	74	diff_vonmises	-0.11322602387022765	-6.487373298811559	0.953891841523479	197.04888364194264	0.9354170465480587	197.493475304353	0.5450485028757583	-0.3068481012655546	0.851896604141313	94.0489783372365
20	7.0	wm	74	diff_vonmises	-0.05763108541434794	-3.3020179630000945	0.7986536067162001	68.91155593652913	0.772737927797392	69.78818363731014	0.07942496032207202	-0.22561881710687182	0.30504377742894384	94.43777886835329
0	1.0	ltm	75	diff_vonmises	-0.035289673742254814	-2.0219493658248426	5.378479701127553	0.3216607766592375	0.7329555804868663	0.29953955537968074	0.2028334446132227	-0.04544860625701311	0.2482820508702358	54.695352344070585
1	1.0	perception	75	diff_vonmises	-0.0925597119611718	-5.303280848321708	20.995172874431166	0.5603387060321536	7.467126643581513e-24	0.5758052595846832	0.9261100941410831	-0.09164225332121428	1.0177523474622974	29.537934017268583
2	1.0	wm	75	diff_vonmises	-0.11337345436456274	-6.495820443908488	12.40888539921513	0.3782783012127976	2.3354958059770374	0.3935828097430929	0.3029933738263144	-0.10063235387654526	0.40362572770285965	34.41445574288588
3	2.0	ltm	75	diff_vonmises	0.16483617872821466	9.444417352190817	3.529119858686556	10.026114130495694	3.3805928568403347	9.906570910896324	0.2540474153207217	-0.048420494193712305	0.30246790951443403	52.33947824396273
4	2.0	perception	75	diff_vonmises	-0.07902872852970906	-4.528012605037449	6.1649397250243885	1.3710309719761635	1.6783903868738794	1.0168879110768696	0.85624917286106	-0.14320568089350086	0.9994548537545608	49.02670624683802
5	2.0	wm	75	diff_vonmises	0.051657787783066775	2.9597732189521917	2.5743033492828657	0.3838255143536872	1.1014361813098883e-09	0.21072521455105817	0.19659076142849852	-0.032201487395229156	0.22879224882372767	85.72323348135484
6	3.0	ltm	75	diff_vonmises	-1.3459561718947939	-77.11760805915644	2.299327788220451	132.8191376958636	2.3163313509135555	132.19601925623655	0.21091453043850805	0.023983908424384026	0.18693062201412403	67.95466084408051
7	3.0	perception	75	diff_vonmises	-0.08542661156400612	-4.894584300721023	5.5092202924029925	1.2378128460069016	0.42436630917792	0.9066407715867879	0.9190928382358419	-0.1366596973295362	1.055752535565378	56.07966635714203
8	3.0	wm	75	diff_vonmises	-0.22129575284003733	-12.67931266190434	2.549478293239967	10.7841439585877	2.430664830442642	10.597859279890404	0.28583856426459775	-0.04253165026292738	0.32837021452752513	63.0427000676647
9	4.0	ltm	75	diff_vonmises	0.012692815059302476	0.7272447330381255	2.8168102074771335	15.044856721519455	2.691934262493382	15.028547572178615	0.2560105382547597	-0.08562500834004094	0.34163554659480067	56.22448412299471
10	4.0	perception	75	diff_vonmises	-0.05932840055897025	-3.3992669572905894	3.2962144159796125	1.990767439364492	2.5544779849476385e-22	2.4802460080299915	0.9803439100419588	-0.39285826913425426	1.373202179176213	75.61142155502344
11	4.0	wm	75	diff_vonmises	-0.13688643289109353	-7.843014877260435	1.5526015390085834	140.46049319655717	1.5345524859469983	140.98916528746267	0.20724625109642858	-0.20047749527876135	0.40772374637518993	70.05756867206273
12	5.0	ltm	75	diff_vonmises	0.05785436515394554	3.3148109497298166	2.7776463195711485	0.7427987750363912	1.1037517590825827e-18	0.08632448406854687	0.45171599101922855	-0.011938932554738676	0.4636549235739672	82.50168924291165
13	5.0	perception	75	diff_vonmises	-0.04711894401839835	-2.699716627367421	1.979372686306567	1.6814026953585788	1.553729533710151e-20	1.382459205599329	0.6419414800819486	-0.20357192335179736	0.8455134034337459	97.49725395905062
14	5.0	wm	75	diff_vonmises	0.011538664585748116	0.6611167819804354	0.9472308828686312	1.1764726826234078	1.2687753827044256e-13	0.7414124352581901	0.2722380903872895	-0.059306069887724196	0.3315441602750137	130.81200916680064
15	6.0	ltm	75	diff_vonmises	0.0700848056276935	4.015563570461557	1.7469829512825106	0.557969411226008	5.265971751641037e-12	0.0870012752222832	0.251309663250921	-0.005791192864517089	0.2571008561154381	103.3004400727319
16	6.0	perception	75	diff_vonmises	-0.25081658450569727	-14.37073172406281	1.1244085848761889	68.14418239469882	1.1002644044185421	68.14460587210824	0.3074018019741942	-0.11134162874277997	0.4187434307169742	89.30213715402229
17	6.0	wm	75	diff_vonmises	-0.12446322676361897	-7.13121759813508	0.3332016496777456	44.95959712226138	0.31401540125706867	44.42330173895411	0.2693580224150445	-0.051397059671918655	0.32075508208696313	146.99759895829771
18	7.0	ltm	75	diff_vonmises	-0.19709596882184233	-11.292767172533626	1.068351489574593	55.953248531197836	1.0478306736921086	55.82407636877005	0.26129132179367787	-0.07099028464694523	0.3322816064406231	93.8480403486896
19	7.0	perception	75	diff_vonmises	-0.1523342358564239	-8.728108789923542	0.9822508475557015	80.6529825692826	0.9414290421201403	80.9821095079436	0.5158847256058543	-0.26919233861265557	0.7850770642185099	93.69479934490911
20	7.0	wm	75	diff_vonmises	0.5364435780380001	30.735952968474226	134.73783810944863	0.41299520464934125	1.0729799838220704e-31	0.20005634339140557	1.8761411244180208	-0.03183995594763182	1.9079810803656527	11.65174139622576
0	1.0	ltm	76	diff_vonmises	-0.036408851943623415	-2.086073553286306	0.9364689811886104	0.8524529478635549	2.813175117839189e-15	2.953105697083507	-0.18898035682449238	-0.4268163526728471	0.23783599584835474	131.2695972140209
1	1.0	perception	76	diff_vonmises	0.019626922483427463	1.1245398231308181	11.322220303737312	0.45422567741581144	0.0495579787248832	2.586610902975186	0.1703856116580172	-0.41965972634504206	0.5900453380030592	39.815837022462205
2	1.0	wm	76	diff_vonmises	-0.0827910771186821	-4.7435793002426045	3.5288098737430813	0.6295575639595815	0.19841701189096414	2.900633772804864	-0.10571662499133067	-0.4487974823973318	0.34308085740600114	64.16170952437957
3	2.0	ltm	76	diff_vonmises	0.03146642616840326	1.8028934158095171	15.913641711428019	0.31082053227045253	0.087363778275484	1.6436068365499508	0.20568565002415784	-0.2745086894190493	0.48019433944320716	33.534493620305085
4	2.0	perception	76	diff_vonmises	0.030164539712408064	1.728300816475748	6.624016181814502	1.200283090956546	0.31495156692976944	2.921579625773097	0.5855830158186116	-0.49195864667459327	1.0775416624932048	49.91635806558767
5	2.0	wm	76	diff_vonmises	0.07855024836940877	4.500597711271499	0.8964216134093341	79.76118078694529	0.8638299082267256	81.19730811285196	0.041928759486715705	-0.33455145407446985	0.37648021356118555	86.64337470566295
6	3.0	ltm	76	diff_vonmises	-0.05107714338762128	-2.9265047456952398	1.3455688266524934	24.780926766587974	1.254614346146837	25.583511934230696	0.0973195019222981	-0.22412414584371732	0.3214436477660154	73.15529282104157
7	3.0	perception	76	diff_vonmises	-0.030860346259400852	-1.768167594976006	4.380074004707606	2.0914390460201386	0.3458365183735725	3.1551830771884455	1.0003003337992482	-0.47261620758928563	1.472916541388534	61.05681694602873
8	3.0	wm	76	diff_vonmises	-0.18319205633429145	-10.49613166827772	1.2209778851867639	233.24570491641313	1.2085003221518802	234.40489036223133	0.09505747922680996	-0.30415951964782195	0.3992169988746319	74.8547304659428
9	4.0	ltm	76	diff_vonmises	-0.1342020914156567	-7.689213439945984	1.710287857976497	1.5737353876257982	0.5480105586517502	3.107504870977588	-0.05647396306518693	-0.32695957470556736	0.27048561164038043	75.2060915314105
10	4.0	perception	76	diff_vonmises	-0.025528864479905475	-1.462696190460023	2.593679339859381	2.5945180542974398	0.4084212647747317	4.619456773332302	0.5009448599813147	-0.5888637379546395	1.0898085979359542	73.35393593003704
11	4.0	wm	76	diff_vonmises	0.17227340009576303	9.870538747855854	0.8968289705174843	139.91726839225686	0.8779645266569531	141.9814573258113	-0.1545009873359362	-0.4147464555166067	0.2602454681806705	78.85544078877433
12	5.0	ltm	76	diff_vonmises	-0.000686101493161418	-0.03931071987577316	1.5419473295563593	1.4086114341295024	0.09610773100922872	2.3759046908255	0.20511212001448537	-0.3142911226843359	0.5194032426988213	103.21715346738509
13	5.0	perception	76	diff_vonmises	-0.08988159033987786	-5.149835782398831	1.9945179883865292	1.724724523655092	0.009625516068660135	2.896375142900492	0.42285888512646114	-0.4400970682264117	0.8629559533528728	96.640544134819
14	5.0	wm	76	diff_vonmises	-0.012290169447085705	-0.7041748388186435	0.3105527864999664	139.1995168395476	0.2975411058988514	140.44638164763742	0.06303042215445132	-0.383260436543825	0.44629085869827634	142.34874478198373
15	6.0	ltm	76	diff_vonmises	0.5669802256261203	32.48557399575186	0.18745419269351138	139.5170141357067	0.17710931172270336	140.57083242854668	0.04988155447924214	-0.3464779189672349	0.39635947344647704	151.7854678592805
16	6.0	perception	76	diff_vonmises	-0.10051984416878386	-5.759362828184034	0.9901064723440292	310.0386685556881	0.9782407760795708	311.1929980234502	0.30715486610202447	-0.3662815509311663	0.6734364170331908	87.42130318717463
17	6.0	wm	76	diff_vonmises	0.06896414934177333	3.9513546949935265	0.01764311056384251	83.19412664865175	1.5332639831511949e-09	84.49944125531046	0.026885039766806784	-0.44031889312193506	0.46720393288874185	178.7791681289026
18	7.0	ltm	76	diff_vonmises	-0.032768101704147505	-1.8774739303030925	1.1080498047159555	207.01915161073904	1.0932545131023674	208.4850986475814	0.04673046384795043	-0.3537241608966326	0.40045462474458304	77.15121537757099
19	7.0	perception	76	diff_vonmises	-0.09048062493869541	-5.18415793669339	0.7548148024637881	49.467198422719804	0.6616311636628059	50.60970037911051	0.561964848352833	-0.514287149683128	1.076251998035961	105.9345760863624
20	7.0	wm	76	diff_vonmises	-0.29070545068908454	-16.656195405933012	1.019420892229672	180.37582425332215	1.005093503809696	181.8032992679184	-0.0008206850151708522	-0.32468406780762393	0.3238633827924531	79.11315536637197
0	1.0	ltm	77	diff_vonmises	-0.08286159191001453	-4.747619500179199	2.850024438830407	0.3232702597360503	2.4898976993648105e-22	2.6292016868469523	-0.2128539159973893	-0.41776252154642846	0.20490860554903917	81.43121394833017
1	1.0	perception	77	diff_vonmises	-0.01206148246524295	-0.6910720399294686	12.674949434623338	0.5371823985939448	4.849005833611655e-18	2.851498982152691	0.3011873796317879	-0.4538301582237165	0.7550175378555044	38.08173187596441
2	1.0	wm	77	diff_vonmises	-0.031786290080831496	-1.821220268010197	9.441052759773275	0.2611429830910574	2.0866200260588064e-13	2.933999089587241	-0.15132688247628362	-0.4669604561449436	0.31563357366865996	44.187995950596104
3	2.0	ltm	77	diff_vonmises	0.019580996969881883	1.1219084850326855	10.747901780286277	0.3925774627965145	0.17037348379439715	1.7168485514011063	0.18553279279449053	-0.2939509619414359	0.4794837547359264	40.133716238024505
4	2.0	perception	77	diff_vonmises	-0.004368420560707935	-0.2502920612667373	7.434837812254972	1.1268564143677442	0.20881510598446637	2.712421738911111	0.6774623915511967	-0.45034568953110277	1.1278080810822995	48.163749039246
5	2.0	wm	77	diff_vonmises	0.07726483196298214	4.42694877626638	2.7859019965973224	0.5824035521818935	5.532396450463581e-12	2.143269241988583	0.024448572190692353	-0.3397212287507592	0.36416980094145157	82.37953312490657
6	3.0	ltm	77	diff_vonmises	-0.09853387702974538	-5.645575292865458	3.140153540696938	0.5798062810147123	0.25586586657848936	1.1090183097091133	0.16541632046503524	-0.15703662526215392	0.3224529457271892	70.79413114735533
7	3.0	perception	77	diff_vonmises	-0.024154323895977475	-1.383940816231501	3.739072727375674	2.4586442925889758	0.5091773909014504	3.3032090228625712	1.0008609887873097	-0.4565705620756656	1.4574315508629754	64.0252978672026
8	3.0	wm	77	diff_vonmises	-0.2531638533650195	-14.505220323084462	1.4291983650344235	194.65586776447424	1.4137353460431648	195.56564333067732	0.15470890204457532	-0.2751168455918105	0.4298257476363858	70.66238242075735
9	4.0	ltm	77	diff_vonmises	-0.08221135823879502	-4.710363855121024	2.026509134783323	1.4530677486706474	0.516876635435721	2.779510895464379	0.06099738504798391	-0.31490072559135507	0.375898110639339	74.94539937391647
10	4.0	perception	77	diff_vonmises	-0.08143066271940459	-4.665633296775178	2.6854383431526014	2.8328278430023652	0.3825794454953602	4.5788610077443455	0.7104070535630846	-0.5858622158421685	1.296269269405253	73.7976860227138
11	4.0	wm	77	diff_vonmises	-0.16975337106916275	-9.726151720381196	0.9446300479213878	222.35513032190138	0.930431850039277	224.26839246698694	-0.028514289165642026	-0.42100955469274837	0.39249526552710634	81.51358375703313
12	5.0	ltm	77	diff_vonmises	-0.0010555462527325654	-0.060478345362425336	2.0740718446582815	1.1186630899817323	0.05778506687241607	1.79164743717582	0.28804551360196334	-0.25959785167912885	0.5476433652810921	92.59225133298176
13	5.0	perception	77	diff_vonmises	-0.033876339624614324	-1.9409712858421964	2.1659378084536542	1.803188063818135	3.040970823060128e-15	2.6240596449640927	0.5583362255711382	-0.4048050063470882	0.9631412319182264	93.37156658568503
14	5.0	wm	77	diff_vonmises	-0.12167622826709422	-6.971534346774905	0.38907339994937806	156.3466158388838	0.37662158823074615	157.3867784536274	0.12286272916978902	-0.3517280771789757	0.4745908063487647	133.7364483875246
15	6.0	ltm	77	diff_vonmises	0.42493974198323337	24.34725376301743	0.5161332534246903	127.77124286566401	0.5053056824385281	128.3356138183648	0.11917503756918535	-0.20545511874978217	0.3246301563189675	120.42196537665495
16	6.0	perception	77	diff_vonmises	-0.08027336410879166	-4.599324970750703	0.9002335331407386	262.3275895463857	0.8896122493470875	263.0593260376168	0.29606473983524495	-0.2747159994462436	0.5707807392814885	93.38353441368375
17	6.0	wm	77	diff_vonmises	0.025065286186511975	1.4361351107746982	0.1208957325147182	96.36421399740752	0.10757253133567676	97.11477181296272	0.08265284463820777	-0.2990021530446043	0.3816549976828121	166.48580263242118
18	7.0	ltm	77	diff_vonmises	0.025033183433420866	1.434295758511827	1.0054479511330525	147.396700205876	0.991171608081334	148.2562135784824	0.10584125081361151	-0.22927252824751676	0.33511377906112827	84.1517770843449
19	7.0	perception	77	diff_vonmises	-0.14552418947348247	-8.337921873892668	0.7582555047137616	198.17955198886085	0.7395824656759511	198.74930487740144	0.5399797742426955	-0.36905517119669184	0.9090349454393873	104.91968141327676
20	7.0	wm	77	diff_vonmises	-0.28491795107699075	-16.324596104226437	1.0094911948284193	118.34536863900207	0.9935097190776557	119.20562953366131	0.06482882009988344	-0.2157596556855914	0.28058847578547486	82.6574112795959
0	1.0	ltm	78	diff_vonmises	-0.20681204249555565	-11.849457187475569	4.465000168465026	0.29330745927664326	3.26322329213252e-15	3.8950302703482698	-0.38054629901264975	-0.61988163790639	0.2393353388937402	64.70425926963398
1	1.0	perception	78	diff_vonmises	0.05464380475097776	3.1308593887679423	11.463594593312493	0.657245608438218	1.905562609899711e-16	4.131342143306504	0.2201260067352223	-0.657523523614224	0.8776495303494463	40.056024732885135
2	1.0	wm	78	diff_vonmises	0.11214204708667927	6.425266004024071	10.868537977271828	0.300064732797949	1.726833919823687e-39	4.462064277174684	-0.3203702653673609	-0.7101595859646025	0.3897893205972416	41.15666344636003
3	2.0	ltm	78	diff_vonmises	0.04480059014476682	2.5668847349905284	7.141779834223235	0.5290067599662184	0.1082358405441281	2.329732559981324	0.14132093603676615	-0.378666400477569	0.5199873365143352	49.22162540681356
4	2.0	perception	78	diff_vonmises	0.009126604865290463	0.5229159400647068	6.793198146535446	1.2826323776325896	0.18529765969169706	3.4036801122952385	0.6604815880494745	-0.5572784631832344	1.217760051232709	50.28851064835786
5	2.0	wm	78	diff_vonmises	0.0891187758531503	5.106129731757904	2.7154171840216574	0.7866134193358777	1.0977284781145509e-20	2.931180538989406	0.019996949388742857	-0.46438121572843616	0.484378165117179	83.4486024411701
6	3.0	ltm	78	diff_vonmises	0.005757554423608271	0.32988356878963127	4.553363013739272	0.5215516471820352	0.06083187108706504	1.378643262809372	0.19716093760899958	-0.2150124523870624	0.412173389996062	62.544804815391984
7	3.0	perception	78	diff_vonmises	0.012802834814236637	0.7335484006589167	2.8605724311665317	3.610804559345767	0.6882964683490524	4.747033827312593	0.9610974715361906	-0.5460101367864337	1.5071076083226242	68.78231408551684
8	3.0	wm	78	diff_vonmises	-0.16247684369010437	-9.309237412049761	1.164068788687416	207.17515912680435	1.1482149571022284	208.41087389345023	0.1538675889259622	-0.3362167399424365	0.4900843288683987	77.91446601379488
9	4.0	ltm	78	diff_vonmises	-0.034555426973860146	-1.9798801248747084	1.9786908408779336	1.7922631967745888	0.36136634259480305	3.7622379813514986	0.08659719991566961	-0.4549390187816881	0.5415362186973577	79.55163876798662
10	4.0	perception	78	diff_vonmises	-0.09750360390156364	-5.586544990874904	1.1908407999189607	323.05867203695533	1.167356531684585	325.129733100921	0.6329254224123702	-0.6861744030289358	1.319099825441306	79.99435372993372
11	4.0	wm	78	diff_vonmises	-0.18159223807359942	-10.404468833952105	0.8935038726362563	185.44191702301399	0.8714505989035863	187.76653511881437	0.041908892658973684	-0.5326863047946091	0.5745951974535828	85.98558947518629
12	5.0	ltm	78	diff_vonmises	-0.057088488221132105	-3.2709294338531825	2.104382564962566	1.0706138975746844	2.7880560286978034e-15	2.2184052868781814	0.21643687096686953	-0.3446042101724518	0.5610410811393214	94.68235723027922
13	5.0	perception	78	diff_vonmises	-0.002132584675461609	-0.12218810135822657	1.8905484228045186	2.6150078432046118	0.16642910996975854	3.8842089226482814	0.5787177236767111	-0.49420488290630826	1.0729226065830195	92.07352642781751
14	5.0	wm	78	diff_vonmises	-0.05064452834655432	-2.901717729688224	0.41580064481335594	213.39199267823176	0.4050713176967235	214.90704452360802	0.07381320173557526	-0.4328788843594893	0.5066920860950646	128.84297939960783
15	6.0	ltm	78	diff_vonmises	0.43662338420819036	25.016677151848306	0.6466964747402598	180.34685818774136	0.6370362106811626	181.28406870839908	0.07547027757453151	-0.24739772381233394	0.32286800138686544	104.67171504271221
16	6.0	perception	78	diff_vonmises	-0.04063545101286911	-2.3282398416480063	0.6923767646079393	281.6585514626844	0.6819072297882425	282.76030166461067	0.2519856439026995	-0.3625349755548193	0.6145206194575188	104.67289719764935
17	6.0	wm	78	diff_vonmises	0.01329669826251138	0.7618446919008368	0.39560845999479904	122.18727919748807	0.3818700521140732	123.32457180029364	0.05142444086267872	-0.3269137953074903	0.37833823617016904	131.45158768167505
18	7.0	ltm	78	diff_vonmises	0.09821596359691151	5.627360194913562	1.1773291980779372	2.514619376932717	0.46661423504579413	3.7658128718385155	0.03708717828505914	-0.2900397491675576	0.32712692745261673	91.66877808094512
19	7.0	perception	78	diff_vonmises	-0.10175079896332828	-5.8298913426828225	0.7574437821284729	190.37692908674975	0.7369430120101848	191.06628977516107	0.5439916526651203	-0.3965926543910072	0.9405843070561275	104.55290259399962
20	7.0	wm	78	diff_vonmises	-0.2080017038282317	-11.917619760887813	0.9806760293228349	98.32313601486267	0.953198667234706	99.42609587520231	0.14532944257337022	-0.2971765512046929	0.4425059937780631	85.7851445659359
0	1.0	ltm	79	diff_vonmises	-0.09840968500013933	-5.638459613719868	9.157230650607074	0.32749790734412804	0.05450322254516839	4.203389849743789	-0.31633436179864477	-0.6829594362206113	0.3666250744219665	43.413865738271966
1	1.0	perception	79	diff_vonmises	0.06640157582866801	3.8045300480005793	13.629563722288216	0.7833685959522718	1.2743796754477528e-21	4.183807267869924	0.47684929354466543	-0.6658736076236381	1.1427229011683036	36.70907368716345
2	1.0	wm	79	diff_vonmises	0.1976432329965468	11.324123100022902	8.049147533492508	0.40892117296269853	3.887035021857317e-36	4.877768590399395	-0.32119003732112744	-0.7763209359852291	0.45513089866410167	47.91245138538628
3	2.0	ltm	79	diff_vonmises	0.11818782781294412	6.771663723500585	4.537887904843938	0.7883371483839112	0.3210590408122618	2.3008365680795317	0.1569190509445243	-0.36594779773431935	0.5228668486788437	57.88799809175967
4	2.0	perception	79	diff_vonmises	0.008746257002290718	0.5011236127680013	6.688053778811434	1.3755122586646502	0.22065970454263364	3.098745294630655	0.782626134762904	-0.5083547409815214	1.2909808757444254	50.61115449586029
5	2.0	wm	79	diff_vonmises	0.09000263809079725	5.156771307646064	3.6244410575346153	0.7524322138000958	2.21473799241286e-14	2.721310312234134	0.11488688254641682	-0.4327203686700402	0.547607251216457	72.01402381959798
6	3.0	ltm	79	diff_vonmises	0.13421458076649836	7.68992902703807	6.195955153758326	0.4678264128948131	0.14336341305968006	1.1343362360230687	0.24703361601314763	-0.1818078124691267	0.42884142848227436	53.030265731641066
7	3.0	perception	79	diff_vonmises	-0.002093962265582714	-0.1199752002775415	4.400783160672001	1.4652580764414578	0.13806506154305753	2.056049036219136	0.8125978853239904	-0.31186352514911875	1.124461410473109	63.29822196591587
8	3.0	wm	79	diff_vonmises	-0.02226073767154944	-1.2754463174276622	2.2180564994036995	1.84589615423916	0.6714869989343659	2.734729268141303	0.2500498007988504	-0.280134205640766	0.5301840064396164	73.34748445930592
9	4.0	ltm	79	diff_vonmises	-0.05837593760107803	-3.3446948496608186	1.0092922342484778	61.303356904947705	0.943236578084638	63.316673539112216	0.1011631491034457	-0.4870052437682073	0.588168392871653	82.9044252390772
10	4.0	perception	79	diff_vonmises	-0.08121396190354808	-4.653217254609559	0.9643255876821829	115.13539138646674	0.9075596816694395	117.21875305668826	0.5668616217027065	-0.6691793865015914	1.2360410082042979	89.82681755622369
11	4.0	wm	79	diff_vonmises	-0.16440238647865563	-9.419562887105599	1.0907803813145807	291.1961373374278	1.0733066550457289	293.41340919324045	0.16629457563554695	-0.5619470564809106	0.7282416321164575	79.3493455292577
12	5.0	ltm	79	diff_vonmises	-0.1031850080132118	-5.912065468180616	2.257932636764671	0.9033404180756732	4.4016680043934267e-16	1.880735065584799	0.20191328206821807	-0.2938476077412198	0.4957608898094379	91.48612676544175
13	5.0	perception	79	diff_vonmises	0.0007045571348019256	0.040368150249980146	0.9647680815152546	30.027072327662662	0.7951546398335799	31.222268034125587	0.6085660786978941	-0.500988933361461	1.1095550120593551	95.03408201169557
14	5.0	wm	79	diff_vonmises	0.04471599776021568	2.5620379483768008	0.5484619779380198	204.6513262293093	0.5368907971127955	205.7602154175745	0.16400689381039513	-0.35322646124759416	0.5172333550579893	116.4468438159086
15	6.0	ltm	79	diff_vonmises	0.340255429020112	19.49520003926557	0.9696872528649128	116.08561582042199	0.9555922109730811	116.69380680620435	0.10772328500281958	-0.17367278927676466	0.28139607427958424	86.98080687297613
16	6.0	perception	79	diff_vonmises	-0.2069347835323559	-11.856489730857282	0.3546106489004569	219.14877710527875	0.3435549039381212	220.07658352606833	0.23702936390958484	-0.4109603665854067	0.6479897304949915	138.78099991576084
17	6.0	wm	79	diff_vonmises	0.2210864699078061	12.667321633163368	0.4381415695121622	159.3458499280448	0.42746592787882653	160.04081872509803	0.15209160301792224	-0.2720916826886235	0.42418328570654573	129.1767411384763
18	7.0	ltm	79	diff_vonmises	0.09776826282091908	5.601708829964464	1.9822800802329557	0.6009742777957334	3.6628329564704383e-14	1.8844830312627388	0.008430394274672737	-0.294072763503277	0.3025031577779497	97.41530802473326
19	7.0	perception	79	diff_vonmises	-0.04546350006097394	-2.6048666753865675	0.8943902246711765	183.29091227430118	0.8735491105322144	184.06880811098824	0.4809049345956282	-0.359804738445181	0.8407096730408092	95.396853936154
20	7.0	wm	79	diff_vonmises	-0.004692132006155108	-0.2688393608709397	2.059585559567379	0.9372483216109939	0.05658546536142153	2.100568803249515	0.13865097165064627	-0.3076977283268211	0.44634869997746734	91.84790157911365
0	1.0	ltm	80	diff_vonmises	-0.1358334660490308	-7.782684321243022	6.179470948326296	0.3105063096895458	9.128743739373274e-13	4.2327788195249605	-0.3725257879417128	-0.6736663797636192	0.3011405918219064	54.80089827613614
1	1.0	perception	80	diff_vonmises	0.0797752170527474	4.5707832468625	12.786457007275487	0.7579066142844421	6.854729902458382e-16	4.110768487679745	0.41558851994575574	-0.654249124712242	1.0698376446579978	37.91938077763882
2	1.0	wm	80	diff_vonmises	-0.16068519196223024	-9.206583329685252	0.00029476711881154587	4422.60240030917	1.4818622132677078e-30	4427.024600710809	-0.496320719542382	-0.911278808581983	0.41495808903960096	179.2455806256434
3	2.0	ltm	80	diff_vonmises	0.14827936120035545	8.49578158567626	7.748390055095772	0.5536937850739646	0.1852941672561258	2.199143779645066	0.18645928015866509	-0.3686853585151596	0.5551446386738247	46.7148888949402
4	2.0	perception	80	diff_vonmises	0.022717509323625422	1.3016174052928342	6.912736600641038	1.3586576244630197	0.18911958814257204	3.1858813303053917	0.7900617091239124	-0.5213320818623328	1.3113937909862452	50.02041552778212
5	2.0	wm	80	diff_vonmises	0.08123735537294385	4.654557601674105	3.0974075042722617	0.7912016906190373	2.6857987580200773e-14	2.9031348380056023	0.06562552218741086	-0.46097169447731323	0.5265972166647241	78.05363810323396
6	3.0	ltm	80	diff_vonmises	0.15848995602165733	9.080805575254992	6.711357467668875	0.39803459761747717	0.0684804511030545	1.1556791782722344	0.2063630978453339	-0.18437147568623988	0.3907345735315738	51.61800982175265
7	3.0	perception	80	diff_vonmises	0.009490449027454852	0.5437626749571998	4.020189768631854	1.6347061832632552	0.16279551478038187	2.3449410737699283	0.8238602710394817	-0.34962852099705033	1.173488792036532	65.74016569995183
8	3.0	wm	80	diff_vonmises	6.355461535540795e-05	0.0036414112284422102	3.071942516465148	1.0648641257484628	0.3256714823820773	2.149226169645029	0.24548429899498603	-0.3005173847741801	0.5460016837691661	69.65339418565915
9	4.0	ltm	80	diff_vonmises	-0.014725378695990244	-0.8437020510120967	1.8981961137779386	1.9556707283269519	0.3835436774972773	4.2319496498159825	0.024446466766346542	-0.5039884830549148	0.5284349498212614	79.06460676343545
10	4.0	perception	80	diff_vonmises	-0.06800466392082065	-3.8963802298686043	0.9579029107998549	361.8917481933147	0.939411504666399	364.1399288226981	0.5285413385991973	-0.6900479581372139	1.2185892967364111	88.65854634800851
11	4.0	wm	80	diff_vonmises	-0.16154300236451236	-9.255732245358436	1.092346095070193	300.91907666911936	1.0745230592561235	303.3925214583367	0.12612214918497955	-0.6087891237432359	0.7349112729282155	78.50411463872805
12	5.0	ltm	80	diff_vonmises	-0.10525997727716155	-6.030952449624303	1.9784004261152028	0.9197712945243034	9.623727731586908e-17	1.9396964815823365	0.16267861006287793	-0.29969730531694094	0.46237591537981887	97.50555777237476
13	5.0	perception	80	diff_vonmises	0.012418491484598424	0.7115271499866417	1.4729173530019604	4.387138072886128	0.3977993945822647	5.606691600850129	0.6021831245840812	-0.49788346981710213	1.1000665944011834	93.87098402464815
14	5.0	wm	80	diff_vonmises	0.08587069821253827	4.920028591420025	0.564155394651136	210.46159274424988	0.5526445274688258	211.6963751414062	0.1395889154198855	-0.36420901879182566	0.5037979342117112	113.82404973331677
15	6.0	ltm	80	diff_vonmises	0.4534799285019967	25.98248599705874	0.9251484244079236	147.57062321494288	0.9133501570326994	148.29206000135943	0.09661367649167119	-0.1950621925130669	0.2916758690047381	88.14503725711558
16	6.0	perception	80	diff_vonmises	-0.19947794293670376	-11.429244236224596	0.36199173025126546	239.9863383611446	0.3513432738679003	240.97306961286702	0.24769686073046415	-0.431471653316585	0.6791685140470491	137.9372409445949
17	6.0	wm	80	diff_vonmises	0.13335361732687062	7.640599455632334	0.4489958190683007	159.1926621946336	0.43661991903306796	160.1801496913524	0.13258321726322464	-0.33021431793713774	0.4627975352003624	127.04251446607306
18	7.0	ltm	80	diff_vonmises	0.19633426988609137	11.24912503825549	3.1848780697778327	0.46710652564383176	8.515968592237802e-20	1.9099949645165268	0.01249596152133886	-0.30344310905447147	0.31593907057581033	76.94287118303552
19	7.0	perception	80	diff_vonmises	-0.030490694051517688	-1.7469880835766083	0.9228142085558153	211.5481454408968	0.9042294697045948	212.2053223603355	0.5356511116495	-0.35203943391673675	0.8876905455662367	94.62742097186614
20	7.0	wm	80	diff_vonmises	-0.060787068527525724	-3.48284247559974	2.3177969224283266	0.8627160851068535	1.7243240836666338e-17	2.303158937591369	0.11961725538029883	-0.3618422747162299	0.4814595300965287	90.32833846857494
0	1.0	ltm	81	diff_vonmises	-0.072008338232399	-4.125773870466989	1.8545919479592767	0.4483586222595129	8.748131913094522e-19	2.82980566450774	-0.22942147802476737	-0.4449646378295348	0.21554315980476746	100.51312814971268
1	1.0	perception	81	diff_vonmises	0.04421059243281436	2.5330803561732775	12.818367961441993	0.5617313411097605	0.009599970716619851	2.884728883116769	0.3303426823833043	-0.4605120667925417	0.790854749175846	37.78514098601565
2	1.0	wm	81	diff_vonmises	0.038256933890498564	2.1919608490365725	6.273014942213534	0.3618728309172097	1.291206597798663e-19	2.9837197518520555	-0.12113387543095971	-0.4748724882579796	0.3537386128270199	54.38139806315306
3	2.0	ltm	81	diff_vonmises	0.09385232944369332	5.377342374595016	9.364769763177565	0.3896065573746496	0.1516479886116923	1.6219448056741403	0.17017503860286792	-0.27254109645994296	0.4427161350628109	43.00817728952819
4	2.0	perception	81	diff_vonmises	0.0177271416304333	1.0156903982544891	7.561283995259716	1.2013295388115879	0.2669119541987623	2.677943461228155	0.7477717932688791	-0.4522684100928555	1.2000402033617346	47.50492935567681
5	2.0	wm	81	diff_vonmises	0.08607194824730814	4.9315593690392	2.1353754301579237	1.0567601868417744	0.2068654900726076	2.4576283195222657	0.09118113206038209	-0.3283786890321003	0.4195598210924824	82.59066421581363
6	3.0	ltm	81	diff_vonmises	0.07590053677901482	4.348780420215029	3.145402708328434	0.8829745200189902	0.7115581412651258	1.4938631508825064	0.16565151279443024	-0.19508458680909682	0.36073609960352704	63.65514926255855
7	3.0	perception	81	diff_vonmises	-0.02055882806165497	-1.1779340796679527	4.673344318684358	1.615932253373111	0.24006679246136198	2.220771172083034	0.9085400771594485	-0.33681188936343304	1.2453519665228816	60.55059067266188
8	3.0	wm	81	diff_vonmises	-0.0683414638163608	-3.9156774424235024	1.2913361371471368	175.3679346593983	1.2759816626946168	176.13032082738113	0.1911377001207626	-0.24227684174848818	0.43341454186925077	75.82354971395978
9	4.0	ltm	81	diff_vonmises	-0.046205213538351	-2.647363727248245	1.1468426258732243	138.10766697338002	1.1251789635790952	139.63600266439374	-0.0005977553231346633	-0.3580054904030696	0.35740773507993495	74.52088599285355
10	4.0	perception	81	diff_vonmises	-0.04510152877634046	-2.5841272484721407	3.208132616126675	1.8081744096205552	0.1262609687782431	3.6922005253914976	0.5660098670192429	-0.5448068118928877	1.1108166789121308	72.73909599572582
11	4.0	wm	81	diff_vonmises	-0.007045027176605394	-0.40365032377445553	1.088914142681806	259.5588691287396	1.0755984672218486	261.3784542651532	0.0007011736045257067	-0.4208587457440416	0.4215599193485673	76.45862770994441
12	5.0	ltm	81	diff_vonmises	-0.0872239198814043	-4.997562481791698	1.9880164506483107	0.9201075550215309	3.2728091425926424e-19	1.889127984689247	0.17228439332844775	-0.29179158444922804	0.4640759777776758	97.2872231324868
13	5.0	perception	81	diff_vonmises	-0.05592738155560691	-3.2044029223540806	1.5380792242174268	3.0899860505329957	0.28544419159965767	4.182264505802319	0.491172270662645	-0.43468094598576457	0.9258532166484096	95.87181682001219
14	5.0	wm	81	diff_vonmises	0.06347849314793493	3.6370497472267864	0.4781208161327274	136.50426904850707	0.46442753183176355	137.51856444800347	0.10416538187200075	-0.3123135485986026	0.41647893047060336	123.16623011686467
15	6.0	ltm	81	diff_vonmises	0.3000218406523634	17.189985231126933	0.708358724441088	155.13862649507217	0.697564537696918	156.00150862619404	0.07408116002578424	-0.22474126759060375	0.298822427616388	99.95946726095451
16	6.0	perception	81	diff_vonmises	-0.16855090042008994	-9.657255227200968	0.7304788883863491	279.14076608897534	0.7198191058599743	280.14740539364334	0.2774188235741235	-0.34654929051959016	0.6239681140937137	102.52171808022133
17	6.0	wm	81	diff_vonmises	0.10182587938572252	5.8341931340100714	0.30245575888877063	132.31857544639735	0.2891491977217567	133.35181712521992	0.0995813516103361	-0.35444460111813747	0.45402595272847357	143.929787471954
18	7.0	ltm	81	diff_vonmises	0.013227582452888484	0.7578846477118152	0.9643185974042126	114.51683993991507	0.9423688120854803	115.8755863493503	0.027782111438668267	-0.31471505564562285	0.3424971670842911	82.67837468574461
19	7.0	perception	81	diff_vonmises	-0.06458680882189519	-3.700551557712907	1.3779883119871326	4.097076502159209	0.36427579580486813	5.068940408819838	0.5623979196631004	-0.4429466679184776	1.005344587581578	97.80282469270564
20	7.0	wm	81	diff_vonmises	-0.16682571542560098	-9.55840940813745	0.9101661069871856	165.81892983837244	0.8961740132260798	167.04080775008035	0.04836343507064811	-0.28938476743071817	0.3377482025013663	85.92441508571936
0	1.0	ltm	82	diff_vonmises	0.5110119348867492	29.278827149824764	0.00040963254591684965	1900.5740666498039	4.3002524203048484e-27	1900.5779846161815	0.12329566684030624	-0.12451741709753605	0.2478130839378423	172.15776870452228
1	1.0	perception	82	diff_vonmises	-0.06082515443927543	-3.485024637601905	13.588335347147622	0.6361375955075605	2.3789969438250953e-39	0.6077812671829771	0.8294112771312542	-0.09673139298936652	0.9261426701206207	36.77384126527244
2	1.0	wm	82	diff_vonmises	-0.05820775683987542	-3.3350588018486116	12.497339939754951	0.3639441211736981	4.022187172374668	0.23746374982230853	0.32472433038697424	-0.04468186139399566	0.3694061917809699	34.075960729885566
3	2.0	ltm	82	diff_vonmises	0.3011294681298503	17.253447610859652	4.240765154117551	22.089544435996693	4.137860696751891	22.08679655669808	0.23435967574820538	-0.09097985903743666	0.32533953478564204	44.9128343518814
4	2.0	perception	82	diff_vonmises	-0.04394452050302271	-2.5178355575493145	9.00048515417646	0.9363790553221922	0.22673844418427863	0.5138916573417336	1.002634304849643	-0.08440507747577868	1.0870393823254219	44.87564191092224
5	2.0	wm	82	diff_vonmises	-0.052544768391696646	-3.0105934643366283	0.6125047625231249	54.71344086129562	0.5980785465543427	54.58586703419967	0.18330020352563814	-0.07063165460584919	0.25393185813148733	121.01136080765062
6	3.0	ltm	82	diff_vonmises	0.26816317629389547	15.364618222462859	5.8844458304566345	15.02735422824893	5.795203075688341	14.886013449668337	0.24637070469252897	-0.02518569123169212	0.2715563959242211	41.99599361700183
7	3.0	perception	82	diff_vonmises	-0.04841531965407898	-2.7739934799555104	5.630465216753488	1.0607680494386589	8.503550552470639e-13	0.6600749401276085	0.8745469239675879	-0.10504158498161724	0.9795885089492051	57.46380445644755
8	3.0	wm	82	diff_vonmises	-0.08881715866305577	-5.088848339736893	2.7575023806674133	9.5105738994577	2.6369113508654056	9.221576548195843	0.327749272495093	-0.026631007544281493	0.3543802800393745	63.199723147329394
9	4.0	ltm	82	diff_vonmises	0.28552440437995885	16.359343318958278	4.2067146461917755	67.91528772229252	4.1480105706206	68.1087037031831	0.25622452464347845	-0.19688105140408219	0.45310557604756063	42.801597330543046
10	4.0	perception	82	diff_vonmises	-0.0376905290836049	-2.159508244105643	2.547848085582814	2.153592664878741	2.3510675165410167e-20	2.9324161985690513	0.8167178402474367	-0.4588499038391445	1.2755677440865811	86.1709519224421
11	4.0	wm	82	diff_vonmises	-0.09133579226567252	-5.233155415306663	1.6914273938687405	190.98088230987275	1.6739010087370751	191.5885627045139	0.28119315408119405	-0.2512311236413751	0.5324242777225692	67.35597375144295
12	5.0	ltm	82	diff_vonmises	0.03817423851214961	2.1872227528719397	1.9949472168543592	0.693091625869623	3.249986111138714e-14	0.3198646567398661	0.3060976665377206	-0.044302699757894096	0.35040036629561466	97.133612636045
13	5.0	perception	82	diff_vonmises	-0.007973051505838545	-0.45682220112497424	1.8830174881708626	1.7841486178046766	1.3638478412239034e-15	1.426241292399067	0.6603659571069949	-0.20645416294607863	0.8668201200530735	99.81862266908885
14	5.0	wm	82	diff_vonmises	0.2319460766050201	13.289531264085733	3.7890676781484043	0.46011723742560695	5.62226750592627e-35	0.09746503164815974	0.3278907906361468	-0.015336369169355775	0.34322715980550256	70.39016928106403
15	6.0	ltm	82	diff_vonmises	0.3305881777884453	18.94130734419842	1.4205827880628739	33.84127883502274	1.4021013263285063	33.61098204938974	0.20715350563292034	-0.022054741448420234	0.22920824708134058	86.75223056658047
16	6.0	perception	82	diff_vonmises	-0.2863882715905819	-16.408839264186717	0.9202183360015649	76.2864931685869	0.9002466930774555	76.20677200941844	0.3157378516469471	-0.11172675220106676	0.4274646038480139	99.5089019128991
17	6.0	wm	82	diff_vonmises	-0.1972865221307307	-11.303685072905182	0.4605022653163787	83.43943165409266	0.4467273019753471	83.14469094034047	0.2829373298097053	-0.10632796785751708	0.3892652976672224	133.72701422957067
18	7.0	ltm	82	diff_vonmises	0.021348173906451436	1.2231602651509788	0.7974230316499076	23.27578858141653	0.7473930347869825	23.33679398538503	0.2044448437170896	-0.10524443223132551	0.3096892759484151	105.44937616401037
19	7.0	perception	82	diff_vonmises	-0.11432371034052387	-6.5502661007881455	1.2058490938877657	87.11749905321419	1.164451638341125	87.08027942687485	0.6814291886625128	-0.2323128003170991	0.9137419889796119	86.79388613597612
20	7.0	wm	82	diff_vonmises	0.5370990753133396	30.7735101958335	130.4818022743313	0.4493008624058116	1.1237117960483119e-43	0.3963475412260178	1.9803593194636846	-0.0630806703684395	2.043439989832124	11.8365281321706
0	1.0	ltm	83	diff_vonmises	-0.2510797286995577	-14.385808775774386	0.0004583712385109342	1109.5767272831984	3.438750527190133e-26	1111.9792036592894	-0.30141265737753997	-0.4633007745030966	0.16188811712555662	178.17918708704036
1	1.0	perception	83	diff_vonmises	0.07218243528797814	4.135748896977328	10.100953761041133	0.6783287055401863	1.365679719166138e-12	3.15301072733727	0.3470618072578362	-0.5018172414469536	0.8488790487047898	42.7037438123551
2	1.0	wm	83	diff_vonmises	0.12151416132785875	6.962248595158109	14.367535044791367	0.2785292519163759	6.116625782246399e-31	2.781138572498905	-0.025234322590567293	-0.4426319512365999	0.4173976286460326	35.74212169846072
3	2.0	ltm	83	diff_vonmises	0.006323343057247575	0.36230086959363694	9.145369147649681	0.2801503951600676	9.625205124237259e-29	1.7875931109843075	0.04855126464017162	-0.2845042760560717	0.3330555406962433	44.90974528225962
4	2.0	perception	83	diff_vonmises	0.012801483351225093	0.7334709675321871	10.559245700632028	1.1379309809227562	0.13370121725089598	2.7299818582417177	0.9623005091490988	-0.45521439611576503	1.417514905264864	41.11531049234864
5	2.0	wm	83	diff_vonmises	0.08188445229802235	4.6916335244169955	2.038217714998463	0.8424978276814216	1.5728195240725223e-21	2.1920575180880224	0.0907396638270015	-0.3414170070414753	0.4321566708684768	96.13822409075053
6	3.0	ltm	83	diff_vonmises	0.10693936597380367	6.127174334103874	6.063785148277467	0.3827069807082027	0.13530672046536488	0.9229958478499103	0.20009418935912457	-0.1474049873276261	0.3474991766867507	53.659355811567224
7	3.0	perception	83	diff_vonmises	0.022653034664548648	1.29792327944219	4.396281535567066	1.716672211053353	0.37899240562396824	2.0994963066241104	0.9181826931188901	-0.30844581168376056	1.2266285048026506	61.309439659239416
8	3.0	wm	83	diff_vonmises	-0.10405750482874325	-5.962055853349172	1.420168975399526	107.66183000950527	1.4012607581446803	107.94436715575098	0.24512734046643914	-0.14776290098638079	0.3928902414528199	75.8261475043717
9	4.0	ltm	83	diff_vonmises	0.09326758656972389	5.343839075816218	2.1981076261145414	1.9436787023229736	0.772216123906882	3.519422139869675	0.011333420397423355	-0.3842690075026457	0.39560242790006905	66.90283297036197
10	4.0	perception	83	diff_vonmises	-0.06871266224297326	-3.9369455456302926	4.5148944646516105	1.3974258014545355	0.006912181116793942	3.2680671736573137	0.6235642738967788	-0.5171348802698927	1.1406991541666716	64.11219246037757
11	4.0	wm	83	diff_vonmises	-0.07561041883492992	-4.332157886457951	1.1788682213389567	246.61646793215522	1.1651792736262334	248.00418879693416	0.10892588139144266	-0.35924979876304874	0.4681756801544914	76.17967901244657
12	5.0	ltm	83	diff_vonmises	-0.14518709536610075	-8.318607804240965	1.9294512436483229	0.8445634382291825	4.902869183061992e-22	2.041118091059285	0.10146202196392651	-0.31586200784083973	0.41732402980476624	98.6499411160353
13	5.0	perception	83	diff_vonmises	-0.04611150926372288	-2.641994867789719	0.8606113497597697	119.35114152264563	0.8237934892329158	120.31138424626599	0.5426749181388146	-0.43082965875071366	0.9735045768895283	97.47600649689244
14	5.0	wm	83	diff_vonmises	0.01158017428430625	0.6634951125166768	0.6400275522805253	130.78424786511025	0.6260722768379623	131.6027140458122	0.12504862447476484	-0.24666866887972105	0.3717172933544859	107.639926008247
15	6.0	ltm	83	diff_vonmises	0.2150420794699335	12.321003571344036	0.9039721689129432	146.94478882842105	0.8915916948341996	147.85648204853297	0.05375360917173566	-0.22201777292449876	0.2757713820962344	86.9648035510923
16	6.0	perception	83	diff_vonmises	-0.22091708444833966	-12.657616561225057	0.6754889765945008	220.22986201543455	0.6644644185160221	221.0219546036247	0.24200514803661122	-0.2932166092451638	0.535221757281775	107.1773365079193
17	6.0	wm	83	diff_vonmises	-0.13792776804883888	-7.9026789868578335	0.6900327018338286	161.60166125031517	0.6773723672527671	162.48850163637408	0.141119483450602	-0.26287877986145247	0.40399826331205446	103.54922148562028
18	7.0	ltm	83	diff_vonmises	0.07189688426932003	4.1193880287725575	1.1312128184938952	121.84424289626884	1.1101248879711607	123.0261022723817	0.05149631023827084	-0.29046852052793604	0.3419648307662069	76.86232657173966
19	7.0	perception	83	diff_vonmises	-0.12328943771755009	-7.063964439756646	2.0739530517381963	2.1128260422018394	1.2333704878457529e-14	2.623576430881759	0.6965650098068166	-0.3999548431426401	1.0965198529494566	95.33293429239845
20	7.0	wm	83	diff_vonmises	-0.24329208759797044	-13.939609808290825	0.9870056637574071	63.300619713046295	0.957082614728477	64.00533695588533	0.12405708701680851	-0.2008984309098576	0.3249555179266661	86.51395846120262
0	1.0	ltm	84	diff_vonmises	0.03460442463033655	1.9826874837968382	5.45507221422135	0.354215784422935	4.8339675704212464e-27	1.9018742509460052	0.01900592563013792	-0.30268681011902554	0.32169273574916346	58.39861691559244
1	1.0	perception	84	diff_vonmises	0.007318127381563214	0.41929781290269635	16.50068754555433	0.5207754907649331	2.90654498728959e-18	2.1222370926974587	0.49923091330543945	-0.3377645237157696	0.836995437021209	33.34623673789139
2	1.0	wm	84	diff_vonmises	0.021770974123694026	1.2473849331761935	5.0699263771870555	0.39911028459634124	2.2404254060073923e-26	2.165360023020476	0.004009120557508072	-0.34461398763023804	0.3486231081877461	60.62828000758441
3	2.0	ltm	84	diff_vonmises	0.17868261176754532	10.237759526654965	6.769506988464862	0.548190989720608	0.5427154074408866	1.208665436897621	0.24974504867312874	-0.21582799854896675	0.46557304722209547	47.98144838453865
4	2.0	perception	84	diff_vonmises	0.0050870835545849605	0.291468417708127	6.35647513283998	1.1880581151046308	0.40112729950649534	2.0087078988697007	0.7105534832367169	-0.335077815003175	1.0456312982398919	51.04499694459335
5	2.0	wm	84	diff_vonmises	0.10960402180398462	6.27984786702817	0.9872559240478234	62.36783351956932	0.9503353666547547	63.2367005899234	0.1479610713034063	-0.2459342078542699	0.3938952791576762	86.55293669930106
6	3.0	ltm	84	diff_vonmises	0.0799829173666047	4.582683598250067	1.9702790803046466	124.45789829890958	1.9501774161143464	124.85860903554244	0.19018999468021747	-0.17897333333389653	0.369163328014114	62.069377270211646
7	3.0	perception	84	diff_vonmises	-0.04258113529543409	-2.4397193393039194	4.763734314465094	1.47750359155886	0.21080362109794404	1.8318173106217492	0.8923231675074309	-0.2778802823195417	1.1702034498269727	60.46535683461926
8	3.0	wm	84	diff_vonmises	-0.036860635711714516	-2.1119588564504435	1.623933628540984	3.982438260453539	1.019973186035743	4.627224299265596	0.2115716950294131	-0.21974410975188524	0.43131580478129833	75.82475716625873
9	4.0	ltm	84	diff_vonmises	-0.022561053173409448	-1.292653128206594	1.4677757298764278	170.6292494412671	1.4511275253979052	171.5797192761584	0.09753947843934441	-0.27203538817537876	0.36957486661472316	68.40078363969002
10	4.0	perception	84	diff_vonmises	-0.023174746676903783	-1.3278151758714163	3.3007108686849715	1.6581794597248638	2.2607022375288406e-15	3.1266338705246515	0.6486453133593663	-0.49606194122205455	1.1447072545814208	75.55715419665981
11	4.0	wm	84	diff_vonmises	0.017270582049592434	0.9895314611760455	1.257901581963077	272.3286005739764	1.244417063874378	273.8318845973488	0.09073738694137035	-0.3885998555734105	0.4793372425147808	73.07508032237803
12	5.0	ltm	84	diff_vonmises	-0.07710559353370199	-4.417825086332335	1.681428140384838	0.9640745277821157	4.88262984306215e-20	1.5001364184686543	0.20882463146349078	-0.22325031858545244	0.43207495004894325	105.09805830265702
13	5.0	perception	84	diff_vonmises	-0.04648276940640259	-2.6632665070666914	1.9997773715076042	1.867902517589856	0.04108457912131131	2.686678485936775	0.5181820828889034	-0.39255696346568436	0.9107390463545878	95.21863665013214
14	5.0	wm	84	diff_vonmises	0.25484293935663965	14.601424863843835	1.1129705683350588	1.1844131401891136	2.3002857243501896e-21	1.8577730511611843	0.1342116733354241	-0.24925835632618332	0.3834700296616074	123.54767773790687
15	6.0	ltm	84	diff_vonmises	0.3025388348109989	17.33419837347583	0.7800239162669039	112.50349225759945	0.7673584463792598	113.02225230747848	0.11780918335360724	-0.1637648050569318	0.28157398841053904	98.42027116379879
16	6.0	perception	84	diff_vonmises	-0.18876102449761994	-10.815210040279164	0.767322486533031	210.50458070656134	0.7528423404363483	211.37556035235838	0.3253593764906668	-0.33289957137073145	0.6582589478613983	101.21375433485238
17	6.0	wm	84	diff_vonmises	0.07354667020728185	4.213913800117802	0.34370771236545333	80.20878701130235	0.32161537359204145	80.95131655208375	0.16100399237818408	-0.3125124830201109	0.473516475398295	140.72922318758407
18	7.0	ltm	84	diff_vonmises	-0.08264111423655084	-4.734987060012865	2.1287124078300423	0.7036117270568951	8.305979439314053e-15	1.7436557355758175	0.09936617389325964	-0.27217508309278293	0.37154125698604257	94.15465990078198
19	7.0	perception	84	diff_vonmises	-0.009178540870578423	-0.525891653972476	0.9250511491625888	222.6887076617539	0.9038029310620159	223.79785074794236	0.5417136752351297	-0.45060980235035686	0.9923234775854866	93.00815917403733
20	7.0	wm	84	diff_vonmises	0.11063630681630868	6.338993441488949	1.003212055241275	130.98418795370242	0.984345679834036	132.17161059593099	0.0654809083779	-0.28973434951514854	0.35521525789304853	82.30409336340739
0	1.0	ltm	85	diff_vonmises	0.03526933278458719	2.0207839147992335	4.706675512884697	0.40586330661152087	0.024602359125890122	2.6622521352991813	-0.09345135758188944	-0.42070308266819534	0.3272517250863059	61.554233735819594
1	1.0	perception	85	diff_vonmises	0.013073915366005795	0.749080172183367	16.733250972818038	0.5667270813368899	2.0831162769493973e-12	2.6776878552321257	0.49143957443226005	-0.42616725821654583	0.9176068326488058	33.1062825788685
2	1.0	wm	85	diff_vonmises	0.04495228917303626	2.5755764490666033	5.216297042453015	0.4717036110047443	0.062408482533645594	2.8766299517888183	-0.06854393937220893	-0.4567501871669623	0.3882062477947534	57.38813648928041
3	2.0	ltm	85	diff_vonmises	0.06101955020932357	3.4961626947808595	2.2290989115599125	1.822094125933125	0.7159827611940077	2.9964393336803457	0.1414594135230287	-0.31806218236567124	0.45952159588869995	70.3402879589074
4	2.0	perception	85	diff_vonmises	0.016144428120512005	0.925007593957662	4.870973800624736	1.4471743059544007	0.3994279336528475	2.758012812755076	0.6083847243003275	-0.43481443615261717	1.0431991604529447	56.972751645837945
5	2.0	wm	85	diff_vonmises	0.10338056529686103	5.9232700751867595	3.8545117984675716	0.6111819733779177	0.03003063839299782	1.7127561303384204	0.1796382892254827	-0.26718986225959346	0.44682815148507615	68.59304953730194
6	3.0	ltm	85	diff_vonmises	0.03765023748289955	2.1571997054354	4.082138148238526	0.6916292705932967	0.24411647586654675	1.527670828585458	0.23189303915681064	-0.23186998100513698	0.4637630201619476	62.93220275488471
7	3.0	perception	85	diff_vonmises	-0.052284817146842605	-2.9956993551273197	5.994536787005852	1.2187203974895868	7.200709722268107e-13	1.8289236742882504	0.8722170816655438	-0.29107501721674534	1.1632920988822892	55.65368354445121
8	3.0	wm	85	diff_vonmises	-0.04855676353320647	-2.782097617267474	1.3180286618835733	152.1915371163001	1.2978599044618406	152.94416281798544	0.25832607760106896	-0.2621633868824844	0.5204894644835534	76.10081435055886
9	4.0	ltm	85	diff_vonmises	-0.1691415168227424	-9.691095054384153	1.0834765802690152	25.197082627712433	0.9614214948987616	26.627714678331696	0.10206870241087529	-0.3576686574900476	0.4597373599009229	81.65967563323144
10	4.0	perception	85	diff_vonmises	0.029244124889384954	1.6755649317152432	2.7311391521258184	1.7632904118259771	1.1029816363484383e-20	3.9337308911407365	0.46810757119912416	-0.6214287441341486	1.0895363153332727	83.21076100732506
11	4.0	wm	85	diff_vonmises	-0.013095154960676909	-0.7502971113165904	1.0979068556318836	242.71183246727696	1.0818105157170652	244.53370784195965	0.08166758656186346	-0.44559210330992727	0.5272596898717907	78.04100128261368
12	5.0	ltm	85	diff_vonmises	-0.02051636264587804	-1.1755009905686664	1.758408979046731	1.2883207640822347	9.26366754323767e-20	1.8321030412106019	0.323072597560866	-0.2733363550312522	0.5964089525921181	103.01133251626011
13	5.0	perception	85	diff_vonmises	-0.053432522047930225	-3.06145800208612	2.178966555445209	1.7655972960046156	2.038793414790075e-20	2.6844293413964566	0.5318227492967538	-0.4149595336451449	0.9467822829418986	93.09839473568456
14	5.0	wm	85	diff_vonmises	0.06639309996753334	3.8040444169298233	0.4922677447583207	164.81469952963306	0.4796870039863576	165.340980491268	0.2588147116815591	-0.2857096451476693	0.5445243568292284	125.84923042871934
15	6.0	ltm	85	diff_vonmises	0.1347921848214896	7.72302330161871	2.0813085079207863	0.7475034339355466	1.0679871878272915e-13	1.0055240915581405	0.23496622936114103	-0.153884952298005	0.388851181659146	95.16256152223514
16	6.0	perception	85	diff_vonmises	-0.21891725644490287	-12.543034856876055	1.4666184219929481	1.3582742865534168	3.9191108945960533e-16	2.0380773867845665	0.2559840663155524	-0.29347816070177624	0.5494622270173286	111.34414560226028
17	6.0	wm	85	diff_vonmises	0.27304399551530517	15.644268564415963	0.4830407893869764	114.93697562458942	0.4709433803271433	115.03794869795655	0.23453460750785382	-0.16947514932856755	0.4040097568364214	128.43362738858767
18	7.0	ltm	85	diff_vonmises	-0.03741720616241088	-2.143847994277039	0.48866533070021634	110.51782903699439	0.4697425364965208	111.7159202630964	0.10070201564862913	-0.3530494950963998	0.45375151074502895	121.73683505555529
19	7.0	perception	85	diff_vonmises	-0.07078703685888862	-4.055798456251314	0.9652653937056558	212.83196722370192	0.9424179663575684	213.9468956392965	0.5543902693007965	-0.4520193256012277	1.0064095949020242	91.07739812498306
20	7.0	wm	85	diff_vonmises	0.0541034046500067	3.099896743733857	1.0445488608005096	182.0195250343927	1.0293273469012978	182.9893687260735	0.18554926929886761	-0.2817414680330721	0.4672907373319397	83.91054875600472
0	1.0	ltm	86	diff_vonmises	0.29365182698297804	16.82501033243051	0.00044017802085429605	2252.899216771775	7.064426918183341e-28	2255.3693798481436	-0.23529178278647578	-0.5509508088529174	0.3156590260664416	177.2254484932402
1	1.0	perception	86	diff_vonmises	0.03738108083357845	2.1417781654014187	11.807568839172008	0.6271946684290792	3.237819153705919e-28	2.796223577410324	0.40525253124434474	-0.44503280428778547	0.8502853355321303	39.46377208085568
2	1.0	wm	86	diff_vonmises	-0.39703704936280515	-22.748547238816066	0.00025557517565462465	4344.320815499898	1.1914667992217016e-29	4346.859796314324	-0.22737193779539666	-0.5807881758154281	0.3534162380200314	175.52880750328535
3	2.0	ltm	86	diff_vonmises	0.14413254275639506	8.258186390430321	8.92487435206763	0.42562944868958436	0.13036346855263442	1.907821296434952	0.1552716901099656	-0.31705426156814415	0.47232595167810976	44.08715856574722
4	2.0	perception	86	diff_vonmises	0.03022698147663961	1.7318784660315667	5.833797327734998	1.323112190505065	0.22527698263030738	2.794935280936251	0.6947073850024855	-0.4491797362304833	1.1438871212329689	53.97368173051865
5	2.0	wm	86	diff_vonmises	0.08812687636465061	5.0492980773656875	2.5960391777763685	0.7039417816281223	2.954837811774678e-12	2.1277418959226964	0.08549760053331057	-0.3362822413369639	0.42177984187027445	85.36022315340784
6	3.0	ltm	86	diff_vonmises	0.16981613827469746	9.729748016350166	7.827867727876374	0.3274216822038928	2.8156432403106997e-43	1.2331646462761654	0.16294519441957123	-0.19626419205519585	0.3592093864747671	48.59206531773961
7	3.0	perception	86	diff_vonmises	-0.009481854967945538	-0.5432702716184318	4.836636993966525	1.4382845210402828	2.1790828234210888e-15	2.156739232480116	0.8818218669377186	-0.3431785755080184	1.225000442445737	62.11422654021766
8	3.0	wm	86	diff_vonmises	-0.03630335226556647	-2.080028866993654	2.400167704816861	1.420610810372653	0.48728893499685305	2.3321235605290282	0.24749270036272097	-0.2760167646282169	0.5235094649909379	74.34838532464741
9	4.0	ltm	86	diff_vonmises	0.1286203232878615	7.36940168400268	5.7294602909629	0.47220173574090674	0.12352597389452158	2.31948229422312	0.023963183095819574	-0.3736638495560086	0.3976270326518282	54.005013553881554
10	4.0	perception	86	diff_vonmises	0.017842763701329784	1.0223150549354199	1.2175466219418567	7.9759056609636785	0.5493884789311079	10.362225418752168	0.3970234498579117	-0.6746959903616706	1.0717194402195824	91.83574573501025
11	4.0	wm	86	diff_vonmises	-0.09062249712881998	-5.192286614417806	1.1639089927334028	333.9999035439539	1.149546774979617	336.16377623727726	0.09141966474462038	-0.5353515205516075	0.6267711852962279	75.54765762746726
12	5.0	ltm	86	diff_vonmises	-0.006240908950119185	-0.3575777431672509	1.4768158784354335	1.2364058440312198	7.2748030174585045e-12	1.875176486929047	0.2320673462093102	-0.27077588768231187	0.502843233891622	111.18889450530742
13	5.0	perception	86	diff_vonmises	-0.0031986149873352485	-0.183267139061601	2.140292035992027	1.8613358274010974	1.1528947865923146e-15	2.6542975012800682	0.5778131988471686	-0.4086061193109374	0.986419318158106	93.91366155549787
14	5.0	wm	86	diff_vonmises	0.11703141827854174	6.70540633779064	0.5927060600254611	184.90445517985265	0.5811295381121597	185.59195387131308	0.2244845340549162	-0.27946086673398796	0.5039454007889042	114.86265580567556
15	6.0	ltm	86	diff_vonmises	0.46374638068787394	26.570710377882364	0.8576003780122012	135.0700601799708	0.8454779442782873	135.5044994125898	0.17672086053058678	-0.1657396150861743	0.3424604756167611	95.81077750034967
16	6.0	perception	86	diff_vonmises	-0.17662019515448193	-10.119591759128769	0.590664182315066	146.55552235703382	0.5753029778373826	147.13402878924168	0.27443366727246854	-0.28329070455579775	0.5577243718282663	116.43277585279125
17	6.0	wm	86	diff_vonmises	0.04415368576018956	2.529819844005744	0.45194705160217186	154.85444696480093	0.44114971056265023	155.36204797305473	0.189948423312849	-0.24692951526501972	0.4368779385778687	129.26842463120167
18	7.0	ltm	86	diff_vonmises	0.13922599753142614	7.977062057049536	1.3176739253818777	1.071146775688781	3.762065926076231e-15	2.326071948962842	0.05897355070610866	-0.33943624304267983	0.3984097937487885	116.35017690793458
19	7.0	perception	86	diff_vonmises	-0.07802392184963747	-4.470441423042795	1.0623102504449298	221.84840824920715	1.0418594265251198	222.25920439585883	0.7103149188754827	-0.34951633864028153	1.0598312575157642	89.76683629554557
20	7.0	wm	86	diff_vonmises	-0.0484455278238281	-2.7757242805889497	0.8391195368797745	88.82681275672786	0.8095770462868954	90.05109655621001	0.12701020144912434	-0.3196685657534548	0.44667876720257915	92.49239287040584
0	1.0	ltm	87	diff_vonmises	-0.06662471723010202	-3.817315108537382	2.563242375248249	0.5759259182049162	1.1182373881832953e-27	3.9170335772692115	-0.2789826196920488	-0.6213701700860942	0.3423875503940454	85.90998403326597
1	1.0	perception	87	diff_vonmises	0.12612949912237623	7.226687971811178	6.372179798903491	0.8529701050347397	0.21934459016015942	4.113614040445644	0.035116061657977204	-0.6887427750241809	0.7238588366821581	50.04209121074197
2	1.0	wm	87	diff_vonmises	-0.015262802306483482	-0.8744941557040419	3.0962584201929615	0.719984835178502	0.05382605802595997	4.377201457822226	-0.2545468051630795	-0.6770112378724111	0.42246443270933165	73.10602439909945
3	2.0	ltm	87	diff_vonmises	0.1060856742452794	6.078261401054204	8.33249970830448	0.4929793877098301	0.06981731594534628	2.0830109638680465	0.2036086056540225	-0.33684658735990675	0.5404551930139292	46.19712699480394
4	2.0	perception	87	diff_vonmises	0.0679174689946484	3.8913843286039795	4.164878513295915	1.7775420239863724	0.4553459506105979	3.9195988524127983	0.4625383092847928	-0.6037754467465573	1.06631375603135	59.30117162183825
5	2.0	wm	87	diff_vonmises	0.13678030745062306	7.83693433742251	1.6217313109869549	2.3153163998794857	0.41901564116874496	4.157574236111867	0.08821259029935236	-0.43244991984398884	0.5206625101433412	84.08710837663645
6	3.0	ltm	87	diff_vonmises	-0.00795890577045305	-0.4560117101892766	2.5825606271278336	1.5455321504090542	0.6573746756888943	2.8574227349991053	0.1384131391802873	-0.34924449657877693	0.48765763575906423	67.33137440913438
7	3.0	perception	87	diff_vonmises	-0.000376875772670852	-0.021593391174771673	3.4058017298278918	2.7070612117900685	0.43025033048942496	4.208590685118478	0.9206832547291336	-0.5792794188584962	1.4999626735876297	66.68349831619321
8	3.0	wm	87	diff_vonmises	0.06539383248495076	3.746790607573179	1.2850663648458651	3.1052515947180725	0.4136193006708351	4.947168012094657	0.08440055856197048	-0.43687913378019916	0.5212796923421696	91.56673778171486
9	4.0	ltm	87	diff_vonmises	-0.060366858120730525	-3.458766192782899	0.879432089232709	141.65927630806385	0.8542208689079845	143.8960722441901	-0.021251362058876566	-0.49120571323830475	0.4699543511794282	85.26499146881147
10	4.0	perception	87	diff_vonmises	0.0018538046064124818	0.10621517998934592	1.1000960040549046	286.709592583574	1.0773912517306068	289.13401445070167	0.3565685226626272	-0.670822788019624	1.0273913106822512	80.93073994372045
11	4.0	wm	87	diff_vonmises	0.169528324222133	9.713257485853665	1.9578005624748365	1.3386599673442199	0.20958797865190315	3.9859532900255212	-0.09205472181335139	-0.5366598534950076	0.44460513168165616	82.28782411302561
12	5.0	ltm	87	diff_vonmises	-0.07923217242717627	-4.539669081730012	1.3768020628946673	1.4507704605815541	5.714966624539346e-17	2.9904478099779976	0.12077545463135886	-0.4379313784109729	0.5587068330423317	114.42174003277853
13	5.0	perception	87	diff_vonmises	-0.05991792215675711	-3.4330440567755858	1.655037090970727	2.773097897124685	0.19843370852740874	4.730250059221659	0.3659792217573056	-0.5723204705125106	0.9382996922698161	94.43656864653624
14	5.0	wm	87	diff_vonmises	0.24567494016129154	14.076137203371054	0.2104919243314825	51.34453785593125	0.17284616486336715	53.21753909706153	-0.01772093302762734	-0.5245761896492462	0.5068552566216189	154.88811915231435
15	6.0	ltm	87	diff_vonmises	0.4257322658387722	24.392662035103243	0.4028089033710804	215.50116900601304	0.39287987648695255	217.260961667488	-0.006956143680575622	-0.44488401626960794	0.4379278725890323	127.2201469342236
16	6.0	perception	87	diff_vonmises	-0.027902747483848855	-1.5987096676438166	0.7105653082490221	314.96790982429417	0.69757243416093	317.0966122417995	0.1753606535363872	-0.5509404696774851	0.7263011232138723	99.75705375424201
17	6.0	wm	87	diff_vonmises	0.23824560296910094	13.650467537678958	0.33579019420822814	177.66225213767413	0.32276880363938987	179.69696362030706	-0.018535826678430567	-0.5282521412890553	0.5097163146106247	136.72937628419837
18	7.0	ltm	87	diff_vonmises	-0.07903428679650248	-4.52833107026612	2.2964018472921843	0.7822084310268138	9.92550718402562e-15	3.2378354324065253	-0.07693246815358112	-0.5108784233084774	0.4339459551548963	90.73831834915373
19	7.0	perception	87	diff_vonmises	0.06372273747393459	3.6510439162765844	0.7863658460421188	232.41669309317587	0.7615732963120986	234.45460483292666	0.4964661527583303	-0.6578318503936735	1.1542980031520038	98.67149358750132
20	7.0	wm	87	diff_vonmises	-0.09669559501530613	-5.540249491883282	1.0628419085695104	360.5500937714632	1.0494360352654062	362.8124543865026	0.11520097611317226	-0.5540691857967204	0.6692701619098926	79.56574799615379
0	1.0	ltm	88	diff_vonmises	-0.5211387958917393	-29.859053545126304	0.00014269070391402877	3535.3300238272122	1.309019788325539e-30	3537.4401613225364	-0.25554909161553496	-0.41612280631102294	0.16057371469548798	172.38143014595857
1	1.0	perception	88	diff_vonmises	0.022992668562071827	1.317382868349847	10.621720372753682	0.5689441252906532	0.08909531914290156	2.8757096624879765	0.2311707142025931	-0.4739986243470146	0.7051693385496077	40.815546404824886
2	1.0	wm	88	diff_vonmises	-0.019915967006391103	-1.1411008543880068	4.646291225385875	0.5585827965362198	0.22593849422855533	2.905477216915667	-0.10659543383332376	-0.4714584666436767	0.3648630328103529	56.43374886897209
3	2.0	ltm	88	diff_vonmises	-0.030374587996978092	-1.7403356966755736	11.101390067165376	0.30688355535627776	0.013702053391838429	1.564076591315047	0.15072421955862741	-0.24981948852792057	0.400543708086548	40.55892120289724
4	2.0	perception	88	diff_vonmises	0.005410667186124153	0.310008394114839	8.096090496762404	1.1466699523195236	0.28702159807836447	2.775553698448989	0.7034495145089523	-0.47774875845080933	1.1811982729597617	45.78893267651512
5	2.0	wm	88	diff_vonmises	0.07922823033332123	4.539443216389674	2.5485390044186693	0.815435652080724	0.15124310123241583	2.104056126179923	0.09866971771996513	-0.3005411102193275	0.39921082793929263	78.53065950862407
6	3.0	ltm	88	diff_vonmises	-0.06166073048127146	-3.5328996182705237	3.320182369459404	0.8135969917362509	0.5480865237832738	1.383800270319195	0.21033856896114744	-0.18871744517766204	0.3990560141388095	64.97488889781818
7	3.0	perception	88	diff_vonmises	-0.02264074122653222	-1.297218917328143	4.66631484258405	1.8946250674187815	0.4098890617622548	2.5983129745626345	0.9855454432918531	-0.3927105038448923	1.3782559471367455	59.09227142095955
8	3.0	wm	88	diff_vonmises	-0.18165140890742568	-10.407859073000619	1.4012428442002003	208.30068748244153	1.3893285520990817	208.9373289687208	0.18001580987338173	-0.21294397146480293	0.39295978133818465	72.9130436654832
9	4.0	ltm	88	diff_vonmises	-0.13732060260392748	-7.867890969398227	1.2441102411846243	181.03561100942628	1.227548464365268	182.36131111521556	0.04145833978023461	-0.33061434252580923	0.37207268230604384	72.59140154055518
10	4.0	perception	88	diff_vonmises	-0.06196451749664607	-3.550305332122365	4.785571512960597	1.3897663258552053	0.06179908228673872	3.138578631636599	0.646200575127601	-0.4898841070055319	1.136084682133133	61.20809212143817
11	4.0	wm	88	diff_vonmises	0.07928140466812397	4.542489881352287	0.9362858326629834	169.43043560435467	0.9220332854145076	170.96131700021763	-0.041296442129386435	-0.33082777885207904	0.2895313367226926	81.12143140011091
12	5.0	ltm	88	diff_vonmises	-0.07477814588438607	-4.284472158988889	2.4020816736921984	0.9175805045096553	1.6210791268941064e-15	1.9899918057029071	0.21146888253228435	-0.312387999553457	0.5238568820857413	88.74034083608916
13	5.0	perception	88	diff_vonmises	-0.10766761263360144	-6.168899794154785	0.8193413186928099	140.87968501807302	0.7899665888295748	142.0298413391296	0.4432139620575626	-0.43643111457421746	0.87964507663178	98.42431156807113
14	5.0	wm	88	diff_vonmises	-0.11340192078914854	-6.497451449895081	0.3783195873095494	134.06002522777058	0.36515808331566946	135.11591683021678	0.08737020795535244	-0.33415038654715445	0.4215205945025069	134.43245028341642
15	6.0	ltm	88	diff_vonmises	0.015526036517777127	0.8895763650346227	0.6868430201172052	111.44457792917225	0.671143705157383	112.36949556493859	0.07502387969949709	-0.24083075258246112	0.3158546322819582	101.63224407255902
16	6.0	perception	88	diff_vonmises	-0.16590413351127706	-9.505606653971103	0.9186254734776561	229.38984338250486	0.9045160170840196	230.48981299018962	0.26009219244599535	-0.3397187542497626	0.599810946695758	90.54432114031407
17	6.0	wm	88	diff_vonmises	0.21520488325684145	12.330331541222609	0.06063673054334553	72.88090000259794	0.04346901784634432	73.85945176165887	0.04158964947779964	-0.3428630181333965	0.3844526676111961	172.53949681502672
18	7.0	ltm	88	diff_vonmises	-0.09826742239040052	-5.630308566599317	1.1950373411574133	219.520885850697	1.181950939410174	220.73640793973453	0.07474004998015005	-0.30975485506309397	0.384494905043244	75.11467319791925
19	7.0	perception	88	diff_vonmises	-0.13170994892842344	-7.546424193482283	1.6545005345922528	2.4274294329776827	6.413429691454938e-17	3.58766755312837	0.5449267971104985	-0.5302008745717738	1.0751276716822722	105.82801412496472
20	7.0	wm	88	diff_vonmises	-0.2876873157342149	-16.483269011018077	1.1856382039643085	140.95512892240527	1.16989684072705	141.84253233910175	0.07965873469323981	-0.23299551777514083	0.31265425246838063	76.2989178479885
0	1.0	ltm	89	diff_vonmises	-0.3048401772251612	-17.466055581021777	0.44303863274912064	86.68503688817067	0.4226695076927396	89.35051251107546	-0.29327292262481564	-0.4829072049544809	0.18963428232966528	106.3969922712231
1	1.0	perception	89	diff_vonmises	0.06528901347203092	3.740784920520145	10.304064189974135	0.7614968950389942	4.680941112386703e-21	3.4009728785027775	0.42139784427838334	-0.5412816438548081	0.9626794881331915	42.277510272359535
2	1.0	wm	89	diff_vonmises	-0.1389268654256076	-7.959923049869272	0.0002071745016463737	5230.021223616241	7.250055153594603e-32	5232.9033246591525	-0.28624305405378436	-0.6311403374182873	0.344897283364503	179.43619550593115
3	2.0	ltm	89	diff_vonmises	0.10866692691177546	6.226156284701318	7.027860574597587	0.40549257825290336	0.08576751763778612	1.862725387596959	0.09821015840555297	-0.3006200121654447	0.3988301705709977	49.84324772022288
4	2.0	perception	89	diff_vonmises	0.007382688122791182	0.4229968708972952	8.921558795348306	1.1708452924406254	0.10157404969265801	2.6561483204737817	0.9074688941292759	-0.43281867991165623	1.3402875740409321	44.83227504543305
5	2.0	wm	89	diff_vonmises	0.06959004405465767	3.9872158204613513	1.741575560939137	1.0020915529836927	1.9850645165901515e-21	2.4814887780206063	0.08037149003018634	-0.3803441201486472	0.46071561017883356	103.44544227967057
6	3.0	ltm	89	diff_vonmises	0.14797763328014737	8.478493849287077	6.984319648554345	0.36030652225133614	0.0710700116153961	0.9133012109185001	0.2166104057132051	-0.14585872367397917	0.3624691293871843	50.69902426692789
7	3.0	perception	89	diff_vonmises	0.03424473990748247	1.9620790672219666	3.559043129562438	2.123948970789849	0.4836583724924469	2.554522174802594	0.9088608577948878	-0.3411137730634784	1.2499746308583661	66.20922436664955
8	3.0	wm	89	diff_vonmises	-0.08247545345807229	-4.725495396575193	1.2910486593327293	126.53593134046862	1.2722183309138606	126.98210799183612	0.25937634164665724	-0.18963957874830406	0.4490159203949613	78.60770544800585
9	4.0	ltm	89	diff_vonmises	0.1170747698490177	6.707890199814177	3.0032026055646517	1.2442996512936915	0.516875171284623	2.826761525284695	0.10903462606248393	-0.39372364642044483	0.5027582724829287	65.06724676622957
10	4.0	perception	89	diff_vonmises	-0.09387510787251456	-5.378647482430413	2.353356107515144	2.9164944453729573	0.3428877700446025	4.733985180915896	0.627473958144521	-0.5848075370916455	1.2122814952361665	78.47450241666274
11	4.0	wm	89	diff_vonmises	-0.1502519874077132	-8.608804741914756	1.206121236616442	345.6491358831469	1.1933230568381785	347.2245297552959	0.22179289138617264	-0.43989651877796376	0.6616894101641364	76.7564387584157
12	5.0	ltm	89	diff_vonmises	-0.1313786685788289	-7.5274432276148975	1.66920802506186	0.9511883890493298	1.5827866709189122e-17	1.9542856792923782	0.1285999428456882	-0.2954284603689986	0.4240284032146868	105.41375058470487
13	5.0	perception	89	diff_vonmises	0.007559928400859913	0.4331519907903586	1.431754692744283	4.270717543237885	0.40467190796690333	5.1398326195006945	0.6210948259780773	-0.434445819067832	1.0555406450459093	95.57986319852287
14	5.0	wm	89	diff_vonmises	0.0997315137656902	5.71419482322492	0.6353908308195391	148.86254211348302	0.6225624836121311	149.72182179783675	0.13051091729757047	-0.2592057032289663	0.38971662052653677	107.98062416098213
15	6.0	ltm	89	diff_vonmises	0.4010904803090316	22.980791724582563	0.9606338637546139	148.11796638483725	0.9488458409204101	148.86527688140455	0.08335442423079087	-0.19602359018536042	0.2793780144161513	85.8392674094112
16	6.0	perception	89	diff_vonmises	-0.18126456501498223	-10.385694550633197	0.5639200731288111	228.91905533611558	0.5535451076389349	229.6725612898138	0.25400335372935956	-0.31807301194301374	0.5720763656723733	117.63668375231468
17	6.0	wm	89	diff_vonmises	-0.14136692929489098	-8.099728411321571	0.7146973540546575	161.48312212340727	0.7018534151435749	162.32219188250937	0.156400348998595	-0.2565495107382141	0.4129498597368091	102.2566367836111
18	7.0	ltm	89	diff_vonmises	0.19461309229443938	11.150508826461339	3.196512064328029	0.47639052455041137	8.020907470734123e-16	1.5215076264192466	0.08128682174166388	-0.24161426781975925	0.32290108956142316	76.79906149706093
19	7.0	perception	89	diff_vonmises	-0.09165920033425336	-5.251685332696822	1.5727675578500933	3.46934776756611	0.39764949125042126	3.8199052755238845	0.6764654812402511	-0.3360302043776928	1.012495685617944	94.12907083429799
20	7.0	wm	89	diff_vonmises	-0.05103739520909764	-2.9242273428225025	2.0884533409978205	0.7565681450918926	1.2659981552924387e-10	1.5439661154902828	0.1548952590701242	-0.2395818624665831	0.39447712153670733	95.0297253136209
0	1.0	ltm	90	diff_vonmises	-0.005337476656948034	-0.3058148856927183	5.404501515577833	0.46258443698739116	0.010051462955924661	4.041643212192867	-0.2317090783264022	-0.6414945363831206	0.4097854580567184	58.000532725178914
1	1.0	perception	90	diff_vonmises	0.017374057375364144	0.9954601606265058	14.886247307251912	0.5696082051491025	4.9416261239873e-17	3.5605212840348033	0.3024859990939488	-0.5666745623379391	0.8691605614318879	35.112153665471965
2	1.0	wm	90	diff_vonmises	-0.543920715046276	-31.16436136188951	0.0003284469535197547	3234.074765358373	1.9382146491279302e-31	3238.2328409081388	-0.49270721058678646	-0.830821581586747	0.33811437099996056	171.7080865289222
3	2.0	ltm	90	diff_vonmises	0.1031529125225611	5.91022653202493	8.25445360704037	0.6270600736091595	0.24699840351376015	2.284811669077163	0.24866215938307257	-0.3938380103245058	0.6425001697075784	44.99238566104145
4	2.0	perception	90	diff_vonmises	0.019768829239069793	1.1326704813135178	4.48455800985732	1.5403567573584038	0.3249956635917957	3.448227719255895	0.5201581400766226	-0.5362531926680589	1.0564113327446816	59.25709472504721
5	2.0	wm	90	diff_vonmises	0.0779917521335945	4.468598234085398	3.2320876759051806	0.735854921599861	0.06164840434963559	2.9482636589748816	0.004087942817817158	-0.45276982185843534	0.4568577646762525	72.6395904531725
6	3.0	ltm	90	diff_vonmises	0.03737089625038848	2.1411946317685335	1.0099351915248729	75.71813136575366	0.9780302730783131	76.76799916590402	0.10284544145164531	-0.2710064378456529	0.37385187929729824	83.66895621635348
7	3.0	perception	90	diff_vonmises	-0.04645041854380478	-2.661412939176229	3.6009137078536506	2.26630184921677	0.2753449875986806	3.6360656585498496	0.8966386340694494	-0.5230126284406511	1.4196512625101005	67.20378099546025
8	3.0	wm	90	diff_vonmises	-0.12889327519075353	-7.385040676048458	1.8211017655501176	2.8334178242183485	0.6483484629383373	4.810522509265666	0.059348586487180555	-0.4692961633107	0.5286447497978806	74.41804601741512
9	4.0	ltm	90	diff_vonmises	-0.1350960317556718	-7.74043244856534	2.628898195443246	0.86433451495411	1.7998523949993314e-10	2.9940635438422754	0.04807957447884503	-0.4737883982974218	0.5218679727762668	84.82022418873117
10	4.0	perception	90	diff_vonmises	-0.039886853977403644	-2.28534839095983	1.0395999669693765	389.2411517095265	1.0203083046589525	391.59862608545455	0.6019619461935406	-0.7373156522628292	1.3392775984563698	85.22545339309156
11	4.0	wm	90	diff_vonmises	-0.25394737341192425	-14.550112714935995	2.8455770219494956	0.9772120029789748	0.078768573573834	4.090446106795378	-0.08237341594378	-0.6196185995438113	0.5372451836000313	75.80931192711324
12	5.0	ltm	90	diff_vonmises	0.02090142233929595	1.197563285862114	1.1994351960518639	3.1368496709804923	0.4179383777841423	3.81860962514921	0.3049221985827266	-0.2797261763112817	0.5846483748940083	100.14666436932936
13	5.0	perception	90	diff_vonmises	0.0005512100661273642	0.03158201041422499	2.346548649457965	1.843646021930564	1.47305372007571e-16	2.944387975255108	0.5780753203640915	-0.4590280247605423	1.0371033451246339	89.77568530752995
14	5.0	wm	90	diff_vonmises	0.014819677374203099	0.8491049672873555	0.34600847208046515	204.75086079287001	0.33367165356408285	206.16055701329475	0.15215343277099436	-0.4810153722651336	0.6331688050361279	138.84152119995656
15	6.0	ltm	90	diff_vonmises	0.5449148491086536	31.22132104793394	0.6678973746794685	152.59635605362524	0.6572157170748598	153.09783938762726	0.17143756778267516	-0.19571167814313206	0.3671492459258072	108.20279153633791
16	6.0	perception	90	diff_vonmises	-0.023968751835619136	-1.3733083203774212	0.7239644550542895	192.50620340474046	0.7083398625189249	193.40719684457906	0.3158276349403053	-0.34318944981766286	0.6590170847579682	104.09953792380897
17	6.0	wm	90	diff_vonmises	0.18007721132018464	10.317664195132032	0.12105579652044597	150.2581400323385	0.11120855025366672	151.06339339210376	0.10552130757298883	-0.3353935207666865	0.4409148283396753	165.4768444262234
18	7.0	ltm	90	diff_vonmises	-0.017435569769706883	-0.998984561210089	0.5385046215873952	36.283419571941536	0.48563963877647975	37.632582201759334	0.02986519459227388	-0.3387075866867981	0.368572781279072	115.1929695376597
19	7.0	perception	90	diff_vonmises	-0.04366018660705762	-2.5015444253380035	0.8238054248224359	256.639905660303	0.8097212921422241	257.420868177695	0.45152784627691744	-0.3589490435158602	0.8104768897927777	99.07296032764486
20	7.0	wm	90	diff_vonmises	-0.12421227052942335	-7.1168388650731735	0.8639776900883794	137.72984054267678	0.8424240470141786	139.3708042585588	0.0548394579441549	-0.38436382554248816	0.43920328348664306	88.25777293176506
0	1.0	ltm	91	diff_vonmises	-0.01543737831991573	-0.8844966244779289	1.19680516856649	0.8092469424932314	2.6745761667382977e-16	4.226764815512622	-0.36637344775709885	-0.6447419670237456	0.2783685192666468	120.81458769820219
1	1.0	perception	91	diff_vonmises	0.06698921421727283	3.8381992475475037	11.970722744921414	0.6008101717019271	4.347555788834368e-16	3.4323672827720753	0.2739662387900679	-0.5462782195272371	0.820244458317305	39.19248914318641
2	1.0	wm	91	diff_vonmises	-0.0597467997761293	-3.4232394665853807	3.1237424619681895	0.5423544826237592	6.260977016310685e-54	4.135827841126671	-0.2947977175797886	-0.6575339542596533	0.3627362366798647	77.71965928750461
3	2.0	ltm	91	diff_vonmises	0.09088691078043726	5.207436400701118	11.263881208627897	0.41201912143378827	0.07624004320872434	2.304435725560752	0.14999066638514125	-0.3785971278225152	0.5285877942076564	39.7108520280471
4	2.0	perception	91	diff_vonmises	0.04296192541094752	2.4615370058031374	5.995278392417717	1.4186733592891139	0.24236202743493843	3.4879550013523226	0.6568926741059008	-0.5682109554519567	1.2251036295578575	52.8416905918788
5	2.0	wm	91	diff_vonmises	0.07486210395249898	4.28928260194783	2.8889082982447687	0.7714923833556203	0.04767970407143806	2.761952464978121	0.033707318460138136	-0.4225153660294182	0.45622268448955633	77.56527621004992
6	3.0	ltm	91	diff_vonmises	0.11949615430947855	6.846625309977145	4.585997718817114	0.42525804267796613	1.8274472291998392e-23	1.5425297335246542	0.10658015006229102	-0.24546464634456644	0.3520447964068575	63.82250845767513
7	3.0	perception	91	diff_vonmises	-0.015796673930878528	-0.9050827465836716	4.998866499793862	1.4694326216002251	0.00595021250394216	2.5221528903826638	0.8702308307370181	-0.3995533523026172	1.2697841830396353	60.94224156055057
8	3.0	wm	91	diff_vonmises	-0.042151962163389574	-2.4151295301573574	1.1794373800638418	90.46374465955061	1.140458883469854	91.78323296715152	0.16935787804381164	-0.3608093356175317	0.5301672136613433	77.87036171676414
9	4.0	ltm	91	diff_vonmises	-0.7290074407179035	-41.76904958676943	0.0012003617367826256	931.6399512877496	7.538636114921492e-21	934.138864997858	-0.21967876645661022	-0.5756433532367851	0.35596458678017484	165.34524824931316
10	4.0	perception	91	diff_vonmises	0.0046897580515271355	0.26870334329000134	0.911711995529313	309.0709997595218	0.891151841610865	311.81135038775403	0.3304076840476142	-0.7281506078658353	1.0585582919134495	88.71596748173985
11	4.0	wm	91	diff_vonmises	-0.075151436840978	-4.305860155332007	0.9783209332860708	161.21736086523393	0.9514657207359792	163.9686306830181	-0.09351597612344875	-0.5932580979083539	0.4997421217849052	79.07662510197346
12	5.0	ltm	91	diff_vonmises	-0.029568450091821248	-1.694147397004569	1.7891374445979225	1.1366145382038328	2.830241479242037e-18	2.1252508172732973	0.20977544743034776	-0.32294058683092464	0.5327160342612725	102.20077974412402
13	5.0	perception	91	diff_vonmises	-0.016948369644987183	-0.9710700502854029	2.2217143708992886	1.84020899940066	1.5042723293329964e-14	3.0177815199030773	0.5309852898622808	-0.4684066724355432	0.999391962297824	92.22138063698628
14	5.0	wm	91	diff_vonmises	0.021614388292957813	1.2384132259434586	0.5355988705203808	249.1907015063042	0.5254547949423618	250.33765545199398	0.18609868241065186	-0.37833306233803654	0.5644317447486884	118.052357177291
15	6.0	ltm	91	diff_vonmises	0.47914437584130043	27.4529505131366	0.6825326003561166	167.3427595835701	0.671785498138953	168.0918069865884	0.13326040370455416	-0.22948668669882188	0.36274709040337605	104.49664086402987
16	6.0	perception	91	diff_vonmises	-0.14014769277289	-8.029871304382706	0.5825608119173181	164.6910446298715	0.5671671759989624	165.55856403103311	0.25358855250317447	-0.33961583631029946	0.5932043888134739	115.61973946624568
17	6.0	wm	91	diff_vonmises	0.15293448168794135	8.762500342739814	0.31255762499434814	180.41286195172364	0.3027486532799185	181.2763574596008	0.13547571017996773	-0.33223856673289376	0.4677142769128615	142.95635823875472
18	7.0	ltm	91	diff_vonmises	0.11129133931503597	6.376524039109931	1.4186869621921512	1.7878004283037334	0.35132960440792876	3.5617528053303307	-0.032473844086643555	-0.37646756608789833	0.3439937220012548	87.80274673375663
19	7.0	perception	91	diff_vonmises	-0.07188978263820252	-4.1189811352818655	0.9170423260155034	217.66797117574487	0.8968820868595436	218.34355372469946	0.6178569245353458	-0.3897656080001397	1.0076225325354855	95.27747522150634
20	7.0	wm	91	diff_vonmises	-0.19622058510530516	-11.24261138012157	0.8578224570524215	66.87181274538102	0.8144959738466403	68.4458959303344	0.0706965575204066	-0.37531314720936226	0.44600970472976886	89.71518856653758
0	1.0	ltm	92	diff_vonmises	0.032250683964021955	1.8478280775487017	7.7230321360357745	0.33380244623025374	0.09256118060569841	2.816649759393575	-0.12702760285088177	-0.46116377107322715	0.3341361682223454	46.7637050116717
1	1.0	perception	92	diff_vonmises	0.02113952039502499	1.2112052995656588	16.293157226375694	0.5435109941991508	1.903648622572128e-17	2.6624801085742678	0.4444766861376972	-0.4237468701634348	0.868223556301132	33.550915231946306
2	1.0	wm	92	diff_vonmises	0.0812881804402912	4.657469663526576	3.690745012582946	0.6061957361379727	0.15422775279630407	3.611029728610644	-0.22066487224884151	-0.5659667387145708	0.3453018664657293	63.15070426906345
3	2.0	ltm	92	diff_vonmises	0.12909430907353414	7.396559069070915	8.392637884518182	0.5335025100206293	0.522316370847877	1.4412990458784587	0.2450878425015216	-0.2725357737284218	0.5176236162299435	43.403829817708726
4	2.0	perception	92	diff_vonmises	0.006077168701813202	0.34819611800289396	7.681574720186022	1.2033622649382258	0.3462539465333817	2.356515356606468	0.7925741677827008	-0.4063144464773897	1.1988886142600905	46.89800796107215
5	2.0	wm	92	diff_vonmises	0.03087697720780621	1.769120478128933	1.0467490330117228	154.83152852671057	1.026447214478216	156.38960638564342	0.052414503675194624	-0.3720391418077078	0.42445364548290243	79.68532028672095
6	3.0	ltm	92	diff_vonmises	0.12846966571286592	7.360769640803757	1.9964161371407259	83.94756179728954	1.9702690516654646	84.27219690409672	0.1776119358961168	-0.1532409100362191	0.3308528459323359	62.04470136974666
7	3.0	perception	92	diff_vonmises	-0.0761350675201162	-4.362218041846213	5.7797583942833795	1.1477480501052535	3.310330622669792e-22	1.5121056985923966	0.8339261690939958	-0.2406488373654881	1.074575006459484	56.70362388649096
8	3.0	wm	92	diff_vonmises	-0.008287176074484155	-0.47482021314973527	1.6453465857809941	126.96641018295837	1.6198083967370693	127.81277629458026	0.166998601807407	-0.2781391609217252	0.4451377627291322	66.00647092138252
9	4.0	ltm	92	diff_vonmises	-0.14102195046350735	-8.079962580261935	1.168695392966735	146.6208696045734	1.150099390892686	147.9626374968775	0.010286094476860796	-0.3192011677520874	0.3294872622289482	74.09650153781806
10	4.0	perception	92	diff_vonmises	-0.05664765955503396	-3.2456718117973766	2.83945098710484	2.0340208824386568	0.06785246175868893	3.636787758934248	0.672118725795502	-0.541355685609583	1.213474411405085	79.03432158057521
11	4.0	wm	92	diff_vonmises	0.007394310379938009	0.42366277718022416	1.1890066928608058	228.724839297641	1.1730941076011752	230.77332842349318	-0.09231501414433296	-0.4630780253513933	0.37076301120706034	70.65667797773133
12	5.0	ltm	92	diff_vonmises	-0.06288046221935073	-3.6027850990006227	2.976367094995597	0.6877117963764027	9.167125989461242e-12	1.332321265435905	0.2363170807178966	-0.21088017722745026	0.4471972579453468	79.6588186012003
13	5.0	perception	92	diff_vonmises	-0.06076006528529981	-3.481295303787025	1.6501835926922308	2.7734411534116683	0.27904879308748504	3.670805801850441	0.5155055763562053	-0.39439487108432725	0.9099004474405326	93.93548585955224
14	5.0	wm	92	diff_vonmises	-0.028678382607330095	-1.6431502866614	1.0946482119337313	1.3911645857464108	4.3417159389259886e-20	2.3633762094036843	0.12401626754368766	-0.3201250304632768	0.44414129800696445	124.73733789696739
15	6.0	ltm	92	diff_vonmises	0.3242786774409767	18.579799603452145	0.7356734297480338	107.0206523715085	0.7235188432206843	107.55458016940295	0.09386160012421385	-0.15922571817164766	0.2530873182958615	100.4762867630705
16	6.0	perception	92	diff_vonmises	-0.20421762296751644	-11.700807898232599	0.6981561957511254	240.11898408819874	0.6860156193454943	240.8968689705526	0.33614556931125605	-0.3315317686516117	0.6676773379628678	106.69748512318051
17	6.0	wm	92	diff_vonmises	0.26765628958176974	15.335575753166792	0.00028000032910704904	5785.784473705916	1.844802217993983e-31	5786.587456055961	0.1300494516873414	-0.38561057775098107	0.5156600294383225	177.67237468744878
18	7.0	ltm	92	diff_vonmises	0.046206918825241736	2.6474614329899433	1.149135640560405	119.59964755609307	1.1294028883253	120.76703562787954	0.01236032721573821	-0.2771897697723098	0.289550096988048	74.9057863647335
19	7.0	perception	92	diff_vonmises	-0.05162591346895038	-2.957946955278448	0.7917431506533547	78.08926960041359	0.7475453622961747	79.04421002764705	0.3786354263604288	-0.3729725068811973	0.7516079332416261	100.79165564204926
20	7.0	wm	92	diff_vonmises	-0.2589878880556027	-14.838912930592658	0.6382597414051405	113.7935350491948	0.6255601282611573	115.17693799590374	-0.09977836288268804	-0.269690671918525	0.16991230903583698	94.30956867092812
0	1.0	ltm	93	diff_vonmises	0.003171878693357093	0.18173526225683165	6.334506866811452	0.6803172565445327	0.1768355764065617	4.247284598561803	-0.13202369383058177	-0.7057630355772537	0.573739341746672	50.10398985644119
1	1.0	perception	93	diff_vonmises	0.012127741174653065	0.694868384334652	17.19621021654859	0.6758203972786158	3.0937993368994217e-21	3.7136348426381858	0.5183792276143152	-0.5910433420441589	1.109422569658474	32.655132751948116
2	1.0	wm	93	diff_vonmises	0.10041851708536836	5.753557213953956	4.795056388624404	0.4701058531868347	0.0012231130425238255	4.65310519289035	-0.3428534312815323	-0.7398355352087054	0.3969821039271731	62.22755369109922
3	2.0	ltm	93	diff_vonmises	0.05543468387738825	3.1761734248162568	2.0555215346439972	3.1816930884118095	0.8984711052150699	4.588112331689751	0.18938554395283425	-0.39881756872528756	0.5882031126781218	69.6580648081513
4	2.0	perception	93	diff_vonmises	7.096774288370643e-05	0.004066152148805961	4.24962123402177	1.5986424482969306	0.3808265911284995	3.2048795751740773	0.5501294925692841	-0.48893247785448196	1.039061970423766	60.323687686304936
5	2.0	wm	93	diff_vonmises	0.10757786625927052	6.163757705679021	4.814158510139683	0.6311066892880792	3.7188337010066755e-16	2.396322914743063	0.15490103037414688	-0.3813513277583158	0.5362523581324627	62.25454432965162
6	3.0	ltm	93	diff_vonmises	0.026552610912728574	1.52135254035236	3.7218954320814723	0.8076929822446637	0.1800167195531333	1.7525969651555673	0.2655968778963683	-0.2622895520207861	0.5278864299171544	66.73177030009799
7	3.0	perception	93	diff_vonmises	-0.05589361289916614	-3.202468120860197	5.106083091386126	1.3868926593819326	0.013447231367324815	2.301400732451299	0.8448882752426322	-0.3633418033990844	1.2082300786417166	60.169627607420466
8	3.0	wm	93	diff_vonmises	-0.0698077202177385	-3.999687745906484	2.2641293044766453	2.133894304077734	0.6437045167884445	3.4799841672300773	0.23301199962884556	-0.37939292206647457	0.6124049216953201	72.01538431218174
9	4.0	ltm	93	diff_vonmises	-0.16739008273471714	-9.590745273044961	1.8940910156972903	2.0645168734393327	0.2881838125486668	3.8978298974330223	0.21983951581374994	-0.4695689886372728	0.6894085044510228	84.97700728240663
10	4.0	perception	93	diff_vonmises	-0.021370992525065902	-1.2244676756919064	2.0080136773238837	2.999217751401191	0.15019688880877224	5.271295711781857	0.5815327879804669	-0.7001903941228395	1.2817231821033064	89.28699559844199
11	4.0	wm	93	diff_vonmises	-0.19500573979420846	-11.173005871034471	2.4920310574202182	1.5509313231594504	0.20316473291342543	4.110415839569692	0.11897797526652609	-0.5761194344255897	0.6950974096921158	77.03800568081067
12	5.0	ltm	93	diff_vonmises	-0.015784587688598306	-0.9043902559108423	2.1050102502214574	1.2470747093230252	1.2944516318617828e-18	1.7767691289364267	0.380725448289963	-0.27293106392559163	0.6536565122155547	94.67138007761073
13	5.0	perception	93	diff_vonmises	-0.014029631826416917	-0.8038386917761061	2.283124827544797	1.9542477130921934	0.007504328348434647	2.9967241062102827	0.6110165585229311	-0.46202209345578976	1.073038651978721	90.67893668681018
14	5.0	wm	93	diff_vonmises	0.008952164923466684	0.5129212676196966	0.4109485544089657	206.4505676925787	0.39844427643239483	207.33360285350952	0.2727870554455549	-0.40614458206169957	0.6789316375072545	133.34317920570822
15	6.0	ltm	93	diff_vonmises	0.2607609583563863	14.94050237560755	0.8703903383566628	52.168184031929485	0.8441754509874586	52.33665594808043	0.20832474104706122	-0.12216929411936528	0.3304940351664265	98.71702037976135
16	6.0	perception	93	diff_vonmises	-0.1327294501759395	-7.604837312173276	0.9745020122733303	2.00268524518211	3.252875415795105e-13	2.7356034178171815	0.2392677518955626	-0.3392991391790482	0.5785668910746108	129.519484489766
17	6.0	wm	93	diff_vonmises	0.3995423552051862	22.89209068997397	0.3189753363672577	116.39958603561186	0.30820782429067023	116.49930373673332	0.20400248672017085	-0.17568502096770366	0.3796875076878745	142.89057088370535
18	7.0	ltm	93	diff_vonmises	-0.015156109573703775	-0.8683811124110475	0.2673270242771809	102.012444032334	0.2502495106955385	103.14603327183758	0.0797605896706024	-0.3758183374384334	0.4555789271090358	148.39741895522633
19	7.0	perception	93	diff_vonmises	-0.06262223726133086	-3.587989898741141	0.9135474045256761	224.86589489593456	0.8965103986083998	225.8423997458516	0.41493950263104296	-0.373387338865669	0.788326841496712	93.0191657919361
20	7.0	wm	93	diff_vonmises	0.06214654967952736	3.5607350079370166	0.967112053582298	153.92742512096208	0.947636536536803	155.0448561531944	0.19823046411551104	-0.31925122379290904	0.5174816879084201	87.2351345646114
0	1.0	ltm	94	diff_vonmises	0.031167844309128584	1.785785935433909	6.4022450871819725	0.40938347534617936	0.053807688477649496	2.7656819985664933	-0.059690603106414775	-0.44251245152710317	0.3828218484206884	52.209200552031945
1	1.0	perception	94	diff_vonmises	0.0065474836697068635	0.37514318070503155	16.607541806575828	0.5751334762162756	0.014427209319591879	2.9055649666543957	0.45834564010211454	-0.46558307650359115	0.9239287166057057	33.15734623851773
2	1.0	wm	94	diff_vonmises	0.04547043649145216	2.6052641035778556	4.856584944155778	0.484432284380112	0.05864156338965853	3.1697113456400356	-0.12093644434048983	-0.5018520201904493	0.38091557584995944	59.29665622233799
3	2.0	ltm	94	diff_vonmises	0.07534782114689306	4.317112147223547	2.787612941797421	1.3463078347050925	0.6428702456692079	2.4277243778202364	0.1809464071806428	-0.306384869378588	0.4873312765592308	66.55513963812578
4	2.0	perception	94	diff_vonmises	0.004439474482818668	0.2543631511215336	4.942109548990496	1.3932814587356064	0.39740789787051106	2.718018406228368	0.5816382777440458	-0.43091149218804264	1.0125497699320885	56.55936643156576
5	2.0	wm	94	diff_vonmises	0.10818510904575832	6.198550154484536	3.8127054696570055	0.6347303633005433	0.026136558570588865	1.8475491775505892	0.17357554821486054	-0.28867332552738656	0.4622488737422471	69.06120231637763
6	3.0	ltm	94	diff_vonmises	-0.0049358074248929	-0.2828009339356982	2.663854022722165	1.4041392950837148	0.7252379901063506	2.142179528296996	0.23892365634740342	-0.24543837421882692	0.48436203056623034	68.06075957006001
7	3.0	perception	94	diff_vonmises	-0.04426073740015336	-2.5359534511656237	4.912318443064727	1.5556672277752879	0.17987110976937554	2.2741621704222275	0.9063038688591902	-0.34973212027769723	1.2560359891368875	59.59832432636355
8	3.0	wm	94	diff_vonmises	-0.07678078422046726	-4.399214883537443	1.2445183658757137	157.07575061528172	1.2246083423201208	158.00100888132613	0.21961498312231953	-0.28792400335656865	0.5075389864788882	77.23319403528899
9	4.0	ltm	94	diff_vonmises	-0.12087155831446857	-6.925430154588463	1.15231826194016	129.75102042880889	1.1257802291261205	131.05151206460346	0.16637270668773851	-0.35422271548866746	0.520595422176406	78.60566353089004
10	4.0	perception	94	diff_vonmises	-0.019041359595726066	-1.090989541026035	3.288182171563722	1.704217764198417	7.332747063983103e-15	3.5948404011824366	0.6034994597510563	-0.570499057436567	1.1739985171876235	75.70093125388357
11	4.0	wm	94	diff_vonmises	-0.051945389847538874	-2.9762516034256925	1.0075117997867007	268.34088026072914	0.9936037871819715	270.1772295466109	0.08070198562832331	-0.44185736343477444	0.5225593490630978	81.58859462727213
12	5.0	ltm	94	diff_vonmises	-0.03062236545326827	-1.754532299179488	1.8466544550061819	1.237572826311507	3.8236481471135115e-22	1.847726478993352	0.314219707230166	-0.27893413806969225	0.5931538452998583	100.7216323018813
13	5.0	perception	94	diff_vonmises	-0.04586699621868984	-2.6279853022734336	2.1740318316245717	1.8411641271490764	0.011936381860303321	2.871202142726006	0.5362716895345105	-0.43861163895478633	0.9748833284892968	92.66719877765064
14	5.0	wm	94	diff_vonmises	0.08192458576405293	4.693933002637779	0.36636425452367993	133.86944150630168	0.3515159640189057	134.65504461537526	0.1888800916764275	-0.3371195765694104	0.5259996682458379	137.87878659285207
15	6.0	ltm	94	diff_vonmises	0.14059205231400246	8.05533123067482	1.69608942864991	0.8171405843044343	4.28179147227584e-11	1.201788153667735	0.19012048128478878	-0.17844229999600283	0.3685627812807916	104.64366022779171
16	6.0	perception	94	diff_vonmises	-0.14834209197189605	-8.499375794131135	0.6843549635252671	81.711327580238	0.6514011200849189	82.6307476045218	0.2592104025505044	-0.3300944610527692	0.5893048636032736	107.04531470394525
17	6.0	wm	94	diff_vonmises	0.2583776091195228	14.803946523229547	0.39997003111426	121.9838370770836	0.3880196061516221	122.34739193583496	0.184912586291599	-0.2174719138623633	0.4023845001539623	134.7675101359368
18	7.0	ltm	94	diff_vonmises	-0.0806821939787075	-4.6227491968357635	0.5136240891982266	81.54426968137369	0.488401091067339	82.67757813991442	0.10728943497452548	-0.33612296664605257	0.44341240162057804	119.56566150849613
19	7.0	perception	94	diff_vonmises	-0.053841904926424475	-3.0849139132287577	0.8782041656376953	257.23893681218277	0.8600713972927903	258.47888978800495	0.4987997611217452	-0.46796250107360393	0.9667622621953491	94.77005473277472
20	7.0	wm	94	diff_vonmises	0.04829319941235362	2.7669965055115298	1.0665204693017825	189.43766624568735	1.0513781367749586	190.4632238714956	0.17916642403473304	-0.29243436659953304	0.4716007906342661	82.68426216930797
0	1.0	ltm	95	diff_vonmises	0.0538285948720168	3.0841513032861085	5.9560403430877535	0.37191081206572657	0.03612738526209573	3.641246507959525	-0.24685074896991155	-0.5805618550055323	0.3337111060356207	54.06480804968365
1	1.0	perception	95	diff_vonmises	0.05767802335761002	3.3047073090480357	14.190663766471975	0.6063350023432709	0.06990569413258878	3.433883660172529	0.31737019317219506	-0.5661544133680193	0.8835246065402144	35.529153165298084
2	1.0	wm	95	diff_vonmises	0.056336933109545455	3.227868497887784	3.3251080137046163	0.8105441351093331	0.15462361166757957	4.427506892481599	-0.2549497479405878	-0.6835757784699795	0.42862603052939174	66.1889015610833
3	2.0	ltm	95	diff_vonmises	0.09423631544083812	5.399343151623536	4.873678119562983	0.6931246993929743	0.29389708694382793	2.1253003524564646	0.1486432632796274	-0.3421478741428906	0.490791137422518	56.44403268847816
4	2.0	perception	95	diff_vonmises	0.03472624785004842	1.9896674401330234	5.3230699079901065	1.5215290653145679	0.39083838115137803	3.34710636820798	0.6058070491238309	-0.5452276270478463	1.1510346761716772	54.449071440679376
5	2.0	wm	95	diff_vonmises	0.07424320067429942	4.2538220561801845	2.58888839594638	1.2070328550395037	0.303631480427589	2.9158638676445583	0.1116039642527048	-0.3990461851352581	0.5106501493879629	73.3548156068922
6	3.0	ltm	95	diff_vonmises	0.0380059414799097	2.177580043220016	3.4698157014151003	0.8595158125562915	0.42600380959479917	1.8052358265420279	0.1904073271725582	-0.26110023540165817	0.45150756257421637	64.34922515433729
7	3.0	perception	95	diff_vonmises	-0.05335886623257231	-3.057237834729517	5.938613868173498	1.2436356612661188	1.0227904086137372e-16	2.1009472039976287	0.8468635884643796	-0.33436792679264354	1.1812315152570232	55.91911397987937
8	3.0	wm	95	diff_vonmises	-0.011263679774962291	-0.6453613128922041	1.2353608255447859	195.29171558520036	1.217658400151716	196.47848582059288	0.18219683739212655	-0.33769977932567485	0.5198966167178014	76.11916434723341
9	4.0	ltm	95	diff_vonmises	-0.22714611342324184	-13.014513631951653	0.8825032494719464	181.2748532186055	0.8640473072742978	183.34988463353625	-0.017519897730466027	-0.4567010484553613	0.4391811507248953	84.99321334234344
10	4.0	perception	95	diff_vonmises	0.006772798942131371	0.38805279487479627	2.9218486597144517	1.6855635430525933	0.0362015265231947	4.091839735270778	0.4123543123167921	-0.627166574442772	1.039520886759564	78.54418008135295
11	4.0	wm	95	diff_vonmises	0.06422025543756214	3.679549595824387	0.9486356109723869	143.68576480891986	0.9232758880212114	146.12126832256314	-0.10418593178755486	-0.5158919648922797	0.41170603310472487	79.67548728484161
12	5.0	ltm	95	diff_vonmises	-0.07683679697901585	-4.402424178201162	2.153634521959216	1.0582512115405753	1.2013300236273916e-15	2.124086868259363	0.23273231184619658	-0.3303693864396057	0.5631016982858023	93.62887657079045
13	5.0	perception	95	diff_vonmises	-0.07402301535281838	-4.24120636654859	1.5465912469324379	3.2574623531656717	0.3016463895660032	4.695971903907845	0.4494542275415927	-0.48869729404859646	0.9381515215901892	94.15160728985376
14	5.0	wm	95	diff_vonmises	0.02002858780731921	1.1475535509665704	0.44246299672171624	201.62731673250863	0.43060207763030345	202.81462026621108	0.16440416701260574	-0.4020531379880694	0.5664573050006751	127.93397386259704
15	6.0	ltm	95	diff_vonmises	0.19997799828631987	11.457895297280539	0.7387265136626165	125.38030598572685	0.7235256985461472	126.19502983459081	0.12816130340612375	-0.23609029048016694	0.3642515938862907	99.95466404976318
16	6.0	perception	95	diff_vonmises	-0.18761772177598196	-10.749703619623487	1.3682002966175475	1.7046495316855013	3.396130294668344e-17	2.9167072190280994	0.23432653975188533	-0.4189399054811674	0.6532664452330528	114.58618391379939
17	6.0	wm	95	diff_vonmises	0.41297065159096513	23.661475398929877	0.2621997835813617	180.90570207758975	0.2521082175691025	181.7350419208397	0.15530637223692878	-0.3501545096396619	0.5054608818765907	146.91183145123065
18	7.0	ltm	95	diff_vonmises	-0.0797257123971704	-4.567946839031689	0.7651014316225632	158.51770227862073	0.7485135851220216	160.3817945664102	-0.04568861138261582	-0.3969584058082454	0.35126979442562956	90.49425539681985
19	7.0	perception	95	diff_vonmises	-0.030433380957087214	-1.7437042851549074	0.8282298329506649	171.15404458528945	0.8009042620582114	172.6388599258881	0.44189546901693433	-0.5061999042452285	0.9480953732621629	96.85390197329673
20	7.0	wm	95	diff_vonmises	-0.09678753926931385	-5.545517509588404	0.978077764243776	246.9574925784029	0.9651466910266057	248.5959674197489	0.05640727498787612	-0.3877688973731175	0.4441761723609936	82.47690270064993
0	1.0	ltm	96	diff_vonmises	0.4199112000625199	24.05913953385594	0.9565148419889039	160.71521390420165	0.9402703799208434	163.0539271803456	-0.276827452884028	-0.4573919686214758	0.1805645157374478	70.48410632936614
1	1.0	perception	96	diff_vonmises	0.0025145734972149125	0.14407444866586594	15.077212153134449	0.4935656047031155	0.02974904003167376	2.596482789329553	0.3323664706145073	-0.41911037528180084	0.7514768458963081	34.70840618507563
2	1.0	wm	96	diff_vonmises	0.0692235044263092	3.9662146467326904	1.128655119956619	32.1059794015092	1.0053516953853816	35.132317028170576	-0.2933502105818757	-0.6262446389982204	0.33289442841634465	69.78474297906942
3	2.0	ltm	96	diff_vonmises	0.04965437277619644	2.8449859944453486	15.919712220686105	0.3725939588663026	0.49447645072385676	1.1782109812249	0.29875827631504437	-0.24531818988343312	0.5440764661984775	32.57898539408191
4	2.0	perception	96	diff_vonmises	0.0007680506596870755	0.044006061252308104	9.80047152968253	1.122400394677765	0.381326646301664	2.336665689279269	0.8577349537722075	-0.4256089707247292	1.2833439244969367	41.68214495452722
5	2.0	wm	96	diff_vonmises	-0.04037474732085609	-2.313302620392182	1.1275018950073052	176.15618610352564	1.109016670921886	177.84491641037366	-0.0034223369145252036	-0.39299445864500626	0.38957212173048106	75.05266794100768
6	3.0	ltm	96	diff_vonmises	0.06600324620491574	3.7817074417045395	2.3498678834671147	60.36644852173918	2.3198994405007456	60.49322163249752	0.18883688553446376	-0.10505115623384853	0.2938880417683123	58.8478939285755
7	3.0	perception	96	diff_vonmises	-0.0837737265671271	-4.799880966379361	5.718505406587017	1.2777315190722442	0.18272845792504136	1.6096943104365815	0.8846740449236901	-0.2519535359334758	1.1366275808571658	55.59407378597527
8	3.0	wm	96	diff_vonmises	-0.0008407844471025757	-0.048173400299218	1.9087717746127053	145.70123907674835	1.8881593195796924	146.48974856807132	0.08697934100688087	-0.26135989567145046	0.34833923667833133	59.60046056478001
9	4.0	ltm	96	diff_vonmises	-0.21737137745084079	-12.454462514878369	1.3577749299458566	130.22879795142006	1.337833780208548	131.33361546613193	0.021323861812049927	-0.281326984774509	0.30265084658655894	68.96727782894112
10	4.0	perception	96	diff_vonmises	-0.0981933000654421	-5.626061670211502	3.864948799013212	1.748865866336699	0.07706207481641686	3.009556158487432	0.8028994447509589	-0.45869200900727863	1.2615914537582376	67.97001970883835
11	4.0	wm	96	diff_vonmises	0.1742158980120828	9.981835680173932	1.1281479438319835	123.72732894604812	1.1084430775475418	125.57143294159115	-0.21234367429416778	-0.38354572700963274	0.17120205271546496	66.12484122561341
12	5.0	ltm	96	diff_vonmises	-0.06868335339752737	-3.935266272483842	3.7656245716547	0.6685167781655238	0.10307107997563258	1.4289772699965737	0.2458092534281371	-0.21681568164634746	0.46262493507448454	67.92712117111449
13	5.0	perception	96	diff_vonmises	-0.11062518159088194	-6.338356013025866	0.8752550829374459	200.38534567787212	0.855271893990776	201.323735381154	0.46887262859804935	-0.39178495324411244	0.8606575818421618	95.74255231380944
14	5.0	wm	96	diff_vonmises	-0.3927698600297048	-22.504055299646172	0.45264485410887334	109.77107186610827	0.43587679454924183	111.05953355230746	0.03816406479965195	-0.3442573406461129	0.38242140544576486	123.36062872079917
15	6.0	ltm	96	diff_vonmises	-0.06700152121731442	-3.8389043867083545	0.9777601618511721	66.77823937532537	0.9539836615903995	67.5241690344093	0.05279426959965505	-0.1853382245763262	0.23813249417598126	84.09411377837864
16	6.0	perception	96	diff_vonmises	-0.19483336609901872	-11.163129585801025	0.9080562310013349	256.3205770104246	0.8946280016598908	257.2674434289143	0.3508900165712845	-0.3421839115209764	0.6930739280922609	92.72502535083213
17	6.0	wm	96	diff_vonmises	0.3014445883208501	17.271502667843297	0.00013394826539573542	11703.49517098967	2.2303405316728e-31	11704.724967788781	0.05377860954740754	-0.4452183793189306	0.49899698886633814	177.104200672
18	7.0	ltm	96	diff_vonmises	0.11101033027637293	6.3604234071895105	1.6765049629003432	189.388209038696	1.6606529690766345	190.44577349062945	0.018874707694621407	-0.2998502491541757	0.3187249568487971	61.690900218077076
19	7.0	perception	96	diff_vonmises	-0.1376988215813378	-7.889561320535593	1.1790021026249362	2.1204785748172355	6.5657844996294e-13	3.1315691456194137	0.2973080160957169	-0.42312290974714006	0.720430925842857	121.37527075988382
20	7.0	wm	96	diff_vonmises	-0.9704092818836252	-55.60035625225274	0.8506405310769539	44.25196746503809	0.8181334022600176	45.454286171379785	-0.09466204993692884	-0.2374516285991426	0.14278957866221376	80.87330049877927
0	1.0	ltm	97	diff_vonmises	-0.08337389285477427	-4.776972182154497	3.5988560535116814	24.106406714961214	3.5447927035645326	24.03824993368785	0.19517558099448706	-0.04613039093131288	0.24130597192579994	50.60695472919895
1	1.0	perception	97	diff_vonmises	-0.10166994533252847	-5.825258770879684	19.90401829690384	0.513442864791144	6.97102508563466e-28	0.6249107151176466	0.8084308895333608	-0.09945762930206467	0.9078885188354255	30.335656785814393
2	1.0	wm	97	diff_vonmises	-0.12639620685252817	-7.241969199112399	5.179230386565362	32.43778335697469	5.079660849084993	32.482807930190944	0.2550040252249879	-0.12856266433640773	0.3835666895613956	39.7495814858442
3	2.0	ltm	97	diff_vonmises	0.10693465237820933	6.126904264969986	5.149089636735245	18.72584121868947	5.040070859749273	18.60909156634515	0.28845408790435556	-0.05643026581040411	0.3448843537147597	42.890893010256946
4	2.0	perception	97	diff_vonmises	-0.0712448956728859	-4.082031833906224	6.123669789692277	1.6061541557623196	2.040943791581468	1.3131762138097454	0.8645843043524498	-0.17559042991742085	1.0401747342698706	47.60258078895109
5	2.0	wm	97	diff_vonmises	-0.031432699310474266	-1.8009610091939483	1.1886127968057691	23.175248903828358	1.164723627594348	23.0609733188796	0.14519331618311426	-0.02835143476745139	0.17354475095056565	91.11725479261798
6	3.0	ltm	97	diff_vonmises	-1.6323146954817462	-93.52474288828624	0.00013839346781256958	5333.262165419666	2.5031840473938125e-31	5332.644690492879	0.2157446656162847	-0.01918816449597216	0.23493283011225685	115.88667250469578
7	3.0	perception	97	diff_vonmises	-0.07968923343285089	-4.565856748335173	4.467642067108211	1.7106351617252464	0.8203309657288625	1.4083239023656324	0.9632427968168837	-0.18559364009532225	1.148836436912206	59.31660397276326
8	3.0	wm	97	diff_vonmises	-2.0109467911269805	-115.21876395695189	2.641356007847033	105.01367720781744	2.667330021330809	104.60450257432538	0.1917968193047308	-0.11447932419778795	0.30627614350251875	58.19693608582206
9	4.0	ltm	97	diff_vonmises	-0.033541343446281784	-1.92177741867073	2.622415126654936	13.316349789534977	2.498536304964359	13.38309339789102	0.18605911644346929	-0.08768292662248256	0.27374204306595185	56.83940307226297
10	4.0	perception	97	diff_vonmises	-0.08742352616621721	-5.008999079475764	3.954454819268773	1.8111642779969421	5.434747212380155e-16	2.14344129102855	1.042702960036528	-0.34063077686665194	1.38333373690318	68.86453821202443
11	4.0	wm	97	diff_vonmises	-0.13384385648465988	-7.668688090325706	1.497807748637475	135.82490387853557	1.481991254903053	136.42088955200262	0.12030830575534424	-0.18906774253213143	0.30937604828747567	69.38977363105428
12	5.0	ltm	97	diff_vonmises	0.04309191884917406	2.468985081177913	2.0084926044303946	22.69332775157855	1.9642289253782144	22.245621279859975	0.3855449384855909	-0.02113288644821676	0.40667782493380766	75.94147739496924
13	5.0	perception	97	diff_vonmises	-0.05958575567293874	-3.414012319157092	1.9745436466127104	1.6661346161759771	6.2547080038462426e-18	1.4937394983861032	0.6151213431209283	-0.22129782107063442	0.8364191641915627	97.61067701980923
14	5.0	wm	97	diff_vonmises	-0.12393970738491691	-7.10122214724214	0.0011390623463991467	659.6120638159585	3.4481895799794055e-21	659.4368967519579	0.147491914415113	-0.0916664024758802	0.2391583168909932	179.49580733212895
15	6.0	ltm	97	diff_vonmises	0.11586254533343379	6.6384348512489275	0.7714755120876987	23.546840596284465	0.750406878393351	23.26600286177194	0.17733224607932296	-0.025056117957456436	0.2023883640367794	115.8325172190988
16	6.0	perception	97	diff_vonmises	-0.2196338040318653	-12.584090009429286	1.1915467224345617	135.88866753898395	1.174533080427103	136.04423451761969	0.36984757377513944	-0.16354219843484508	0.5333897722099845	85.10067113439548
17	6.0	wm	97	diff_vonmises	-0.23494845536573283	-13.461554895574292	0.05754495190388901	73.49957607871654	0.041325381678146596	73.33817163632945	0.22105697062721497	-0.16028697847120377	0.38134394909841873	172.94030358496985
18	7.0	ltm	97	diff_vonmises	-0.16953267620392348	-9.713506836042779	1.4094561582685998	54.04059506119193	1.3895687581204568	53.96362196260158	0.22366361986928496	-0.058133940563644515	0.2817975604329295	81.30511973930126
19	7.0	perception	97	diff_vonmises	-0.15136615767638217	-8.672641995968446	0.7991204671390527	119.75658271573845	0.773634993963018	120.16074494477861	0.46214598564163367	-0.2900866717629622	0.7522326574045959	102.85514822721913
20	7.0	wm	97	diff_vonmises	-2.042288116733464	-117.01448963854868	2.961392866848583	1.0898764378412482	3.0915669257648934	1.215262666839356	0.0005393408424206464	-0.10110388660089553	0.10164322744331618	215.19735465610728
0	1.0	ltm	98	diff_vonmises	-0.2719676534669186	-15.582598707730947	0.5728583716497966	78.41594106526247	0.5483883800752394	80.93961495266345	-0.28397016309018497	-0.4530964260465211	0.16912626295633615	91.83536316199881
1	1.0	perception	98	diff_vonmises	0.031090221219230336	1.7813384599899749	11.36234351872364	0.7932934625776892	2.474018491420551e-22	3.3910701170544724	0.5147575131977816	-0.5397055713579044	1.0544630845556862	40.23836690745878
2	1.0	wm	98	diff_vonmises	0.08579775098982004	4.915849023431069	13.398186924685291	0.29413432273735696	1.2450185973887837e-16	3.0568585321895414	-0.061154668576038296	-0.48651414572962104	0.42535947715358274	37.02670451528053
3	2.0	ltm	98	diff_vonmises	-0.0484263510314338	-2.7746255313201575	1.2170685301718465	6.819449710613139	0.8293363362071713	8.237411574782838	0.05958430933258718	-0.34002978070827716	0.39961409004086434	80.85565275285569
4	2.0	perception	98	diff_vonmises	-0.016774755878686442	-0.9611227142109999	7.807009218676043	1.2071363888952806	0.13385529808087582	2.6289365224508616	0.846412491519809	-0.42828281625915837	1.2746953077789673	47.658952719645185
5	2.0	wm	98	diff_vonmises	0.0776495457070854	4.448991250124173	2.256850924020542	0.8522087941600084	3.3724094092879396e-24	2.114189553292763	0.13621954607863235	-0.33130320245657197	0.4675227485352043	91.51380144963068
6	3.0	ltm	98	diff_vonmises	0.10328929284514465	5.9180405489176	6.4863064984964325	0.45526212114965964	2.691531175163501e-22	0.9877272285761982	0.2957057898252449	-0.15720061869627108	0.452906408521516	53.462953784169514
7	3.0	perception	98	diff_vonmises	0.016728785118329422	0.9584887836615353	4.238056763139942	1.7584379174098936	0.38645401151202635	2.1235935343796903	0.9158198892720602	-0.3077674214955918	1.2235873107676518	62.29143573373349
8	3.0	wm	98	diff_vonmises	-0.13122038164958177	-7.518374054616951	1.4635213260657427	102.44330946810484	1.4413595201549416	102.70911924742265	0.2886059830579484	-0.15844230048877606	0.44704828354672443	75.21406748642443
9	4.0	ltm	98	diff_vonmises	0.019021326612652146	1.0898417356448424	2.387898388720344	1.9204970805314383	0.6449089673863121	3.209860644282228	0.22192275485118707	-0.36402509977154884	0.5859478546227359	70.57954119155798
10	4.0	perception	98	diff_vonmises	-0.08053944110732937	-4.614570059792422	3.787353223382932	1.7104495824333872	6.644619548564223e-15	3.4596317090119504	0.725590234263762	-0.5499623349854995	1.2755525692492615	70.41182546420367
11	4.0	wm	98	diff_vonmises	-0.1641831360054252	-9.407000760333249	1.193818119825844	281.60474197473263	1.1792574579392971	282.9011772058235	0.27232317263120365	-0.38948823059454796	0.6618114032257516	78.4642216340259
12	5.0	ltm	98	diff_vonmises	-0.07631242046799049	-4.372379617243613	2.0779883974289226	1.0098900667278112	4.01480383560698e-14	1.8000409284579078	0.24664366317744502	-0.2781302913958088	0.5247739545732538	95.2571958696806
13	5.0	perception	98	diff_vonmises	-0.005067849298617838	-0.29036637601913656	1.4339279679385413	4.3379683321992655	0.4229371145298122	5.047483076409383	0.6553118119019725	-0.4122232698448845	1.067535081746857	95.51806855073559
14	5.0	wm	98	diff_vonmises	-0.0004070813124536798	-0.02332404112224221	0.588365697059724	146.41539711469588	0.575680199651242	146.9786525582191	0.20391077233771426	-0.24097142355885737	0.44488219589657163	115.69899759001146
15	6.0	ltm	98	diff_vonmises	0.21404497629469915	12.263873767664014	0.9918842906931252	85.56907062087292	0.9742294708556136	85.97432116582931	0.14968207507733666	-0.14395065673450524	0.2936327318118419	88.65440665847578
16	6.0	perception	98	diff_vonmises	-0.19568406651151618	-11.211871129067168	0.5621945478557406	144.58116453365378	0.5491729634660858	145.12665052779624	0.21497952861817282	-0.248558444434682	0.4635379730528548	118.40312630926755
17	6.0	wm	98	diff_vonmises	-0.16105950117764364	-9.228029667961293	1.0305534235721725	80.32191464720505	1.0117159190824325	80.54530084330446	0.2088522653603313	-0.1255905361987093	0.3344428015590406	89.80450252699538
18	7.0	ltm	98	diff_vonmises	0.06736033869621592	3.8594631138649347	0.6792069586553944	88.0121557154831	0.6601081905994157	88.79893850087655	0.10197501873857817	-0.22366099291273756	0.3256360116513157	103.92237875314186
19	7.0	perception	98	diff_vonmises	-0.13986019573101152	-8.013398937260574	2.2053622898523804	1.9032891458375707	0.05824096772214941	2.3284975079680628	0.6488528768592616	-0.3366800007728861	0.9855328776321477	90.53364409045884
20	7.0	wm	98	diff_vonmises	0.081643938684215	4.677853109430395	1.014002759628423	2.4133397496404867	0.4289632765195001	2.7761499813243122	0.18269867393885042	-0.16593918166310123	0.34863785560195165	106.02582953225755
0	1.0	ltm	99	diff_vonmises	-0.012507877051342573	-0.7166485657104663	7.643901067216048	0.44477895567892495	0.13199487102253665	4.036043461723122	-0.2478377532331415	-0.6727191176408304	0.42488136440768887	46.095480586850044
1	1.0	perception	99	diff_vonmises	0.030179899469738737	1.7291808657451408	13.556876775845941	0.6743649870713277	0.042600344136766874	4.158643713466124	0.29060633009321524	-0.6750539655256131	0.9656602956188284	36.47193954123793
2	1.0	wm	99	diff_vonmises	0.09488072795311156	5.436265268842226	6.119830520051262	0.36199876114216384	0.006610098916857001	4.776114158912573	-0.4159231037026694	-0.7593675617975153	0.3434444580948459	54.53550304634962
3	2.0	ltm	99	diff_vonmises	0.05990669628726714	3.4324008618324457	4.413507786922487	0.8391069189802765	0.34862352547206144	2.2474861115515856	0.18860942489221866	-0.3543565043897716	0.5429659292819903	58.51311496805667
4	2.0	perception	99	diff_vonmises	-0.006598124218392737	-0.37804467041695894	5.753810861037172	1.3649987689795968	0.30579131571312096	3.2090787391711597	0.5974500360822539	-0.5250937607950839	1.1225437968773377	53.29606254283999
5	2.0	wm	99	diff_vonmises	0.09491505431105864	5.4382320242786495	4.100314317367587	0.6693978284022216	8.433549030194048e-14	2.6911296843091503	0.0932978702594432	-0.4281633869151441	0.5214612571745874	67.60130893860054
6	3.0	ltm	99	diff_vonmises	-0.020206945299396605	-1.157772682507143	2.990599377257051	1.144836652770633	0.6070068607738511	1.8479130656811742	0.25529560347569524	-0.23548651636462925	0.4907821198403245	66.93738826610289
7	3.0	perception	99	diff_vonmises	-0.02048219407736418	-1.1735432758008186	3.34691151905251	2.713551057781553	0.5574013511746023	3.7275366926491333	0.9306872945262379	-0.4883319451988893	1.4190192397251271	66.2167486416908
8	3.0	wm	99	diff_vonmises	-0.14322569122122913	-8.206227624820356	1.2215758685232794	210.8980184721847	1.2051817732004149	212.19424972867145	0.14469038625283304	-0.351396037056368	0.49608642330920105	75.64885885397749
9	4.0	ltm	99	diff_vonmises	-0.10435366105620218	-5.979024355259086	1.0603006816158622	191.7429827462292	1.0394279335388097	193.39297958051506	0.17741815340741596	-0.4333642344137232	0.6107823878211391	81.54939954127073
10	4.0	perception	99	diff_vonmises	-0.09197426767244023	-5.26973736143735	2.154987248360226	4.02573855037279	0.5256768285029831	5.8337407247863675	0.7048029533625355	-0.6201146983986985	1.324917651761234	77.69393098128108
11	4.0	wm	99	diff_vonmises	-0.16550301848261986	-9.482624455729777	0.8290511642836482	133.67504485401474	0.8015224351880778	135.92436441022326	0.018963932443107012	-0.5063585435014843	0.5253224759445914	89.1285909067837
12	5.0	ltm	99	diff_vonmises	-0.07109068586318909	-4.073196262651081	2.4918049419878536	1.0321431043912004	1.2794328920884633e-16	2.057426930716682	0.2796817729335244	-0.3232912282148436	0.602973001148368	87.13409905184102
13	5.0	perception	99	diff_vonmises	-0.0275797928633198	-1.5802057309132527	1.4840947505583941	4.16083465288349	0.38300423587776994	5.526898592656767	0.5465236694413076	-0.5076662313188691	1.0541899007601767	93.51219073086187
14	5.0	wm	99	diff_vonmises	-0.05695912045472875	-3.2635172068332357	0.30048777660156345	182.98969238616814	0.28861950265228603	184.55074416680023	0.0631854125784912	-0.4710213958052236	0.5342068083837148	143.3353797308232
15	6.0	ltm	99	diff_vonmises	0.23557715582952218	13.497576778727339	0.6040696824466486	112.14008275299572	0.5902153170474722	112.93921255085343	0.08322247725448761	-0.2257086851585708	0.3089311624130584	109.5895126602413
16	6.0	perception	99	diff_vonmises	-0.053429013944287514	-3.0612570025532984	0.6599403550333509	258.97825997046283	0.6477629062072252	260.26256530830284	0.24686787760444417	-0.4076312271600031	0.6544991047644473	106.71341132745036
17	6.0	wm	99	diff_vonmises	0.4232966049494508	24.253108945820046	0.00033051366942907256	3657.5879092078762	4.362688472577357e-22	3658.584555368174	0.033792528460367066	-0.3510030601908056	0.3847955886511727	174.50553636172086
18	7.0	ltm	99	diff_vonmises	-0.05658496023603492	-3.2420794054403874	0.7144517881294417	130.38522843004267	0.6989378652319047	131.59320643824657	0.04215611021621157	-0.28725399371701243	0.329410103933224	97.56450688531825
19	7.0	perception	99	diff_vonmises	-0.06829081924323847	-3.912775722128351	0.6814889748605701	214.7349620746819	0.6639770935931154	215.8795039801252	0.39791145612264245	-0.4467416228871741	0.8446530790098166	107.44304762481212
20	7.0	wm	99	diff_vonmises	-0.12304117296656293	-7.049739917323215	1.0078063779075377	162.26280153601866	0.9912468119507387	163.40533311334212	0.11980771550282299	-0.2976972257101522	0.4175049412129752	83.6144810067222
0	1.0	ltm	100	diff_vonmises	-0.07427531067993003	-4.255661823982959	7.482415047315709	0.2543080089763936	0.06971827891485075	1.810529235480703	-0.03604566513031571	-0.29289949382083913	0.2568538286905234	48.12978205922062
1	1.0	perception	100	diff_vonmises	-0.009419939786608428	-0.5397227930400282	14.908831449392874	0.6450961128061208	1.8876039035529138e-18	2.120186375284082	0.6471949419470976	-0.33743814190243926	0.9846330838495368	35.09302959956162
2	1.0	wm	100	diff_vonmises	0.026211242778958813	1.5017935870270953	9.030868153852193	0.27818152519561806	1.4092321566144166e-12	2.106025866657947	-0.0066631244379659615	-0.33518442225049516	0.3285212978125292	45.20213013321313
3	2.0	ltm	100	diff_vonmises	0.15576508048758508	8.924681707454196	3.759418319898008	0.9377582031514203	0.9276122352020145	1.580063689918287	0.17867181964066636	-0.22398783111263376	0.4026596507533001	57.27821952979042
4	2.0	perception	100	diff_vonmises	-0.022234934495991558	-1.2739679043701606	8.016081801962013	1.1435679834694585	0.325041645024586	1.7630972315407012	0.8918090740667931	-0.30117915994555755	1.1929882340123505	46.42894634997734
5	2.0	wm	100	diff_vonmises	0.07269520141451427	4.16512823190512	3.362747068536758	0.5471677866184255	0.028752657158130943	1.4068515185346246	0.15183723913852942	-0.21827559935717183	0.37011283849570126	73.51928297567474
6	3.0	ltm	100	diff_vonmises	0.1384897326661662	7.934877187666373	2.461120207149511	20.490947732286877	2.358531359975295	20.594303731212126	0.23840915872654378	-0.11563979560526016	0.35404895433180394	58.49960804162055
7	3.0	perception	100	diff_vonmises	-0.055979637448497724	-3.2073969644714118	5.938452479792523	1.051024447022713	2.631173119147027e-10	1.0560447953778944	0.8301673319416184	-0.16806781188829914	0.9982351438299175	55.92313266197061
8	3.0	wm	100	diff_vonmises	-0.06407558733249898	-3.671260723974112	1.9001874025564272	103.02181806770754	1.8782423706138047	103.22285737243347	0.26213932217262936	-0.1415625525178541	0.40370187469048346	65.74370601406048
9	4.0	ltm	100	diff_vonmises	-0.0170927314731294	-0.9793413737607449	1.6110486975644567	132.99288903449775	1.5893997385524	133.77861951876173	0.14043383648645147	-0.2515952288349119	0.3920290653213634	66.44626206791423
10	4.0	perception	100	diff_vonmises	-0.06188582131307533	-3.545796372939975	3.003354365289663	1.9415709871228017	4.1758653488074275e-18	3.189840358099065	0.7646581028983989	-0.5045455485620517	1.2692036514604506	79.29357339441356
11	4.0	wm	100	diff_vonmises	-0.10724470910905266	-6.144669207056933	1.3541615749001341	254.35503732617906	1.3402037113173302	255.57655370868196	0.1455466149762401	-0.34448499728569715	0.49003161226193725	71.73337788072715
12	5.0	ltm	100	diff_vonmises	-0.04247477362548192	-2.433625264513696	2.857621269250533	0.7013199241090219	5.899960503084195e-13	1.012084659840965	0.2856127642390407	-0.1596060316429788	0.4452187958820195	81.3259663370001
13	5.0	perception	100	diff_vonmises	-0.038486802610762705	-2.205131356549781	1.823038507801666	2.286966517975166	0.18155800231230496	2.6784024740856647	0.608380239919467	-0.3241416413796868	0.9325218812991538	94.60025855960421
14	5.0	wm	100	diff_vonmises	0.01758939006141661	1.0077978147285276	0.6237810518766163	45.88042525736529	0.5904442076374533	46.15340127013463	0.21768449786943123	-0.17852440730326968	0.3962089051727009	115.73675780368292
15	6.0	ltm	100	diff_vonmises	0.1840114871051473	10.54308159305091	1.04097778238941	62.78348834630769	1.0233231436625132	62.936992093872405	0.1559156684251164	-0.09065562679008554	0.24657129521520194	89.52719181099798
16	6.0	perception	100	diff_vonmises	-0.26546642305388285	-15.210105643421906	0.7133019796081052	110.22967028384674	0.6940574823029594	110.57375796412057	0.3068618810589463	-0.22188112931292991	0.5287430103718762	108.05617075717038
17	6.0	wm	100	diff_vonmises	0.11627900814282928	6.66229641255145	0.33585464078924665	102.93494810620712	0.32336734357133806	102.96926504326657	0.22449239399036358	-0.17035165043208522	0.3948440444224488	143.44366340550062
18	7.0	ltm	100	diff_vonmises	-0.06465944954402553	-3.7047135645117577	0.9575463368018721	108.63025203781079	0.9423655359010793	109.25463974059672	0.10662863947914047	-0.17695049726799716	0.28357913674713764	87.4561267866282
19	7.0	perception	100	diff_vonmises	-0.10261066559138722	-5.879158071414746	2.0013053975683244	1.8448953575250209	0.16634513803636708	2.433133910219685	0.4979440972266999	-0.3107903112107898	0.8087344084374897	90.60212343067886
20	7.0	wm	100	diff_vonmises	0.14303558189469032	8.195335162763607	0.6816646286451522	29.485220225604422	0.6451508666878917	30.059096523911386	0.04748899392059691	-0.15074796111112443	0.19823695503172134	102.9516487852828
0	1.0	ltm	101	diff_vonmises	-0.006762443367896107	-0.3874594641766812	6.180261327304917	0.48828873182733107	0.1367095752123902	2.9441080949574343	-0.06116095937074767	-0.4810056565075733	0.41984469713682565	51.496194375347386
1	1.0	perception	101	diff_vonmises	-0.020135780423638283	-1.1536952354766183	16.816958178705704	0.5889138672673183	4.9397248928692256e-18	2.8597011676082977	0.5009100916687226	-0.4551355765905229	0.9560456682592455	33.0218668370845
2	1.0	wm	101	diff_vonmises	-0.008067297561832663	-0.46222210236919087	6.802756344827493	0.3203233851833057	9.764011134118026e-13	3.3104630719673502	-0.2002460240363873	-0.526876158691761	0.32663013465537366	52.19143018647023
3	2.0	ltm	101	diff_vonmises	0.09014665928581628	5.165023114281085	4.010896962117176	1.0085529568878895	0.6363716689241482	2.0539460828715668	0.21697353511055484	-0.31277663995976707	0.529750175070322	58.13473380505306
4	2.0	perception	101	diff_vonmises	-0.018025101155497453	-1.0327622215063874	5.463092927865904	1.278538033642778	0.3276475817957717	2.531638766638211	0.6176441239480658	-0.40747004814524035	1.0251141720933061	54.782623258055395
5	2.0	wm	101	diff_vonmises	0.0940482420080925	5.3885673376886745	4.232279282947949	0.5387688205843888	0.004953122337285805	2.0098764104608855	0.10564419046507229	-0.3184561861638051	0.4241003766288774	66.23278832705336
6	3.0	ltm	101	diff_vonmises	-0.01954315088380562	-1.1197400640294268	1.4197835727221717	92.54171218975694	1.3942666073386412	93.0403956292439	0.21420386126313673	-0.1900785698411962	0.40428243110433293	73.90720443003602
7	3.0	perception	101	diff_vonmises	-0.06166596887050324	-3.5331997558649517	4.439001627573875	1.7207149678097693	0.24110906282414685	2.411982249197744	0.9181499020259016	-0.3623012862857281	1.2804511883116296	61.961902845001305
8	3.0	wm	101	diff_vonmises	-0.15069606027117005	-8.634248242787123	1.422794911106624	216.87249258416063	1.406751576278514	217.9231362831613	0.18140184470991016	-0.31798932691367554	0.4993911716235857	70.88151114726543
9	4.0	ltm	101	diff_vonmises	-0.13189102825099902	-7.556799274422952	1.5889454986690996	3.1395388229874936	0.7086353003145498	4.3336007977752224	0.16795684846301429	-0.3238515273484941	0.4918083758115084	79.59970279683478
10	4.0	perception	101	diff_vonmises	-0.06301973673761668	-3.6107649410909795	2.7204977056959887	2.4336628918926775	0.13528514849380469	4.107107452270953	0.7617847221065572	-0.5831168424709385	1.3449015645774958	78.82301637983457
11	4.0	wm	101	diff_vonmises	-0.19909889593107427	-11.407526442564954	0.9942088951627611	226.06573293294878	0.9768237963500751	228.11702560685072	0.05240724243127204	-0.48061300375215765	0.5330202461834297	81.48280106303986
12	5.0	ltm	101	diff_vonmises	0.0006189789826342453	0.035464883312243733	2.0646517980913712	1.220207097294067	0.10453980111008636	1.573593521396233	0.3644051403524046	-0.21469910677577025	0.5791042471281749	91.57557911951147
13	5.0	perception	101	diff_vonmises	-0.022902084205822584	-1.3121927670468558	2.24030693813276	1.8233342092392602	2.516396738275197e-15	2.555134823478305	0.6003110382347647	-0.3952561371641872	0.9955671753989519	91.84948945915335
14	5.0	wm	101	diff_vonmises	-0.02285426381841774	-1.3094528606738778	0.34575483039814503	137.087684842822	0.3307792448574252	137.88532777723606	0.1991533499344449	-0.3529537742498121	0.552107124184257	140.37944364253002
15	6.0	ltm	101	diff_vonmises	0.31391985108042475	17.986282572283653	0.7450616075217356	88.48727177572536	0.7312421698766546	88.65456911994153	0.1847794692834377	-0.12152014849041581	0.3062996177738535	106.04056410273517
16	6.0	perception	101	diff_vonmises	-0.10169599705270489	-5.826751424494849	0.7364857986636989	188.9392484667645	0.7232543063298238	189.55224514501617	0.29985829926209107	-0.2710780005208928	0.5709362997829839	104.29072506828658
17	6.0	wm	101	diff_vonmises	0.22219413725327142	12.73078629716299	0.13484109673673733	114.29164916542109	0.12399334246516908	114.55678842891317	0.16161637895430303	-0.2209252314072252	0.38254161036152823	163.8488279876855
18	7.0	ltm	101	diff_vonmises	-0.06275294301189763	-3.5954787866067064	0.6008782222410382	86.2134501729291	0.5814671991333762	86.97266050835141	0.11749810118506687	-0.23600667110544382	0.3535047722905107	111.61493576218282
19	7.0	perception	101	diff_vonmises	-0.09183775443861937	-5.261915729291733	0.8413354447520978	225.4003356292679	0.8259639399772691	226.15357684346984	0.4289173494701686	-0.3406152991907305	0.7695326486608991	98.00177989965565
20	7.0	wm	101	diff_vonmises	0.014205199462885997	0.8138979763648715	0.9316477476249955	106.35422933395822	0.9124865943418708	107.28280661480977	0.0857938932915161	-0.23719482730280106	0.32298872059431716	86.8723116661159
0	1.0	ltm	102	diff_vonmises	-0.0415539294512673	-2.380864779741989	7.3176614641920175	0.4124648417671011	0.14094223177536716	2.960856875031588	-0.10296349272657002	-0.4919986307503593	0.3890351380237893	47.35434407320906
1	1.0	perception	102	diff_vonmises	0.021793568108398928	1.2486794731421675	15.806328395652294	0.729863706994987	5.208291112954023e-16	2.9440010201841473	0.6794732472648317	-0.4685523148298681	1.1480255620946997	34.069684007802095
2	1.0	wm	102	diff_vonmises	0.12327960498153309	7.063401065481806	6.821524629454255	0.39108848246631395	8.737310278114402e-18	3.2856486881123472	-0.12347754556605545	-0.5229267553360822	0.3994492097700268	52.107071158544045
3	2.0	ltm	102	diff_vonmises	0.09650200435916075	5.5291575643329836	1.708172655812795	6.327807738129706	1.218159810363604	7.341783981706956	0.15803522947183435	-0.3033558551621435	0.4613910846339778	69.526433664189
4	2.0	perception	102	diff_vonmises	-0.010670850932812902	-0.6113947222634168	6.419981046833316	1.3125641765903622	0.3096564942640295	2.3411291333232382	0.8027061068107242	-0.3854705037832896	1.188176610594014	51.319100394158596
5	2.0	wm	102	diff_vonmises	0.10282898391649971	5.891666790034056	4.370517604594029	0.5961525587113058	3.238609147904994e-17	1.7847234504459788	0.19689146248763167	-0.28397066147393873	0.4808621239615704	65.41773320458591
6	3.0	ltm	102	diff_vonmises	0.1613092351772269	9.242338372138335	7.179654315588351	0.4648688273894377	0.23506256394031244	0.9114101942837068	0.30662889825605	-0.15078221338093434	0.45741111163698434	49.058251663895845
7	3.0	perception	102	diff_vonmises	-0.05321640368536492	-3.04907533203585	5.837540226226762	1.005299449239144	1.7689309577256367e-16	1.1936511213129282	0.7562956541303938	-0.1899674300172392	0.9462630841476329	56.412771615355894
8	3.0	wm	102	diff_vonmises	-0.023534484868951006	-1.348426656005389	1.6131653925179714	116.40141730019816	1.5894366599070662	116.81455703616562	0.2873993344044976	-0.19806538001212814	0.48546471441662575	70.33346258071674
9	4.0	ltm	102	diff_vonmises	-0.12120400487756987	-6.944477939567798	1.1678208527764506	132.55339753548705	1.1421672464374875	133.82098701609837	0.16518496339556066	-0.34710285254385553	0.5122878159394162	78.08366604758405
10	4.0	perception	102	diff_vonmises	-0.025697977452716125	-1.472385650062984	2.077169877639827	2.343560174034189	4.400232983854492e-17	4.136645693336559	0.5784900624332006	-0.6389509637817068	1.2174410262149074	95.28368181967934
11	4.0	wm	102	diff_vonmises	-0.11350812282924802	-6.503536378568461	1.254708972007633	341.88162908142675	1.241599530863697	343.489823980112	0.19963808969978913	-0.44527391870330746	0.6449120084030966	74.81443369200863
12	5.0	ltm	102	diff_vonmises	-0.06262010264100044	-3.5878675940053455	2.451879580227901	0.885523786275403	6.324549649897137e-15	1.3675154717156304	0.29827954587965344	-0.21381888791433332	0.5120984337939868	87.8437403268945
13	5.0	perception	102	diff_vonmises	-0.028279651984554326	-1.6203047048137256	1.6369387418900718	3.1243954323843175	0.3148677603797856	3.8163916298056253	0.6151225264456213	-0.38717446484871915	1.0022969912943405	93.92433137238893
14	5.0	wm	102	diff_vonmises	0.0412448488397664	2.363155765173665	0.6191597124097261	146.61950593343278	0.6055694859633045	146.9885918628929	0.2791608549559683	-0.2320701905967777	0.511231045552746	115.14720450722726
15	6.0	ltm	102	diff_vonmises	0.17814740673745946	10.207094537256873	1.1155639880552812	28.245939002988795	1.07079279612766	28.40600168998429	0.1801159624906994	-0.09951493934494371	0.2796309018356431	87.19351168891694
16	6.0	perception	102	diff_vonmises	-0.29573685806473865	-16.944473813568987	0.877580185710075	2.060759132783725	4.847233757624585e-13	2.494441368324567	0.2592470590851869	-0.28355044484619557	0.5427975039313825	133.0488925675669
17	6.0	wm	102	diff_vonmises	0.3040188469824136	17.418996824525884	0.4772730414689641	100.83429609258873	0.46482887245510535	100.72306805737983	0.26011919379717696	-0.13456054682581176	0.3946797406229887	130.3959633455443
18	7.0	ltm	102	diff_vonmises	-0.05011428986261132	-2.8713373024228748	0.5933808591178389	118.5424172362125	0.5792680049703371	119.48135331055295	0.07054662696850755	-0.2523524063516014	0.32289903332010894	109.59995111224293
19	7.0	perception	102	diff_vonmises	-0.0790233488548712	-4.527704372374086	1.5689640702937484	3.476764765107926	0.5260377427500833	4.269206521957755	0.4733541194706228	-0.3422617810415226	0.8156159005121454	88.62631738946166
20	7.0	wm	102	diff_vonmises	0.16516535748661182	9.463277905752332	0.7662944873925119	98.13410821724038	0.7477168769060318	98.86859522489954	0.13236167628427964	-0.21826939719386118	0.3506310734781408	98.6614526928183
0	1.0	ltm	103	diff_vonmises	-0.004318943236451493	-0.24745721940524293	4.661217542602703	0.41528389745993854	0.06999110997855343	3.5702873929147607	-0.26184743099903357	-0.5672078338845264	0.3053604028854929	59.246452482737055
1	1.0	perception	103	diff_vonmises	0.04688589519170562	2.686363913177452	11.652912875255906	0.7532473525792851	0.10476397895534137	3.9476288841781337	0.31840141123053023	-0.6583977257971801	0.9767991370277104	38.90436072762296
2	1.0	wm	103	diff_vonmises	0.07932263446464848	4.5448521746833235	5.68936372401868	0.5031322350769534	0.06247733528387905	3.940620386197193	-0.1998205571022892	-0.6298804847646942	0.430059927662405	54.68174239682671
3	2.0	ltm	103	diff_vonmises	-0.014311974298800103	-0.8200157238209517	2.060124375205664	1.7438280186539343	0.4651505880764807	3.356842463257621	0.10937831600690362	-0.3898056302623204	0.499183946269224	76.26549887515
4	2.0	perception	103	diff_vonmises	0.014870404531527551	0.8520114193087428	4.870222745747445	1.5425527937525727	0.35218445273187166	3.4969802903984264	0.5514000284292759	-0.5562159555125976	1.1076159839418735	56.851535112547566
5	2.0	wm	103	diff_vonmises	0.10449649423608813	5.987208093640984	4.0308378752790395	0.6761559184084899	2.2051937173802916e-12	2.119943002022717	0.1846510437553619	-0.33723475422942645	0.5218857979847884	68.18910927627721
6	3.0	ltm	103	diff_vonmises	-0.027328944796667864	-1.5658331953950804	4.106587036180302	0.8220731670202588	0.12046760592221531	1.9471671784643438	0.2927955988379565	-0.29833737253488624	0.5911329713728428	64.684628364036
7	3.0	perception	103	diff_vonmises	-0.018672584145232953	-1.069860264124744	5.136405254292453	1.574577432658196	0.18024534656550875	2.5364021310841456	0.9055674372261917	-0.3941104819655593	1.2996779191917511	58.18888383381264
8	3.0	wm	103	diff_vonmises	-0.06526684227169252	-3.7395146043140155	1.1881336637659312	185.35034677990308	1.1714966313938697	186.22817792759648	0.24309999066869636	-0.2825716130012452	0.5256716036699416	79.62872821191652
9	4.0	ltm	103	diff_vonmises	-0.13408184695366637	-7.682323939764117	1.7748103563498563	2.623008380671547	0.4888645957826581	4.443520045194447	0.17137238206133132	-0.45636534894252345	0.6277377310038548	80.66384708467132
10	4.0	perception	103	diff_vonmises	-0.019483573559254425	-1.116326534777962	4.053748016770157	1.4298504506539431	6.972961201564386e-20	3.7896640619889164	0.5042309108440391	-0.6028101412261646	1.1070410520702039	67.99207560953923
11	4.0	wm	103	diff_vonmises	0.0018042202923008433	0.10337420806069805	0.8620503876861694	199.19953968928877	0.8443074369536574	201.10977755267788	0.07816617441729079	-0.4525952969227198	0.5307614713400106	88.59252739451841
12	5.0	ltm	103	diff_vonmises	-0.061795201101935836	-3.5406042173030974	1.8648178283436727	1.409079087895034	6.331485999425792e-15	2.533165281453101	0.293528825417137	-0.3864420008509647	0.6799708262681017	100.26428510516492
13	5.0	perception	103	diff_vonmises	-0.06025932747188934	-3.4526051404359963	1.5035423541489876	3.721815653384015	0.33635619611769146	5.16316730058392	0.4959077636943956	-0.5073393447060224	1.003247108400418	94.21256154702854
14	5.0	wm	103	diff_vonmises	-0.001457053496222078	-0.0834830158583059	0.42998128600186064	206.13014023282327	0.41867408806838985	207.08965911612006	0.20751549085250076	-0.3764927351288989	0.5840082259813997	130.40586479685297
15	6.0	ltm	103	diff_vonmises	0.007659839057598767	0.4388764497498752	1.7476345153508335	0.9404128251283316	3.488510625740168e-16	1.6012399416287457	0.19213313950282107	-0.24128227534772587	0.4334154148505469	103.30131354766826
16	6.0	perception	103	diff_vonmises	-0.16653453187243245	-9.54172581947727	1.4634102631197914	1.369984132518039	1.0561028470770781e-20	2.48964238899865	0.1883440874199988	-0.3649215560364863	0.5532656434564851	111.51833789625172
17	6.0	wm	103	diff_vonmises	0.38953017838960036	22.318435214702166	0.38706986567285795	126.10620016330336	0.3764920083881153	126.48106655254817	0.15978373978056126	-0.20552532952853753	0.3653090693090988	134.97651965785377
18	7.0	ltm	103	diff_vonmises	-0.0547087904688173	-3.1345827961287758	0.5779993480212959	164.01120529778572	0.5633175424760207	165.50641974283187	0.06764846243239475	-0.381323368608669	0.44897183104106375	109.86507024015113
19	7.0	perception	103	diff_vonmises	-0.09504018381463562	-5.4454014167261775	1.4854029377471802	3.9439301768897286	0.3371003478702435	5.390403387677109	0.5297762516705291	-0.5236526048589369	1.053428856529466	94.79994221224032
20	7.0	wm	103	diff_vonmises	-0.05008672762196535	-2.869758102359937	1.1473256629385542	203.03993434485602	1.131542982456586	203.93901818673024	0.26753846139914117	-0.2947236541891165	0.5622621155882577	81.35176288308585
0	1.0	ltm	104	diff_vonmises	-0.012825821547251396	-0.7348654434454563	3.9392167422406827	0.2767064927211218	3.5811126629622786e-12	3.6091061138271225	-0.3634408821465669	-0.574327151928737	0.21088626978217007	69.00271151818586
1	1.0	perception	104	diff_vonmises	0.09228438849706525	5.2875059758274805	13.092227900273135	0.6721323288712814	0.07462803919861496	3.481204673865413	0.36431361862272094	-0.5738761324018351	0.938189751024556	36.96197400314426
2	1.0	wm	104	diff_vonmises	0.155839785756059	8.928962004045143	6.929112236502924	0.4507576519202301	0.02256333602480586	3.9842754581659983	-0.18433662136512824	-0.6351039440906263	0.4507673227254981	50.835705118008775
3	2.0	ltm	104	diff_vonmises	0.11775895240688483	6.747090972796428	5.666948774592243	0.5310435276948821	0.20556255113196664	2.002440158541672	0.10475228908951517	-0.32651321276259576	0.43126550185211093	53.55593789471726
4	2.0	perception	104	diff_vonmises	0.038052809775282255	2.180265398737836	7.388087075704036	1.393725212127802	0.30853699302718435	3.2081267184067	0.8050068886153684	-0.5474651473326332	1.3524720359480016	47.68283070907793
5	2.0	wm	104	diff_vonmises	0.0745981190411581	4.274157380672862	2.4206258072188516	1.2777325958957293	0.3064875543677037	2.9313787651537586	0.1196136065646689	-0.39068594004720975	0.5102995466118787	75.48995634455162
6	3.0	ltm	104	diff_vonmises	0.1282750555595228	7.349619300366802	5.028408553360242	0.5576333612094679	0.34993065889712277	1.3383078641276343	0.19176942816628084	-0.21523009577905017	0.406999523945331	55.91132948392948
7	3.0	perception	104	diff_vonmises	-0.042858163120862144	-2.4555918645086336	6.212871774893962	1.0422638554605517	6.5341461291949404e-15	1.5605035464485866	0.7651784023251472	-0.2483577832671373	1.0135361855922844	54.65573151597363
8	3.0	wm	104	diff_vonmises	0.042470682120518716	2.433390838547448	1.3710759996563662	131.91327139523938	1.3486896563880764	132.6560564668308	0.22924660923928286	-0.25273338845274296	0.4819799976920258	74.20369413062988
9	4.0	ltm	104	diff_vonmises	-0.2124293166421257	-12.171303288441983	0.8345866132394019	152.4013924120736	0.8153751122533193	154.64566843340987	-0.1290708664807596	-0.45599568659148915	0.32692482011072954	83.68457211161902
10	4.0	perception	104	diff_vonmises	0.012513797780846917	0.7169877985227038	2.880220009983687	1.5075882316952647	3.4595718329482083e-15	3.9706794561695555	0.3326725776961511	-0.6289147428990317	0.9615873205951828	80.99900115415082
11	4.0	wm	104	diff_vonmises	0.09306368226376238	5.33215621966008	1.1419027140376958	198.45828036979296	1.1219375286029618	200.62554554667665	-0.05140680438488232	-0.493814083586706	0.44240727920182366	73.46719179776261
12	5.0	ltm	104	diff_vonmises	-0.1451071277802679	-8.314025999074893	2.1751786471731456	0.8748461013014854	1.058572386760065e-21	2.141075750391793	0.1339388930683995	-0.3346376920734391	0.4685765851418386	93.15988603128864
13	5.0	perception	104	diff_vonmises	-0.08370596327837464	-4.795998415927919	0.8485715987703705	183.23491385855425	0.8229614399835893	184.70439845767012	0.4430833703980568	-0.4998632798286451	0.9429466502267019	95.62883888368643
14	5.0	wm	104	diff_vonmises	0.04017011983484231	2.3015783290712197	0.6104522424127778	201.1999143107519	0.5987109060931469	202.23605306036347	0.17241187702874328	-0.32549190982239296	0.49790378685113623	110.58718498424078
15	6.0	ltm	104	diff_vonmises	0.14117130376217482	8.088519893931938	0.9324375827699474	125.56500248479529	0.9155686770711923	126.51979128024419	0.09194247299360114	-0.24521215696845644	0.3371546299620576	86.89321143772355
16	6.0	perception	104	diff_vonmises	-0.32539800705780947	-18.643932466380658	0.42726293906211243	78.97255735786834	0.39402886344112714	80.12499541173621	0.2208354230709162	-0.438172455308079	0.6590078783789952	130.96828019990463
17	6.0	wm	104	diff_vonmises	0.3861090505832776	22.12241903022502	0.3517487555792376	162.93411350627565	0.33899048175784025	163.8683614579278	0.17366634249456325	-0.3690462975303106	0.5427126400248738	137.52183622138742
18	7.0	ltm	104	diff_vonmises	0.02168896281125614	1.242686031101174	0.9688766222918183	185.8108350888047	0.9526912468607961	187.83388582749618	-0.10246987338825164	-0.4266092760475644	0.32413940265931274	77.9971028027692
19	7.0	perception	104	diff_vonmises	-0.0504422796167365	-2.8901297310577814	2.4905328129695845	1.7382535253977025	0.013336586617173424	3.0972141600459757	0.5226402650975654	-0.4793658123463531	1.0020060774439186	86.54072120645458
20	7.0	wm	104	diff_vonmises	-0.15434096442944448	-8.843085867785932	0.8701296751974079	159.76379619162344	0.8527947476837073	161.36004046644362	0.02750467327982875	-0.36486698289726505	0.3923716561770938	87.03734584051678
0	1.0	ltm	105	diff_vonmises	0.02161387654443305	1.2383839049128178	7.822863954163174	0.5472165802575422	0.27189124768506423	3.0526960290535072	-0.025872669524925174	-0.5362355468112971	0.510362877286372	44.845402654634285
1	1.0	perception	105	diff_vonmises	0.003813543554954872	0.21849995068823047	17.711792842882925	0.6310105156586507	8.561173756136027e-17	2.8824193264324585	0.5928832973616379	-0.4587512838653367	1.0516345812269745	32.171532000607954
2	1.0	wm	105	diff_vonmises	0.12743567465339276	7.301526317041685	3.7789623229357723	0.6757386046022372	0.18282439356401814	3.7889882227202265	-0.21440626461791457	-0.5964088195929261	0.38200255497501157	61.88046375627667
3	2.0	ltm	105	diff_vonmises	0.1297387108187536	7.433480569382854	3.0511883627339103	1.4860021854070022	0.9690918365988562	2.2944145361406063	0.21202996526029327	-0.2753423127871385	0.4873722780474318	61.348849879546464
4	2.0	perception	105	diff_vonmises	-0.018445698430337797	-1.0568606702294432	6.186532924338102	1.28800820839777	0.41262144496120917	2.312533652147451	0.7168567577818838	-0.3857757001534199	1.1026324579353037	51.43496835325203
5	2.0	wm	105	diff_vonmises	0.0824710238818399	4.725241600552045	3.4321723759345297	0.8209143641506678	0.22582956784961947	2.1468766869050873	0.15717901275688212	-0.31894584795161285	0.47612486070849497	67.32155153902713
6	3.0	ltm	105	diff_vonmises	0.06460235117366733	3.7014420688731584	1.9586887978452219	40.32277306955493	1.893849663082554	40.630393573741436	0.2613731139066324	-0.17275704375620293	0.43413015766283536	64.14153553534828
7	3.0	perception	105	diff_vonmises	-0.07746279549335443	-4.438291251054222	5.9804927740973355	1.0804348856934551	8.833882396960734e-15	1.3829975511062385	0.8097398352862242	-0.22010431487039753	1.0298441501566218	55.72894537311598
8	3.0	wm	105	diff_vonmises	-0.05020211682890021	-2.8763694169186658	1.603901335446934	157.47278638930524	1.584243662455902	158.15694931692107	0.22437069200820758	-0.24896777709361473	0.4733384691018223	68.32183439209206
9	4.0	ltm	105	diff_vonmises	-0.17157614929483192	-9.830589219700384	1.2665262134468032	214.83495702707611	1.2509527552306947	215.93069580943748	0.18667686564330666	-0.31939508116394677	0.5060719468072534	75.38758247557942
10	4.0	perception	105	diff_vonmises	-0.05390859002618383	-3.0887346880013777	2.83686883896912	2.0305070163106147	1.1500414901935334e-17	3.516685239077766	0.7282826542011656	-0.5552735930114608	1.2835562472126263	81.62238775549736
11	4.0	wm	105	diff_vonmises	-0.10995153596087962	-6.2997589615393	1.1247099385265298	270.37018861440083	1.1108518642343783	272.1259824273601	0.06335693004538712	-0.427421309970633	0.4907782400160201	76.6915803856034
12	5.0	ltm	105	diff_vonmises	-0.05570920475895874	-3.1919023127184567	2.9287444839071566	0.8216871326978034	1.7505737650632857e-14	1.300004369969587	0.32392053006638655	-0.20538476170369208	0.5293052917700787	80.31156803729559
13	5.0	perception	105	diff_vonmises	-0.05142250319086646	-2.946292404834657	1.6496078579004718	3.0393980964577993	0.3173058626539533	3.8732011505738675	0.5690904232845175	-0.3974888125345188	0.9665792358190364	93.05503261676199
14	5.0	wm	105	diff_vonmises	-0.020273595435770862	-1.1615914540253593	0.8822383702515085	1.9757188400959347	0.013175441586565593	2.65861695742064	0.20219580634746492	-0.3095129097539834	0.5117087161014483	132.8096653682362
15	6.0	ltm	105	diff_vonmises	0.12472071597891486	7.145970643441669	0.9030960568399302	15.867626123277267	0.8259688326860378	16.107798755347638	0.15928103788765746	-0.11641710276524297	0.27569814065290044	96.6983732203939
16	6.0	perception	105	diff_vonmises	-0.2174978674000031	-12.461709855116194	0.6244774868859639	34.34228885760771	0.5525878276629139	35.0238137551989	0.29178162306705424	-0.31487841694735375	0.606660040014408	115.60997811245122
17	6.0	wm	105	diff_vonmises	0.44172489712407487	25.308972311059964	0.1175868673381987	126.800711486359	0.1066775520968637	126.9420035740346	0.20681678772089285	-0.22732400454487234	0.4341407922657652	162.48500383454154
18	7.0	ltm	105	diff_vonmises	-0.16736961276346712	-9.589572430085582	0.7786700970354559	110.88825346428382	0.7624556207115868	111.80465386303945	0.0716333272770342	-0.23182551837930632	0.3034588456563405	94.98152089211814
19	7.0	perception	105	diff_vonmises	-0.0665650484793884	-3.813896340952674	0.8412405783403404	61.16955035058793	0.7836946414272113	62.231142319676046	0.3530711979404231	-0.3778191695676334	0.7308903675080565	97.40421355520209
20	7.0	wm	105	diff_vonmises	0.1010898836704792	5.792023685786917	0.8889671077950266	105.92004190907721	0.8716309073618543	106.86192856469388	0.051151889987352206	-0.227737433415248	0.2788893234026002	87.690126142514
0	1.0	ltm	106	diff_vonmises	0.06182641530221615	3.5423926592400354	6.40120339607326	0.48126951647666866	0.18751078394685863	3.7198649292098707	-0.232510641385672	-0.6251818822861783	0.3926712409005063	48.99849014541556
1	1.0	perception	106	diff_vonmises	0.03157057876354025	1.8088609199362011	15.010185421784024	0.626768620144881	0.0730765986078195	3.429693396002854	0.3738936920642639	-0.567217325946291	0.941111018010555	34.55984857090763
2	1.0	wm	106	diff_vonmises	0.06516514267974396	3.733687646917161	2.5152909963330687	1.3665025302319123	0.3400107070265796	5.200414465589454	-0.3217183371544413	-0.7531555975852937	0.4314372604308524	67.37341772572191
3	2.0	ltm	106	diff_vonmises	0.07517619905537778	4.307278925708514	3.950184855440246	0.8672362665563658	0.46672895329798647	2.1139385388860616	0.15371747768970612	-0.3250963412952501	0.47881381898495623	59.675086644262365
4	2.0	perception	106	diff_vonmises	0.005198716168193747	0.2978644953239251	6.160151076686001	1.3858898716508692	0.37938226733370783	3.050813957795152	0.6571209149658673	-0.5120149029716557	1.169135817937523	51.24879802754435
5	2.0	wm	106	diff_vonmises	0.05106485786606258	2.9258008371608093	2.7491342132087064	1.2126366281589602	0.35557296636824304	2.942054833710285	0.107827375020219	-0.40665424799012917	0.5144816230103482	70.31531500690272
6	3.0	ltm	106	diff_vonmises	0.003452631634010592	0.19782122084216403	2.905169328411269	1.1606031000830346	0.6864696962386776	1.7950808666212725	0.24012948413210833	-0.21938137010337522	0.45951085423548355	66.72153575741797
7	3.0	perception	106	diff_vonmises	-0.0749310064936975	-4.293230426756232	6.504317833003171	1.127117532102535	4.429295754231572e-19	1.770373393869767	0.8410645297804166	-0.2817611601850691	1.1228256899654856	53.38967548358946
8	3.0	wm	106	diff_vonmises	-0.05660271518808441	-3.24309668925828	1.4668805221456123	224.75714996303284	1.451965466434535	225.71988648505413	0.1824393235667685	-0.2995176030394475	0.48195692660621603	69.97594362574733
9	4.0	ltm	106	diff_vonmises	-0.2700703718297987	-15.473892477376307	1.0186153198784118	183.57429012434378	0.9995288643130178	185.28759679128956	0.07694675765277026	-0.41328774741504404	0.4902345050678143	81.26961061661217
10	4.0	perception	106	diff_vonmises	-0.04212705997049435	-2.4137027396038406	3.3835465621113054	1.6686694793418664	2.6692163129395787e-14	3.7133621720605494	0.5786023452009323	-0.5896534536688339	1.1682557988697662	74.60505918283192
11	4.0	wm	106	diff_vonmises	-0.003380641281217085	-0.19369647746143823	0.91616130756429	148.90582070004623	0.8951514144917677	151.10533886465717	-0.11212874402812645	-0.4578840539888951	0.34575530996076864	80.35574462370366
12	5.0	ltm	106	diff_vonmises	-0.07078869479644503	-4.055893449075993	2.9724266746620978	0.9124116093240726	1.5965901039447393e-18	1.809399565249623	0.30647563302467634	-0.28641784425251987	0.5928934772771962	79.70698584398335
13	5.0	perception	106	diff_vonmises	-0.08867124152316079	-5.0804879034622905	1.171112910435574	7.376774535606389	0.5911993149473999	8.635769237513975	0.4784586042017267	-0.4628746072259948	0.9413332114277215	94.55141426716078
14	5.0	wm	106	diff_vonmises	-0.11866673385967288	-6.799103018761438	0.4293396372217133	200.85992213141017	0.4173849564433422	201.95792162463934	0.1886009759779128	-0.3992506688996684	0.5878516448775812	129.8862532120137
15	6.0	ltm	106	diff_vonmises	0.05787473904089931	3.3159782874645445	1.4142960371157858	1.375428200266664	0.34066595465278704	1.9481120805931431	0.15143844551695862	-0.18573718195567576	0.3371756274726344	95.54331303570149
16	6.0	perception	106	diff_vonmises	-0.19102818389692963	-10.945108705343022	1.5349668486592312	1.4612491584861054	1.2922063169477004e-11	2.45613573991871	0.25094345138480867	-0.3611087268889214	0.61205217827373	109.26845960073575
17	6.0	wm	106	diff_vonmises	0.580868173112178	33.28129477280228	0.0006447431494901607	2332.0710070316004	9.00499707674589e-29	2332.5599266620525	0.16152497469778382	-0.31707578577061213	0.47860076046839595	170.00361405317597
18	7.0	ltm	106	diff_vonmises	-0.13856514041857715	-7.939197733622088	0.9695694977611674	170.35211598425326	0.954766841341779	171.77866573594085	0.003232071244724466	-0.32269998502404107	0.32593205626876554	81.38205317349647
19	7.0	perception	106	diff_vonmises	-0.09541691379614836	-5.4669864546829	1.6904388908425756	2.0164254320467427	0.08863707757020745	3.3577410591993804	0.3563965324104892	-0.45616192185678023	0.8125584542672695	99.76801274229757
20	7.0	wm	106	diff_vonmises	-0.14300717136836344	-8.19370735951133	0.9891654107262585	154.13935812491448	0.9742361959842749	155.3624902480415	0.023991620843894168	-0.28414081998533547	0.30813244082922964	81.37922850988969
0	1.0	ltm	107	diff_vonmises	0.08637658661956259	4.9490138620471145	8.352722218366239	0.3746251974798452	0.12703103622656362	3.6603950907790526	-0.23374022404918426	-0.6123155443451965	0.37857532029601226	44.27576762272483
1	1.0	perception	107	diff_vonmises	0.052739463276130334	3.021748659507466	13.471276171077205	0.6179013571680516	0.11303684335776631	3.6253988312747594	0.2520744503178566	-0.6115588537040975	0.863633304021954	36.166825543864945
2	1.0	wm	107	diff_vonmises	0.035968901893406915	2.060866272212332	2.2045087969251043	1.6659594580408685	0.369741964280714	5.608122257729508	-0.3375345223356685	-0.7728113927024879	0.4352768703668194	69.73603626364073
3	2.0	ltm	107	diff_vonmises	0.08022320430806727	4.596451025867978	6.329387767052732	0.5699564175240786	0.2930474900498064	1.7904331432901368	0.18578583633706724	-0.3012206494721282	0.4870064858091954	50.48539711792145
4	2.0	perception	107	diff_vonmises	0.016122317495051032	0.9237407484363537	6.47174703876784	1.3565846607852428	0.38574924640763036	3.1448682965311265	0.6384983792666542	-0.5357222996691	1.1742206789357543	49.96554144540298
5	2.0	wm	107	diff_vonmises	0.05687439163665632	3.258662603154554	1.750388743448675	2.7857183771137026	0.6152917021776804	4.641416999551456	0.07937499039267171	-0.4433522535689628	0.5227272439616345	76.57783349598114
6	3.0	ltm	107	diff_vonmises	0.01987489585116838	1.1387476505340182	1.687571080292577	42.36906702423218	1.6167241819843212	43.01831127913732	0.21368739036520523	-0.23991579890591552	0.45360318927112075	67.03019126496164
7	3.0	perception	107	diff_vonmises	-0.05708072553659408	-3.270484664791462	5.421414066880103	1.4245568056551534	0.16235935211304023	2.2275093792522553	0.8751922823422251	-0.3481981694850957	1.2233904518273209	56.92205770217433
8	3.0	wm	107	diff_vonmises	-0.051998532841055094	-2.979296472664863	1.3082094634139894	245.0931218128353	1.2949140145574136	246.266439682852	0.12690361251894444	-0.32336872706327924	0.4502723395822237	72.80995894096912
9	4.0	ltm	107	diff_vonmises	-0.220379703968996	-12.626826927765949	1.0916671373619142	237.04602689085047	1.0768072762618	238.7790058141954	0.04342189457702261	-0.4132374173147859	0.45665931189180853	77.48954172607426
10	4.0	perception	107	diff_vonmises	-0.055937933263646135	-3.2050074906913824	3.398965879408482	1.7600244733397272	0.12196708529503827	3.6808356797649093	0.5774959946901177	-0.5486523140875776	1.1261483087776953	70.870291884084
11	4.0	wm	107	diff_vonmises	0.09606135376325145	5.503910144947456	0.8461838963845043	149.61867590951502	0.8273255908148082	151.8550682943159	-0.15219465123822573	-0.44846187877212174	0.296267227533896	81.99436067336683
12	5.0	ltm	107	diff_vonmises	-0.10445425437226517	-5.98478792771672	2.9242762877351876	0.857535379191707	3.047534610960199e-20	2.070778764933509	0.22393158275363328	-0.32797832502345514	0.5519099077770884	80.3712569775245
13	5.0	perception	107	diff_vonmises	-0.09880254295837362	-5.6609687166748195	0.8487076783682964	213.1940396051832	0.8264319440387535	214.77067436168656	0.4197425360875826	-0.5132538572641323	0.9329963933517149	95.05656663440344
14	5.0	wm	107	diff_vonmises	-0.08030991800608847	-4.601419354790565	0.32558925708967346	157.76499556101243	0.31219065778592314	159.3488065258706	0.04398864663345847	-0.4560724981466038	0.5000611447800622	139.85884889349904
15	6.0	ltm	107	diff_vonmises	0.061494021029954396	3.5233478703051144	0.6827680837635598	102.93949484768493	0.664705587291005	104.02828625636977	0.05139893488625091	-0.2670176398008639	0.3184165746871148	100.66378526676536
16	6.0	perception	107	diff_vonmises	-0.15896378200539776	-9.107953804346954	0.7082868918067193	229.1472182760214	0.6929117251798343	230.68291487656234	0.2366214710567931	-0.4481468089341121	0.6847682799909052	102.11975403043097
17	6.0	wm	107	diff_vonmises	0.5395566094085688	30.914316527499636	0.00023940365065132767	6637.9006055642485	8.303067409579785e-31	6639.234390820122	0.040655447137623923	-0.4651822053842807	0.5058376525219046	171.31889670262683
18	7.0	ltm	107	diff_vonmises	-0.07102433077169132	-4.069394395959054	1.0513439107887	207.25034492021283	1.0372188134351519	208.9629749000881	-0.04577506844358936	-0.37974391858059064	0.3339688501370013	76.38705938128066
19	7.0	perception	107	diff_vonmises	-0.05434631430959008	-3.113814442030944	1.6728461384168458	2.014102756939981	3.0304960253309167e-20	3.7010767093943837	0.3431474332872706	-0.5561978894869223	0.8993453227741929	105.34314506890355
20	7.0	wm	107	diff_vonmises	-0.20520598857348027	-11.757437076070216	0.9891999106849463	221.41811687748606	0.9768605335301276	223.02427907566565	-0.02422734000127491	-0.3563742491537347	0.3321469091524598	79.52050704754188
0	1.0	ltm	108	diff_vonmises	-0.06939583513380346	-3.976088468952615	5.1168146096624385	0.3512599533896606	9.870077130790076e-15	1.9725426642239277	-0.0055804652239472285	-0.3139288326848269	0.3083483674608797	60.341167116896884
1	1.0	perception	108	diff_vonmises	-0.024068240991513664	-1.3790086291174968	14.322293820935524	0.6547280717694994	6.747127191969857e-24	2.265945289872474	0.6186453907496863	-0.36063639365864625	0.9792817844083326	35.80996724371843
2	1.0	wm	108	diff_vonmises	-0.4302259897527115	-24.65013344966897	0.0001661887413099515	5578.709005612552	3.141295077002473e-31	5580.610417818868	-0.1550602602841309	-0.4501657825790062	0.2951055222948753	174.7692068744093
3	2.0	ltm	108	diff_vonmises	0.1513935178824745	8.674209620304143	5.485302608413446	0.6530113219906047	0.5679008940150283	1.4270557486894777	0.2244448751617405	-0.24186946421096342	0.46631433937270395	52.07883459330159
4	2.0	perception	108	diff_vonmises	-0.0242901837162846	-1.391725010540505	6.686374896450619	1.1126536584096327	0.19754944040789754	1.9051876158926324	0.758588438654962	-0.3082389214079641	1.0668273600629261	51.15677021194841
5	2.0	wm	108	diff_vonmises	0.07376395230612971	4.226363147345529	2.280694615983427	0.6707446815758391	2.1067626102355766e-16	1.639731820189317	0.11343410933020559	-0.2570596704305675	0.3704937797607731	91.04014833478578
6	3.0	ltm	108	diff_vonmises	0.11353476229967767	6.505062707792543	4.23967627398433	0.5328696407096143	0.5292586908711173	0.8244303578162065	0.21487722859874686	-0.12222082820691277	0.33709805680565963	59.90040645769042
7	3.0	perception	108	diff_vonmises	-0.030037501396660157	-1.7210220571469428	3.9886067219102808	1.8167129467665493	0.3566217903319831	2.1254831344328196	0.9263282220169498	-0.3021820076250915	1.2285102296420414	64.38895565583286
8	3.0	wm	108	diff_vonmises	-0.13739509170183187	-7.872158880327885	1.4941774578026565	129.40861640751388	1.4735495042853732	129.90544073435476	0.2556430908383476	-0.20521610399713808	0.46085919483548565	72.38433194649721
9	4.0	ltm	108	diff_vonmises	0.03864130684368143	2.21398379701293	2.4469538766543297	1.6731057422097566	0.8367452262649571	2.50070436534167	0.196814831260134	-0.26029463382776613	0.4571094650879001	67.84691723172844
10	4.0	perception	108	diff_vonmises	-0.06708658096913521	-3.8437779514941157	2.946219377545413	2.1599950050929184	0.043343822208440824	3.535013750599772	0.8128937680385698	-0.5362916207700631	1.349185388808633	78.54061967952214
11	4.0	wm	108	diff_vonmises	-0.18699526178132522	-10.71403928901392	1.249721378033133	318.91851764136027	1.2359785919218744	320.37926295895517	0.24075032644023509	-0.422014881619333	0.6627652080595681	75.79840963518765
12	5.0	ltm	108	diff_vonmises	0.00358369915185247	0.20533083644575925	1.9228924358882102	0.9843225338937092	4.091784790878943e-15	1.176814619460932	0.30855141880628645	-0.17669953283335402	0.4852509516396405	98.83997294823473
13	5.0	perception	108	diff_vonmises	0.006799293849258492	0.3895708412317714	2.1001219417281978	1.9263338897249422	2.867742511603668e-17	2.28637549797067	0.6595404660568887	-0.3485433153220037	1.0080837813788923	94.77908458088396
14	5.0	wm	108	diff_vonmises	0.1116409855348484	6.396557291827887	0.5187854510419881	37.74585131451669	0.475463740086315	38.160012673109634	0.2051717924788825	-0.2236378978497333	0.4288096903286158	124.7336234399839
15	6.0	ltm	108	diff_vonmises	0.41507611876921086	23.782109782146676	1.0092311058936463	84.23913289897723	0.9957424709291097	84.33069211971683	0.18368916650538125	-0.08892335515302374	0.272612521658405	92.19680636792717
16	6.0	perception	108	diff_vonmises	-0.13848685195691587	-7.934712135184325	0.7258602450752606	182.1719406522412	0.7138862735790097	182.55118532036872	0.30716528871080584	-0.2264737915919497	0.5336390803027555	106.5837580138455
17	6.0	wm	108	diff_vonmises	-0.06205760523643147	-3.555638866736481	0.463075940478362	96.59346323682902	0.44925101614345925	96.794990856614	0.19991902445057264	-0.17586093648139034	0.375779960931963	130.03219926307696
18	7.0	ltm	108	diff_vonmises	0.06036111977099072	3.4584374095614385	1.089601434860185	1.105652288667401	2.6682980441498753e-16	1.6017202365580263	0.14153752535336228	-0.2100664686888658	0.3516039940422281	124.90380876277067
19	7.0	perception	108	diff_vonmises	-0.09736645242300393	-5.578686789999454	0.9955112313976963	225.50329095799384	0.9794236322215475	225.84878430522744	0.5702486009034686	-0.2905846983857039	0.8608332992891725	92.56998785948346
20	7.0	wm	108	diff_vonmises	0.11966860142205966	6.85650580171726	0.8061649071463725	45.825639767504725	0.76980197439984	46.459378414584194	0.1294434775878628	-0.19292996377133864	0.32237344135920143	97.09201041911544
0	1.0	ltm	109	diff_vonmises	0.1351287338385711	7.7423061398967565	0.8043278223638359	1.0994301776434434	4.988364915184305e-31	2.570959275446984	-0.07443902528410973	-0.3421790246287656	0.26773999934465587	136.93937124204427
1	1.0	perception	109	diff_vonmises	-0.02540596516364082	-1.4556545783330148	12.91175132310952	0.5644328986244301	1.0804442215642187e-22	2.2168840192211037	0.4478452229189484	-0.35282804991558264	0.800673272834531	37.734472420621756
2	1.0	wm	109	diff_vonmises	-0.023473510675926804	-1.3449330920858862	8.956921142355027	0.2998389037331631	6.909693673972874e-29	1.8914196994866144	0.051633644861276806	-0.30102878877846256	0.35266243363973937	45.38557275898515
3	2.0	ltm	109	diff_vonmises	0.06701477499917835	3.839663772471744	4.532600842049853	0.5613258155087175	0.3064910083632714	1.5205176060308756	0.14061441472397046	-0.23993177814617864	0.3805461928701491	58.475072657319345
4	2.0	perception	109	diff_vonmises	-0.010283784849112064	-0.5892174692747014	6.321652112279801	1.1004557873627558	0.20538715264930527	2.1697255306471344	0.6603337276854683	-0.35054668486972634	1.0108804125551947	52.28443557186205
5	2.0	wm	109	diff_vonmises	0.17044023436698785	9.765506088449012	1.5310135356446417	0.8810590339611876	6.363894475373775e-32	1.7497986306120086	0.10790382264799808	-0.2604082515484779	0.368312074196476	109.39254503814374
6	3.0	ltm	109	diff_vonmises	0.008264275731665393	0.4735081201568174	3.1399373496103435	0.6837676575839805	0.44098387582579585	1.2203289898453238	0.17183252788646697	-0.1662251794558766	0.3380577073423435	67.73673755407887
7	3.0	perception	109	diff_vonmises	-0.008771523166863282	-0.5025712573624922	3.5505886692701383	2.5108075429490633	0.5522711114842255	3.1210598963711247	1.0069883274270288	-0.41307000953984396	1.4200583369668727	65.35774204844975
8	3.0	wm	109	diff_vonmises	-0.18735442983962483	-10.734618102890396	1.3117334169290755	165.06695718546433	1.2962863464481362	165.62440627665043	0.24196006683274618	-0.21038443152276898	0.45234449835551516	76.98570887131794
9	4.0	ltm	109	diff_vonmises	0.04604547069859345	2.638211136722703	3.3340137453214225	0.8871453874333374	0.5002152299611073	1.818529970371969	0.16794958120940406	-0.2580105062175954	0.4259600874269995	64.15302496880426
10	4.0	perception	109	diff_vonmises	-0.04722517440677154	-2.7058031802772406	3.316844696924287	1.9083653211591585	0.11621021637962313	3.5367466974836637	0.6927132872652614	-0.5240804964715691	1.2167937837368306	72.13308222897487
11	4.0	wm	109	diff_vonmises	-0.11312117035274184	-6.481365634792522	1.1382861871014898	278.881015659117	1.1252007971064752	280.28403396248956	0.16803193518597936	-0.3781509200067461	0.5461828551927255	78.68919938880023
12	5.0	ltm	109	diff_vonmises	0.045462322271000964	2.604799192991963	1.1837138046858062	1.7669053395016392	0.1218439088295554	2.1234707708497416	0.2842195664678173	-0.23579876886210177	0.520018335329919	115.18944236255236
13	5.0	perception	109	diff_vonmises	-0.01753046056378689	-1.0044214032255185	2.031535050534483	1.8754823142891603	2.0672849033007871e-16	2.449345013385393	0.5868948796390927	-0.37302954393053406	0.9599244235696267	96.29852097106482
14	5.0	wm	109	diff_vonmises	0.12350975059060483	7.076587437555084	0.43879326139914276	117.7357761714797	0.42506297369218987	118.28122340191534	0.1715454958233984	-0.2474558464495047	0.4190013422729031	130.3245013845949
15	6.0	ltm	109	diff_vonmises	0.36059347990232926	20.66048451833894	0.7463504786499523	102.5431216966697	0.7327188927524229	102.8355284088158	0.18174569572230226	-0.14641374658417217	0.3281594423064744	104.38685206403753
16	6.0	perception	109	diff_vonmises	-0.0964402505195401	-5.525619329953992	0.8813692200593023	195.3445527515302	0.8683990235564923	195.94807438804037	0.29190464338604727	-0.24718473837333832	0.5390893817593856	95.09638386388113
17	6.0	wm	109	diff_vonmises	-0.13714261177416281	-7.85769284606068	0.531561097202258	106.74592307352114	0.5176993315079583	107.16906899917883	0.17175847428191915	-0.20085724498391144	0.3726157192658306	121.5238533628234
18	7.0	ltm	109	diff_vonmises	0.08590970304649677	4.922263403786456	0.983862132524477	1.6645417578656478	0.06016047920059207	2.3005586803923133	0.17520854776033823	-0.2656637075686963	0.4408722553290345	125.38491910599637
19	7.0	perception	109	diff_vonmises	-0.11458006921728323	-6.564954382467171	0.9695788809324394	258.43301053416644	0.9520020567386264	258.8877796128214	0.7106576006533203	-0.37129914826552834	1.0819567489188486	93.74183208631014
20	7.0	wm	109	diff_vonmises	0.0050490198314315626	0.2892875270188829	1.0199713311946164	115.2346246262741	1.0017405678394404	115.85467911658854	0.1849423960723655	-0.2035611874139409	0.3885035834863064	86.6207680022255
0	1.0	ltm	110	diff_vonmises	-0.028453253903920908	-1.6302513621088013	8.659204870484258	0.3513218457409393	0.14153670151121756	2.9393671077610333	-0.1301918290764275	-0.49491523317071934	0.3647234040942918	43.66044304858946
1	1.0	perception	110	diff_vonmises	0.024877173979938567	1.4253570752631488	15.320294534981047	0.6677916718504752	7.10038691331782e-19	3.0088099095588783	0.5546875105781202	-0.478866969930123	1.033554480508243	34.61567003472538
2	1.0	wm	110	diff_vonmises	0.12066368139539604	6.913519684467425	6.781971886142611	0.34982920918526883	0.008814780823051666	3.4590387282074437	-0.1991625033043155	-0.5502060585494736	0.35104355524515807	51.81065361625721
3	2.0	ltm	110	diff_vonmises	0.14382766639892847	8.240718261874164	4.529926172690892	0.7894271759593516	0.6016502290249951	1.7234479367105737	0.19105278033815531	-0.2765067554043943	0.4675595357425496	55.62970048009217
4	2.0	perception	110	diff_vonmises	-0.00829441745086476	-0.47523511345420966	7.4420292871001985	1.2451716002731794	0.31845617364353457	2.34446634813502	0.8301634808059329	-0.3981438886120005	1.2283073694179334	47.81500415753021
5	2.0	wm	110	diff_vonmises	0.0789222706153277	4.521913015847631	3.310411996961797	0.7477733853769581	0.12211220787913783	2.1574397125411	0.1312200358113894	-0.32441254794855	0.4556325837599394	70.68632717955751
6	3.0	ltm	110	diff_vonmises	0.116445211581249	6.671819168113463	3.2594196122116466	1.1163400721508132	1.1946852253196785	1.413541926510839	0.23173728225288115	-0.15380706958903917	0.3855443518419203	60.15586267220371
7	3.0	perception	110	diff_vonmises	-0.05078864344917255	-2.909974916832343	5.545697885207852	1.1257785420760262	0.04281390943736598	1.3643133682598756	0.8048436538097011	-0.21389797797866203	1.018741631788363	57.48666803202431
8	3.0	wm	110	diff_vonmises	-0.03491047517557493	-2.0002228883566753	1.61943608211299	118.73536951569191	1.5959178010576538	119.28173522375116	0.23158125217334202	-0.2155381506812475	0.4471194028545895	68.77322784850159
9	4.0	ltm	110	diff_vonmises	-0.095228565091406	-5.456194868824406	1.2715723473351213	186.9791166359207	1.2539765699099001	188.21540474482038	0.12075833692748006	-0.33377547364282023	0.4545338105703003	73.74079435219008
10	4.0	perception	110	diff_vonmises	-0.06942594409332575	-3.9778135852587724	3.032916997555619	1.9198861684539417	1.0090452645502634e-13	3.4363496750253995	0.7183711545973309	-0.5439755390085257	1.2623466936058567	78.8942291408836
11	4.0	wm	110	diff_vonmises	-0.11505472827423575	-6.5921503431382105	1.1917152751531694	287.62030482057804	1.1781741478294665	289.30356796211527	0.08959554001755521	-0.42458534740513443	0.5141808874226896	74.97235058789067
12	5.0	ltm	110	diff_vonmises	-0.07784798042789999	-4.460360722135706	2.9348880359091	0.7241225188414111	5.342367829768041e-16	1.3839558340947107	0.24805559081770087	-0.21894086016458544	0.4669964509822863	80.23120681199461
13	5.0	perception	110	diff_vonmises	-0.04035387852876964	-2.3121069266820924	1.1727901628011757	7.841758341095189	0.6312932003996784	8.686231306196328	0.575376617878677	-0.41002970313806386	0.9854063210167409	95.14851219880873
14	5.0	wm	110	diff_vonmises	-0.0018358603528695553	-0.10518704999482355	0.5243787809561292	100.09102637324277	0.50556025702535	100.84893772833009	0.16504437513219372	-0.2779708621153123	0.443015237247506	120.66855126196732
15	6.0	ltm	110	diff_vonmises	0.19857297671913765	11.37739349135614	0.9406476923232968	80.58494230490334	0.9240782913570735	81.00625002459995	0.11595080110434708	-0.1358948978966188	0.2518456990009659	90.04335659520663
16	6.0	perception	110	diff_vonmises	-0.23449095228631386	-13.435341900009346	0.5677541524911924	183.9578586320973	0.5541283450900145	184.65861541143002	0.2923760352022029	-0.3270838255863868	0.6194598607885897	118.04667425284235
17	6.0	wm	110	diff_vonmises	0.3186190232996736	18.255525307651737	0.16530570325570257	91.76363227852818	0.14964707937739907	92.19292120303334	0.1662427890859881	-0.2679000756895835	0.4341428647755716	159.49568417715892
18	7.0	ltm	110	diff_vonmises	-0.04044492783143201	-2.3173236674522553	0.8982566721088651	112.88634254618049	0.8817640097531056	113.87123869066316	0.04032120689335272	-0.2335605123536162	0.2738817192469689	86.64563419988156
19	7.0	perception	110	diff_vonmises	-0.06811196783897228	-3.9025282915039097	1.8085809469188345	1.9767642413774327	0.17036579774375893	2.8531848354280545	0.42485209627841447	-0.3563826002831048	0.7812346965615193	93.85866708261969
20	7.0	wm	110	diff_vonmises	0.01200971951324388	0.6881062412447837	0.7403963524913023	88.26899917002318	0.722332213262568	89.21369636361948	0.03140703983071447	-0.22299430215380056	0.25440134198451503	95.72869490885446
0	1.0	ltm	111	diff_vonmises	-0.3326186370833638	-19.057644092270362	0.7574936062781052	108.78195870775141	0.7301913943879675	111.47768950712388	-0.21571760999945155	-0.5226155924121958	0.30689798241274424	85.54345875525536
1	1.0	perception	111	diff_vonmises	0.006038347892019897	0.3459718494444574	11.422219058176815	0.7129764177078796	4.9187790291720684e-18	3.3881235320236756	0.4109022343948201	-0.5392366078135791	0.9501388422083992	40.13664639163338
2	1.0	wm	111	diff_vonmises	-0.3247375811626974	-18.606092849909587	0.00014942460063007435	7580.39623096952	7.180681635726834e-30	7583.5269785101345	-0.3179970389110167	-0.6785373869677187	0.360540348056702	176.9982546947737
3	2.0	ltm	111	diff_vonmises	0.09962315964339521	5.707986589324573	6.7379774314855805	0.5604833432317728	0.20714032884277409	1.9853530541937867	0.18418145101844807	-0.3296464008155362	0.5138278518339843	49.74024793191532
4	2.0	perception	111	diff_vonmises	-0.013372609874548523	-0.7661941068865996	6.336966010325817	1.1935068875391777	0.12204526196580284	2.712563738425222	0.6869375105774789	-0.4334522991752521	1.120389809752731	52.74569098476994
5	2.0	wm	111	diff_vonmises	0.09670680727859424	5.54089190724848	1.3764987027563118	1.1115124316516103	1.583371910973923e-24	2.783829711391734	0.01405834812247081	-0.4139225301846503	0.4279808783071211	114.40419616509976
6	3.0	ltm	111	diff_vonmises	0.08800842162369761	5.042511120645765	4.919138994429997	0.42582627518918714	5.046517930949565e-13	1.0689371386084272	0.19592463045221142	-0.17010709357220508	0.3660317240244165	61.5704205869024
7	3.0	perception	111	diff_vonmises	0.008901562547624621	0.5100219650506117	2.2666128616889885	5.662206144084943	0.9477833483452658	6.523807263241648	0.9841617316487543	-0.5141258311744005	1.4982875628231547	72.0877099677655
8	3.0	wm	111	diff_vonmises	-0.1984122244116317	-11.36818306258906	1.208580867000942	127.5253250850301	1.184297546699012	128.50894023477517	0.20223679266022287	-0.2945083977273093	0.4967451903875322	78.05108862157783
9	4.0	ltm	111	diff_vonmises	0.05679114585569866	3.2538929712434093	3.2325626788082085	0.9810981136798788	0.21311075255907946	2.3941485182966145	0.20408369739233084	-0.3503550478594129	0.5544387452517437	69.66439873625356
10	4.0	perception	111	diff_vonmises	-0.10043146247433278	-5.754298930105772	1.1797484212258584	289.22985736312165	1.1532156270425624	290.95264895567993	0.7861509361149359	-0.6576685658421226	1.4438195019570585	81.80060692372354
11	4.0	wm	111	diff_vonmises	-0.2447671083721488	-14.024122273345364	1.0907569406099578	304.56678309725845	1.0740592536130138	306.53293060702816	0.25480258941834677	-0.5324528034710525	0.7872553928893993	80.7893137178365
12	5.0	ltm	111	diff_vonmises	0.005218968441960974	0.29902486513633075	1.7329293116330922	1.1755288616653368	0.007782294257102868	1.7599675065414693	0.2735859491452608	-0.26056206883850846	0.5341480179837692	103.30056891434063
13	5.0	perception	111	diff_vonmises	0.0381058436689178	2.1833040170142985	2.2400542727436785	2.048075441830837	1.2189772474626317e-16	2.738432788275257	0.695204670113254	-0.42301767085524716	1.1182223409685013	91.84999620317646
14	5.0	wm	111	diff_vonmises	0.06422751049941257	3.6799652802485223	0.4252443761525187	165.6157453450616	0.41335285279799067	166.60302739686944	0.13504399949952983	-0.3374367338152524	0.47248073331478224	129.85422507723575
15	6.0	ltm	111	diff_vonmises	0.5532160887928302	31.696947046563775	0.92422199256032	130.81175795538792	0.9125149308526761	131.21657258612933	0.15977837732638278	-0.1494828728901645	0.30926125021654727	92.06250543714341
16	6.0	perception	111	diff_vonmises	-0.02598179580857252	-1.4886472440018976	0.7329818806024716	206.94461768278023	0.7209883952158384	207.58848491314527	0.28771858472268264	-0.2725555503941237	0.5602741351168063	104.18997705465982
17	6.0	wm	111	diff_vonmises	-0.1777991116390718	-10.187138698094167	0.5900384752668808	96.06556973389944	0.5732352633210799	96.70093509126163	0.139434947805551	-0.22168587124702377	0.36112081905257476	113.90099174686125
18	7.0	ltm	111	diff_vonmises	0.1793305799723863	10.274885370051022	1.0170850689644024	1.1505467742283915	1.636815428506649e-16	1.8046500736916022	0.10964609833461164	-0.23531218812083748	0.3449582864554491	127.59057080225034
19	7.0	perception	111	diff_vonmises	-0.11962273237727561	-6.853877699040837	0.9438258649578884	224.83282983619188	0.9279185227478393	225.03930774674578	0.6120847260779527	-0.285156358903933	0.8972410849818857	95.90618878971003
20	7.0	wm	111	diff_vonmises	-0.03494462254288166	-2.0021793883848336	1.321727288046311	2.1104753166397088	0.4140746446016189	2.885865011096936	0.1811104125557197	-0.24136485826182177	0.42247527081754144	94.86043052629725
0	1.0	ltm	112	diff_vonmises	-0.05243962545907795	-3.004569218051949	7.041382892257067	0.22362668809099265	0.048715979339262486	2.577366469533153	-0.198204428651585	-0.41466681151545315	0.21646238286386815	49.35628642164488
1	1.0	perception	112	diff_vonmises	0.01434257574878013	0.8217690577517879	13.944462682735784	0.5813043875318765	0.011072747595864688	2.877347307881714	0.39487942790039654	-0.4598182988766045	0.8546977267770011	36.2039966286994
2	1.0	wm	112	diff_vonmises	0.04204650732164716	2.409087412796297	5.7669038100922405	0.43460581998008374	0.1294904543207872	3.226438627872932	-0.17563833826003766	-0.5257802725729317	0.35014193431289403	52.636242478329194
3	2.0	ltm	112	diff_vonmises	0.06778284961650702	3.8836712063958028	6.611849058960368	0.4967444506075801	0.3245612579258912	1.5536303418635267	0.16591011174910053	-0.26562423547219255	0.4315343472212931	49.23476081614294
4	2.0	perception	112	diff_vonmises	-0.0051969041998354715	-0.2977606771843847	8.192196436912853	1.1787685554209872	0.2987772204183436	2.5065968428722414	0.7979768017641978	-0.4317968587931697	1.2297736605573675	45.66351884444026
5	2.0	wm	112	diff_vonmises	0.04807198680696117	2.7543219568474493	2.45811969826478	0.9676978966395876	0.2466680697494269	2.379493935445329	0.08730753491718618	-0.32614718939755016	0.41345472431473634	76.45138475392972
6	3.0	ltm	112	diff_vonmises	0.05082105786455296	2.9118321260290245	2.2040508002844517	3.1634328837283223	1.5015430134773462	3.4927338606354503	0.216344096598186	-0.15967289928361578	0.37601699588180176	65.04622671122266
7	3.0	perception	112	diff_vonmises	-0.04443578416353431	-2.545982891924777	5.161740747935134	1.4395352858312618	0.24889142037531548	1.8483557053094142	0.8978734695131363	-0.28496266206350196	1.1828361315766382	57.86825886859455
8	3.0	wm	112	diff_vonmises	-0.11485674959816095	-6.580807000565536	1.5697587563801185	149.72856043311768	1.5524207174187448	150.31045523298314	0.1908871635797169	-0.21010183099888025	0.40098899457859716	69.10028119050463
9	4.0	ltm	112	diff_vonmises	-0.12875482048708656	-7.377107805874606	1.2670577542858872	182.10262716920653	1.2503331724204008	183.33857046222806	0.07739313969416628	-0.3209111115614576	0.39830425125562385	72.9134608169071
10	4.0	perception	112	diff_vonmises	-0.07692620163840458	-4.407546687852941	4.063894888882858	1.5902687123420036	5.950594087925625e-15	3.146155939373967	0.732449792139766	-0.500362136411832	1.2328119285515982	67.91135574759818
11	4.0	wm	112	diff_vonmises	-0.07480666781744529	-4.286106345376736	1.0744434265347962	232.2539869243505	1.0615358754341715	233.87494452060605	-0.009391857323237218	-0.37084055993655696	0.36144870261331974	76.67357907415112
12	5.0	ltm	112	diff_vonmises	-0.07239656807274629	-4.148017801799926	3.026147012924936	0.763635979585528	2.19896133663099e-15	1.563066771573733	0.25385281663720904	-0.24758737998761016	0.5014401966248192	78.98445117793705
13	5.0	perception	112	diff_vonmises	-0.07267099193630884	-4.1637411309797345	1.0709618173766493	10.06831654517662	0.6652845432134296	10.992926728349495	0.5196967294923276	-0.4097532378127431	0.9294499673050707	96.25040738382293
14	5.0	wm	112	diff_vonmises	-0.11972359400346377	-6.859656644536245	0.4415803044906256	132.98004471318063	0.42786918776616545	133.9006567796633	0.12208992337214397	-0.3086795221680525	0.43076944554019647	127.96947396242939
15	6.0	ltm	112	diff_vonmises	0.1208809243541573	6.92596678913338	0.7853270574752266	101.1545639656102	0.7709412148860556	101.76029661976892	0.09732751115878457	-0.17376632022341632	0.2710938313822009	96.83146536989813
16	6.0	perception	112	diff_vonmises	-0.18894575670177882	-10.825794415917615	0.7704467750114931	217.31617996035553	0.7577268217486973	218.14371828377008	0.28321356693405164	-0.3041369666867446	0.5873505336207963	100.61775975194092
17	6.0	wm	112	diff_vonmises	0.2982490248460362	17.0884103675703	0.0003630987024499784	3544.307018008132	2.5579397435787935e-27	3544.9874718559495	0.09654254585893796	-0.31310054762536765	0.4096430934843056	177.14824048033012
18	7.0	ltm	112	diff_vonmises	-0.04245565114447048	-2.4325296270579218	1.1452726607307961	174.13713327949745	1.1320657077443366	175.14984553303645	0.057282016444915484	-0.25374822650885775	0.31103024295377324	76.66858990741949
19	7.0	perception	112	diff_vonmises	-0.11547634203050255	-6.616307031956955	1.7718524828488962	1.8800617511460558	5.240757566755307e-18	2.804849608682954	0.45471551881661315	-0.42035577127744506	0.8750712900940583	102.62967546606873
20	7.0	wm	112	diff_vonmises	-0.24257031495530343	-13.898255282098	0.9456476353526277	111.65201140671448	0.9310905688785123	112.5238321511154	0.022379333009148183	-0.20303357704613667	0.22541291005528485	83.6078393465171
0	1.0	ltm	113	diff_vonmises	-0.07263556175971547	-4.161711131393532	6.117260971029054	0.31682453236632147	0.04555225560270904	3.8360146677707805	-0.3329953176040544	-0.614394427608125	0.28139911000407064	52.68860452705957
1	1.0	perception	113	diff_vonmises	0.030930082877669733	1.7721632088803279	13.568664616745496	0.6056876886827379	3.2470589118952905e-14	3.6802701622820906	0.2957612621816341	-0.5857331882393431	0.8814944504209772	36.79269684202501
2	1.0	wm	113	diff_vonmises	0.05073767819170237	2.9070548226775044	7.4342475422673395	0.3085467610944305	6.445402203264792e-30	4.483252639857039	-0.3839509237812749	-0.7135317037716911	0.3295807799904162	49.87812304504129
3	2.0	ltm	113	diff_vonmises	0.06479549324151948	3.712508294207516	8.54536468386356	0.5291058280925807	0.2212210218022419	2.0995872416745187	0.19557945250224168	-0.36030979372745775	0.5558892462296994	44.36195125554704
4	2.0	perception	113	diff_vonmises	0.0072229006482468034	0.41384172298684824	6.906535264605082	1.2812550852876012	0.2362815317630508	3.180755490062044	0.6846004774967237	-0.5279512825725472	1.212551760069271	49.582192855532725
5	2.0	wm	113	diff_vonmises	0.05256975970077988	3.0120253608716046	3.0420775945502316	0.7929628153971205	0.09731321531811797	2.96482877126532	0.004626744042511621	-0.44812946659242653	0.45275621063493815	73.2234358298526
6	3.0	ltm	113	diff_vonmises	0.0070241147910208275	0.40245213234090965	3.3333211554208764	0.6676786863883302	0.3108725896312413	1.3511194372707278	0.17761307545928362	-0.19366418257831108	0.3712772580375947	67.71255595342603
7	3.0	perception	113	diff_vonmises	-0.03504543341670643	-2.0079554259840187	4.1894953070979986	1.8925956838293854	0.28329787315860355	2.8225375319260397	0.9077115776446776	-0.41884030151310625	1.3265518791577837	62.9883240455714
8	3.0	wm	113	diff_vonmises	-0.1326674976761273	-7.601287695403751	1.3445489742448447	200.14612913112273	1.3268426058527691	201.42259647630198	0.12653241434838947	-0.3515885101411058	0.4781209244894953	71.61399608707686
9	4.0	ltm	113	diff_vonmises	-0.15246645447415755	-8.735684358692735	1.376715659376743	3.223579121606084	0.5352295092743632	5.11637018924904	0.029713401838000753	-0.4281830374467899	0.4578964392847907	84.13181665283153
10	4.0	perception	113	diff_vonmises	-0.0833041660444977	-4.772977130206739	1.466086024531427	9.991598621745403	0.7907020792590284	12.023135882538952	0.6389672545722198	-0.6711822729987734	1.3101495275709931	82.49542413843128
11	4.0	wm	113	diff_vonmises	-0.20521040836291596	-11.757690311351217	0.8968884601668705	62.27804882616214	0.8382232198550297	64.80063078647242	-0.08764351359384293	-0.533550301166084	0.4459067875722411	83.49745203306831
12	5.0	ltm	113	diff_vonmises	-0.04717520829636597	-2.7029403330323167	2.5861103784473087	0.9263375989916679	3.653008833653592e-18	1.8176785850320936	0.2675766185413263	-0.28613377331491324	0.5537103918562396	85.53042259522934
13	5.0	perception	113	diff_vonmises	-0.02517968019371571	-1.4426894045890613	1.9884371534829666	2.2775586171516182	0.12574126142994535	3.3964008289742362	0.5602140056423627	-0.4542906645833029	1.0145046702256657	91.66429559157893
14	5.0	wm	113	diff_vonmises	-0.12634641280587647	-7.239116210394379	0.4421279542877955	225.18623914107036	0.4312950012255232	226.5783882338879	0.12519941987378758	-0.42784831981124327	0.5530477396850308	126.80378901017949
15	6.0	ltm	113	diff_vonmises	0.41856189836240226	23.981830241149375	0.6265095189207563	143.25340436803722	0.6161814763859984	143.92186223235794	0.10101625260713831	-0.2023240971822986	0.3033403497894369	108.65091620834207
16	6.0	perception	113	diff_vonmises	-0.08686937217794181	-4.977248394747242	0.6896002062545994	263.36206514084137	0.678978646016532	264.2659921661499	0.2791763605932829	-0.33294474160630827	0.6121211021995911	106.0609790320931
17	6.0	wm	113	diff_vonmises	0.28362190246855223	16.250337988919107	0.00032400945660395337	4148.260586808361	3.251713059986997e-30	4149.165308570439	0.06994062774856502	-0.3578878547372142	0.4278284824857792	177.40526122823601
18	7.0	ltm	113	diff_vonmises	0.07133534375706581	4.087214127394776	0.9558441621745751	146.75090488691342	0.9406685485114143	147.97170587473974	0.019550257474136856	-0.2808424737068549	0.30039273118099175	82.6991365524535
19	7.0	perception	113	diff_vonmises	-0.10243706122365882	-5.869211273838871	0.7273413539055149	171.9261526327101	0.7078709417758293	172.67165266407113	0.42521750872013797	-0.36102603558726365	0.7862435443074016	105.70070996819588
20	7.0	wm	113	diff_vonmises	-0.2729600698634114	-15.639459978769567	0.8702553048722889	131.8561635012422	0.8536413141558482	133.0957083436876	0.02877780863927626	-0.28593403217960933	0.3147118408188856	87.31025196405156
0	1.0	ltm	114	diff_vonmises	0.016711450623926323	0.9574955902922446	7.195091209760971	0.6052755093850114	0.17510665388541624	4.232109870114864	-0.16070728744673646	-0.7121795856404912	0.5514722981937548	47.191042080764646
1	1.0	perception	114	diff_vonmises	0.01476169273277529	0.8457826920569627	16.564633909092255	0.6179790599218328	0.0034722327859039656	3.790282137735437	0.39021723601193203	-0.6040747351313578	0.9942919711432898	33.24718291161864
2	1.0	wm	114	diff_vonmises	0.08986019858501323	5.148610125128711	3.085567372382139	0.6635000053838588	0.08093248293475785	5.133834014689187	-0.44293725129020517	-0.7955939327481847	0.3526566814579795	70.09752677789805
3	2.0	ltm	114	diff_vonmises	0.09547151369222034	5.470114798289677	4.569748223348871	0.9380811311835127	0.4767468286705988	2.254623552384352	0.22856028046319532	-0.3611877386525114	0.5897480191157067	56.470251928845215
4	2.0	perception	114	diff_vonmises	-0.003271784860712519	-0.18745946399362523	4.974730982791375	1.4469175773139304	0.3577711950082042	3.117944478871765	0.5637485517733903	-0.49672798127708184	1.0604765330504722	56.465924607977996
5	2.0	wm	114	diff_vonmises	0.08465810353336511	4.850552034043383	3.7978958435108257	0.7704452447013797	0.0999696322129883	2.8245003038710736	0.08021200947335239	-0.4355529603756435	0.5157649698489959	66.37981148751575
6	3.0	ltm	114	diff_vonmises	-0.00588764169172479	-0.3373370202210946	1.8852497665792798	2.94497013660014	0.9808081491226273	3.682706859755932	0.2207788989284596	-0.24635146588938556	0.46713036481784515	72.65225837781438
7	3.0	perception	114	diff_vonmises	-0.056388243036073454	-3.2308083401249643	4.1017829458118165	1.8824990282109753	0.26078803590809646	2.879935536184045	0.8823482353972704	-0.42678244299497714	1.3091306783922474	63.77524115666799
8	3.0	wm	114	diff_vonmises	-0.10778847658062464	-6.175824788214507	1.254898116048202	166.39628306375994	1.2311195728783326	167.96131663645826	0.12370841471134497	-0.41205220624544125	0.5357606209567862	73.8643623842438
9	4.0	ltm	114	diff_vonmises	-0.1474679195622708	-8.449289404492827	0.9675187746157325	117.68596305793034	0.9349340548542445	119.42462903376736	0.15546555713955712	-0.44264916073798766	0.5981147178775448	85.37706384090504
10	4.0	perception	114	diff_vonmises	-0.0647913162408643	-3.712268969698951	1.454946940524718	8.728042986176495	0.6975350503510848	10.674254499801316	0.6789951389181117	-0.6659138873804022	1.344909026298514	85.10873624780854
11	4.0	wm	114	diff_vonmises	-0.22162392012170762	-12.698115262118328	2.0989588057691386	1.4758823658707185	0.21338339241150248	4.124951322441845	-0.019622655416516976	-0.5588265769889568	0.5392039215724398	80.97086619997087
12	5.0	ltm	114	diff_vonmises	-0.03701671346141456	-2.120901452784155	2.2853390720979703	1.1307357372850702	0.04688893722282589	1.844338201431066	0.3244849079653658	-0.273394543222976	0.5978794511883418	88.83737315764361
13	5.0	perception	114	diff_vonmises	-0.02117016804229762	-1.212961280406386	2.1074879123507824	2.1720115510414466	0.08940563307359943	3.363572412436231	0.5721978110359943	-0.4718649174323854	1.0440627284683797	90.58057831459783
14	5.0	wm	114	diff_vonmises	-0.02298401612701584	-1.3168871203386279	0.3056163075963572	169.66700311387723	0.291638828301271	171.04582236435684	0.13652936678560224	-0.47480022962504975	0.611329596410652	143.77182962576921
15	6.0	ltm	114	diff_vonmises	0.3312070043587679	18.97676349492846	0.6962755848805091	103.33616855627143	0.6822551635494791	103.80531314409397	0.1440974698472175	-0.17187348967499716	0.31597095952221466	105.64785457606015
16	6.0	perception	114	diff_vonmises	-0.06810110700859306	-3.9019060117611737	0.6100876337435807	214.3697818948542	0.5964286068152097	215.41047354409935	0.2787146066636268	-0.3841694642733202	0.662884070936947	112.58298644775597
17	6.0	wm	114	diff_vonmises	0.4012527192733856	22.99008733251262	0.04381861065266084	141.48103599716026	0.03407103518569926	142.15038001797572	0.11348903474960537	-0.31806551078804546	0.4315545455376508	170.92362464974804
18	7.0	ltm	114	diff_vonmises	-0.09502765182744066	-5.444683386750994	0.5618012180106732	97.01736066000309	0.5429515249226173	98.21298911513493	0.03965689546984663	-0.3001465110695687	0.3398034065394153	111.17529126457295
19	7.0	perception	114	diff_vonmises	-0.04258401884838978	-2.439884554718283	0.7554982667548359	218.5548416308362	0.7395589729216879	219.6197271840137	0.3538976079955489	-0.38984533525706766	0.7437429432526166	101.64534474714878
20	7.0	wm	114	diff_vonmises	-0.04615807759388604	-2.64466303656704	0.9259974869405285	165.35804070821018	0.909526214580721	166.7335409698278	0.07184804853248039	-0.3320205675733803	0.40386861610586067	85.71049496670025
0	1.0	ltm	115	diff_vonmises	-0.04510530638659016	-2.5843436895960936	6.1975270652931265	0.7042349627439587	0.2504364957500498	4.178953771851654	-0.15717179882720556	-0.7112971077958987	0.5541253089686932	49.42180126833634
1	1.0	perception	115	diff_vonmises	-0.013225258375396369	-0.7577514878802557	16.28839792820317	0.7643156414416389	5.573426463355108e-19	4.07908892698836	0.571513641759246	-0.6492071660416042	1.2207208078008502	33.556850136855246
2	1.0	wm	115	diff_vonmises	0.053658665920378476	3.07441509154015	9.00125943245561	0.33113990940380555	2.0860027462424684e-18	4.505479397807811	-0.32653773151479304	-0.7170693112268937	0.3905315797121006	45.26868215190464
3	2.0	ltm	115	diff_vonmises	-0.018265752266175734	-1.0465505144833886	1.2414998154434673	196.9562011095979	1.220109976767904	198.47554782878754	0.19288226784445328	-0.42039410469095984	0.6132763725354131	75.42816494075439
4	2.0	perception	115	diff_vonmises	-0.03916622469231249	-2.2440593743305772	4.548102480096301	1.4706795497253518	0.30301352659270053	3.1429954502173474	0.5501766941447039	-0.48773306022541535	1.0379097543701192	59.36699344403323
5	2.0	wm	115	diff_vonmises	0.10371117246115497	5.942212470377591	4.887670651225117	0.6438698631032491	2.265162182386418e-14	2.2857477883169803	0.18780485793473073	-0.36375670870217336	0.551561566636904	61.772093084869056
6	3.0	ltm	115	diff_vonmises	-0.08897583740487629	-5.0979399619416546	2.797947257492976	1.150682497831971	0.15352613005191282	2.0233341735847734	0.350851510615457	-0.28681309478864625	0.6376646054041033	77.19747579540305
7	3.0	perception	115	diff_vonmises	-0.03950886053970533	-2.2636909622960752	4.364975822466454	1.8309311409810003	0.27442431242959536	2.7521767537944024	0.9103762306474588	-0.4128394658120468	1.3232156964595054	61.9105201813756
8	3.0	wm	115	diff_vonmises	-0.1642335866222319	-9.409891367750106	1.396239420561488	154.94308776075096	1.3716483375865733	155.92533802604552	0.27896442417622325	-0.32817615351043017	0.6071405776866534	73.24604149859894
9	4.0	ltm	115	diff_vonmises	-0.12818513316978555	-7.344467126951129	2.38251574047285	1.8845828745991402	0.24575496030816874	3.320589593870566	0.41394413163662724	-0.43484120366666623	0.8487853353032935	80.04222213124433
10	4.0	perception	115	diff_vonmises	-0.07066324483329742	-4.048705695647563	3.1191544489715923	2.134622232481815	1.1676465892684296e-13	4.16974396158303	0.7657364795119227	-0.6608435708347163	1.426580050346639	77.7712453544122
11	4.0	wm	115	diff_vonmises	-0.2509078875465599	-14.375963002960951	3.7511695132803107	1.104323519360774	4.946246273881476e-15	3.1470238243310154	0.3187613903753743	-0.50041206149838	0.8191734518737543	70.75482391162637
12	5.0	ltm	115	diff_vonmises	-0.005551081077193462	-0.3180535174581201	2.2196311090861274	1.4241950979106373	3.8623891757795793e-17	1.8437797522219506	0.4887493511386154	-0.2842124840677504	0.7729618352063659	92.26730550866412
13	5.0	perception	115	diff_vonmises	-0.006628127053633308	-0.37976370624967	2.220096160598676	2.158129699482686	0.04109738256102227	3.035473952950059	0.682252540118458	-0.4494814559908276	1.1317339961092856	90.62351083729621
14	5.0	wm	115	diff_vonmises	-0.08388063981567269	-4.806006644295056	0.4013065448302357	261.0231036196652	0.3914790223307729	261.73154961717137	0.3096632236070107	-0.3889225706165078	0.6985857942235185	134.82828791651764
15	6.0	ltm	115	diff_vonmises	0.08629866170634531	4.944549093400842	1.5569466397989775	0.8450691100967124	8.976657257807935e-22	0.855622623286766	0.23823558730197558	-0.11954229378177866	0.35777788108375425	108.68523968580777
16	6.0	perception	115	diff_vonmises	-0.08553816492845176	-4.900975837694244	1.1699613491235137	1.3193996559374381	1.669614666224451e-12	1.8689300015183017	0.19544584309777985	-0.24996617241941843	0.4454120155171983	121.78181722139013
17	6.0	wm	115	diff_vonmises	0.5063896132315068	29.013987627427447	0.14168549256994048	40.0783186687192	0.1225033769666667	39.936202236695635	0.15533481660408732	-0.09384814666802743	0.24918296327211475	159.34452710234896
18	7.0	ltm	115	diff_vonmises	0.02500997335292677	1.4329659188573565	0.29380409271200236	145.53981502843573	0.28256571555182536	146.24009469988206	0.14670334806547913	-0.30077586436831183	0.44747921243379096	145.93710123082732
19	7.0	perception	115	diff_vonmises	-0.1487118567919303	-8.520561757731512	0.900168956405346	194.18762680360584	0.8817835060040501	194.95867634327723	0.43404878771207933	-0.3385475200570234	0.7725963077691027	94.71967794230778
20	7.0	wm	115	diff_vonmises	0.08731441604444232	5.002747529995904	0.9759852721881377	107.68950254864485	0.9561519418158221	108.13021774661624	0.25821117768160917	-0.1930122475503424	0.4512234252319516	91.01717556979366
0	1.0	ltm	116	diff_vonmises	-0.01236903287667311	-0.7086933804919289	8.870373619415844	0.2581852483684374	5.550689959273296e-16	2.853027403030493	-0.1519060194854021	-0.4540734080035498	0.3021673885181477	45.60843756040248
1	1.0	perception	116	diff_vonmises	0.06090344878967327	3.48951057343942	15.770811229817312	0.6604445786964054	1.1625028025419328e-16	2.9091724766846543	0.5741946080752264	-0.4630091799712335	1.03720378804646	34.12026406861611
2	1.0	wm	116	diff_vonmises	0.15947908459272758	9.137478467773123	6.142746065652182	0.4446185802477545	5.334346975205832e-21	3.298603195759406	-0.09511523079107781	-0.524987018563943	0.4298717877728652	54.96714847541713
3	2.0	ltm	116	diff_vonmises	0.1902854280839994	10.902551932053312	5.505171797029893	0.6185494456478444	0.4314291300252995	1.6298381154753614	0.1831103937626848	-0.27377660810003307	0.45688700186271786	52.584641274158315
4	2.0	perception	116	diff_vonmises	0.016231912990751416	0.9300201077936298	7.276022997524431	1.3062216787949072	0.3248350595299268	2.4068698843131546	0.8633777835216194	-0.40745513771550607	1.2708329212371254	48.30136761354774
5	2.0	wm	116	diff_vonmises	0.08991780076236325	5.15191048678163	2.7321741510661313	0.9601784955858234	0.20898415243279914	2.2287722564845556	0.16354242934391489	-0.31430579679725623	0.4778482261411711	75.02308591954503
6	3.0	ltm	116	diff_vonmises	0.16468929234021465	9.436001382090495	4.779793172152396	0.6127235044912774	0.6894414997798805	1.0780613915262713	0.21401672309052838	-0.17194143993956199	0.38595816303009034	54.887327435113065
7	3.0	perception	116	diff_vonmises	-0.04112322451990082	-2.356187204959218	5.629138786174916	1.0010091407382744	3.2705387963922966e-12	1.2021067675903852	0.7329184869172372	-0.19130930883151376	0.9242277957487509	57.473763346634854
8	3.0	wm	116	diff_vonmises	0.04892372966628368	2.8031232279170344	2.895362447563226	1.1477461411445882	0.6722082490613357	1.6472859191745504	0.27658112067177987	-0.19699751326688714	0.473578633938667	67.83003961983675
9	4.0	ltm	116	diff_vonmises	-0.01755094524186275	-1.0055950888239495	1.2255796068898936	136.85387041937247	1.201716101970418	138.39015919729783	0.019077943023546595	-0.3729654640709512	0.3920434070944978	72.55608948358733
10	4.0	perception	116	diff_vonmises	-0.007418555141766858	-0.4250518997083171	2.286900999223567	1.9604262644228092	1.887706223375562e-14	3.841291604560754	0.48465990711114526	-0.6000496679027107	1.084709575013856	90.92708258235231
11	4.0	wm	116	diff_vonmises	-0.0035021457913080394	-0.20065817308145464	1.3109945158098506	313.24984376099053	1.2969478626739943	314.9826071196278	0.11151107202530852	-0.45628601816745373	0.5677970901927623	71.61600341499613
12	5.0	ltm	116	diff_vonmises	-0.15280803889921943	-8.755255704596184	1.9388960326424853	0.8295589316977847	1.5773188367080603e-25	1.6551815216837742	0.15655797265676952	-0.2547377377354343	0.4112957103922038	98.41980785298566
13	5.0	perception	116	diff_vonmises	-0.04374339987030911	-2.5063121941218247	0.9529461820385768	25.408647615654797	0.7810500071777107	26.414955032081284	0.5305680851779062	-0.43130401311818867	0.9618720982960949	95.878531501954
14	5.0	wm	116	diff_vonmises	0.14256805966237068	8.168548112023156	0.6913744897832406	79.40724089651576	0.6661325428785493	80.07012729125955	0.1972820961386006	-0.24139803739960364	0.43868013353820423	106.36395413737094
15	6.0	ltm	116	diff_vonmises	0.22353355608849515	12.807529343421638	1.040054561476863	110.53396060902271	1.0249726569146775	111.10651571141214	0.11606664848680737	-0.16855946242956854	0.2846261109163759	84.29897662915539
16	6.0	perception	116	diff_vonmises	-0.35033488753836844	-20.07271047213885	0.4769993393515078	20.30531720787098	0.35190224024754974	21.09430955572625	0.29413043384909976	-0.3935683943588797	0.6876988282079795	131.86285519682679
17	6.0	wm	116	diff_vonmises	0.2630157747857837	15.06969384058878	0.4970027093944039	141.38636516738347	0.48304839428588675	141.93070001870123	0.23558316537067725	-0.274913415442974	0.5104965808136512	124.83501251683757
18	7.0	ltm	116	diff_vonmises	0.0219432968597745	1.2572582986677514	2.4396514907151583	0.5974509502067881	0.09249647381862443	2.0152447411480128	-0.00398923148835667	-0.29702457841984314	0.2930353469314865	81.23795213478292
19	7.0	perception	116	diff_vonmises	-0.014120639502243083	-0.8090530475042402	1.8691923004882038	2.7891631484954433	0.3772397940421153	3.851239657786889	0.5182318877048907	-0.4079860575348925	0.9262179452397832	86.1414200216229
20	7.0	wm	116	diff_vonmises	0.052133885328521846	2.9870515989433053	0.772406674134445	126.14616259795788	0.7544761516947613	127.42658551825059	0.05422113107599813	-0.3056321776901463	0.3598533087661444	94.00248127498261
0	1.0	ltm	117	diff_vonmises	-0.01649107216438187	-0.944868834664753	6.1644816744366056	0.44374637829176866	0.19066861877013633	3.733662216514583	-0.2827297330873652	-0.6280596900423134	0.3453299569549482	49.34204834872597
1	1.0	perception	117	diff_vonmises	0.01530004091904951	0.8766277710389981	14.628369634606647	0.684857146635324	0.02366267826870961	3.591985548581804	0.4504376768799342	-0.5777532454057014	1.0281909222856356	35.2676957780719
2	1.0	wm	117	diff_vonmises	0.07035729871007894	4.031176274028754	5.584928149709	0.5172775536791533	0.13471940609903774	4.4114948146418715	-0.3240612583964995	-0.7209928173370881	0.39693155894058857	52.73311468201729
3	2.0	ltm	117	diff_vonmises	0.02983357621903604	1.709338005132625	2.8880467212338767	1.2424597897487957	0.5357514919081596	2.6591067658340353	0.12230693050970409	-0.36004765402530303	0.4823545845350071	66.08402960356119
4	2.0	perception	117	diff_vonmises	-0.014072695874179354	-0.8063060799616435	6.518167194597806	1.3496187136662119	0.2968775450771637	3.0367952537209466	0.7097617184540678	-0.5056494514580582	1.215411169912126	50.595578983451276
5	2.0	wm	117	diff_vonmises	0.08148822143402949	4.668931168197383	4.662701719155571	0.6101488703473461	0.03358885458761107	2.3462415342835525	0.12358299498307712	-0.36905990797629096	0.4926429029593681	62.073288261003114
6	3.0	ltm	117	diff_vonmises	-0.06009460118660297	-3.443167019514219	3.558374087913644	0.6792676479322246	0.1147382020852716	1.2564542235154978	0.2661029406194149	-0.18796879737112462	0.45407173799053957	69.84221988118057
7	3.0	perception	117	diff_vonmises	-0.058254241058100086	-3.33772215136685	6.226686980553622	1.1677045899039578	0.01801352871479822	1.7337274478831783	0.856024455248466	-0.27428586393250065	1.1303103191809667	54.39648774544878
8	3.0	wm	117	diff_vonmises	-0.11188807585267813	-6.4107145241980765	1.5858797785198318	174.7124728930543	1.5676708923953289	175.43360953174448	0.22660501318186732	-0.2583260555040354	0.48493106868590274	68.59984574277576
9	4.0	ltm	117	diff_vonmises	-0.24652868390666136	-14.125053116766436	0.9887405809726056	134.08665030737822	0.9619025238423421	135.69957402383946	0.14262513162250912	-0.41063173836877986	0.553256869991289	84.22612028675405
10	4.0	perception	117	diff_vonmises	-0.06932540599697623	-3.972053176657665	3.3647945017336913	1.8347892983553735	4.9930700737755613e-17	3.8385560132046246	0.6712352593782034	-0.6093929501222679	1.2806282095004713	74.81382343798214
11	4.0	wm	117	diff_vonmises	-0.15956503257409296	-9.14240292436303	0.9655954679893901	118.18929247491455	0.9360117448186525	120.18726507300826	0.005473793975482977	-0.4514371540839459	0.4569109480594289	81.91613734000833
12	5.0	ltm	117	diff_vonmises	-0.050622019668103334	-2.9004280774105653	3.0443751775297265	0.9606572255626218	3.45510860321562e-19	1.6841821693350683	0.3664230052195018	-0.26660677525468834	0.6330297804741901	78.7430660705655
13	5.0	perception	117	diff_vonmises	-0.058978253170120724	-3.3792049897019854	1.499868623656982	3.8678885428312344	0.4045386559844627	4.834956751073474	0.5678343229629577	-0.4277785341390955	0.9956128571020532	93.4687219532752
14	5.0	wm	117	diff_vonmises	-0.1725219838375294	-9.884781547114637	0.4922574107903785	194.76373007897882	0.47956014041334283	195.58307912875884	0.2621276638197827	-0.3586245146480067	0.6207521784677894	124.6993526375679
15	6.0	ltm	117	diff_vonmises	0.06667124706907879	3.8199810719321743	2.070587300866989	0.659156357983792	0.07703586479222427	0.961468239134783	0.18220696203137984	-0.13594426862727899	0.3181512306586588	92.08669818115223
16	6.0	perception	117	diff_vonmises	-0.17665387239546673	-10.121521322902842	1.3420597651243544	1.3005601402957996	9.742136140010919e-12	1.910398498003657	0.22278298811549957	-0.2680763559278514	0.49085934404335096	115.4847398313433
17	6.0	wm	117	diff_vonmises	0.5683197789206919	32.56232474596365	0.0002798087784747219	4195.405121800028	6.49974043958443e-33	4195.482361113668	0.17454836446756872	-0.19910826578825436	0.3736566302558231	170.42469342910488
18	7.0	ltm	117	diff_vonmises	-0.11402100606283572	-6.532922423236058	0.9335205638621081	131.8220875439927	0.9178922213322114	132.833520371087	0.061955658844063066	-0.24738465778872865	0.3093403166327917	85.66259354877067
19	7.0	perception	117	diff_vonmises	-0.1543374176399076	-8.842882651714648	1.7064946693616074	1.8827150795650824	0.11474427029077401	2.7366152863055495	0.3951110835912335	-0.3579991913817579	0.7531102749729914	98.73589860105348
20	7.0	wm	117	diff_vonmises	-0.13683833708476922	-7.8402591905457735	1.002960954640187	79.94136297899536	0.9814468268419705	80.6420669094866	0.08858935503463883	-0.18763666401070367	0.2762260190453425	84.5008234136196
0	1.0	ltm	118	diff_vonmises	-0.42528259197807866	-24.36689762072815	0.29233048661357386	133.63042857159684	0.28008589061929007	137.14607400319184	-0.43449815530316727	-0.6334817344641888	0.1989835791610215	126.84291522516722
1	1.0	perception	118	diff_vonmises	0.13735026527628688	7.8695905153335	9.103703801680885	0.8548484862850593	0.09942141110060507	4.373698525986119	0.2470915043569588	-0.7194582644684009	0.9665497688253597	43.82947360549608
2	1.0	wm	118	diff_vonmises	0.2084657935574338	11.944210143686465	16.45282757732071	0.34601832428642415	1.061983147833125e-30	4.034977935200076	-0.08664174656866319	-0.6421866836538186	0.5555449370851554	33.385865104447845
3	2.0	ltm	118	diff_vonmises	0.03007051300838343	1.7229134831736108	4.8092974638529284	0.478019423574302	0.007182145002794188	2.3436648584159405	0.03027670309353503	-0.37145259388120794	0.40172929697474297	61.89949139515653
4	2.0	perception	118	diff_vonmises	0.03287973567961527	1.8838700859476623	8.388822265670859	1.3084889935890938	0.17981488040672522	3.5083619010110034	0.8250105147595175	-0.5859402366237566	1.410950751383274	45.56929410781737
5	2.0	wm	118	diff_vonmises	0.1045906349609989	5.992601959858672	2.618150250695548	0.8919432597643772	4.358693776936814e-19	2.654212466239039	0.11764860065513283	-0.41955786346436463	0.5372064641194975	84.99582410984507
6	3.0	ltm	118	diff_vonmises	0.09526593929894046	5.458336253178778	5.9288369420802605	0.47347534766590477	0.10266841439433101	1.3683165665610486	0.20856089566998318	-0.21779361383636328	0.42635450950634646	54.3846777905855
7	3.0	perception	118	diff_vonmises	0.046835158531841385	2.6834569167006403	3.8245588414130096	2.010492685181875	0.3929850942863625	2.768428347936173	0.8799755987303597	-0.3929148956281327	1.2728904943584924	64.59246342549099
8	3.0	wm	118	diff_vonmises	-0.0064083863192452685	-0.3671734895821301	1.1040749092211743	146.64924195748074	1.0867823211132857	147.31716409687436	0.23586995860762983	-0.23142046943915773	0.46729042804678755	83.65092520225195
9	4.0	ltm	118	diff_vonmises	0.043161937971757644	2.4729968813871617	2.113075587880954	1.7415330835946587	0.4423930805483992	3.98714771222398	-0.012391335881049348	-0.4934916940591762	0.48110035817812685	73.78069684543303
10	4.0	perception	118	diff_vonmises	-0.06659818683102953	-3.8157950286417304	3.07946988663966	1.8806130422568634	0.20617400472364478	4.197226471380674	0.43785110379544334	-0.605243021893301	1.0430941256887443	71.71105363181837
11	4.0	wm	118	diff_vonmises	-0.01545207895379932	-0.8853389087556256	1.0212166832737284	268.02802106075444	1.006786734809128	269.8659105062262	0.10035575053174739	-0.44928837051814696	0.5496441210498944	81.4148430082488
12	5.0	ltm	118	diff_vonmises	-0.22832342119726906	-13.081968398591355	1.4045664828741782	1.1737173753039813	5.725396251015103e-20	2.9134795448001993	0.02491731160051014	-0.43425218930658355	0.4591695009070937	113.3142642888906
13	5.0	perception	118	diff_vonmises	-0.03533538109800714	-2.0245682044021542	0.8396801994185225	262.40374357195157	0.8199364778596594	264.057820819931	0.48048791889546294	-0.556174983682471	1.036662902577934	95.83998599033987
14	5.0	wm	118	diff_vonmises	0.09353545529488327	5.359186823231401	0.5857630917948443	186.6044164178965	0.5738801690281539	187.89342338736031	0.08286852269610279	-0.3402434830532002	0.42311200574930297	109.80671380409129
15	6.0	ltm	118	diff_vonmises	0.2372354755821004	13.59259150163325	0.8514165577243076	174.0471492265162	0.8380985499988249	175.47862073925268	-0.0027231229893658337	-0.3174264829167335	0.31470335992736764	86.88690215576636
16	6.0	perception	118	diff_vonmises	-0.2164849000707051	-12.403671102362779	0.503881282068035	253.3976867108881	0.49277693624957286	254.80050385019527	0.18152054764463088	-0.4462902071914705	0.6278107548361014	120.69075404085332
17	6.0	wm	118	diff_vonmises	-0.00983212168095336	-0.5633390759777	0.7134643323567208	208.54060855027933	0.7009508664070273	209.97752204160207	0.08837193620741601	-0.3582777563200281	0.44664969252744413	98.72399486637954
18	7.0	ltm	118	diff_vonmises	0.13813161455783027	7.914358531491516	3.287198495189833	0.6023681135048669	0.10340452099965605	2.452242013990198	-0.016182059615160616	-0.3741076837472861	0.3579256241321255	70.21693807550056
19	7.0	perception	118	diff_vonmises	-0.06354814872287876	-3.641040717690625	2.1566858578408645	2.2090692011708293	1.0901151517193174e-15	3.24011483242303	0.6768553239640975	-0.4997128777131006	1.1765682016771981	93.56551359267374
20	7.0	wm	118	diff_vonmises	-0.1687326557672065	-9.667669041494682	1.9780858785354096	1.6287452436368317	0.3725894924159449	2.832151284673602	0.20251238674959082	-0.32651494105074097	0.5290273278003318	81.75656878145824
0	1.0	ltm	119	diff_vonmises	0.3528618634775167	20.217495528383154	0.8218026855610011	160.05643507027824	0.8031544886143586	163.1914364919541	-0.3838768591285273	-0.585651014217401	0.20177415508887364	74.5512225717406
1	1.0	perception	119	diff_vonmises	0.014181252197713243	0.8125258991395922	13.018006887691262	0.5091735125814406	0.07385857406885736	3.3528615877945667	0.15181299200768839	-0.5531578235647255	0.7049708155724139	36.95897587562794
2	1.0	wm	119	diff_vonmises	-0.023719932617268798	-1.3590520293042028	0.9696681477608772	237.7435214206034	0.9498753477940102	241.66465135018268	-0.4096458590805554	-0.778555763077442	0.3689099039968866	72.28023317630289
3	2.0	ltm	119	diff_vonmises	0.005371194987021732	0.3077468036981702	13.681438548810922	0.41926429784057956	0.23123731453519036	1.7774351448703758	0.26094279984728075	-0.31932408061337797	0.5802668804606588	35.57209866833537
4	2.0	perception	119	diff_vonmises	0.007633535632245076	0.43736937449037133	8.058265188029486	1.1808521437700639	0.3075624234970392	3.138292397728616	0.6513774994312189	-0.5456359714826124	1.1970134709138314	45.60642103256768
5	2.0	wm	119	diff_vonmises	-0.04828785070479956	-2.7666900471428324	1.0643603450226382	146.55297930812137	1.0381594249444934	148.7481471574489	-0.04309723123523668	-0.49179757510797373	0.44870034387273705	76.54716053101353
6	3.0	ltm	119	diff_vonmises	-0.10064594368593538	-5.766587798315453	1.5858159216571723	9.687494145836398	1.3533356204388407	10.184092169026536	0.19417886245687743	-0.18504016840669268	0.3792190308635701	71.95675211329078
7	3.0	perception	119	diff_vonmises	-0.057857871370255325	-3.3150118411264273	4.601676701518845	1.9643867993453572	0.35114046417595096	2.993947711502301	0.9727011762425564	-0.45486393982817436	1.4275651160707308	59.659186941803284
8	3.0	wm	119	diff_vonmises	-0.19565770172432662	-11.210360538033445	1.4529679465019019	216.8058398284704	1.4369005481477022	218.2070892696142	0.02488293988727719	-0.36773198526933015	0.39261492515660734	66.46195075477866
9	4.0	ltm	119	diff_vonmises	-0.25973343473947913	-14.881629609008753	1.080221890943458	63.81092013225023	1.0330873203222815	65.38902938792259	0.01674358329109893	-0.3674340339720299	0.3841776172631288	77.90439932549788
10	4.0	perception	119	diff_vonmises	-0.08830285406327987	-5.059380856785569	2.7354111166333244	2.874150160541043	0.44887571753994127	4.628775100838333	0.6871427496626219	-0.5851381825115725	1.2722809321741944	71.99476624440484
11	4.0	wm	119	diff_vonmises	0.007481783421969399	0.4286746133097933	0.5573773338664358	86.60907615581351	0.5384433399840581	89.02123150341515	-0.3039886416512374	-0.42236736743354797	0.11837872578231057	88.20813365663827
12	5.0	ltm	119	diff_vonmises	-0.0664898483585296	-3.8095876914085904	3.0829490149697696	0.9412608180777913	0.0718283479916606	2.009863211377041	0.2828546127871952	-0.3021408833202929	0.5849954961074881	75.48530325610295
13	5.0	perception	119	diff_vonmises	-0.11105304184330177	-6.362870599710924	0.8338541401126491	159.8112414002589	0.8066995482511561	161.12092707768065	0.42917781565240887	-0.4620896562261496	0.8912674718785585	96.86781912041356
14	5.0	wm	119	diff_vonmises	-0.38647829463588046	-22.143575156049472	0.44434982325220823	171.28465034469767	0.42933013607297227	173.12045423535602	0.04670071069939041	-0.4879155937128026	0.534616304412193	124.07755741164787
15	6.0	ltm	119	diff_vonmises	0.6077676430958272	34.822520874004226	0.0005611509390578229	1841.1928882448858	1.6384150906682412e-23	1842.2260143303558	3.198848435204127e-05	-0.3288400991085041	0.32887208759285613	169.11879445209502
16	6.0	perception	119	diff_vonmises	-0.10136758118972253	-5.807934581620813	0.9194365190790816	314.4493706916749	0.9074601129975094	315.7254880832145	0.3031184661942632	-0.39452303954393386	0.697641505738197	90.45952185755365
17	6.0	wm	119	diff_vonmises	0.38230475682779647	21.90444905400798	0.000128157849977968	11316.260649491936	1.133829710102693e-30	11317.729349185343	-0.002926479330881193	-0.46456036247559496	0.46163388314471376	175.4745182555414
18	7.0	ltm	119	diff_vonmises	0.039727133772619216	2.276197097322717	1.382395232385495	226.41374447861605	1.3686383005036495	227.78381743726504	-0.003043039017342153	-0.3446050213777525	0.34156198236041035	67.43620272762115
19	7.0	perception	119	diff_vonmises	-0.14549776196856573	-8.336407689397877	0.47510778666256476	86.60940748194692	0.43801400339478813	87.80063888695781	0.31585448585189013	-0.4927951656102465	0.8086496514621366	127.30824322588423
20	7.0	wm	119	diff_vonmises	-0.5671683313893685	-32.49635166208807	1.0063960597430348	140.3373973048193	0.9911183290336215	141.70577709054405	-0.05967620074920177	-0.29384155876018525	0.23416535801098348	77.0136674954175
0	1.0	ltm	120	diff_vonmises	-0.18017786670406458	-10.32343132381362	6.920028822640115	0.24828421000873221	1.5483325712022106e-17	1.9092330085543805	-0.04839448751934633	-0.3038636214959714	0.2554691339766251	51.7348598937096
1	1.0	perception	120	diff_vonmises	-0.011025562530044941	-0.631718199729157	12.579916438283856	0.7302176957556723	1.3753295533963547e-23	2.41754595381324	0.6375517835829303	-0.38476438868908114	1.0223161722720113	38.22882435675007
2	1.0	wm	120	diff_vonmises	-0.29096768392345707	-16.671220263510623	0.00018655441348870784	4737.581737657928	1.7640044039093436e-29	4739.494507229786	-0.16375867900285357	-0.44508166584796527	0.2813229868451117	177.5821304748568
3	2.0	ltm	120	diff_vonmises	0.133728620015534	7.662085526998804	4.33270139278611	0.695398154138114	0.5524151636445727	1.5100230255109945	0.1709114951630355	-0.23715645695053297	0.4080679521135685	57.21108019658601
4	2.0	perception	120	diff_vonmises	-0.027119190900304745	-1.5538151823970492	7.878932236717301	1.1000109474360134	0.1450464148543784	1.866550082184646	0.8690567972511625	-0.30384743951245907	1.1729042367636215	47.57971448963639
5	2.0	wm	120	diff_vonmises	0.05013246675251098	2.872378761498799	1.8031592638346075	0.820410828463538	4.660752795142273e-19	1.7543438704490413	0.11824072019434378	-0.26842090313852995	0.38666162333287374	101.82583110098429
6	3.0	ltm	120	diff_vonmises	0.14337920549117586	8.215023344583335	5.848894014450867	0.4284443474430654	0.4377399893289832	0.6426651989013205	0.2525543793450902	-0.10470613429371534	0.3572605136388055	53.023462168946196
7	3.0	perception	120	diff_vonmises	-0.009939756193906015	-0.5695060792998334	3.9712916033266907	1.7821507183504166	0.4390271050438869	1.9225813818824573	0.9121161982567764	-0.26690201762296945	1.1790182158797458	64.04048179437345
8	3.0	wm	120	diff_vonmises	-0.13443122695132678	-7.70234193907635	1.6050066349724788	109.43405256913908	1.5843968044179009	109.66668422488917	0.2824367233515588	-0.150231377379745	0.4326681007313038	71.82764259386127
9	4.0	ltm	120	diff_vonmises	0.062105561970759615	3.5583865852127134	1.6373210486768244	62.79190706099113	1.5833887699133165	63.596643945619775	0.21824638936461227	-0.28027138210343416	0.49851777146804643	67.39608404584166
10	4.0	perception	120	diff_vonmises	-0.08425273517196867	-4.827326137787233	3.297245287075036	1.963437379092081	2.5260594839215088e-15	3.234775032501913	0.8417054452340861	-0.5129747974999235	1.3546802427340094	75.59422124169876
11	4.0	wm	120	diff_vonmises	-0.1918921675116113	-10.99461132003274	1.309610403744384	328.16966468522327	1.2967226294564707	329.37750312595966	0.28901377878216294	-0.3807984853902724	0.6698122641724353	75.06790510302108
12	5.0	ltm	120	diff_vonmises	-0.03848776530124273	-2.205186514651264	2.1070262308668175	0.8577547055109963	1.8197337170074177e-19	1.188764862691629	0.2674292025879438	-0.18244578595640176	0.44987498854434554	94.62658792195924
13	5.0	perception	120	diff_vonmises	0.011562470983903606	0.6624807881201531	1.9785385720608306	2.159283846887211	0.06432894023902723	2.487832956938936	0.6848389250759055	-0.34973877583423	1.0345777009101356	95.2507991006448
14	5.0	wm	120	diff_vonmises	0.08975755582304587	5.142729128070415	0.6045037503128168	94.23242860928677	0.5879997477131435	94.61242487296067	0.19419799777772084	-0.19155954398743802	0.38575754176515886	115.47799299511256
15	6.0	ltm	120	diff_vonmises	0.3610199939233583	20.684921971647057	1.0815742175001228	104.63333400425195	1.0703269326761784	104.81698864677287	0.15574906730741844	-0.09614623704673875	0.2518953043541572	87.19746746400136
16	6.0	perception	120	diff_vonmises	-0.17487936588994926	-10.019849589418182	0.6640843075054044	172.95643701792002	0.6523198660215979	173.33424420835158	0.2828632358776417	-0.22626996128180643	0.5091331971594482	111.21334032433913
17	6.0	wm	120	diff_vonmises	-0.1331993107411183	-7.631758339517652	0.6765302225477934	91.75515136756603	0.6612502435715247	91.9581333471563	0.21052391839295836	-0.15001085100570144	0.3605347693986598	111.17169111773634
18	7.0	ltm	120	diff_vonmises	0.07153231672722131	4.098499847262842	1.4605440540408612	0.8208788762445275	0.059070828524271	1.3206556901024185	0.12709173239602506	-0.1791100607799158	0.3062017931759409	108.09322638583797
19	7.0	perception	120	diff_vonmises	-0.10870851588995464	-6.228539157625248	0.9811228700314908	163.67038359294736	0.9593152765856159	163.94441006563997	0.5852992502120671	-0.28364083042024646	0.8689400806323135	93.79987674547534
20	7.0	wm	120	diff_vonmises	0.18413920471582218	10.550399273112076	1.4212565320114423	0.770715719404189	8.031125661913716e-10	1.215065677530833	0.1297373767962477	-0.17455087939327496	0.30428825618952265	112.81934415263049
0	1.0	ltm	121	diff_vonmises	0.16378369339717433	9.384114384722777	0.6364596769846412	30.468753876300095	0.6038364158755047	31.14230463457043	0.009116416362761726	-0.15726868185438914	0.16638509821715086	103.38485567474822
1	1.0	perception	121	diff_vonmises	-0.050488394978119244	-2.892771946635733	14.41892492943555	0.5805393108186964	1.0610516027050452e-24	1.3480057400269108	0.657005630876341	-0.21454177684127052	0.8715474077176115	35.67874897996663
2	1.0	wm	121	diff_vonmises	-0.054113476559094494	-3.1004738216162266	13.864800324791828	0.22207616404779537	3.9971754737210135e-18	0.9839327937870906	0.17020889346826842	-0.15659776780113785	0.3268066612694063	36.39132298219107
3	2.0	ltm	121	diff_vonmises	0.134944159932067	7.731730834045828	2.1334406072878345	26.330853736969036	2.0546035667229248	26.645023241556178	0.15165241206329583	-0.14605063020809572	0.29770304227139155	59.916163812811476
4	2.0	perception	121	diff_vonmises	-0.03752450866070122	-2.149995974560285	8.622998991747458	1.0174053257869746	0.347112312347406	1.2825034843203278	0.8932461673622225	-0.22140939341428634	1.1146555607765087	44.99483217239771
5	2.0	wm	121	diff_vonmises	0.06811874262009612	3.902916457869431	2.2678084125301816	0.535872977140777	4.3044956285545684e-10	0.8575640590509567	0.16163173927779872	-0.13328963346849426	0.294921372746293	91.29383628476253
6	3.0	ltm	121	diff_vonmises	0.09700381283409244	5.557909072070466	2.795038272734817	42.506759484927734	2.757821322748285	42.45681504031947	0.23727213621349819	-0.06747901283210211	0.3047511490456003	56.71555045838005
7	3.0	perception	121	diff_vonmises	-0.04844363009282132	-2.77561554861161	5.367959659409573	1.3092683197196369	0.30617222101952535	1.2052118943370747	0.9244070491392616	-0.18395671767719418	1.1083637668164559	56.97957848230365
8	3.0	wm	121	diff_vonmises	-0.17283277225073992	-9.902588411513168	2.029339972495754	79.03186460397586	2.009491130233606	78.98275383485998	0.268843974518056	-0.07607058156361468	0.34491455608167065	66.78471144765791
9	4.0	ltm	121	diff_vonmises	0.0629216359619218	3.6051441806767026	2.1966234299018024	114.66508162626006	2.1735568259763363	115.07407813739017	0.17252632923731426	-0.1868425692317004	0.35936889846901465	58.20472946158435
10	4.0	perception	121	diff_vonmises	-0.05712889415909792	-3.273244523565891	3.785745286992841	1.691994927474479	4.5168603076261666e-21	2.6914187498122333	0.8338447373117169	-0.4277026058660713	1.2615473431777882	70.42458803301594
11	4.0	wm	121	diff_vonmises	-0.08572737980507422	-4.911817051545799	1.4299290745046118	199.28691505377185	1.4159007068289953	200.08995846267914	0.16082975610540018	-0.250100195221993	0.4109299513273932	71.0926045805605
12	5.0	ltm	121	diff_vonmises	-0.004081897123636548	-0.2338754775909646	2.447731649766491	0.7402913400536341	2.186487971910972e-13	0.7494516514651622	0.311620074664711	-0.1160554881113744	0.42767556277608537	87.91658503521987
13	5.0	perception	121	diff_vonmises	-0.04773300894492893	-2.734899956004634	1.999200977407222	1.7501826484895942	7.132005227790897e-19	1.8671429506185528	0.6054912940538422	-0.28060515288539256	0.8860964469392347	97.03697525812245
14	5.0	wm	121	diff_vonmises	0.04485126441517925	2.5697881568150653	1.0569622231932791	1.365268527274884	0.20667627459928914	1.3801403522945699	0.21396214787959605	-0.11863823211396377	0.33260037999355985	117.36504264015277
15	6.0	ltm	121	diff_vonmises	0.13753615473046407	7.880241196513844	0.9805938689282112	46.65852280613549	0.9600042250725616	46.64853238792911	0.18551032772379195	-0.07008606429493547	0.2555963920187274	95.66706957861561
16	6.0	perception	121	diff_vonmises	-0.24542159935581054	-14.061621844438546	0.9587777105015262	110.01897746169729	0.9401984420914635	110.26475632155427	0.30699562039028905	-0.17149460811152295	0.478490228501812	93.84325454853587
17	6.0	wm	121	diff_vonmises	-0.12045321170457622	-6.901460659468026	0.4712669230875117	102.51008523351243	0.4598071711931468	102.44500453542132	0.233882904350601	-0.13028036383511754	0.36416326818571854	131.17435187670947
18	7.0	ltm	121	diff_vonmises	-0.09851045477960951	-5.644233296785973	1.0721375109546827	113.44815372352559	1.0581659174036302	113.75803912160104	0.18863952896987257	-0.1357072837603095	0.32434681273018207	86.6922706376771
19	7.0	perception	121	diff_vonmises	-0.13345724761112995	-7.646537033550135	1.9971045506992229	2.079190635250509	0.1603557690394728	2.4951750690034156	0.6084385477769587	-0.31768304370125383	0.9261215914782126	91.41401624809579
20	7.0	wm	121	diff_vonmises	0.18482767009588982	10.589845433730822	0.8023909354739172	18.720272786680923	0.758665269635429	18.99166806198099	0.07604056482176613	-0.09167657955271813	0.16771714437448426	98.7797327444907
0	1.0	ltm	122	diff_vonmises	-0.0796267941678237	-4.562279241973216	5.805788933542851	0.3211931199041955	0.019546253952098025	2.857880535702115	-0.1623636404920698	-0.4540724722861419	0.2917088317940721	55.5283773961591
1	1.0	perception	122	diff_vonmises	0.002414045833067592	0.13831463778591588	13.786210774325035	0.6302634030734896	5.254574246289846e-16	2.9921793379984725	0.44857247936365857	-0.476220132258911	0.9247926116225695	36.496691636334276
2	1.0	wm	122	diff_vonmises	0.023519418924025263	1.3475634409467674	7.816603325858411	0.30819401540764496	3.372710444947186e-25	3.296003672167736	-0.1867318051230924	-0.5245752219931488	0.33784341687005637	48.629440459139175
3	2.0	ltm	122	diff_vonmises	0.10404087123273227	5.961102818499618	6.467729420299137	0.5946753231911434	0.3555012935283053	1.783553357805774	0.1981753667697979	-0.3059997237343234	0.5041750905041213	49.51470534996449
4	2.0	perception	122	diff_vonmises	-0.007733386924580767	-0.44309043212013344	6.720211507796437	1.2051755717201356	0.2265580011829259	2.548947722869103	0.7187597977842229	-0.41810605828064934	1.1368658560648723	50.54961576990263
5	2.0	wm	122	diff_vonmises	0.07626996754909106	4.369947244162665	3.1780580141672727	0.6071821347646085	1.859046707092301e-14	2.166002649583901	0.06614482041981995	-0.34401661549353274	0.4101614359133527	77.03446392013302
6	3.0	ltm	122	diff_vonmises	0.06162253979653959	3.530711453218673	3.38396571259933	0.6738495261728847	0.47377719376076916	1.1625189145577954	0.1911869207870136	-0.16133983216529077	0.3525267529523044	65.54827763719089
7	3.0	perception	122	diff_vonmises	-0.03288628578776983	-1.884245379500273	4.08897853684885	1.854048828073732	0.31543994755608773	2.4645288391268894	0.9181084511452612	-0.35909006837577007	1.2771985195210314	63.68022485581815
8	3.0	wm	122	diff_vonmises	-0.13723543841391772	-7.863011420745018	1.405278081592054	170.5556473763644	1.3870830641898748	171.42968042193417	0.19314790461078246	-0.27591212743046967	0.46906003204125213	72.11389467892943
9	4.0	ltm	122	diff_vonmises	-0.057505403068100196	-3.2948168950007966	1.7602191706598345	2.3530820125220155	0.6486388260797261	3.700386084663564	0.10655752263816076	-0.33833870046257375	0.4448962231007345	76.76559766235977
10	4.0	perception	122	diff_vonmises	-0.07676918410862218	-4.39855024608684	2.3344764971380405	3.076675629473181	0.3116764179350056	4.7825545626905015	0.7265445082336688	-0.5932497101498455	1.3197942183835143	79.87365591835245
11	4.0	wm	122	diff_vonmises	-0.1928947693293047	-11.052056172718716	1.0793967026738307	292.7610488385978	1.0651695351513333	294.73019698038706	0.08524006340039136	-0.4790519051708202	0.5642919685712116	78.6508886112967
12	5.0	ltm	122	diff_vonmises	-0.022746210462872365	-1.3032618594389012	2.252196417873793	0.9468585926770107	7.6575748898729e-18	1.496525833173871	0.2863976125910717	-0.23237713579434024	0.5187747483854119	91.61109217990193
13	5.0	perception	122	diff_vonmises	-0.00792928006069623	-0.4543142820551312	2.207133721158168	1.8851588308655132	9.446375538017226e-17	2.6254814091506793	0.6139824319536544	-0.40536781154575585	1.0193502434994102	92.52437709183585
14	5.0	wm	122	diff_vonmises	-0.009394143696256109	-0.5382447859349022	0.44261472960841025	164.16229015358127	0.4305326707084625	165.0345342438243	0.16264913447465545	-0.3223315600485712	0.4849806945232267	128.68838082885622
15	6.0	ltm	122	diff_vonmises	0.40581215996306746	23.251324040971607	0.7904326442374167	115.17483261198291	0.7788964430487071	115.5428338502976	0.14347762804629127	-0.14161582350717694	0.2850934515534682	99.73839990481105
16	6.0	perception	122	diff_vonmises	-0.11285044254976848	-6.465854074285298	0.7066386170262946	233.9739433711257	0.6960244018494486	234.59991347134257	0.29569966718655394	-0.2772041121731519	0.5729037793597058	106.29842817329065
17	6.0	wm	122	diff_vonmises	0.08231440336086514	4.716267905715052	0.2462110833257602	103.35177137600411	0.2328158628723814	103.87501392452968	0.13947492048876242	-0.25636715175265934	0.39584207224142176	151.7650145426403
18	7.0	ltm	122	diff_vonmises	0.03623472334325922	2.0760967193929174	0.7470735535059957	71.3480654259691	0.7231617984193366	72.18378584914262	0.08407381208533948	-0.22102780675274225	0.30510161883808173	98.12351072020348
19	7.0	perception	122	diff_vonmises	-0.0983636340049254	-5.635821086051733	0.8580167298625505	212.67845655668972	0.8415771554841116	213.22758755595768	0.49603413298098076	-0.32308495563927764	0.8191190886202584	98.40423159689061
20	7.0	wm	122	diff_vonmises	-0.07872674218160504	-4.51071006182052	0.8152248966967119	99.23181353401907	0.796577931578478	100.16409800668302	0.07085338160151977	-0.23383329006706255	0.3046866716685823	92.69301375619173
0	1.0	ltm	123	diff_vonmises	-0.04371902336946526	-2.504915523504175	6.198860539258073	0.2694654949230051	0.0004622291451547964	3.8389122168715697	-0.3495443811462233	-0.6108243135138494	0.26127993236762603	54.66229674812686
1	1.0	perception	123	diff_vonmises	0.07454583127080512	4.271161512111488	15.337618971630945	0.6608912354718458	1.7902552753054597e-16	3.355740306465893	0.48963649952334154	-0.5340826575067098	1.0237191570300515	34.58949027964755
2	1.0	wm	123	diff_vonmises	0.1637467598855434	9.38199825038373	7.210193308530335	0.4267470677900612	3.6242220302011843e-32	4.282566857092728	-0.2330183270292025	-0.6815914393645003	0.4485731123352978	50.666108586765944
3	2.0	ltm	123	diff_vonmises	0.15112951368625202	8.659083294086853	6.297255194066177	0.5798414907270264	0.2927116274800371	2.048526447895268	0.1402237024867649	-0.3463261791925282	0.48654988167929314	50.26000536838103
4	2.0	perception	123	diff_vonmises	0.03139254608521278	1.798660398852627	7.3788154292650665	1.3885022256055009	0.2664808251499839	3.0167675843229422	0.8615794844423404	-0.5071795629908306	1.368759047433171	48.08728902078474
5	2.0	wm	123	diff_vonmises	0.06274798197430094	3.595194540090411	2.621513419241308	1.1267739719821648	0.24823002249060697	2.9373994675206103	0.09264443636651987	-0.41116759191483404	0.5038120282813539	74.14214979783745
6	3.0	ltm	123	diff_vonmises	0.19288940829388015	11.05174900801507	7.79313381068416	0.3738271409191081	0.14473886350111836	1.0630612786006823	0.2146888542726047	-0.1745593312373481	0.38924818550995277	47.37805203103872
7	3.0	perception	123	diff_vonmises	-0.05445076491478054	-3.1197990208759445	5.747538773264486	0.9992143292431934	8.447733545202558e-13	1.3966774070863146	0.710574409366765	-0.222278616387289	0.9328530257540539	56.86331269918932
8	3.0	wm	123	diff_vonmises	0.0544226538474846	3.118188375362279	2.7769908645384884	1.5534587314974553	0.7872002670792739	2.328589608950955	0.27196546694580004	-0.268084597249491	0.540050064195291	66.3736981758504
9	4.0	ltm	123	diff_vonmises	-1.0939826428876058	-62.68058829802734	0.00015802627268714906	7724.075840757899	1.5275289115007522e-31	7726.405999121704	-0.17658594250337956	-0.5651111524875887	0.38852520998420914	148.60431434848158
10	4.0	perception	123	diff_vonmises	0.015162416954477962	0.8687424987091905	0.6843281316610532	86.5863001717391	0.6243706567326034	89.10017312918554	0.30774226990712705	-0.711152350650222	1.018894620557349	105.00283886866316
11	4.0	wm	123	diff_vonmises	-0.009391707488703136	-0.538105201524099	1.228480855382346	251.45465207729114	1.2090540735338888	253.89365160446613	-0.02904754511276053	-0.5776287079181728	0.5485811628054122	71.33296506870587
12	5.0	ltm	123	diff_vonmises	-0.09477284467233507	-5.430084012173709	2.4374318430546227	0.7754125551490382	3.705800285335498e-15	1.6621695911842533	0.18565686628029926	-0.2611042513065687	0.446761117586868	88.0998490064949
13	5.0	perception	123	diff_vonmises	-0.04695499405918815	-2.6903229866533342	1.2477383864587457	5.999034018278598	0.5327570174026007	7.127325330123708	0.5248094781482602	-0.4527955784296517	0.9776050565779119	95.03376272322521
14	5.0	wm	123	diff_vonmises	0.023410875336189706	1.3413443514705823	0.6754011382317667	188.43639781728373	0.662240926708173	189.26431619716195	0.24225196815925898	-0.30141531650935605	0.543667284668615	107.10586881659817
15	6.0	ltm	123	diff_vonmises	0.26232272227502085	15.029984856741123	0.9979519197058804	103.53507244356976	0.9827613947504705	104.05533504218008	0.1216850920834105	-0.15897398002701735	0.28065907211042784	86.67122907602777
16	6.0	perception	123	diff_vonmises	-0.3435470532142713	-19.68379621333405	0.2710001011602742	150.6141893318495	0.25601041733377	151.35090762176122	0.2505733072821279	-0.396093250273303	0.6466665575554309	147.6871794690565
17	6.0	wm	123	diff_vonmises	0.3525642057178658	20.200440995015835	0.35429906882729495	152.11617695794902	0.3417812067803918	152.62813669769128	0.233695916264125	-0.2994796380901512	0.5331755543542762	138.7832519998971
18	7.0	ltm	123	diff_vonmises	0.0952328593334295	5.456440910768561	0.9030967542959976	44.53010180138698	0.8486185913350758	46.24410520724304	-0.07388520844019197	-0.35865700877952555	0.2847718003393336	82.42912152427999
19	7.0	perception	123	diff_vonmises	-0.032993678093713126	-1.8903985053830015	0.9692174537957338	109.63902012734732	0.9327687450207206	110.50735857015928	0.4731874254112327	-0.3681559506181795	0.8413433760294122	91.51953203710787
20	7.0	wm	123	diff_vonmises	-0.10203599965465379	-5.846232138609988	1.3059849002659354	1.5990682860587608	0.26630856441461587	3.114891753977609	0.0016087454413792335	-0.336549919988316	0.33815866542969525	95.63646754609555
0	1.0	ltm	124	diff_vonmises	0.056707409973132825	3.249095258578584	6.330634111476797	0.46400041696351935	0.23063202148298872	3.6824061184301775	-0.2726379577345427	-0.6303046058079558	0.3576666480734131	48.21208556251605
1	1.0	perception	124	diff_vonmises	-0.012883701885480934	-0.7381817425427986	14.625984307737397	0.5344769140219825	0.047468498076247485	3.4474237628162374	0.2331167702226532	-0.5619384993109886	0.7950552695336418	35.09209771717576
2	1.0	wm	124	diff_vonmises	0.018466659568393134	1.058061654973805	0.949116278056436	267.71024370263507	0.9314281672351464	271.8968688185553	-0.4763235432142494	-0.8195150250681493	0.3431914818538999	71.52443128828162
3	2.0	ltm	124	diff_vonmises	0.006716158884476221	0.3848075586197785	10.379560276214416	0.5038185317939945	0.30436528471525903	1.7900750610865788	0.2617728501900718	-0.32413807988771726	0.585910930077789	40.24641754138969
4	2.0	perception	124	diff_vonmises	-0.012891168219695688	-0.7386095319817382	7.092681520790868	1.2293822612388479	0.3289037773414344	3.0532477750061697	0.6240733798223284	-0.5226082498525896	1.146681629674918	48.26923345031898
5	2.0	wm	124	diff_vonmises	-0.06506082907018071	-3.7277109173434106	1.0704414611396476	120.492533640823	1.0384195545730959	122.7137424565721	-0.04904341854638261	-0.49654207001144357	0.44749865146506096	76.28838702385238
6	3.0	ltm	124	diff_vonmises	-0.20127437638449325	-11.53217229095907	2.330976287138499	1.1518638777376906	0.6184354838879907	1.532242492388637	0.2390771628217288	-0.15900959936218345	0.39808676218391226	74.88177686335627
7	3.0	perception	124	diff_vonmises	-0.06749697885450788	-3.8672920182470634	4.426682204646839	2.023402014422219	0.3831671129740637	2.9904653118208304	0.9704006362969463	-0.44814077177675027	1.4185414080736964	60.46719577187096
8	3.0	wm	124	diff_vonmises	-0.221348136089043	-12.682314000989548	1.5451517886698805	211.53114226005744	1.527450352498662	212.905467201487	0.048140071376423066	-0.37799710769184713	0.4261371790682702	64.90461827599344
9	4.0	ltm	124	diff_vonmises	-0.2534155694318918	-14.519642591351877	1.1295390120257713	43.50353760904976	1.0563034024966675	44.92065912703592	0.09761807981810477	-0.3570847891014015	0.4547028689195063	78.75176122565979
10	4.0	perception	124	diff_vonmises	-0.10375316309552074	-5.944618356505826	2.984630496180298	2.676294814515591	0.3540777083294934	4.29086535451676	0.8044687958916652	-0.5742661755736004	1.3787349714652657	71.38813620362791
11	4.0	wm	124	diff_vonmises	-0.4107004215345496	-23.53140079817352	19.38249454252664	0.1622698889612827	6.526358104347727e-30	2.5477873374132343	-0.12255316855241394	-0.40549294869625485	0.2829397801438409	30.755191126812775
12	5.0	ltm	124	diff_vonmises	-0.04761294945667176	-2.728021054036998	2.9128581496871533	1.1023026239891696	0.15778002214845868	1.9272442491941129	0.3529507907178502	-0.27464745195309964	0.6275982426709499	75.73988236147753
13	5.0	perception	124	diff_vonmises	-0.08422366243512194	-4.825660392667021	1.4893672297467782	3.5694130376672084	0.37167117407349437	4.695873612370457	0.49212357027472975	-0.43582140767270283	0.9279449779474326	93.99531355429977
14	5.0	wm	124	diff_vonmises	-0.41812643679415834	-23.95688013114885	0.46658532782626455	210.6211015242236	0.45343980949909085	212.29579731262598	0.11533745521361283	-0.48418258132327097	0.5995200365368838	122.87911243182157
15	6.0	ltm	124	diff_vonmises	0.33128498851187854	18.981231657770604	0.334630755280991	100.91563750219129	0.3224423362695387	101.58892819026559	0.07764110691540083	-0.2351003976756818	0.31274150459108263	139.1079342172534
16	6.0	perception	124	diff_vonmises	-0.08530816625788329	-4.88779788457705	0.8874147507434749	235.08361503969925	0.873320911258874	236.11957755579465	0.30251383457746783	-0.3442017372846031	0.646715571862071	92.97882774434865
17	6.0	wm	124	diff_vonmises	0.44067660801718267	25.248909769525504	0.0001514044711967083	8784.735238968398	1.728303137659823e-33	8785.713696530185	0.05596340119495835	-0.3674000919952505	0.42336349319020883	174.08166518979192
18	7.0	ltm	124	diff_vonmises	-0.027900816014151453	-1.598599002581898	1.2721551210258624	175.7178926300165	1.2584235134476731	176.74542621774154	0.04053453797207851	-0.2606755652605379	0.30121010323261643	71.98757545826075
19	7.0	perception	124	diff_vonmises	-0.15953891998917932	-9.1409067834553	0.49498633632334077	186.24664763632333	0.47987663047080004	187.22699538550467	0.28670971826017677	-0.41210573628424285	0.6988154545444196	124.31824226871517
20	7.0	wm	124	diff_vonmises	-0.5207034458456	-29.8341098248717	1.06552802950454	134.43826776543304	1.051733097452022	135.52091073384085	-0.03167079910290482	-0.2402166057181212	0.20854580661521638	75.69926089738168
0	1.0	ltm	125	diff_vonmises	0.005640157231217102	0.3231572051389319	9.679865972787763	0.42788674647194513	0.09184673992500078	4.243927740591591	-0.2150505666032415	-0.7022212676275126	0.48717070102427107	41.96684305187401
1	1.0	perception	125	diff_vonmises	0.06265218457194945	3.5897057532473533	14.338417100812205	0.7146903397194561	0.037224248065446136	4.219879982967911	0.37267842999757883	-0.6835845326187057	1.0562629626162845	35.52804721036574
2	1.0	wm	125	diff_vonmises	0.18196137397977188	10.425618763442525	4.992030419796148	0.48543625200113333	6.0335440353879225e-33	5.052382082875162	-0.38358782791389345	-0.8040921790405847	0.42050435112669127	61.11318339523558
3	2.0	ltm	125	diff_vonmises	0.12698918801825623	7.275944517239365	5.171881161805073	0.7525740481271053	0.3388231222021774	2.0786253067334775	0.21319330871903008	-0.33898128626244217	0.5521745949814723	54.86549652819761
4	2.0	perception	125	diff_vonmises	0.011945544001486886	0.6844292552730158	5.718400461592354	1.4221047815071208	0.3190577364100057	3.150997650282102	0.6512774567354195	-0.5145983691037509	1.1658758258391704	53.47112832020906
5	2.0	wm	125	diff_vonmises	0.1034360431126447	5.926448719887769	3.6344542363492045	0.8005780913935763	0.04081342219823283	2.7905439593664156	0.12152055732334999	-0.4333662682915709	0.5548868256149209	69.91338785440578
6	3.0	ltm	125	diff_vonmises	0.06556364577503195	3.7565201924000617	3.5258759469909333	0.9386019561770145	0.6168111335893753	1.6540501285963318	0.2286951739548636	-0.2320634293772575	0.4607586033321211	62.28696240482958
7	3.0	perception	125	diff_vonmises	-0.015144860946219845	-0.8677366135309036	3.7542012742783784	1.9606253474148534	0.344197459642765	2.7880460584753535	0.8480186281559645	-0.3972201982007738	1.2452388263567382	65.55298732507472
8	3.0	wm	125	diff_vonmises	-0.019711678749496357	-1.1293959994638536	2.3106128787126963	1.5153619146154684	0.45601575143650996	2.78909829950368	0.18712988943489983	-0.3371307048500349	0.5242605942849348	74.66827498631372
9	4.0	ltm	125	diff_vonmises	-0.07472191856146837	-4.281250570692385	1.0211897686077782	242.66563347265767	1.0042243602489334	244.54756022558502	0.13333872348610498	-0.46981862031311294	0.6031573437992179	82.02882571169124
10	4.0	perception	125	diff_vonmises	-0.0711698479409105	-4.077731915602004	1.0579001677456894	151.78418800411953	1.013796393592007	153.7248844819106	0.5939215209109037	-0.6415393425142337	1.2354608634251374	85.61671292000366
11	4.0	wm	125	diff_vonmises	-0.12406269954539563	-7.108269078950767	0.9484912006251132	260.74458978096214	0.9315117199404198	263.1041242021824	0.06569830068792726	-0.5512732834656298	0.616971584153557	83.629165177354
12	5.0	ltm	125	diff_vonmises	-0.1108908757095288	-6.353579164665779	2.2037748230991077	0.9663653356526646	1.4642661290385627e-17	2.0614021181599553	0.2003901217389087	-0.3216423597919461	0.5220324815308548	92.57912611841307
13	5.0	perception	125	diff_vonmises	-0.014477332882061128	-0.8294900727480711	0.8728090139817242	147.7224441051424	0.837376156469477	149.2217974432089	0.5326383159719654	-0.5397608959633402	1.0723992119353056	95.1160796719737
14	5.0	wm	125	diff_vonmises	0.11098243724776272	6.358825254372308	0.34835439414915514	139.49607505646918	0.3330086167999648	141.0108663159442	0.06001122123046798	-0.44309603746966	0.503107258700128	137.26973934950794
15	6.0	ltm	125	diff_vonmises	0.32496801019741073	18.619295461075932	0.7832127337801463	122.54738128262557	0.7688166694448295	123.44028005856241	0.07108013655171419	-0.2261900958246752	0.2972702323763894	94.67962379101331
16	6.0	perception	125	diff_vonmises	-0.1202250049173985	-6.888385373706503	0.4829340926034172	285.2836109803299	0.4720980975556055	286.70679406342157	0.2319299463290605	-0.4892255140179991	0.7211554603470596	123.73802209954965
17	6.0	wm	125	diff_vonmises	0.34544942912842863	19.792794324262605	0.2530175001801579	123.47077648992551	0.23897737011607262	124.65072841914304	0.07001612291914228	-0.3842358359225919	0.4542519588417342	148.0286982031603
18	7.0	ltm	125	diff_vonmises	-0.021420507166758477	-1.2273046556849934	1.8055361474162874	0.7105542819022416	1.3389891508744382e-14	2.222011940769752	-0.009139076826407522	-0.3443344079229509	0.33519533109654337	101.77367668069836
19	7.0	perception	125	diff_vonmises	0.005620264253139932	0.3220174214531638	0.7994887221632775	232.47321261461025	0.781401594391335	233.7640071805414	0.41561374279280017	-0.45751767212543726	0.8731314149182374	98.65947060013133
20	7.0	wm	125	diff_vonmises	-0.034387672025379956	-1.970268474334359	0.8918388473448214	202.271356935571	0.8763066467543125	203.80583663387685	0.11050963314038142	-0.3807734675816725	0.49128310072205394	88.14426795920062
0	1.0	ltm	126	diff_vonmises	-0.042301692401922254	-2.4237084408907674	5.859205167503523	0.2378784299539367	1.7972191020310872e-14	2.5848496929411526	-0.18707885361482385	-0.4113897787238051	0.22431092510898126	56.313574270689145
1	1.0	perception	126	diff_vonmises	0.03096366280605816	1.7740871970533363	13.343526166923546	0.6069247808938525	0.03681068354178697	2.96538582260204	0.38630504501254076	-0.47947054510691717	0.8657755901194579	36.852765272604216
2	1.0	wm	126	diff_vonmises	0.058172264540169744	3.3330252428702627	5.968700109321719	0.418453923520009	0.06814530713162563	3.0762346015064304	-0.12503797586339166	-0.4930360892817645	0.36799811341837285	53.442544574724906
3	2.0	ltm	126	diff_vonmises	0.08029829152076769	4.600753206251113	4.593635000076358	0.6177381019868158	0.3241833336429645	1.740324966787903	0.13868349053885382	-0.2768662517284819	0.4155497422673357	57.720656776227315
4	2.0	perception	126	diff_vonmises	0.0027844877167983693	0.1595393942785654	7.238257303401125	1.228997966779218	0.30948442156747535	2.613017864467567	0.7412511834215575	-0.44301248375413604	1.1842636671756934	48.26652372616937
5	2.0	wm	126	diff_vonmises	0.08831059414124523	5.059824330586086	3.1124675164581617	0.7236011438144221	0.08371740470132419	2.0100627832353943	0.13670621123247634	-0.30296704105928995	0.4396732522917663	74.07009631250938
6	3.0	ltm	126	diff_vonmises	0.04574371313584268	2.62092170194093	3.285326376237601	0.9713893219767171	0.7801574642523202	1.488812497410413	0.22330964800191605	-0.19173207045382812	0.41504171845574417	62.79198072599871
7	3.0	perception	126	diff_vonmises	-0.03114311523349913	-1.7843690637690814	5.0592982273714275	1.4711213813942012	0.23134193404484008	1.9634612705690815	0.8950395955526917	-0.3020798250883553	1.1971194206410471	58.477359221625846
8	3.0	wm	126	diff_vonmises	-0.08340263142805072	-4.778618781112464	1.3902582872099505	194.33874531084592	1.3769807600987556	194.94464361924557	0.21272864175514883	-0.2150861493723859	0.42781479112753473	73.93016466611525
9	4.0	ltm	126	diff_vonmises	-0.10042154391438946	-5.753730638482172	1.2379966368452398	206.6993472814601	1.2223674140292873	208.03471429619123	0.08220670159819576	-0.3437920305712332	0.42599873216942896	73.76566270052294
10	4.0	perception	126	diff_vonmises	-0.052081753982525104	-2.9840646928373555	4.032985462728166	1.497935561460646	2.174467842498337e-18	3.2322009817809674	0.6424501064076932	-0.5140574524761088	1.1565075588838019	68.17075961698524
11	4.0	wm	126	diff_vonmises	-0.021618857317795778	-1.2386692822052132	1.0770027684942554	252.5671648032441	1.0642643546899386	254.16592743277818	0.03869917335492801	-0.3797351197136223	0.4184342930685503	77.96417129805167
12	5.0	ltm	126	diff_vonmises	-0.08987625464732733	-5.149530069734907	2.334209192502649	0.894182444859678	5.40262646070146e-16	1.8046463111927824	0.21884433248644852	-0.2824678418199414	0.50131217430639	90.00489222785308
13	5.0	perception	126	diff_vonmises	-0.06754088199880101	-3.8698074831224134	1.2104890556878218	5.961025475553699	0.5271386191200432	7.0299182520552215	0.5013006659973396	-0.43419493308306395	0.9354955990804035	96.2058822753099
14	5.0	wm	126	diff_vonmises	0.008223874980145148	0.47119332760555066	0.45271740217694756	144.1621767758616	0.4400063148545297	145.05377988245607	0.12929271164107092	-0.30349673379492437	0.4327894454359953	126.94147120957462
15	6.0	ltm	126	diff_vonmises	0.11582252222442331	6.636141696019635	0.775627426309617	102.85549493366578	0.7598205739140574	103.558285134937	0.10243470482695471	-0.19775433509326135	0.30018903992021606	97.1637308665616
16	6.0	perception	126	diff_vonmises	-0.1978094608372392	-11.333647253732149	0.7210563422014772	195.67722389358778	0.7066237777242138	196.64434744779356	0.26214510101731037	-0.3328753081121185	0.5950204091294289	103.28955517219303
17	6.0	wm	126	diff_vonmises	0.22035304893686583	12.625299706922103	0.2868172234709528	110.63857923405011	0.2731129795711312	111.3513272063068	0.12337644606916598	-0.2883975544541748	0.4117740005233408	145.9943549945419
18	7.0	ltm	126	diff_vonmises	-0.07188221356356285	-4.118547459250193	0.9469909583164287	155.76404078933345	0.9318516618254687	156.9624506262871	0.05412040052939204	-0.28684028397577777	0.3409606845051698	84.38634588277554
19	7.0	perception	126	diff_vonmises	-0.08549492617250305	-4.898498439466986	2.0185954826658823	1.9690583272783557	0.018045750809978146	3.080004610088747	0.5224177170253623	-0.4633656069424247	0.985783323967787	95.72577956317112
20	7.0	wm	126	diff_vonmises	-0.10795194767776008	-6.185190992152741	0.9893346252200891	140.07315056195944	0.9739928689253834	141.03258737581606	0.08401997948309514	-0.24409678933110435	0.3281167688141995	83.91239085620873
0	1.0	ltm	127	diff_vonmises	-1.0288326109174573	-58.94776643099544	0.00020044216294635625	1653.6925946168938	1.4322986806999456e-30	1656.1075759742394	-0.331598554510947	-0.4371085993229258	0.10551004481197879	151.9731143834631
1	1.0	perception	127	diff_vonmises	0.029210401083954677	1.673632699994968	10.46614853336408	0.6582902006536276	3.4241313947479e-21	3.0085837761079866	0.3600167838043062	-0.47883097899281923	0.8388477627971254	41.948106264339174
2	1.0	wm	127	diff_vonmises	0.11241276114284354	6.440776776897152	18.370303873090002	0.20778247391964266	0.017718876014914953	2.9701473629760953	-0.12851145100412537	-0.4775935820994624	0.34908213109533703	31.40750352365322
3	2.0	ltm	127	diff_vonmises	-0.03769989284703317	-2.160044748230442	21.867937087235838	0.23173778320007604	0.10193667801110075	1.5869751332170132	0.15081120038901097	-0.27021278160111944	0.4210239819901304	28.595250737809806
4	2.0	perception	127	diff_vonmises	0.005551184845501491	0.3180594629442174	12.916176782277889	1.1108019741653006	0.1426506739882325	2.5758954510940595	1.1058997185663695	-0.43646565612412574	1.5423653746904953	37.25150368232596
5	2.0	wm	127	diff_vonmises	-0.02265315103200777	-1.2979299468064704	1.8698524727948045	0.8555529515187088	0.08685325620952045	2.465192883650236	-0.003420291606414605	-0.3508743594630252	0.3474540678566106	92.22975181135962
6	3.0	ltm	127	diff_vonmises	0.12265745758175167	7.027754645239291	4.1823944669779785	0.48659340886243074	0.7575433025892062	0.6800556626400771	0.18233197398647272	-0.09777276363621697	0.28010473762268967	58.53889665637672
7	3.0	perception	127	diff_vonmises	-0.005981216833716319	-0.3426984809245466	4.653044989220349	1.6214614603452786	0.4276530774694043	1.8384903390434704	0.9239468806818754	-0.27232624564602625	1.1962731263279016	59.61011540639626
8	3.0	wm	127	diff_vonmises	-0.17240427395858776	-9.878037267844284	1.8058174227935415	75.95806174728173	1.7801171529913384	76.19564125007325	0.20560540736116195	-0.13105855594199056	0.3366639633031525	66.72004784607685
9	4.0	ltm	127	diff_vonmises	0.0668351849757863	3.8293740220887242	1.370419582974993	122.81495766805946	1.3458339074914654	124.18300972162854	-0.011920309090321268	-0.3399460424588021	0.32802573336848084	67.61131998565475
10	4.0	perception	127	diff_vonmises	-0.11660708730062459	-6.681093963639328	3.804799880884923	1.86853877304897	0.1337787412997198	3.379082197055296	0.7856906559145287	-0.5071964137799738	1.2928870696945025	67.38851570744632
11	4.0	wm	127	diff_vonmises	-0.18928676381160248	-10.845332684094465	1.2144072774488708	209.5109124037085	1.1996689164932457	210.93988735179585	0.02809896545824131	-0.34905072851270447	0.3771496939709458	73.05234278020981
12	5.0	ltm	127	diff_vonmises	-0.0810295151438785	-4.642649233735628	3.7196872112571984	0.5824364465816035	3.413458591114104e-19	1.5323101967812285	0.18640907208753033	-0.24362184813104287	0.4300309202185732	71.06486438868714
13	5.0	perception	127	diff_vonmises	-0.0556946847890248	-3.191070379722585	0.895048190072488	121.41966826453125	0.8606227663401695	122.10255183930227	0.5815887508890967	-0.38167938070533225	0.9632681315944289	96.66305714116336
14	5.0	wm	127	diff_vonmises	-0.25031109358652165	-14.34176922781186	0.618127155252028	112.32699582464771	0.6017307105933517	113.20523447285909	0.1153991994112431	-0.2586740482097625	0.3740732476210056	109.19131543144174
15	6.0	ltm	127	diff_vonmises	0.19552965098204564	11.203023770937227	0.888719150537413	97.80209442279596	0.8743912888116562	98.49677424404467	0.04630433066706274	-0.17104154351340206	0.2173458741804648	88.08651325280289
16	6.0	perception	127	diff_vonmises	-0.19700886281049937	-11.287776365713455	0.7715946144992776	219.13755245605162	0.7613535671210978	219.69054307620874	0.26468466243690614	-0.23659557486648808	0.5012802373033942	101.66705229449461
17	6.0	wm	127	diff_vonmises	-0.19204790046099043	-11.003534160763289	0.49527642923180876	138.48840979659002	0.4831484432386252	139.31844322084964	0.11119415312723646	-0.2681468579954913	0.3793410111227278	121.81321519601119
18	7.0	ltm	127	diff_vonmises	0.1368295053024766	7.839753166694827	1.57218952126977	151.95784126038205	1.5554641984803228	152.7938727611851	0.06842016516861804	-0.2423065575139951	0.31072672268261314	65.48602610734784
19	7.0	perception	127	diff_vonmises	-0.18259134927908335	-10.461713689290562	1.551198728596655	2.014481519907152	2.337290915795505e-16	2.3187610564028347	0.5214372500537623	-0.32901891955031803	0.8504561696040803	108.79190343525795
20	7.0	wm	127	diff_vonmises	-0.6283482858166387	-36.001704841573364	1.1294775119275617	78.60229026140001	1.1123602767461596	79.16347354919965	0.04762989582726007	-0.1448933594249997	0.19252325525225977	78.1719775833368
0	1.0	ltm	128	diff_vonmises	0.5480370975506847	31.400212706253622	0.800266197394861	195.13878771948686	0.78593971274216	197.98073320629703	-0.3214310223131349	-0.5327456776713042	0.2113146553581693	77.39455478723701
1	1.0	perception	128	diff_vonmises	0.07858312716450701	4.502481527466103	10.623594352677996	0.5628082239154324	0.14687191426006038	3.010635302244538	0.17054750302740107	-0.5107064785100784	0.6812539815374795	40.32872880227623
2	1.0	wm	128	diff_vonmises	-0.021689861227350258	-1.2427375065516135	1.9016347854902995	2.4385240128597285	0.5739133192924483	5.457736325186253	-0.20228245786522736	-0.6322792889614552	0.4299968310962279	70.03666472646623
3	2.0	ltm	128	diff_vonmises	0.0097870463831216	0.560756451651645	17.621007415417147	0.2812258744234935	0.04256548003687989	1.7613551305515966	0.17489962527777236	-0.2871254337909399	0.4620250590687123	32.05084224082407
4	2.0	perception	128	diff_vonmises	0.04098870935424649	2.348480053686722	8.254197443538358	1.2823428713145362	0.3410580950002785	3.305125582652209	0.7271639668889743	-0.5828170040342577	1.309980970923232	44.95207739930939
5	2.0	wm	128	diff_vonmises	0.022323751655791525	1.2790567527750376	1.1146391826706923	129.82702708426567	1.0870676100014218	131.51168842013078	0.0667895582031548	-0.41035600777011894	0.47714556597327373	77.44140521384139
6	3.0	ltm	128	diff_vonmises	0.03020321150079431	1.730516546736503	2.8979611752261416	1.0010099037456168	0.6484751476970682	1.8244706916847357	0.1414845339857802	-0.2352309116240078	0.376715445609788	65.54916775354866
7	3.0	perception	128	diff_vonmises	-0.07086852501109678	-4.060467383453161	7.410529451882973	1.106911458530676	1.4878373994240264e-22	1.8672864960266229	0.883227865337973	-0.29718744415983545	1.1804153094978085	49.95856202006274
8	3.0	wm	128	diff_vonmises	-0.013730244031621243	-0.7866850346965852	1.4105722280249988	210.83686456126392	1.3963504502105375	211.77704962850427	0.14478719162767106	-0.27860200799200996	0.423389199619681	70.86238386172954
9	4.0	ltm	128	diff_vonmises	-0.39568335924620746	-22.670986508366447	0.8608315626620149	101.7184207907995	0.8353568805828948	103.81565475817031	-0.1565086127888904	-0.4177308180077315	0.2612222052188411	80.69736428264159
10	4.0	perception	128	diff_vonmises	-0.012414873753983596	-0.7113198692909968	4.942170102213123	1.1224147285508004	3.3096903910538865e-21	3.5040364096917407	0.40952111076237663	-0.5576354140070173	0.967156524769394	61.425650555875734
11	4.0	wm	128	diff_vonmises	0.4968432302154626	28.467020170992747	19.299552480753373	0.2388969154275056	0.16135221553240944	2.4470650252645814	-0.03904214405973938	-0.4333732425440839	0.3943310984843445	29.95018339349525
12	5.0	ltm	128	diff_vonmises	-0.1063446060148162	-6.093097098630517	2.8513075601979616	0.821796918505505	2.762430194605053e-16	2.2158737676701903	0.17013480917389728	-0.35092254117792393	0.5210573503518212	81.4105192352157
13	5.0	perception	128	diff_vonmises	-0.16056701896080183	-9.199812515451011	0.8042018574211857	236.2052832401237	0.7862792130836416	237.73372088150253	0.3483572977672935	-0.4794986539156696	0.8278559516829631	97.0433934785323
14	5.0	wm	128	diff_vonmises	-0.12112101260600004	-6.939722832674643	0.4800996217393099	194.5406711734338	0.46818384736622554	195.85387917228857	0.11520853062818048	-0.3913374325803609	0.5065459632085414	122.39410359775555
15	6.0	ltm	128	diff_vonmises	-0.0585711850454456	-3.355881704183796	0.9618803163762846	74.06812075305315	0.9271429166630343	75.29606137682228	0.08614111012661851	-0.30439346340277673	0.39053457352939525	85.0718646517891
16	6.0	perception	128	diff_vonmises	-0.2385369438106544	-13.667160138299762	1.5445087350044115	2.220355871809339	0.27679393156947707	3.5551087125766467	0.24678198524023454	-0.3874968442258502	0.6342788294660847	93.77566917151083
17	6.0	wm	128	diff_vonmises	0.4638867297907716	26.57875178913685	0.00041700730426602443	4206.53158337957	1.0569369604394707e-31	4207.848500435262	0.06961003659353082	-0.4887395504605365	0.5583495870540673	173.46637896424215
18	7.0	ltm	128	diff_vonmises	-0.03732313754351702	-2.1384582594297963	1.3360878450788733	322.87054846930977	1.3232274119095264	325.0221279460272	-0.1134021681058357	-0.5079697092580915	0.3945675411522558	66.1550721950558
19	7.0	perception	128	diff_vonmises	-0.10367183520260922	-5.939958611485304	1.7711051954245705	2.1883547085271804	3.5101947952299083e-16	3.8506044239219026	0.43581592247322287	-0.58248476953196	1.018300692005183	102.65248813753637
20	7.0	wm	128	diff_vonmises	-0.37148340105599076	-21.28443103967398	0.9940844847838785	186.53734564556783	0.9795935115716821	188.23040299427825	-0.06008140995079714	-0.36619418628505684	0.3061127763342597	78.06291385618422
0	1.0	ltm	129	diff_vonmises	-0.012495406487981888	-0.7159340550617486	0.20715736572286328	61.46947068549282	0.18703776926287316	63.705759923901404	-0.21127309362744207	-0.46839642750210686	0.2571233338746648	152.0736902133375
1	1.0	perception	129	diff_vonmises	0.046210903703440324	2.647689749692596	9.365930599269499	0.5526784675426317	0.04083994877813042	2.889781803312584	0.1862764065783969	-0.46492134188356365	0.6511977484619605	43.83075899616287
2	1.0	wm	129	diff_vonmises	-0.04210782975795061	-2.412600929585945	5.625988878068203	0.3651856597151296	7.03980914134471e-33	2.7094552433583194	-0.09415652713500161	-0.43121881812602136	0.33706229099101975	57.4920561047264
3	2.0	ltm	129	diff_vonmises	0.043913030575915134	2.516031317628876	13.290904433623123	0.30040401761095464	9.121261567698749e-17	1.7865203515334858	0.14811580993361856	-0.28433354487958873	0.4324493548132073	37.1862161226999
4	2.0	perception	129	diff_vonmises	0.029166520896821875	1.6711185504680142	6.773439498605655	1.1984869315290776	0.24282208885781137	2.966427478941353	0.6263634648111509	-0.49191274839911703	1.118276213210268	49.97506168877052
5	2.0	wm	129	diff_vonmises	0.14883073598556143	8.527373033798495	1.9584973937895578	0.8678499767086229	0.0532680819462105	2.2785378000342016	0.0598281990749957	-0.3348047654452431	0.3946329645202388	93.59320644647727
6	3.0	ltm	129	diff_vonmises	-0.023472836193799942	-1.34489444710666	3.81902881091705	0.5402351987311704	0.23953546647882518	1.433997689109721	0.11905545668050105	-0.2175017984202999	0.3365572551008009	64.06362553549255
7	3.0	perception	129	diff_vonmises	0.0019553966778164743	0.11203597691278638	3.7213975681099574	2.483740314402363	0.4683909350532784	3.5012290527424397	0.9922311251873621	-0.48898720346712327	1.4812183286544853	64.3575987797432
8	3.0	wm	129	diff_vonmises	-0.13864963217762094	-7.9440387548189335	1.126471821884404	248.32885931039704	1.1153882084866462	249.3092059276967	0.15771607844820323	-0.27665298801662175	0.434369066464825	79.97544799240595
9	4.0	ltm	129	diff_vonmises	-0.009713110494791325	-0.5565202372957697	2.5927500925910634	0.8835541326180747	0.3433134618832426	2.5211582392699015	-0.0173785529810635	-0.35175638619014005	0.33437783320907655	70.34386954722166
10	4.0	perception	129	diff_vonmises	-0.03537575058830675	-2.0268812058174155	2.46287046758225	2.7803168300135064	0.422956797792682	4.875802223456202	0.49095477078885397	-0.6045803881058861	1.09553515889474	74.49910050519605
11	4.0	wm	129	diff_vonmises	0.024429931093884274	1.3997319454749875	0.9480744413062686	237.23853233555963	0.9347272426338069	239.1648919343866	-0.03275985716751961	-0.4229564730605446	0.390196615893025	81.21266270959327
12	5.0	ltm	129	diff_vonmises	-0.013828280623567434	-0.7923021176529482	1.4427162104693072	1.27352315240928	2.12309981660518e-18	2.3228793587223193	0.16909007219779199	-0.33961629285325634	0.5087063650510484	112.27527618936587
13	5.0	perception	129	diff_vonmises	-0.051245324810823875	-2.936140831437252	2.0567541557708724	1.7960428325629765	4.245185392927022e-14	2.948803015770328	0.47301894691158525	-0.45390905717699825	0.9269280040885834	95.72875417210193
14	5.0	wm	129	diff_vonmises	0.06490241094817599	3.7186342275541517	0.40873817933464635	139.26606364567144	0.3952764296993556	140.4041391926694	0.08534763757354114	-0.3469312029093299	0.432278840482871	130.6145319067122
15	6.0	ltm	129	diff_vonmises	0.4450129939591001	25.497366382337233	0.48234063674738265	170.58779520818774	0.4721832196257795	171.6375510761666	0.06907584130046018	-0.29793049748140277	0.36700633878186295	120.73881525453496
16	6.0	perception	129	diff_vonmises	-0.08614941660966008	-4.935997979247756	0.8804684317859408	287.33960485639125	0.8691242377425255	288.43543956020227	0.27429344772465925	-0.3465323894595045	0.6208258371841637	92.70958138807967
17	6.0	wm	129	diff_vonmises	-0.04638682771560401	-2.6577694531045837	0.3477245692062913	167.94316361526845	0.336855355437923	169.14339032747844	0.07023692176593244	-0.3668065089037178	0.43704343066965023	137.64227862099253
18	7.0	ltm	129	diff_vonmises	0.024114112697048478	1.3816368842437086	0.9043530735642662	132.5170898239463	0.88409625117975	133.9339871367676	0.058406132639419184	-0.33621422802796985	0.39462036066738904	86.44428343914336
19	7.0	perception	129	diff_vonmises	-0.08989830534362973	-5.15079348156836	0.8640063170928071	44.04659806813156	0.7535742968897342	44.90311632241315	0.6761456240341115	-0.47361719903887955	1.149762823072991	100.51890150519318
20	7.0	wm	129	diff_vonmises	-0.21238221473695956	-12.168604548068938	1.0391974496285155	173.8647529490345	1.0230595892053558	175.08518988878075	0.10690798160296566	-0.31196871667344084	0.4188766982764065	81.76990079920934
0	1.0	ltm	130	diff_vonmises	-0.10053803205472256	-5.7604049172865865	10.98236997680597	0.2763434991316801	0.07274011860118419	3.004753250389959	-0.15265259539358106	-0.4945968467810772	0.3419442513874961	39.73651609719829
1	1.0	perception	130	diff_vonmises	0.0389618750276412	2.2323510009999987	13.803898843335718	0.7734463717196627	3.638526695313031e-19	3.295601727666899	0.6110341061446919	-0.5245113054192148	1.1355454115639065	36.47401054462526
2	1.0	wm	130	diff_vonmises	0.15826302984575014	9.067803663114466	7.829463489526592	0.36523289836291833	1.9946153213580857e-18	3.536451477235767	-0.16207711166362326	-0.5628436701743686	0.4007665585107454	48.58542292895979
3	2.0	ltm	130	diff_vonmises	0.14380925252468052	8.239663224595272	4.043879733499534	0.82701682294101	0.506596785264452	1.8893042440885919	0.17113876533160188	-0.2910733759885564	0.4622121413201583	58.987543452756
4	2.0	perception	130	diff_vonmises	-0.008545711559544455	-0.489633205298058	7.571238234085003	1.2571336696170767	0.2364464622809915	2.3826871144589514	0.8815526273891565	-0.39673136370043355	1.27828399108959	47.89253106418579
5	2.0	wm	130	diff_vonmises	0.0859237448211438	4.923067938210604	3.424211970874624	0.6891929266443494	4.429615823491924e-19	2.0740272044402754	0.15625221040879345	-0.32957560598281677	0.4858278163916102	74.14286066316936
6	3.0	ltm	130	diff_vonmises	0.14754907142299045	8.453939063611697	5.4188292653957	0.526248469360054	0.5318080568939975	0.8825205554716613	0.253166837038214	-0.14384521877824683	0.3970120558164608	53.758653753106245
7	3.0	perception	130	diff_vonmises	-0.015094731986977566	-0.8648644357349377	4.872063747410645	1.233065546144785	0.11666442035801497	1.4352291384990352	0.7987140977077138	-0.22006521360203057	1.0187793113097445	60.683776807923266
8	3.0	wm	130	diff_vonmises	-0.03518533951380861	-2.015971454876121	1.5237432712464298	98.82345729658287	1.497778702809143	99.24374807076164	0.2659736398306407	-0.19018547816645004	0.45615911799709075	72.28906276649442
9	4.0	ltm	130	diff_vonmises	-0.011328792900195367	-0.6490920201589662	1.3068216742435137	154.11016945187848	1.2826607859356962	155.40924422651793	0.16516436549960645	-0.36465678776879074	0.5298211532683972	73.43619770136752
10	4.0	perception	130	diff_vonmises	-0.07609651462436079	-4.3600091236314205	2.9100503195112584	1.9862881422368648	1.062141296979769e-13	3.556369008392463	0.7124101108217218	-0.5622197959798733	1.2746299068015952	80.57556518526911
11	4.0	wm	130	diff_vonmises	-0.15048106066172706	-8.62192967256908	1.2405998432942484	366.6797413452129	1.2283931004619497	368.2309488630713	0.22617583045899892	-0.43842073478719357	0.6645965652461925	75.70647249395313
12	5.0	ltm	130	diff_vonmises	-0.10386579590113416	-5.951071740902193	2.4486761882583328	0.7763592459545674	1.6762603971514854e-21	1.50132023933065	0.21306199049055516	-0.23556771854756559	0.4486297090381207	87.89036237417855
13	5.0	perception	130	diff_vonmises	-0.008188724989919103	-0.4691793815156722	0.9133974288117207	103.34811186127942	0.8684815865384171	104.150614615488	0.6302098861088155	-0.424315175591337	1.0545250617001525	95.72965539802303
14	5.0	wm	130	diff_vonmises	0.07122201362400435	4.080720789078699	0.6145830693651251	138.1027025769539	0.6007611244066221	138.7811736474922	0.18128242451617638	-0.24932365983263693	0.4306060843488133	112.15295136299815
15	6.0	ltm	130	diff_vonmises	0.2702799374852546	15.48589970496482	1.06975330075236	79.25538176885347	1.051821791623313	79.68150877159712	0.11746391201992168	-0.13624561879126862	0.2537095308111903	84.19404140597828
16	6.0	perception	130	diff_vonmises	-0.24954220447013065	-14.297715126529111	0.451428509017216	180.5290589547742	0.4386850796401551	181.18449862930729	0.27167947446027796	-0.33609332544347836	0.6077727999037563	129.29785643800855
17	6.0	wm	130	diff_vonmises	0.1257636984966451	7.20572913981354	0.5546216172576302	119.77587500368058	0.54144437877833	120.16256658426565	0.1985774071747528	-0.2038596270744133	0.4024370342491661	119.91721586520211
18	7.0	ltm	130	diff_vonmises	0.021973439163475487	1.2589853254546197	1.1830928425945282	1.647219338770934	0.36035448805079373	2.586414757668996	0.04784462581944959	-0.22795503498580902	0.27579966080525864	96.74799495892742
19	7.0	perception	130	diff_vonmises	-0.0632106593032405	-3.621703998315034	1.7741532300601002	2.378952762077175	0.29562515886764573	3.070444988111435	0.4985009291873286	-0.3336861897448335	0.8321871189321621	91.0973489315626
20	7.0	wm	130	diff_vonmises	0.11932646569035575	6.8369028682700055	1.3156512209771578	1.167540336714895	0.15205332220796458	1.9572829980907895	0.10679025746171994	-0.232386618955531	0.3391768764172509	106.07964203823772
0	1.0	ltm	131	diff_vonmises	0.01566181396035542	0.8973558394474388	4.53196984946236	0.2684910628105077	2.0148804504617795e-18	1.7009639918229342	-0.049836790692914634	-0.27069125655106435	0.22085446585814972	64.21071692877496
1	1.0	perception	131	diff_vonmises	-0.020154134340427086	-1.1547468374461511	15.451245867962873	0.4819332261003357	6.492360940694741e-19	1.9204276326426457	0.4437628003200095	-0.3056455505853152	0.7494083509053246	34.458829611341486
2	1.0	wm	131	diff_vonmises	-0.018758804682849666	-1.0748003370375308	5.455059815514176	0.4054397817370696	0.16071242665956012	2.1087222021595493	-0.023375978797195218	-0.34213111690694065	0.31875513810974543	54.2771006240925
3	2.0	ltm	131	diff_vonmises	0.08679321514744064	4.972884918319275	13.3610462641795	0.3545217448280685	0.4890566316812012	1.0059391339388832	0.26582126918823296	-0.20338554919418478	0.46920681838241773	35.43119747734397
4	2.0	perception	131	diff_vonmises	-0.005745495760419962	-0.3291926582823714	8.19004222298814	1.0777550465860324	0.3581003098268747	1.9090042327239363	0.7893161790311656	-0.33250377000796316	1.1218199490391287	45.63142724566521
5	2.0	wm	131	diff_vonmises	0.022419578424822725	1.2845472222049004	1.018216763750748	118.38909995697966	0.9996742094596706	119.36507795436823	0.08150126115969414	-0.24758164973356145	0.3290829108932556	82.58955704215478
6	3.0	ltm	131	diff_vonmises	0.07904772594891085	4.5291010769793525	2.1622240836892312	71.00240639337365	2.1368347917827637	71.18837489199208	0.17123030105610582	-0.11397330618800083	0.28520360724410665	60.605987028519166
7	3.0	perception	131	diff_vonmises	-0.06570395506512659	-3.764559322548962	5.37158409505093	1.3751395656182126	0.18220022331673497	1.6493873075500494	0.9263118057291981	-0.2553200290216089	1.181631834750807	57.355474615868246
8	3.0	wm	131	diff_vonmises	-0.1068642550574173	-6.1228707955995745	1.6805076800123895	147.56203175797816	1.6637516161898993	148.0957101770477	0.17037814803488516	-0.19665986976690775	0.3670380178017929	66.50332466309447
9	4.0	ltm	131	diff_vonmises	-0.06282749416548249	-3.5997502530649506	1.4797509928321346	130.32191913177724	1.4617427592615684	131.20515481344117	0.03636668544847055	-0.23906760874699629	0.27543429419546683	66.58461403309357
10	4.0	perception	131	diff_vonmises	-0.05721350868710681	-3.278092578906292	3.7421270871372845	1.6351717357319424	2.3203889250405017e-15	2.974218943419859	0.738690751353914	-0.47268058038232463	1.2113713317362387	70.84506678230929
11	4.0	wm	131	diff_vonmises	0.04715020470336956	2.7015077326809593	1.280029143221478	185.12278347018992	1.2636987664474024	186.62850895442924	-0.03637312892784905	-0.3580968932660795	0.32172376433823047	69.20002887715361
12	5.0	ltm	131	diff_vonmises	-0.03026079838123859	-1.7338160319412848	2.6198195340460075	0.7307537463578239	2.1440149430196146e-12	1.1564211711923396	0.25857977972158214	-0.1817031137774804	0.4402828934990626	84.97588253893258
13	5.0	perception	131	diff_vonmises	-0.06927475568167703	-3.9691511273600137	2.0649134422738147	1.688757007975645	0.011187206303680985	2.3028371894099924	0.5175438913302775	-0.3481325261681933	0.8656764174984708	95.08968453522547
14	5.0	wm	131	diff_vonmises	-0.010281623351598265	-0.5890936245897327	0.8960580170530581	1.3702808119785486	1.4007785858522065e-17	2.011191128923352	0.12109082740798527	-0.2465835295093826	0.36767435691736783	133.0430348635021
15	6.0	ltm	131	diff_vonmises	0.33226968212749963	19.037650446059168	0.6245736569969357	102.91756707433	0.6131835687787034	103.33243246106025	0.11105082716444414	-0.15119599329890754	0.2622468204633517	111.10305429952885
16	6.0	perception	131	diff_vonmises	-0.19195259443624269	-10.998073527783074	0.9410587290769054	216.4149404789809	0.9275356955789279	217.02881739948106	0.3550137745002644	-0.26942413483948613	0.6244379093397505	92.54076920313808
17	6.0	wm	131	diff_vonmises	0.05403861019112505	3.0961842947041043	0.00035337079033029496	4137.151591711624	3.0332392561351255e-33	4137.793929336429	0.13046535146452243	-0.334886657430161	0.4653520088946834	179.8335203892549
18	7.0	ltm	131	diff_vonmises	-0.030923344208655706	-1.7717771115862886	1.2224960752040492	126.49366710034113	1.2051825537943683	127.2924065674717	0.10010554999206533	-0.2198560028274077	0.319961552819473	75.94815840881677
19	7.0	perception	131	diff_vonmises	-0.09355786370958645	-5.360470730819472	0.7973114557853046	77.66754016732243	0.7492753802474047	78.4668960325869	0.47740849066734725	-0.3829861385737843	0.8603946292411315	101.95142726275259
20	7.0	wm	131	diff_vonmises	-0.2233179459082803	-12.795175790075273	0.7799298659644379	80.74969029741357	0.7647404788792996	81.73203825304327	-0.05745329007907429	-0.19782952355157057	0.14037623347249628	86.48620824677182
0	1.0	ltm	132	diff_vonmises	0.001317665669653398	0.07549668168041906	4.747743842322729	0.45990225240428206	0.028868946041839146	3.7654585404506276	-0.22879960855964032	-0.5958141193039462	0.3670145107443059	60.800335774521244
1	1.0	perception	132	diff_vonmises	0.011964043844889227	0.6854892182216228	15.306412474394335	0.5527622411270333	1.592852258297408e-15	3.4556413811820157	0.30530808555863953	-0.5499824073679781	0.8552904929266176	34.6260507988583
2	1.0	wm	132	diff_vonmises	-0.021527070266953958	-1.2334102715780242	4.649671119494386	0.4451631664257959	0.014529051437988313	4.165646371748439	-0.30135778232441524	-0.6597608761466495	0.35840309382223423	62.10948993012764
3	2.0	ltm	132	diff_vonmises	0.04460900322300292	2.555907612963554	4.411449514712743	0.8667216915802509	0.3176055797014433	2.5646659756294587	0.15577141527421157	-0.4058325796508174	0.561603994925029	58.54058777273883
4	2.0	perception	132	diff_vonmises	0.018886441850872782	1.0821134080742574	4.301372561951543	1.5888824691160195	0.3536780479408991	3.543933072707106	0.4920054594586597	-0.5469000312202436	1.0389054906789033	59.90823472288619
5	2.0	wm	132	diff_vonmises	0.09140084944473949	5.236882917094227	3.9931040431053866	0.6221645141915887	0.007670370685717778	2.5307775296993533	0.07200785490735107	-0.40012818326315064	0.4721360381705017	68.04077380377876
6	3.0	ltm	132	diff_vonmises	-0.06443778678475173	-3.6920132239301453	1.9663728553099176	1.4126605228148315	0.3693811103630035	2.5697870433018997	0.14924868382479473	-0.2991069847466262	0.44835566857142095	81.41893900042831
7	3.0	perception	132	diff_vonmises	-0.04421857633442304	-2.5335378000395026	4.364926254269148	1.9050916264715179	0.18875220302672738	3.241301609258684	0.9181170546912494	-0.4919449810468725	1.410062035738122	62.589296367280355
8	3.0	wm	132	diff_vonmises	-0.13826042353554516	-7.921738742277973	1.1872555552208799	203.89654908685395	1.1675777786604993	205.53751633007957	0.1312826413982151	-0.4260218631067225	0.5573045045049376	76.03386100039305
9	4.0	ltm	132	diff_vonmises	-0.1712565105918257	-9.812275271049092	2.81082370301878	0.8738246726378768	0.0026881864783207883	2.9055921727442833	0.0876538751075927	-0.4592019063587114	0.5468557814663041	81.7886644934361
10	4.0	perception	132	diff_vonmises	-0.021262743326956494	-1.2182654535045618	1.3134911440734782	10.638366979687603	0.7099927474934662	13.113746082402425	0.49781147849429663	-0.7230024993270613	1.2208139778213578	85.78636763160432
11	4.0	wm	132	diff_vonmises	-0.17293900709634588	-9.908675219803612	2.7994777405916578	0.8802892958494435	0.060386172989158035	3.645607602660986	-0.06164270552916018	-0.5549157091248194	0.4932730035956592	77.47025279055194
12	5.0	ltm	132	diff_vonmises	0.02299233460987306	1.3173637342982987	1.3618253718672866	2.4269211800655754	0.27456428823332557	3.138609357612583	0.3465863757028871	-0.30837446183608364	0.6549608375389707	101.28760798046866
13	5.0	perception	132	diff_vonmises	-0.024733931679678422	-1.4171498960104967	2.2949518538181826	1.814542438434909	1.5923783535472728e-16	2.946008580533979	0.5477151313558278	-0.45854831487920916	1.006263446235037	90.76972333550688
14	5.0	wm	132	diff_vonmises	-0.028453511655831147	-1.6302661302054193	0.3756708789114965	252.9768332042442	0.3654950164580463	254.15198670716222	0.2083349799542873	-0.44871105476117634	0.6570460347154636	136.0691286142885
15	6.0	ltm	132	diff_vonmises	0.3667661400201529	21.01415189145896	0.6289685838100519	135.11492128100898	0.6167265017221958	135.55935677653684	0.1942909736374574	-0.20142057708892303	0.3957115507263804	112.49059463122933
16	6.0	perception	132	diff_vonmises	-0.05417587949027782	-3.1040492462022766	0.7299500604765449	108.32840571499501	0.7050657724485558	109.19762395564948	0.26596897936358843	-0.3127197854509056	0.578688764814494	103.48282886121295
17	6.0	wm	132	diff_vonmises	0.2648827942701905	15.176666177313981	0.20970503657542958	128.694101815483	0.19919029187039303	129.205652708723	0.13650609171822126	-0.2574448673668215	0.39395095908504274	154.68884281989781
18	7.0	ltm	132	diff_vonmises	-0.0073656239482164515	-0.4220191657132887	0.4953280326182829	130.8619861733225	0.47904915579273905	132.21090417583167	0.069774735174569	-0.3686096330673774	0.4383843682419464	119.63891107904605
19	7.0	perception	132	diff_vonmises	-0.08459241556764237	-4.846788390842669	0.8437032832556185	248.10855302949616	0.8270843695792901	249.04302289289993	0.49848146946951033	-0.4080930018026052	0.9065744712721155	97.68374471961404
20	7.0	wm	132	diff_vonmises	-0.09674141663277881	-5.542874877174929	1.0243394486582875	173.48128365270657	1.006348689373067	174.78944920823068	0.14099085230258623	-0.3425706900007093	0.4835615423032955	83.01070264810741
0	1.0	ltm	133	diff_vonmises	-0.033656650085665596	-1.9283840024572592	6.630570908602103	0.47927254777044587	0.11005362324125555	4.113836920844073	-0.2463878645358522	-0.6733824688311685	0.42699460429531627	49.637741380251555
1	1.0	perception	133	diff_vonmises	0.04529113558234905	2.5949909182233886	15.43908791159397	0.7393715708455113	8.291958857688018e-18	3.752315982090857	0.5516877626684861	-0.597199636592435	1.148887399260921	34.481138259424824
2	1.0	wm	133	diff_vonmises	0.15396888219872176	8.821767126333707	6.112623523637503	0.45694533313749847	4.565134926356562e-20	4.547550457766536	-0.28311767017990264	-0.7237629727914991	0.4406453026115965	55.10527367139784
3	2.0	ltm	133	diff_vonmises	0.07626461496631613	4.369640563760167	2.464373818905358	1.742726857346007	0.6500089038212048	3.193959605726121	0.1399478508309674	-0.3805276309293754	0.5204754817603428	68.45334139763335
4	2.0	perception	133	diff_vonmises	0.009300603011442091	0.5328852994822956	5.518531238326516	1.4821825909376614	0.30017948971983904	3.083760697368135	0.7061935439940074	-0.49669898411099056	1.2028925281049978	54.67222229939546
5	2.0	wm	133	diff_vonmises	0.10153161322603897	5.817332925006682	4.426574570902511	0.6615034965415186	3.149224624231799e-16	2.3708665020260327	0.16000128901987992	-0.37725831776664437	0.5372596067865243	64.99258839881125
6	3.0	ltm	133	diff_vonmises	0.14628700339380607	8.381627892081038	7.654394575731	0.4584432111673136	7.911394414280765e-22	1.2562560322662	0.29715663398920933	-0.19993924562111323	0.49709587961032253	49.150451684747566
7	3.0	perception	133	diff_vonmises	-0.039876607038982693	-2.284761284635379	5.347135453972528	1.1602860483809514	5.27449460431959e-13	1.7206142249620031	0.7687614002241014	-0.2738206154027359	1.0425820156268373	59.001018606349874
8	3.0	wm	133	diff_vonmises	-0.013147046452282367	-0.7532702747782216	2.308717942099363	1.9850034790063482	0.7473963553440334	2.8532113392309393	0.2783972321109578	-0.28779264533086896	0.5661898774418268	71.40342101640616
9	4.0	ltm	133	diff_vonmises	-0.18956963070644908	-10.861539763333147	0.8734172981398336	68.52582066762628	0.8189252863624114	70.52347500847713	0.09876732076360284	-0.47952027801189256	0.5782875987754954	89.34507625898043
10	4.0	perception	133	diff_vonmises	-0.010358334732411862	-0.5934888629509727	2.135936917667764	2.2600107636663287	4.3774350117915254e-14	4.602775578071169	0.4804097731914706	-0.7156250111858621	1.1960347843773327	94.01057736276394
11	4.0	wm	133	diff_vonmises	-0.13087946413149043	-7.498840919668242	1.0935014405525436	216.25021075964546	1.0702533033516965	218.53728512090655	0.1313646339574177	-0.5672409569119807	0.6986055908693984	78.79177508131002
12	5.0	ltm	133	diff_vonmises	-0.06399192421871029	-3.6664671806530977	2.2514678327634403	1.01623831406651	8.107205967463149e-15	1.7507084887698292	0.2842684557266874	-0.2723984843758761	0.5566669401025635	91.62310190403204
13	5.0	perception	133	diff_vonmises	-0.01885875685131244	-1.0805271744436282	1.6082557382522533	3.460813901548839	0.32079672509374585	4.527003234758324	0.5959092478584066	-0.46010977268539616	1.0560190205438027	93.46324611604615
14	5.0	wm	133	diff_vonmises	0.02260476321616248	1.2951575291786792	0.5605953872099648	210.92115434938708	0.5489242394837066	211.67647573705122	0.2703058893792871	-0.328836442247308	0.5991423316265951	118.26846038479322
15	6.0	ltm	133	diff_vonmises	0.24556959542979842	14.070101394862558	1.0060683978224376	64.70776579955783	0.9835864424260023	65.0217076137486	0.16902021873078255	-0.13099084870344235	0.3000110674342249	89.39206674895996
16	6.0	perception	133	diff_vonmises	-0.25491812639361905	-14.605732763736848	0.28792815913279096	67.90490030547319	0.2580975038629766	68.58437865531383	0.22186985750644084	-0.35559590229154114	0.577465759797982	147.33544989862855
17	6.0	wm	133	diff_vonmises	0.3681560760770034	21.093789361309547	0.4072572057595417	123.84733984645173	0.39576928967520675	123.99809867504094	0.2268110537540693	-0.18982650513636123	0.4166375588904305	134.5938167708607
18	7.0	ltm	133	diff_vonmises	0.02037530945289193	1.167419237923718	0.45377577662235247	98.29587838429785	0.4360214665468724	99.60152443132284	0.01647438138564894	-0.33452028234999354	0.3509946637356425	122.97284160493268
19	7.0	perception	133	diff_vonmises	-0.06056048781731095	-3.4698603571853566	0.9634138823709164	163.1573334450524	0.9391613528625663	164.0382722204054	0.4604618522294288	-0.36597936085374627	0.8264412130831751	91.37252862121088
20	7.0	wm	133	diff_vonmises	0.050111399732920364	2.8711717101893375	0.828728035856514	135.4080540864288	0.8099144195978595	136.50519945170961	0.15118794361720944	-0.30150442856164617	0.4526923721788556	93.7202133983624
0	1.0	ltm	134	diff_vonmises	-0.06868027964353098	-3.935090159352587	3.2177533137159218	0.3811990736564895	2.5808650148662184e-17	3.894034895329489	-0.35997166504581146	-0.6193383130652912	0.25936664801947973	76.54491363697915
1	1.0	perception	134	diff_vonmises	0.07192775251052522	4.1211566487146065	13.274074135617099	0.6160334194872437	0.007774164003594928	3.5752570884677572	0.31318534554601896	-0.5704762444451095	0.8836615899911284	37.12429181358422
2	1.0	wm	134	diff_vonmises	0.06793915824961645	3.892627031374432	5.097297408011598	0.44785023411563435	1.471904919770786e-34	4.29876453995278	-0.2918187920779599	-0.6841549626120569	0.392336170534097	60.45997874832838
3	2.0	ltm	134	diff_vonmises	0.10779479608444556	6.176186869112063	8.990821814397313	0.4730927002289032	0.14762027639494993	2.128183042009655	0.16713095889514368	-0.3564600166686469	0.5235909755637906	43.776044514041445
4	2.0	perception	134	diff_vonmises	0.03460939443274015	1.9829722324995784	6.618798521561896	1.3700611935299885	0.25532424021881645	3.301421199678405	0.7101208385762988	-0.5469188635193398	1.2570397020956388	50.44544923966225
5	2.0	wm	134	diff_vonmises	0.07230243006740533	4.1426240914021095	2.6362731350207187	0.9771605970721823	0.14453722056234522	2.956615922436627	0.05315290802352424	-0.4296591459068682	0.48281205393039245	76.77261592908005
6	3.0	ltm	134	diff_vonmises	0.10707243906378228	6.134798860526412	4.873403126226627	0.48194360991987495	0.15852138781558728	1.381149099129747	0.15625898993770576	-0.21719080401356194	0.3734497939512677	58.7449188642004
7	3.0	perception	134	diff_vonmises	-0.022628928697486162	-1.2965421092684284	5.071451628775262	1.3905830488785509	0.023678519141535403	2.247863737090245	0.8486132073776045	-0.3535116507066456	1.20212485808425	60.23830920154188
8	3.0	wm	134	diff_vonmises	-0.018041964691119308	-1.0337284309251884	1.2459132693999673	52.25325456321549	1.1808141225195736	53.4489107093664	0.17799834288205219	-0.33763333134687645	0.5156316742289286	76.46429033958657
9	4.0	ltm	134	diff_vonmises	-0.1518944855469621	-8.702912953151811	1.2297671577384262	3.2366515500255106	0.46717456915971445	5.534584946805316	-0.08684897165817951	-0.47568174819390374	0.38883277653572423	86.38489220505065
10	4.0	perception	134	diff_vonmises	-0.026369173277914132	-1.5108423380736304	0.9407657111893643	245.2132586048214	0.9150478836476711	247.6604814993054	0.4024145873750484	-0.6887002205122599	1.0911148078873083	88.41182196355686
11	4.0	wm	134	diff_vonmises	-0.057511844111612136	-3.295185939609691	1.001240000614981	227.9786516027171	0.9827189232483634	230.55722373077396	-0.07339501507183854	-0.5633945137757799	0.4899994987039413	78.32497931557151
12	5.0	ltm	134	diff_vonmises	-0.07635679578813888	-4.374922135802658	2.0578812435870937	0.9703894768891477	8.622940138717965e-16	2.0364843229909484	0.1851671912848385	-0.31580761576972743	0.5009748070545659	95.7039077725101
13	5.0	perception	134	diff_vonmises	-0.03282373746005369	-1.8806616243065368	1.730780477769108	2.7439232159214204	0.21359179791309763	4.038638526413487	0.5097534018619003	-0.47886669449130914	0.9886200963532095	93.61170344263556
14	5.0	wm	134	diff_vonmises	0.027635971438531824	1.58342452617196	0.5208462534437345	218.2049477853527	0.5096746969039065	219.45280898467084	0.14649083688186693	-0.3831677736341206	0.5296586105159875	118.6334859956186
15	6.0	ltm	134	diff_vonmises	0.40141606431529864	22.999446314018623	0.7298267508934159	162.60281583990863	0.7188040715087207	163.4480009526187	0.09839987225712576	-0.2301158038248623	0.32851567608198806	99.3699620000423
16	6.0	perception	134	diff_vonmises	-0.1726902627664434	-9.894423219522391	0.5226516358509403	203.31900531360716	0.5092739601706046	204.36320503523527	0.25013155853046953	-0.3961688666838228	0.6463004252142923	120.79026181041333
17	6.0	wm	134	diff_vonmises	0.23152092747038666	13.265172013007598	0.2738914597444444	170.15284624707326	0.2630276566295173	171.18456672590395	0.11771075378419482	-0.3743945936791562	0.492105347463351	146.83785154626887
18	7.0	ltm	134	diff_vonmises	0.09085696134066155	5.2057204242031885	1.6061108816568614	1.5466569715910465	0.38187304276687034	3.303818812340045	-0.044681489932323126	-0.36887820614997696	0.32419671621765384	82.40416089975369
19	7.0	perception	134	diff_vonmises	-0.042393200906003736	-2.4289514919641917	0.8599926955126779	191.48001670516416	0.837730056887192	192.40527589470562	0.5257793640357775	-0.4151172122760336	0.9408965763118111	97.10456144257819
20	7.0	wm	134	diff_vonmises	-0.18422792367993743	-10.555482495318653	0.8251445690919951	123.1798962211667	0.8026280556642151	124.79725674757	0.03766617775353609	-0.37288558301884933	0.4105517607723854	89.99517899492251
0	1.0	ltm	135	diff_vonmises	0.3588601736248588	20.561173384036348	0.8185700007160608	144.0960932700474	0.7972322306042313	147.3121669340604	-0.38772475895826375	-0.6009755898410916	0.2132508308828278	75.16815534151101
1	1.0	perception	135	diff_vonmises	0.0663508731920923	3.8016250009146053	12.804202602948632	0.5679379278133815	0.12146685104350712	3.4273257892812525	0.1888188919520276	-0.5798253103341513	0.7686442022861789	36.988464811359535
2	1.0	wm	135	diff_vonmises	0.0038804187324921794	0.22233161611530627	1.4345093367640673	4.728166919826871	0.6368997987965052	8.584492703922901	-0.3462439896221077	-0.7730424699933169	0.42679848037120927	72.8342956102066
3	2.0	ltm	135	diff_vonmises	0.051205202502056124	2.933841992480539	14.18102721055229	0.36275163074690275	0.17633781332560505	1.5901398668524085	0.24045203374164714	-0.2778562282054109	0.518308261947058	35.17145199211558
4	2.0	perception	135	diff_vonmises	0.02475137131416371	1.4181491134627546	8.193778150276177	1.2496499761631257	0.3532929425655267	3.112061152884542	0.719949801805097	-0.5496781811405614	1.2696279829456585	45.090034572047244
5	2.0	wm	135	diff_vonmises	0.03318268304779794	1.901227691559125	1.0881980982947892	179.0449369275354	1.066199968484367	181.03705615074054	0.03376782295737257	-0.4695996955753827	0.5033675185327553	77.40535939055772
6	3.0	ltm	135	diff_vonmises	0.05127473583258231	2.9378259588551776	1.7830806047481587	84.31532782917719	1.7508995643525649	84.88081272024029	0.1781372641778347	-0.21300001416981118	0.3911372783476459	64.51051058985206
7	3.0	perception	135	diff_vonmises	-0.061970107200272156	-3.550625598548869	5.70736579050292	1.3688185966915387	0.14390223168928123	2.136708971208306	0.8823231948897958	-0.3358221156406252	1.218145310530421	55.69639926889519
8	3.0	wm	135	diff_vonmises	-0.03402502953332016	-1.9494905900672261	1.3824562417819977	212.88795152845307	1.3675397321474603	214.06630298298305	0.08673912741835466	-0.3196625415425771	0.4064016689609318	69.88985239486183
9	4.0	ltm	135	diff_vonmises	-0.25038547500607167	-14.346030969226266	1.0924068532460394	187.33154392415335	1.0755807112378355	189.1035434561652	-0.039521865707229153	-0.3990804941301178	0.35955862842288866	75.19803907424631
10	4.0	perception	135	diff_vonmises	-0.06308997535435695	-3.6147893173890338	3.2500574806122846	1.8849296499282768	0.2124093655246982	3.763852098015347	0.5592024915451935	-0.5437373302077526	1.1029398217529462	70.46356420478858
11	4.0	wm	135	diff_vonmises	0.36270183560311636	20.781284401706387	4.366664632298947	0.3939052095460214	0.20973307785097098	2.676444053104688	-0.2020183785230209	-0.4350986971351468	0.23308031861212591	56.68812778735537
12	5.0	ltm	135	diff_vonmises	-0.11746716104227747	-6.730372559106064	3.3998686300326617	0.7208281457346951	6.267232321800371e-20	2.0553220398899663	0.17951368996030137	-0.3265502014531751	0.5060638914134765	74.41721208424184
13	5.0	perception	135	diff_vonmises	-0.12365542816269301	-7.084934147605449	0.8341180713839598	285.99911000164565	0.8180449944797863	287.60870905801875	0.3833248314187756	-0.5071429658008739	0.8904677972196495	95.31358599831626
14	5.0	wm	135	diff_vonmises	-0.1729211059905342	-9.907649561991986	0.36781930559098175	129.1014856564754	0.35167409720791426	130.88991212123426	-0.013513461567541185	-0.4580727602624499	0.44455929869490873	132.98411076723087
15	6.0	ltm	135	diff_vonmises	-0.018165251414240368	-1.040792239830023	0.7958767430223929	105.59956698718436	0.7757311431316015	106.95620084888924	0.0006197936155096784	-0.3014049915195596	0.30202478513506925	90.40166018923856
16	6.0	perception	135	diff_vonmises	-0.17351127901728927	-9.941463985607513	0.788873230029115	274.5746204662867	0.7746681956662623	276.20944382801923	0.2563520690931824	-0.46585728667949766	0.7222093557726801	96.50802894954587
17	6.0	wm	135	diff_vonmises	0.4797787641602032	27.489298286382127	0.00017957491187095513	9501.126227059716	6.88248372916656e-30	9502.980859728488	-0.02362725124589815	-0.5666962847378727	0.5430690334919746	173.05056389545587
18	7.0	ltm	135	diff_vonmises	0.05210890470688123	2.985620314753685	1.3632188513982406	250.82894251832565	1.3483124844857877	252.69548228269167	-0.08529526304832302	-0.44758755578080667	0.36229229273248365	65.91022438245105
19	7.0	perception	135	diff_vonmises	-0.07394398291944447	-4.236678141671615	1.3969523120147531	2.2966489578086753	3.2882359841211197e-16	3.9690780788299524	0.32125309258597	-0.573393666401039	0.894646758987009	113.75064007701201
20	7.0	wm	135	diff_vonmises	-0.4347730267819672	-24.91065948073503	0.877411054619434	194.707501649329	0.8651634299752995	196.5088863588013	-0.11465077979617888	-0.365983433451774	0.2513326536555951	80.77350431666115
0	1.0	ltm	136	diff_vonmises	0.011194704232157864	0.6414093053998865	4.095304326918368	0.3249323931855288	4.973196022971471e-14	2.559917463199456	-0.15438987286935113	-0.4073533545863386	0.25296348171698746	67.64195690034913
1	1.0	perception	136	diff_vonmises	-0.009141275368221562	-0.523756497965993	15.125490077934286	0.4938233889254011	1.4710130171318434e-16	2.5597347176362195	0.3518692664137098	-0.40739443331568587	0.7592636997293957	34.84035362861715
2	1.0	wm	136	diff_vonmises	-0.029309010798609054	-1.6792826204636533	5.153454002598726	0.4367275667325569	0.10691165644303913	2.989476549107063	-0.14315010732375028	-0.47946148392166255	0.33631137659791227	56.10462712766784
3	2.0	ltm	136	diff_vonmises	0.05617760651452684	3.218739756429027	8.754001628080706	0.4636766966589209	0.2804329443832678	1.6618602379989835	0.19567887421985303	-0.29216449584467946	0.4878433700645325	43.59583388887572
4	2.0	perception	136	diff_vonmises	0.004101461755396564	0.2349964484185411	6.454614205047445	1.2098326555387078	0.3001043884431517	2.6536901709997265	0.6428923419024721	-0.4409413162465979	1.08383365814907	50.84822672799578
5	2.0	wm	136	diff_vonmises	0.02038058538454161	1.1677215265402443	1.6962060371591365	1.7826305208475515	0.4757904243758382	3.2401968503834224	0.04720567018062238	-0.3362773536507023	0.3834830238313247	80.54527719617425
6	3.0	ltm	136	diff_vonmises	-0.04275105693913723	-2.4494551323360345	1.3047232911131599	26.653318892725526	1.229561214506277	27.22804970401546	0.1450963358146513	-0.1824589422830285	0.3275552780976798	76.3822177764099
7	3.0	perception	136	diff_vonmises	-0.05812584389314333	-3.3303655357133826	5.122741141737623	1.570874758843404	0.15772593985490177	2.330568665895285	0.9481493145673938	-0.360951060116395	1.3091003746837888	58.59672550286669
8	3.0	wm	136	diff_vonmises	-0.16115669884420272	-9.233598684033648	1.4422075308157263	224.40138523379179	1.4279823643907255	225.39212592254137	0.14926195815594667	-0.29507301898310345	0.4443349771390501	69.96570479625456
9	4.0	ltm	136	diff_vonmises	-0.18503658119471056	-10.60181515798669	1.8566207130833003	1.399141349720831	0.4643400836539625	2.7821793424428325	0.02196935811757572	-0.312128821292419	0.3340981794099947	77.66379623716358
10	4.0	perception	136	diff_vonmises	-0.04442347987341481	-2.545277908031025	2.9982657088616187	2.065785226492073	0.1418293774436723	3.9668735513982307	0.6285241884063887	-0.5745962604690056	1.2031204488753944	74.81486056987706
11	4.0	wm	136	diff_vonmises	-0.06214751019576667	-3.5607900414636826	0.9767997250777518	205.71562860280426	0.9616045344643367	207.78516465804202	-0.09934472964795305	-0.4387697948378566	0.33942506518990356	77.86605417336821
12	5.0	ltm	136	diff_vonmises	0.002250361747455432	0.12893623050688108	2.0413778536910674	1.1678906197860937	0.08561852356811112	1.724532068548783	0.31153621045001045	-0.24120346109598886	0.5527396715459993	92.28278566411456
13	5.0	perception	136	diff_vonmises	-0.055569789892487	-3.183914429268246	2.159959025345897	1.7086702693848537	3.5562058324964066e-16	2.5367257318263587	0.5195378113290121	-0.39145177304037115	0.9109895843693833	93.49508391588807
14	5.0	wm	136	diff_vonmises	-0.07610444886299406	-4.360463722018756	0.3975212886931322	148.99571954042582	0.38386708682292403	149.87879686693697	0.17353344619612443	-0.3436934653656003	0.5172269115617247	133.9317307801215
15	6.0	ltm	136	diff_vonmises	0.36420521246675025	20.867421551010224	0.5679556235721075	129.5279858255002	0.5571289137319547	129.95328761531326	0.15485795955511605	-0.18545752623382938	0.34031548578894544	117.28311924176543
16	6.0	perception	136	diff_vonmises	-0.1247558064465746	-7.1479811791397125	0.8767325095785345	221.94746020675854	0.8644023583462781	222.6260197576695	0.30747537184772966	-0.2699261915192501	0.5774015633669798	95.10887516526806
17	6.0	wm	136	diff_vonmises	0.17083382251018628	9.788057027920672	0.03610921913821286	37.06815131028193	9.123069757337458e-10	37.618664211314574	0.12731041590952152	-0.2986987920020461	0.4260092079115676	176.9553847572535
18	7.0	ltm	136	diff_vonmises	-0.04438559275083734	-2.543107135809441	0.9579991382245683	145.3073495788787	0.9426185968254397	146.3246660737938	0.08782726895793047	-0.2579146820475646	0.3457419510054951	85.32457936312767
19	7.0	perception	136	diff_vonmises	-0.11486559125779616	-6.581313590346525	0.7924299619176661	227.53951307351005	0.7756425514052695	228.33396113997563	0.49189691944803826	-0.3859402522670301	0.8778371717150684	101.35535048173338
20	7.0	wm	136	diff_vonmises	-0.20338725346209457	-11.65323123013556	0.9418174121194425	117.09763748630901	0.9252172799952489	118.18164250978545	0.014491636612312675	-0.24798382592710766	0.26247546253942033	83.25470660101827
0	1.0	ltm	137	diff_vonmises	-0.022108101615398723	-1.2667009156087043	7.176723504867695	0.5643180336085276	0.19670052739439517	4.150849055854347	-0.20471600035655535	-0.7058884146649766	0.5011724143084213	46.74331496857016
1	1.0	perception	137	diff_vonmises	0.03554313877496858	2.0364718424534867	15.974050154226592	0.777160977873762	0.0071971092325390385	3.8371289333303262	0.6140764161853532	-0.612500696163289	1.2265771123486422	33.83822888775319
2	1.0	wm	137	diff_vonmises	0.16808714849515666	9.630684199161223	6.65717772905686	0.43479764877721927	2.445463475459936e-18	4.57010088896433	-0.2889403902671448	-0.7273534230496529	0.4384130327825081	52.763567967138755
3	2.0	ltm	137	diff_vonmises	0.0505081441535838	2.8939034910387154	1.3094941964252274	112.01957855583746	1.2765285058376743	113.34618957025259	0.150441955224899	-0.36686970629474125	0.5173116615196403	73.18605644691172
4	2.0	perception	137	diff_vonmises	-0.005165353119678731	-0.2959529334523245	5.519956376265184	1.471291297934145	0.32503711675704844	2.9753616701340615	0.7060673887459505	-0.4803617817273112	1.1864291704732617	54.501340448923
5	2.0	wm	137	diff_vonmises	0.1065853599513485	6.106891283094979	4.850021168258646	0.6454183752135013	1.9679215725232666e-17	2.2249304496478506	0.19652756516943276	-0.3540749350425806	0.5506025002120134	62.01746500293714
6	3.0	ltm	137	diff_vonmises	0.11958317459214786	6.851611204906132	6.696493014192001	0.533202911836614	0.05048552198572099	1.2348463356831578	0.3327797999921932	-0.19611212097223735	0.5288919209644305	52.00449501128472
7	3.0	perception	137	diff_vonmises	-0.050260018474059046	-2.8796869368131315	5.790381050204417	1.0638347941345832	2.778732551978638e-16	1.5185287650510615	0.7554066033032343	-0.24167204202657308	0.9970786453298074	56.64783785123723
8	3.0	wm	137	diff_vonmises	-0.029064997870905367	-1.665301709559601	1.4562399678329094	92.09836634314885	1.4214870197668266	92.79330472189957	0.2755069272136055	-0.2590479948170934	0.5345549220306989	72.78297843253955
9	4.0	ltm	137	diff_vonmises	-0.18807915025445832	-10.776141523987325	0.95770294996853	189.37478252341882	0.9362864113231032	191.11320836487198	0.19732044966384876	-0.4571391187282998	0.6544595683921486	86.26192403139373
10	4.0	perception	137	diff_vonmises	-0.02610902270622505	-1.4959368082779303	2.1187658370815075	2.3293697863041922	3.3930506543804342e-15	4.502807398724967	0.5274665361168168	-0.6986722665700131	1.22613880268683	94.37920604317068
11	4.0	wm	137	diff_vonmises	-0.13595166371345305	-7.789456548562721	1.0893339462799307	216.5911903085945	1.0674098553339433	218.631659877905	0.16808730625176338	-0.5215230325337323	0.6896103387854957	79.71174484751558
12	5.0	ltm	137	diff_vonmises	-0.06648179948438813	-3.8091265248904524	2.5083832813934586	1.0115922945452318	4.254119890526021e-16	1.6979794327686664	0.32711673363558846	-0.2662836618541058	0.5934003954896943	86.84662178138933
13	5.0	perception	137	diff_vonmises	-0.029297004432067043	-1.678594706333509	1.3337349160440932	5.624760436156189	0.5159917940328068	6.668781716734554	0.6046011055955436	-0.4612638234427582	1.0658649290383018	94.0425558086722
14	5.0	wm	137	diff_vonmises	-0.010302164127163997	-0.5902705243375745	0.5426063604251674	194.10277401160587	0.5301788537061655	194.74811222617495	0.2903294030743595	-0.3198069021485246	0.6101363052228841	120.7235607835316
15	6.0	ltm	137	diff_vonmises	0.11780542071645991	6.749753410816187	2.7371285413524675	0.4991322218646236	3.58569001249237e-15	0.7318913174074848	0.1936425820147099	-0.11518358552126814	0.308826167535978	83.11223956693081
16	6.0	perception	137	diff_vonmises	-0.25030260839428187	-14.341283062108163	0.5804193379744629	3.0346738402827618	1.5191195094023423e-10	3.6650858420903583	0.21131558073825418	-0.3344140494633695	0.5457296302016237	147.15602331935733
17	6.0	wm	137	diff_vonmises	0.4935249924236687	28.276899150102146	0.30920812474577014	101.37484567551687	0.2970502122421855	101.30664693725471	0.2350020461758362	-0.15491982787339253	0.38992187404922873	143.34184970735237
18	7.0	ltm	137	diff_vonmises	-0.04830915305083483	-2.7679105816643808	0.5056252994677031	144.85139019256266	0.4934370475964671	146.01391623842207	0.04453347432600907	-0.30558144209254934	0.3501149164185584	117.55077527249567
19	7.0	perception	137	diff_vonmises	-0.08092937335419138	-4.636911531833669	0.9506197186612025	69.0750771191755	0.8950658749106122	70.06089716642805	0.41269539416410694	-0.37278073031144565	0.7854761244755526	92.04623277751179
20	7.0	wm	137	diff_vonmises	0.10449528033862031	5.9871385424393155	0.834667778972391	127.16776966824534	0.8168890701341803	128.02374032949072	0.16896820689083114	-0.25547882257447974	0.4244470294653109	94.62863694658117
0	1.0	ltm	138	diff_vonmises	-0.02390497449561918	-1.369654147966853	8.15811888144817	0.4230121011221975	0.2561181354502678	2.932176183815446	-0.11903921220791153	-0.5172765773633938	0.3982373651554823	43.658715882224215
1	1.0	perception	138	diff_vonmises	-0.01708800757984516	-0.9790707146126878	15.18827909488589	0.6215429014626228	1.7660719668313417e-20	3.1815261810278956	0.45179561705646043	-0.5063556182868083	0.9581512353432687	34.75861363296201
2	1.0	wm	138	diff_vonmises	0.039095698206460965	2.2400185043473955	6.106868271977748	0.37098408080852485	0.11670440025032894	3.6539488917915772	-0.29374482274173497	-0.5984063127226434	0.3046614899809085	50.8551055359159
3	2.0	ltm	138	diff_vonmises	0.07599046464978447	4.353932907670727	4.766444432037166	0.7722957726020904	0.5832906987233603	1.6715701347680083	0.21412011180376467	-0.27170603523435144	0.4858261470381161	54.86079224257551
4	2.0	perception	138	diff_vonmises	-0.03171356429776435	-1.8170533875786654	7.2737169979605465	1.1945193194717578	0.331711279369728	2.4322851438264377	0.7366717841875613	-0.41445324509112147	1.1511250292786828	48.09458614899452
5	2.0	wm	138	diff_vonmises	0.07974085959394554	4.568814709478359	4.285196341754104	0.5364707322940334	0.012183346241067055	2.087209599725628	0.0919038640253465	-0.3295076888826312	0.4214115529079777	65.47574706761031
6	3.0	ltm	138	diff_vonmises	-0.0022812588956210855	-0.1307065066957634	1.9842052301698194	68.03861897847398	1.95049649420595	68.2110265176791	0.27280465339526927	-0.13879229408897942	0.4115969474842487	64.67489571065477
7	3.0	perception	138	diff_vonmises	-0.043644937959987286	-2.5006707422175887	3.8450348649319994	2.1488791703431662	0.5873788105336818	2.603319915401025	0.9315035296503666	-0.3543134859918911	1.2858170156422577	63.039949390509975
8	3.0	wm	138	diff_vonmises	-0.19145195974950477	-10.969389273155137	1.5834930844367954	157.2255401414996	1.5654472333393759	157.93823192737304	0.17171683890978784	-0.23949162670036017	0.411208465610148	67.86419698906693
9	4.0	ltm	138	diff_vonmises	-0.12864763946273194	-7.370966785535198	1.3746645503656192	226.07042442069414	1.359919608004543	227.02609289709656	0.20840979936519943	-0.2989322178386189	0.5073420172038183	72.88639052892535
10	4.0	perception	138	diff_vonmises	-0.11073802214051733	-6.34482130027791	3.5001326537986395	2.118651969713664	0.1522081692337704	3.2999814673948733	0.9053315580990282	-0.48383880423028347	1.3891703623293117	70.10366785505101
11	4.0	wm	138	diff_vonmises	-0.22216248113812367	-12.728972535369245	1.0040924396917539	197.96601932174036	0.9881237455184883	199.56571525642204	0.0551766989762541	-0.37989716336329593	0.43507386233955003	81.4042084396455
12	5.0	ltm	138	diff_vonmises	-0.06174312703528733	-3.537620593062055	3.339783848082525	0.7879394413605538	8.209870977165369e-21	1.4175038336309311	0.3226590528330174	-0.2249137993539096	0.547572852186927	75.1041143784972
13	5.0	perception	138	diff_vonmises	-0.04429134722287573	-2.5377072648192587	1.3063202971709773	5.4891217904545	0.5330750189721595	6.334184419402231	0.5858323563839793	-0.41237860703429713	0.9982109634182765	94.70147413405687
14	5.0	wm	138	diff_vonmises	-0.21151375843836778	-12.118845667468076	0.32777119682567474	131.59804022020538	0.31440171775803466	132.68901607578675	0.08461893797221265	-0.3530740911740686	0.4376930291462813	140.23646541786448
15	6.0	ltm	138	diff_vonmises	0.11712796492853271	6.710938053361249	0.6418173304701962	65.87144575531069	0.6245427114880979	66.32730763101065	0.09282009294640048	-0.14923652309200985	0.24205661603841033	108.73661378902162
16	6.0	perception	138	diff_vonmises	-0.11021906465702329	-6.315087226726971	0.7637767493646134	238.27961041908839	0.7517991985892958	239.1454242562047	0.2899600923676644	-0.316344626237008	0.6063047186046724	100.96502587296477
17	6.0	wm	138	diff_vonmises	0.33580809756991203	19.240386717073317	0.0001987906828036824	5609.257617305192	1.818999633419955e-30	5609.881261588615	0.0782197947333998	-0.2767142966774827	0.3549340914108825	176.4511200944267
18	7.0	ltm	138	diff_vonmises	-0.088126682912202	-5.049286993356846	1.041486587637273	121.10107814715133	1.0270672947225952	121.78920428898405	0.09062857759310106	-0.18596311047662084	0.2765916880697219	82.79864231119839
19	7.0	perception	138	diff_vonmises	-0.12245139412140503	-7.015948078649568	0.6389507647148129	109.57985251597228	0.6108934404407508	110.43114630808738	0.3553975362581596	-0.37624946098163115	0.7316469972397908	112.23511631414533
20	7.0	wm	138	diff_vonmises	-0.17534532374264888	-10.046547007808849	0.9444206810575118	88.96590778829469	0.9289166868313984	89.6565157016767	0.03549485782397355	-0.1667058473707499	0.20220070519472344	84.76116972245336
0	1.0	ltm	139	diff_vonmises	0.06283085790095892	3.5999429809111487	6.466672601520538	0.45278490069319816	0.12939751953354972	3.6728473589054658	-0.21286401609235528	-0.6041915094724695	0.3913274933801142	49.88652879136444
1	1.0	perception	139	diff_vonmises	0.044714363818398634	2.561944330406714	14.537000698663189	0.652322444224602	0.09122169534680191	3.5324790032612703	0.3683683362204202	-0.5897599969436168	0.958128333164037	35.025400422948195
2	1.0	wm	139	diff_vonmises	0.07053757015063747	4.041505066739502	3.1478691063419046	0.9892380977539597	0.23547072763616989	4.647996956525902	-0.25746418010714545	-0.7112419863522931	0.45377780624514763	65.23458976455959
3	2.0	ltm	139	diff_vonmises	0.07310047917850404	4.188348937312233	3.2030494897819053	1.046034338463221	0.4723577097473959	2.3522080265499814	0.14275980115206754	-0.3346632656862796	0.4774230668383471	64.77029618869611
4	2.0	perception	139	diff_vonmises	0.018406695274089054	1.0546259539887008	5.355417954827312	1.500037778496129	0.4097543105986902	3.2199706132801134	0.6084894851701415	-0.5259592893281166	1.134448774498258	54.20654824952109
5	2.0	wm	139	diff_vonmises	0.07700341826911022	4.411970874900595	3.146288364411261	0.9915786439656102	0.25064548773092443	2.5703669638925732	0.14972942598170014	-0.3742451262787434	0.5239745522604435	69.14803028450152
6	3.0	ltm	139	diff_vonmises	0.013459444095150121	0.7711693412443792	3.3956601587568254	0.9960351224520552	0.4981775992721766	1.8357104773313346	0.24726533642136483	-0.2574290365312485	0.5046943729526133	64.59912528767703
7	3.0	perception	139	diff_vonmises	-0.06265001348030927	-3.589581358859435	6.385874957376489	1.152435350428763	1.0541198433239907e-14	1.8810923010871548	0.8375812979563432	-0.2993819082274644	1.1369632061838075	53.89665557437533
8	3.0	wm	139	diff_vonmises	-0.02906709522676299	-1.66542187919838	1.3172659533458417	204.770415591922	1.3012477446712392	205.75307303665366	0.20444757761519838	-0.3007039030598584	0.5051514806750568	74.44199221978238
9	4.0	ltm	139	diff_vonmises	-0.23501098274995655	-13.465137450794304	0.9929071236394662	212.8242851621218	0.975680214674722	214.65998312007503	0.07561241868992852	-0.43914389503468243	0.514756313724611	82.19306076045723
10	4.0	perception	139	diff_vonmises	-0.009212902361492133	-0.5278604223796087	3.2568558199855926	1.5860572537582995	1.0522819045903014e-17	3.8241324846046756	0.4795088249802534	-0.6070155595892919	1.0865243845695454	76.08066419940204
11	4.0	wm	139	diff_vonmises	0.04433897004509983	2.5404358515412016	0.9334851877059829	168.97655110154335	0.9132035600227171	171.1510661251225	-0.055349410573185764	-0.47039681751443396	0.4150474069412482	81.48818982557518
12	5.0	ltm	139	diff_vonmises	-0.08147629707523317	-4.668247952764954	2.4324060169318393	1.0455217091815117	8.670983929575726e-18	2.0590078238417844	0.2785999187742176	-0.3230243220682136	0.6016242408424312	88.18962363103961
13	5.0	perception	139	diff_vonmises	-0.08468766185889948	-4.852245601345976	1.3019218564526087	5.171767725336544	0.47641575587758556	6.588264578900036	0.4608061672516599	-0.48955626560284415	0.9503624328545041	94.30418146962678
14	5.0	wm	139	diff_vonmises	-0.02126009083197564	-1.2181134767369792	0.42705164691430686	208.39320811105796	0.41570929518745736	209.454503294067	0.19032373244681366	-0.39172290842005	0.5820466408668636	130.2908123937333
15	6.0	ltm	139	diff_vonmises	0.03732002104171258	2.138279697029557	2.2182896429671626	0.7077171055359517	1.6440212756123067e-15	1.3757702313220594	0.16960190476211995	-0.2143614080910362	0.38396331285315616	92.28890861586572
16	6.0	perception	139	diff_vonmises	-0.20930627558338352	-11.99236621652999	1.3860200598567782	1.6060739007875808	1.2601275827805683e-12	2.756696718764605	0.22453743996788644	-0.3972642005054173	0.6218016404733038	113.95532974988461
17	6.0	wm	139	diff_vonmises	0.5411661498614623	31.00653640240601	0.1982164146830297	138.77555466082913	0.18656179985026117	139.29765413163074	0.18027936706648617	-0.2989141797173467	0.47919354678383286	152.0599686487511
18	7.0	ltm	139	diff_vonmises	-0.15532929749744717	-8.899713181335702	0.8014628770150529	152.98881037092687	0.7845647538666354	154.63870097939017	-0.0024112985936497466	-0.36539572949128996	0.3629844308976402	89.84963056641583
19	7.0	perception	139	diff_vonmises	-0.06261392809554417	-3.5875138186102893	1.5824067577742997	2.9206743673442266	0.24675929440380917	4.50923922008775	0.40209181562967333	-0.5061372306236299	0.9082290462533033	94.85748704648452
20	7.0	wm	139	diff_vonmises	-0.06077450822118139	-3.4821228230568178	1.0383451062550295	206.75658398349506	1.0240012674812833	208.09643902081243	0.09546385078401443	-0.3354471744502483	0.4309110252342627	81.26973269411232
0	1.0	ltm	140	diff_vonmises	0.1389888886294646	7.963476717682158	0.0003227451502521323	1901.2206106776284	1.3137650546202638e-25	1902.7788067443148	-0.15032772534908645	-0.34564572781505376	0.1953180024659673	179.28200582343496
1	1.0	perception	140	diff_vonmises	0.0377187047072649	2.16112258842651	9.442022609064404	0.7194362631873117	2.8043474991767964e-19	2.4125185965150306	0.485644443917919	-0.38396425446482174	0.8696086983827407	44.18521341216689
2	1.0	wm	140	diff_vonmises	-0.18074556323902	-10.355957939310768	0.00022221130405671228	3770.1697815452	3.6418978261073644e-30	3771.710489112327	-0.11187046427573932	-0.37853717282735033	0.266666708551611	179.05520201736056
3	2.0	ltm	140	diff_vonmises	0.05616879970304907	3.2182351633003834	4.35561725668496	0.34589958438557933	0.08100396950875621	1.4252135776004993	0.03296388354185284	-0.22293791464751853	0.25590179818937137	62.625000657667385
4	2.0	perception	140	diff_vonmises	-0.0027836111639281736	-0.15948917149858308	10.026031203083582	1.0761106265119977	0.10191236734421633	2.0264510641415883	0.9853215002531401	-0.33179704195257337	1.3171185422057134	42.40980435362815
5	2.0	wm	140	diff_vonmises	0.091754079626815	5.257121515723791	1.302086986905837	1.0946025687547147	2.7644998064147643e-19	1.8942720061353615	0.1339930707040346	-0.26927228413726445	0.40326535484129905	116.95184858095388
6	3.0	ltm	140	diff_vonmises	0.15949222792021728	9.138231524967042	7.105699122437831	0.35272479064522755	0.22059241741306423	0.7240844038329288	0.2260560715615338	-0.11936491827337418	0.345420989834908	49.328391437034696
7	3.0	perception	140	diff_vonmises	0.026352412782764446	1.5098820324390039	4.305266647342926	1.6592472707067543	0.41201133726554084	1.7678488002463384	0.9201998720617524	-0.25358251475729926	1.1737823868190516	62.04156669981012
8	3.0	wm	140	diff_vonmises	-0.10536035594430126	-6.036703723604558	1.5121819913476855	72.2740666031125	1.4891618424552178	72.29389868718847	0.2824573324777795	-0.09816857312973948	0.38062590560751897	76.60511924630887
9	4.0	ltm	140	diff_vonmises	0.18687714979427392	10.707271970645976	3.926416513678452	1.0777970519355529	0.8707143473208806	2.13781930079329	0.14227970690629443	-0.3253618314397718	0.46764153834606625	55.561650964605064
10	4.0	perception	140	diff_vonmises	-0.05748672469698026	-3.2937467031674452	4.203429441220137	1.4682965468927756	7.421473227253e-19	3.030887266797817	0.6773588425431509	-0.48212165691256975	1.1594804994557206	66.74119805470806
11	4.0	wm	140	diff_vonmises	-0.09025438307475979	-5.171195232740706	1.3362902664384415	287.8164109318269	1.3243545561969705	288.80623837634005	0.2233229968943249	-0.30950541094128425	0.5328284078356091	74.06370605829616
12	5.0	ltm	140	diff_vonmises	-0.17987260108167666	-10.30594089202036	1.125148979700776	1.14408687828761	1.6857923572321954e-22	1.939882194129017	0.10911410333601945	-0.2647118559909576	0.37382595932697704	123.34428826626059
13	5.0	perception	140	diff_vonmises	-0.02007925886029974	-1.1504567884458385	1.4006469116790867	3.7890050341729657	0.3825760812780492	4.334230644891811	0.5993964524623744	-0.3635805331676556	0.96297698563003	97.9640213142626
14	5.0	wm	140	diff_vonmises	0.1440274223325685	8.252163433804434	0.7731499996344467	90.94223591726042	0.7565099899827804	91.35386171099049	0.16737761007868812	-0.1630187137462844	0.3303963238249725	101.2019892724966
15	6.0	ltm	140	diff_vonmises	0.26971779854407996	15.453691516135562	1.04170324644133	103.1971107510515	1.0259009910661114	103.78476964210039	0.10382568728532249	-0.1677573706389346	0.2715830579242571	83.77849178313943
16	6.0	perception	140	diff_vonmises	-0.2483781670853844	-14.231020697187706	0.6956467204627632	157.46158323781168	0.6819558695672392	157.9973269647833	0.2600684792557999	-0.24282440649292525	0.5028928857487251	107.3628347892301
17	6.0	wm	140	diff_vonmises	-0.1915590190133866	-10.975523317133343	0.8001364923322559	154.55094989293178	0.7879581380179697	155.05859097832248	0.2064692008022746	-0.1982062446394508	0.4046754454417254	99.287074460082
18	7.0	ltm	140	diff_vonmises	0.07335994133213383	4.203215023658594	0.9762777657802447	19.942061538691636	0.8776504102758249	20.77420670174105	0.10898834126298418	-0.2240166766921019	0.3330050179550861	87.70859469664342
19	7.0	perception	140	diff_vonmises	-0.11498326002160296	-6.588055513893177	2.4569210341887815	1.9698479578506494	1.8105760919267733e-15	2.2378829855137075	0.7928980082641709	-0.3477300614347368	1.1406280696989077	87.74812238131838
20	7.0	wm	140	diff_vonmises	0.0009878005458047534	0.05659680227533153	0.776255904197947	20.24295593540552	0.7057625453331762	20.682384769679764	0.1468106825433928	-0.1617753328080609	0.3085860153514537	102.13121158169602
0	1.0	ltm	141	diff_vonmises	-0.13665499903651276	-7.829754694156513	4.211196115844984	0.2306713006211697	7.688056511673396e-22	3.442940389053507	-0.36557513542911946	-0.5479208757385038	0.18234574030938433	66.67652393408844
1	1.0	perception	141	diff_vonmises	0.022911852957661145	1.312752475298316	11.934790694597666	0.5315643321885427	0.017747852184515314	3.5162423016071505	0.15489551646140143	-0.5630660238218602	0.7179615402832616	39.04243239502054
2	1.0	wm	141	diff_vonmises	-0.04284218032117107	-2.454676117541532	4.9442054579689465	0.44786130127703627	0.09879796434040061	4.208985212595069	-0.3516605646178381	-0.6763298935600054	0.32466932894216727	56.308486493616186
3	2.0	ltm	141	diff_vonmises	-0.00987365397578181	-0.5657187011848633	13.227094999311475	0.40097111981343536	0.11544082405297608	2.1356355726643175	0.19563980877429132	-0.36017325350597795	0.5558130622802693	36.54190633228322
4	2.0	perception	141	diff_vonmises	0.011759905860308464	0.6737929732668385	7.823876922327968	1.186481904219908	0.21367602995433235	3.348486932236279	0.6488629655561188	-0.5625622366458415	1.2114252022019603	46.78241280111678
5	2.0	wm	141	diff_vonmises	0.011124171425090031	0.6373680732376892	2.258363499383474	1.0747524839824754	0.21546818156723124	3.2525582902828916	-0.038340634904851734	-0.4511007907239909	0.41276015581913916	78.08138599897458
6	3.0	ltm	141	diff_vonmises	-0.19846257529834624	-11.371067955892544	3.5404649972738387	0.5001173448098203	1.7927819073399204e-16	1.24996167873646	0.16057480291942083	-0.19863518838629482	0.3592099913057156	72.88610499673459
7	3.0	perception	141	diff_vonmises	-0.02407612045319995	-1.379460089016956	3.8503718388117503	2.4732038269350363	0.45546244848895057	3.6694811354910297	0.9871622078494935	-0.5235182390811499	1.5106804469306434	63.35350943933196
8	3.0	wm	141	diff_vonmises	-0.2444798163599094	-14.007661653556225	1.362531807493487	214.72112941777024	1.3464126730564954	216.0486940347808	0.0842425410990586	-0.3542976914761162	0.4385402325751748	70.17076526933897
9	4.0	ltm	141	diff_vonmises	-0.18464044646996572	-10.579118310140235	2.181326239385727	1.0902085833712813	0.26106936204652	2.930165445193316	-0.0027347944174417327	-0.3928995222356461	0.3901647278182044	78.1755436701236
10	4.0	perception	141	diff_vonmises	-0.08577742365673983	-4.914684353036817	2.005779294112845	5.110700404385203	0.6810465042592789	7.160860036512359	0.6293100839441581	-0.6629769951093845	1.2922870790535426	76.14872694283787
11	4.0	wm	141	diff_vonmises	-0.16144141920845315	-9.249911959246624	0.6980108563882841	76.63631428760216	0.6648168712178701	79.08166144537294	-0.19504459884088376	-0.47080848176013923	0.27576388291925547	89.54559372560018
12	5.0	ltm	141	diff_vonmises	-0.03387932379305335	-1.9411422660991084	2.4136141206211055	1.0872947953064618	0.05187067457890366	2.1453410882408974	0.26829197680520145	-0.31927774334338827	0.5875697201485897	85.84500424399712
13	5.0	perception	141	diff_vonmises	-0.05261035163225083	-3.0143511072271743	1.960913949298381	2.139609577997848	0.10505747936152937	3.3291643408551086	0.5037662737141926	-0.45444728109133997	0.9582135548055326	92.90061664062992
14	5.0	wm	141	diff_vonmises	-0.24347629988465178	-13.95016439485212	0.43274771702195636	181.48073297269352	0.41903763207083944	183.06291248869508	0.09233553049721621	-0.4573960299683151	0.5497315604655313	126.99298191854419
15	6.0	ltm	141	diff_vonmises	0.5206645310856994	29.83188017336863	0.3168480799417824	127.19658325762666	0.3055724210150193	128.12210213747298	0.062056933048218355	-0.29436571625387487	0.3564226493020932	138.61084711187445
16	6.0	perception	141	diff_vonmises	-0.06331963354364263	-3.6279477623657197	0.8753063904204503	283.7896945076222	0.8641984346114462	284.79652909607506	0.28306252635965734	-0.3310391478115413	0.6141016741711987	93.42409925426347
17	6.0	wm	141	diff_vonmises	0.21952558979616965	12.577889790440691	0.0001596853585647977	8039.954112408417	7.186105362173999e-30	8041.118021026374	0.019093936513854715	-0.38956124349033416	0.4086551800041889	178.39122796133987
18	7.0	ltm	141	diff_vonmises	0.06942002447760066	3.9774744162613853	1.1655829927359505	222.69785989599788	1.1533407874961823	223.98065056664498	0.031278822907310655	-0.3110829346900488	0.34236175759735943	74.78906597092643
19	7.0	perception	141	diff_vonmises	-0.15195664733506412	-8.706474561257043	0.6290576764316578	129.05431806807965	0.601545085468665	129.83938600490887	0.4642511291370468	-0.4229576879143053	0.8872088170513521	114.20433129232512
20	7.0	wm	141	diff_vonmises	-0.43152166078537024	-24.724369931477675	1.0533140936521375	136.96922572540444	1.036162691525984	138.12823604910392	0.038566189470422785	-0.2770276380192449	0.3155938274896677	79.34461463830932
0	1.0	ltm	142	diff_vonmises	-0.010923591529135432	-0.6258756917443175	7.710907026283604	0.385723565791882	0.052526002232896794	4.0677438867607565	-0.26199753563834915	-0.6565994558613361	0.3946019202229869	47.33496471400551
1	1.0	perception	142	diff_vonmises	0.06552748999120668	3.7544486185818866	14.553958383664712	0.706696365548746	0.02399269514142424	3.9327014493583046	0.42486129066657274	-0.6326908033701082	1.057552094036681	35.3488052804685
2	1.0	wm	142	diff_vonmises	0.16330941285843137	9.356940111547615	5.558926859387695	0.4826656937232369	3.011532733893658e-29	4.679563235069635	-0.30207169667031575	-0.7447690470558971	0.44269735038558133	57.84417927896351
3	2.0	ltm	142	diff_vonmises	0.1209109864096802	6.9276892180383305	4.499180485171568	0.7961615350098651	0.33865938989964517	2.2195895696674097	0.17069380002900408	-0.3520919390193432	0.5227857390483472	58.021898746060884
4	2.0	perception	142	diff_vonmises	0.02073888695383731	1.188250694253802	5.7378183398210805	1.4586053273351487	0.31258480733798216	3.187629292656117	0.6836516890957115	-0.519849029984342	1.2035007190800535	53.486702187813506
5	2.0	wm	142	diff_vonmises	0.09909721855730173	5.67785238481889	3.702406741636141	0.7702895739378051	0.04063210659831286	2.6056667394294966	0.13588813821453782	-0.4049018075060439	0.5407899457205817	69.34895080188963
6	3.0	ltm	142	diff_vonmises	0.09843399329213587	5.639852376258441	4.791283306277068	0.625539343460646	0.29941301068889475	1.4277755434801713	0.23036423514765064	-0.2249233351720744	0.45528757031972505	57.875051790174524
7	3.0	perception	142	diff_vonmises	-0.021911726533910245	-1.255449452237877	4.9219405270820245	1.3476105840845019	0.0517162314975005	2.0637775993176106	0.8130751757163872	-0.3217190716840269	1.1347942474004142	60.81137469193419
8	3.0	wm	142	diff_vonmises	0.0028450937605290563	0.16301186479731905	2.4232134663041585	1.5047940165557085	0.5019629607354604	2.582071746823362	0.2326714092476505	-0.30912087993544796	0.5417922891830984	73.2533005363835
9	4.0	ltm	142	diff_vonmises	-0.10697700166832909	-6.1293307005592235	0.9486601108383136	190.449718118626	0.928222369516914	192.4975242553357	0.0678653025627014	-0.4819241150518536	0.549789417614555	83.93494839862353
10	4.0	perception	142	diff_vonmises	-0.03783942886256402	-2.168039573010432	1.5605328365821611	4.709416404043292	0.42268187787512884	6.930532993655669	0.4789054694407122	-0.656236794214991	1.1351422636557031	88.73858872839651
11	4.0	wm	142	diff_vonmises	-0.08912580938313469	-5.106532723341089	1.0203471121852383	268.67866176895456	1.0032874737020365	271.02315035779395	0.06358450997906573	-0.552750734066791	0.6163352440458567	80.42914451011796
12	5.0	ltm	142	diff_vonmises	-0.1016714666588516	-5.825345936457262	2.090712408875806	1.0009334220577553	4.557781082261884e-13	2.026348152000528	0.20786120717133233	-0.3144009340404272	0.5222621412117595	94.97150784891814
13	5.0	perception	142	diff_vonmises	-0.024436173397076443	-1.4000896031023398	1.2236560782489425	6.819336182500792	0.5386795070350264	8.196064348657414	0.5334533176196032	-0.5108384963019621	1.0442918139215653	94.88633507635765
14	5.0	wm	142	diff_vonmises	0.07853917886777848	4.49996347554677	0.4866609132491789	192.7432639962146	0.47437245619094176	193.9177473960523	0.15709598067100217	-0.38172186039228606	0.5388178410632882	122.85650241874416
15	6.0	ltm	142	diff_vonmises	0.28579517975832064	16.374857605334466	0.8679175936832725	118.70442626755188	0.8528984867155701	119.42297668604355	0.11463704443247735	-0.20228389219105125	0.3169209366235286	91.86238223466725
16	6.0	perception	142	diff_vonmises	-0.2067469039617475	-11.845725024404691	0.3878212138054108	193.40760644488122	0.3741740477429124	194.55337539534972	0.22610750664839685	-0.4498157671190661	0.675923273767463	134.75259795257762
17	6.0	wm	142	diff_vonmises	0.3287565325561081	18.83636180282024	0.3765921954595858	157.10347599279945	0.3649962534361539	157.8973580380996	0.1559099226458045	-0.3135258406814465	0.469435763327251	135.23796567691207
18	7.0	ltm	142	diff_vonmises	0.003711855476629462	0.21267365297338875	1.7331713907791026	0.7482667830633027	4.017704713045012e-15	2.34436496015392	-0.01924681351036206	-0.36206526518929	0.34281845167892794	103.68807496258745
19	7.0	perception	142	diff_vonmises	-0.01456967623010282	-0.8347809568569676	0.8830895362404609	215.8287389334723	0.8627843799592257	217.00356687845442	0.4648108845076848	-0.43971405442163203	0.9045249389293168	94.49900924866822
20	7.0	wm	142	diff_vonmises	-0.02382155778350853	-1.3648747224220548	0.8776561855582858	171.4460861221685	0.8598870486838569	172.9061492100226	0.12092134719738112	-0.36820486237296635	0.48912620957034747	89.32854456756539
0	1.0	ltm	143	diff_vonmises	0.058351118966859454	3.343272846666815	5.985333079495386	0.33969526265317523	0.05338249394269283	3.5307392904337513	-0.26837357781789334	-0.5656938467858218	0.29732026896792846	53.198830037592785
1	1.0	perception	143	diff_vonmises	0.046705828521045045	2.676046852917629	13.076282623274437	0.5750637380594597	0.0851952468484012	3.4511347359801423	0.22418060178713684	-0.57267189985493	0.7968525016420669	36.852434900156055
2	1.0	wm	143	diff_vonmises	0.004445891329191051	0.2547308093364549	2.4353664554703016	1.254130388750095	0.29517112332859957	4.934164452687469	-0.30451360443839226	-0.7116056723684139	0.4070920679300216	69.51655159643406
3	2.0	ltm	143	diff_vonmises	0.058457971775481864	3.3493950616299983	7.391603331663432	0.5208163361640606	0.20452384826829165	1.9502135694449179	0.17771677088571225	-0.327263028991361	0.5049797998770733	47.63314445264143
4	2.0	perception	143	diff_vonmises	0.023528719437327643	1.348096321106299	6.047953881968536	1.3805697076812835	0.35697073991140993	3.3011192854080753	0.596386348342329	-0.5520276432663597	1.1484139916086886	51.62439961229637
5	2.0	wm	143	diff_vonmises	0.0491862623031918	2.81816523999631	2.0199454219576904	1.7940034414254435	0.45047174502231685	3.660251651788642	0.061678561736631776	-0.43056014333684745	0.4922387050734792	76.21399660012585
6	3.0	ltm	143	diff_vonmises	-0.019239237972675752	-1.1023271368821508	2.5160111677544523	1.3764628413334308	0.7043113641434194	2.2098042545216114	0.18364443498380933	-0.25063216515799824	0.4342766001418076	68.88096204894137
7	3.0	perception	143	diff_vonmises	-0.05157365981030841	-2.954953041174146	5.296478639618966	1.533364235641389	0.14765330236576885	2.5243397630193334	0.9078372530723264	-0.3938607829478494	1.3016980360201758	57.620551754398065
8	3.0	wm	143	diff_vonmises	-0.08261380513247574	-4.733422363607079	1.2646458504082032	296.30470955690384	1.2531028103633077	297.60806208652104	0.11912278148953703	-0.34916375953232404	0.46828654102186107	73.69773293482496
9	4.0	ltm	143	diff_vonmises	-0.22333867288571613	-12.796363358404408	0.9618640980711467	169.52719514330187	0.9424304515117968	171.4203386081722	-0.0006909702868540535	-0.42602809483718573	0.4253371245503317	81.68963273282878
10	4.0	perception	143	diff_vonmises	-0.03975272086406936	-2.277663129672826	2.755292549052469	2.219095063822154	0.2399953464670704	4.381270749911095	0.5102632575321318	-0.6048442862067663	1.115107543738898	74.90518880892316
11	4.0	wm	143	diff_vonmises	0.08110322290259069	4.646872377227204	0.803531042464485	139.95573432437456	0.7831230568173072	142.3686966912871	-0.17946263688236286	-0.4756385993709742	0.29617596248861133	83.50352268159205
12	5.0	ltm	143	diff_vonmises	-0.07146956156448687	-4.094904241295503	2.489793440219962	0.9881662869910981	2.8123240818701868e-14	2.117951432966623	0.24390409504654464	-0.33308702447475264	0.5769911195212973	87.16923424132221
13	5.0	perception	143	diff_vonmises	-0.08924490952202624	-5.113356658638996	1.3461601147268931	4.31944898581895	0.4054101904231931	5.771715361544432	0.43002152790383863	-0.4882243506649003	0.9182458785687388	95.28193682436546
14	5.0	wm	143	diff_vonmises	-0.0779770780947668	-4.46775747359216	0.362467162441845	197.16856119603105	0.35084206047346644	198.6381765951513	0.09408008913779042	-0.4505997717526782	0.5446798608904686	135.93616654370157
15	6.0	ltm	143	diff_vonmises	0.21809662403914304	12.49601608349435	0.584544067273508	156.28679873364317	0.5730882054417495	157.26752096463045	0.08266374057133419	-0.2696413955592938	0.35230513613062797	110.70990119414753
16	6.0	perception	143	diff_vonmises	-0.12830838187887625	-7.351528757812461	0.7423299321501671	241.74863239422436	0.7285594672396121	243.07469607316813	0.2507139991393075	-0.4024121006589425	0.65312609979825	100.33356679246828
17	6.0	wm	143	diff_vonmises	0.4236659286756519	24.274269636605414	0.0004215468898659099	3608.541329628054	1.4709999460303846e-30	3609.6883979238773	0.05956277160976242	-0.4246349240446534	0.48419769565441584	174.49184848560526
18	7.0	ltm	143	diff_vonmises	-0.0633186991961803	-3.6278942281995294	0.9793596073149596	231.697048706904	0.9668729814215613	233.41619368425842	-0.028178423701660904	-0.3800308955055449	0.351852471803884	79.86369022423716
19	7.0	perception	143	diff_vonmises	-0.0680849929399059	-3.900982743634615	1.0768975836910806	5.189003328997136	0.34240990116416575	6.646934622034104	0.4012026457077271	-0.5161655438859669	0.917368189593694	105.76682763531821
20	7.0	wm	143	diff_vonmises	-0.22169503914584016	-12.702190082044211	1.0041300745886965	212.48931692733152	0.9907423475706741	214.05621787102646	0.005576284932260478	-0.3572839965152035	0.36286028144746396	79.93649024552451
0	1.0	ltm	144	diff_vonmises	-0.2763763089475745	-15.835196060099749	0.6825383074436331	125.35070400156287	0.6553990591910641	129.02591501202107	-0.36724026141443744	-0.6828210535758821	0.31558079216144463	86.86663979945315
1	1.0	perception	144	diff_vonmises	0.03394670226018297	1.9450027678956967	11.719487282070816	0.7607352438270854	3.4627821235864925e-18	4.098617428996143	0.3750983835874345	-0.652315223599359	1.0274136071867934	39.611843610377036
2	1.0	wm	144	diff_vonmises	-0.2387528969945443	-13.679533344309066	0.00026921067938117434	4212.46289462819	7.070104354268446e-34	4216.560992587171	-0.47173515384008624	-0.8327056479153043	0.3609704940752181	178.36052889656546
3	2.0	ltm	144	diff_vonmises	0.006901267723001045	0.3954135138178196	2.8793841383844607	1.2609301599419456	0.371487807527303	3.2251859357940336	0.08744061673669368	-0.45470984139296433	0.542150458129658	68.31108039758388
4	2.0	perception	144	diff_vonmises	9.177589772962106e-05	0.005258371600931561	5.261567445205066	1.4212132656313965	0.1768564989011351	3.4420208976613655	0.6175580713477741	-0.5443018752778399	1.161859946625614	56.841638439943296
5	2.0	wm	144	diff_vonmises	0.08041250577406645	4.6072972009253705	2.675019710396355	0.8226906135062214	3.656326813736368e-22	2.8416045923605036	0.05213008124628116	-0.44986031212768063	0.5019903933739618	84.08724769795367
6	3.0	ltm	144	diff_vonmises	0.07243107447049947	4.149994872757383	3.301906016746833	0.6788882716948159	2.882816745463393e-25	1.7497781628744018	0.19093072746791262	-0.2778496798916506	0.4687804073595632	75.53950693700423
7	3.0	perception	144	diff_vonmises	0.007124966626295839	0.4082305168583164	3.39367275464064	2.4688042600825786	0.3842268740238706	3.5993930757977837	0.9223118643137158	-0.4942456608174326	1.4165575251311484	67.79003031913808
8	3.0	wm	144	diff_vonmises	-0.13563911531192466	-7.771548844261583	1.1877214595115546	117.10274928284656	1.1564522478436783	118.31332658149834	0.22991240147138114	-0.3551909158344273	0.5851033173058084	78.64175861941544
9	4.0	ltm	144	diff_vonmises	-0.038765648502673444	-2.2211080492908275	3.2704828511606983	0.9787039048935999	3.1276340485427782e-18	3.0975315781611488	0.18010316007552946	-0.4920160815468045	0.6721192416223339	75.91212832419907
10	4.0	perception	144	diff_vonmises	-0.076395274290752	-4.377126791604374	1.0255048707890009	274.59645319718993	0.9982782041289676	276.99094119751777	0.5953182957663898	-0.7436049507052402	1.33892324647163	85.92446766202085
11	4.0	wm	144	diff_vonmises	-0.2419695269137806	-13.863832662936812	2.6820179517988305	1.7319543004388291	0.22042117586809393	4.181234466987983	0.24393717640976065	-0.5875459665010435	0.8314831429108042	74.96692468221545
12	5.0	ltm	144	diff_vonmises	0.003272324518521001	0.18749038410843255	1.779180332702795	1.3414046292908293	6.103958307675394e-17	2.0913926904471696	0.3117215292507065	-0.31449404679792203	0.6262155760486285	102.4608966173644
13	5.0	perception	144	diff_vonmises	0.030138261911331145	1.7267952093791563	2.312249907260179	2.058835204795484	3.1426323164563665e-15	2.9948552821352363	0.68200712533029	-0.46528070569164254	1.1472878310219325	90.43156759123639
14	5.0	wm	144	diff_vonmises	-0.0054597011010670635	-0.31281783049407125	0.4891690990088044	234.3310372863143	0.4784447518439999	235.3377463203941	0.22412603959184452	-0.38129305660526924	0.6054190961971138	124.02119840532993
15	6.0	ltm	144	diff_vonmises	0.4295314370259603	24.610338509776827	0.8990971607100446	128.2916063616333	0.8868957315134446	128.65653423758758	0.1813550167344431	-0.1504847745310851	0.3318397912655282	94.19873873775933
16	6.0	perception	144	diff_vonmises	-0.0669293031750728	-3.834766597683212	0.58239273969627	147.13454801049483	0.5683181450763193	147.76300210309952	0.22781836583045845	-0.27054888953538025	0.4983672553658387	116.33054969358247
17	6.0	wm	144	diff_vonmises	0.02018862128447443	1.1567227937883677	0.571251723479311	116.44566437257313	0.56002263812026	116.82557319571079	0.1485594129661436	-0.17100164898765513	0.31956106195379874	117.50442882152973
18	7.0	ltm	144	diff_vonmises	0.205341437126062	11.765197706474305	0.6005113710909676	2.1707620493123	7.758499196410495e-20	3.1316043070850195	0.0782558128980696	-0.3248976061399558	0.4031534190380254	146.34253547587318
19	7.0	perception	144	diff_vonmises	-0.13134917643537122	-7.525753452265978	0.9901960048628871	204.64878258710002	0.971670168246429	204.97572367391933	0.6083177222563592	-0.3021417257281076	0.9104594479844668	93.08091673818535
20	7.0	wm	144	diff_vonmises	-0.04410993863297039	-2.5273133182502634	1.7910375746886227	1.5120337762221325	0.28291646354970584	2.3674534672228957	0.23933457171599654	-0.2709597309905358	0.5102943027065323	89.0926520959238
0	1.0	ltm	145	diff_vonmises	0.015359765504258646	0.8800497377046511	5.7334580867614715	0.6570726875086488	0.191813950474902	3.944857562293842	-0.14100217437553453	-0.6522771812025304	0.5112750068269959	52.06028559002851
1	1.0	perception	145	diff_vonmises	0.0073792683918272265	0.42280093474599034	16.83912776327464	0.6828694046215803	0.027754792016543815	3.6347398264077566	0.5142216979435751	-0.5868207897571519	1.101042487700727	32.86545305794647
2	1.0	wm	145	diff_vonmises	0.08402393010750243	4.814216573262099	4.4233683461459705	0.6132215286540248	0.09626424989147041	4.354958168129072	-0.26346473909936186	-0.6905127932985425	0.4270480541991807	60.131676879175245
3	2.0	ltm	145	diff_vonmises	0.016716734367428862	0.9577983264949698	1.2643400990382299	170.08164458304836	1.2409353466674518	171.52505053295667	0.17121053347861448	-0.39764481193597945	0.5688553454145939	74.54426552907805
4	2.0	perception	145	diff_vonmises	-0.0009862400527710243	-0.05650739261053928	4.139209940642873	1.6320664118290746	0.4044203098564395	3.282037094062863	0.5267678684800392	-0.49774210268425584	1.024509971164295	60.645212634198145
5	2.0	wm	145	diff_vonmises	0.1068296561536652	6.1208884244387995	4.894449347827044	0.6125487210332772	1.2232475670520495e-13	2.1031516596935886	0.19041781299245364	-0.3346975368793609	0.5251153498718145	61.72873949054957
6	3.0	ltm	145	diff_vonmises	-0.04215891923471374	-2.4155281409820035	3.1170777282955062	1.0467952708541617	0.19435961199007798	2.095041498975156	0.2994575848682053	-0.30138216942537327	0.6008397542935786	72.13355573742149
7	3.0	perception	145	diff_vonmises	-0.05719211213384688	-3.276866646708371	5.855209421589192	1.2791821553578966	8.959129326440052e-15	2.1667988370047273	0.8610539446823114	-0.3448468463007116	1.205900790983023	56.328681217948144
8	3.0	wm	145	diff_vonmises	-0.08245028344556976	-4.724053261088507	1.3141630774557587	139.8114372558049	1.2873175712237845	140.88286409589605	0.2587584469217603	-0.3384078991463966	0.5971663460681569	75.17512828907192
9	4.0	ltm	145	diff_vonmises	-0.19451449110037114	-11.144859394186279	1.8899006601582427	2.220976141490103	0.3321461203268306	3.9245169332129857	0.2599806122123681	-0.455227342990813	0.7152079552031811	84.18632782808182
10	4.0	perception	145	diff_vonmises	-0.00029484431516136516	-0.016893334872171335	2.552620862311945	2.0527408554097155	8.557271110054284e-18	4.432036726248588	0.5192970434928004	-0.697953037567229	1.2172500810600293	86.08909250927368
11	4.0	wm	145	diff_vonmises	-0.13532102953230632	-7.753323871566324	2.2630861850870176	1.5508905691732635	0.21998143945844592	3.7957776715667526	0.1179707010512383	-0.5141943358674371	0.6321650369186754	79.85217293172545
12	5.0	ltm	145	diff_vonmises	-0.014027854826710455	-0.8037368771927298	2.066959602490095	1.4093528005030598	9.501042660676043e-20	1.9535277445094759	0.43073728594834193	-0.29903208389309266	0.7297693698414346	95.5059610770534
13	5.0	perception	145	diff_vonmises	-0.03783047733711097	-2.167526688381768	2.271604613083796	1.9163792285227967	0.013191235228509055	2.9893876742816388	0.585105448708447	-0.4581664201047594	1.0432718688132065	90.65039596949748
14	5.0	wm	145	diff_vonmises	-0.023241209823382163	-1.3316232336577873	0.4238335233501289	233.75076988115444	0.412935497159571	234.44320573403817	0.3094874398680716	-0.37774019716171026	0.6872276370297818	132.5933067409681
15	6.0	ltm	145	diff_vonmises	0.09360463899961849	5.363150757523807	1.866636907322507	0.827650839784831	2.54211542575733e-16	0.9475165482051058	0.25866720066349796	-0.1410089924941265	0.3996761931576245	100.20208144900326
16	6.0	perception	145	diff_vonmises	-0.15726987602801473	-9.010900140950923	1.0681819207589403	1.6201048917393033	3.681189225014202e-15	2.312829066991825	0.20633808153373062	-0.30026677004787194	0.5066048515816026	125.62677033608595
17	6.0	wm	145	diff_vonmises	0.4797003156634139	27.484803518606956	0.3242785885005536	91.4493730694997	0.31257569513469	91.3495225279225	0.21365708638051473	-0.12844211953727047	0.3420992059177852	142.31035665328855
18	7.0	ltm	145	diff_vonmises	-0.0232888484922229	-1.3343527283239829	0.3326069299332158	144.74869540834493	0.3188544465926887	145.89410906277226	0.11418273811254309	-0.38782962381106856	0.5020123619236116	140.4489844166045
19	7.0	perception	145	diff_vonmises	-0.09962951017577226	-5.708350448027439	0.9160620029718192	207.7260327267274	0.8954467711272158	208.8803068256441	0.443836845137767	-0.42297387097377737	0.8668107161115444	92.6259977570923
20	7.0	wm	145	diff_vonmises	0.059163126241468564	3.389797436435838	1.0545389234593003	164.48277458115172	1.0369935819681777	165.33110624371673	0.24774120919788345	-0.2761589123684729	0.5239001215663563	85.02744778364146
0	1.0	ltm	146	diff_vonmises	-0.004065314183073788	-0.23292534508480217	5.925665875896529	0.550618258077921	0.10272239813878059	4.083564309911088	-0.19596521709665604	-0.6608504617287779	0.4648852446321219	52.69173399216936
1	1.0	perception	146	diff_vonmises	0.0066203622148567785	0.3793188137591753	15.95549662469885	0.59548028378193	3.6357154215854864e-15	3.6381410648169488	0.36191635711289705	-0.5790281341312139	0.940944491244111	33.915065771704036
2	1.0	wm	146	diff_vonmises	-0.0011433227345168627	-0.06550756730917252	4.280642373225739	0.4273876732319812	2.0217011636069323e-19	4.630527324550118	-0.39603258015804077	-0.7369060658991743	0.3408734857411335	66.1169812782559
3	2.0	ltm	146	diff_vonmises	0.0765203471051219	4.384292935999592	4.773662403301213	0.9010728058689166	0.39759468830993905	2.427924548174331	0.20916969704107202	-0.392839580678447	0.602009277719519	55.991417096309476
4	2.0	perception	146	diff_vonmises	0.0028499070603589553	0.1632876465631033	4.571852705075325	1.5037277364891921	0.3373969085573874	3.302749216692722	0.5268400078811004	-0.5156815228659875	1.0425215307470879	58.691648601359134
5	2.0	wm	146	diff_vonmises	0.08995102362207694	5.15381401642658	4.16849169589506	0.6334545397433606	0.020281202709903634	2.699201895832756	0.05974673372296191	-0.4247380346592663	0.4844847683822282	65.9668144636901
6	3.0	ltm	146	diff_vonmises	-0.0321567586443469	-1.842446553141904	1.3715571041625785	5.255249361267003	0.8885043395644983	6.1858284081916945	0.17393665264997327	-0.26919081975044007	0.44312747240041334	80.4268508953194
7	3.0	perception	146	diff_vonmises	-0.05326329125811717	-3.0517617920661664	3.957809835803293	2.0326457099858186	0.2514519394781166	3.2386660144705552	0.901327716843996	-0.4778230400688352	1.3791507569128312	64.79828798920485
8	3.0	wm	146	diff_vonmises	-0.1396995481333323	-8.00419450792464	1.221911374153906	169.10175898526956	1.1975468606960589	170.8125219916313	0.11211988455050914	-0.44015853107445224	0.5522784156249614	74.53969575895098
9	4.0	ltm	146	diff_vonmises	-0.15025680711137054	-8.609080890592827	2.2823781297155383	1.2720215004808357	0.14058273417163633	3.1656554278761297	0.1332979993543889	-0.44484381021858066	0.5781418095729696	82.8536602093103
10	4.0	perception	146	diff_vonmises	-0.051670886799526035	-2.9605237373110795	1.035865832625575	233.38593780081598	1.0043860057171883	235.57617969983468	0.637072412232385	-0.7128095544497306	1.3498819666821156	86.11865003835015
11	4.0	wm	146	diff_vonmises	-0.2525541809802677	-14.470288668552508	3.198286678303961	0.8798216821859514	0.03424975467405126	3.704694557814177	-0.012506483820188818	-0.5746627616254891	0.5621562778053003	74.31401248325585
12	5.0	ltm	146	diff_vonmises	0.003451017781414466	0.19772875389964978	1.676516391687784	1.7522077464928445	0.21670620803748883	2.380843253347397	0.3469191110633387	-0.2751958829594611	0.6221149940227999	95.44251274021454
13	5.0	perception	146	diff_vonmises	-0.01064147582612434	-0.6097116526274158	2.337101288046663	1.864024428198908	8.537741476393508e-16	2.9429558716478006	0.5872857563908201	-0.4585323589896725	1.0458181153804926	89.96031918503391
14	5.0	wm	146	diff_vonmises	-0.029141568378428687	-1.669688876475862	0.3441753997287	234.07919662244177	0.3333348934112669	235.35104721659286	0.1839794771127714	-0.46753727937246126	0.6515167564852327	139.4436211219546
15	6.0	ltm	146	diff_vonmises	0.4020468096652903	23.035585360520646	0.6964616832474338	117.83627054478715	0.6838893003714981	118.20833454470696	0.17751445098551955	-0.16694823328509933	0.3444626842706189	107.19436579715713
16	6.0	perception	146	diff_vonmises	-0.04646370152108172	-2.662173997713566	0.6767245088676772	168.87612392218088	0.660380971647106	169.7393463776924	0.2860690281425562	-0.33095240511744883	0.617021433260005	107.60609821119047
17	6.0	wm	146	diff_vonmises	0.2926710224260139	16.768814370789265	0.12200109796422196	143.86696127584304	0.11272168612095147	144.4093140718378	0.12784718002275142	-0.2761955773212037	0.4040427573439551	164.20449831313135
18	7.0	ltm	146	diff_vonmises	-0.03476782555969392	-1.9920496674175308	0.48329515757499136	109.6309803281194	0.4665188253438049	110.79242957815272	0.06302558372895462	-0.3218615940776228	0.38488717780657744	121.1985072533589
19	7.0	perception	146	diff_vonmises	-0.06615818075312176	-3.790584537417511	0.8102822907436051	216.967106288144	0.7939962639964196	217.83121717456442	0.4133850188037229	-0.36282852952672684	0.7762135483304498	99.34694921327609
20	7.0	wm	146	diff_vonmises	-0.06937795627461196	-3.9750640857784334	0.9436958923836003	140.9642279489806	0.9236012394174388	142.2977593812966	0.1021491850658407	-0.33334324743908894	0.43549243250492964	85.80360570076826
0	1.0	ltm	147	diff_vonmises	-0.08871549423494149	-5.083023397079334	6.701120177441073	0.2515977728369318	0.009492852548357958	2.825128798438197	-0.19931428499572185	-0.44943882108431155	0.2501245360885897	52.03708812580888
1	1.0	perception	147	diff_vonmises	0.002278123491922877	0.13052686129678634	13.087106529826622	0.5666207899588739	1.7038335801284795e-15	3.056940755476173	0.3231065665191042	-0.4865272319696297	0.8096337984887338	37.46697642470181
2	1.0	wm	147	diff_vonmises	-0.02567908418114802	-1.471303145340937	6.582264701568434	0.2709536898730872	4.152782852545808e-33	3.473169631967959	-0.2811995199097979	-0.5527715941733417	0.27157207426354374	53.07068667471347
3	2.0	ltm	147	diff_vonmises	0.08349544060386138	4.783936355186503	13.195510248648675	0.4318232801635517	0.3303418675795103	1.5300189900792975	0.28981853698334725	-0.2877695972791537	0.5775881342625009	35.94282620565653
4	2.0	perception	147	diff_vonmises	-0.0021244288490200893	-0.12172080692468629	8.273920165685556	1.1113293419528698	0.21961240412451083	2.5280550314946884	0.7596363057948465	-0.4256890763498047	1.1853253821446512	45.80388639494868
5	2.0	wm	147	diff_vonmises	0.023200408493996443	1.3292854896854625	0.7805513903777413	97.23319666678725	0.7534927215851012	99.03998966689673	-0.03020599446005079	-0.3899645593652661	0.3597585649052153	90.43077551289443
6	3.0	ltm	147	diff_vonmises	0.06444101970710639	3.6921984567365604	1.7680280802676323	82.46973489562248	1.7443059929345468	82.80227513794873	0.16537669871804894	-0.1434675051725236	0.30884420389057254	66.018489116181
7	3.0	perception	147	diff_vonmises	-0.02713934615266167	-1.5549699932921222	3.1609053553659643	2.8937037733362696	0.6603041686675035	3.579075834024378	0.9607274799403251	-0.4336888288216684	1.3944163087619936	67.19556047628365
8	3.0	wm	147	diff_vonmises	-0.19062120239836627	-10.921790383135434	1.3767195745059837	174.81816580036102	1.3599367715074226	175.88033405091502	0.09311587440238611	-0.2917289064347308	0.38484478083711693	70.42634795904951
9	4.0	ltm	147	diff_vonmises	-0.03526918800989095	-2.0207756198201587	1.173559156332248	154.26523741698537	1.1551071171457932	155.52268341126518	0.06223075348635376	-0.3142714486610281	0.37650220214738184	75.53766668330667
10	4.0	perception	147	diff_vonmises	-0.10069128800311646	-5.769185836314832	1.6814468542338528	8.649069220200232	0.8840939778205544	10.080054677371272	0.7930541214811635	-0.587023154586866	1.3800772760680295	78.90354767747363
11	4.0	wm	147	diff_vonmises	-0.2227115809731537	-12.760433638447793	0.9963577469905909	263.588354324168	0.983017923373662	265.6417709516144	-0.02932492234307915	-0.456714914289293	0.42738999194621385	79.28856970164324
12	5.0	ltm	147	diff_vonmises	-0.047683615076025254	-2.7320698957826313	2.555297269303661	0.8127499569809261	0.03642997824225264	1.553147685722641	0.22889844912541363	-0.23537846677365062	0.4642769158990643	84.28296184857774
13	5.0	perception	147	diff_vonmises	-0.018342255316647137	-1.0509338163952764	1.9926175537651254	2.1552978407234167	0.1023361241727396	3.046698434913018	0.5736588713468779	-0.4160444357488289	0.9897033070957068	92.78977274686042
14	5.0	wm	147	diff_vonmises	-0.08021720205711164	-4.596107122220642	0.3200898855508017	103.16614315166053	0.3040404395003887	104.5399509230971	0.00763187706256474	-0.3749520650195528	0.38258394208211755	140.1116215083723
15	6.0	ltm	147	diff_vonmises	0.6158749850308607	35.28703734995107	0.505300419918201	117.66156525705428	0.49436702135836824	118.40712642196908	0.05725625364351572	-0.21325731685598726	0.270513570499503	118.06849956106805
16	6.0	perception	147	diff_vonmises	-0.06579506223820152	-3.7697793790495226	0.8272261190760893	307.0887635022696	0.8166556638213647	308.0011493546777	0.339814680469388	-0.3388184983209541	0.6786331787903421	97.23605619025841
17	6.0	wm	147	diff_vonmises	0.026232841769533888	1.5030311180287899	0.0002961211360671882	4687.957107899352	3.3570143258791726e-29	4689.237126060208	0.017226222426415916	-0.42463595003107457	0.4418621724574905	179.9305408292871
18	7.0	ltm	147	diff_vonmises	0.12324257261588994	7.061279267225068	1.223414919489127	70.09630507740039	1.1920997409827485	70.9888027386003	0.06792961191904112	-0.23225490815072192	0.30018452006976304	74.91294378462115
19	7.0	perception	147	diff_vonmises	-0.09099662872726397	-5.213722775991129	0.6783237121787062	180.34147816712783	0.660544885546845	180.98142554070841	0.43285257744117445	-0.35595696420472045	0.7888095416458949	109.99276128785549
20	7.0	wm	147	diff_vonmises	-0.4045128438076992	-23.176878709015842	0.7408737957505865	126.94874060551795	0.7281167091558526	128.1220321171644	-0.031108046916642706	-0.24896709843886633	0.21785905152222362	91.77278173168796
0	1.0	ltm	148	diff_vonmises	0.10640262911154148	6.096421577187155	0.3578655820283356	42.27994387448539	0.3335110472171132	43.698901023706256	-0.12014008560710465	-0.28915405930704186	0.1690139736999372	127.94301719486583
1	1.0	perception	148	diff_vonmises	-0.017828773617577037	-1.021513482181353	12.357168478022116	0.5344382605897877	4.556349910339263e-22	1.9829171442617997	0.4260239814727101	-0.31559106523722535	0.7416150467099354	38.56763714425787
2	1.0	wm	148	diff_vonmises	-0.025978774009288247	-1.488474107656373	9.495604138975944	0.26183567511963995	0.026488524540320402	1.8450075697813633	0.015845124712767222	-0.2956799911669107	0.3115251158796779	43.59977134159837
3	2.0	ltm	148	diff_vonmises	0.046741539261755095	2.6780929276436005	18.032590209143958	0.2548776988286918	0.26593895633118597	1.0834043936674327	0.20756168343501916	-0.20243534402678004	0.4099970274617992	31.11582685984243
4	2.0	perception	148	diff_vonmises	-0.004505428495616336	-0.2581420376967918	9.511729816095448	1.0373669829307475	0.23678592815190994	1.9464999402631205	0.8714695955972737	-0.33332952569389407	1.2047991212911677	42.977190639619835
5	2.0	wm	148	diff_vonmises	0.01616219854985198	0.9260257645589779	0.8419257821253973	67.33568410095705	0.8138177683696115	68.28988901660387	0.06906954560861323	-0.23747502705443146	0.3065445726630447	91.25889542210112
6	3.0	ltm	148	diff_vonmises	0.10669184842998625	6.11299262348769	1.9825571957035273	42.36698872814524	1.9446364383272072	42.557534138891384	0.1560509013182525	-0.10597873568444793	0.26202963700270043	63.386580699030816
7	3.0	perception	148	diff_vonmises	-0.0413454692907744	-2.3689208923491263	5.175363501020085	1.452536992686441	0.24065453043784146	1.684520765458834	0.9465769103789341	-0.25853046251941764	1.2051073728983517	58.02168720195294
8	3.0	wm	148	diff_vonmises	-0.1562450154902153	-8.952179957545509	1.726345114666654	113.00978331123349	1.7074187747714926	113.32788079215346	0.20759950804859528	-0.15147824661596765	0.35907775466456293	67.5759692368969
9	4.0	ltm	148	diff_vonmises	0.05159032328337794	2.9559077878530595	1.5474181466826928	93.16498824514638	1.520585529927755	94.11882759368704	0.017609103798370995	-0.2581640430118419	0.2757731468102129	64.4518483326506
10	4.0	perception	148	diff_vonmises	-0.06366293467755436	-3.6476174684409175	3.9807975558075825	1.5823346447179518	1.0103373846105317e-15	3.023619596321378	0.7320814504322233	-0.4808009869084224	1.2128824373406457	68.63254033235023
11	4.0	wm	148	diff_vonmises	-0.04316516076696766	-2.4731815339509304	1.2738361300816219	216.1582868759151	1.2600061139611969	217.52132930131484	0.014591002912368367	-0.33551829855615267	0.35010930146852104	70.89301626966099
12	5.0	ltm	148	diff_vonmises	-0.02403090891381035	-1.3768696586246425	2.489536325362732	0.7412649955642786	2.0707375794968147e-15	1.2106315545416577	0.24309594197100515	-0.1896793566942896	0.43277529866529474	87.17812798868445
13	5.0	perception	148	diff_vonmises	-0.05596005744158232	-3.2062751127123224	2.0296652443283616	1.7380826726624643	0.004565427456747187	2.240125025126835	0.5464933984483513	-0.3392859588031868	0.8857793572515381	96.16002807238215
14	5.0	wm	148	diff_vonmises	-0.0463188981188312	-2.653877373905476	0.5302956899473849	79.63220666750135	0.5114231242451188	80.15489312596688	0.1516718740911145	-0.21317661834963442	0.3648484924407489	120.96588042217498
15	6.0	ltm	148	diff_vonmises	0.32504057449462564	18.62345308904968	0.713793276527728	101.13308689143233	0.7017247566442706	101.5373681972699	0.11752772952876711	-0.14334390730366842	0.2608716368324355	104.01635643286818
16	6.0	perception	148	diff_vonmises	-0.19459256560366017	-11.14933273371232	0.9243940920894902	203.76454006699785	0.9122085597113457	204.2389867902719	0.3182352844209788	-0.2265567917702107	0.5447920761911895	93.81702730326795
17	6.0	wm	148	diff_vonmises	-0.056531339949892484	-3.239007189348142	0.19259178295020696	128.09215069532587	0.1813246690385442	128.61679822723568	0.14967746041776664	-0.2755361284965119	0.4252135889142785	158.0780462306289
18	7.0	ltm	148	diff_vonmises	0.01906501989363734	1.0923451762383733	1.2653839893945813	143.11883218359202	1.2503245354816117	143.83982960148418	0.11452074919882449	-0.20758844479505	0.3221091939938745	75.20563937453082
19	7.0	perception	148	diff_vonmises	-0.1350154666177735	-7.735816406187877	1.4715376985023043	3.078637248591699	0.2921444701842421	3.552422994623946	0.5768114798960088	-0.3451759725553921	0.9219874524514009	99.30675686613802
20	7.0	wm	148	diff_vonmises	-0.31467480912005147	-18.029538481663735	0.8494868585841683	85.09313661128043	0.8353604508693173	85.81171247598988	0.006374371009261637	-0.16200461273549038	0.16837898374475202	87.62277028318478
0	1.0	ltm	149	diff_vonmises	-0.11155294066428639	-6.391512692336908	3.528412361512905	0.3765589625020288	3.0616120749848427e-24	3.9282248291053383	-0.3550190224873196	-0.6249636004592487	0.2699445779719291	73.01629800983511
1	1.0	perception	149	diff_vonmises	0.08065343565252063	4.621101466119395	10.967932885164355	0.631929660556943	0.06413101064855044	4.002466450199021	0.14627284828369003	-0.6536918373526057	0.7999646856362957	40.264585175190916
2	1.0	wm	149	diff_vonmises	-0.013976041111439194	-0.8007681699867941	3.6735999849644845	0.4841546813137131	1.4166684656631914e-28	4.589639891698744	-0.37522125836229264	-0.7302349493393474	0.35501369097705476	71.51912731418852
3	2.0	ltm	149	diff_vonmises	0.08610776399746478	4.93361146036327	10.769748784733913	0.44993628182624623	0.09955209666786581	2.0628990783867374	0.22012372376721656	-0.3416018605366323	0.5617255843038489	40.527978156413326
4	2.0	perception	149	diff_vonmises	0.030296070356024492	1.7358369672316087	6.305109805697179	1.3401086574498235	0.2727658098782303	3.43185657751812	0.6091417492243293	-0.5683928028691732	1.1775345520935026	51.28050360317354
5	2.0	wm	149	diff_vonmises	0.10054864744937574	5.7610131345980795	2.2073163990916265	1.1680406422987348	0.16380682402058402	3.3077278709699516	0.023389472447327697	-0.4615859648454531	0.4849754372927808	81.86479032822879
6	3.0	ltm	149	diff_vonmises	0.02660589825179607	1.52440567998241	2.8539201980447877	1.055444804661987	0.590253684045801	1.967538788130561	0.15287838297715206	-0.25509077280500386	0.4079691557821559	66.74418690987255
7	3.0	perception	149	diff_vonmises	0.0018267412913401462	0.10466456625606829	3.060349860017636	3.140954820994393	0.5812064240260447	4.372908401366951	0.9349212043951896	-0.5466690027948172	1.4815902071900067	68.10132535456088
8	3.0	wm	149	diff_vonmises	-0.08133181374169622	-4.659969667543305	1.0192922668114677	227.33893501401263	1.00490130259293	228.90279148236817	0.08238570935880318	-0.3812539044061012	0.46363961376490437	81.42927031990345
9	4.0	ltm	149	diff_vonmises	-0.05027564349751819	-2.880582184712133	0.9290338891365759	173.70903559745696	0.908815015868525	175.75856168053656	0.0033974661524851513	-0.4602839228651199	0.46368138901760503	83.3312395258273
10	4.0	perception	149	diff_vonmises	-0.06656259309978149	-3.813755658064095	1.176448365271949	407.62626237196173	1.1589333227006846	409.73603773408064	0.541135628400184	-0.6642214523128445	1.2053570807130285	79.80097642288007
11	4.0	wm	149	diff_vonmises	-0.06183457851940866	-3.542860377132415	0.8041687765955554	241.24051360888515	0.7895304061952443	243.78914784007458	-0.09442559853380317	-0.5326290727237897	0.4382034741899865	87.08550341716878
12	5.0	ltm	149	diff_vonmises	-0.08912780689848573	-5.1066471725402165	1.9906365376232718	1.0294362014935619	2.6794469822906654e-16	2.3685766691772447	0.1525940447188876	-0.36708795067727534	0.5196819953961629	97.22621959460575
13	5.0	perception	149	diff_vonmises	-0.032598663546922924	-1.86776583900565	1.5380791352088323	3.5003462079958734	0.300465536171273	5.099542929711431	0.4676510913095131	-0.5313090418608318	0.9989601331703449	94.2252144644641
14	5.0	wm	149	diff_vonmises	0.07273191714411492	4.167231888252981	0.2917633495385256	166.67609686372276	0.2796949597541788	168.5316757938566	-0.024687794605739555	-0.4880450058323049	0.46335721122656537	143.0303320299904
15	6.0	ltm	149	diff_vonmises	0.5283587539922919	30.27272667254926	0.4512735383079531	171.15012537855546	0.44065838812013275	172.5611027299379	0.0038520491225852993	-0.3523591421425607	0.356211191265146	121.31745821187286
16	6.0	perception	149	diff_vonmises	-0.03596402571641445	-2.060586887850505	0.7150384150286191	377.7958149818925	0.7052092733055975	379.40731865672456	0.2479155718370265	-0.4682301262089297	0.7161456980459562	101.39741743885773
17	6.0	wm	149	diff_vonmises	0.1772225595924201	10.154104699151395	0.12706649115829433	66.51961048498464	0.10234456887901104	68.36043154621699	-0.04788036517786942	-0.5096979946184561	0.4618176294405867	165.18164231512623
18	7.0	ltm	149	diff_vonmises	0.07436528136393411	4.260816764456298	2.22726368185743	0.97099714493435	0.25768310746001405	2.7602862269648614	-0.02472669524522353	-0.3750830266195069	0.35035633137428335	77.16790885560422
19	7.0	perception	149	diff_vonmises	-0.023183433300119533	-1.3283128827198993	0.7114466163264085	107.80604485719905	0.6709269275459531	109.05017684745503	0.4850754406626372	-0.5050773230440395	0.9901527637066767	106.40112280712783
20	7.0	wm	149	diff_vonmises	-0.22375452821327768	-12.820190113561717	0.9256064916383225	234.61885574674542	0.9116882192482803	236.3739750097237	0.05101024650538477	-0.40989427951910784	0.4609045260244926	84.70021650937171
0	1.0	ltm	150	diff_vonmises	0.04454001998785119	2.551955164732201	4.551316680780941	0.3009676194501999	3.85073362353544e-23	2.4285739008974896	-0.13838659182617644	-0.3864918982022667	0.24810530637609027	64.07912336856577
1	1.0	perception	150	diff_vonmises	0.03375359487325745	1.9339385296320648	11.117196995646394	0.5786344439457574	0.146411487919827	2.9208782788527645	0.22534755410671692	-0.4962557447032243	0.7216032988099412	39.524475216756485
2	1.0	wm	150	diff_vonmises	-0.01446807751163261	-0.8289597790846868	3.2189326604056943	0.890179901684309	0.31911452488145503	3.2588183972360723	-0.08903057249852075	-0.4934210413298461	0.40439046883132534	64.09193470159144
3	2.0	ltm	150	diff_vonmises	0.050861213083381554	2.9141328505933273	5.313279121772689	0.5242888626074081	0.2024612183224098	1.629201185998495	0.1553018149406744	-0.26138636204877796	0.4166881769894524	55.66815783625012
4	2.0	perception	150	diff_vonmises	0.01949809441973777	1.117158518798556	5.82848349093881	1.3238139539085882	0.42259087994092465	2.8768700470723356	0.5765669897504767	-0.4810456304897525	1.0576126202402292	52.140260333882054
5	2.0	wm	150	diff_vonmises	0.1022899241541937	5.8607809407485965	1.9584162661985107	1.5188948772050421	0.43210078397881063	2.704957465088939	0.1403894836830153	-0.3040288619928138	0.4444183456758291	79.68092780434435
6	3.0	ltm	150	diff_vonmises	-0.03239209650005208	-1.8559304190334696	1.8542571223861921	6.991142220179487	1.4117528737652594	7.732535219913648	0.21602557077079476	-0.26259987271543495	0.4786254434862297	67.20057054922944
7	3.0	perception	150	diff_vonmises	-0.033590785589278006	-1.9246102447944957	4.765594001525537	1.8134555642675336	0.33679202831779376	2.6433652230469487	0.9598666095704056	-0.4037960369838812	1.3636626465542867	58.99718964585472
8	3.0	wm	150	diff_vonmises	-0.08695868057906248	-4.982365389206517	1.1859508261125469	222.56913259627737	1.1738425742781669	223.46314810611486	0.16464662095916083	-0.2609473048414408	0.4255939258006016	78.26376799084971
9	4.0	ltm	150	diff_vonmises	-0.1619484094418456	-9.278960359874365	1.2558685800198877	230.48192885921605	1.2419496562489316	231.8240118849576	0.0689146724723031	-0.3433397279526922	0.4122544004249953	72.86612609986165
10	4.0	perception	150	diff_vonmises	-0.03257485364708514	-1.866401632234316	4.683567104600436	1.2916004498595512	0.03282192497498283	3.1059436827434665	0.5708236135525089	-0.4870713660459619	1.057894979598471	62.3321293129238
11	4.0	wm	150	diff_vonmises	0.18746133846200666	10.740743515746432	0.9383986027847923	156.02979027696392	0.9211792127008442	157.68407743799952	-0.02966725000759851	-0.36201834576907643	0.3323510957614779	81.67904031204077
12	5.0	ltm	150	diff_vonmises	-0.08699504402504474	-4.984448861189853	1.8963513727229393	1.0953291903221678	3.7895636234583174e-18	2.2270497129364015	0.19269486327515695	-0.3421163610344024	0.5348112243095593	99.472781361438
13	5.0	perception	150	diff_vonmises	-0.11278089041151279	-6.461869030307137	1.233597617686049	4.863805156145546	0.44022056794167236	6.286316281569717	0.392915741793916	-0.4719600491056318	0.8648757908995477	96.82164535299698
14	5.0	wm	150	diff_vonmises	0.06384881417937052	3.6582675793929775	0.2626242001705625	96.75179814154339	0.24541452101853883	97.9282820688122	0.05806688485862921	-0.3720791012757907	0.4301459861344199	148.64923318539894
15	6.0	ltm	150	diff_vonmises	-0.028788889605533302	-1.6494818712651036	0.584502157412863	92.28090510303878	0.5646861373882743	93.355258065696	0.06704744826328835	-0.2833585636461251	0.35040601190941345	110.25849238413367
16	6.0	perception	150	diff_vonmises	-0.1618586476234865	-9.27381738652097	0.8929715918883665	211.7994684971168	0.8752219973918272	213.29520824663174	0.24084628736726188	-0.4206298732577096	0.6614761606249715	90.59757516010376
17	6.0	wm	150	diff_vonmises	0.2823228622075448	16.17590846454581	0.21036423013236608	96.39766964763662	0.19388904871044754	97.57259516020576	0.050565742074422104	-0.37756573873371124	0.42813148080813335	153.82026515993877
18	7.0	ltm	150	diff_vonmises	-0.16884979431518937	-9.674380585912392	0.9800512626662166	157.43618942126355	0.9611511770811516	158.95481434905898	0.05647112803588783	-0.3606970674658818	0.41716819550176965	82.63338142715935
19	7.0	perception	150	diff_vonmises	-0.06086587276366936	-3.487357625738522	1.9203628043744185	2.2715669051062437	3.9903777300044557e-10	4.054847539486714	0.49796253631954146	-0.6207895585961227	1.1187520949156642	98.89865460240087
20	7.0	wm	150	diff_vonmises	-0.11034387103286095	-6.322238105318792	1.1701499696749114	209.1746633624643	1.1555849489827554	210.44938412659448	0.09296524047510957	-0.3272494556085199	0.4202146960836295	76.33195827868235
0	1.0	ltm	151	diff_vonmises	-0.5455230743649873	-31.256169788115123	0.4611775300514305	66.36431832156008	0.43272337122897986	70.03707361016167	-0.5105544262256796	-0.6215237463578944	0.11096932013221483	90.05249383708507
1	1.0	perception	151	diff_vonmises	0.06145203960468978	3.520942511819508	10.776615174538977	0.8662225856924506	2.307734987130421e-13	4.4492569353148665	0.41213991557372454	-0.7081212338522203	1.1202611494259447	41.33761029877405
2	1.0	wm	151	diff_vonmises	0.16816350996553034	9.635059389131047	55.50621357920169	0.27427540983637116	3.823348650643907e-36	4.412677866155177	0.11014134329318348	-0.7022994946707934	0.8124408379639769	18.15282821132493
3	2.0	ltm	151	diff_vonmises	-0.05968905366772254	-3.4199308582903685	2.985964609424606	0.8391022920974949	0.19709546623483953	2.7479369093513646	0.020574405844065335	-0.405472424019943	0.4260468298640083	70.66537762612842
4	2.0	perception	151	diff_vonmises	-0.007147795430349696	-0.40953851098193356	9.180789053729601	1.254768954764683	0.08834013383946825	3.2702812245211765	0.9271805184423484	-0.5321608980362241	1.4593414164785725	44.21514995302118
5	2.0	wm	151	diff_vonmises	0.04777978958384459	2.737580289177427	2.2809616249432625	0.9229111534942721	8.009018287922528e-24	2.870140130542287	0.058399070858897895	-0.45141707655949015	0.509816147418388	91.03853628400202
6	3.0	ltm	151	diff_vonmises	0.08014148689827828	4.591768963174328	5.655938142112714	0.4793334904438758	7.825068776640539e-29	1.0592159510861934	0.27508884953174284	-0.168574028194004	0.44366287772574686	57.33558272015895
7	3.0	perception	151	diff_vonmises	0.0314730641530464	1.8032737443140414	3.9002744962221874	2.0230583538935374	0.4760951339048112	2.547077447779751	0.9169807517233388	-0.3563114196593592	1.273292171382698	63.55822521325652
8	3.0	wm	151	diff_vonmises	-0.15475028448088315	-8.866538179203447	1.4787357498859812	107.7653309067401	1.455729350456639	108.16401270281722	0.2670597791081022	-0.18402073954541898	0.45108051865352117	73.58379039128673
9	4.0	ltm	151	diff_vonmises	-0.011236162888094167	-0.6437847114093217	2.0512267563147932	2.2198862913220103	0.5069511395387191	4.0259738281860304	0.16419615615194816	-0.45197204959608034	0.6161682057480284	75.97038608956194
10	4.0	perception	151	diff_vonmises	-0.12899999522767053	-7.391155283753283	2.950696550372183	2.4643022650980293	0.22721740419500677	4.406698823295455	0.7297016693969629	-0.6155137115418868	1.3452153809388498	73.63533034697792
11	4.0	wm	151	diff_vonmises	-0.2172550928216535	-12.447799896403694	1.1377853862385179	199.70705066217525	1.1153995992145262	201.34428801221958	0.23919272442041972	-0.4545810734978879	0.6937737979183076	79.46709278424841
12	5.0	ltm	151	diff_vonmises	-0.09035401446120539	-5.176903690691076	2.76429647931846	0.8757884477272744	1.5394592726753777e-15	2.0036188233688175	0.2283939909199192	-0.31671222055435233	0.5451062114742715	82.70107010644699
13	5.0	perception	151	diff_vonmises	-0.00118894407778671	-0.06812147773425233	0.9361303217819579	83.44016664339938	0.8746996432812825	84.37517962375154	0.6786866606845585	-0.4691513630703579	1.1478380237549164	94.72971469501857
14	5.0	wm	151	diff_vonmises	-0.13239345232478625	-7.585586053376729	0.5932532923967425	160.58398777990246	0.5792336301627574	161.52020626819615	0.18055881867902457	-0.31172441341961843	0.492283232098643	112.95774315629865
15	6.0	ltm	151	diff_vonmises	0.2429791937019068	13.921682308610972	0.962395951759019	103.1191983660426	0.9472541415581159	103.70892664752287	0.10080288711209562	-0.1671267488789301	0.2679296359910257	87.22470239929214
16	6.0	perception	151	diff_vonmises	-0.1637494546137938	-9.382152646939412	0.5039294638214372	166.32699594389945	0.49292514060998394	166.93072967666555	0.19383076110611341	-0.2619936000323566	0.45582436113847	123.45129585686033
17	6.0	wm	151	diff_vonmises	-0.299123854925159	-17.138534438895135	1.210239423185059	74.79781758957455	1.1843734050345807	75.2499502392398	0.18740994924878862	-0.16634845644243423	0.35375840569122285	80.37378662606098
18	7.0	ltm	151	diff_vonmises	0.10031434596084877	5.747588648171852	0.9090497200017614	96.93147113376561	0.8908584191500102	97.79591100167808	0.05836190259602603	-0.21313131424681586	0.2714932168428419	87.16616612283411
19	7.0	perception	151	diff_vonmises	-0.16617622303241253	-9.5211962351819	1.9672084490053234	1.7638878582141821	1.8277725239585613e-14	2.087933908406678	0.568543251987196	-0.3146846026766714	0.8832278546638674	97.74877212637945
20	7.0	wm	151	diff_vonmises	-0.11392245533922242	-6.527275882705056	2.5046903932534708	0.5434047282639344	2.5977810714087225e-17	0.9606277359674825	0.16769859847035654	-0.15074835654559723	0.31844695501595377	86.90861333159057
0	1.0	ltm	152	diff_vonmises	-0.027639408577968608	-1.5836214597552856	1.5430477888297924	0.6144219745232558	0.004173441841333164	2.8794926909324814	-0.18946631602131353	-0.44400680129452264	0.2545404852732091	108.42135314833476
1	1.0	perception	152	diff_vonmises	0.04251575845670852	2.4359735223670365	11.800564968248676	0.6061801025302495	0.034655568221120585	2.924282406428759	0.3396148056189038	-0.47134730362099	0.8109621092398938	39.18881995246974
2	1.0	wm	152	diff_vonmises	0.04050090081403319	2.320530683122062	6.45772041562415	0.38243407168621707	2.1828582100942248e-20	2.7127032464769956	-0.05219849573847363	-0.4317391970426664	0.37954070130419276	53.5869437218156
3	2.0	ltm	152	diff_vonmises	0.04631956034221147	2.6539153165102602	3.5446973453631667	0.6965809397125952	0.2279639038433965	2.0787887813361228	0.09086671519755235	-0.31351487218550556	0.4043815873830579	65.72224214661699
4	2.0	perception	152	diff_vonmises	0.024475060707105863	1.4023176818436422	5.766973118271604	1.3342220947411714	0.30243112711227216	2.8966889060738072	0.6378803164809693	-0.4717649236452773	1.1096452401262467	53.48312912961859
5	2.0	wm	152	diff_vonmises	0.11513534455304321	6.596769315673927	2.986762205714081	0.6842575359275548	2.4325448681619124e-12	1.8620198374866905	0.15064821028757336	-0.2952117693555381	0.44585997964311147	79.51409767948195
6	3.0	ltm	152	diff_vonmises	0.03860500947328926	2.2119041108820356	4.668232224276672	0.5661433290638257	0.16260714060925746	1.476728658955771	0.19850157979949212	-0.23032062573074788	0.42882220553024	60.06417415739344
7	3.0	perception	152	diff_vonmises	-0.009530836500191965	-0.546076706690236	4.848083436423438	1.613389798655877	0.19130731747097743	2.358073599272887	0.9256738792407966	-0.36174700178435	1.2874208810251466	59.862146212083644
8	3.0	wm	152	diff_vonmises	-0.05456403502476084	-3.1262889201227986	1.1732962904102702	180.75511080969	1.1581825603528317	181.47285735011823	0.24056640094433135	-0.2446431189727143	0.48520951991704564	80.78737234294113
9	4.0	ltm	152	diff_vonmises	-0.03737428027359247	-2.1413885220158964	2.5126898802289923	1.1626197075187956	0.401259831631091	2.742736408972191	0.06068209697070226	-0.3650550295615351	0.4257371265322374	71.33898917691033
10	4.0	perception	152	diff_vonmises	-0.0031822249956187927	-0.18232806170999372	3.8706900833143574	1.401310542226938	1.9613848371397247e-15	3.5682313277047113	0.49028945558942005	-0.5674418819806916	1.0577313375701116	69.62525044562042
11	4.0	wm	152	diff_vonmises	0.010218547464372256	0.5854796424626392	1.056122564536844	265.8631018183632	1.042510705531009	267.5753603019756	0.08252089742349256	-0.41741216069592824	0.4999330581194208	79.73697217008271
12	5.0	ltm	152	diff_vonmises	-0.04711809713466694	-2.699668104503873	1.4294190000320697	1.3636560146432053	3.31831408100067e-14	2.288186090114846	0.20952465376016627	-0.3312815027182678	0.5408061564784341	112.69892152588184
13	5.0	perception	152	diff_vonmises	-0.05004225006867664	-2.8672097262734253	1.9091068603137447	2.0989812934500067	0.08356060893655122	3.2035955553145574	0.49941762976484094	-0.44505105911178805	0.9444686888766289	95.14897355871142
14	5.0	wm	152	diff_vonmises	0.10131209771346684	5.804755612598648	0.503933247719812	158.47895344827208	0.4914876202823137	159.25574174286092	0.17807988683609466	-0.2941504281657945	0.47223031500188917	122.59140692021906
15	6.0	ltm	152	diff_vonmises	0.20884758544589324	11.96608520754752	0.7551939692106888	118.90503407233393	0.7397426271925776	119.6002009861006	0.14762890459814315	-0.2171396090770461	0.36476851367518925	99.93120461392263
16	6.0	perception	152	diff_vonmises	-0.1759133908121037	-10.079094853368975	0.6964529262082464	140.80908071011538	0.6777141511180098	141.75266339096288	0.23811553933742857	-0.3212033372901111	0.5593188766275397	105.06043937062664
17	6.0	wm	152	diff_vonmises	0.0984420087572003	5.640311628577468	0.5529260677621047	156.39672686456805	0.5418387084690561	157.00827458425536	0.17057123604870839	-0.24014668589737376	0.41071792194608214	118.15658659240599
18	7.0	ltm	152	diff_vonmises	0.018076846102563864	1.0357269885844207	0.6125464930307902	89.11690268110144	0.5870595849605857	90.49277204028334	0.06787795536521557	-0.3485915171904903	0.4164694725557059	107.17897698368479
19	7.0	perception	152	diff_vonmises	-0.07088067307275385	-4.061163416115376	0.9310287457000455	122.02604831051572	0.8885992943126159	123.04879132758235	0.6577446167409349	-0.47864138264075073	1.1363859993816856	94.13322352665648
20	7.0	wm	152	diff_vonmises	-0.0542822127245676	-3.1101416917490567	1.0588570283551118	191.24699295080438	1.0436678140917945	192.25089796564296	0.19552374964158048	-0.29296516852751253	0.488488918169093	83.36916202519942
0	1.0	ltm	153	diff_vonmises	-0.001267851064581389	-0.07264251505168197	0.08002005564039083	50.69608127315983	0.06388655266154386	54.36555304927451	-0.48722741801230285	-0.6726407434805877	0.18541332546828482	169.93972371135945
1	1.0	perception	153	diff_vonmises	0.08427625535153782	4.828673744809935	10.298743395578853	0.7715714319849177	3.081714440096997e-16	3.949126551385394	0.34669188354758873	-0.6285230104424088	0.9752148939899975	42.28578696358494
2	1.0	wm	153	diff_vonmises	0.17096999062018123	9.795858885927656	30.23091221561022	0.2763245471376818	3.914762855571112e-40	4.195251436090715	-0.06423942530416216	-0.66769500356721	0.6034555782630479	24.59496633742245
3	2.0	ltm	153	diff_vonmises	0.06597062368761528	3.7798383091461307	11.262317425783229	0.3508916156070812	0.02395201249367784	2.3824599666914437	0.07598877282424743	-0.3822962514163005	0.45828502424054796	40.10860743395534
4	2.0	perception	153	diff_vonmises	0.023830960756740887	1.3654134731031433	9.172667928085609	1.2439952914129324	0.08392453682018194	3.317345525680465	0.9080031938722436	-0.5391007274496638	1.4471039213219075	44.24760450345727
5	2.0	wm	153	diff_vonmises	0.0418236794296869	2.396320315029177	2.279004147204124	0.8610892776432264	1.470186554896168e-17	2.9574761587418203	0.009727911035092629	-0.46566014658687177	0.4753880576219644	91.07870724608733
6	3.0	ltm	153	diff_vonmises	0.1693808991278114	9.70481065015472	7.540854974427901	0.357594942550073	8.335590340127438e-29	1.1619225895412602	0.1998487033682646	-0.1849256151256243	0.3847743184938889	49.52325443023571
7	3.0	perception	153	diff_vonmises	0.025110470322461262	1.4387239710655377	4.440393091993237	1.5875607636639706	0.14620696283500578	2.274178630109647	0.8749008986896518	-0.3452066123675811	1.220107511057233	62.9089915093667
8	3.0	wm	153	diff_vonmises	-0.07177251409539027	-4.112262142709074	1.3346419816113302	134.6996866531049	1.3125070703954125	135.44544707349738	0.24162530201529364	-0.2557949261186039	0.4974202281338975	75.43307353029618
9	4.0	ltm	153	diff_vonmises	0.07477246798674947	4.284146839417804	3.5411539651775046	0.7734089991170457	0.1779761797753047	3.1578649300038277	-0.03971740506378685	-0.4847675343398618	0.44505012927607496	65.4609347219035
10	4.0	perception	153	diff_vonmises	-0.0897278642014498	-5.14102792346606	0.9924958067247394	275.09962984361937	0.9677623100504095	277.533479541868	0.47246698400030596	-0.7093799056680758	1.1818468896683818	86.47965529911869
11	4.0	wm	153	diff_vonmises	-0.17922792010825483	-10.269003393110903	1.1288107899630762	290.94947186771293	1.1118078699647376	293.2082133968685	0.10451927455969212	-0.5568941597753678	0.66141343433506	76.97125239929952
12	5.0	ltm	153	diff_vonmises	-0.07844852241495348	-4.494769243414271	2.1087489655602467	0.9032111367549118	1.4331900348648436e-14	1.9880852198535692	0.16461726023880846	-0.3093242608436758	0.4739415210824843	94.58857773847379
13	5.0	perception	153	diff_vonmises	0.009210090128916278	0.5276992933220029	1.8829536869605095	2.6290992392038453	0.17532545962223184	3.630013861121224	0.6243854220761413	-0.4542459756539171	1.0786313977300583	92.40520008018927
14	5.0	wm	153	diff_vonmises	-0.026284621026438647	-1.5059978509157563	0.6434953093693425	209.02227258091597	0.6319514557919615	210.04632467727703	0.18002041159937932	-0.3197280074646791	0.4997484190640584	107.76518840805363
15	6.0	ltm	153	diff_vonmises	0.4286407388843781	24.55930526544402	0.878651242775922	141.13681057768326	0.8669010817659368	141.82224606125533	0.09931802024089365	-0.1887993811658255	0.28811740140671915	90.8460336472697
16	6.0	perception	153	diff_vonmises	-0.18815585178185942	-10.780536197789615	0.48333055489157556	179.52337843227818	0.47180966899991555	180.171706861111	0.22860084782141143	-0.2987795699254434	0.5273804177468548	125.77350058553266
17	6.0	wm	153	diff_vonmises	-0.009009011635317702	-0.5161783442879563	0.5241890447327484	189.11722960224432	0.5147998494578282	189.88423502043955	0.1414535872334639	-0.2651948415249592	0.4066484287584231	119.65483053214574
18	7.0	ltm	153	diff_vonmises	0.30664843217300736	17.56966095781701	4.6718649763679485	0.3905249865718409	0.0328895693356096	1.6694607306689062	0.052011487653432886	-0.2628440494058304	0.3148555370592633	61.931248553024545
19	7.0	perception	153	diff_vonmises	-0.12140935061152068	-6.956243383464195	1.0567377427564264	14.165345548382668	0.7972955719805711	14.380691357776419	0.6328963297429384	-0.29685880678012644	0.9297551365230649	96.39730761883251
20	7.0	wm	153	diff_vonmises	-0.1875154479659566	-10.74384376195431	2.4494715264265983	0.67874995759339	3.29814401771908e-14	1.683926950617638	0.1272363973670565	-0.26505884117401624	0.39229523854107273	87.86406500235809
0	1.0	ltm	154	diff_vonmises	-0.00850144705457705	-0.4870970359811898	1.787692864433316	0.38735133553234397	1.2579215663746409e-15	1.8607011167864667	-0.10947708631768308	-0.2909116868115753	0.18143460049389223	102.2436145441057
1	1.0	perception	154	diff_vonmises	0.009910967416876132	0.567856603878678	13.409999199052514	0.5471202888654128	4.925991589534012e-18	2.1154524391529956	0.4545932777269573	-0.3366847125652243	0.7912779902921816	37.01618842597617
2	1.0	wm	154	diff_vonmises	0.02222422843665889	1.273354492355182	7.01653205928706	0.32737268406587444	0.03314306312839887	1.9531470035446044	0.018058158768896992	-0.31161737831164943	0.3296755370805464	50.529252100736954
3	2.0	ltm	154	diff_vonmises	0.12214458767506427	6.998369364146835	7.062341708809288	0.4049304519569306	0.36894494627927427	1.1595967224442048	0.16309110176801417	-0.2023067468505862	0.36539784861860036	47.697732353447265
4	2.0	perception	154	diff_vonmises	-0.0022614169094064976	-0.12956964462851076	8.594379701252713	1.103095935271306	0.31999816683373306	1.964813603209223	0.8504036469698137	-0.34097766303604704	1.1913813100058608	44.782937265038896
5	2.0	wm	154	diff_vonmises	0.08087891251035832	4.634020338451366	1.4223125073808718	1.9772265137984664	0.5053445321918449	2.8186156468753154	0.13106158757480102	-0.23149529614120043	0.3625568837160015	88.22568013007955
6	3.0	ltm	154	diff_vonmises	0.10125501919690014	5.801485254498508	2.1328298004996467	72.3151855901819	2.1020485402412974	72.58194444498484	0.19554705912167236	-0.14610415080632855	0.3416512099280009	60.578732122339346
7	3.0	perception	154	diff_vonmises	-0.03379123831569599	-1.9360953400101368	5.162476298843201	1.378293322385289	0.24927764834643862	1.5712469059083713	0.8997457217170597	-0.2407894042335274	1.1405351259505871	58.05098570493729
8	3.0	wm	154	diff_vonmises	-0.08352478416539179	-4.785617617418078	1.5621379176235644	122.76949151173612	1.545332211178705	123.06875382121902	0.22485071318576644	-0.147680154524501	0.37253086771026744	71.67947998255855
9	4.0	ltm	154	diff_vonmises	0.006219138845274782	0.35633040804010935	1.586762793875213	153.63270771628729	1.5684084676045174	154.58143813651395	0.06294857391017672	-0.2722992668528441	0.33524784076302083	64.82791269388997
10	4.0	perception	154	diff_vonmises	-0.048693073782925846	-2.789907619280769	4.063471829733724	1.479089897059174	5.965346970650093e-16	2.885281976473519	0.6877769340296127	-0.4588679710823482	1.146644905111961	67.91023408837557
11	4.0	wm	154	diff_vonmises	0.016628741940920674	0.9527567318269355	1.2925778955484666	213.60648758145823	1.2783587926376996	214.8334820865074	0.07062014816278861	-0.31913668351413094	0.38975683167691955	71.95578610030446
12	5.0	ltm	154	diff_vonmises	-0.09467633037127884	-5.4245541500605325	2.1563882516872703	0.7588316657740563	3.3912097279149525e-17	1.4255711611440613	0.1827173205666832	-0.22139886777154422	0.4041161883382274	93.56801214825563
13	5.0	perception	154	diff_vonmises	-0.06898281390208184	-3.9524240955256715	1.431533261471958	3.35947846311588	0.3581067814843918	4.084871494205115	0.5136794220730786	-0.36605599783440596	0.8797354199074845	97.08423451571154
14	5.0	wm	154	diff_vonmises	0.1032152830820481	5.913800101849404	1.3857381188779256	0.88166229550565	2.7739324911191554e-13	1.464149322398868	0.13103885948126665	-0.21024711162880924	0.34128597111007586	114.08461832911246
15	6.0	ltm	154	diff_vonmises	0.15717508519324833	9.005469026182286	0.8389441215388558	130.54760289825128	0.8279332298763384	131.1373683638352	0.09217084434943246	-0.16600150187655593	0.2581723462259884	93.32610367022664
16	6.0	perception	154	diff_vonmises	-0.2357545954793178	-13.507743321778907	0.8390186871106917	180.95026992655323	0.8234136424418999	181.68719719709213	0.31194753612581394	-0.2883589466973877	0.6003064828232016	97.14288350062074
17	6.0	wm	154	diff_vonmises	0.009871821067490969	0.5656136832755635	0.3554334926704223	123.41961605486726	0.34214251050507793	124.09992438441013	0.14925538555812423	-0.2841211475936518	0.43337653315177604	138.96417684308275
18	7.0	ltm	154	diff_vonmises	-0.04208262093460568	-2.4111565704017894	1.1007788402086696	144.28935610454712	1.08504342070855	145.22829609254347	0.08952943048001316	-0.24436362640648213	0.3338930568864953	79.52248592328868
19	7.0	perception	154	diff_vonmises	-0.0810629542204605	-4.644565151694591	2.2103423575409042	1.881627390806732	1.197110859443118e-17	2.748764378788068	0.5933512280411862	-0.42508161922074456	1.0184328472619308	92.45075768207178
20	7.0	wm	154	diff_vonmises	-0.08555462584641732	-4.901918978820581	0.8945189671110557	110.81808473336856	0.880268453066803	111.64275431807413	0.037907119577376136	-0.19699210860027705	0.23489922817765319	86.98669906108651
0	1.0	ltm	155	diff_vonmises	0.1919784941262958	10.999557470713814	0.2218186156368971	18.261747767209336	0.1668786756093303	19.739880891933154	-0.10252907028535585	-0.3405494389070238	0.23802036862166798	153.45662854999108
1	1.0	perception	155	diff_vonmises	-0.014578798741199921	-0.8353036382413929	12.020907938117302	0.5660624441971821	4.885550388748939e-28	2.0548327514115146	0.4474227686374407	-0.32703678958622	0.7744595582236606	39.10999585597992
2	1.0	wm	155	diff_vonmises	-0.5940419439034811	-34.03609623941667	0.0003111059305906155	2579.646961836427	5.022068431836179e-30	2581.248652198563	-0.12717827044582464	-0.38263573785604876	0.2554574674102241	170.1572907986893
3	2.0	ltm	155	diff_vonmises	0.09090008383104853	5.208191160904456	14.061366840198012	0.294010684958994	0.22253893622651535	1.2103108145004764	0.19806383830277252	-0.21671227606139834	0.41477611436417083	35.172900955672645
4	2.0	perception	155	diff_vonmises	-0.0024807700215350114	-0.14213765217653448	8.094517574464948	1.0525191537050578	0.18062972112757872	2.0003185467625464	0.7967007326014297	-0.33044756198015923	1.127148294581589	46.68339699546314
5	2.0	wm	155	diff_vonmises	0.07681683288554415	4.401280319903429	1.8437260845368857	0.7488095596123017	0.061034707226778215	1.7119408575680535	0.07834968853143565	-0.24688700679692785	0.3252366953283635	96.22009420168072
6	3.0	ltm	155	diff_vonmises	0.12228786174625482	7.0065783637397105	2.4482129599915816	0.9309828447796061	0.8839793336935059	1.2875482839351136	0.13037695435739693	-0.12658114519608343	0.25695809955348037	68.3141070595517
7	3.0	perception	155	diff_vonmises	-0.027159328907900553	-1.556114920830353	4.583644393074295	1.6438607931592815	0.2571274174460444	2.008171129274408	0.9538795681041701	-0.3009768416534291	1.2548564097575992	61.19692981028484
8	3.0	wm	155	diff_vonmises	-0.1508932467219737	-8.645546194195338	1.515903252530995	184.49332928724527	1.5029950792965618	184.93446327264317	0.22444774068077322	-0.18221650142616141	0.40666424210693464	71.69481649890022
9	4.0	ltm	155	diff_vonmises	0.1112951879763931	6.37674455116247	3.180887931636095	0.8748641415972754	0.6969585210496925	1.8990809791061458	0.0530190282212466	-0.2679061343948728	0.3209251626161194	60.78455313509275
10	4.0	perception	155	diff_vonmises	-0.047970041451846364	-2.7484809182584087	3.329789327482325	1.7959723519301225	0.04441969196325481	3.4066785913766786	0.6811305254238836	-0.5216882950121035	1.202818820435987	73.7237663971793
11	4.0	wm	155	diff_vonmises	-0.09412592065230233	-5.393017996160196	1.253475603454321	270.67662656808176	1.2401282599854373	272.1725064757555	0.0843243237501099	-0.38456960901704207	0.46889393276715197	73.08946175125374
12	5.0	ltm	155	diff_vonmises	0.0056309070181283435	0.32262720696934943	1.8379290766086127	0.9442782573557659	1.0631218784068126e-11	1.333009644426067	0.25063890718451776	-0.20043290185021423	0.451071809034732	100.94402507178049
13	5.0	perception	155	diff_vonmises	-0.02691070322810319	-1.541869718699393	2.042068044998428	1.7945125942320577	4.8724258954189184e-15	2.2671158478501012	0.5765896377351268	-0.34503678473371335	0.9216264224688402	96.06636646609914
14	5.0	wm	155	diff_vonmises	0.06722123900173982	3.8514932884398947	0.556600264166346	90.35568322527429	0.5387350139201424	90.85118166201222	0.17788161258741653	-0.21732113866128433	0.39520275124870086	118.9543280381351
15	6.0	ltm	155	diff_vonmises	0.43731067205190366	25.056055844603723	0.7576787140598221	114.84843742763623	0.746317438316244	115.17806174072614	0.15239233140280106	-0.1397567777186186	0.29214910912141967	102.53156956274378
16	6.0	perception	155	diff_vonmises	-0.1568407251300256	-8.986311605721896	0.8664540416092967	192.80979640043626	0.854173520378559	193.2474552971839	0.31426271585097254	-0.22245487178096646	0.536717587631939	97.16438521494398
17	6.0	wm	155	diff_vonmises	-0.10593297608629795	-6.06951244100515	0.3298088418283562	146.82756420429078	0.3194968360295536	147.29630304111438	0.17263215545283117	-0.24969826487216196	0.4223304203249931	142.3497318630349
18	7.0	ltm	155	diff_vonmises	0.05311028969098105	3.0429954480103794	0.9336458518331522	63.39284011873958	0.9040174964311672	64.09425594766624	0.13047066711620303	-0.2031139574075107	0.33358462452371374	89.29632387115836
19	7.0	perception	155	diff_vonmises	-0.11742429750376722	-6.727916659254429	0.9509496100403285	196.9699030511118	0.9307244374903503	197.2964880739712	0.6496666444802912	-0.32399643897797326	0.9736630834582645	95.12981001001988
20	7.0	wm	155	diff_vonmises	-0.10779677455195716	-6.176300226950381	0.8113062078611193	97.52187612056673	0.7956438572677826	98.30196204908391	0.055461910730052466	-0.1942061005965865	0.24966801132663896	92.6573842568807
0	1.0	ltm	156	diff_vonmises	0.015802525925126744	0.9054180411558291	5.8265760463835266	0.3539376353627234	0.0053540946452587945	2.749924849731732	-0.10718685932635497	-0.43690025024499235	0.3297133909186374	56.14725154170608
1	1.0	perception	156	diff_vonmises	0.0016830145219864723	0.09642962896905256	15.823190630302916	0.5364860078994058	2.858958669060703e-20	2.7695109095809194	0.40363874812633477	-0.4407813512067193	0.8444200993330541	34.04594356456715
2	1.0	wm	156	diff_vonmises	-0.008161457276266333	-0.46761705660639724	5.33830845789345	0.38296260927903647	0.011169994837963812	3.167359111697918	-0.16596568840457127	-0.5025570670480356	0.33659137864346433	58.33101957554254
3	2.0	ltm	156	diff_vonmises	0.10616282031096089	6.082681545023792	6.229917712120938	0.6184524436329261	0.3789128888566694	1.7386469777271196	0.21232010431665893	-0.29710187854360487	0.5094219828602637	50.27375518636788
4	2.0	perception	156	diff_vonmises	0.004883137008409964	0.2797831413660297	5.715920679891236	1.283472628825201	0.3319918443389779	2.6448809351507916	0.6238480558316818	-0.4310612396781694	1.0549092955098511	53.555887967879244
5	2.0	wm	156	diff_vonmises	0.07420731110147205	4.251765735128648	2.604606833679885	0.881495448996626	0.19322552919161773	2.333543224590112	0.0857444389724828	-0.3308224221706537	0.4165668611431365	76.1128391820236
6	3.0	ltm	156	diff_vonmises	0.019251726006545115	1.1030426485172817	1.442115258199583	59.77409574197693	1.4019624718055665	60.39330839194148	0.16904767696438583	-0.20638678645198905	0.3754344634163749	72.0628157667955
7	3.0	perception	156	diff_vonmises	-0.05055886593458612	-2.896809635019535	4.61829657336189	1.6671811206638298	0.20162012945852803	2.4172288137362963	0.9196207781520462	-0.3674645535033166	1.2870853316553628	61.14861849555169
8	3.0	wm	156	diff_vonmises	-0.11426659965586498	-6.546993899592088	1.312105248922194	230.47639269779032	1.2979788720976273	231.55927872519092	0.16124220062418715	-0.3117001215100821	0.47294232213426923	73.567482466565
9	4.0	ltm	156	diff_vonmises	-0.11868939144054744	-6.800401202519526	1.3125174583072554	5.479335369556312	0.8262200564213795	6.8593359315190785	0.07314977667734635	-0.3372605812567695	0.41041035793411584	79.52592049498267
10	4.0	perception	156	diff_vonmises	-0.040175506619810675	-2.301886969115052	2.483180510375064	2.553244394274894	0.22800434388279153	4.40066406132784	0.6303484620740302	-0.586261158037022	1.2166096201110521	79.34609396650066
11	4.0	wm	156	diff_vonmises	-0.0960825531107948	-5.505124778090122	1.0036610790603109	257.72655697497265	0.9894135946092354	259.821975546349	-0.017030287303185787	-0.4704763151530216	0.4534460278498358	79.35998177716255
12	5.0	ltm	156	diff_vonmises	-0.015382634280015106	-0.8813600220381274	2.0346056151647796	1.0766062478450673	0.014220210986600507	1.6528403418151054	0.29437597516336816	-0.2497390780328851	0.5441150531962533	95.5685367512151
13	5.0	perception	156	diff_vonmises	-0.03690330172915263	-2.1144034391782784	2.1945705640011317	1.7786805789466162	3.4437021966889346e-16	2.689041836597456	0.5423293818338131	-0.41593138308712824	0.9582607649209414	92.77700422029434
14	5.0	wm	156	diff_vonmises	0.032804837575841024	1.8795787407078652	0.3612505858576123	117.31689531801271	0.3444633210507894	118.25215204250831	0.1533901792970127	-0.35306782144157367	0.5064580007385864	137.9748978234282
15	6.0	ltm	156	diff_vonmises	0.35659684559279936	20.431494240145692	0.6702909775044962	120.73745647126715	0.65828325897595	121.17981672143227	0.15343173049598136	-0.1735326988948227	0.32696442939080406	108.13282597327765
16	6.0	perception	156	diff_vonmises	-0.11540824980446635	-6.61240563478743	0.7625091322516696	230.01051550269202	0.7501446038229159	230.817237362424	0.3056772033588544	-0.31088407642569393	0.6165612797845483	101.5243558221922
17	6.0	wm	156	diff_vonmises	0.17380720250445783	9.958419152481065	0.1697392753405718	127.61610887095382	0.15822971932464586	128.2258243240743	0.13825730206962916	-0.29551088409170845	0.4337681861613376	160.05379969580198
18	7.0	ltm	156	diff_vonmises	-0.05667245299011783	-3.2470923709873145	0.7174429286466992	89.09760587570872	0.6947678715561959	90.17532771530962	0.0795644395230255	-0.2746579681584951	0.3542224076815206	99.28962122090654
19	7.0	perception	156	diff_vonmises	-0.06503435986153795	-3.7261943434011293	0.8348662943046851	239.82722266514364	0.8181314420228158	240.75038449060008	0.48270261448688245	-0.40066330262658667	0.8833659171134691	98.15003237524742
20	7.0	wm	156	diff_vonmises	-0.054179863665890594	-3.1042775226497277	0.932446161473639	153.63449065668019	0.9172336649502005	154.8402883956562	0.05144970796054338	-0.2872544259475944	0.3387041339081378	84.98275523924224
0	1.0	ltm	157	diff_vonmises	-0.06487262399516508	-3.716927560862072	4.202803249806799	0.2973137705033851	1.306515767962256e-19	2.5627223918325672	-0.17305359588426833	-0.4078174237324765	0.23476382784820815	66.74618185073942
1	1.0	perception	157	diff_vonmises	-0.005212323166060537	-0.2986441188735357	13.755966712495807	0.5627591341667295	2.835777633645732e-17	2.9758735831760657	0.35107281004369884	-0.473624990778132	0.8246978008218309	36.54013918900711
2	1.0	wm	157	diff_vonmises	0.0009975311782958077	0.05715432644906181	7.6553062582255205	0.3323577898343797	0.03369681545738134	2.907672844531678	-0.11803223981710087	-0.4656790148331439	0.347646775016043	48.1447842107456
3	2.0	ltm	157	diff_vonmises	0.005474854505981108	0.3136860566408988	4.104585801648244	0.6888641622350056	0.2723178536873897	1.9744944206025903	0.13204239026608028	-0.3056914961109588	0.4377338863770391	61.223339758567874
4	2.0	perception	157	diff_vonmises	-0.00995368440913802	-0.5703041072487771	6.202829804955254	1.223094886754598	0.2705446732894574	2.7691666375155273	0.621185386259446	-0.45466709135487526	1.0758524776143212	51.95478496464014
5	2.0	wm	157	diff_vonmises	0.09927470800400215	5.688021781022936	3.1833211831468446	0.6275064395810493	7.406997345378849e-17	1.9413077180626617	0.11606437811684217	-0.30823847859730835	0.4243028567141505	76.96792709646161
6	3.0	ltm	157	diff_vonmises	-0.07765379398062341	-4.449234658268119	3.188592022355967	0.8147218526405142	0.3418437295024473	1.4700322526515468	0.23243362935433676	-0.20456065824123493	0.4369942875955717	69.02459698452256
7	3.0	perception	157	diff_vonmises	-0.019723795503157265	-1.1300902383100233	4.014561697295023	2.2329501289551836	0.4644126488088666	3.045132694014328	0.9890564619529062	-0.43598163031259657	1.4250380922655028	62.5470616114402
8	3.0	wm	157	diff_vonmises	-0.19826321117940413	-11.359645233290816	1.3643321755348234	184.4937374850893	1.3485042999112204	185.2638255271157	0.2126121213396175	-0.25404870405012403	0.4666608253897415	73.9428062336084
9	4.0	ltm	157	diff_vonmises	-0.09385579205829997	-5.377540767798058	1.617925537722424	3.669677445781884	0.8216974708597756	4.926055146617874	0.14808006257988016	-0.33681641920191774	0.4848964817817979	76.35233115281875
10	4.0	perception	157	diff_vonmises	-0.06498611775786725	-3.723430274465966	3.7143945527004107	1.7884944539203214	0.10457754876347879	3.576836155002018	0.6899760107796401	-0.5406628689832917	1.2306388797629317	68.47805926378018
11	4.0	wm	157	diff_vonmises	-0.09777648264835873	-5.6021797913850815	0.9458573667411587	235.3236044574893	0.9322515864731965	236.98964960165847	0.06054906810217631	-0.39387119353419564	0.45442026163637195	84.04616247302121
12	5.0	ltm	157	diff_vonmises	-0.015636433275209416	-0.8959016333074223	1.985840263701418	1.185314041271341	1.936982087680277e-15	1.8952387497519612	0.3072263261428065	-0.2901645014295029	0.5973908275723094	97.34821181375906
13	5.0	perception	157	diff_vonmises	-0.04295609289237838	-2.4612028271051942	2.1105915400111	1.9003072155520013	0.022049940354819567	2.8366568368884932	0.5511278742563355	-0.4267003538029703	0.9778282280593058	93.58447542847938
14	5.0	wm	157	diff_vonmises	-0.049928739405558725	-2.8607060443470376	0.36887659774423254	169.66170239131597	0.35755114630083495	170.54545300387997	0.1547142380892481	-0.33790838486947905	0.49262262295872716	136.88393288041317
15	6.0	ltm	157	diff_vonmises	0.16905251522885767	9.68599563868462	0.6070383874065624	98.25454041412623	0.5918556181781032	98.75304793481283	0.15071336404381697	-0.19396663105192502	0.344679995095742	113.39333825819566
16	6.0	perception	157	diff_vonmises	-0.10473865233907571	-6.001082730917066	0.8255360426658174	197.97660465765924	0.8119352850092215	198.81708285418267	0.2570008925771248	-0.2889865691808744	0.5459874617579992	96.69935445190438
17	6.0	wm	157	diff_vonmises	0.07755054830005875	4.443319116518808	0.3767214347079552	88.31866567967843	0.3619994408206612	88.82308489658783	0.1252557037574178	-0.21749340397880523	0.342749107736223	136.76911732267882
18	7.0	ltm	157	diff_vonmises	-0.05215026349962998	-2.9879899990239442	0.780119863081009	147.26321429577033	0.7657971938320467	148.1802307571723	0.13031644930098452	-0.25624791597532237	0.3865643652763069	96.7277998165894
19	7.0	perception	157	diff_vonmises	-0.12601356508812891	-7.220045440946882	0.7997279969915698	164.17073836965076	0.7736987121248695	165.03319118613905	0.5585063289914061	-0.42912934251509505	0.9876356715065011	101.31886271059494
20	7.0	wm	157	diff_vonmises	-0.11467919840968628	-6.570634066818406	1.1190008663958457	135.81118620820595	1.102733977452955	136.5160264860369	0.15856694125056237	-0.21356039186507658	0.37212733311563895	81.47755388088603
0	1.0	ltm	158	diff_vonmises	0.3604994311179762	20.655095919927174	0.2538088857754823	12.431458581551407	0.19873337977488406	12.461505223686276	0.11395113063219009	-0.09932321124050891	0.213274341872699	152.1554093450123
1	1.0	perception	158	diff_vonmises	-0.05041838949417429	-2.8887609278629163	13.63005582386715	0.6071445117547216	4.78971073289226e-37	0.6015380553981545	0.7899856762535508	-0.09573775497321914	0.8857234312267699	36.70759705355428
2	1.0	wm	158	diff_vonmises	-0.019270226151892226	-1.1041026287660498	4.683287732872244	24.245411827586345	4.596378310118521	24.151744912028995	0.2807596964024235	-0.06604130111165585	0.34680099751407933	44.33125910081512
3	2.0	ltm	158	diff_vonmises	0.3176088520557614	18.19764675879009	3.839968571659579	16.3131985636892	3.7247845243335944	16.312986729616707	0.20387037264608487	-0.0785841881630005	0.2824545608090854	47.32471415479827
4	2.0	perception	158	diff_vonmises	-0.03840482650161508	-2.2004344714747184	8.702722553488444	1.0239377781903416	0.7447513270314262	0.6013482203807531	1.0104420061277708	-0.10711610315322653	1.1175581092809974	44.6388263805776
5	2.0	wm	158	diff_vonmises	0.018601098905036483	1.0657644615640074	0.8137945731787528	31.200262830364487	0.7878766800279933	31.02891027665466	0.2060572460889425	-0.05722857395661851	0.263285820045561	108.66753136983746
6	3.0	ltm	158	diff_vonmises	0.2390040504586792	13.693923377814086	4.422674795353691	28.368150929763708	4.3642809187874105	28.26924987781003	0.24438178267773125	-0.05019721567403046	0.2945789983517617	46.05857999447346
7	3.0	perception	158	diff_vonmises	-0.05039542393271861	-2.887445098117358	6.119440334782105	0.9753736517924114	1.172449998920387e-12	0.5791656501504023	0.8489754159174537	-0.09217252210203274	0.9411479380194865	55.0735970231421
8	3.0	wm	158	diff_vonmises	-0.076360426229416	-4.375130144765607	2.643557386471481	8.90490080014879	2.533119492491576	8.612086793991365	0.307408895121978	-0.02104840383317902	0.328457298955157	65.29531721877709
9	4.0	ltm	158	diff_vonmises	0.28288661606193116	16.20820918108638	4.067515640249971	75.14690391323246	4.015309006851442	75.38121900812104	0.2286568719486155	-0.20400322374908697	0.4326600956977025	43.09512353448201
10	4.0	perception	158	diff_vonmises	-0.025006344342982642	-1.432757991903747	2.8037243789236994	1.8868404615661674	1.9294806043017403e-31	2.7124808252191204	0.7569805441281514	-0.42734105741182876	1.1843216015399802	82.11705954367571
11	4.0	wm	158	diff_vonmises	-0.008980644552070718	-0.5145530301408079	1.7421171814060294	161.1185120523406	1.72384024048957	161.65192716736857	0.23773196020829346	-0.2203584797429805	0.45809043995127396	66.19116176845455
12	5.0	ltm	158	diff_vonmises	-0.027196542318353435	-1.558247092190591	1.7346583782197702	0.7156021874573456	4.2468888904236384e-30	0.46594910103285403	0.2644279402521862	-0.06361402220234644	0.32804196245453265	103.65122848494384
13	5.0	perception	158	diff_vonmises	-0.03296329676013739	-1.8886577831931326	1.8884219640174669	1.7262122102103268	2.0575715905653567e-13	1.4945882193146125	0.6222165004611673	-0.21817939856579197	0.8403958990269592	99.67795264142373
14	5.0	wm	158	diff_vonmises	0.2585618987648616	14.814505542115421	5.729132002772358	0.37399282154629176	7.758273578709184e-38	0.039554268727523725	0.3422666798554916	-0.006291575715394346	0.34855825557088593	56.956848702727314
15	6.0	ltm	158	diff_vonmises	0.20774180726867597	11.9027287849153	1.4279414939969317	28.679396363179176	1.40014241759858	28.51972468143994	0.20825247119709367	-0.03563791877727107	0.24389038997436474	83.59317700537756
16	6.0	perception	158	diff_vonmises	-0.34337718495930386	-19.67406347925116	1.532569500413092	1.7227223819397932	0.4766016358135863	1.7162657657165443	0.3399916530547198	-0.12919705616236382	0.4691887092170836	94.43172968693982
17	6.0	wm	158	diff_vonmises	-0.15125024411712407	-8.666000638234618	0.5331893584430675	90.09153716458083	0.5198714353694697	89.80275602610836	0.2974509124832352	-0.10660735805196708	0.40405827053520227	127.82198450658917
18	7.0	ltm	158	diff_vonmises	-0.05680734216270632	-3.254820951278646	0.9486435195169668	81.30251741043654	0.9313682486789545	81.48702850144056	0.20624905187063547	-0.11974770034604898	0.32599675221668445	94.0704263540062
19	7.0	perception	158	diff_vonmises	-0.10202754828273337	-5.8457479106678525	2.6820644440980774	1.7967630053629815	0.16264585505467757	1.976326866882756	0.7356642868595824	-0.26846502392597643	1.004129310785559	80.18564270881072
20	7.0	wm	158	diff_vonmises	0.5406270452342845	30.975647982552747	133.27795110940764	0.4431777199938533	3.548394435224057e-41	0.3943024732380469	1.9764130131990494	-0.06275518768919494	2.0391682008882444	11.698555160751312
0	1.0	ltm	159	diff_vonmises	0.00098077526595216	0.05619428338987963	0.30795338618844004	48.69318335387523	0.2773429830410354	51.1301006629297	-0.2359926915085513	-0.4867321927430037	0.25073950123445243	135.04090755486808
1	1.0	perception	159	diff_vonmises	0.03255316985580889	1.865159242510344	10.3171466882475	0.6516331249935081	3.911118557822927e-18	3.223256439229248	0.3113935405468159	-0.5129971942549639	0.8243907348017798	42.246715223251954
2	1.0	wm	159	diff_vonmises	0.044596418113028995	2.55518653927734	9.709912454582904	0.32118878550098645	1.5360043742775116e-31	2.9292006629191327	-0.07243374320640467	-0.4661967633609745	0.3937630201545698	43.57359081507636
3	2.0	ltm	159	diff_vonmises	0.019328776688622762	1.1074573274089352	4.370569280365874	0.5744927111026557	0.12837842431144705	2.133769905418644	0.07893478939546139	-0.3335563129373361	0.4124911023327975	61.57841082254771
4	2.0	perception	159	diff_vonmises	0.0055834441880739105	0.3199077871234837	6.4656591578458436	1.2056249833806136	0.1606098751172934	2.8935733877523835	0.6599859971637766	-0.46724023647039814	1.1272262336341747	51.82855546682737
5	2.0	wm	159	diff_vonmises	0.1523347117521091	8.728136056737794	1.5578876735147429	1.0353614089216079	2.5387989649180393e-33	2.439681247496513	0.07059546185900056	-0.3679378665675771	0.43853332842657766	108.6028791533544
6	3.0	ltm	159	diff_vonmises	0.03848233389740858	2.204875318134736	4.907208789666712	0.46504765658150227	1.4252255567478812e-15	1.319301636877167	0.18926366564659788	-0.20995155412774544	0.3992152197743433	61.64796865292436
7	3.0	perception	159	diff_vonmises	0.021981135260260968	1.2594262793191517	3.108126701676047	3.13316504975313	0.6351721471479489	4.0377432200712455	0.9945773518811691	-0.4929134551862411	1.4874908070674102	67.60670623246546
8	3.0	wm	159	diff_vonmises	-0.15078559562665475	-8.6393782407736	1.160829784262532	166.0290822073566	1.1439504365848863	166.8094297336677	0.23341635545020267	-0.2563978836329106	0.4898142390831133	80.88929200567253
9	4.0	ltm	159	diff_vonmises	0.05095606845987781	2.9195676633306875	3.4869426698713406	0.8610811927511133	0.22283843915894233	2.3984951304788447	0.14266567333860264	-0.3589953991083103	0.5016610724469129	66.63806643630926
10	4.0	perception	159	diff_vonmises	-0.06714219526773035	-3.8469644160841976	2.4109602805967527	3.017619811289635	0.3966422721167342	5.024008338301682	0.5974179106211928	-0.6164050085676414	1.2138229191888341	76.22304777388624
11	4.0	wm	159	diff_vonmises	-0.13024775953142337	-7.4626469121853996	1.0361924943778371	290.0608598565149	1.0221468221138954	291.80766049075066	0.1643930572108161	-0.4501362857299043	0.6145293429407204	82.04546779483073
12	5.0	ltm	159	diff_vonmises	-0.005069337344931957	-0.29045163479265557	1.415902724780816	1.384318736400761	4.770558115665388e-16	2.240728614934171	0.2224467688433503	-0.32251087357465646	0.5449576424180067	113.14775449655635
13	5.0	perception	159	diff_vonmises	0.0008971611816917982	0.05140354925390966	2.141805839493564	1.960474852782745	3.857488388886054e-15	2.8831101797188623	0.5951304323513743	-0.4443237605395464	1.0394541928909207	93.87958484668289
14	5.0	wm	159	diff_vonmises	0.07117694668821836	4.078138643862574	0.4700526222457305	165.05734730742898	0.4582473837636788	165.96836060092875	0.14432937504079035	-0.31372059956989595	0.4580499746106863	125.1546877244786
15	6.0	ltm	159	diff_vonmises	0.39087130682917987	22.39527621407504	0.7533036864109418	145.60659448568552	0.7414193166109276	146.26972990246873	0.1363726613843852	-0.20517728831505444	0.34154994969943964	99.82013265035138
16	6.0	perception	159	diff_vonmises	-0.07329907137359694	-4.199727431935295	0.7536284836254287	213.4899572396771	0.7415978205916246	214.30804291793316	0.2510034526646976	-0.2900609319059413	0.5410643845706389	101.33388124870163
17	6.0	wm	159	diff_vonmises	-0.13849134893715703	-7.934969793172697	0.6609653036862471	131.1571211971815	0.647557273095049	131.85761453844836	0.1419947512669637	-0.22594004208388796	0.36793479335085166	106.88596046064289
18	7.0	ltm	159	diff_vonmises	0.14921513629676672	8.549397549274072	1.2347237080479132	1.1863707711661313	3.584805065110724e-14	2.1963999810542125	0.10780143480073423	-0.3108570525112865	0.4186584873120207	119.2746243201972
19	7.0	perception	159	diff_vonmises	-0.1182120803739201	-6.7730532928868925	0.9349449796829477	215.34333529251958	0.9135831546638751	215.79421135414484	0.7283123129594458	-0.38386880233044707	1.1121811152898928	95.62065203645601
20	7.0	wm	159	diff_vonmises	-0.09260185529931143	-5.305695483731702	1.0170065788846483	128.59071263111812	0.9970734851484999	129.3509529257534	0.2252146937330366	-0.24909737164578338	0.47431206537882	86.7680138367185
0	1.0	ltm	160	diff_vonmises	0.035156713667633	2.014331314705268	2.991575428064336	0.4814833423235318	2.5485942423117406e-20	2.0244925164804557	-0.0073620537219110105	-0.3214143051512384	0.3140522514293274	79.44802385880374
1	1.0	perception	160	diff_vonmises	0.0008438540659950552	0.0483492765064707	15.966092849388605	0.5504509443140585	3.6313106424227295e-25	1.9750575220648214	0.5560444386468328	-0.31434016752743466	0.8703846061742675	33.890695185657506
2	1.0	wm	160	diff_vonmises	0.005312904289147192	0.30440699272508687	5.163201697750794	0.39837394657162756	4.576987404956379e-19	2.0847185685780065	0.019583104315898103	-0.33178175354086736	0.35136485785676547	60.067437212475284
3	2.0	ltm	160	diff_vonmises	0.18772292526814455	10.75573133571444	7.357655203316627	0.5290551568904723	0.5127460900288624	1.2842488290431027	0.24212072886537134	-0.2337200337837704	0.47584076264914177	46.2503358944671
4	2.0	perception	160	diff_vonmises	0.008680423444189903	0.49735162773849534	6.210747284540467	1.1901549415459889	0.3300874110734802	1.9575215002802335	0.7352855332035122	-0.32008137129167935	1.0553669044951914	52.125369819789455
5	2.0	wm	160	diff_vonmises	0.0800783637252414	4.58815227176984	1.6758013585408242	1.4622990134705067	0.42237977198734983	2.3519988791859845	0.131073875938576	-0.23891792199316547	0.3699917979317415	85.36271093455633
6	3.0	ltm	160	diff_vonmises	0.14620552480495028	8.37695951281892	2.423330030862057	1.477466357541845	1.1232453369737563	1.9244317397945017	0.15271663100876898	-0.16354368409886616	0.31626031510763514	65.4039034808111
7	3.0	perception	160	diff_vonmises	-0.05070480598755109	-2.9051713841163433	5.293951386712291	1.2472933735598306	2.123974324376675e-16	1.5551991651765102	0.867410309823566	-0.24748951657049623	1.1148998263940624	59.301391828988216
8	3.0	wm	160	diff_vonmises	-0.020913786959894355	-1.1982717264376832	2.6611668162399034	1.2839753893751777	0.6740805493300293	1.8901746441962457	0.25632985689288856	-0.21659862252573714	0.4729284794186257	69.44994214991291
9	4.0	ltm	160	diff_vonmises	0.06528970123342594	3.7408243263453915	2.972626232637974	0.9503206992608367	0.6574472475567403	2.0061564564734646	0.06454388532561495	-0.27275170372400437	0.3372955890496193	63.06544423532597
10	4.0	perception	160	diff_vonmises	0.010194071297083463	0.5840772613783352	2.5462200428256794	1.9517937381924662	2.319146051319503e-15	3.656213478435072	0.5807585723894689	-0.5747612366973289	1.155519809086798	86.20385910355384
11	4.0	wm	160	diff_vonmises	-0.016566287800688157	-0.9491783731784941	1.337979207852337	279.4031967044526	1.3226420365874272	281.057896112825	0.11032225781808336	-0.44000542237800744	0.5503276801960908	70.92981137086448
12	5.0	ltm	160	diff_vonmises	-0.020496798995675886	-1.1743800759802128	1.6766661683131656	1.005282758235717	4.0228758813525043e-11	1.3183218540065398	0.25610454442294855	-0.19352499635752293	0.44962954078047146	105.24271040130793
13	5.0	perception	160	diff_vonmises	-0.027825888894161287	-1.5943059948353913	2.0742993342444054	1.7622457984517337	1.364162641801987e-15	2.318472713719577	0.560304667748746	-0.35432443434883687	0.9146291020975829	95.34565298899884
14	5.0	wm	160	diff_vonmises	0.1846322272969741	10.578647386216726	1.4252834390651665	1.1290849678925556	3.948148607526278e-14	1.5355284306365324	0.229790043364055	-0.21697192551095623	0.44676196887501124	112.68821573981245
15	6.0	ltm	160	diff_vonmises	0.38646236391050703	22.142662392720993	0.9146183487268229	107.67491596186996	0.9022174205657143	107.90070040815472	0.1812437798059463	-0.12008287610774637	0.3013266559136927	94.8519552957259
16	6.0	perception	160	diff_vonmises	-0.22179352200572558	-12.707832734270024	0.6983801033374526	131.80201234112775	0.6797507863312583	132.2695287779716	0.3365181826192014	-0.26568728193687186	0.6022054645560733	108.5982634215034
17	6.0	wm	160	diff_vonmises	0.06593941389067208	3.7780501195018252	0.36732312120429594	131.2873715256593	0.3548446026430128	131.61392127671132	0.22603738208924185	-0.24251490191052483	0.46855228399976667	139.20554857793007
18	7.0	ltm	160	diff_vonmises	-0.014023993235091417	-0.8035156242907558	1.5477045586376246	0.8987135501323705	3.1852279959134586e-15	1.8094918151649377	0.10874970445400972	-0.2700342118254958	0.37878391627950553	108.99647318851264
19	7.0	perception	160	diff_vonmises	-0.038569247594202986	-2.209855106142935	1.0328688750891044	259.029472177003	1.0158208268586821	259.7160366432418	0.5968624265893538	-0.36890718024902114	0.965769606838375	89.47294588730688
20	7.0	wm	160	diff_vonmises	0.11990597828728052	6.870106494248461	0.9081003267745886	102.59061722289177	0.886224275788849	103.70774324992436	0.06990484387579698	-0.2734625744722976	0.3433674183480946	87.13033126172692
0	1.0	ltm	161	diff_vonmises	-0.09079727685341885	-5.2023007549817795	2.5596499669860653	0.4160221869069281	8.503962125300213e-32	2.995863792946996	-0.22820922061653515	-0.4753198204171998	0.24711059980066463	85.96887543705037
1	1.0	perception	161	diff_vonmises	0.026274307324570687	1.5054069193275659	11.795112801657348	0.7476661173993986	1.1469510882073259e-21	3.0705409343451615	0.5239605189049048	-0.48869176760939753	1.0126522865143024	39.49692489302501
2	1.0	wm	161	diff_vonmises	-0.2848127566737111	-16.318568908890118	0.0002126166389536788	4948.807130516266	2.37525672263141e-33	4951.580931449581	-0.2739951876227451	-0.6089152701877083	0.3349200825649632	177.6807666846562
3	2.0	ltm	161	diff_vonmises	0.08267575794339621	4.736971998201794	3.7698088695005154	0.7716354330603535	0.33894122706273794	2.2105622839594887	0.09440892725231975	-0.3381898714168727	0.43259879866919243	61.97696738206264
4	2.0	perception	161	diff_vonmises	-0.0008610695910148451	-0.04933565343220654	6.918324509540513	1.2335663287061156	0.1332734569892488	2.5866707475563566	0.8009485285495904	-0.41674169326095256	1.217690221810543	50.55582549025314
5	2.0	wm	161	diff_vonmises	0.061802202328382086	3.541005358029883	2.40902451399795	0.7669732380980989	5.1205085832179225e-19	2.177995549697643	0.09558586330649443	-0.34306390669399556	0.43864977000049	88.61601749776801
6	3.0	ltm	161	diff_vonmises	0.18229027359929656	10.444463323524747	9.39513288314538	0.35558761762328656	1.9337374609721624e-32	1.0109091756856263	0.2677147309352529	-0.1608911893638887	0.4286059202991416	44.306358356658166
7	3.0	perception	161	diff_vonmises	-0.0003891169123093166	-0.02229475681248599	4.777329346199864	1.411242780341268	0.05405967121486906	1.8718449985337688	0.8800871648934019	-0.29066507138506426	1.1707522362784661	61.77725949161194
8	3.0	wm	161	diff_vonmises	-0.08439422098442478	-4.835432677701948	1.409308895265761	121.68189280823869	1.3856510165754008	122.2314639108319	0.28711320008389407	-0.22546614921802366	0.5125793493019177	74.78001112426608
9	4.0	ltm	161	diff_vonmises	0.0764413549944675	4.379767021444264	4.097600128574781	0.7652303244286527	0.2276162878003419	2.3403343854226577	0.13440118518465255	-0.36237640652700776	0.4967775917116603	61.8416980606398
10	4.0	perception	161	diff_vonmises	-0.047824977995243004	-2.740169394433457	2.4859260868357604	2.273282985996975	0.07410553897902346	4.319404281120136	0.595994781767738	-0.6322985309140479	1.2282933126817859	83.79354040843305
11	4.0	wm	161	diff_vonmises	-0.17557884432639587	-10.059926751686982	1.220919643290769	357.4562978365641	1.206910959939501	359.2569935437647	0.2380513183816788	-0.4994131714343695	0.7374644898160483	76.09558960755112
12	5.0	ltm	161	diff_vonmises	-0.026854101881193033	-1.5386267004066854	1.851515441494235	1.0547407260779458	2.199369154488381e-14	1.6083494629938295	0.2632581801412994	-0.243176761168143	0.5064349413094424	100.6026503823349
13	5.0	perception	161	diff_vonmises	0.014356979938774685	0.8225943570457805	2.1695984454477175	1.9813803816652737	1.204944662696876e-13	2.575513299437352	0.6635846210745118	-0.3958995510926478	1.0594841721671595	93.29562752224408
14	5.0	wm	161	diff_vonmises	0.0517881732547952	2.967243756192053	0.6263924323118701	187.34326454684395	0.6154817242952436	187.87259500742914	0.2455011399671747	-0.24779557675664599	0.4932967167238207	112.95541768085343
15	6.0	ltm	161	diff_vonmises	0.3814177185097413	21.853625502117037	1.0232800023795459	99.94185548091379	1.0095142340310626	100.20143649045862	0.17070910688774177	-0.11931344252015741	0.2900225494078992	89.03772555010676
16	6.0	perception	161	diff_vonmises	-0.19739886955328087	-11.31012210605648	0.5178641686768298	162.51481848412791	0.5066671859304184	162.9128615172592	0.24202005553859607	-0.2388547403521457	0.4808747958907418	123.63464171797135
17	6.0	wm	161	diff_vonmises	0.006732111457211152	0.3857215737098655	0.5976760181203248	106.15756686939794	0.5848385295356145	106.37339833015415	0.20100583476828504	-0.15907827658654128	0.3600841113548263	117.4671878442755
18	7.0	ltm	161	diff_vonmises	0.1749945384922295	10.026448493444379	1.179425020141079	1.022008473252535	1.0871344615825559e-16	1.87163092271265	0.08571175563373984	-0.26161887549886487	0.3473306311326047	121.2557560351795
19	7.0	perception	161	diff_vonmises	-0.11576545795161546	-6.632872154026762	1.0574696228768508	184.08356508725998	1.0367715817227614	184.31592677202002	0.6365168432055412	-0.28521923023769524	0.9217360734432365	90.6479557804706
20	7.0	wm	161	diff_vonmises	0.03866304162885481	2.2152291084719886	1.6498585609727725	1.0106358568634746	0.101693820379318	1.731383301314609	0.15955975912897324	-0.2311586208371662	0.39071837996613945	99.87493818885588
0	1.0	ltm	162	diff_vonmises	-0.2053778261200943	-11.767282642253083	7.497489973520365	0.17101322041216793	4.516464422258702e-26	3.795213191221675	-0.42055911030847026	-0.6040268830578344	0.1834677727493641	49.66709647437378
1	1.0	perception	162	diff_vonmises	0.0751223076168819	4.3041911737308105	11.453666858406885	0.6457164850201897	0.0358297208580405	4.112588005957053	0.18356057485933486	-0.6634517821424447	0.8470123570017796	39.67734888348829
2	1.0	wm	162	diff_vonmises	0.18695271809499353	10.711601715342185	130.1186682179436	0.4716002022427742	1.5319880274002099e-49	4.549362108230228	1.4164658860415922	-0.7240534674398069	2.140519353481399	11.860831391075124
3	2.0	ltm	162	diff_vonmises	0.05007226679089292	2.8689295577712346	13.227544778061572	0.3862963634646526	0.09857064829285744	1.964499123942111	0.21077392124415328	-0.3281295523717634	0.5389034736159166	36.65000621496239
4	2.0	perception	162	diff_vonmises	0.01626702098483307	0.9320316476816788	9.289192956756086	1.1840898633162653	0.19058953822926522	3.241397220981205	0.8007454434845614	-0.5488739493867293	1.3496193928712907	43.3396607567997
5	2.0	wm	162	diff_vonmises	0.06654327887226832	3.812649034343035	2.4412160394396865	0.9370622831312868	0.09305620876818368	3.2093707545693997	-0.014808605032166855	-0.4732256079688853	0.45841700293671844	81.10002636618313
6	3.0	ltm	162	diff_vonmises	0.04893610520608599	2.8038322941169027	3.202416781962704	0.8461997170581086	0.6726626607871984	1.4214190850363917	0.1780424574235866	-0.18771314386927393	0.36575560129286055	63.969065635521304
7	3.0	perception	162	diff_vonmises	0.006793922244448814	0.3892630709469646	3.106991757474085	3.0705914033174753	0.6803931832893934	3.9645059058854786	0.9381125121200602	-0.4785061406298839	1.416618652749944	67.02056425413633
8	3.0	wm	162	diff_vonmises	-0.13724901486052635	-7.863789293836477	1.2450701300907538	172.26902707484388	1.2279077633873543	173.38728375805016	0.11336461661278463	-0.30125657822927465	0.4146211948420593	74.65065304304889
9	4.0	ltm	162	diff_vonmises	-0.055512829563236374	-3.1806508428025095	1.0447418790661642	204.35894365494661	1.0276463296602911	206.2074841142367	0.01735748227655165	-0.42792547025628735	0.445282952532839	78.6428437469194
10	4.0	perception	162	diff_vonmises	-0.11066509653144517	-6.340642970659654	1.2609854884473002	205.11189259262653	1.2252177478350539	206.91173038257224	0.655392920680768	-0.6342797381119354	1.2896726587927034	78.37746340817878
11	4.0	wm	162	diff_vonmises	-0.14943840090196997	-8.562189668866873	0.8871960474595197	229.32568054837105	0.8725029004765446	231.547413565119	-0.06307107166929882	-0.4752278675440422	0.4121567958747434	83.35116068390215
12	5.0	ltm	162	diff_vonmises	-0.11626331404678897	-6.661397207085067	2.8633547414446783	0.7608214808986562	3.6589571649324494e-16	2.118424190979449	0.14800552503885617	-0.3355769687952689	0.48358249383412505	81.23773715039644
13	5.0	perception	162	diff_vonmises	-0.03852385377441963	-2.2072542318533714	0.8635515739594848	173.32085216933507	0.8346949666037545	174.75748577766487	0.5086173999316443	-0.517467818884036	1.0260852188156804	95.44545502267451
14	5.0	wm	162	diff_vonmises	-0.14331812306644465	-8.21152357944381	0.42608160947296836	173.71635402572488	0.4139243337787781	175.55198775970703	-0.03452409643692533	-0.43997934251084914	0.4054552460739238	124.20717097811726
15	6.0	ltm	162	diff_vonmises	0.46019204412635845	26.367061893938484	0.5263262203269117	135.4004527491696	0.5147945460595124	136.7083294950333	-0.03360519926736316	-0.2904816596368107	0.25687646036944756	110.52187230932446
16	6.0	perception	162	diff_vonmises	-0.07579782268845729	-4.3428953363295575	0.7091045215618244	374.69868541070707	0.6999465557412655	376.08067379425654	0.26091405726256767	-0.42482393188375056	0.6857379891463182	102.5901463105616
17	6.0	wm	162	diff_vonmises	0.22724380314963033	13.020110840975502	0.00020105400604016952	6598.331442091041	6.972921232537118e-32	6600.159990255563	-0.07987359531261973	-0.5021501377243567	0.42227654241173695	178.28193960902595
18	7.0	ltm	162	diff_vonmises	0.14023289787304308	8.034753197014467	1.2489120805383906	80.39631320359386	1.2127253370474718	81.80004432156862	-0.0006205031998725019	-0.33775038612323804	0.33712988292336554	71.48958413564682
19	7.0	perception	162	diff_vonmises	-0.0896258074578753	-5.135180502788392	1.4122800088892113	2.3346000952510435	9.308439099155977e-12	3.2500526758435506	0.4578254441691111	-0.45940492000002836	0.9172303641691395	113.2354349459084
20	7.0	wm	162	diff_vonmises	-0.39829821758336537	-22.82080685511019	0.9090334613652298	168.95894715022968	0.8948912967521416	170.2876738168622	0.027525212856055248	-0.30614954389814386	0.3336747567541991	85.12947515615149
0	1.0	ltm	163	diff_vonmises	-0.037174000740503525	-2.129913350047049	8.720197288180337	0.2596752595966588	0.08244426035622089	1.8275469596456422	-0.01405127400921563	-0.2988801405615194	0.28482886655230377	44.607054654201164
1	1.0	perception	163	diff_vonmises	-0.022570601503489683	-1.2932002072215893	14.747666598358137	0.5901075943850635	6.426033324682204e-18	2.349671863068162	0.5220284172598748	-0.3739618916511021	0.8959903089109769	35.28067808713001
2	1.0	wm	163	diff_vonmises	0.006022735503939148	0.34507732549931014	7.806096687645678	0.2768675154131476	0.01811787143658222	2.2411634678044456	-0.05989144876411323	-0.3574130751339922	0.29752162636987894	48.12144633565231
3	2.0	ltm	163	diff_vonmises	0.12351448742818283	7.076858838356542	4.8779069842983	0.6889441468624602	0.7221792102911828	1.2915353981312896	0.21659708505925857	-0.21054523886265908	0.42714232392191764	53.769581407804566
4	2.0	perception	163	diff_vonmises	-0.028368566176313163	-1.6253991127403238	7.76423477300562	1.1070901875864863	0.34466023664013234	1.916723118198795	0.7912676021541164	-0.32904886183108223	1.1203164639851986	46.87240990412573
5	2.0	wm	163	diff_vonmises	0.09236303292004197	5.292011969346289	2.996921931567056	0.5718433663054054	0.006577870155026705	1.5069959309753815	0.13287340546984822	-0.23733719959977467	0.3702106050696229	78.98965779605021
6	3.0	ltm	163	diff_vonmises	0.04501595188305293	2.5792240536629234	2.304010990571941	82.7829521842252	2.2775682772707353	82.90488261538778	0.2502442925386177	-0.12333142859357338	0.37357572113219106	59.96642429947249
7	3.0	perception	163	diff_vonmises	-0.0327640014116084	-1.8772390008458328	3.8390243080681934	2.077575358624706	0.6304836459826083	2.309236504667015	0.9352587587327236	-0.3068643983873946	1.2421231571201181	63.13683363957489
8	3.0	wm	163	diff_vonmises	-0.16804203137366236	-9.628099178515821	1.5725744192995257	154.2012505766065	1.5580331488960946	154.60768560710565	0.20667145405076326	-0.1696026936492956	0.37627414770005885	70.31033948612719
9	4.0	ltm	163	diff_vonmises	-0.053130855211710376	-3.0441737655516583	1.626829506660047	194.20820656119972	1.6115704845682064	194.90540000502227	0.18980895957425048	-0.2436110057769838	0.4334199653512343	67.20234990492821
10	4.0	perception	163	diff_vonmises	-0.08975302553065785	-5.142469561436621	3.908314222548941	1.7443057355200775	0.030066613738271478	2.7850957866383395	0.8675231872996225	-0.43280590476341224	1.3003290920630348	68.55853646550887
11	4.0	wm	163	diff_vonmises	-0.13578109415397255	-7.779683632691082	1.1754095076715365	219.5996564772432	1.16145292648022	220.80324729613608	0.12098999591106008	-0.31932036998756175	0.4403103658986218	76.89752764695328
12	5.0	ltm	163	diff_vonmises	-0.06435268053396818	-3.687136994950066	2.7211679389505403	0.7369105771592055	6.457694604982965e-14	1.2282116373277183	0.26083516604725243	-0.1935002584814703	0.4543354245287227	83.36365289646963
13	5.0	perception	163	diff_vonmises	-0.040239045874921046	-2.305527500266281	1.453473920233054	3.628566694002661	0.38583600149995406	4.272886290779715	0.5779880196347782	-0.37001399327524614	0.9480020129100244	96.12439432518539
14	5.0	wm	163	diff_vonmises	0.026668382262733176	1.5279857500961556	0.3075080566562664	18.72119051218502	0.24243095900771522	19.440272903368378	0.0726365641422313	-0.25272087260686904	0.32535743674910034	146.7365691654849
15	6.0	ltm	163	diff_vonmises	0.15674596500458943	8.980882250468273	0.7043096236339804	87.4345045513082	0.6916992675056488	87.86320655806072	0.0888238321847723	-0.13588908884792694	0.22471292103269924	103.4431558527636
16	6.0	perception	163	diff_vonmises	-0.15077510388339846	-8.63877710816528	0.8273576359912751	228.2211175682624	0.814671401488415	229.00428983377856	0.3127736410043127	-0.29981820961711847	0.6125918506214312	97.5471236718492
17	6.0	wm	163	diff_vonmises	-0.014182454316766763	-0.812594775487831	0.2934099462913463	32.88446090944074	0.25248290744155966	33.50684312968217	0.1133905372709032	-0.25741850223358176	0.37080903950448496	147.61197302811934
18	7.0	ltm	163	diff_vonmises	-0.08620387222024066	-4.9391180559048316	0.9834395190292254	105.19077108204972	0.9668001407387284	105.81630358115258	0.12197055767153842	-0.18254058525238648	0.3045111429239249	86.72604706437679
19	7.0	perception	163	diff_vonmises	-0.0869669400388033	-4.982838621390725	1.4293409240163348	2.8406321902662213	0.2222492126914277	3.6683015797752407	0.47484841321963644	-0.39332208645600014	0.8681704996756365	101.91782290030923
20	7.0	wm	163	diff_vonmises	0.0030378218885191446	0.17405437312460825	0.8924037069234364	70.80796322459561	0.8732866871956236	71.44412614891446	0.05593984975127242	-0.1615451233269649	0.21748497307823733	88.74035825472404
0	1.0	ltm	164	diff_vonmises	0.006547453558365162	0.3751414554522366	6.491326839777042	0.4871980542024408	0.1752287213603108	2.920295420418115	-0.0647543430022548	-0.4854261317850209	0.4206717887827661	49.736255401801486
1	1.0	perception	164	diff_vonmises	-0.004220154551305892	-0.24179704468275323	17.105946020401163	0.6096327909134556	1.9976544622993722e-17	2.7619149122139914	0.5586175917914278	-0.4395724106780735	0.9981900024695013	32.74085664567218
2	1.0	wm	164	diff_vonmises	0.06558764986174548	3.7578955252598134	4.924416338628003	0.4752184415728412	0.09196718325502576	3.3831765243827587	-0.18034421214519508	-0.5396354736779799	0.35929126153278484	57.57143488960108
3	2.0	ltm	164	diff_vonmises	0.10588606627087965	6.066824706563944	3.2204506697016355	1.2871785619024683	0.7949860821843477	2.254237281673635	0.19528514321582569	-0.29915228931692806	0.49443743253275374	61.466794223337246
4	2.0	perception	164	diff_vonmises	-0.013703510494113905	-0.78515331582596	5.892833107469985	1.2873015423311978	0.3574693246765004	2.4160685288838195	0.6850863113180897	-0.3957684678328653	1.080854779150955	52.86324205914684
5	2.0	wm	164	diff_vonmises	0.08194023992789014	4.694829920157458	3.733186743236693	0.6740994031760736	0.12408622940007034	2.0123424079082075	0.1378116635949324	-0.307188735391264	0.4450003989861964	66.84489532637627
6	3.0	ltm	164	diff_vonmises	0.04189533229925593	2.400425722045484	2.834266886592174	1.1389358822214086	0.8170033586020873	1.5751561101260456	0.238622629938892	-0.17670940651692363	0.4153320364558156	66.53758732965753
7	3.0	perception	164	diff_vonmises	-0.07220742970882746	-4.137180971803368	5.784503741889303	1.1841915179213818	1.1665438665620956e-19	1.6166566342127495	0.8519962276143933	-0.25728840631021566	1.109284633924609	56.677361197941764
8	3.0	wm	164	diff_vonmises	-0.07883640615962649	-4.516993344925765	1.5509413120025275	179.9771730525932	1.5327764406446145	180.7492657934514	0.22797120149489558	-0.26983139605098927	0.49780259754588485	69.2455606530404
9	4.0	ltm	164	diff_vonmises	-0.17772438021485895	-10.18285690288977	1.130217458667768	145.1374884290573	1.1085511187545347	146.3469257186457	0.14935694644950814	-0.32676478701431577	0.4761217334638239	79.22893741131506
10	4.0	perception	164	diff_vonmises	-0.04130713525044257	-2.366724513626428	2.7709268279403716	2.055568636193124	3.739176304933402e-18	3.7636009259725394	0.6872515899762668	-0.59395398762931	1.2812055776055766	82.605055630945
11	4.0	wm	164	diff_vonmises	-0.12793202301653375	-7.329964983417891	1.103449564565496	261.698503228199	1.0884558710805055	263.59244219875126	0.05623100135518655	-0.45532721700891443	0.511558218364101	77.23952132222357
12	5.0	ltm	164	diff_vonmises	-0.027660322420724772	-1.5848197346786141	2.5293986611306223	0.9425170209728109	9.709032439841162e-23	1.3327986003574788	0.3471494164036944	-0.2085678559268379	0.5557172723305324	86.48993072478964
13	5.0	perception	164	diff_vonmises	-0.039451456714405024	-2.2604019653784615	2.1777783358067877	1.8536984624514812	0.027054727087653562	2.585694641510932	0.5838343675654946	-0.3875482608953232	0.9713826284608178	92.04123261578641
14	5.0	wm	164	diff_vonmises	-0.023589883073634015	-1.3516007393263272	0.4438053760192324	124.53583048682809	0.42729830742679203	125.13933972384496	0.23914232082504938	-0.3048179808013334	0.5439603016263828	130.55880871572634
15	6.0	ltm	164	diff_vonmises	0.20885366334248018	11.966433445370269	0.864226365966442	65.5262552670253	0.8455844196663349	65.68303986420015	0.18408595836947583	-0.10974971000851408	0.2938356683779899	98.73937988383571
16	6.0	perception	164	diff_vonmises	-0.1901221507224297	-10.893196828345337	0.6540260044454391	33.22411201496436	0.5863106589302309	33.76799534011856	0.2835388665905878	-0.2715098685126849	0.5550487351032727	113.39894406248749
17	6.0	wm	164	diff_vonmises	0.32865642353146524	18.830625978217032	0.19890509443686308	136.51992419058706	0.18935052590834278	136.59890441256863	0.21053789516656707	-0.1960410592770252	0.40657895444359227	155.8269335830841
18	7.0	ltm	164	diff_vonmises	-0.10805391014658985	-6.1910330112854215	0.6955601216524402	115.10886330644188	0.6801321430368368	115.98242783288556	0.09302090736149182	-0.23695541712714885	0.32997632448864067	101.79677426108475
19	7.0	perception	164	diff_vonmises	-0.08605896218562073	-4.930815322512014	0.8723484839890109	198.92124978437653	0.8543631705209516	199.782599046399	0.41192057101549295	-0.35232115329853997	0.7642417243140329	95.69810704072225
20	7.0	wm	164	diff_vonmises	0.06102606579613546	3.496536010406232	0.8969087726677268	111.15584269996623	0.8798294952112982	112.06378241676288	0.07222076867860494	-0.2277653872912211	0.29998615596982603	88.18234372592053
0	1.0	ltm	165	diff_vonmises	-0.20711151538271969	-11.866615719988665	5.253446770550278	0.23101105066192085	4.312370775384408e-16	2.8520278932806873	-0.248260108126333	-0.4539087128079887	0.20564860468165572	59.534017546725124
1	1.0	perception	165	diff_vonmises	0.03863839589043804	2.2138170116777243	11.782621603711386	0.6338707736874292	2.344309298272063e-17	3.318892572449602	0.3301491226905203	-0.5282181584462707	0.8583672811367911	39.50658663975187
2	1.0	wm	165	diff_vonmises	0.09635919977882809	5.520975464584786	9.11959569626363	0.28774978577502647	3.527017440268327e-34	3.385132061147024	-0.19721421710851217	-0.5387604964526477	0.3415462793441355	44.97665216878681
3	2.0	ltm	165	diff_vonmises	0.09211343857045132	5.277711266524432	10.454553245040021	0.39987548377554055	0.17379081695605322	1.6068254842490812	0.20729937313130348	-0.2746597293354098	0.48195910246671325	40.72495409954007
4	2.0	perception	165	diff_vonmises	0.0017462683698950814	0.10005380749217826	8.732791870436158	1.1351923615174695	0.1876432974934303	2.610431401102757	0.821197054451872	-0.437369592595577	1.258566647047449	44.8143730527062
5	2.0	wm	165	diff_vonmises	0.08522768283386037	4.8831865240597745	2.3468923641625277	0.7518576606527578	7.688473076257825e-14	2.380824907545502	0.04796564701074035	-0.37501316399700785	0.4229788110077482	89.76185477485188
6	3.0	ltm	165	diff_vonmises	0.0823740643345799	4.7196862277105485	2.7889793598841126	1.2058074279523245	1.0577230701052847	1.6163065738420404	0.18746760296134768	-0.16443280395144994	0.3519004069127976	63.74015680276099
7	3.0	perception	165	diff_vonmises	0.007383973155030482	0.4230704978211453	3.0000499467870925	3.1214813019869543	0.7621502886479576	3.70063786739199	0.9473828620601354	-0.4150818673207365	1.3624647293808718	67.65771202581001
8	3.0	wm	165	diff_vonmises	-0.14327528571277973	-8.209069179873302	1.2888696622576266	152.95457885083937	1.2721691204154033	153.6979912531858	0.17415125106284535	-0.23229840354543185	0.4064496546082772	75.70302846197487
9	4.0	ltm	165	diff_vonmises	0.00952278259444157	0.5456152518821422	1.2615640869419351	185.04249292778138	1.2434191317273684	186.39158642588748	0.09286622061217997	-0.3521104645265325	0.44497668513871247	73.28911881531695
10	4.0	perception	165	diff_vonmises	-0.1044841506159284	-5.986500856301919	2.191969181894146	3.9810277617054197	0.5847899966184803	5.488178712702453	0.728562211864364	-0.56316781407375	1.2917300259381141	76.61382874469729
11	4.0	wm	165	diff_vonmises	-0.1576065962340491	-9.030192787633467	1.0751239417384562	311.6236117947624	1.063228429697398	313.3457870671338	0.08746889852683637	-0.42266194266521495	0.5101308411920513	79.04511793675019
12	5.0	ltm	165	diff_vonmises	-0.10267628395649679	-5.882917726794072	2.350156669779273	0.7793959513432981	3.815782088264011e-18	1.7780102102042066	0.1599070581592238	-0.27895216383206806	0.43885922199129185	89.70047593151463
13	5.0	perception	165	diff_vonmises	-0.01750573546366605	-1.003004759340556	1.2163889186504622	6.465468351967742	0.5416226678965239	7.49062887475745	0.5641710773156279	-0.44869908102166584	1.0128701583372937	96.07948712573878
14	5.0	wm	165	diff_vonmises	0.03138981212879395	1.7985037546884555	0.41115773087606167	113.74785078076489	0.39660734404234793	115.01559169507914	0.015364284402231476	-0.3328882589319946	0.34825254333422606	128.23513756758916
15	6.0	ltm	165	diff_vonmises	0.4326400946043451	24.788451468969633	0.7049166669058485	134.40966197137618	0.6936317561013235	135.34248217754367	0.024785032596405188	-0.21880665609985073	0.24359168869625591	97.68621667975839
16	6.0	perception	165	diff_vonmises	-0.0975915755449567	-5.591585394758156	0.725736689334215	309.7088160853936	0.7157645441423075	310.7609740009915	0.2865512830366299	-0.361465183966466	0.6480164670030959	102.79756417509392
17	6.0	wm	165	diff_vonmises	-0.11719323644051317	-6.714677835520168	0.42920845207990505	122.47945643477891	0.41367374235737425	123.79836937363238	0.04633165323705768	-0.3623907410538365	0.4087223942908942	126.93304699054303
18	7.0	ltm	165	diff_vonmises	0.10939477158388568	6.267858712554317	2.363334037201816	0.8543587361255351	0.37387684213671246	1.8848899290942762	0.06594073000638612	-0.24393319763022525	0.30987392763661137	74.3496771176265
19	7.0	perception	165	diff_vonmises	-0.07845874871453146	-4.495355167220126	1.3156607922800767	3.4148476678253896	0.2624553629435017	4.111835155899942	0.5305745193158863	-0.3963959244643325	0.9269704437802189	104.20633472456991
20	7.0	wm	165	diff_vonmises	-0.21743354909029872	-12.458024687424716	0.8397070460609086	122.75245395967032	0.8238790453087697	123.76042486540291	0.06021637931754498	-0.24596394862380144	0.3061803279413464	90.5644245331551
0	1.0	ltm	166	diff_vonmises	-0.05678338150632036	-3.2534481067933676	6.305266670786475	0.34701604840443295	0.08263551688631177	2.780775159165787	-0.13975876332610726	-0.4491456720667659	0.30938690874065866	51.58624105948164
1	1.0	perception	166	diff_vonmises	-0.010649265716692894	-0.6101579804798627	14.495192373503288	0.6044657403189301	5.0936669813334017e-23	3.1234103719007806	0.4125205614854558	-0.4971061999922706	0.9096267614777265	35.594038821602595
2	1.0	wm	166	diff_vonmises	0.012027396847651436	0.6891190778993781	8.25009190208875	0.28911376359042584	2.328048073671697e-17	3.229682704380767	-0.18809846692708526	-0.5140199447731764	0.3259214778460911	47.31508650330292
3	2.0	ltm	166	diff_vonmises	0.04999618332920436	2.864570296525735	4.00548343798577	0.8290487757169821	0.43893070325677214	1.9626095672570172	0.1759265948729959	-0.30114574819881035	0.47707234307180624	60.00322653642334
4	2.0	perception	166	diff_vonmises	-0.021002527500219144	-1.203356184870004	6.315131394944336	1.2180063411754072	0.2785143799247695	2.623438837996527	0.6537255173538227	-0.43177661014689	1.0855021275007126	51.5636091611359
5	2.0	wm	166	diff_vonmises	0.09201845968359844	5.272269377164911	3.470307556979329	0.609812685838906	2.631318812633213e-13	2.044155556085045	0.10819393884148226	-0.3249179111792214	0.4331118500207037	73.63938069954168
6	3.0	ltm	166	diff_vonmises	-0.03381870429868991	-1.9376690249158666	2.704149418332516	1.1908933941406004	0.7389710342542002	1.666261006604073	0.24824453592720247	-0.18589960823912993	0.4341441441663324	68.62062628397203
7	3.0	perception	166	diff_vonmises	-0.026560747874535207	-1.5218187539219392	3.6580122735437848	2.4060699678352977	0.547159683986332	3.109775520035749	0.9663066851687019	-0.42070699005484535	1.3870136752235473	64.40118555586153
8	3.0	wm	166	diff_vonmises	-0.19592593687045365	-11.225729279823598	1.3941307490385695	190.8605545789796	1.378408497583774	191.68420610932696	0.19794229294230092	-0.2642696476166506	0.46221194055895154	72.65026269117345
9	4.0	ltm	166	diff_vonmises	-0.08690982902181374	-4.979566401153523	1.2310993351457622	147.32451841540436	1.2079563071557606	148.4722238994189	0.19113530445457627	-0.3307643641926141	0.5218996686471904	76.59485606879443
10	4.0	perception	166	diff_vonmises	-0.08601330114278333	-4.9281991374692655	3.192729689043019	2.2117869939102746	0.19026050992986815	3.766605608222552	0.7821040317272598	-0.539400222196463	1.321504253923723	72.10352397450677
11	4.0	wm	166	diff_vonmises	-0.17104682171786123	-9.800260983560078	0.9822675141539927	242.22844331092008	0.9677425652548609	243.9406431082103	0.09232257645183495	-0.41620479658310927	0.5085273730349442	83.08733737445553
12	5.0	ltm	166	diff_vonmises	-0.033157821111589825	-1.8998032075438769	2.320729189898359	1.0328247874714709	1.2977875598590075e-18	1.6622137377183313	0.3179734346825486	-0.2589318609001975	0.5769052955827461	90.26732815097503
13	5.0	perception	166	diff_vonmises	-0.02765346403144462	-1.5844267779186036	1.9884397837026693	2.1913731207646396	0.09967467228829663	3.0693333608431526	0.5881227602843607	-0.41996862533822316	1.008091385622584	93.03270209169966
14	5.0	wm	166	diff_vonmises	-0.05537375315914966	-3.172682351818485	0.33229995941335366	153.385849392131	0.3201417274600731	154.35077944899248	0.1298769070109529	-0.35088171772430243	0.4807586247352553	140.80558388495126
15	6.0	ltm	166	diff_vonmises	0.21618843391804007	12.386684843046591	0.6433600516891359	87.80822059536888	0.6281570771567585	88.24587215178994	0.13488983754110606	-0.16667334340533202	0.3015631809464381	110.13252003754684
16	6.0	perception	166	diff_vonmises	-0.08941926566373828	-5.123346529691282	0.7702421698938461	236.3610511112486	0.758714989864925	237.19473577785814	0.2736690658362022	-0.30117355484667385	0.5748426206828761	100.43467623772185
17	6.0	wm	166	diff_vonmises	0.14320553227202912	8.205072602111775	0.22367492183948132	83.65352096097014	0.20919902638899376	84.18645426008985	0.10765312464927135	-0.23798624907761123	0.3456393737268826	154.02315995673712
18	7.0	ltm	166	diff_vonmises	-0.05568397408532037	-3.190456701604706	0.7597433530915607	117.90198466871908	0.7441780126768733	118.69950404665684	0.11668649251819829	-0.22564117987161403	0.3423276723898123	98.23413557024836
19	7.0	perception	166	diff_vonmises	-0.11098658601090072	-6.359062960990315	0.7649278104782296	234.21747398677434	0.7488280367932331	235.03362822051164	0.4800699396351291	-0.39163037145572943	0.8717003110908585	103.00437667289265
20	7.0	wm	166	diff_vonmises	-0.07514037189678162	-4.305226180729007	1.0117607493145813	111.33304219101198	0.9940740223773531	112.06071844091142	0.12456024328421478	-0.20617542331971173	0.3307356666039265	85.01230391182975
0	1.0	ltm	167	diff_vonmises	0.020198951175246168	1.1573146529324194	6.139291576202568	0.4905542357879655	0.09466315497111344	3.890311270018415	-0.20497204556720255	-0.6298850766076362	0.4249130310404336	51.91666193173265
1	1.0	perception	167	diff_vonmises	0.02039377139035305	1.1684770290218747	15.50666219396967	0.5904588280662116	0.021509196920158784	3.622471756752332	0.3308286590234284	-0.582471580984653	0.9133002400080814	34.249385665976064
2	1.0	wm	167	diff_vonmises	0.035149024188528	2.0138907400058974	3.560444441402513	0.6323040363622937	0.08863745042479916	4.615888633803538	-0.34516588516195934	-0.7212193744914793	0.37605348932952	66.03795653525077
3	2.0	ltm	167	diff_vonmises	0.06685487045906703	3.830501917198385	4.235259004318753	0.9094903687837849	0.3882409349659614	2.3848676981461803	0.18222182846091461	-0.3736174278223503	0.5558392562832649	58.94341257200432
4	2.0	perception	167	diff_vonmises	0.010465441473285708	0.5996256271604453	4.765251728321765	1.502790042438198	0.3634091333465729	3.3243781881945877	0.5334958551740648	-0.5258417274109146	1.0593375825849796	57.33629796333878
5	2.0	wm	167	diff_vonmises	0.08321842148735586	4.768064328966294	3.6587320966194548	0.7568359017098705	0.09166295346704809	2.654715991520659	0.0919734993516938	-0.4078922666891854	0.4998657660408792	67.8990789315356
6	3.0	ltm	167	diff_vonmises	-0.036341769393918234	-2.0822300063092225	2.386370142178296	1.3867065474867102	0.538850548130136	2.3265307522377365	0.204171835131995	-0.2718619151108604	0.4760337502428554	73.01665741142949
7	3.0	perception	167	diff_vonmises	-0.048510590129417164	-2.7794520761045933	4.492992339505133	1.7840814524186386	0.20100663184515905	2.9005687798595776	0.9021092871381421	-0.4411664042451762	1.3432756913833184	61.707519062311945
8	3.0	wm	167	diff_vonmises	-0.10844252869108946	-6.213299213725765	1.2150717291681268	220.6508352229889	1.1976788942081305	222.15040726444397	0.14032828327714242	-0.3978351846084536	0.538163467885596	75.43176667146142
9	4.0	ltm	167	diff_vonmises	-0.16514971361639982	-9.462381578013934	1.6461531747526186	2.4176913257463313	0.42267524511933185	4.286196095462268	0.11200895114043286	-0.44608314563789375	0.5580920967783266	83.89472574426043
10	4.0	perception	167	diff_vonmises	-0.040863252964369844	-2.341291932033842	1.8963801500598358	4.060066334076878	0.42850782060316045	6.267609111430635	0.5648366633966075	-0.6669728506175207	1.2318095140141283	82.71477520285833
11	4.0	wm	167	diff_vonmises	-0.13925560415497606	-7.978758391624579	1.791231589503481	1.6734586697876699	0.2633125483921827	4.262970959196833	-0.06029087915751319	-0.5385565350521567	0.47826565589464354	83.53985240055039
12	5.0	ltm	167	diff_vonmises	-0.02538758152778971	-1.454601273586641	2.0749485721091196	1.2539552779805963	0.029203182544432382	2.0587453011248993	0.3240784140757439	-0.30773298126142284	0.6318113953371667	93.90337476010293
13	5.0	perception	167	diff_vonmises	-0.03428234459886126	-1.9642336573278634	2.2794817782991004	1.8559220552136175	0.008698190552514891	3.1011566628249656	0.5377872243314714	-0.47843433903318183	1.0162215633646532	90.66455835189078
14	5.0	wm	167	diff_vonmises	-0.025053363328999025	-1.4354519813594702	0.34510590287604886	203.5124043783881	0.3331053870284331	204.79025299803345	0.16554134604009363	-0.4558980644490447	0.6214394104891383	139.22667616648
15	6.0	ltm	167	diff_vonmises	0.2913813425946995	16.694921159531805	0.6418308100442677	117.4379360765899	0.6280379411709706	117.98472457398887	0.15940523925995365	-0.20362503045365798	0.36303026971361163	109.9888653970036
16	6.0	perception	167	diff_vonmises	-0.07971296969236347	-4.567216735826671	0.6595734111412822	146.95910216591824	0.6400581148425134	148.00699808568817	0.2588184426579403	-0.3623133982696576	0.6211318409275979	108.04378234558435
17	6.0	wm	167	diff_vonmises	0.36772417149275194	21.069043051479586	0.14182229527028256	143.7335565618735	0.13195931383541143	144.36920516699567	0.12499471653852723	-0.29748891683278345	0.4224836333713107	160.8756328590506
18	7.0	ltm	167	diff_vonmises	-0.07525235924428322	-4.311642583099714	0.5905998189793981	132.8099358544846	0.5745338149746861	134.1851164216629	0.04455671134759598	-0.33917788711959496	0.38373459846719093	108.00149498309321
19	7.0	perception	167	diff_vonmises	-0.06002994618722456	-3.4394625609254152	0.7820215368697584	235.89380608659744	0.7650232027343242	237.0503786783884	0.42220840102558554	-0.4348114160372667	0.8570198170628522	100.23112842062524
20	7.0	wm	167	diff_vonmises	-0.07802735337973497	-4.4706380352346535	1.0060101015473075	195.09505262576377	0.9906174833891178	196.44627914996315	0.10880826788037723	-0.34109018910102407	0.4498984569814013	82.9621214329421
0	1.0	ltm	168	diff_vonmises	0.0064240750061848855	0.36807238512987217	2.4791127478552832	0.4347354840919066	3.136239182648569e-20	2.670833682867787	-0.17013377917525307	-0.42328513002892126	0.2531513508536682	87.36115397396568
1	1.0	perception	168	diff_vonmises	0.044613739389916945	2.5561789753387973	13.20817780661528	0.5177723531072115	0.06540288641323981	2.7052908823211292	0.2838814319575686	-0.44391316228222283	0.7277945942397914	36.85680169665264
2	1.0	wm	168	diff_vonmises	0.0011351296989461548	0.0650381409495704	3.7917940337986167	0.6230491147857509	0.15184764787376637	3.0420008688540934	-0.09509681626626759	-0.4739642524788433	0.3788674362125757	63.637939080083214
3	2.0	ltm	168	diff_vonmises	0.09873644170667467	5.657181393931937	8.820469046775276	0.40950688418434045	0.17052834024486674	1.5697528335275879	0.18371001378515572	-0.2643252670032691	0.4480352807884248	44.17644328557236
4	2.0	perception	168	diff_vonmises	0.032011752339220004	1.8341383038553467	6.204943054290674	1.3063457773474252	0.37956122297148615	2.8017201019189324	0.6408087589161093	-0.47012573282396564	1.110934491740075	51.15522609698408
5	2.0	wm	168	diff_vonmises	0.0919302257231222	5.267213943619899	1.0008881853657092	60.55201090022587	0.953991734332008	61.85098119801252	0.10561805892153941	-0.327627479250971	0.43324553817251044	83.91554051214504
6	3.0	ltm	168	diff_vonmises	0.044680325664810436	2.559994087863692	1.5783038836193857	37.57842223399516	1.5060128830789805	38.32548317736511	0.14659070465815915	-0.23905969297445306	0.3856503976326122	68.04545703052847
7	3.0	perception	168	diff_vonmises	-0.04071094189504394	-2.3325651505883434	5.302668151080218	1.4713637858848305	0.13821710770904638	2.210042232194687	0.9143072712797143	-0.3439743453876259	1.2582816166673403	57.79338299766448
8	3.0	wm	168	diff_vonmises	-0.036826476923164216	-2.110001702033231	1.2036511214689916	200.89495180026213	1.1895060605006207	201.84788818450457	0.16573764411731418	-0.2757657373443827	0.4415033814616969	77.50327469265596
9	4.0	ltm	168	diff_vonmises	-0.1271917645198557	-7.287551295809539	1.0984845921862099	182.0601658214936	1.0829818245624256	183.61783103457287	-0.027628372884592522	-0.35332564528802735	0.3256972724034348	75.21232900331756
10	4.0	perception	168	diff_vonmises	-0.006934598059792688	-0.39732320144573036	3.5580457092346447	1.5001617296938992	0.06088332862914305	3.507494932026268	0.4886286872977518	-0.537101790306451	1.0257304776042027	70.63295126803439
11	4.0	wm	168	diff_vonmises	0.1447611408289611	8.294202406998414	1.0773320819770134	165.22385613549636	1.0574287593211136	167.15018808011152	-0.061138359472579396	-0.4271546252862741	0.36601626581369473	75.22873783645773
12	5.0	ltm	168	diff_vonmises	-0.07935986048846781	-4.546985068736225	1.7980158943021145	1.036895720924949	1.8331377356928037e-18	2.0471942483831307	0.17561154594346107	-0.31206405536638915	0.4876756013098502	101.96150004458104
13	5.0	perception	168	diff_vonmises	-0.08842265563043802	-5.066244980962784	1.639071726050194	2.535665717270198	0.20659762426186068	3.8003424898027536	0.42333441942554706	-0.44672559163704023	0.8700600110625873	95.751100667872
14	5.0	wm	168	diff_vonmises	0.10620730765699246	6.08523048219314	0.4049001839500046	58.277495965597836	0.37332821171246916	59.356468213443804	0.09576085467082152	-0.34184452024782974	0.43760537491865126	132.44367797775288
15	6.0	ltm	168	diff_vonmises	0.2423277268343202	13.884356006605652	0.6242910055632361	154.03481285969238	0.6126914157865999	155.0150159981674	0.0760987178904955	-0.2601811419302109	0.3362798598207064	106.63557722900569
16	6.0	perception	168	diff_vonmises	-0.17147449171836124	-9.824764669613087	0.7969723481547469	217.2762190918052	0.7815007463426066	218.50609453388952	0.27287150781837965	-0.3834336098173843	0.6563051176357639	97.3218955727192
17	6.0	wm	168	diff_vonmises	0.19931601145039365	11.419966245488746	0.2479743738996071	117.86464405756433	0.23235548824204422	119.01853986639887	0.09482908729837547	-0.3978531157730423	0.49268220307141775	150.18572107643746
18	7.0	ltm	168	diff_vonmises	-0.07019757464615822	-4.02202475927942	0.9320813048431399	127.65873468757091	0.9100408468514428	129.29455582387294	0.004247263445094518	-0.36796572263852134	0.37221298608361586	83.2814597965054
19	7.0	perception	168	diff_vonmises	-0.031232091836717383	-1.7894670476088974	1.1726016272532584	6.896960410803473	0.4999055280228221	8.326281218670255	0.5256377924265441	-0.5280027621286643	1.0536405545552083	97.35661251891193
20	7.0	wm	168	diff_vonmises	-0.11414906506985778	-6.540259663867058	0.9989701142467379	213.4018719403985	0.9856008715471584	214.93229713163996	0.02124831445395614	-0.35343482794632664	0.3746831424002828	80.66230532609788
0	1.0	ltm	169	diff_vonmises	-0.022788287929763378	-1.3056727207043577	3.5621204817915992	0.26204476693094597	3.768595966296655e-30	1.78293879061298	-0.09474808214287475	-0.28361128386018175	0.188863201717307	72.66060683347573
1	1.0	perception	169	diff_vonmises	0.011789065965666526	0.6754637242340121	14.058011126068333	0.591377516292467	3.5388133012288846e-21	2.056320583526284	0.5489771410786455	-0.32727358544927904	0.8762507265279245	36.14498114793503
2	1.0	wm	169	diff_vonmises	0.04159912361600955	2.3834542146403392	7.7182793990575345	0.30735852463102137	1.2075716031015145e-16	1.9910836459203474	0.017821786742705292	-0.31689073816498925	0.33471252490769454	48.94358324261131
3	2.0	ltm	169	diff_vonmises	0.16384081688723948	9.387387319614568	5.723028068891216	0.5249599096390287	0.5849736811912047	1.2368894102368857	0.16399527071114106	-0.21478769190709707	0.37878296261823813	50.71456810246747
4	2.0	perception	169	diff_vonmises	-0.0038320720938020054	-0.21956155776471542	8.646935867569988	1.1330292677415208	0.32517439468408516	1.8353272542079935	0.9148911790851085	-0.31815688857380375	1.2330480676589124	44.74657592313537
5	2.0	wm	169	diff_vonmises	0.0508251195471664	2.9120648433004965	1.4691887860747175	2.0610220054038053	0.5565896335447291	2.909749205320556	0.1327438633863668	-0.23295587012068378	0.36569973350705054	85.7897049960063
6	3.0	ltm	169	diff_vonmises	0.15446968935743918	8.850461262878154	2.307620601376884	57.632618302761436	2.270303799881632	57.834894582546724	0.20024999071274152	-0.13241232019972937	0.3326623109124709	58.70999213054381
7	3.0	perception	169	diff_vonmises	-0.04842786040164853	-2.7747120118631847	6.021253394423745	1.0541182178049533	8.614795057251644e-14	1.0992735594152683	0.8335360521594983	-0.17494888172509704	1.0084849338845954	55.52938044215193
8	3.0	wm	169	diff_vonmises	-0.03245828754356239	-1.8597228864681772	1.7872092598872045	103.31615987312139	1.7663161746596063	103.53521516071689	0.25017666983319486	-0.13995441313034362	0.3901310829635385	67.67221859078728
9	4.0	ltm	169	diff_vonmises	0.05782398692334276	3.313070405327202	1.6452384641821833	119.32717452869882	1.621327412705027	120.280500878475	0.05200353302760874	-0.2757798755535745	0.32778340858118327	63.3683821242918
10	4.0	perception	169	diff_vonmises	-0.04279017321861397	-2.451696330060306	3.2555020831658945	1.6915896111785282	1.0523819407641313e-18	3.103375700566654	0.666362477819199	-0.4921919139292438	1.1585543917484427	76.09605021189367
11	4.0	wm	169	diff_vonmises	-0.0033561438970037775	-0.19229288073690531	1.3956148933925137	228.78828725745942	1.3806906040235047	230.04774812992963	0.09186404761609879	-0.34275126131804967	0.43461530893414846	69.52188563331401
12	5.0	ltm	169	diff_vonmises	-0.07837830966824706	-4.490746349359972	2.4800933027094714	0.6833670844989825	1.8485404097549504e-17	1.2092602665051306	0.2083655454088869	-0.1896488031435874	0.3980143485524743	87.34347132911398
13	5.0	perception	169	diff_vonmises	-0.0570427416502404	-3.2683083484138913	1.604976650561363	2.731656641503885	0.28463756573698945	3.294700694778793	0.5496888728112935	-0.3408031798734744	0.8904920526847679	95.80290382187107
14	5.0	wm	169	diff_vonmises	0.08701006148441578	4.985309298230823	1.4027259714467593	1.1085994009952813	0.13965992486055073	1.5041269704155407	0.18720830130176452	-0.1792848208418808	0.3664931221436453	106.29651325607313
15	6.0	ltm	169	diff_vonmises	0.18608258950753487	10.661747019647123	0.990452762083968	99.60442041288744	0.9768327435456452	99.99391659710355	0.1255901983765071	-0.1316132123419287	0.2572034107184358	88.14201605325107
16	6.0	perception	169	diff_vonmises	-0.2908859472686025	-16.666537098155942	0.7501794681706752	113.80730227493937	0.7286189469396057	114.30247780444037	0.3246883791427635	-0.25581079870910806	0.5804991778518716	104.56212597355709
17	6.0	wm	169	diff_vonmises	0.0799985856023567	4.583581322031072	0.35347242975209675	102.76369172895876	0.33818191513525026	103.13193675127089	0.20471493431652021	-0.24168019010891761	0.44639512442543783	140.55720724172403
18	7.0	ltm	169	diff_vonmises	-0.021960714095029008	-1.2582562327386213	1.0771190250026281	128.2379323799914	1.0609929088170085	129.11776099255377	0.07777896186085798	-0.22624035975672108	0.30401932161757905	80.2530723501626
19	7.0	perception	169	diff_vonmises	-0.08178057597790789	-4.685681849683087	2.457566927819404	1.614622914446022	7.260387922620382e-12	2.330982778569171	0.5710387157254817	-0.3640774072970472	0.9351161230225289	87.73850675068246
20	7.0	wm	169	diff_vonmises	-0.0039369144009463505	-0.22556857947850067	0.7473595785043197	71.35955529971545	0.7288895329906381	72.15599624509497	0.02051965081616558	-0.18536569005403525	0.20588534087020083	94.88713680791608
0	1.0	ltm	170	diff_vonmises	0.028399268151567965	1.627158206345139	6.154343153466039	0.35629589608209383	0.0482635103069494	2.7280744999468984	-0.1106075401649354	-0.4357894451074346	0.3251819049424992	53.17551757088961
1	1.0	perception	170	diff_vonmises	0.01709444355028987	0.9794394685562405	16.472174839569025	0.5554986445041936	4.2371538661864057e-16	2.670650144556409	0.4673647446145446	-0.4250471717752327	0.8924119163897772	33.36610929378756
2	1.0	wm	170	diff_vonmises	0.05416355404170991	3.10334305001873	4.571386013488415	0.5151617571063958	0.0985775263049555	3.218493865930347	-0.13814859548569514	-0.5101859356761476	0.3720373401904524	59.63900477629653
3	2.0	ltm	170	diff_vonmises	0.1231232131680568	7.054440474619216	4.815137976217806	0.7227519509254121	0.48996660162019773	1.7597468199592021	0.18334198074394986	-0.28701381930435216	0.470355800048302	55.1074156363473
4	2.0	perception	170	diff_vonmises	0.0071132595880245425	0.407559752974773	6.187994732269308	1.2915699278177666	0.36036840359287675	2.5233357803586487	0.6958003480043493	-0.4189177534948781	1.1147181014992273	51.61163056889319
5	2.0	wm	170	diff_vonmises	0.06776670879826237	3.8827464056324965	2.4929071035256642	1.0679614322809137	0.31417334151061854	2.3876618743946825	0.12068777873728875	-0.31916331028140676	0.4398510890186955	74.73040277019038
6	3.0	ltm	170	diff_vonmises	0.06989105133893088	4.004462267452901	2.8401696843534183	1.1456363660949462	0.8484101359811035	1.6907203416104608	0.19817897455821032	-0.19361406111853002	0.39179303567674034	65.14473144838476
7	3.0	perception	170	diff_vonmises	-0.06407772188279334	-3.6713830246971377	5.891852552447361	1.1833056405020839	8.212135361086272e-16	1.6658640762118868	0.8540342120258972	-0.26512196377792063	1.119156175803818	56.151513177189145
8	3.0	wm	170	diff_vonmises	-0.045795280541797836	-2.623876296662598	1.4512669649618084	179.76023972162054	1.4339875645208446	180.55905286806214	0.21301809278666894	-0.26593673039281995	0.4789548231794889	71.44197096918415
9	4.0	ltm	170	diff_vonmises	-0.16487772015578434	-9.44679750066551	1.0930215002775103	145.54066473711472	1.0728795994447555	146.9376676654056	0.05334080729063828	-0.33844375051733877	0.39178455780797705	78.05983123161354
10	4.0	perception	170	diff_vonmises	-0.01833636654454198	-1.0505964146071365	2.9263643233318857	1.8002008176465263	3.651996826894814e-17	3.6787847057174483	0.5769376214519637	-0.5821581912626409	1.1590958127146047	80.34471759928581
11	4.0	wm	170	diff_vonmises	-0.017857494863717627	-1.0231590883675652	1.1339320640428459	264.1499429072628	1.1197207853417706	266.08393495477856	-0.003914524996488922	-0.4510688297612049	0.44715430476471596	74.7543793174504
12	5.0	ltm	170	diff_vonmises	-0.04788996722041334	-2.7438930027495427	2.3053408119741956	0.9282733771135093	9.843642187072696e-15	1.5345980403804018	0.27723976003273854	-0.2390525005787387	0.5162922606114773	90.56459690652741
13	5.0	perception	170	diff_vonmises	-0.05574565958554027	-3.1939910204244595	2.000257183340614	1.9932233125012042	0.08828411045950131	2.901450054399492	0.5249229304850842	-0.40311219269531795	0.9280351231804022	93.10226479730093
14	5.0	wm	170	diff_vonmises	0.028386611426986407	1.6264330294441562	0.47478881592942407	83.07879700733179	0.4507016344682779	83.81267464354704	0.19734795899944046	-0.3038364434453422	0.5011844024447827	126.77587094934351
15	6.0	ltm	170	diff_vonmises	0.22653733704850118	12.97963331501174	0.8163615520584718	92.33365779373555	0.80044975846518	92.73592329892405	0.15837422268889156	-0.15382969271292435	0.3122039154018159	98.26662940407752
16	6.0	perception	170	diff_vonmises	-0.2114087040193329	-12.11282649263818	0.6652572137635971	76.60131551714406	0.6317008587290214	77.33046197532651	0.29047336961568604	-0.308707094421802	0.599180464037488	109.98582820439559
17	6.0	wm	170	diff_vonmises	0.2831034677602006	16.220633868177465	0.24818570805205176	130.87393466230876	0.23628900339988163	131.27822959847975	0.19335396227396728	-0.2648151488525663	0.4581691111265336	150.65788052070076
18	7.0	ltm	170	diff_vonmises	-0.08664121384309542	-4.964175885099811	0.7925973225330991	119.66587919494745	0.7748744373481389	120.85274070382508	0.0503269482313371	-0.2827102015669887	0.33303714979832577	92.71310727408638
19	7.0	perception	170	diff_vonmises	-0.05866968975094945	-3.3615256080713456	0.8747903577887229	179.09020294041233	0.8517425606593652	180.12910722353146	0.46155251780221107	-0.41059099215464023	0.8721435099568513	95.45237544608364
20	7.0	wm	170	diff_vonmises	-0.01178010157922164	-0.6749501027247959	0.9104850985893311	144.86048630918694	0.8953016851093003	146.03831980971873	0.039777798295233424	-0.2766066470384523	0.3163844453336857	85.68614199408202
0	1.0	ltm	171	diff_vonmises	-0.7731886315667938	-44.30044535627286	0.00024660069455550835	2069.419329426719	8.56567456381126e-33	2072.7331980797	-0.4461946976048239	-0.6086324422516896	0.16243774464686567	163.64455983949728
1	1.0	perception	171	diff_vonmises	0.10786177277596638	6.180024350861955	9.617356221445878	0.7216803384691473	0.0627284875931164	3.939963826164771	0.21361096203694308	-0.6399463225168112	0.8535572845537542	43.0086595508362
2	1.0	wm	171	diff_vonmises	0.17995297085465603	10.3105457408125	119.70115017943805	0.49010482088452817	1.9441048394043994e-43	3.8082241969993045	1.527090561304055	-0.6060977053546032	2.1331882666586583	12.364261466426484
3	2.0	ltm	171	diff_vonmises	-0.031847254562658966	-1.824713275519113	14.188923345006232	0.2873692636046067	2.7658627852962293e-21	2.1897536128832384	0.07937212834281648	-0.34851011164350126	0.42788223998631775	35.970799596626364
4	2.0	perception	171	diff_vonmises	0.02653297339949293	1.5202273937238253	11.344513263445931	1.1873790978974907	0.14610511945960084	3.4256034561872712	0.9489101884309316	-0.578322946218442	1.5272331346493737	39.565914348115086
5	2.0	wm	171	diff_vonmises	0.06874653049368332	3.93888605345547	2.74048000400845	0.7576256929487478	2.551501980377009e-13	2.680287756260208	0.044500973114319	-0.42461882759316966	0.46911980070748865	83.06399321515991
6	3.0	ltm	171	diff_vonmises	0.03996251218074173	2.289683286696645	5.65655651261002	0.38381896081355915	0.010924499817216578	1.0900564908519155	0.17991815322156057	-0.17270928145347675	0.3526274346750373	57.06740518467777
7	3.0	perception	171	diff_vonmises	0.019938866176490624	1.1424128801890616	4.48612984808817	1.7744105393699772	0.35292234259410543	2.449250209985167	0.9138748551421195	-0.3664507657627982	1.2803256209049176	60.622895546038734
8	3.0	wm	171	diff_vonmises	-0.09932019043151465	-5.690627732161412	1.3593195006608978	124.18257648381265	1.3399081495384397	124.7536032051205	0.2032155577563728	-0.2024378105517517	0.4056533683081245	74.96136753991479
9	4.0	ltm	171	diff_vonmises	-0.015588728725128441	-0.8931683639242121	1.015693726991317	92.98858950889759	0.9802994984028433	95.10394269760819	-0.09223227734663908	-0.45412674127951824	0.36189446393287916	77.03914038890008
10	4.0	perception	171	diff_vonmises	-0.08852794245713691	-5.072277471770955	3.6041540999427215	1.7786201714459378	0.1903337130196306	3.9520593010781067	0.5373508467424427	-0.5882684662218269	1.1256193129642695	67.393076456828
11	4.0	wm	171	diff_vonmises	-0.04572708053240217	-2.6199687239614735	0.9963689685058474	215.39137872811907	0.9816968093747843	217.22035545054706	-0.020274375506303954	-0.4084464201362046	0.3881720446299006	79.50347996276938
12	5.0	ltm	171	diff_vonmises	-0.14055691500956966	-8.053318011427354	2.6464514545196205	0.7705536489848165	1.3982455842018923e-18	2.352366226317141	0.09511792141526876	-0.37203041915449275	0.4671483405697615	84.53460660938586
13	5.0	perception	171	diff_vonmises	-0.06675100942641567	-3.8245511183715917	0.8467524087205436	210.33951540570473	0.8239834056756744	211.71405739512895	0.49050147975677305	-0.4990049111588881	0.9895063909156612	96.2763756819077
14	5.0	wm	171	diff_vonmises	-0.11607347603538304	-6.650520290240351	0.5814194925553994	167.4143001549312	0.5681280014696688	168.7016239941853	0.08594087363569258	-0.3425296515912173	0.42847052522690987	110.42429853585747
15	6.0	ltm	171	diff_vonmises	0.1572788135512714	9.011412223312831	0.837074838782199	145.947519583413	0.8230153910888999	147.2019563156313	0.005306144842940341	-0.2806198981236996	0.2859260429666399	88.04689154842549
16	6.0	perception	171	diff_vonmises	-0.19283849581546608	-11.048831937877393	0.6579747918535638	279.75418551900384	0.6482855879567818	280.83315996488784	0.2188843719833784	-0.3483384922352357	0.5672228642186141	106.98431343369079
17	6.0	wm	171	diff_vonmises	0.005651331325230041	0.32379743356575574	0.4763821520579778	156.17304221439625	0.4637437810666266	157.49809445324763	0.049098282046891484	-0.3542204811881593	0.4033187632350508	121.05273679987422
18	7.0	ltm	171	diff_vonmises	0.08864981048765641	5.079259995577295	1.276500224787324	196.22487308760086	1.2598046511657992	197.7906944003072	-0.012161761602698107	-0.3781987548966548	0.36603699329395667	70.07344020207418
19	7.0	perception	171	diff_vonmises	-0.1357458723550814	-7.777665572267761	1.6973495037751134	2.3462158978239342	1.7160396790946885e-16	3.0925728129627728	0.6033533034054424	-0.45544084261306655	1.0587941460185089	104.6250568314824
20	7.0	wm	171	diff_vonmises	-0.39011608339634246	-22.352005098784073	1.0745396528723303	109.61264340463481	1.0528564303234875	110.59210643342242	0.10235269476217468	-0.2567225081540627	0.3590752029162374	80.9135309445598
0	1.0	ltm	172	diff_vonmises	-1.1545786349525133	-66.15248289875477	0.00023684033771963884	1493.1981395966232	4.2770092578237044e-30	1496.5953107012613	-0.48438836655299156	-0.5969581159176585	0.1125697493646669	145.33532621262313
1	1.0	perception	172	diff_vonmises	0.04709356068525403	2.6982622695082767	10.865257160330334	0.7204240323293706	0.019938583964520244	4.195862080385815	0.25466491635585975	-0.6716989102304414	0.9263638265863011	40.911507591918934
2	1.0	wm	172	diff_vonmises	0.13369943343417717	7.660413259068642	18.297818706919642	0.23202008519521097	1.1601972242269586e-35	4.195737451436876	-0.2747269217348804	-0.66777235531197	0.3930454335770896	31.654284813941416
3	2.0	ltm	172	diff_vonmises	-0.07786609270112846	-4.461398478949085	7.887818076631011	0.4115026846658352	2.3477845186744853e-15	2.2160502623637877	0.10047109090658868	-0.3526952895383386	0.4531663804449273	48.41140450846737
4	2.0	perception	172	diff_vonmises	-0.005179324383775077	-0.29675342791950776	9.12212547187735	1.1994349844483956	0.1497885544283668	3.332843691583851	0.8114510285008302	-0.5548228739950969	1.366273902495927	43.94208665223053
5	2.0	wm	172	diff_vonmises	0.06455242713519606	3.698581632172506	2.9469816908374127	0.7388189564954494	9.947943117107417e-22	2.71218481825889	0.04731714164750861	-0.4303374430538448	0.4776545847013534	80.05975633386993
6	3.0	ltm	172	diff_vonmises	-0.07410168312809143	-4.245713698055419	4.092522499848818	0.5541015992186488	1.4502691279157514e-21	1.1575741305758889	0.2471190550917729	-0.18411337819397577	0.4312324332857487	67.66268366315015
7	3.0	perception	172	diff_vonmises	0.014406420041967787	0.8254270662974365	3.607671813355468	2.6111299514960034	0.6320643727848383	3.3899787636059204	0.9759768548070812	-0.4499636745260618	1.4259405293331429	63.801990925030736
8	3.0	wm	172	diff_vonmises	-0.21674828591723672	-12.41876199975252	1.4523853212279	140.22521272246576	1.4330731262434995	140.84871660097932	0.21654221304329013	-0.22303238170509232	0.43957459474838245	72.26660150127523
9	4.0	ltm	172	diff_vonmises	-0.0797716066084914	-4.570576383644465	1.1034159073750325	88.52744161797695	1.0603378817727573	90.2182263035366	0.1184525496038944	-0.4258973865300373	0.5443499361339317	79.20574840631664
10	4.0	perception	172	diff_vonmises	-0.1184358730841518	-6.785875670668962	3.2880497433661793	2.328983484907549	0.28976103268766035	4.178878707431831	0.7362913182274481	-0.5914375510735445	1.3277288693009925	69.121957276541
11	4.0	wm	172	diff_vonmises	-0.17799752524130003	-10.19850696009983	0.9488422771494779	147.38232321930164	0.9260689102753566	149.11270695810418	0.07089252404029622	-0.41167197482223017	0.4825644988625264	84.31167845519768
12	5.0	ltm	172	diff_vonmises	-0.08640637919004998	-4.9507208505968885	2.9677525082500797	0.9004788797464174	1.5163951089938458e-17	2.143774469668195	0.24495708177713527	-0.3396425874558326	0.5845996692329678	79.77002620365238
13	5.0	perception	172	diff_vonmises	-0.03979938881826968	-2.2803370064870134	0.8904627458437303	125.31905271169116	0.8511631982945904	126.4639020507507	0.5802984934494901	-0.4803585513499371	1.0606570447994272	95.48018908580315
14	5.0	wm	172	diff_vonmises	-0.23045337519533263	-13.204005773237412	0.4980027617239731	165.74833797660847	0.4841333554906342	167.00401094474614	0.1229462820386189	-0.37753331905245346	0.5004796010910724	120.66693263334925
15	6.0	ltm	172	diff_vonmises	0.14066068978281526	8.059263867954254	0.7374680038868652	105.9582448038445	0.7222616981941001	106.78609463069328	0.06835244360368975	-0.21278606433366853	0.2811385079373583	97.88741526769067
16	6.0	perception	172	diff_vonmises	-0.11287523294952484	-6.46727445956378	0.6941967168181316	228.89098512671757	0.6835925604054904	229.7706393009376	0.21480057295394772	-0.2956950862318841	0.5104956591858318	104.79239246865573
17	6.0	wm	172	diff_vonmises	-0.3146584157579303	-18.028599211202163	0.9942028969992334	77.90088342884339	0.9681384194097401	78.688132264179	0.12044546674190215	-0.21800086040320465	0.3384463271451068	85.61493912970748
18	7.0	ltm	172	diff_vonmises	0.0213317065353194	1.2222167542854374	1.082869610354344	149.5154241734748	1.0680555706654737	150.51730007173322	0.06065604257860713	-0.24915424890175686	0.309810291480364	79.13757465803653
19	7.0	perception	172	diff_vonmises	-0.172150654216574	-9.863505927025699	1.5635829435785218	2.189034905296272	8.175154674467922e-13	2.8186121675434497	0.523772373130663	-0.40596522638479093	0.929737599515454	108.42934450208647
20	7.0	wm	172	diff_vonmises	-0.3226437067516557	-18.486122683326457	1.2211498780901127	79.58847401639606	1.1967316092119904	80.14964587155846	0.14605414550780793	-0.17814966118190867	0.3242038066897166	78.4070019443357
0	1.0	ltm	173	diff_vonmises	-0.02911695306097896	-1.668278522674618	6.3233653312412645	0.3902101289935486	0.28617789964915574	1.0628397306040052	0.16235485248200848	-0.1772289084522858	0.3395837609342943	50.94432699235273
1	1.0	perception	173	diff_vonmises	-0.08548509328716498	-4.897935056636679	20.103575568712397	0.5600556879438212	7.152172465131195e-23	1.402616143747153	0.7721555762631463	-0.22323329253785182	0.9953888688009982	30.181699737895656
2	1.0	wm	173	diff_vonmises	-0.1459958949202248	-8.364948605164336	28.988924223253083	0.18902638670661961	4.39437550861737e-16	1.1548895830541446	0.22019881557078574	-0.1838063858684051	0.40400520143919083	25.123605144391547
3	2.0	ltm	173	diff_vonmises	0.1256059460779806	7.1966905920160835	2.6429838437349753	91.81635182887956	2.6130272380210613	91.97771576765395	0.272546274906837	-0.15230985964208443	0.42485613454892146	55.38106047706674
4	2.0	perception	173	diff_vonmises	-0.06543903949935428	-3.7493807787028883	6.769942426011655	1.0278896603793386	0.43343028480753665	1.3251020947460972	0.7350924489075179	-0.22165778023344582	0.9567502291409637	49.97563377850844
5	2.0	wm	173	diff_vonmises	0.0826144091223951	4.733456969680327	2.910168956072529	0.43330725468379117	2.0823875640197527e-14	0.8410748516539992	0.14503972096601217	-0.1330337798039957	0.27807350077000786	80.57103951933192
6	3.0	ltm	173	diff_vonmises	-0.0476363694066599	-2.729362918327726	2.543342212917528	15.094440845420598	2.4596140532566326	14.93329513378063	0.26904072605426066	-0.04394992854931168	0.31299065460357234	62.450331198796135
7	3.0	perception	173	diff_vonmises	-0.06858720202320807	-3.9297572045409637	3.9671615699961458	2.041228564887561	0.6441715633744403	2.1108317468025337	0.984132374445368	-0.28081472841338506	1.2649471028587531	62.52579767451243
8	3.0	wm	173	diff_vonmises	-0.25807603611576724	-14.786667662899271	1.9049701914357302	134.43885532830774	1.8880267605350702	134.68495476362747	0.24148390914989193	-0.14777648264216126	0.3892603917920532	65.01278908300287
9	4.0	ltm	173	diff_vonmises	-0.05584438722241793	-3.1996476973388495	1.9745610166474472	145.87481347674475	1.958651317498089	146.08317207782858	0.25862286656342803	-0.14448209721994232	0.40310496378337035	64.23786149387621
10	4.0	perception	173	diff_vonmises	-0.08396355319855642	-4.810757231199447	3.6174308820853995	1.97101544818413	1.0505615320185475e-19	2.6988461814775953	1.004411265151555	-0.42850078459348356	1.4329120497450387	72.0865181653511
11	4.0	wm	173	diff_vonmises	-0.20868580143549814	-11.95681566655918	1.2703583411701922	203.24086295700107	1.2551933447807857	204.21356510571	0.18511205732721692	-0.28971886225044585	0.47483091957766277	75.60132305497268
12	5.0	ltm	173	diff_vonmises	0.03779803117579603	2.1656676602770215	2.217085020583484	1.0283030552318815	0.22797678854331158	0.7340855237405389	0.41953032329067064	-0.08568571760177011	0.5052160408924408	88.03418792300403
13	5.0	perception	173	diff_vonmises	-0.02968833534856852	-1.70101631624203	2.0600073600350965	1.7871415724693245	1.6163413207595655e-13	1.8607182667880195	0.6423914295114928	-0.28089585092496633	0.9232872804364591	95.66116360973535
14	5.0	wm	173	diff_vonmises	-0.00591735778389372	-0.339039626885996	0.34835320431873124	3.408286001742369	4.786087703747132e-20	3.518373038149341	0.18573429778588868	-0.18843625037516837	0.37417054816105705	160.33489578504128
15	6.0	ltm	173	diff_vonmises	0.19044313470613936	10.911587855903196	0.7003784610905969	30.42934547240418	0.6766649967622383	30.187341511199694	0.2052492242597861	-0.05062452215000279	0.2558737464097889	117.33286172768948
16	6.0	perception	173	diff_vonmises	-0.1376103920652024	-7.8844946824766495	0.9834402804574627	179.98428741313978	0.9709086242864565	180.26478271188586	0.33317954586733123	-0.18697122012548562	0.5201507659928168	92.39434807261297
17	6.0	wm	173	diff_vonmises	-0.09542009268985217	-5.467168591875648	0.1961211284271244	38.06424341953644	0.16852092672246186	37.95987837864581	0.20043305703522485	-0.13679153204906314	0.337224589084288	159.40051081306092
18	7.0	ltm	173	diff_vonmises	-0.13460706367501507	-7.7124166412270965	0.8232374125554018	64.01598660583356	0.8034501419435593	64.08603613531777	0.22055139709920724	-0.11055472194841709	0.3311061190476243	102.77481613169168
19	7.0	perception	173	diff_vonmises	-0.1319737444913889	-7.561538565894481	0.8624090502721331	202.88369702575977	0.8464419692675706	203.36169664452186	0.4686453138814315	-0.29595825256455655	0.764603566445988	98.3467587651534
20	7.0	wm	173	diff_vonmises	0.5293293606202858	30.328338335900735	129.61418204190173	0.43109402833973604	6.138027127340274e-32	0.4685205661339401	1.8773597269247688	-0.07456736404042982	1.9519270909651987	11.889193101220314
0	1.0	ltm	174	diff_vonmises	-0.019780955346763756	-1.133365256106303	2.588131366944048	0.7151869172001359	1.8452952776784294e-11	4.18666515212376	-0.23618461371483246	-0.6638985033559607	0.4277138896411282	85.4961080995935
1	1.0	perception	174	diff_vonmises	0.026888974722768678	1.540624767048598	13.536512994923582	0.5635489337568373	2.7246692161425353e-25	3.503424119894062	0.2613198701666747	-0.557587266427081	0.8189071365937557	36.84277484544802
2	1.0	wm	174	diff_vonmises	-0.45834315593003927	-26.26112840349784	0.0005702937092263156	2181.706697818605	6.404558633988198e-26	2185.427139754127	-0.3940778093518702	-0.7901191764829036	0.39604136713103344	174.05468646954296
3	2.0	ltm	174	diff_vonmises	0.1075489363557576	6.162100144306011	7.668778997251748	0.611849210294424	0.13293180885037803	2.5825598890489125	0.19677895497977116	-0.42494102665505784	0.621719981634829	47.37633697208673
4	2.0	perception	174	diff_vonmises	0.05192598257967305	2.9751396488851007	3.2259306750195536	2.05254082778729	0.42253919457697536	4.155956410723595	0.4351278075979431	-0.5840430800828097	1.0191708876807528	66.44597990063417
5	2.0	wm	174	diff_vonmises	0.10705363225343469	6.133721309667392	3.0928767228914333	0.706143829500457	4.672357589496757e-13	2.762241077831631	0.030953817691630747	-0.43865559661752956	0.4696094143091603	78.10670411457451
6	3.0	ltm	174	diff_vonmises	0.35202970220786606	20.16981619975792	0.42133660933584777	81.83259293332809	0.39783246922717697	83.3983601807275	-0.0031193209524964516	-0.39506512128402527	0.3919458003315288	126.16641412550055
7	3.0	perception	174	diff_vonmises	-0.02421636353954434	-1.3874954259703784	3.4157650927547274	2.474989148266607	0.2576708368347568	4.21510491137388	0.8902010940409003	-0.603116117058586	1.4933172110994863	68.8007926491996
8	3.0	wm	174	diff_vonmises	-0.07799231214057595	-4.4686303201219335	3.157068434559921	0.9867547877637255	0.10674763916569709	3.176394777574991	0.10431853225194354	-0.4784866184712276	0.5828051507231711	72.27962497750886
9	4.0	ltm	174	diff_vonmises	-0.09544723510281557	-5.468723737584252	2.480027841064246	0.994913203584829	1.090300449312422e-20	3.5242651349559306	0.02265237889158367	-0.556811325309461	0.5794637042010446	87.34234735909891
10	4.0	perception	174	diff_vonmises	0.03867983412106135	2.2161912474029295	0.9372813238276252	484.09560839138567	0.9226278455140906	487.0325392249945	0.3883792971706441	-0.7920137116921424	1.1803930088627865	87.57157153218552
11	4.0	wm	174	diff_vonmises	-0.18863140061580966	-10.80778313892733	3.0769450196429036	1.0160261950224423	0.03436753757356272	4.281894078355912	-0.030006017318206513	-0.6630400502110793	0.6330340328928727	75.68020898301256
12	5.0	ltm	174	diff_vonmises	0.07708922511792597	4.416887245191054	0.6221947380935587	99.77840480734817	0.5954283726155873	100.47144681494245	0.32243671303793064	-0.32844618762617817	0.6508829006641088	114.0575771638864
13	5.0	perception	174	diff_vonmises	0.011561070192336305	0.6624005286753691	2.3351622528388907	1.8507612469465688	1.5941574950912409e-21	2.98728862422365	0.5722166027368192	-0.4656252044871549	1.0378418072239741	89.99556021120256
14	5.0	wm	174	diff_vonmises	0.08837440153481496	5.0634802249393625	0.37796650545830274	239.89608262292387	0.36692881775107516	241.15346137496317	0.2034059728883051	-0.46603146732769574	0.6694374402160008	135.59239124948618
15	6.0	ltm	174	diff_vonmises	0.5539358117217191	31.738184132807902	0.7106760776085129	160.59706692131329	0.6987994819605977	161.08341998909785	0.22532748003303027	-0.21273396310708392	0.4380614431401142	105.96735916173094
16	6.0	perception	174	diff_vonmises	0.008339625638102404	0.4778253517823638	0.7253362024898714	177.08294606104627	0.7090008912269079	177.99672862476802	0.29010203678443247	-0.3337251070614293	0.6238271438458618	103.65202373318479
17	6.0	wm	174	diff_vonmises	0.10845295299927481	6.21389648258913	0.32987901935659014	154.90327849500693	0.319894717401694	155.57729471468215	0.13461278813505828	-0.27699661647939067	0.41160940461444895	141.42413782506327
18	7.0	ltm	174	diff_vonmises	0.08562611397030366	4.906014946604577	0.29667940534480186	6.221998183227328	1.2390853911836438e-10	7.861228891182416	0.05228830472938206	-0.5310423218491565	0.5833306265785385	162.96666216146426
19	7.0	perception	174	diff_vonmises	-0.04151925265327432	-2.378877945569964	0.9788048452249821	249.2603190756562	0.9598042962363273	250.03237441483293	0.6401797455149989	-0.40962291497182335	1.0498026604868222	91.88710872444591
20	7.0	wm	174	diff_vonmises	-0.06511718586746153	-3.730939923974476	0.9856792299499555	183.05511917040076	0.9633783833949404	184.74964569733547	0.20657109035845878	-0.4508287301417795	0.6573998205002383	85.19054177848923
0	1.0	ltm	175	diff_vonmises	-0.24660939959442024	-14.129677785015515	10.551572952363559	0.15148004040098154	0.041442880648902	1.7001521179761543	-0.08805299922082355	-0.2751460581331944	0.18709305891237088	40.9423679098509
1	1.0	perception	175	diff_vonmises	-0.035275446262107754	-2.0211341912593097	12.553764114341698	0.640489818184241	5.2074035501671497e-20	2.357527943489379	0.5207627693300911	-0.3752122256724305	0.8959749950025216	38.25971472644329
2	1.0	wm	175	diff_vonmises	-0.02135848973640472	-1.2237513186694766	13.370885858502096	0.20534988383821556	0.023094904669359696	2.1376207674415406	-0.05148512178146708	-0.34380478665464864	0.29231966487318156	36.74878986693946
3	2.0	ltm	175	diff_vonmises	0.048402596873946796	2.7732645183502633	8.864220523688493	0.381118536778623	0.41715303878260146	1.085103626440721	0.19485011865448704	-0.1999679055811103	0.3948180242355973	42.90097462799332
4	2.0	perception	175	diff_vonmises	-0.029897566498935695	-1.7130043781007362	9.86653410723507	1.0532938793395543	0.22689997647732552	1.8862671698541331	0.9303118905232473	-0.32278340867464383	1.253095299197891	42.304022915966755
5	2.0	wm	175	diff_vonmises	0.030432308009961807	1.7436428098129808	2.0998922904105695	0.6096788344755523	4.634967138918566e-12	1.625925605315365	0.06512550350769147	-0.25391578519379293	0.3190412887014844	94.7810616381073
6	3.0	ltm	175	diff_vonmises	0.051455555492684664	2.9481861622320324	2.478797839999106	59.622016829346016	2.4516593921707117	59.60024630272762	0.23857648714633228	-0.07576019915852239	0.3143366863048547	59.742219773314304
7	3.0	perception	175	diff_vonmises	-0.022980892261405338	-1.31670813602338	3.7312423131142496	2.240582295535441	0.7608626669218023	2.3503762370600954	0.9620172735537356	-0.29524620386843753	1.2572634774221731	63.08601714027034
8	3.0	wm	175	diff_vonmises	-0.2479438185123977	-14.206134357118037	1.8363395419555948	83.90698088458501	1.8134671387664818	84.09546775261506	0.22040175961466701	-0.123070995431803	0.34347275504647	66.75813055961652
9	4.0	ltm	175	diff_vonmises	-0.020092348196522912	-1.151206752168054	1.6662009977595598	169.25644818230037	1.6492572582495355	169.94556683052664	0.1685350534002339	-0.23763311431815382	0.4061681677183877	66.04850585540402
10	4.0	perception	175	diff_vonmises	-0.1136915019266195	-6.514043226898766	3.917679411702434	1.8945693585563532	0.08469967661254617	2.8633721525191596	0.9448751172506892	-0.43467744229960303	1.3795525595502922	67.57328601865873
11	4.0	wm	175	diff_vonmises	-0.22048024154484763	-12.632587306544723	1.2459354198006758	196.80657593525055	1.230624139952785	197.89841319573375	0.13322833295390524	-0.3009710468584288	0.43419937981233403	75.0808979097196
12	5.0	ltm	175	diff_vonmises	-0.04617553318952588	-2.64566316852609	3.3366601378287393	0.6487689655258795	2.5866079952008993e-13	1.0958019125385632	0.276805998565537	-0.17383180328408576	0.45063780184962277	75.13871443219966
13	5.0	perception	175	diff_vonmises	-0.033833164964081786	-1.9384975600117718	1.473730651580206	3.5861004555264473	0.3992645743378079	3.9831996619110113	0.6283310010780654	-0.33534905434066375	0.9636800554187291	96.17275218782072
14	5.0	wm	175	diff_vonmises	-0.19833574288072411	-11.363800993657357	0.43291354184458825	91.10147656697647	0.41831633330828116	91.7110606474471	0.10410517603959235	-0.22089628683312945	0.3250014628727218	129.47710439594974
15	6.0	ltm	175	diff_vonmises	0.21287654702247238	12.19692770170588	0.7905290816847328	72.14846556102856	0.7765067143235952	72.49386182257078	0.08987403742413136	-0.11355975087688819	0.20343378830101955	98.29668743366949
16	6.0	perception	175	diff_vonmises	-0.15411197106871521	-8.829965514679628	0.8557418728357988	194.23454968265062	0.8434504099640445	194.7439517142203	0.2966595589692602	-0.2314479207535971	0.5281074797228573	97.13819536067115
17	6.0	wm	175	diff_vonmises	-0.28448844965810505	-16.29998748562941	0.5893017736623215	107.24834881842388	0.5756254289064353	107.72480479108513	0.15278228004054029	-0.19284802590190075	0.34563030594244104	115.14809266134772
18	7.0	ltm	175	diff_vonmises	0.006302645731781228	0.3611150001972066	1.267768374169474	141.72215239138288	1.2564235150140168	142.1595425971607	0.12374376313246671	-0.14299994253362058	0.2667437056660873	76.91263946908339
19	7.0	perception	175	diff_vonmises	-0.15513663540908787	-8.888674456800539	1.4453570067660202	2.2952455701663284	0.12882458446887804	2.7003562102518437	0.4852827086007085	-0.32227591721551363	0.8075586258162222	106.50341288555684
20	7.0	wm	175	diff_vonmises	-0.258092817071574	-14.787629140843194	0.9010165843686848	42.75782952100803	0.8809827828334111	43.13306985266304	0.04347322075061655	-0.09910758364657024	0.1425808043971868	89.13194723240802
0	1.0	ltm	176	diff_vonmises	-0.04432504827786468	-2.5396381930352643	7.77469125949944	0.3584771079129233	0.10717978646712499	2.9679738578587473	-0.13247239363293345	-0.48900247094868515	0.3565300773157517	46.39703050560914
1	1.0	perception	176	diff_vonmises	0.010720629032016114	0.6142467972599445	14.612077113882759	0.6462457195466812	1.6977559039040586e-23	3.110447288659031	0.4814459716505679	-0.49504306121666963	0.9764890328672375	35.449355105075625
2	1.0	wm	176	diff_vonmises	0.07080944290285042	4.05708222800591	6.7642603033528035	0.3183358017762543	5.810241422974611e-22	3.508912447027689	-0.23474675038884563	-0.5584603294981877	0.32371357910934206	52.33237261585137
3	2.0	ltm	176	diff_vonmises	0.12452359695612425	7.134676555374024	5.7205570281445715	0.6727711507393669	0.4762455059127234	1.6864025205922468	0.21791099233759553	-0.2875210794243088	0.5054320717619043	51.510540696418616
4	2.0	perception	176	diff_vonmises	-0.01161664977247246	-0.66558500404428	7.0486595911040615	1.2136159397090038	0.27738018409619497	2.4438096699795997	0.7572297848313708	-0.4080519553970689	1.1652817402284397	49.166208150381436
5	2.0	wm	176	diff_vonmises	0.08504194206537856	4.872544361942251	3.6152727636971624	0.6060094867126401	0.009793602728892183	2.1506935989087412	0.09508699879676585	-0.33900294343281345	0.4340899422295793	71.49234896442357
6	3.0	ltm	176	diff_vonmises	0.07698735286412911	4.411050394999008	2.540268022878975	1.6989399604105153	1.239724497527441	2.0497821858336214	0.21853651003302843	-0.16224503874699553	0.38078154878002396	64.64550711068694
7	3.0	perception	176	diff_vonmises	-0.037495744062922796	-2.14834788450819	4.20202223319003	1.714455238071063	0.33507985694729087	2.17071766025891	0.8842572344732309	-0.31676571292291755	1.2010229473961485	62.8604680372018
8	3.0	wm	176	diff_vonmises	-0.10111306222992089	-5.793351719418119	1.4540250072036236	150.30827963024538	1.434272855821568	151.09261694882514	0.19465507587600683	-0.256804330021275	0.45145940589728184	71.1768649329349
9	4.0	ltm	176	diff_vonmises	-0.07136137131628592	-4.088705396689115	1.2321562472561018	182.31339719514148	1.2139985488821947	183.5418690315054	0.1404326237297937	-0.3346980024296933	0.475130626159487	75.39419980384221
10	4.0	perception	176	diff_vonmises	-0.08690879278219431	-4.979507028996766	2.7255099709872934	2.4787521986549046	0.19759756732733466	3.9660351332350587	0.7747143178846628	-0.544715052387579	1.3194293702722417	77.41681663249992
11	4.0	wm	176	diff_vonmises	-0.17599737259248666	-10.083906654940913	1.0958802986479037	301.2511223145084	1.0827056272922972	303.0820876500781	0.08981920246532127	-0.4500887818628314	0.5399079843281527	78.21278261761921
12	5.0	ltm	176	diff_vonmises	-0.06034257361140659	-3.4573747928910916	2.627329702252064	0.8135503513542491	1.6211156368239622e-14	1.4517685232821629	0.2625207661950343	-0.22847769121211556	0.49099845740714987	84.85455638160363
13	5.0	perception	176	diff_vonmises	-0.0207282668617088	-1.1876422077967983	1.6732128140989186	2.9910432403173735	0.27672643206192304	3.8354440078276606	0.5946852000089162	-0.4129157097902537	1.0076009097991698	93.87368363027986
14	5.0	wm	176	diff_vonmises	-0.004354399305066036	-0.24948870249498248	0.4111162634335302	104.92747969833793	0.3936064762061442	105.89056887653521	0.11856659501232514	-0.3244274540137102	0.44299404902603534	131.62545096909852
15	6.0	ltm	176	diff_vonmises	0.3238174347774895	18.553372345502954	0.8105151617319934	101.48860062334116	0.7976506931660076	101.94929034804807	0.10962879871410891	-0.1460694786195873	0.2556982773336962	96.65549372946816
16	6.0	perception	176	diff_vonmises	-0.13810708380872064	-7.912953023099239	0.6532963102082799	250.76847843428345	0.6425553825874035	251.5482997781787	0.2984760458809319	-0.32402982769446353	0.6225058735753954	109.88205241698334
17	6.0	wm	176	diff_vonmises	0.1967768445769952	11.274482700163587	0.1325313118756461	77.75684635314975	0.11498923543405819	78.40297603338344	0.11464538216378273	-0.29424764578228846	0.4088930279460712	164.49702667362374
18	7.0	ltm	176	diff_vonmises	-0.013987058803472356	-0.8013994372402692	0.8271007773619705	86.03288255517798	0.8068142418727445	86.91853185935685	0.06317168258599182	-0.2202621342542681	0.2834338168402599	91.85917675910454
19	7.0	perception	176	diff_vonmises	-0.07263970625275447	-4.1619485933528875	0.7973309174169045	185.05519338234726	0.7786654378152171	185.81928915548954	0.4307407320152947	-0.3516936270983084	0.7824343591136032	100.79703516109608
20	7.0	wm	176	diff_vonmises	-0.04839459553143469	-2.7728060751938814	0.7889343656043578	97.73462632973698	0.7710568705514106	98.70285771294583	0.04501863793377936	-0.232277109568491	0.2772957475022704	93.12874085133976
0	1.0	ltm	177	diff_vonmises	0.016361740124441276	0.9374586546203395	2.325745339859437	0.3668262247823048	3.927518166926832e-24	1.8253734773113726	-0.08335778182149545	-0.28853938091854797	0.20518159909705252	90.17067132934676
1	1.0	perception	177	diff_vonmises	-0.02278336172934661	-1.3053904702114414	13.667380628094566	0.582880991172238	2.938664346592396e-23	2.0895498236154104	0.5188079368085947	-0.33256218326404524	0.85137012007264	36.65935863260242
2	1.0	wm	177	diff_vonmises	-0.01752233057223782	-1.0039555890222798	10.43499152438287	0.2641966382035438	4.1804001496560014e-13	1.894994695336214	0.034605649867760935	-0.30159777260522813	0.33620342247298907	42.00190338866125
3	2.0	ltm	177	diff_vonmises	0.08708393021650634	4.989541664817595	4.82102485816694	0.5627468771619547	0.4754103561737842	1.386489692987885	0.14283192712095172	-0.22594166155802212	0.3687735886789738	55.20022244237367
4	2.0	perception	177	diff_vonmises	-0.0176802801054662	-1.0130054306523273	7.721978045679247	1.0836709138397735	0.23700642040834605	1.9562343114788263	0.791482472974187	-0.32612098552880364	1.1176034585029906	47.49169080481559
5	2.0	wm	177	diff_vonmises	0.07857937548912718	4.502266572300736	2.6497020065010894	0.574741222971383	2.696705011117416e-11	1.4417937899742663	0.12094457281846832	-0.22771809552526526	0.3486626683437336	84.49313674941027
6	3.0	ltm	177	diff_vonmises	0.05823132006002303	3.3364088749148073	3.2477301036604245	0.7335268940221955	0.7985944777665237	0.9977865774225915	0.19978044931551403	-0.12246563727100834	0.3222460865865224	64.00215090376699
7	3.0	perception	177	diff_vonmises	-0.036681566303793364	-2.1016989351366546	4.946414334870969	1.5064573589135926	0.2531666204646826	1.771762441434047	0.9413357573433561	-0.2695044199676486	1.2108401773110047	59.15389138166236
8	3.0	wm	177	diff_vonmises	-0.15787799750174975	-9.045742934827215	1.6351699952948906	138.69539918028516	1.6184725432764504	139.01604324663194	0.24872073511470205	-0.16257153060644036	0.4112922657211424	70.01956831655278
9	4.0	ltm	177	diff_vonmises	-0.004728461125564861	-0.27092086608654536	1.5108811655975178	85.72790966504772	1.478444587655053	86.59146999538164	0.11618052548534052	-0.2574814616539598	0.3736619871393003	68.17496123958634
10	4.0	perception	177	diff_vonmises	-0.05549902644102887	-3.179859982155916	3.6370969422380717	1.7070331987984517	2.0406816295896176e-17	3.17085218865492	0.7409705405884939	-0.5037933014450615	1.2447638420335554	71.88627940860107
11	4.0	wm	177	diff_vonmises	-0.10915021908919317	-6.2538468867390415	1.241781748496583	261.68069120904386	1.2289170086581664	262.9823211989563	0.11805446936099884	-0.3464869714630652	0.464541440824064	74.41752319678645
12	5.0	ltm	177	diff_vonmises	-0.009122118126983906	-0.5226588688959614	2.1331066523925797	0.9175987818269672	2.349916632472197e-15	1.2397232527595592	0.2947719282361718	-0.19040080269692017	0.485172730933092	94.07250387965996
13	5.0	perception	177	diff_vonmises	-0.036189481052513066	-2.073504527077659	2.071417136765803	1.7968623453809793	1.0516179080235153e-13	2.2472749489895127	0.5891450658973163	-0.342631619382566	0.9317766852798823	95.40571068545574
14	5.0	wm	177	diff_vonmises	0.013272101873379929	0.7604354226123432	0.5179174712265479	104.89580671915836	0.5029222298546611	105.28301386677879	0.1986991296870464	-0.21080010174101815	0.40949923142806455	123.57151767152618
15	6.0	ltm	177	diff_vonmises	0.2569349364191587	14.721287466279943	0.8347515729169632	88.1454577998797	0.8209086001692754	88.35080429301927	0.16976988830486306	-0.11557849996643821	0.28534838827130127	99.46213842846606
16	6.0	perception	177	diff_vonmises	-0.18329785802525428	-10.502193658635237	0.8394800674019467	163.8392813945772	0.8259484054328365	164.26552479338304	0.2916409021320234	-0.21350917465860242	0.5051500767906258	98.63269835597487
17	6.0	wm	177	diff_vonmises	-0.03124373887901539	-1.7901343739763835	0.4015645172241565	100.00340851236456	0.38845259299763535	100.21900472761031	0.19154505866538685	-0.18388171563734623	0.3754267743027331	136.01403406981657
18	7.0	ltm	177	diff_vonmises	-0.026182315001008954	-1.5001361474398769	0.8925788319201836	102.01245700178043	0.8751539413381999	102.62200956532243	0.14493723845912143	-0.1894366359711892	0.33437387443031064	92.03023188728264
19	7.0	perception	177	diff_vonmises	-0.12521942026116747	-7.174544294039845	0.9184159386502708	111.75365168760946	0.8835018070045078	112.2395585160355	0.587785598534424	-0.3389399761667793	0.9267255747012033	96.26293946403112
20	7.0	wm	177	diff_vonmises	-0.01579058565717422	-0.9047339141958943	0.8869155149909512	83.68736321644636	0.8702894451269311	84.24990594446243	0.08688869032652136	-0.15688737741169234	0.2437760677382137	90.74664611033057
0	1.0	ltm	178	diff_vonmises	0.02120288490565577	1.2148358185957144	6.321083079140702	0.34175128278703	0.14238886249842572	2.6542581457290217	-0.14921479486321992	-0.43774982872038953	0.2885350338571696	50.19833170986129
1	1.0	perception	178	diff_vonmises	-0.014963958122777055	-0.8573716452456315	15.835419887513156	0.5094041465483498	1.0278236098854215e-20	2.6150487802652105	0.38588939737173966	-0.4161979398056258	0.8020873371773655	34.034183703565105
2	1.0	wm	178	diff_vonmises	0.027910026567946385	1.5991267284413258	3.371030777628073	0.7379658839440234	0.28781216420062855	3.628586574589794	-0.23821428027891423	-0.5681498100214619	0.3299355297425477	61.51802601601091
3	2.0	ltm	178	diff_vonmises	0.05701717119998341	3.266843269533917	10.264936723985972	0.4603871187365059	0.42647458438216346	1.4175791058693101	0.2504686369978065	-0.2692276977820185	0.519696334779825	40.020252881905606
4	2.0	perception	178	diff_vonmises	-0.009264100709401276	-0.5307938716328451	7.754131288206928	1.1558067457742567	0.33273157579560697	2.4290838972046154	0.7369966599319371	-0.419154151376845	1.1561508113087822	46.66027316729719
5	2.0	wm	178	diff_vonmises	-0.02889836019635151	-1.6557540740997905	1.0553883054703803	126.79890201647295	1.031584301633915	128.37866917446425	0.019384741346655687	-0.3675924211600865	0.3869771625067422	78.49283237925184
6	3.0	ltm	178	diff_vonmises	0.00493930306256489	0.2830012192210102	1.8193675619006795	58.72546989330088	1.7865449584296194	58.96594755212229	0.1991698775949473	-0.13005529011435701	0.3292251677093043	66.4159717711089
7	3.0	perception	178	diff_vonmises	-0.0758026426696741	-4.343171500910613	5.300086886199987	1.444308709056771	0.18914269276629397	1.9466607912516265	0.9207131098543109	-0.3019751053060764	1.2226882151603873	57.52370732727644
8	3.0	wm	178	diff_vonmises	-0.1268849431228835	-7.269971724698725	1.668582060922903	180.28816874445494	1.6513072261385373	181.1595984482645	0.12598674537932197	-0.2755790136888727	0.4015657590681947	64.62859481084365
9	4.0	ltm	178	diff_vonmises	-0.20494915331247504	-11.742721499584476	1.195917338453139	131.69424076741393	1.1755944159206013	132.85480697632215	0.060641178751225766	-0.2924631334336354	0.35310431218486116	74.91086283787467
10	4.0	perception	178	diff_vonmises	-0.08386062453702757	-4.804859853302913	3.496641980666895	1.9150356012151353	0.07741114021518246	3.400358765640914	0.7833471746159545	-0.5137584808187787	1.2971056554347333	71.28111035938997
11	4.0	wm	178	diff_vonmises	-0.09263877902655569	-5.30781105746669	0.9981400100522879	178.02741473062807	0.9825262711804214	179.9720508609662	-0.13180965747069706	-0.40483586302936914	0.2730262055586721	75.35128518800227
12	5.0	ltm	178	diff_vonmises	-0.035594553526375465	-2.0394176907138157	2.9409390984051047	0.8562980008583007	0.07901480388846124	1.4140772986606571	0.3113252308174413	-0.20933910928604588	0.5206643401034872	77.56007306449527
13	5.0	perception	178	diff_vonmises	-0.0708009913813896	-4.05659799149574	1.8638774773069187	2.172099889821688	0.16196440145029775	2.969143993310801	0.5216798650307504	-0.3749733124410687	0.896653177471819	93.37525335977764
14	5.0	wm	178	diff_vonmises	-0.21840669960945955	-12.513782105003598	0.39515207147496817	112.29121021941229	0.37777342341593084	113.29404500760651	0.13213899340346558	-0.34753358440874926	0.47967257781221484	133.2975272768951
15	6.0	ltm	178	diff_vonmises	0.3033959587672555	17.38330795868889	0.569043088058108	97.20337201362231	0.5568622332814503	97.64195055826734	0.11030607059761621	-0.16326363611767825	0.27356970671529446	116.1317078632413
16	6.0	perception	178	diff_vonmises	-0.15045174256753424	-8.620249869508465	0.8706107167140177	224.64528619565004	0.8578228405707053	225.35186955089145	0.3255574289930223	-0.2838997485838419	0.6094571775768642	95.52491980913484
17	6.0	wm	178	diff_vonmises	0.25840693787428953	14.805626937096054	0.00018096818384980752	7728.220159434792	1.2897392707365442e-33	7728.863522974506	0.12020235131080881	-0.3249711861974447	0.4451735375082535	177.8238871555173
18	7.0	ltm	178	diff_vonmises	-0.018735572151908936	-1.0734692110672197	1.2424399182893968	144.8580262101278	1.2272425999079788	145.74461654962576	0.06390217722583458	-0.23118113123326012	0.2950833084590947	73.92455648773577
19	7.0	perception	178	diff_vonmises	-0.13015819998408626	-7.457515528107882	0.6621428578567428	127.03521299797247	0.6378125803687305	127.86539351350227	0.36099337829003275	-0.36660306999679726	0.72759644828683	110.1759574866696
20	7.0	wm	178	diff_vonmises	-0.4270133108616071	-24.46606050827792	0.8473276961103268	91.24149451998923	0.8325066346247466	92.257398357295	-0.05668617204585047	-0.20745226683541063	0.15076609478956016	83.08480789610056
0	1.0	ltm	179	diff_vonmises	-0.05670215404513744	-3.2487941160870237	6.595872749128067	0.3743201271231089	0.20393329950350078	2.6835027600372547	-0.14266332220797578	-0.4541865586201772	0.3115232364122014	48.34353065649208
1	1.0	perception	179	diff_vonmises	-0.025226931542578983	-1.4453967074552272	15.382615341794049	0.6365217198609984	5.868981267735463e-14	2.9017518934593887	0.5253238584048943	-0.4618281574702584	0.9871520158751527	34.54654337083511
2	1.0	wm	179	diff_vonmises	0.00820728385989387	0.47024272643775844	7.654353956326813	0.38096544678935856	0.14580438483977237	3.2122769431483467	-0.17531813329637003	-0.5381150242533549	0.36279689095698486	45.99541032011041
3	2.0	ltm	179	diff_vonmises	0.02884260101864532	1.6525593085481058	2.8925231941128215	1.2450324874037986	0.6853558468176344	2.2981190580334245	0.15103862137887492	-0.2960470007981165	0.44708562217699144	64.71381915931025
4	2.0	perception	179	diff_vonmises	-0.035939117395621216	-2.0591597461942945	6.931871058965786	1.2146847281969808	0.301255707263332	2.4608534149513304	0.733548442540538	-0.41242790580810407	1.145976348348642	49.371554861579654
5	2.0	wm	179	diff_vonmises	0.08197372217233884	4.6967483114529935	4.60751624055468	0.507551180796104	4.978604550323947e-14	1.8351262139423086	0.12918250435449224	-0.2920274747361584	0.42120997909065067	63.67285717112256
6	3.0	ltm	179	diff_vonmises	-0.1071862129835011	-6.141317625944961	2.704165235383699	0.9069581399903056	0.4774934744204643	1.1675018580939729	0.2764245437865873	-0.1389101709598616	0.4153347147464489	73.6648057452235
7	3.0	perception	179	diff_vonmises	-0.05579218652654948	-3.1966568177779413	5.228185846992662	1.4620863674323932	0.2660475907992328	1.8577413784132621	0.919202669057078	-0.2870791751715544	1.2062818442286325	57.40738321894378
8	3.0	wm	179	diff_vonmises	-0.18844180896342397	-10.79692033741472	1.7228529155289385	146.87837399531517	1.703844708948815	147.37272182566784	0.23456538570681573	-0.20765075047258108	0.4422161361793968	66.77105620545382
9	4.0	ltm	179	diff_vonmises	-0.1707969361230736	-9.78594359361763	1.2726718253033997	161.80409887174915	1.252406209302957	162.80209728654947	0.21180454724302678	-0.3040274912895349	0.5158320385325617	75.95537940306698
10	4.0	perception	179	diff_vonmises	-0.08596657443868468	-4.925521894533856	3.812301159396831	1.8252541860811757	2.6613569448362444e-15	3.303719298978377	0.8410988745090207	-0.5251358089151774	1.366234683424198	70.16895190036556
11	4.0	wm	179	diff_vonmises	-0.19878964948498548	-11.389807926374647	1.0587700687569537	175.95986651176423	1.0404598926778064	177.46799535007904	0.07972559468833396	-0.369852772752445	0.44957836744077895	79.89384000896726
12	5.0	ltm	179	diff_vonmises	-0.029750830643115227	-1.7045970328589832	3.041007533645433	0.9321111273347811	5.33333356236551e-20	1.3415127026400488	0.4016977819586033	-0.2121033976616615	0.6138011796202648	78.78908837173958
13	5.0	perception	179	diff_vonmises	-0.04949667765343933	-2.835950729461569	1.8938015721508163	2.3225815432346133	0.17274321717450802	2.9457788240188285	0.606119363574892	-0.3669738933317941	0.9730932569066861	92.83090347668329
14	5.0	wm	179	diff_vonmises	-0.19582865572092126	-11.220155480529211	0.43513946945226706	147.45419572280807	0.4214148836103122	148.03663784278234	0.23824998840176903	-0.3007834367724058	0.5390334251741749	131.14006503599916
15	6.0	ltm	179	diff_vonmises	0.05420583254565232	3.105765429858757	1.8714460430938678	0.6311240535417286	1.257921323336454e-08	0.7692538138854254	0.19030865887623263	-0.11502311261489648	0.3053317714911291	100.09093065142986
16	6.0	perception	179	diff_vonmises	-0.16460804489483008	-9.43134624637374	0.7550956017441004	126.30582123859229	0.7391849188139075	126.78278360474096	0.24430512809180982	-0.21368907536427706	0.4579942034560869	103.22409235029501
17	6.0	wm	179	diff_vonmises	0.39556662917237484	22.664298367793588	0.0002983594177571423	3361.434817852891	1.767545848658591e-32	3361.424388768609	0.16128800123897236	-0.15794451032797951	0.31923251156695187	175.16593141522202
18	7.0	ltm	179	diff_vonmises	-0.1382481206670023	-7.921033839834562	1.0007295030247936	109.1802020738506	0.9846225203340166	109.7797077933106	0.1297683867775774	-0.17943793201446567	0.3092063187920431	86.28860282740908
19	7.0	perception	179	diff_vonmises	-0.16991570138442746	-9.735452562332894	0.8631215463905872	14.442363596504329	0.6465032117252131	15.117530765672017	0.4114593284804764	-0.3313543170734127	0.7428136455538891	103.36768836358425
20	7.0	wm	179	diff_vonmises	-0.09021374859770327	-5.168867048702646	1.00622471630367	56.70482902378338	0.9847601586939084	57.13459912174788	0.08472048042915858	-0.12567875534554496	0.21039923577470354	85.83141167439132
0	1.0	ltm	180	diff_vonmises	-0.038755622197227314	-2.2205335843046554	5.833656069280532	0.5166101487741087	0.1694169233149922	3.8239035478681975	-0.2297157161764446	-0.6324831610891998	0.4027674449127552	51.428925591341056
1	1.0	perception	180	diff_vonmises	-0.008550426969685741	-0.4899033783978269	14.579417946297701	0.6759351125034309	0.027061839680188677	3.996440186504597	0.36660059945029555	-0.6440512313098935	1.010651830760189	35.300109509776036
2	1.0	wm	180	diff_vonmises	0.027412486567523528	1.570619786278159	7.2639709070715766	0.3804728044570711	0.05434740825264657	4.3557969422814695	-0.3299596352726569	-0.7028196570663273	0.3728600217936704	48.50099519591001
3	2.0	ltm	180	diff_vonmises	-0.021552485467236385	-1.2348664552896869	2.611716879176486	1.517062470593555	0.4867409181960277	3.1027012613375686	0.15938624965462134	-0.40170579646223487	0.5610920461168563	69.84773481205573
4	2.0	perception	180	diff_vonmises	-0.02817544356154607	-1.6143340019856387	4.982522614367256	1.4128445521527127	0.3001902672995674	3.3034349010557404	0.5286021647880663	-0.5253521211701624	1.0539542859582287	56.818802115386205
5	2.0	wm	180	diff_vonmises	0.09177768328827236	5.258473905906354	4.435947702453615	0.633454701709036	9.351381105064411e-15	2.4024592838494594	0.13276497205750515	-0.3822910037142812	0.5150559757717863	64.92275683309995
6	3.0	ltm	180	diff_vonmises	-0.1484186413315327	-8.503761749362745	2.5568101666280914	1.2351187091859335	0.26178325234377525	2.0986400590020287	0.310901700847435	-0.27740241128064025	0.5883041121280752	77.62683778589931
7	3.0	perception	180	diff_vonmises	-0.02926244324252605	-1.6766144960378584	3.8056414782708137	2.4483838322396325	0.4673976236466448	3.5744732611107293	0.9714582928456076	-0.5060940398298697	1.4775523326754771	63.60126880336131
8	3.0	wm	180	diff_vonmises	-0.2158494611687286	-12.3672631351411	1.3699303075085023	215.41224679749283	1.3525881331258578	216.52692051238716	0.21796048144371127	-0.34060740887343854	0.5585678903171498	72.7237410839102
9	4.0	ltm	180	diff_vonmises	-0.13370039193140626	-7.660468176914544	2.1451663471067373	2.0064689233074366	0.37899198879482604	3.514832752140674	0.2910910171708453	-0.4184143739134852	0.7095053910843305	79.31120503777186
10	4.0	perception	180	diff_vonmises	-0.08448113105486796	-4.840412257935526	3.333184976931179	2.1642447442605466	0.14058398836114738	4.142420164893998	0.7493277161389543	-0.6103004958529451	1.3596282119918994	71.34609304291573
11	4.0	wm	180	diff_vonmises	-0.21832836733653835	-12.509293996365546	3.1620880400432143	0.8939298595348728	1.0970186215180754e-13	2.9643624922499727	0.13137266214750554	-0.47071155332380893	0.6020842154713144	77.22925415847396
12	5.0	ltm	180	diff_vonmises	-0.015203313903855225	-0.8710857213034678	2.2759158298894073	1.3567845563050598	8.4049176953758e-18	2.065072320392752	0.42774582006049666	-0.3206878398195738	0.7484336598800705	91.1402887920625
13	5.0	perception	180	diff_vonmises	-0.0260217053608498	-1.4909338929096425	2.217709803593074	2.0569457082870257	0.04168409586563531	3.141477481682724	0.6080409631133534	-0.4659794205872874	1.0740203837006408	90.50593074115022
14	5.0	wm	180	diff_vonmises	-0.13580238561885025	-7.7809035437682255	0.35752694240375743	246.14911003262802	0.3473640795360722	247.226474259489	0.2183445027269002	-0.4360572725808396	0.6544017753077398	138.24528175331722
15	6.0	ltm	180	diff_vonmises	0.07232292899498594	4.1437985934370225	1.2046104698347138	1.1212210358602839	2.1427306855603317e-18	1.4368089963613548	0.19737414362604006	-0.19037938837366264	0.3877535319997027	120.48100755362202
16	6.0	perception	180	diff_vonmises	-0.057143391815080644	-3.274075178066534	0.6999658909141652	126.99666215873681	0.6813272545855851	127.82429140206828	0.21839490500388337	-0.2857320284600533	0.5041269334639367	104.95537487283556
17	6.0	wm	180	diff_vonmises	0.4988673148046028	28.58299167532795	0.0005171018342545798	1774.6455902190507	2.8105600464457166e-23	1774.8659076890142	0.1110025059039117	-0.18109397678671257	0.29209648269062427	172.50107222377534
18	7.0	ltm	180	diff_vonmises	-0.050813490111385265	-2.911398525712119	0.5879646114141307	148.7421770926173	0.5751065249192521	149.61505078012596	0.1336143776203116	-0.27245271208303556	0.40606708970334715	112.53325295126456
19	7.0	perception	180	diff_vonmises	-0.14703685076273423	-8.42459098159961	0.7672783391129512	207.42266527783315	0.7490526437046233	208.34411563692615	0.45091675602021297	-0.40056803971543076	0.8514847957356437	102.30861026585235
20	7.0	wm	180	diff_vonmises	-0.08188413013804356	-4.691615066009883	1.1567980791059294	109.55660599394923	1.135378152111992	110.16053600738175	0.21505081755955047	-0.20993539411180784	0.4249862116713583	81.72245160849306
0	1.0	ltm	181	diff_vonmises	-0.06312283787493456	-3.6166722011222925	4.658597192897452	0.37049690628142934	0.025700808694803665	3.7328490693100114	-0.3001527095941781	-0.5910903552324045	0.2909376456382264	61.209377386560334
1	1.0	perception	181	diff_vonmises	0.02803639124704786	1.6063668912333653	13.526596503723038	0.6216871888394545	3.536359450956043e-17	3.6964200519834503	0.3148528135973079	-0.5883035230155562	0.9031563366128641	36.85375126598629
2	1.0	wm	181	diff_vonmises	0.04694170308386016	2.6895614698614283	7.470605716334522	0.35149810466255155	4.937583958719747e-23	4.134114234609031	-0.281588803826199	-0.6579645936120551	0.37637578978585606	49.760427287011936
3	2.0	ltm	181	diff_vonmises	0.025163930696722726	1.4417870248819094	3.9866920616639425	0.8475032371856466	0.2812801795357737	2.583436398535871	0.11624485378649152	-0.39989600241663475	0.5161408562031262	61.46297892894708
4	2.0	perception	181	diff_vonmises	0.008607233000995461	0.49315812424276184	5.399180405398023	1.4177324112079797	0.2682590735720451	3.401519768962682	0.5849588044584432	-0.5470775550769441	1.1320363595353873	55.154899416895574
5	2.0	wm	181	diff_vonmises	0.08763606305474106	5.021176546179023	3.763027928334644	0.6539163978209587	2.779208255281557e-12	2.532155885748918	0.08321287588913973	-0.4027431226149874	0.48595599850412713	70.64077152264343
6	3.0	ltm	181	diff_vonmises	-0.02837097716216869	-1.6255372520543112	3.8920671365614727	0.6041384865188577	1.199000604401712e-16	1.6008538711335716	0.2027777369095119	-0.25459329790892243	0.45737103481843433	69.43241753445034
7	3.0	perception	181	diff_vonmises	-0.02333460938065798	-1.3369746340980821	4.376625859685573	1.8707567231204478	0.23703081135373202	2.9601577658777436	0.9214096103731328	-0.44655857583892383	1.3679681862120567	62.11174785742472
8	3.0	wm	181	diff_vonmises	-0.13299958306792395	-7.620314786791647	1.25363389950992	225.87769259163915	1.2377464097121498	227.09269161182831	0.18910508900243883	-0.3478038381363291	0.5369089271387679	75.53733482288794
9	4.0	ltm	181	diff_vonmises	-0.13856049946855076	-7.938931826772644	2.39699361655334	1.1786480784438127	0.15498636424758655	3.1494755498493814	0.09584619601758426	-0.44559049098365466	0.5414366870012389	80.1209301552916
10	4.0	perception	181	diff_vonmises	-0.05377428722204576	-3.081039704147494	2.1945739910864748	3.1945800601517416	0.33481788612552565	5.528004744450694	0.5467651324652203	-0.6751048306089595	1.2218699630741798	80.11518725783955
11	4.0	wm	181	diff_vonmises	-0.1551799862764974	-8.891158278541337	1.6627002163881806	2.308616066884411	0.3776793224587605	4.707565480137484	0.009463710343663223	-0.5260879433774382	0.5355516537211015	82.98802095198383
12	5.0	ltm	181	diff_vonmises	-0.018635538083844872	-1.0677376811596244	2.0411457849806873	1.2368746501802415	1.5591259989282233e-17	2.100063016571119	0.31174479485897394	-0.3233384902952637	0.6350832851542376	96.08087393187972
13	5.0	perception	181	diff_vonmises	-0.020715177308109456	-1.1868922316198456	2.270182619711278	1.887677467935407	2.424594009914871e-09	3.02009214070087	0.5701374811022505	-0.4694508000381826	1.0395882811404331	91.25322132087146
14	5.0	wm	181	diff_vonmises	-0.056680355892423435	-3.2475451739353294	0.4368502185605653	241.65298318102467	0.426593532297165	242.76696924156892	0.19803277992264157	-0.40688430190926184	0.6049170818319034	129.09223530531938
15	6.0	ltm	181	diff_vonmises	0.3018443572588507	17.29440774077116	0.7016836355265105	120.33610709707143	0.6880157487700812	120.86746282102762	0.1634232774603035	-0.1941030688727139	0.3575263463330174	105.2187573280905
16	6.0	perception	181	diff_vonmises	-0.09123699480977801	-5.227494738057277	0.6570795577700874	171.9486824288825	0.6427462931839601	172.79065054716256	0.2380007184645052	-0.30630967822653155	0.5443103966910368	108.5588351955926
17	6.0	wm	181	diff_vonmises	0.2518032270838703	14.427262179680033	0.2543788960167035	108.22429268981011	0.24228633662518426	108.74090739749583	0.12728142061101266	-0.24331524847245767	0.37059666908347033	149.7602361039132
18	7.0	ltm	181	diff_vonmises	0.030327393606873376	1.7376316573058794	0.6090593848461101	162.4752970535535	0.5963535316147278	163.73214355023276	0.05792854866741237	-0.3159066363662024	0.3738351850336148	106.74653802022414
19	7.0	perception	181	diff_vonmises	-0.11093077964870539	-6.355865491966544	0.8383597386738931	202.50343235804803	0.8183874768284652	203.3117337246497	0.523811591458184	-0.39335267396075224	0.9171642654189363	98.72523694701034
20	7.0	wm	181	diff_vonmises	-0.1263682248564158	-7.2403659488328085	1.0201691772129897	125.0445943822436	0.9984442410632227	126.0843529796319	0.15848356517435036	-0.28789997623132635	0.4463835414056767	84.34068568576203
0	1.0	ltm	182	diff_vonmises	-0.001499675106807262	-0.08592505426088706	6.18732192159698	0.522132378848819	0.11472826333215944	3.044625753319785	-0.034949178775933176	-0.49368553284623606	0.4587363540703029	51.96785042359858
1	1.0	perception	182	diff_vonmises	-0.0031577985543808596	-0.18092852971853585	17.087059071205815	0.6376172188618084	2.0292610049069223e-19	2.851492937949043	0.5896660290021378	-0.45382919626621987	1.0434952252683578	32.758212047399496
2	1.0	wm	182	diff_vonmises	0.05404168148889902	3.0963602671041808	5.249073655633384	0.41351290492333914	2.1493200740933677e-14	3.3522875433418964	-0.16556949332290338	-0.5335229818357857	0.36795348851288234	59.5592125402726
3	2.0	ltm	182	diff_vonmises	0.10502896632905878	6.017716497276699	3.0146748450814185	1.4729601753232662	0.7757144063719639	2.5355464097153098	0.20926738171543469	-0.3232977057417884	0.5325650874572231	63.192934291808086
4	2.0	perception	182	diff_vonmises	-0.006217251732669367	-0.3562222844523531	5.009642675517467	1.3657546258410478	0.34420490516204216	2.5275581733708137	0.6342917214360037	-0.39808364762111803	1.0323753690571218	56.9482218459915
5	2.0	wm	182	diff_vonmises	0.10546119396110196	6.042481316381707	4.274822773101894	0.5761391073949671	7.38789264986193e-17	1.92138936618573	0.15346545449003618	-0.305709695201219	0.45917514969125517	66.16298703355102
6	3.0	ltm	182	diff_vonmises	0.07677390393214287	4.3988206720546215	4.120649235444459	0.6485495217448854	0.2992856423211376	1.2769170138417016	0.2386377290800581	-0.19261423745482123	0.4312519665348793	62.29818712391304
7	3.0	perception	182	diff_vonmises	-0.0580165082241586	-3.3241010633303185	5.196426940186867	1.3082740810587075	1.0521413122646885e-12	1.8830378255442608	0.8581663883646592	-0.2996592827656776	1.1578256711303367	59.87123254444424
8	3.0	wm	182	diff_vonmises	-0.06975881481559196	-3.9968856727680975	2.178727435039355	2.2986658338072314	0.8212448226397092	3.250291609447425	0.2484235148682541	-0.3019531385911645	0.5503766534594186	71.1784362200861
9	4.0	ltm	182	diff_vonmises	-0.1261796982560482	-7.229564170305795	1.9129695695915696	1.9037443422368132	0.47475409613982744	3.226353154874137	0.17512517242097014	-0.34665425869316624	0.5217794311141364	79.58601453825699
10	4.0	perception	182	diff_vonmises	-0.020082834833752155	-1.1506616766323128	2.4633196998294777	2.2362987565331	5.354443633462563e-16	4.1241914801886015	0.6501827443755446	-0.6469115956535249	1.2970943400290693	87.63731623032788
11	4.0	wm	182	diff_vonmises	-0.15599296427408857	-8.937738486640306	1.1010927948687572	266.2603776807046	1.0835811399461652	268.3157578507808	0.13904370061369775	-0.5171567877769228	0.6562004883906205	78.72279640633425
12	5.0	ltm	182	diff_vonmises	-0.006028522686269947	-0.34540890662213763	2.0370627077319443	1.11413740960807	4.2652982424874683e-14	1.432722033137443	0.35313037110678247	-0.21814030818082836	0.5712706792876108	96.17750642173135
13	5.0	perception	182	diff_vonmises	-0.013941452515085061	-0.7987863893964207	2.2124301281677288	1.8685170801178475	2.114161976302844e-19	2.577039531906499	0.6141073566911086	-0.3978818743019202	1.0119892309930287	92.41153903728076
14	5.0	wm	182	diff_vonmises	0.060418161841184835	3.4617056794382504	0.45455138523978084	100.4739543065705	0.43329035023491047	101.0479424499712	0.2608872423160733	-0.3092975599026353	0.5701848022187086	129.9408584888323
15	6.0	ltm	182	diff_vonmises	0.304876061563989	17.468111602187225	0.9409187593440183	66.58128657431118	0.9224192249164636	66.66731301306328	0.20603741168534384	-0.0996168974827718	0.30565430916811565	95.86181262306627
16	6.0	perception	182	diff_vonmises	-0.16823093701593253	-9.63892267454411	0.5582661522286178	71.97051004559631	0.5279751552621748	72.49009749383607	0.27902465782027974	-0.2821487201353694	0.5611733779556491	120.47670767629295
17	6.0	wm	182	diff_vonmises	0.24009190175907308	13.756252666064473	0.37890367289333493	121.73307504536952	0.36829769408904534	121.79799992276835	0.22100791251682494	-0.1686135395676125	0.38962145208443744	138.4263050817283
18	7.0	ltm	182	diff_vonmises	-0.011263287668616269	-0.6453388468534568	0.3428542108394973	58.23925408777328	0.31503664369780854	59.11094612515903	0.10668163817228482	-0.30873550810431993	0.41541714627660475	140.37011418051884
19	7.0	perception	182	diff_vonmises	-0.06506727386332332	-3.7280801767903173	0.9699596334185655	226.66915353924605	0.9530493929056638	227.43924483896205	0.4710131099596282	-0.3452464340687804	0.8162595440284086	91.37313721585457
20	7.0	wm	182	diff_vonmises	0.11239744252784414	6.4398990849097	0.9251353942887802	127.3956284904525	0.9058430948603131	128.37581162245218	0.15028156074725985	-0.27205380537686885	0.4223353661241287	88.79322579809394
0	1.0	ltm	183	diff_vonmises	0.035419640625345056	2.0293959197023836	9.338586749032338	0.5100378233852891	0.2481546239555386	3.121667761707706	-0.014037927187664612	-0.5531963310351897	0.5391584038475251	41.61862640360215
1	1.0	perception	183	diff_vonmises	0.020804001404498604	1.191981477462007	17.653450856759108	0.6231639925222087	0.0045801419710898485	2.9415796463109687	0.5665372099297956	-0.46908893136016194	1.0356261412899577	32.20002327370412
2	1.0	wm	183	diff_vonmises	0.16552362689368869	9.48380523070649	3.6196142428395346	0.6858984416591012	0.158721073465868	3.966185486568622	-0.23606178851452148	-0.6199293672813756	0.3838675787668541	63.61396506868164
3	2.0	ltm	183	diff_vonmises	0.16574208650495334	9.496322044426023	4.629226590690268	0.8801334392328731	0.7966688966911911	1.6288382530090304	0.23871357802801152	-0.26108491249964555	0.49979849052765707	54.13277674230079
4	2.0	perception	183	diff_vonmises	-0.008978869004067492	-0.5144512987339	6.615790626852686	1.2758625150659408	0.42240399943464446	2.2770194204120853	0.7531448275418079	-0.38645446215879	1.1395992897005978	49.88861453537305
5	2.0	wm	183	diff_vonmises	0.07556018696275	4.329279812185002	2.1544557300432157	1.6371084785161931	0.4988404239181106	3.0665582396681534	0.12726142218715408	-0.3567181546376851	0.48397957682483916	74.72087381468467
6	3.0	ltm	183	diff_vonmises	0.10120657989509396	5.798709886942454	2.1357503905355997	83.43051673268987	2.105472405461322	83.71023257027355	0.2337110407228522	-0.16259989606739644	0.39631093679024865	60.83362740357819
7	3.0	perception	183	diff_vonmises	-0.07523366781421043	-4.310571643043478	5.758722243759094	1.0695570656744828	0.0051957807762548535	1.3405591847624398	0.7850196787249194	-0.21262504335270468	0.9976447220776241	56.74298412616238
8	3.0	wm	183	diff_vonmises	-0.008398449247486324	-0.48119569633578857	1.5940077893844986	90.0869863325577	1.5592168646664768	90.8392393756288	0.20575395618759984	-0.26024087723298805	0.4659948334205879	68.19506371226018
9	4.0	ltm	183	diff_vonmises	-0.14375889704760667	-8.236778068283574	1.300738188820114	226.88925834028743	1.286296249962447	228.04207096799772	0.14094422141086227	-0.3218501101167526	0.46279433152761484	73.3656280021529
10	4.0	perception	183	diff_vonmises	-0.059297627742123396	-3.3975038047615356	2.869855585259353	1.9861285423434054	2.4831667953407824e-13	3.398329773498742	0.7272868941580612	-0.5367824391382312	1.2640693332962925	81.14784305326822
11	4.0	wm	183	diff_vonmises	-0.07403460991574945	-4.241870686069839	1.1603969852617095	260.0137113608397	1.1456674467657282	261.85536212310484	0.03250703765499452	-0.44243633314616915	0.47494337080116367	74.73487966492166
12	5.0	ltm	183	diff_vonmises	-0.0782716284836404	-4.484633967728555	3.035489350747003	0.7111596078809092	2.644545343418284e-14	1.319966067891302	0.25877934734386593	-0.20899633616564306	0.467775683509509	78.86395780215992
13	5.0	perception	183	diff_vonmises	-0.05097816762971326	-2.9208338524930015	1.2245034993223207	6.66452890478961	0.5911350221643301	7.62677949638916	0.5443324921898784	-0.4219158839384153	0.9662483761282937	94.46221693014033
14	5.0	wm	183	diff_vonmises	0.04009371098769989	2.297200424612499	0.9287920299406986	1.630563022719663	9.83142640768557e-14	2.525887192418494	0.1331406135117214	-0.3184959312505966	0.451636544762318	131.58535762298226
15	6.0	ltm	183	diff_vonmises	0.17781774133137293	10.188206100836648	0.8766062919322858	62.927563033847655	0.856042834742348	63.358369240080904	0.11137120012510593	-0.13788556116727246	0.2492567612923784	93.29979546565545
16	6.0	perception	183	diff_vonmises	-0.22469427968854325	-12.874033906885625	0.5794031865202083	175.4161326998605	0.5631325289962756	176.28656952884265	0.31348223769195016	-0.374859548667974	0.6883417863599242	116.62729584956449
17	6.0	wm	183	diff_vonmises	0.41880685667664835	23.995865318712312	0.08723897675639426	55.171064924409436	0.05893793329677546	55.70797864186688	0.166673979750545	-0.3195937857609259	0.4862677655114709	166.93671664858914
18	7.0	ltm	183	diff_vonmises	-0.12173340680733781	-6.974810435809582	0.8206219135135601	118.16508063899175	0.8050628829664318	119.23888299245246	0.023975856249442984	-0.24718540297061864	0.2711612592200616	90.00145027026264
19	7.0	perception	183	diff_vonmises	-0.02378276079038725	-1.3626518184584073	1.5711717131302443	2.438977590570912	0.2727875537931144	3.6085495077689633	0.34596411097559976	-0.3908615224153496	0.7368256333909493	94.49533073112607
20	7.0	wm	183	diff_vonmises	0.08342401964311814	4.779844235567146	0.8337902405140084	100.94214655962003	0.8147059238054809	102.17828665025365	-0.01102992656026558	-0.27076047922602164	0.25973055266575606	87.57928815913914
0	1.0	ltm	184	diff_vonmises	-0.0017453979952617169	-0.10000393869909123	5.1890825019309155	0.36829367175397804	0.08595798688091043	3.646722156506284	-0.30559313571793895	-0.5859251834863511	0.2803320477684122	55.497325324214955
1	1.0	perception	184	diff_vonmises	0.049695885285765365	2.8473644860406444	14.231248810892502	0.6919251675681939	0.03526714265499973	3.48741088906345	0.45704836775761626	-0.5640533736012799	1.0211017413588963	35.693316762687886
2	1.0	wm	184	diff_vonmises	0.1125925759393782	6.4510794058325915	6.191448239037316	0.4806810425477468	0.0634784967402883	4.053126627582658	-0.2200682808192269	-0.6507251398583002	0.43065685903907325	52.44349245358734
3	2.0	ltm	184	diff_vonmises	0.05256814429141604	3.011932804732871	2.6051627457348996	1.2805955363811135	0.49715968740699124	2.7730910818878924	0.09040955503225778	-0.36300515333356825	0.45341470836582604	68.9346339541141
4	2.0	perception	184	diff_vonmises	0.013072098845353743	0.7489760932166061	6.336096009678534	1.423631644435984	0.3057345023639685	3.137868780792971	0.7364856005357611	-0.5205432166265543	1.2570288171623154	51.21735092781245
5	2.0	wm	184	diff_vonmises	0.08383326154900952	4.803292069574612	3.9551853318643975	0.7022537470296606	0.07057614606496151	2.261341074831849	0.15086590823340768	-0.35002932328962455	0.5008952315230322	66.32956105161091
6	3.0	ltm	184	diff_vonmises	0.09578622972179335	5.488146698529325	6.210080052303341	0.4924104431939959	0.033825950871810714	1.280697149222348	0.26793201321935595	-0.20281972725568284	0.47075174047503876	54.13474175051738
7	3.0	perception	184	diff_vonmises	-0.05272002232535007	-3.0206347750780354	6.420611219700883	1.0469054948408962	1.4844172248525977e-13	1.556686886368953	0.788206846553275	-0.24775166825759662	1.0359585148108716	53.739342579093915
8	3.0	wm	184	diff_vonmises	-0.026442095956689036	-1.5150204997982206	1.4700323837517004	172.5670103984821	1.4525716177510626	173.2215106803963	0.2532140554026796	-0.24304306371962525	0.49625711912230486	72.11200296035238
9	4.0	ltm	184	diff_vonmises	-0.28789520644683186	-16.495180271450995	0.8213144288794325	139.52456842563038	0.7981745421370049	141.48561552733293	0.02169820836601133	-0.4433231449327337	0.46502135329874505	89.5962804496043
10	4.0	perception	184	diff_vonmises	-0.008181484052992542	-0.4687645063900598	2.5580888125607903	1.8263867370936482	2.2539031344663056e-19	4.225352116562709	0.41842033424345293	-0.665940308887259	1.084360643130712	86.00486256840253
11	4.0	wm	184	diff_vonmises	-0.04063413820396007	-2.3281646232382114	1.0724459264339419	213.22536536733358	1.053912208048466	215.27457584421032	0.02189040463193237	-0.47787478230341307	0.49976518693534544	77.65804829603778
12	5.0	ltm	184	diff_vonmises	-0.07362593868347389	-4.218455549252039	2.511689882824681	0.9779808319374474	1.758407168867478e-16	1.8791591058192214	0.2788774334756549	-0.29527308229607657	0.5741505157717315	86.78897663818313
13	5.0	perception	184	diff_vonmises	-0.06516135392875588	-3.7334705674759174	1.275364058429176	5.664658153551868	0.5185806670194083	6.798787220132073	0.5248964969980505	-0.453152031557518	0.9780485285555685	94.75397320605046
14	5.0	wm	184	diff_vonmises	-0.0419908018616571	-2.405895725043032	0.5709593554881972	208.6168284547425	0.5595487016580414	209.33434985417546	0.2637998818610967	-0.313614682716576	0.5774145645776727	117.34595583158666
15	6.0	ltm	184	diff_vonmises	0.11725787150078391	6.718381151682254	1.1976704672343463	3.4626071897324886	0.7328021181521054	3.9031012037177395	0.17622596956473813	-0.16176727751417252	0.33799324707891065	90.10708400816156
16	6.0	perception	184	diff_vonmises	-0.2733517448944686	-15.6619013049898	0.943565918545493	1.899294990521093	7.236210942676884e-13	2.6011486392987577	0.21469078703558087	-0.3187344499489141	0.533425236984495	130.35122941593693
17	6.0	wm	184	diff_vonmises	0.45283158234417964	25.9453384985523	0.2818105424690205	114.24356519685557	0.2694284280414368	114.40477848547165	0.2183078286090634	-0.2098426359106078	0.4281504645196712	145.8150101997821
18	7.0	ltm	184	diff_vonmises	-0.06317536212499582	-3.6196816189728924	0.8035441916571731	164.37743912562047	0.7894396664707395	165.8250166282745	0.006115373865540619	-0.3236160901396161	0.32973146400515674	89.98626875423565
19	7.0	perception	184	diff_vonmises	-0.11377748057516539	-6.518969440588683	2.4949253609141815	1.5559241227786718	0.0067666418392396364	2.6026992485798597	0.498786801799958	-0.4051995015255976	0.9039863033255555	86.7867919353136
20	7.0	wm	184	diff_vonmises	-0.06189434733912751	-3.5462848782487835	0.9311607263598157	108.32226125528348	0.9101102378805289	109.31406461263869	0.11180680702808132	-0.26055598324586704	0.37236279027394836	87.53452517534623
0	1.0	ltm	185	diff_vonmises	-0.02541843265234208	-1.456368912816724	6.3453442988328534	0.2728575088871291	0.1128634660528383	0.9232415415049442	0.10431703871383843	-0.14839051141855386	0.2527075501323923	52.33481074854737
1	1.0	perception	185	diff_vonmises	-0.08310684329787804	-4.761671369623504	18.129882830339696	0.5114984618167067	1.916302133670322e-22	1.3366928805198337	0.6498432496441742	-0.21274127933047562	0.8625845289746498	31.796934908235386
2	1.0	wm	185	diff_vonmises	-0.1256124411819638	-7.197062734061819	15.098314211679865	0.21847311273750866	0.1183937534399908	1.1523885153647322	0.1300064161190325	-0.19569203145677577	0.32569844757580824	34.268861334336066
3	2.0	ltm	185	diff_vonmises	0.1087965101548893	6.233580857627359	3.3924414983719657	11.587954778080753	3.1282879794719247	11.743475900557574	0.2582100185324716	-0.16026507468443363	0.41847509321690524	49.25430538388585
4	2.0	perception	185	diff_vonmises	-0.049816067606687484	-2.8542504258015686	7.8873288636333045	1.0033351112995716	0.45262549455896806	1.3179111620646111	0.7915847409338954	-0.23001307920473496	1.0215978201386304	46.464572665524145
5	2.0	wm	185	diff_vonmises	-0.028789468999077233	-1.649515068069848	0.9832230591385074	58.70250075242324	0.9604947384123756	59.180428134549665	0.09322915047043878	-0.13950328651765176	0.23273243698809054	86.88308095152692
6	3.0	ltm	185	diff_vonmises	-0.0878100829223002	-5.031147150141588	2.9538039058017387	4.98653942790586	2.7943884270439883	4.797576520608633	0.2203261170294688	-0.017894982709392993	0.2382210997388618	61.174952330249425
7	3.0	perception	185	diff_vonmises	-0.07058259255469525	-4.044084660475545	4.205078095512462	1.9103394449947664	0.6074067549742631	1.9483460359463747	0.9891641086432155	-0.2681317943359775	1.257295902979193	61.33275714140157
8	3.0	wm	185	diff_vonmises	-0.26563304094934037	-15.219652145622973	1.9759702306574978	104.83322948145896	1.9564939983267435	105.08201240358686	0.19428166091466892	-0.13542876114295943	0.32971042205762835	63.227693302451286
9	4.0	ltm	185	diff_vonmises	-0.06130943354989896	-3.512771786746983	1.9859899761816144	116.50425839235494	1.9682984099605343	116.8075826324695	0.16811015432428178	-0.14365017350823095	0.31176032783251273	62.189129768561145
10	4.0	perception	185	diff_vonmises	-0.09050646732826884	-5.18563859654848	3.8798518520309844	1.840557577282373	5.667134317789613e-19	2.565963738707959	0.9833013241126729	-0.40779211861597264	1.3910934427286454	69.5407914417599
11	4.0	wm	185	diff_vonmises	-0.170804799290054	-9.786394119899214	1.2902439762315465	163.54991503310129	1.2738626891401421	164.58773858869998	0.08092769282455947	-0.2756442290520873	0.35657192187664677	72.63923830133902
12	5.0	ltm	185	diff_vonmises	0.029288731081844852	1.6781206782833438	2.2667111792979155	1.0233124101881323	0.4197661499713383	0.8857760817495891	0.36374587912902034	-0.090471726953286	0.4542176060823063	83.18760474667843
13	5.0	perception	185	diff_vonmises	-0.04789844629822162	-2.74437881812212	2.0458080155691674	1.7086057476168093	8.284808886749364e-18	1.8401379150353356	0.6006953911814705	-0.27793303906706135	0.8786284302485319	95.9763686871824
14	5.0	wm	185	diff_vonmises	-0.08965908047569232	-5.137086906280971	0.30587411989608565	3.3276470396883258	5.342620610137097e-18	3.5706460370434296	0.1342963261562783	-0.1872034052879719	0.3214997314442502	162.51228073865494
15	6.0	ltm	185	diff_vonmises	0.30184446976478363	17.294414186886286	0.6150493559425642	59.57015626685994	0.6023075948945912	59.50482487865679	0.16115402859242423	-0.07229848422939256	0.23345251282181678	119.44092101194312
16	6.0	perception	185	diff_vonmises	-0.15594187430518666	-8.934811247046772	1.065760172616085	174.98881237302825	1.0513466076964386	175.30901816479408	0.36192185252739506	-0.20128012780553917	0.5632019803329342	88.63558111472607
17	6.0	wm	185	diff_vonmises	-0.12034191253651104	-6.895083686874574	0.0003998323311450629	3069.6965233065334	4.674185603026086e-29	3069.8516957172797	0.17066377381996745	-0.22001763465561908	0.3906814084755865	179.5629510037021
18	7.0	ltm	185	diff_vonmises	-0.10781395725305054	-6.177284723203666	1.1971105713727541	72.82885485309565	1.178832767672455	72.97314004060605	0.1921850420630129	-0.09870967545470855	0.29089471751772145	83.93456423652697
19	7.0	perception	185	diff_vonmises	-0.1401860894022856	-8.032071269194603	0.7823577265027544	168.5255387316958	0.7639455625165975	168.99231345919532	0.4540138425982789	-0.30229161594709275	0.7563054585453717	103.33690742020913
20	7.0	wm	185	diff_vonmises	0.10356031150657184	5.9335687743866625	0.8879668759775202	23.127392764903668	0.8589133927514644	23.552256488542064	-0.0056675088784787775	-0.09283190627701998	0.0871643973985412	84.68246627293124
0	1.0	ltm	186	diff_vonmises	0.05244938887191299	3.0051286204010403	6.0665434198591	0.3877027947202241	0.08986516746241283	3.674864440645424	-0.2661743838175448	-0.5953107758782277	0.32913639206068285	51.88643807936759
1	1.0	perception	186	diff_vonmises	0.04326503209626913	2.478903739614266	14.840488730370948	0.5773249861732351	0.04881613506258365	3.3275073133838498	0.3233491963533509	-0.5427472702625044	0.8660964666158553	34.870305465632725
2	1.0	wm	186	diff_vonmises	0.05170819696449717	2.9626614522968624	2.6879740706311863	1.0663967219505073	0.2456686997337603	4.85740683877464	-0.31794078536049664	-0.7236130386682464	0.4056722533077498	68.3052357673804
3	2.0	ltm	186	diff_vonmises	0.08558235430719417	4.903507702595489	6.303025504186235	0.5980302990449137	0.30489141001144776	1.9669841266654948	0.171117191044451	-0.33264428583777433	0.5037614768822254	50.31146099759471
4	2.0	perception	186	diff_vonmises	0.020065638673702615	1.1496764092376426	6.322094472182936	1.3725290888346229	0.34615531495366253	3.1411627030873244	0.6611845742625806	-0.5270045747598975	1.188189149022478	50.8426587049249
5	2.0	wm	186	diff_vonmises	0.04117736371462537	2.3592891523231714	2.024341866319636	1.8656572460503311	0.47970503660953395	3.7304232985669117	0.06318410332765612	-0.4330407290893161	0.49622483241697224	75.47098236468386
6	3.0	ltm	186	diff_vonmises	0.03274590330120354	1.8762020555024728	2.86129051088887	1.044661897744407	0.6284481095233225	1.7767506003170082	0.18451099917040842	-0.2238033778734439	0.4083143770438523	66.9930359986698
7	3.0	perception	186	diff_vonmises	-0.06731316492274701	-3.85676025574146	6.070924078177969	1.2154610084285988	3.020375560482251e-19	1.9806913452716393	0.8526772984875263	-0.31523059118351143	1.1679078896710378	55.29733459311865
8	3.0	wm	186	diff_vonmises	-0.04243136020157315	-2.4311378585495116	1.3898453661902317	225.58118791506524	1.374182603548719	226.74176245505546	0.15589696246884444	-0.3353945634652362	0.49129152593408065	71.07922975422858
9	4.0	ltm	186	diff_vonmises	-0.2703949673018383	-15.492490427973232	0.8975197723894631	146.75247735264568	0.8760186918505888	148.68707127680602	-0.01421562621720085	-0.4271487625352961	0.41293313631809525	84.38714108455758
10	4.0	perception	186	diff_vonmises	-0.03121992632683754	-1.788770015237158	2.82221256905808	1.9439539697694237	0.08975336191700721	4.147055797780936	0.5088364866882392	-0.6120935133619899	1.1209300000502291	78.08453099117389
11	4.0	wm	186	diff_vonmises	0.02451046877657225	1.4043464147847724	0.9305709363616681	142.99490277866934	0.9073562830278725	145.4572508411342	-0.16651301190787393	-0.5031252370181605	0.33661222511028654	78.2407242721585
12	5.0	ltm	186	diff_vonmises	-0.06691319420713637	-3.833843621808143	2.671348061844834	0.9064339337947032	8.141370082688321e-21	1.8526691705241156	0.26045167055862056	-0.2922053574445354	0.552657028003156	84.14309263475758
13	5.0	perception	186	diff_vonmises	-0.07771071413691549	-4.452495942992879	1.4796738866874757	3.583202634288386	0.3565789537575932	4.86336186884438	0.46792525770839344	-0.46129275934597985	0.9292180170543733	94.25647196503246
14	5.0	wm	186	diff_vonmises	-0.07885028540660188	-4.517788567200275	0.4439334295972975	183.38861336222922	0.43076305532854214	184.61764191951028	0.15906168800616882	-0.4087917349181822	0.567853422924351	127.65316774096412
15	6.0	ltm	186	diff_vonmises	0.21793576036369663	12.486799273814308	0.720361564785842	110.15079290198584	0.7051087107929432	110.85837618681765	0.1183415237770582	-0.20971414949671008	0.3280556732737683	101.5198160835279
16	6.0	perception	186	diff_vonmises	-0.17504083741277515	-10.029101226187656	0.6779698062386617	26.07403712078564	0.5706975771267546	27.11810995994848	0.2589481653912076	-0.3683367302773526	0.6272848956685602	110.36623373952048
17	6.0	wm	186	diff_vonmises	0.44297016665947725	25.38032099979474	0.03885490004561787	146.00342360001378	0.02788148857825614	146.80179835737127	0.12853383238998362	-0.37420878720395834	0.502742619593942	170.56498243016574
18	7.0	ltm	186	diff_vonmises	-0.04082648554808628	-2.3391853142571932	0.959343103951251	211.90153933661193	0.9468442420904314	213.5177237440286	-0.033130219708255026	-0.3539365061823503	0.32080628647409526	80.47583409139392
19	7.0	perception	186	diff_vonmises	-0.0669132769028676	-3.833848359924526	0.7615494331213057	81.63303638413872	0.713787751797427	82.88165791852865	0.3854838558038445	-0.4460156469045051	0.8314995027083496	102.06194357570683
20	7.0	wm	186	diff_vonmises	-0.19670546666500455	-11.270393047056066	0.9045415600885922	170.83835703392884	0.8901883176320484	172.34663119474564	-0.01686557168326175	-0.3315985406147206	0.31473296893145886	83.62697279438586
0	1.0	ltm	187	diff_vonmises	0.2802435750788001	16.056774087672864	0.0004078449434038555	1781.4859155289778	4.258530115216481e-30	1783.053892346941	-0.13390231854987178	-0.3651766229357918	0.23127430438592	177.45720643905867
1	1.0	perception	187	diff_vonmises	0.019543943202139296	1.1197854605259772	10.984396118826963	0.6925502034938866	3.9841321153281845e-25	2.199923413645521	0.5546591098759466	-0.35012868544488024	0.9047877953208268	40.93183086291188
2	1.0	wm	187	diff_vonmises	-0.3217566435013632	-18.43529770292354	0.00025707393274742175	3544.944170183644	1.3181622881523393e-26	3546.526483893168	-0.10678798746880602	-0.396859468476805	0.29007148100799895	177.04697812479725
3	2.0	ltm	187	diff_vonmises	0.16168834078739885	9.26405952359092	6.200655437048945	0.38960367252877376	0.2379060852645968	1.3767012026643541	0.10445815936421077	-0.22843794104262685	0.3328961004068376	51.24606009614004
4	2.0	perception	187	diff_vonmises	-0.0007239788187441121	-0.04148093077090444	8.577053760979881	1.1074380563363977	0.13502782521266718	1.9164709753754559	0.9263980481811678	-0.3134959964418434	1.2398940446230111	45.67840254569694
5	2.0	wm	187	diff_vonmises	0.06045702371482032	3.463932300781534	1.9352821917924639	0.7726721218208676	3.01164759358979e-18	1.6122132643467468	0.1341361086750773	-0.24844532996550356	0.38258143864058086	98.53692581643736
6	3.0	ltm	187	diff_vonmises	0.20197498549497597	11.572314236078144	10.192277287931446	0.27864130928374325	0.058266939219704224	0.6695142774957782	0.2373723099840908	-0.10821845271004656	0.34559076269413735	42.185825209869705
7	3.0	perception	187	diff_vonmises	-0.0031184902645195437	-0.17867633060960555	5.323297544418014	1.2084450918872895	3.666557697276235e-11	1.3124428739799732	0.8744724687759885	-0.20885600559605633	1.0833284743720448	59.134830823747876
8	3.0	wm	187	diff_vonmises	-0.06182254981892106	-3.5421711833614484	1.5959122450251881	86.59597722519398	1.5717859232004707	86.73463529561317	0.2971599807926637	-0.13148702429394454	0.42864700508660825	73.10085143745312
9	4.0	ltm	187	diff_vonmises	0.24338572683033632	13.944974941102235	5.995926241058417	0.651847918096902	0.66526798625765	1.7533255865606379	0.13495352368417368	-0.31939172013928463	0.4543452438234583	48.39746587386543
10	4.0	perception	187	diff_vonmises	-0.03198309566527391	-1.8324963973833528	2.993255634349743	1.7596324225852393	2.0650966859397094e-17	3.452114834776462	0.601570934505923	-0.5465292975905881	1.1481002320965112	79.42617781534946
11	4.0	wm	187	diff_vonmises	-0.09150384643255013	-5.242784209798337	1.3837596746525465	289.66456748856876	1.3697608436546098	290.9083138281968	0.21690231003120175	-0.3735510787361136	0.5904533887673153	71.94521951855799
12	5.0	ltm	187	diff_vonmises	-0.0776762797741442	-4.4505229993358615	1.547547734108109	0.9665596449191286	8.983910384456417e-17	1.4618481114730766	0.19398696126023215	-0.21334388639108756	0.4073308476513197	108.98519395659149
13	5.0	perception	187	diff_vonmises	-0.008423454345008527	-0.48262838289012383	2.0386218489873147	1.883336131905619	2.4700045696128497e-14	2.293654222642446	0.6177563171055366	-0.34838142974688735	0.9661377468524239	96.14530285857381
14	5.0	wm	187	diff_vonmises	0.1353017596936576	7.752219791139854	0.779599183792048	105.6405726078103	0.7642868111626283	105.92210347092714	0.22532468759852975	-0.16063952992681862	0.3859642175253484	102.906178176617
15	6.0	ltm	187	diff_vonmises	0.3269496664092119	18.732835998458025	1.0665919145139964	110.05307737254155	1.0536776092619975	110.36604107678754	0.15718197235415232	-0.1251553510925607	0.28233732344671303	86.29019607049565
16	6.0	perception	187	diff_vonmises	-0.268813351012006	-15.4018704897567	0.6289019468865987	134.07445671682333	0.6143384593949806	134.42051322083356	0.27744366593894654	-0.22410708587657524	0.5015507518155218	114.41224827736491
17	6.0	wm	187	diff_vonmises	-0.06319499468303466	-3.6208064816895638	0.6212975016811446	128.93610205500661	0.6091916518009186	129.18230946340364	0.2300259362557071	-0.17785448055928832	0.40788041681499543	115.39671746820716
18	7.0	ltm	187	diff_vonmises	0.12051092045799487	6.904767127479876	2.0109077100839547	0.688386063111108	0.040777525390296075	1.4882210562781957	0.10968321444799486	-0.2209140418910723	0.33059725633906717	94.05793358807838
19	7.0	perception	187	diff_vonmises	-0.09882374098465846	-5.662183274114948	1.5040331985011859	5.108499032808778	0.6809533895956794	5.341102731587347	0.7158510219176113	-0.308699013167803	1.0245500350854142	89.25073358925633
20	7.0	wm	187	diff_vonmises	0.059774529261037934	3.424828249038717	0.7171633039621185	19.08874002397807	0.6387302239336328	19.700165001424416	0.11814892543925559	-0.19179191505742366	0.30994084049667925	104.77638860605853
0	1.0	ltm	188	diff_vonmises	-0.028609371230579928	-1.6391962260352282	7.44416650970868	0.2553819024653217	8.733772652195484e-20	1.8890821075740991	-0.02771355920166413	-0.3006566619413409	0.27294310273967676	49.8519433087952
1	1.0	perception	188	diff_vonmises	0.022104934142846082	1.2665194327997145	14.90641158535994	0.6362048531399345	1.0539143787763487e-19	2.212013574969676	0.6192394785157936	-0.35205289464268913	0.9712923731584828	35.090769025055494
2	1.0	wm	188	diff_vonmises	0.09267513636540356	5.309894179537	6.262726833084089	0.372513299710408	1.688713875861531e-22	2.212124020794702	0.011736891042918474	-0.35206915068993383	0.3638060417328523	54.42986623743431
3	2.0	ltm	188	diff_vonmises	0.20671520479932962	11.843908796184046	5.494306412019473	0.6256718212462289	0.6724958733340988	1.2800641556176993	0.21283676772756538	-0.21933704491142664	0.432173812638992	51.39230710054625
4	2.0	perception	188	diff_vonmises	-0.004642322682607541	-0.2659854968512625	7.779170707960954	1.1698745081404722	0.34168079381455024	1.8142036424789136	0.8845693023077749	-0.30972901076693626	1.1942983130747111	47.002183539905104
5	2.0	wm	188	diff_vonmises	0.086332041822728	4.946461633189225	2.412456019758059	0.8601631299193094	0.19180207724609893	1.7032006717940325	0.17102511419787902	-0.23205986068921686	0.4030849748870959	80.49478858048388
6	3.0	ltm	188	diff_vonmises	0.1490040554726451	8.537303508915763	2.3012336745621838	36.78593007343148	2.2374707192178596	37.02188797287333	0.21253145142812357	-0.1468692522127535	0.35940070364087706	58.79455460914295
7	3.0	perception	188	diff_vonmises	-0.03765108904793541	-2.157248496517936	5.555670844621429	1.0703796751117827	2.430368533755126e-10	1.118728851736567	0.8034888802811638	-0.17803656000926726	0.9815254402904311	57.85632619949709
8	3.0	wm	188	diff_vonmises	-0.0050212155024333014	-0.28769445631508933	1.6398580135608045	51.41309558419149	1.5954362331716412	51.69206392280215	0.26405379757267866	-0.15651568895137302	0.4205694865240517	70.72832474203918
9	4.0	ltm	188	diff_vonmises	0.04882979939879718	2.797741420021523	1.6458775967833636	139.3080706251999	1.6233489024897565	140.2340803281938	0.11241194349313588	-0.28458379225916985	0.39699573575230573	64.75818841630294
10	4.0	perception	188	diff_vonmises	-0.03948545917106229	-2.262350162637999	2.880530011500683	1.834320371858996	2.3385199077984746e-17	3.1936791750605193	0.6654729012748007	-0.5045948654527483	1.170067766727549	80.99422356331468
11	4.0	wm	188	diff_vonmises	-0.03599437609864046	-2.062325836658664	1.378728763822637	292.1521007716087	1.3656162440072324	293.4289415499644	0.1647125494908579	-0.36606194345505827	0.5307744929459162	71.2381147507482
12	5.0	ltm	188	diff_vonmises	-0.12708823658164267	-7.281619581888242	1.9529947104859844	0.7717536209019522	2.3138405002430225e-24	1.3156807778525723	0.18304191556857569	-0.20150044702297862	0.3845423625915543	98.09701213383708
13	5.0	perception	188	diff_vonmises	-0.03433542472891175	-1.967274924755762	1.4565538270607228	3.549217181076634	0.3838675310669113	4.18225142963762	0.5681767435404751	-0.36361024146587384	0.9317869850063489	96.10777803207353
14	5.0	wm	188	diff_vonmises	0.1920760082959259	11.00514462107634	1.884220910276022	0.7704706730815807	1.145265088126505e-16	1.2091324240108878	0.19093139499773584	-0.1835881329956729	0.3745195279934087	99.70766580075687
15	6.0	ltm	188	diff_vonmises	0.24466032585620334	14.018004085855901	1.0414288659105113	92.9706296591109	1.0264566909146131	93.37986022810013	0.12061552392987096	-0.133655394444391	0.25427091837426197	85.56235546042114
16	6.0	perception	188	diff_vonmises	-0.29558883724008767	-16.93599284503644	0.6317727860360073	110.77200634599784	0.6085663122645608	111.36659156091463	0.32858026889245195	-0.30666762538765013	0.6352478942801021	113.51454362109492
17	6.0	wm	188	diff_vonmises	0.09463073236010819	5.4219415764662635	0.4914108503421953	101.07810316045519	0.47425737800511125	101.5031895186382	0.22031030418281716	-0.2383166011474156	0.45862690533023276	126.25434598275689
18	7.0	ltm	188	diff_vonmises	-0.02414984243159154	-1.383684047236149	1.713389316826046	0.9792479888345702	0.2604778611478838	1.9124739845371288	0.07153777408331802	-0.22790487430273296	0.29944264838605095	88.65051730898688
19	7.0	perception	188	diff_vonmises	-0.035021323656449894	-2.006574038476247	2.0602004286616453	2.244663275682168	0.2538459010947278	3.0769496569884316	0.5577272438089391	-0.37086556906999457	0.9285928128789337	86.56152346987909
20	7.0	wm	188	diff_vonmises	0.1289677849149499	7.3893097687775935	0.7974476671845998	56.55877840820393	0.7665770924591646	57.45753626441001	0.06625005444586662	-0.225315315092951	0.2915653695388176	94.0893033997433
0	1.0	ltm	189	diff_vonmises	0.0010322741148482625	0.05914495008140827	5.735301001433051	0.4718828042322596	0.027900643213198056	2.9463508330052277	-0.04204289111167131	-0.46763371139982374	0.4255908202881524	55.84650228431727
1	1.0	perception	189	diff_vonmises	-0.02415030156591008	-1.3837103536948308	16.634410062552654	0.5644993967103764	1.1934268342595546e-17	3.0200733967368136	0.4304000614614134	-0.4806596095909914	0.9110596710524048	33.20817925915898
2	1.0	wm	189	diff_vonmises	-0.0342457138031413	-1.9621348673329038	4.649634346907014	0.4098583565486832	2.6365608779641837e-26	3.3439243600042126	-0.19034433881873375	-0.5321708142096064	0.3418264753908727	63.37404996088168
3	2.0	ltm	189	diff_vonmises	0.07277074356123726	4.169456478087706	3.8482120729130025	1.0315904651510002	0.5103525066738408	2.2284721050881333	0.22235333453962747	-0.33519185220365244	0.5575451867432799	60.39230234346104
4	2.0	perception	189	diff_vonmises	-0.007519952735221106	-0.4308615538660288	4.411553112326368	1.382694805899679	0.33433082315111645	2.812203419302123	0.5128374065282117	-0.43264261554368905	0.9454800220719008	59.93195438740793
5	2.0	wm	189	diff_vonmises	0.11251744484509169	6.446774711219774	3.318914734897627	0.6323602743004827	2.0762142702288366e-18	2.1078913461362934	0.10298623311488064	-0.3349068770196732	0.43789311013455384	75.34481687454348
6	3.0	ltm	189	diff_vonmises	-0.0504692725112131	-2.8916763099881324	1.254980749766665	126.29354758206705	1.2332723737732032	127.1038557522468	0.19081615051860723	-0.2520222399883725	0.4428383905069797	76.88883513745074
7	3.0	perception	189	diff_vonmises	-0.0366645879415238	-2.1007261466355645	3.1252531150310245	3.0095219494261447	0.5408284224095835	4.120021716732054	0.9693382764914029	-0.5235334923692941	1.492871768860697	68.25515752259392
8	3.0	wm	189	diff_vonmises	-0.17957218246735523	-10.288728173332572	1.173331643333006	86.55832336918286	1.131843448816162	87.97274088994232	0.14945351844899335	-0.37634120489162015	0.5257947233406135	77.58770041958905
9	4.0	ltm	189	diff_vonmises	-0.04264717851864356	-2.443503337259262	2.829680152558345	1.01820667792153	0.16467747436101712	2.305436948527073	0.2151833798464734	-0.3310507956429222	0.5462341754893956	75.39977781651905
10	4.0	perception	189	diff_vonmises	-0.05150171212829004	-2.950830742648744	1.8500714144906263	4.996704745480221	0.5486185976536283	6.835680199779162	0.709831328587283	-0.6384282991731745	1.3482596277604575	81.77819742327372
11	4.0	wm	189	diff_vonmises	-0.19264992990506674	-11.038027907051468	0.9093971372634153	204.16628068087329	0.8887289622147374	206.35542845130607	0.10193088521327809	-0.523623093288851	0.6255539785021291	86.41585466924295
12	5.0	ltm	189	diff_vonmises	0.045832211001592786	2.6259922561443263	0.7435139651701059	59.02989713311121	0.7012791972834118	59.42366841545728	0.3634172807985223	-0.25582660092085874	0.619243881719381	106.74964199306481
13	5.0	perception	189	diff_vonmises	-0.004648077127441439	-0.2663152022536857	2.2262785107297383	1.8884869354388258	6.65308049793302e-16	2.752658216035205	0.6009606202692837	-0.4259948394230683	1.026955459692352	92.13171168055072
14	5.0	wm	189	diff_vonmises	0.09150800008845407	5.243022196751182	0.24115427138290163	122.0229639755464	0.22464504304708832	123.00296283344765	0.1602634958319875	-0.4026110158430374	0.5628745116750249	152.12786798545287
15	6.0	ltm	189	diff_vonmises	0.3969653111466894	22.74443694180284	0.7252800242481815	125.65489456514814	0.7138010526986228	125.88927023025545	0.20781679313672186	-0.14856721958725494	0.3563840127239768	106.85157102591762
16	6.0	perception	189	diff_vonmises	-0.020212235392456913	-1.1580757825127301	0.7954927789039172	215.03885594431472	0.782056237360864	215.86024293803143	0.3051948350293401	-0.3089508658630429	0.614145700892383	99.29696475452397
17	6.0	wm	189	diff_vonmises	0.08245571752243194	4.7243646107582595	0.31746440455773706	97.59046582846399	0.30388305051084946	98.0600708171636	0.13886555289337466	-0.22801971696928547	0.3668852698626601	143.66081306284147
18	7.0	ltm	189	diff_vonmises	0.032393603325821516	1.85601675379052	0.4580856233728228	4.055497975642938	0.054403825569335346	4.8642446036987375	0.15213521145688924	-0.3449930737803922	0.4971282852372814	150.78285512259583
19	7.0	perception	189	diff_vonmises	-0.06755567028601274	-3.870654789565873	0.8759374347702561	272.9297579917573	0.8610310902395143	273.74782146478054	0.5179370145252165	-0.3857413480349159	0.9036783625601323	96.32412063315319
20	7.0	wm	189	diff_vonmises	0.02834899628871336	1.6242778407753098	1.0446736273520911	156.7910284546154	1.0260426374716995	157.81338129346827	0.1963941008680834	-0.2972609128629351	0.4936550137310185	83.99489750856495
0	1.0	ltm	190	diff_vonmises	0.22196422990502812	12.717613576429605	0.7010701415418642	59.57634362179036	0.6758482735151206	61.09289437772356	-0.13832625241394325	-0.2865558505187975	0.14822959810485425	87.22606483778534
1	1.0	perception	190	diff_vonmises	-0.0035596626625872202	-0.20395364705654892	13.979087696646557	0.5889940043003218	5.946518876757388e-19	2.010000706906152	0.5504362454643665	-0.3199015481216904	0.870337793586057	36.242666834997266
2	1.0	wm	190	diff_vonmises	0.02625561759810708	1.5043360768809473	7.97786950716531	0.303264363428878	0.07605770782551262	2.0815090281434196	-0.02101897298033062	-0.33825307622235984	0.3172341032420292	46.64631653339964
3	2.0	ltm	190	diff_vonmises	0.13265909991311423	7.600806539025751	7.073904434475445	0.4852428037206276	0.7044155512321643	1.1324179468519684	0.18182498586647322	-0.21461781814664957	0.3964428040131228	45.78465849141
4	2.0	perception	190	diff_vonmises	-0.009307268865902692	-0.5332672248097364	9.501113111621208	1.116268753951588	0.3373952897254584	1.7643453842951713	0.9707188049890556	-0.3114290806396972	1.2821478856287527	42.78907748532714
5	2.0	wm	190	diff_vonmises	-0.0039680044541509935	-0.2273499083119639	0.9726081439229739	114.7571490049014	0.9538980050171605	115.7049836144331	0.09176069905328177	-0.24385368508880312	0.3356143841420849	85.02980734167593
6	3.0	ltm	190	diff_vonmises	0.16958288660567872	9.71638368015101	2.650083925667681	51.89735542702486	2.6146547685574677	51.974679299796875	0.20040263895818455	-0.09742396446483248	0.29782660342301703	55.910672116433545
7	3.0	perception	190	diff_vonmises	-0.06219609653462948	-3.563573833622514	6.156007821651569	1.0268213646344255	5.206712168974532e-15	1.0054706939314573	0.8337082729512557	-0.16002116027810437	0.99372943322936	54.91047511842643
8	3.0	wm	190	diff_vonmises	-0.031717111180858897	-1.8172566090104094	2.078584647042299	94.31376748581089	2.0552131660436737	94.51751976551397	0.2313078834714375	-0.13691559197668113	0.3682234754481186	62.353579233397966
9	4.0	ltm	190	diff_vonmises	0.049841910773875876	2.8557311302107147	1.6720769654772447	130.36833690917163	1.6518793813159829	131.24863940437146	0.04032062683859294	-0.25515464549151545	0.2954752723301084	62.57139253123671
10	4.0	perception	190	diff_vonmises	-0.06969050008733906	-3.992971527160623	3.366349152798461	1.7739755054813748	3.632457881916331e-19	3.0066035732692944	0.7614684925135315	-0.47703860974777246	1.2385071022613041	74.79607832354341
11	4.0	wm	190	diff_vonmises	-0.03240462736678654	-1.856648384810995	1.4063002644844345	214.6033505864667	1.3913064769036312	215.88560300778926	0.04366853730691389	-0.33675442805715505	0.38042296536406894	68.12833130220037
12	5.0	ltm	190	diff_vonmises	-0.04883444414335866	-2.798007544281812	3.3416283864294116	0.5777402960358026	1.2095044296773376e-11	1.0168595762033512	0.2403231230091072	-0.16133482378571462	0.4016579467948218	75.08011617265117
13	5.0	perception	190	diff_vonmises	-0.061567565781490204	-3.527561674173455	1.5530111449729023	2.9432443107091157	0.34415479864593795	3.3862759857395353	0.5636431076808571	-0.3184116909944855	0.8820547986753426	95.59219867353826
14	5.0	wm	190	diff_vonmises	-0.03902736420062589	-2.2361032542158235	0.6569374139184512	24.049273974350093	0.5959879983294862	24.45226094836495	0.17135589808137652	-0.1795540487609748	0.35090994684235133	112.17885142732983
15	6.0	ltm	190	diff_vonmises	0.18197669617600623	10.426496660619623	0.9850878861944882	76.50185616977714	0.9697896227447044	76.81951742574425	0.11506582484517835	-0.11209327702988059	0.22715910187505894	88.85038958507135
16	6.0	perception	190	diff_vonmises	-0.2754407573877012	-15.781592904202128	0.8075867288035959	143.38159318624315	0.7910604578563885	143.77126120795066	0.3348508943765012	-0.22856590822459744	0.5634168026010986	101.32322765953498
17	6.0	wm	190	diff_vonmises	0.10915742446274575	6.254259724233419	0.08738845417824849	47.74534689484691	0.057853456334972846	48.0785419642811	0.176126871731336	-0.2660029736346381	0.4421298453659741	171.23651402205263
18	7.0	ltm	190	diff_vonmises	0.025704431600634018	1.4727554454990324	1.3240977717882891	120.95766616074036	1.3072460541992854	121.68173015368178	0.0807313531429017	-0.20096738936317138	0.2816987425060731	72.47632373612282
19	7.0	perception	190	diff_vonmises	-0.1097435564485353	-6.287842613256783	2.123085956508458	1.5437692307828854	1.2197522860565275e-15	2.120982742063981	0.48801167908870996	-0.32574287012602837	0.8137545492147383	94.26964006245355
20	7.0	wm	190	diff_vonmises	-0.20205611340897414	-11.57696252315094	0.6147790950983819	49.33014704046828	0.5977686645161078	50.048202702042445	-0.03146933905412297	-0.14888468663763632	0.11741534758351335	99.98625693925564
0	1.0	ltm	191	diff_vonmises	-0.15150563831426306	-8.680633647842814	0.13206333043235038	10.30959841174653	0.07279731601282886	12.742770982919613	-0.3139962037067996	-0.4516046366720301	0.1376084329652305	164.79236845540856
1	1.0	perception	191	diff_vonmises	0.031447654945458745	1.8018179039584972	11.544083757939646	0.6477712777213213	6.937791012426131e-19	2.8173326543649364	0.419675705099032	-0.44839241819481623	0.8680681232938483	39.91674829613834
2	1.0	wm	191	diff_vonmises	0.07308906719944736	4.187695079076393	12.384143798788742	0.25994272087108183	1.4362145489639448e-32	2.9382753478719628	-0.10655214321285611	-0.46764104577255794	0.36108890255970183	38.526018496392965
3	2.0	ltm	191	diff_vonmises	0.044761490835386865	2.5646445095811807	17.50770753407946	0.2726421964824985	0.12409794486026185	1.606294904970713	0.16323143241506582	-0.27545054016759585	0.4386819725826617	31.84495136282601
4	2.0	perception	191	diff_vonmises	0.008980066842911668	0.5145199298442081	10.0781863370254	1.1438230834701004	0.15840929476432838	2.5081728485968418	0.964491940362877	-0.42049958774829926	1.3849915281111762	42.011789161344126
5	2.0	wm	191	diff_vonmises	0.013773397173908263	0.789157527622359	2.1763229983502095	0.8405723396922526	0.11269962225293134	2.3554797920224813	0.03797725374288846	-0.3358073932710617	0.37378464701395014	85.13722251280055
6	3.0	ltm	191	diff_vonmises	0.15645439739685646	8.964176657102449	6.249607427189811	0.334965210477928	0.2323726219939925	0.7171903641292039	0.18472778612737087	-0.1166501797426168	0.30137796586998766	52.2012377414128
7	3.0	perception	191	diff_vonmises	-0.025137303190486317	-1.4402613811556049	5.5665247734828585	1.2293688996441863	0.04082094173292911	1.5207424305315818	0.8763224586964543	-0.23858671658844802	1.1149091752849023	57.39479859846398
8	3.0	wm	191	diff_vonmises	-0.08064070048493532	-4.620371794765365	1.70088367868789	111.50100961547444	1.6784101288496398	111.91127915543389	0.23018340596330233	-0.18247474752399917	0.4126581534873015	67.7518599477537
9	4.0	ltm	191	diff_vonmises	0.07947968658932374	4.5538505985907785	1.6935990809399801	3.142851545662287	0.8989109554645575	4.674956896268066	-0.04220043004822949	-0.3568372746964688	0.3146368446482393	69.09006597101117
10	4.0	perception	191	diff_vonmises	-0.07465157831471554	-4.27722037142354	3.490666332377586	1.7073775006991945	1.130059046687407e-11	3.5333982636549224	0.6554168159607284	-0.5612263162532003	1.2166431322139286	73.41900511917117
11	4.0	wm	191	diff_vonmises	-0.1250466506584573	-7.1646453249764	1.2339673598752499	257.8649933384066	1.219415627361151	259.5863870819257	0.03152629013609953	-0.42217741923716545	0.453703709373265	72.3864728421689
12	5.0	ltm	191	diff_vonmises	-0.05782623788077528	-3.313199375687949	2.7668609502083226	0.709746211399898	7.136858224113649e-13	1.4616182223242808	0.21112157671720763	-0.23087026880312342	0.44199184552033105	82.66477826127223
13	5.0	perception	191	diff_vonmises	-0.03650965291063529	-2.0918490232669242	1.7058517518858756	2.6432893449668255	0.23706825042830135	3.314731014205583	0.5786481219929669	-0.37296413026856096	0.9516122522615278	94.77581748071455
14	5.0	wm	191	diff_vonmises	-0.07806404304400731	-4.472740198149211	0.640609424992892	149.8898117960249	0.6275271987034112	150.58863697531012	0.18300681518267226	-0.24966335877280876	0.432670173955481	109.64959512688131
15	6.0	ltm	191	diff_vonmises	0.3174906785372311	18.190875914928093	0.8695857708824862	108.20603111398228	0.856905702531415	108.70621989930241	0.10439293701492147	-0.15034791958581906	0.25474085660074053	92.67408845374251
16	6.0	perception	191	diff_vonmises	-0.21812384346398328	-12.497575641658468	0.6754819576526142	180.7041599416985	0.6637397008801741	181.17725838970279	0.2724147651802795	-0.2391393430972233	0.5115541082775028	109.48038218704167
17	6.0	wm	191	diff_vonmises	0.05524065975856788	3.1650566616841047	0.27846166737765904	116.63957897100708	0.26568937050697733	117.18873245085021	0.1523556886492372	-0.2670693220991822	0.4194250107484194	148.07756346811422
18	7.0	ltm	191	diff_vonmises	0.11740196400743921	6.726637044173064	1.2360726308167522	139.67720832755631	1.2195015328985426	140.65069474187834	0.05315724011259704	-0.24855641728650113	0.30171365739909817	73.62520387707414
19	7.0	perception	191	diff_vonmises	-0.13959971210990085	-7.998474325138647	1.9129930222817493	1.8659017900879258	0.0722972953089746	2.2243792299931697	0.5569455891427812	-0.3084755911667552	0.8654211803095364	96.36530973652039
20	7.0	wm	191	diff_vonmises	-0.3253778906123134	-18.64277987895493	0.7850996054335101	66.76356919702131	0.764181222422769	67.56804866466167	0.027913064853109404	-0.1893568831289798	0.2172699479820892	92.93330671021184
0	1.0	ltm	192	diff_vonmises	-0.23288054338534306	-13.343072266693419	8.81334031471389	0.17040347140960732	5.881209357840549e-30	3.5552595012098327	-0.3670766824089368	-0.5658371191935475	0.1987604367846107	45.759992403358325
1	1.0	perception	192	diff_vonmises	0.07516372483954545	4.306564205788585	12.729453911009859	0.7258397336771083	0.020740758950950462	3.6370681356969174	0.4314934299543536	-0.5832908775127555	1.0147843074671092	37.828496024962504
2	1.0	wm	192	diff_vonmises	0.15686373246344099	8.98762982882445	10.958563325166045	0.35005561848563743	1.9512251918195687e-28	3.9426395255865403	-0.1706983941759636	-0.6274905691881526	0.456792175012189	40.9801404022958
3	2.0	ltm	192	diff_vonmises	0.05820808013807376	3.335077325470901	3.5061403476397084	0.7563980008345322	0.2665750961256787	2.416555584550362	0.04752020956762165	-0.36592652745276294	0.4134467370203846	64.64850939321337
4	2.0	perception	192	diff_vonmises	0.020383911630565594	1.1679121063990408	7.869176617482547	1.3522246772552362	0.22291509631353473	3.1811147960800876	0.862709070978549	-0.5336377531510218	1.3963468241295707	46.8369930985298
5	2.0	wm	192	diff_vonmises	0.081375199186763	4.662455470437929	3.8097509272837873	0.6671461572708579	1.8447646363537165e-17	2.3281234663288926	0.1288671156348022	-0.37028722698791067	0.49915434262271285	70.1980919790631
6	3.0	ltm	192	diff_vonmises	0.14635979696099538	8.385798656256688	7.83290747297538	0.39438953108596103	7.200638448964449e-20	1.1377229744450958	0.2517099089849314	-0.18107416719894504	0.43278407618387643	48.579648646791895
7	3.0	perception	192	diff_vonmises	-0.023810484781708094	-1.364240286152349	6.006580648591434	1.0716124350940373	6.33232156752206e-13	1.5149307635061444	0.7827282388291869	-0.24110250952582238	1.0238307483550093	55.60262938218267
8	3.0	wm	192	diff_vonmises	-0.014004918403855648	-0.8024227169660221	1.4720357329982718	172.06456274308283	1.4561521764257672	172.59223211165673	0.2571374522720191	-0.2126957644412606	0.4698332167132797	72.7410107166686
9	4.0	ltm	192	diff_vonmises	-0.23411456130180244	-13.413776285150067	0.7778108459092598	109.43485101387161	0.7507989333817559	111.5779938404848	-0.06620785245622329	-0.45151258096166025	0.38530472850543696	89.52541369933404
10	4.0	perception	192	diff_vonmises	-0.027932372402637785	-1.6004070504588401	2.8418858204460014	1.6780614354953778	4.705136569732819e-17	4.106934713974695	0.41179271917144855	-0.6500152378090945	1.0618079569805432	81.55451042751338
11	4.0	wm	192	diff_vonmises	-0.05389703467412626	-3.088072615097691	1.1359428543309968	267.39139584471314	1.1205631662772408	269.36143463043095	0.04939896730971327	-0.4744737579641338	0.5238727252738471	75.88867764574834
12	5.0	ltm	192	diff_vonmises	-0.1032861853090071	-5.917862500212234	2.432036188703233	0.8824634359635724	6.237845918438576e-15	1.9761359181807727	0.19720508534966108	-0.3105618448080717	0.5077669301577328	88.18964459972105
13	5.0	perception	192	diff_vonmises	-0.05536159763958368	-3.1719858918495656	0.8831427197459469	111.81332400267183	0.8412119749057838	112.96869154708668	0.5343613525597561	-0.46538327240454613	0.9997446249643023	95.65304221044642
14	5.0	wm	192	diff_vonmises	-0.024562169694986022	-1.4073086592068316	0.6430817711116411	209.98236416144982	0.6320325434591082	210.75958032949492	0.2294376260756863	-0.29034430560215796	0.5197819316778443	109.80619752101619
15	6.0	ltm	192	diff_vonmises	0.16556528339887558	9.486191972642965	1.0004862269686434	106.97313538623742	0.9836238143431449	107.59068311684715	0.13233164515768436	-0.18436940296554738	0.31670104812323174	86.28654364692443
16	6.0	perception	192	diff_vonmises	-0.30349240154074314	-17.388833722574265	0.3995286569758616	139.91952086938105	0.384822866864472	140.6428444985533	0.21376394494222595	-0.32947589350311013	0.5432398384453361	133.91503208748634
17	6.0	wm	192	diff_vonmises	0.31283558143575607	17.92415849778999	0.38852685874262266	130.87335836272095	0.3765518456518488	131.2874364637131	0.19367654941287782	-0.2385705667710134	0.4322471161838912	135.53545038851354
18	7.0	ltm	192	diff_vonmises	0.03556756462475993	2.0378713405575515	0.9085294408085255	153.37985255228833	0.8925543381504664	154.89886770009917	-0.02140687611999681	-0.33270038954577075	0.31129351342577394	83.29220144942707
19	7.0	perception	192	diff_vonmises	-0.11077779970636834	-6.347100386920475	2.461609533721784	1.6412577156216284	2.3405974758277542e-12	2.469105227343263	0.5655151062942609	-0.38599604624750394	0.9515111525417649	87.66384890150954
20	7.0	wm	192	diff_vonmises	-0.12464754368711801	-7.14177817994441	1.547036141513633	1.5260050918672043	0.38704185952145936	2.517351988985777	0.10497373409921196	-0.2537256132807691	0.35869934737998105	88.22919491211115
0	1.0	ltm	193	diff_vonmises	-0.09011359817467046	-5.163128852146416	7.582933916936515	0.20994284624642465	0.019941892486825315	1.788278469693229	-0.06374780494994234	-0.2852395352551389	0.22149173030519656	48.737084973057705
1	1.0	perception	193	diff_vonmises	-0.031206950521277317	-1.7880265563427746	13.538254255703581	0.5658382461714053	2.6058101952677477e-18	2.259689595565398	0.4629285853601094	-0.3596407689861265	0.8225693543462359	36.83419873925618
2	1.0	wm	193	diff_vonmises	-0.04880268110465728	-2.7961876562197125	9.268444237901196	0.21876679077887215	1.3658478796641489e-30	2.248355519179541	-0.09592641476801506	-0.3578368923733316	0.26191047760531655	44.60375823774706
3	2.0	ltm	193	diff_vonmises	0.09342895023509595	5.353084532808799	12.025920641151846	0.41188892911826036	0.6166230514750491	1.0264732135520636	0.2877311862566092	-0.21441878917580465	0.5021499754324139	36.8937034553818
4	2.0	perception	193	diff_vonmises	-0.018866107844988954	-1.0809483553565198	9.17644428081812	1.0425100368408775	0.27638553572723157	1.8715796391235822	0.8564614513316982	-0.3232165879137737	1.1796780392454718	43.593760130683535
5	2.0	wm	193	diff_vonmises	0.003863445360914327	0.22135911355978805	0.8008143171169596	100.53223832496562	0.7812742280912793	101.67625431102793	0.0318604498654409	-0.26592139701916473	0.2977818468846056	91.58052774542642
6	3.0	ltm	193	diff_vonmises	0.06613880520838182	3.7894744004781455	2.4426362323332245	64.44688326359943	2.417666520702961	64.49963621237548	0.19599043681098038	-0.08478271644418811	0.2807731532551685	58.756327420463464
7	3.0	perception	193	diff_vonmises	-0.03728362627120288	-2.136194430283004	3.5749822680404306	2.325930839918382	0.685424173698279	2.565872308855452	0.9581289531347174	-0.3233138647688807	1.281442817903598	64.54402834634902
8	3.0	wm	193	diff_vonmises	-0.18883045318078243	-10.819188010801524	1.6700779573292979	114.02975630347791	1.649985348173878	114.53800083312035	0.15378883331838722	-0.18415078211744884	0.33793961543583606	66.60959444737301
9	4.0	ltm	193	diff_vonmises	-0.02037414689470356	-1.167352628246086	1.580454154980102	157.93499902369194	1.5641769809353567	158.6830803282182	0.11045943492864296	-0.23099690804244233	0.3414563429710853	66.58243998788467
10	4.0	perception	193	diff_vonmises	-0.1060418080338463	-6.075748052275859	3.0787190568753835	2.411051866763954	0.2851898647325977	3.4069508810125186	0.8958361077046411	-0.46265185271307196	1.3584879604177131	72.3287879585991
11	4.0	wm	193	diff_vonmises	-0.18760581088557646	-10.749021175873008	1.185216893321578	221.1631130428056	1.1711315548270549	222.57707715097604	0.04872728996079445	-0.3485217561660505	0.397249046126845	74.54522624949033
12	5.0	ltm	193	diff_vonmises	-0.04502817497890321	-2.579924385467729	3.0177444800789477	0.6390683654231929	0.0033104717686486774	1.103534381658533	0.24372260259155387	-0.17404723063291339	0.41776983322446726	78.97260541829971
13	5.0	perception	193	diff_vonmises	-0.03268575202315189	-1.872755641137795	1.7892626988275875	2.35252994692142	0.1794518812979811	2.892633767850242	0.5878856982072457	-0.3507274592321162	0.9386131574393619	95.10594938798903
14	5.0	wm	193	diff_vonmises	-0.07784261673024837	-4.460053404897684	0.30209002237805926	30.374343319870654	0.2638209584643229	31.24297914463428	0.030043425647999555	-0.2601638174519616	0.29020724309996115	144.70436483411035
15	6.0	ltm	193	diff_vonmises	0.48109809177270757	27.5648901903737	0.6054759118191397	84.72744205419205	0.5935276728322451	85.21207980503043	0.06348421330403298	-0.14359797547434106	0.20708218877837403	110.16819106767753
16	6.0	perception	193	diff_vonmises	-0.12391031191049669	-7.099537910621077	0.8888466931184018	260.4628555767658	0.8774257266824605	261.13296239562925	0.3536123785426213	-0.28553225361131496	0.6391446321539362	94.93048259690039
17	6.0	wm	193	diff_vonmises	-0.0714567537389302	-4.094170406946366	0.0006302220940718689	2115.314843951389	1.7638485720896988e-24	2116.2301582526475	0.06652868300352566	-0.3578154165755336	0.4243440995790593	179.8178385968343
18	7.0	ltm	193	diff_vonmises	0.06619327701229917	3.792595404945074	1.3315914681293117	88.96534714345964	1.3106431386908755	89.53488717966157	0.11003855631732762	-0.17211581962775924	0.28215437594508685	73.8545139057075
19	7.0	perception	193	diff_vonmises	-0.10822929762595027	-6.201081973632211	0.7080348351667872	122.92214125385755	0.6823974370270358	123.47674186061833	0.44456723693627964	-0.33575544451154826	0.7803226814478279	108.42241425851205
20	7.0	wm	193	diff_vonmises	-0.40069451282978996	-22.958104459197582	0.7136582898668913	69.80556921944408	0.6992561058291098	70.59581329749359	-0.03308329262032572	-0.16313793398659548	0.13005464136626976	92.33141616980312
0	1.0	ltm	194	diff_vonmises	-0.09938777326520594	-5.694499943299458	5.173314088768906	0.44922994458532656	0.13751309252218616	1.988778383482823	0.03517153736174028	-0.3178727026467304	0.3530442400084707	56.49027009520151
1	1.0	perception	194	diff_vonmises	-0.06488497752185772	-3.7176353658036625	16.607062881070952	0.6613712963438352	5.866201834607391e-20	2.331448295934722	0.6956330463835642	-0.37106152086118305	1.0666945672447472	33.23302450467526
2	1.0	wm	194	diff_vonmises	-0.07710134862999744	-4.417581871265625	20.798757541161493	0.2272053546279928	4.2961232660762345e-18	2.107150126065893	0.07524820483615735	-0.33536335840009734	0.4106115632362547	29.685124212613857
3	2.0	ltm	194	diff_vonmises	0.01661288885419936	0.9518484168655493	1.523536945398552	138.35222271640075	1.5008541970398015	139.14964730265035	0.20206030362059835	-0.2666423640311706	0.46870266765176893	69.50385857921304
4	2.0	perception	194	diff_vonmises	-0.05884126595448325	-3.37135620039871	5.7956328162921436	1.1032567678784475	0.18630427899478139	1.9838732719146634	0.6572951055868111	-0.3148817253340888	0.9721768309209	54.75650954714283
5	2.0	wm	194	diff_vonmises	0.09902768219315691	5.673868244630707	1.9931704023796792	0.7304480285312177	2.0943945164258645e-36	1.6213106918298303	0.11799728728221498	-0.2510570827783497	0.3690543700605647	97.16088929929575
6	3.0	ltm	194	diff_vonmises	-0.07535179051259584	-4.31733957512566	1.3796594397701742	12.449218413757064	1.2204163908076509	12.715360849974711	0.25835921564895603	-0.14770423072657457	0.4060634463755306	79.44280454800244
7	3.0	perception	194	diff_vonmises	-0.034844386267301984	-1.996436272840008	3.2621138309302986	2.8115649463214423	0.6767606375115129	3.30098180297414	1.0061727566099097	-0.4004227127629162	1.4065954693728258	66.59051964441429
8	3.0	wm	194	diff_vonmises	-0.2617297323971095	-14.996009039442825	1.6044774168671825	149.5946756385703	1.584457762175696	150.09040582693225	0.29141743033227385	-0.22042909719092663	0.5118465275232005	70.02791861546962
9	4.0	ltm	194	diff_vonmises	-0.017246282886984828	-0.9881392217129276	2.7885163015321273	1.3654253484159729	0.6135426491398467	1.9336848921738177	0.3391131237048093	-0.2289067048176197	0.5680198285224289	69.7941433687088
10	4.0	perception	194	diff_vonmises	-0.08656761231382255	-4.9599588281067675	3.4694902845192543	2.091608615840573	0.0013787808558398003	3.3701689402550024	0.9497210696630468	-0.5341986192369597	1.4839196889000066	73.6026909001827
11	4.0	wm	194	diff_vonmises	-0.24461439141608868	-14.015372236303033	1.1665234598632326	239.7104917205625	1.1486114504572174	241.01536970065578	0.3156635184368639	-0.40417189148204713	0.719835409918911	79.96674779734713
12	5.0	ltm	194	diff_vonmises	0.06125298420140472	3.509537477322	1.6113390264323495	1.628369659051698	0.19462412764368126	1.5101269393594474	0.44739687659490535	-0.1666220761745483	0.6140189527694536	100.99275007732678
13	5.0	perception	194	diff_vonmises	0.009014074073846762	0.5164684006497159	2.123831502573785	1.9718532093292402	1.5133194822856267e-15	2.1938688324819453	0.7055131239128039	-0.33408341239497696	1.0395965363077808	94.27025058557447
14	5.0	wm	194	diff_vonmises	-0.00018729032174342927	-0.010730944979545772	0.36683175502116805	129.45944438213158	0.3535496123969145	129.7560601349893	0.24739562922582792	-0.24974887620330222	0.49714450542913013	139.5582879386073
15	6.0	ltm	194	diff_vonmises	0.2818315186607186	16.14775655302168	0.8925615261618551	44.620513334517476	0.8717431639366874	44.42596747284693	0.2387962581633314	-0.060579132620032894	0.2993753907833643	103.98954221992119
16	6.0	perception	194	diff_vonmises	-0.06961133234798766	-3.9884355498221966	0.8260351808333923	125.95053491618557	0.8114826139961294	126.25271446581536	0.2575510768999152	-0.17427263282366567	0.43182370972358086	100.09199022828646
17	6.0	wm	194	diff_vonmises	-0.1344180921093401	-7.7015893680659415	0.7153602577508684	29.870721961589894	0.6858101319673908	29.78845597794034	0.1914255911753724	-0.07645936873573733	0.2678849599111097	113.12147364803074
18	7.0	ltm	194	diff_vonmises	0.08719136909180498	4.99569745892784	0.2873455628269947	78.95283397054114	0.2702936742425231	79.1386205355049	0.20134914223334022	-0.2031426386508315	0.4044917808841717	148.29146249754535
19	7.0	perception	194	diff_vonmises	-0.1593018089584953	-9.127321322121109	0.9942080484938305	209.23677122038703	0.9776988361473355	209.5128439736313	0.5610641001718051	-0.27274994544782416	0.8338140456196292	92.98070734125335
20	7.0	wm	194	diff_vonmises	0.16824242674152667	9.639580987328417	0.8966251466900953	54.11397451654505	0.8698145308387853	54.33851291069165	0.20534222485414588	-0.13094419734791707	0.33628642220206295	96.55529653191988
0	1.0	ltm	195	diff_vonmises	-0.0423016895882641	-2.42370827968003	5.859205051490088	0.23787843196318412	1.8653056096682875e-14	2.5848496945279997	-0.1870788542837793	-0.41138977897593937	0.22431092469216007	56.31357483255087
1	1.0	perception	195	diff_vonmises	0.03096366252474179	1.7740871809350955	13.343526103115693	0.6069247817419537	0.03681068374838478	2.9653858232607857	0.38630504387926684	-0.4794705452235892	0.865775589102856	36.8527653592686
2	1.0	wm	195	diff_vonmises	0.058172264540169744	3.3330252428702627	5.968700109321719	0.418453923520009	0.06814530713162563	3.0762346015064304	-0.12503797586339166	-0.4930360892817645	0.36799811341837285	53.442544574724906
3	2.0	ltm	195	diff_vonmises	0.0802982925696696	4.600753266348765	4.593635484740733	0.6177380369576867	0.3241832815501608	1.7403249023817928	0.13868349582547557	-0.27686624653863895	0.4155497423641145	57.72065479837201
4	2.0	perception	195	diff_vonmises	0.0027844875178823685	0.15953938288151806	7.238257237190215	1.2289979731438785	0.30948442434158063	2.6130178701962223	0.7412511814548389	-0.4430124843557893	1.1842636658106283	48.266523913851245
5	2.0	wm	195	diff_vonmises	0.08831059589115929	5.059824430848776	3.112467360658962	0.7236011856022728	0.08371743032472856	2.010062825846011	0.13670620956634488	-0.30296704294267557	0.43967325250902045	74.07009720253885
6	3.0	ltm	195	diff_vonmises	0.04574371353661899	2.620921724903721	3.285326540141759	0.9713892636191421	0.7801574355685856	1.4888124392969704	0.22330965211495324	-0.19173207047466798	0.41504172258962124	62.791979866902295
7	3.0	perception	195	diff_vonmises	-0.03114311504619801	-1.7843690530375178	5.059298080816961	1.4711214190401292	0.23134196240651475	1.9634613070697942	0.8950395916165288	-0.3020798289430461	1.197119420559575	58.47735980202694
8	3.0	wm	195	diff_vonmises	-0.08340261910471443	-4.778618075037305	1.3908354403381833	178.83575509918862	1.3764088342672334	179.44165326912147	0.21272873951490112	-0.21508604446694335	0.42781478398184447	73.93011610133269
9	4.0	ltm	195	diff_vonmises	-0.10042198922947494	-5.753756153157124	1.2383826322245355	197.0189157977993	1.2219880326717372	198.3542825812686	0.08220695967540337	-0.343792039194895	0.42599899887029835	73.76559413664913
10	4.0	perception	195	diff_vonmises	-0.052081755305448695	-2.9840647686352937	4.032985521540885	1.4979355539606258	2.1779946253683133e-18	3.232200975517618	0.6424501108141757	-0.5140574515209306	1.1565075623351064	68.17075910358867
11	4.0	wm	195	diff_vonmises	-0.02161881003750275	-1.2386665732439686	1.0770342895141167	251.3340606042171	1.064233572401358	252.9328231791693	0.038699230870321344	-0.37973513324531893	0.4184343641156403	77.96416159691375
12	5.0	ltm	195	diff_vonmises	-0.08987625416899381	-5.149530042328415	2.3342091899629227	0.8941824451408681	5.401580187813519e-16	1.8046463115536426	0.21884433226278516	-0.28246784185483215	0.5013121741176173	90.00489227584316
13	5.0	perception	195	diff_vonmises	-0.06754088199880101	-3.8698074831224134	1.2104890556878218	5.961025475553699	0.5271386191200432	7.0299182520552215	0.5013006659973396	-0.43419493308306395	0.9354955990804035	96.2058822753099
14	5.0	wm	195	diff_vonmises	0.008223884761093276	0.47119388801259804	0.45289129729086597	140.32534813057012	0.4398337665788572	141.21695122656433	0.1292923459761397	-0.3034965135345846	0.4327888595107243	126.9414573356741
15	6.0	ltm	195	diff_vonmises	0.11582309849806391	6.636174714067086	0.7745366556881107	119.30116605640211	0.7609024264786901	120.00395628317533	0.10243461385206842	-0.1977544375998761	0.3001890514519445	97.16380492160025
16	6.0	perception	195	diff_vonmises	-0.19780949066242967	-11.333648962589686	0.7210785839643028	195.07737038222126	0.7066017505538433	196.0444939328661	0.2621450399584333	-0.3328752720713446	0.5950203120297779	103.28955080695602
17	6.0	wm	195	diff_vonmises	0.2203531297133521	12.625304335073851	0.2870718755117123	106.67467823215128	0.27286009019592883	107.38742619027282	0.12337632172935642	-0.28839748813842725	0.41177380986778367	145.9943537901526
18	7.0	ltm	195	diff_vonmises	-0.07188224850331974	-4.1185494611508	0.9465278525110109	165.92862069145488	0.9323126419883753	167.12703043974375	0.054120575420853356	-0.28684047472992447	0.3409610501507778	84.38633732782267
19	7.0	perception	195	diff_vonmises	-0.08549492639741689	-4.8984984523536	2.0185951278062086	1.9690588039490695	0.018045892811934985	3.0800050878084675	0.5224177082162388	-0.46336559738906374	0.9857833056053025	95.72578087458292
20	7.0	wm	195	diff_vonmises	-0.10795193760394876	-6.185190414965869	0.9888767456498606	148.97594179503557	0.9744488775391348	149.93537855533293	0.08402006834069198	-0.24409693767012897	0.32811700601082094	83.91238056698162
0	1.0	ltm	196	diff_vonmises	-0.0011218652550801802	-0.06427814429846186	5.19289890128662	0.34222537212868254	1.4817384896819232e-16	1.8215922884922826	0.01287903375442051	-0.2899060703595986	0.3027851041140191	59.88610155299733
1	1.0	perception	196	diff_vonmises	-0.046091733677110724	-2.640861810139447	16.566374841400666	0.509508392720885	2.902833061984894e-20	2.1076560753270615	0.485193109967361	-0.3354438827259626	0.8206369926933236	33.27587258339304
2	1.0	wm	196	diff_vonmises	-0.07261587047613659	-4.1605829039512665	7.996170108640015	0.2811845738986985	4.559531166435436e-16	2.0898820579036648	-0.020693897940290362	-0.3326150246201996	0.31192112667990923	48.06833292204669
3	2.0	ltm	196	diff_vonmises	0.10654746018045212	6.104719786178103	6.760807983860416	0.5667380197817795	0.5678291671681981	1.262184756148124	0.2486470234538285	-0.22697275979196033	0.4756197832457888	47.78644420597928
4	2.0	perception	196	diff_vonmises	-0.021434970449874014	-1.2281333407654165	6.2896502376398065	1.106036078755092	0.31669069280344625	2.031686969936092	0.6497613530028747	-0.3342150875398441	0.9839764405427188	51.68977747696559
5	2.0	wm	196	diff_vonmises	0.08743995886462073	5.009940603740298	2.0367158148458673	0.8356042440474418	0.19267990418195294	1.822196235748984	0.08744200404002045	-0.24084723813221096	0.32828924217223143	85.27627213868732
6	3.0	ltm	196	diff_vonmises	-0.024876520342008823	-1.4253196245684447	1.7588091459810733	99.08780937044321	1.7389793681630217	99.3693772115758	0.19176976588786943	-0.1375179505904338	0.32928771647830324	67.0208879561454
7	3.0	perception	196	diff_vonmises	-0.047865094662079506	-2.742467910131321	3.7654300668750684	2.277355983264112	0.5095218583536801	2.830103165325382	0.990521741152017	-0.3875651986482831	1.3780869398003	64.23096272716515
8	3.0	wm	196	diff_vonmises	-0.22249836742767104	-12.748217402156618	1.4457429082443705	210.76062016773577	1.4324811041039238	211.5349295145065	0.16886192531733002	-0.24622311362476168	0.4150850389420917	70.91757129902265
9	4.0	ltm	196	diff_vonmises	-0.05189129583557121	-2.973152244843015	1.3943843708240247	125.49933944302919	1.3739093837178658	126.27251578546162	0.14238287981918774	-0.23486474375183164	0.3772476235710194	71.89841393356332
10	4.0	perception	196	diff_vonmises	-0.0658959669798212	-3.7755607948771885	3.0349680183936414	2.2517964027173956	0.192660330123354	3.584301664266411	0.7992718702285675	-0.5052107615815923	1.3044826318101599	73.9604714608713
11	4.0	wm	196	diff_vonmises	-0.14262883649140967	-8.172030367819278	1.0881560510561739	245.275794312183	1.0746070418668483	246.8548865963122	0.061743643803083614	-0.3828611651746954	0.444604808977779	78.14655482866425
12	5.0	ltm	196	diff_vonmises	0.025742959323834375	1.4749629214326612	1.6043622941047084	1.4742557349103684	0.23970889726298994	1.709163973254219	0.32436897782949264	-0.1845718570131544	0.5089408348426471	97.8248006529675
13	5.0	perception	196	diff_vonmises	-0.03328061686162556	-1.906838885763068	2.1035277843962077	1.7786595715323104	3.621509013868557e-14	2.345331773191347	0.572665259005126	-0.3591859345807601	0.9318511935858861	94.70261666991061
14	5.0	wm	196	diff_vonmises	0.06355106488500414	3.641207801472786	0.46927489205857487	2.8522356879244515	3.0543160475084355e-13	3.5339905286333257	0.12495871160365035	-0.29353563355265316	0.4184943451563035	153.71176758861316
15	6.0	ltm	196	diff_vonmises	0.38378535133264985	21.98928087030634	0.620772698579336	101.35703192089132	0.6091354313450142	101.58055260495773	0.1638157613352611	-0.13739648277187566	0.30121224410713676	114.61025436065486
16	6.0	perception	196	diff_vonmises	-0.09407796440736667	-5.390270305724087	0.9363663532066911	234.2621194937391	0.9240453427862164	234.89259396280687	0.34244703112184993	-0.2684215807731185	0.6108686118949684	92.5482769737396
17	6.0	wm	196	diff_vonmises	-0.03639337041745988	-2.085186527176714	0.1325985081313279	79.01364748523905	0.11584921073353707	79.51359082717222	0.1337997562688127	-0.2674223282036028	0.4012220844724155	165.48647141808488
18	7.0	ltm	196	diff_vonmises	-0.06263145935764342	-3.5885182859381137	0.7757084177605164	63.13319403431243	0.7484205685781301	63.68950929241706	0.16547977552581372	-0.1936117624743714	0.3590915380001851	100.23046516512848
19	7.0	perception	196	diff_vonmises	-0.09419672999022861	-5.397075072373488	0.8288208507783542	254.95799967717417	0.8138996924180463	255.64458069965875	0.516011734508055	-0.36572204598035896	0.881733780488414	99.58895801911697
20	7.0	wm	196	diff_vonmises	0.007907541039798498	0.45306872790694447	0.9735355967884465	96.42621252621946	0.9554319810825059	97.24942903759597	0.05680377262733316	-0.2040356854304104	0.26083945805774356	84.1034668411188
0	1.0	ltm	197	diff_vonmises	-0.03829347988620675	-2.194054780348755	5.5441057229215716	0.3234568695096678	4.385903513658265e-18	2.8336756928503934	-0.15471275455778988	-0.450988962762398	0.29627620820460815	57.918834412759054
1	1.0	perception	197	diff_vonmises	0.03165660794871916	1.8137900291619025	14.461012972555288	0.6551572772649992	5.081929400076925e-20	2.9569287802962796	0.5143703249065414	-0.470609831754571	0.9849801566611125	35.627647914737395
2	1.0	wm	197	diff_vonmises	0.0875148877075436	5.014233710203577	6.272641777364672	0.40137639152108684	4.89851538516766e-19	3.173546186573961	-0.11272846070355536	-0.5050841652801591	0.39235570457660374	54.38227090509821
3	2.0	ltm	197	diff_vonmises	0.1214596000092979	6.959122461879904	4.022179959529051	0.7975675142740343	0.42563293101201555	1.969620156905804	0.15629154489277508	-0.30375306732402324	0.4600446122167983	59.85829930847521
4	2.0	perception	197	diff_vonmises	0.0066593925355889734	0.38155508641017205	6.314825074915607	1.2953998266988975	0.2801052260104936	2.5593240728973043	0.7419874254478181	-0.4196871211908723	1.1616745466386904	51.728013239473654
5	2.0	wm	197	diff_vonmises	0.09703906722558382	5.5599289999122234	3.530937151338993	0.6430118583323512	4.2556679787505575e-16	1.9393193229061212	0.1528757543260474	-0.3082565660995914	0.4611323204256388	72.99011019721002
6	3.0	ltm	197	diff_vonmises	0.12123353284419208	6.9461697674328535	5.557419980874565	0.5032446755482012	0.2517008167600542	1.1213454020403495	0.2356074570636348	-0.18005602938411575	0.41566348644775053	54.80267822872378
7	3.0	perception	197	diff_vonmises	-0.027872171824629286	-1.596957811414705	5.362740599494415	1.2365203343559172	2.763842210987351e-08	1.6801865865193768	0.8453415141689959	-0.26738553093517864	1.1127270451041746	58.91482412341554
8	3.0	wm	197	diff_vonmises	-0.03618472768648568	-2.073232179265809	1.370204832304716	77.28140275713673	1.33282796884882	77.9330179341585	0.25738901837502226	-0.23916150495657362	0.4965505233315959	75.23876724564946
9	4.0	ltm	197	diff_vonmises	-0.06145678119172896	-3.5212141847450473	1.2871800205857746	9.68849912463723	0.9645221972083828	11.161346481705488	0.08926158528990547	-0.3685999124009094	0.45786149769081486	77.41759361559565
10	4.0	perception	197	diff_vonmises	-0.02352936942743512	-1.3481335627961828	2.7986448717471077	1.8595198853499384	5.964385205382215e-15	3.8005265326414333	0.5654098840990962	-0.6005328459119036	1.165942730011	82.19055039497954
11	4.0	wm	197	diff_vonmises	-0.0869023287098343	-4.97913666493207	1.1718070557331908	338.48485827955153	1.1590363047537178	340.2780049262923	0.13624114991446845	-0.4622011971724618	0.5984423470869302	76.33021436294524
12	5.0	ltm	197	diff_vonmises	-0.0670367643609864	-3.840923670097532	1.9438273898572707	1.0081958707530347	1.9306611716617863e-17	1.6815821699394597	0.243587707694499	-0.2571553502489836	0.5007430579434826	98.33031042095534
13	5.0	perception	197	diff_vonmises	-0.024342904490121203	-1.3947456883740061	1.83199674861449	2.430608159905379	0.16257491280247505	3.3071791261608414	0.5736930414426193	-0.41529665910745434	0.9889897005500736	94.08184992796151
14	5.0	wm	197	diff_vonmises	0.09017774157523739	5.166803998282519	0.5599601055568424	165.07228961054824	0.5477621905355646	165.7277548043611	0.21156794635605536	-0.2724458420038012	0.48401378835985653	118.00346596928036
15	6.0	ltm	197	diff_vonmises	0.27250006837379465	15.613103834844795	0.9385020433776325	105.65523826776725	0.9239387723867117	106.06514597529593	0.15838929294161375	-0.14961030569143574	0.3079995986330495	91.33240551901304
16	6.0	perception	197	diff_vonmises	-0.22935286936010932	-13.140951433549597	0.5221278404385497	142.54679718139406	0.505838438141793	143.23346309832613	0.2647287204604112	-0.32055282018098374	0.5852815406413949	122.31154400577567
17	6.0	wm	197	diff_vonmises	0.1721852136052987	9.865486034142178	0.487457820355569	136.9060580425355	0.47588684941086623	137.26834128514363	0.20744877186069743	-0.21540874770293605	0.4228575195636335	126.46127434570764
18	7.0	ltm	197	diff_vonmises	0.011957071608145145	0.6850897384824209	0.8355639894701878	3.3431148225099365	0.3495181101795658	4.485679769336437	0.05543413879460246	-0.29352238622635973	0.3489565250209622	109.74856619569589
19	7.0	perception	197	diff_vonmises	-0.05787117236301469	-3.3157739318748733	0.9601499824552191	185.52252436775942	0.9368604999841361	186.34401475192192	0.5497051854363022	-0.387889078814009	0.9375942642503112	92.28497201257383
20	7.0	wm	197	diff_vonmises	0.035260446164123625	2.0202747489525366	0.8652442974228621	150.51168807315216	0.8497701914992857	151.51045313687536	0.1315639270064466	-0.2705358380868059	0.4020997650932525	91.36138722566184
0	1.0	ltm	198	diff_vonmises	-0.2053778261200943	-11.767282642253083	7.497489973520365	0.17101322041216793	4.516464422258702e-26	3.795213191221675	-0.42055911030847026	-0.6040268830578344	0.1834677727493641	49.66709647437378
1	1.0	perception	198	diff_vonmises	0.07512230762064462	4.304191173946398	11.453666925550623	0.6457164807088279	0.03582971772093341	4.1125880007477775	0.18356057463963094	-0.6634517804282564	0.8470123550678873	39.67734879637848
2	1.0	wm	198	diff_vonmises	0.18698982554429935	10.713727815575904	129.72800155105924	0.4695158612060484	2.8006090825670465e-58	4.549362110949384	1.403859548158417	-0.7240534678725741	2.127913016030991	11.878375710229989
3	2.0	ltm	198	diff_vonmises	0.050072267417842965	2.8689295936928265	13.227545171395784	0.38629635907395576	0.09857064613007917	1.964499119760296	0.21077392480748824	-0.32812955166566304	0.5389034764731513	36.650005691898144
4	2.0	perception	198	diff_vonmises	0.016267020010137828	0.9320315918357551	9.289192508540236	1.1840898961123556	0.19058955479292825	3.241397253912989	0.8007454319380045	-0.5488739559469115	1.3496193878849159	43.33966166832204
5	2.0	wm	198	diff_vonmises	0.06654328609286954	3.81264944805301	2.4412160537961007	0.9370622903122467	0.09305621381592528	3.209370762330921	-0.014808602985498243	-0.4732256082669011	0.45841700528140283	81.1000258933719
6	3.0	ltm	198	diff_vonmises	0.04893610135879783	2.8038320736835285	3.2024165306452352	0.8461998067739709	0.6726627158592079	1.4214191745544256	0.17804245301976412	-0.1877131450976175	0.3657555981173816	63.96906688746819
7	3.0	perception	198	diff_vonmises	0.0067939221680219436	0.3892630665680275	3.106991690973165	3.070591506653784	0.6803932063159256	3.964506008704868	0.9381125100235721	-0.47850614297429733	1.4166186529978695	67.02056455954818
8	3.0	wm	198	diff_vonmises	-0.137248956264418	-7.863785936526773	1.245121773137048	171.23793326408665	1.2278564001779884	172.356189957841	0.11336459788566344	-0.3012565497715123	0.4146211476571757	74.65065225789178
9	4.0	ltm	198	diff_vonmises	-0.05551264646814414	-3.180640352226475	1.0444292616914859	212.08360971303867	1.027953708499215	213.93215028857884	0.01735737011119909	-0.4279255275209586	0.44528289763215767	78.64290473149745
10	4.0	perception	198	diff_vonmises	-0.11066504186935656	-6.3406398387526774	1.260801871919575	207.22637798509876	1.2253975571417832	209.02621577142835	0.6553926222312327	-0.6342799320744312	1.289672554305664	78.37750184986169
11	4.0	wm	198	diff_vonmises	-0.14943802859076444	-8.562168337006131	0.8876170584128733	216.90087195405133	0.872086497245935	219.12260497641284	-0.06307108731604671	-0.47522767914693986	0.41215659183089315	83.35112446425038
12	5.0	ltm	198	diff_vonmises	-0.11626331125172507	-6.661397046939703	2.8633547499260126	0.760821478770198	3.6832527342294584e-16	2.118424189237895	0.14800552476136236	-0.3355769685465623	0.4835824933079247	81.23773703019648
13	5.0	perception	198	diff_vonmises	-0.03852350439512326	-2.2072342138942402	0.8642759299217463	165.0638390625157	0.8339819624297203	166.50047268170024	0.5086179807265268	-0.5174673675068089	1.0260853482333356	95.44530973371647
14	5.0	wm	198	diff_vonmises	-0.14331838533600288	-8.211538606382591	0.42633086483391097	166.86487875734275	0.4136771358374212	168.7005124782095	-0.03452440113615296	-0.4399792879037676	0.40545488676761465	124.20720946803996
15	6.0	ltm	198	diff_vonmises	0.46019230078820894	26.36707659957928	0.526267418234752	136.81819013866104	0.514854661627182	138.1260668697273	-0.0336051068943064	-0.29048157775207173	0.2568764708577653	110.52176989745607
16	6.0	perception	198	diff_vonmises	-0.0757982523825417	-4.342919955987076	0.7092437408731868	363.63204172768457	0.699807589518143	365.0140301038385	0.26091422515156637	-0.4248240418020792	0.6857382669536456	102.59016029058107
17	6.0	wm	198	diff_vonmises	0.2272436968617208	13.020104751126873	0.000248783200113977	5332.423161871746	2.2402599354568558e-31	5334.251710033781	-0.07987166022292058	-0.5021470333661	0.4222753731431794	178.27928721970284
18	7.0	ltm	198	diff_vonmises	0.14023289787304308	8.034753197014467	1.2489120805383906	80.39631320359386	1.2127253370474718	81.80004432156862	-0.0006205031998725019	-0.33775038612323804	0.33712988292336554	71.48958413564682
19	7.0	perception	198	diff_vonmises	-0.08962580667448178	-5.13518045790325	1.4122800167144491	2.3346000832773015	9.00226973150529e-12	3.2500526624569623	0.45782544455417007	-0.4594049188790125	0.9172303634331826	113.2354346900942
20	7.0	wm	198	diff_vonmises	-0.39829800982406743	-22.820794951379266	0.9094260404831386	160.08778039699504	0.8945034087892837	161.41650698890376	0.027525260852783617	-0.3061494462644987	0.3336747071172823	85.12942220367822
0	1.0	ltm	199	diff_vonmises	-0.10333386276776849	-5.92059421737717	2.7769578444745195	0.4459823489087759	1.8807397370217722e-24	3.942019366492085	-0.34795800557754814	-0.6263098202233806	0.2783518146458324	82.5083189609735
1	1.0	perception	199	diff_vonmises	0.10750905669072303	6.159815207811135	10.22728255408485	0.7402942041261348	0.11605958650591024	4.0435903267590785	0.21202089890191633	-0.674467238050052	0.8864881369519684	41.27393956541789
2	1.0	wm	199	diff_vonmises	0.11077216132492541	6.346777331460512	5.021054474386836	0.5080258612735733	5.43575222491456e-34	4.33536915876857	-0.24852052337088815	-0.6899762117453776	0.44145568837448945	60.931086410262026
3	2.0	ltm	199	diff_vonmises	0.11382625943843733	6.521764263583611	6.681686293384192	0.5235251666031394	0.11710859035180393	2.0820897373751523	0.1575741130455145	-0.3372377283034617	0.4948118413489762	50.804649873814725
4	2.0	perception	199	diff_vonmises	0.04561066114355498	2.613298384327037	5.691640934979702	1.4925152725436386	0.3356926165503514	3.5089852048328445	0.6263863299148134	-0.5765117712926138	1.2028981012074271	53.25289243726641
5	2.0	wm	199	diff_vonmises	0.11147818962815896	6.387229773452576	2.5696735350130906	1.0826248891152908	0.1523819844629158	2.8937451338755733	0.11512306592320254	-0.41466281023567025	0.5297858761588727	78.00976023969454
6	3.0	ltm	199	diff_vonmises	0.0608569665492371	3.486847337240115	3.8849083260485777	0.794665185818619	0.42736724938199766	1.8008404763049448	0.18118804837676605	-0.2722170057292172	0.45340505410598325	61.163142089969796
7	3.0	perception	199	diff_vonmises	0.0030925116351112197	0.17718786478697415	4.110365941336103	1.8536923883509064	0.2644181805496116	2.8506805827941935	0.8656696769112293	-0.4226675550650237	1.288337231976253	63.65539168836855
8	3.0	wm	199	diff_vonmises	0.03463031217316491	1.9841707307428673	1.4393847255944503	3.4768282580388417	0.6403179325378651	4.722299929137333	0.1787638640326923	-0.33727711449338466	0.5160409785260769	83.92978541253791
9	4.0	ltm	199	diff_vonmises	-0.06391318749977132	-3.6619558989651866	0.9419300544956879	179.40433398148537	0.921320046166404	181.6159609921549	-0.019728695222063664	-0.4902415988172635	0.4705129035951998	82.14300255132244
10	4.0	perception	199	diff_vonmises	-0.028184347152644885	-1.6148441401781108	1.2545930702848178	12.64630872941142	0.7993222552089733	14.982310029267065	0.37427067605605036	-0.6508408547629041	1.0251115308189545	84.09064092004664
11	4.0	wm	199	diff_vonmises	0.04576634702757685	2.6222185284112536	0.9318154955100483	221.1996119490017	0.9141432812622721	223.53417808650048	-0.016116279436673153	-0.5182715442754606	0.5021552648387875	82.6610147881295
12	5.0	ltm	199	diff_vonmises	-0.14891379943162178	-8.532132218689565	1.6142883210986367	1.1563647342013326	4.0280654113711436e-17	2.6416292186065307	0.10326625590211574	-0.39968055875250813	0.5029468146546239	106.9640932515783
13	5.0	perception	199	diff_vonmises	-0.049249426948808774	-2.8217843076046023	0.8243236148983041	150.48982612507945	0.7910178914168504	152.2639110582842	0.4214481683594684	-0.5615579507830066	0.983006119142475	96.42525883297279
14	5.0	wm	199	diff_vonmises	0.1615151304647365	9.254135303134268	0.4210886418068306	177.25315012723618	0.40861709467148655	178.79391147448354	0.052776842526597534	-0.4242706083738561	0.47704745090045364	127.63568118068156
15	6.0	ltm	199	diff_vonmises	0.29141955894059673	16.69711079486013	0.6829030239804794	191.12621463069823	0.671557237320285	192.53838086139064	0.01864932516729567	-0.32450855286882785	0.3431578780361235	98.61218175196007
16	6.0	perception	199	diff_vonmises	-0.15100801689093	-8.652122040490536	0.5445421165354053	277.9140598578668	0.5326657184966872	279.63200391863455	0.18591627075080908	-0.5093865049809985	0.6953027757318075	115.79830086746733
17	6.0	wm	199	diff_vonmises	0.24414876459120824	13.988693784409309	0.4178881104973407	196.7635191220456	0.40613312104688976	198.39279270144326	0.05176658642238152	-0.4467966417734317	0.4985632281958132	127.71352260650136
18	7.0	ltm	199	diff_vonmises	0.03236977490706913	1.854651485963538	3.078427634428753	0.5554617714313282	2.2574792892337817e-21	2.688460382670649	-0.05870168583903734	-0.42709948576655865	0.3683977999275213	78.29615088401405
19	7.0	perception	199	diff_vonmises	0.017710971079526735	1.0147638939351413	0.8384369954907653	177.99652190190125	0.8087358730056078	179.58724809963738	0.5236741597065802	-0.56156955073501	1.0852437104415902	96.6828826497499
20	7.0	wm	199	diff_vonmises	-0.1099139549380922	-6.297605727543797	0.9730904048385708	247.64482293370574	0.957455914739864	249.49306747285044	0.11780064760128539	-0.45485629394661586	0.5726569415479013	83.88145614219226
0	1.0	ltm	200	diff_vonmises	0.10458171690525002	5.992090992902799	0.07809479732188553	42.75149450934217	0.058410378401316826	45.203348331891796	-0.2750015236065124	-0.4969843894999073	0.2219828658933949	170.92137268910255
1	1.0	perception	200	diff_vonmises	0.038404321977313735	2.2004055643615894	10.291239866077898	0.6447497256851766	9.059088174302485e-20	2.994995098957796	0.33793368700571214	-0.47666827359726327	0.8146019606029754	42.30218514954029
2	1.0	wm	200	diff_vonmises	0.05884405132873346	3.371515790587611	11.10170892133479	0.29160912695472907	2.4302813573212938e-33	2.916697407097264	-0.08123194610452356	-0.4642068097556368	0.3829748636511132	40.71619604904052
3	2.0	ltm	200	diff_vonmises	0.06394435902917912	3.663741896041222	13.658639273350012	0.2992396928835948	0.04770319498688163	1.804275030537538	0.13589807185117575	-0.2936935873213019	0.42959165917247766	36.31412042207896
4	2.0	perception	200	diff_vonmises	0.012759759679566348	0.7310803772403515	8.535779604841231	1.1332614121522602	0.12599021997723983	2.7099543088816054	0.8129866357403572	-0.444120718103174	1.2571073538435313	45.629335328640224
5	2.0	wm	200	diff_vonmises	0.07648602741214525	4.382326562437845	2.031064126980122	0.7843322372291391	1.1707923421677004e-18	2.30364055706187	0.04175588679956643	-0.359605766557328	0.40136165335689444	96.30231220699648
6	3.0	ltm	200	diff_vonmises	0.10322865884430348	5.914566476574407	6.00221104495838	0.32867099898324	6.718863967596874e-17	0.9763363184829067	0.15854504476802198	-0.15538683081599355	0.31393187558401553	55.61772486593989
7	3.0	perception	200	diff_vonmises	0.005016381726310341	0.2874175013441326	4.073311312378108	1.9247769249898414	0.33502438547754987	2.5559306305183878	0.941480690662788	-0.37116833076235856	1.3126490214251465	63.590734180253065
8	3.0	wm	200	diff_vonmises	-0.1312342155323851	-7.51916667771586	1.33540756170877	153.0244578131153	1.3180647591085428	153.67869182371135	0.21791777616889618	-0.2264184302337604	0.4443362064026566	75.43456363954562
9	4.0	ltm	200	diff_vonmises	0.08532038944354003	4.888498221527386	3.2978315347031044	0.7931167090524459	0.3489360701874658	2.4305000780448864	0.015992466791131976	-0.3634277100673519	0.3794201768584839	64.27970324132824
10	4.0	perception	200	diff_vonmises	-0.06856827644988	-3.9286728490644	2.2884503820965367	3.025520831189295	0.36536103086955724	5.022052537045096	0.5779731476481442	-0.6103762101217921	1.1883493577699364	78.49192198313679
11	4.0	wm	200	diff_vonmises	-0.13623030771791705	-7.8054216740051325	1.1299392853900165	314.71629080963714	1.1171941998954436	316.56048889273626	0.07795375187372144	-0.4528418834163901	0.5307956352901115	76.70983245436523
12	5.0	ltm	200	diff_vonmises	-0.040276273474367755	-2.307660484595981	1.862988054718024	0.9768681299836853	3.5228404530913236e-15	1.8138808058365112	0.1940353708405131	-0.2770588686506821	0.47109423949119517	100.31085714004226
13	5.0	perception	200	diff_vonmises	-0.008195300690833485	-0.4695561414254066	2.1435531404040353	1.888545382794003	5.539088548768528e-12	2.694256374763831	0.586941537951387	-0.41484114920030685	1.001782687151694	93.85000807117993
14	5.0	wm	200	diff_vonmises	0.017066329546566835	0.9778286547976957	0.5652229396003571	158.67845668559892	0.5527680545368473	159.54107792084034	0.15101363567378456	-0.2846951243257827	0.43570875999956726	115.35023314876256
15	6.0	ltm	200	diff_vonmises	0.44785252484754706	25.660059518042278	0.7556017356361947	147.22261417721546	0.7448115973380901	147.87542487655477	0.11190571954861639	-0.19194173004284565	0.30384744959146204	98.93499528625244
16	6.0	perception	200	diff_vonmises	-0.135626987731153	-7.770853985067664	0.7249732525491908	211.51390429008526	0.7136108556988765	212.1629774888625	0.2720309326028669	-0.2676302540260451	0.539661186628912	104.52053070020501
17	6.0	wm	200	diff_vonmises	-0.0847905369519916	-4.85813990999717	0.4572945530430255	163.36831447675786	0.44679265730931306	164.13287442775314	0.13698697211497546	-0.27571783933862193	0.4127048114535974	126.83107935400689
18	7.0	ltm	200	diff_vonmises	0.135191804771191	7.74591983814583	1.6658056494456	1.4212753998636418	0.4370671294650247	2.4796731341969873	0.0733021824423129	-0.2560784942772701	0.329380676719583	83.36057813530911
19	7.0	perception	200	diff_vonmises	-0.12141151903737354	-6.956367625113751	0.9147511587176617	152.86211688560763	0.8883496888037572	153.18413018744738	0.665377902864499	-0.33627108621140955	1.0016489890759086	97.21006316446156
20	7.0	wm	200	diff_vonmises	-0.20445314141611023	-11.714302111334492	0.856771668029221	108.35181308705013	0.8382970384278065	109.26496194355155	0.09803514396587332	-0.23907248645541834	0.33710763042129166	91.26119317585068
0	1.0	ltm	201	diff_vonmises	0.9917817281703918	56.82490722235452	0.9052060853250488	97.36120428600425	0.8826133539676612	99.5263000455789	-0.2724955580681616	-0.4137480438804282	0.14125248581226657	70.84157070493558
1	1.0	perception	201	diff_vonmises	-0.008872313170235985	-0.5083460991728574	11.878938091206853	0.4597815576728377	9.275447349702347e-16	2.601428280671486	0.21096770899753026	-0.41403016993783254	0.6249978789353627	39.35504041406017
2	1.0	wm	201	diff_vonmises	-0.03900770143561246	-2.2349766607669963	5.330324836559543	0.4632443544841819	0.2289111631307208	3.0394887419514527	-0.18471899831008842	-0.5071327375444543	0.3224137392343659	52.38416001940203
3	2.0	ltm	201	diff_vonmises	-0.027661350734951955	-1.5848786527438448	19.60094138254692	0.31156024823224054	0.2760057126602511	1.5333094300456884	0.2308547998899499	-0.2904525297826852	0.5213073296726352	29.80358927056892
4	2.0	perception	201	diff_vonmises	0.009292377567305249	0.5324140162486338	11.77781488312318	1.0148932824450458	0.21824385125305307	2.6231471356175926	0.8604474529191029	-0.4585245318991353	1.3189719848182382	38.64473203780955
5	2.0	wm	201	diff_vonmises	-0.09954055593002269	-5.703253745176219	0.9606918321306543	111.46556190291346	0.9362900126660691	113.13677497823628	-0.03430337768039493	-0.3656454876681874	0.33134210998779245	80.67673030356409
6	3.0	ltm	201	diff_vonmises	-0.2621399311061092	-15.019511694230225	4.43647681682813	0.2975642244957393	8.163011855489368e-22	0.5464003632757553	0.15504468866120852	-0.08692840672567584	0.24197309538688436	64.91664930421967
7	3.0	perception	201	diff_vonmises	-0.03688118590728943	-2.113136295925054	4.50517177067749	1.9892360778569906	0.452777693920203	2.624484339160221	1.0067836627185693	-0.3903357051478319	1.3971193678664013	59.763382608217995
8	3.0	wm	201	diff_vonmises	-0.2528417301360677	-14.486764021582397	1.6386259308837559	127.33248359108855	1.6185182497161998	128.07442915896888	0.09900222474235676	-0.23007848502845363	0.3290807097708104	65.1078359505074
9	4.0	ltm	201	diff_vonmises	-0.130186408269344	-7.459131743800451	1.1889805702572465	101.31351630818827	1.1656656392909521	102.59189191293515	-0.03880348741236617	-0.29311340217927295	0.2543099147669068	71.64408909992383
10	4.0	perception	201	diff_vonmises	-0.09660192252042567	-5.534882453270171	3.37829742750651	2.1931579135713264	0.3261840289678726	3.7369913440000175	0.7332154882566425	-0.5269883488095743	1.260203837066217	67.99386507123057
11	4.0	wm	201	diff_vonmises	-0.031653471822459596	-1.813610342363209	0.9193982649449437	141.94388420392835	0.9048443272770013	143.74060789492603	-0.18828797289818766	-0.35138615482782143	0.16309818192963377	73.94775615577788
12	5.0	ltm	201	diff_vonmises	-0.05421620743444581	-3.106359867199542	3.1682901237575267	0.7521988450906065	0.043770720732048546	1.6489958674446137	0.2340960184680801	-0.2523428734249754	0.4864388918930555	75.36022509332125
13	5.0	perception	201	diff_vonmises	-0.10954979344174348	-6.276740810741846	0.822589700853294	130.49295169854102	0.7931301447507245	131.38016245906007	0.46583740731008305	-0.3893141462241534	0.8551515535342364	99.30583568405044
14	5.0	wm	201	diff_vonmises	-0.37996600867781705	-21.77044865567013	0.47679110884175097	111.23451209196061	0.4591687580066765	112.49731848183407	0.062457597892517924	-0.3478196367457578	0.4102772346382757	121.42914489129632
15	6.0	ltm	201	diff_vonmises	0.8080851125308592	46.29986643537243	0.00018022711903247914	5041.304124305556	3.31764296063026e-31	5042.183057270104	0.0047229616774302485	-0.2844829834327811	0.28920594511021136	161.4725123669733
16	6.0	perception	201	diff_vonmises	-0.13927310147107677	-7.979760913989956	1.0095508746202169	284.9676081673129	0.9982859732719574	285.80838558033986	0.3200362644306267	-0.3013146753379843	0.621350939768611	87.7989865264048
17	6.0	wm	201	diff_vonmises	0.06561177884058866	3.759278013911488	0.00019229115467911615	7078.405066262567	4.597338144680546e-29	7079.662729300921	0.01647334165227221	-0.4167790931469426	0.4332524347992148	179.79197081386138
18	7.0	ltm	201	diff_vonmises	0.10122972741212108	5.8000361419743145	1.6282605165082653	202.66853084493002	1.613205256309388	203.6809494621879	0.06168915726121327	-0.2933167665589629	0.35500592382017615	63.77897350198185
19	7.0	perception	201	diff_vonmises	-0.18538655073990912	-10.62186693588468	1.2233185236190598	2.5459102188153557	3.611561579056279e-15	3.225050464101641	0.46288734205816795	-0.428757240895137	0.891644582953305	119.65385712023794
20	7.0	wm	201	diff_vonmises	-0.7539333889327368	-43.19720121984103	1.0867778767207106	99.43042049533521	1.0692999740948386	100.37240689516719	-0.008000980771740274	-0.2153291131972228	0.20732813242548254	76.16329568584861
0	1.0	ltm	202	diff_vonmises	-0.07851628621921385	-4.498651823402141	4.25801659455034	0.2978681181650938	2.8232079552601864e-21	2.7769717252971664	-0.20506993536995982	-0.4419213268455961	0.23685139147563627	66.30697476318716
1	1.0	perception	202	diff_vonmises	0.03890325395821443	2.2289922611313013	12.693690739784085	0.562461006560931	0.0232706403511988	3.1152447427158583	0.2837985022882378	-0.5002440466732224	0.7840425489614602	37.844018151293966
2	1.0	wm	202	diff_vonmises	0.027206866502025962	1.5588386243419448	5.5880215398775315	0.36215528864279944	1.5408840509650885e-18	3.2616242422635318	-0.1860341497666358	-0.5190989542334259	0.3330648044667901	57.69271422954992
3	2.0	ltm	202	diff_vonmises	0.09620012797224448	5.5118613214280225	10.062101223270997	0.4136266654661899	0.18635959708378863	1.5504508718047236	0.2216798917476206	-0.2654857589289283	0.4871656506765489	41.46325073984926
4	2.0	perception	202	diff_vonmises	0.010135081533145884	0.5806973968702389	7.462526387917087	1.1810418901001394	0.2778146144152792	2.674901409999216	0.7124431497626976	-0.45265555194278967	1.1650987017054872	47.704916524325824
5	2.0	wm	202	diff_vonmises	0.10194577357436094	5.841062565007198	1.6578883332978633	1.585971811706871	0.31553484959583106	3.1077508899232096	0.06849192827208661	-0.3543627412106023	0.4228546694826889	86.81011278019022
6	3.0	ltm	202	diff_vonmises	0.051321887331476385	2.9405275407395237	1.7314112682782512	81.02385934725565	1.699854375474374	81.55316363216075	0.17911738501652508	-0.2003457600505083	0.3794631450670334	65.75228124179051
7	3.0	perception	202	diff_vonmises	-0.009854722768930037	-0.5646340229311675	3.499978071614634	2.4808932713858916	0.5650721128087095	3.1966823748152686	0.9442064268120705	-0.4220046181729515	1.366211044985022	65.37823778291829
8	3.0	wm	202	diff_vonmises	-0.11044401681560112	-6.327976036005838	1.2031320374439762	199.35363888548767	1.189572876107423	200.29215094027884	0.1455502970774063	-0.2660640598190014	0.4116143568964077	77.15929069824236
9	4.0	ltm	202	diff_vonmises	-0.04575038286732945	-2.6213038494056073	1.2151526921693059	210.85017116244532	1.200158391219492	212.22576573834175	0.06173233054242644	-0.34565320378785813	0.40738553433028457	73.95161969222968
10	4.0	perception	202	diff_vonmises	-0.07447515940780251	-4.267112312631111	2.4301995033450856	3.0343329231352048	0.45914072411522694	4.661001224724682	0.6441362206495371	-0.5513670663642569	1.195503287013794	75.38539674881702
11	4.0	wm	202	diff_vonmises	-0.0530102717470929	-3.037264841950012	0.9986951994509382	268.00692023406066	0.9864180071809162	269.83885294940836	0.0015659314015863401	-0.4158384694483388	0.41740440084992514	79.99770493534493
12	5.0	ltm	202	diff_vonmises	-0.09947034661879314	-5.699231047960246	2.1287979681358076	0.871703680171145	2.3401171139696668e-18	1.9136313186580722	0.16235751288652195	-0.2979536192200693	0.46031113210659125	94.15010501937351
13	5.0	perception	202	diff_vonmises	-0.0469766292439086	-2.6915625914268024	1.3160780515910862	4.6066996703217304	0.4261753628746127	5.8170205943953635	0.48889995821623855	-0.4608865162868956	0.9497864745031341	96.29778795394029
14	5.0	wm	202	diff_vonmises	0.0974746110371081	5.584883822105606	0.3021653385989067	81.48033135969793	0.2828964695464588	82.81926156700524	0.0030993248376347537	-0.3664199029923214	0.36951922782995617	142.56351283312972
15	6.0	ltm	202	diff_vonmises	0.3675716892829004	21.060306464404267	0.5789460986684136	131.99973166689927	0.5672167063782642	133.06353172600836	0.016309538972279825	-0.25398832937145954	0.27029786834373937	107.96120729467017
16	6.0	perception	202	diff_vonmises	-0.10241920265317371	-5.868188053121937	0.7794324295525273	325.08445284981883	0.7687578804386391	326.3662072417131	0.2811102983958307	-0.4002632232713843	0.681373521667215	98.25806037887418
17	6.0	wm	202	diff_vonmises	0.06495128425005837	3.721434461482881	0.2242817344032519	22.33049640446774	0.15234511566126735	23.786822475931295	0.008840926848484365	-0.427452994842239	0.43629392169072334	156.65383849526998
18	7.0	ltm	202	diff_vonmises	0.01581968908852047	0.9064014179813831	1.3695324958844013	2.98399975483615	0.6645748025198102	4.270040569716204	0.03724999214604141	-0.2999679417429164	0.3372179338889578	81.32114749775116
19	7.0	perception	202	diff_vonmises	-0.048211225642472016	-2.7622997544665373	1.3259511139576765	3.642807357481798	0.2538452454370008	4.741424034998376	0.5078158991508532	-0.4731029997738419	0.9809188989246951	103.15820887947734
20	7.0	wm	202	diff_vonmises	-0.18452169685558936	-10.572314458417663	0.9175784802423114	177.62667986471556	0.9042269528758282	178.91526466964868	0.03452584971961414	-0.29976075470890606	0.3342866044285202	84.97765168325105
0	1.0	ltm	203	diff_vonmises	-0.07875506588849067	-4.512332890685232	2.172706538750618	0.47266026803621464	3.4965030393351442e-15	3.7457011859866673	-0.3398623885870811	-0.5928233128421821	0.252960924255101	93.22934619473722
1	1.0	perception	203	diff_vonmises	0.06043805373470234	3.4628454009833267	11.170971730029587	0.6271149094721294	0.04255263173094624	3.6396252408904317	0.22194937504314993	-0.5884771839238775	0.8104265589670274	40.14564075319953
2	1.0	wm	203	diff_vonmises	0.0331589036337318	1.8998652314938413	6.08282530411187	0.3944831554422715	4.898198348251454e-33	3.9209256592712274	-0.24458917336606345	-0.6240327246436443	0.3794435512775809	55.242041354114775
3	2.0	ltm	203	diff_vonmises	0.041156565521009436	2.3580975036074827	5.920879689899978	0.5557504900654595	0.11954968697638828	2.374476916901257	0.10259622227759402	-0.3819724333876482	0.4845686556652422	53.56089736525732
4	2.0	perception	203	diff_vonmises	0.03156993055501168	1.8088237803232698	5.641542044696701	1.427893915397741	0.27695040828102696	3.5493339938173345	0.5889558511277176	-0.577123431972394	1.1660792831001117	53.90347112177872
5	2.0	wm	203	diff_vonmises	0.0936125187412814	5.363602233464746	3.3980839837486516	0.679957249375225	1.6043883090388825e-10	2.532340606849803	0.07471318330619708	-0.40250030553105515	0.47721348883725223	74.43947192025931
6	3.0	ltm	203	diff_vonmises	-0.0011936576509088185	-0.06839154558057545	4.481249490313113	0.5188452217516237	0.005680250668739841	1.6386120375400506	0.1619856337476811	-0.2595773894138734	0.42156302316155453	64.33629618660476
7	3.0	perception	203	diff_vonmises	-0.012171363452695193	-0.6973677567592121	4.481905121380325	1.8396008264252908	0.21453566606276325	2.994859623079928	0.9203186818888032	-0.4550534119394908	1.375372093828294	61.622565478661386
8	3.0	wm	203	diff_vonmises	-0.08865035045279049	-5.079290933300562	1.1523422997461534	231.20450545886501	1.137712977261837	232.45263614312074	0.17087069281052436	-0.34380887402338445	0.5146795668339088	78.58695281524564
9	4.0	ltm	203	diff_vonmises	-0.1275614217828984	-7.308731096848243	2.3074656830840805	1.056135080430947	0.16605771307315725	3.2417108327857473	-0.01132749620062179	-0.45845606258155436	0.44712856638093257	79.74424294010262
10	4.0	perception	203	diff_vonmises	-0.030283535338372577	-1.735118763624032	1.8946556284288874	3.8916877252065953	0.4556031418481482	6.393145853358313	0.4183189208094875	-0.6829635190626565	1.101282439872144	80.93781903581117
11	4.0	wm	203	diff_vonmises	-0.04398129182789554	-2.5199423992716325	0.8551137012009569	215.63395241977872	0.8382407376241378	218.07150409313653	-0.06365991195598042	-0.5208580350936352	0.45719812313765473	85.20289348379697
12	5.0	ltm	203	diff_vonmises	-0.03536317898217052	-2.026160905844109	1.8275017719456288	1.242540413934272	7.01186288063743e-16	2.3622542864568583	0.23092374298554436	-0.36026945878563016	0.5911932017711745	101.20693206254488
13	5.0	perception	203	diff_vonmises	-0.03822447025988462	-2.1901008200147216	2.037868540167826	2.067368386909425	0.06626842797006371	3.393851117794622	0.5021414269412311	-0.48664352978970704	0.9887849567309381	92.87425060697555
14	5.0	wm	203	diff_vonmises	-0.011199376587229803	-0.6416770116258952	0.450525815794424	230.10153007241558	0.44004044412610344	231.34529634672023	0.15369113006191526	-0.4066751741614709	0.5603663042233862	126.65226028379966
15	6.0	ltm	203	diff_vonmises	0.3382868220472529	19.382407168200718	0.6402500754521268	169.41857095280187	0.6291112511375399	170.28818765463674	0.12252214180611531	-0.2565904484609618	0.3791125902670771	107.19234548383429
16	6.0	perception	203	diff_vonmises	-0.10291566752159664	-5.896633394759089	0.6778919664889085	207.874300565674	0.6644495345834635	208.94268483109363	0.235035909435787	-0.35022306046371554	0.5852589698995025	105.79898556170508
17	6.0	wm	203	diff_vonmises	0.19943489253736235	11.42677763003598	0.3078732166751979	144.66115907188822	0.29665979628469874	145.54715288788577	0.10480626421157524	-0.3169572613127585	0.4217635255243337	143.02542873628977
18	7.0	ltm	203	diff_vonmises	0.030997067524432393	1.776001146432003	0.722170718309502	152.57018415624125	0.7057742294811853	154.22365575137385	0.004748110229733982	-0.37048031297840645	0.3752284232081404	95.25992108771348
19	7.0	perception	203	diff_vonmises	-0.0850371745574791	-4.872271203860816	0.8304191657241825	173.24063634871897	0.8039226941320743	174.2143335363801	0.5800687617834797	-0.45474036241678206	1.0348091242002617	99.14073105743394
20	7.0	wm	203	diff_vonmises	-0.17389478996773747	-9.963437544465245	1.023887712005334	164.7667882322597	1.004840780273637	166.09242236852666	0.1387274843374442	-0.3457125364319573	0.4844400207694015	82.96310943592769
0	1.0	ltm	204	diff_vonmises	0.040778620171252146	2.336442830179794	9.010227061208555	0.4160596209085221	0.0022871070372495785	3.1684089007412046	-0.014560251860842699	-0.5042362938894243	0.48967604202858156	45.18110625746962
1	1.0	perception	204	diff_vonmises	0.017146141878784427	0.9824015645868597	16.172897563200948	0.5956791082915293	3.55586553677902e-17	3.0669595385857935	0.4599651748005396	-0.48812177082875907	0.9480869456292986	33.673581173998684
2	1.0	wm	204	diff_vonmises	-0.41094781286316845	-23.545575277191514	0.00026069657983289625	4538.371990278413	4.4661671750378036e-32	4541.724232569184	-0.345217313693297	-0.7218100065513227	0.37659269285802566	175.21633557752983
3	2.0	ltm	204	diff_vonmises	0.17135591978801604	9.817970998435587	8.875114862226642	0.6202448543886606	0.45198930102226004	1.6262433479467735	0.33943476265986394	-0.3024315871359273	0.6418663497957913	42.84726920679796
4	2.0	perception	204	diff_vonmises	0.009100122022636135	0.5213985849511047	5.363268699207052	1.3195869520404864	0.32993932456564445	2.5576721052191034	0.6364256514807236	-0.4096190565840559	1.0460447080647794	55.27411149523624
5	2.0	wm	204	diff_vonmises	0.0884190674415925	5.06603939288584	1.6493152837008362	1.8374762435228909	0.3769127542940532	3.537267319831386	0.05084294031459102	-0.3875364013567084	0.43837934167129944	84.3034836018249
6	3.0	ltm	204	diff_vonmises	0.10435128667694543	5.97888831334871	1.594355026758373	89.38555660891852	1.5672543033103872	89.96538509646903	0.15859049816045712	-0.20079414743473123	0.35938464559518835	68.0891576742045
7	3.0	perception	204	diff_vonmises	-0.04107109686240077	-2.353200510188562	3.4449581196196366	2.1490283845953257	0.3546445003575285	2.9108825168076167	0.8813360341350763	-0.40055872083486693	1.2818947549699433	68.11107576316914
8	3.0	wm	204	diff_vonmises	-0.007923207687850008	-0.4539663607194128	4.460277743573895	0.6816912712606813	0.140218298183336	2.155886834446597	0.16310581847394956	-0.3362548184739933	0.49936063694794286	61.21941323781664
9	4.0	ltm	204	diff_vonmises	-0.013848280854317042	-0.7934480464641885	1.055138064830151	117.61663334920993	1.0281701817265803	119.05675179042564	0.09791505070129602	-0.35955785837392895	0.457472909075225	80.72760034818438
10	4.0	perception	204	diff_vonmises	-0.050945783319841904	-2.918978368214929	1.0507489061689286	334.358585956035	1.030149295053488	336.0395456958585	0.7140589222362479	-0.6268187603497957	1.3408776825860436	86.56698275182069
11	4.0	wm	204	diff_vonmises	-0.17170180299533697	-9.837788646419524	1.0446887985655662	316.84059948752196	1.029618486312841	319.26134099464514	0.05942215184386157	-0.5714088139059967	0.6308309657498583	79.28643623778385
12	5.0	ltm	204	diff_vonmises	-0.036489287427901584	-2.090682167058536	1.8045372441530054	1.0643633728683284	0.06278446375500936	1.6355461635605402	0.23897900328335325	-0.2302554433351699	0.46923444661852315	98.62602001112091
13	5.0	perception	204	diff_vonmises	0.006418221675563163	0.36773701398915276	2.2183829272616307	1.9092027914530334	2.4529979056518727e-06	2.8716962518561737	0.5911615081245772	-0.44463775653613063	1.035799264660708	92.29310797260817
14	5.0	wm	204	diff_vonmises	0.2578540769239943	14.773950337986546	0.43103493429114154	3.5167859861232547	5.074417654304245e-20	4.728091407698649	0.07015676479937216	-0.40509982211995765	0.4752565869193298	154.5358506735954
15	6.0	ltm	204	diff_vonmises	0.5786406121015818	33.15366492828723	0.8743583064367745	128.22830103068603	0.8623734913788046	128.7239733077688	0.13666790247600602	-0.16195480473624357	0.2986227072122496	93.42571270833096
16	6.0	perception	204	diff_vonmises	-0.07602792290028614	-4.356079107332417	0.63606769150115	275.52053305764616	0.6244538866593687	276.494236026157	0.34416245544420576	-0.39553453876481726	0.739696994209023	111.14513910523051
17	6.0	wm	204	diff_vonmises	0.09545558665636374	5.46920224635494	0.3581855488728301	4.380039864584042	4.51570254648066e-12	5.399702185513499	0.10673156323994071	-0.3874068169361663	0.494138380176107	159.55712385335067
18	7.0	ltm	204	diff_vonmises	-0.05979016316260063	-3.4257240056155824	1.2187186902779883	0.9851492591097197	1.4573746460424578e-19	2.1068744728125477	0.04157605311230678	-0.30238244320436025	0.34395849631666703	119.98774151662003
19	7.0	perception	204	diff_vonmises	0.03102854407117332	1.7778046197139041	0.8798134554875261	246.36311533649194	0.8643673857109101	247.26300680603347	0.441298901498115	-0.37137226548751556	0.8126711669856306	95.29498724590451
20	7.0	wm	204	diff_vonmises	0.03729567500595595	2.136884771932827	0.8116923217323415	138.3576708524898	0.7919995939576909	140.03503654739959	0.013552033386183382	-0.3773522294654956	0.390904262851679	89.88684944112259
0	1.0	ltm	205	diff_vonmises	-0.030451375812979395	-1.7447353144504754	2.1580554500085394	0.40473714329156996	5.408338455965852e-15	2.6783448144529185	-0.20769226116403242	-0.4233532809325751	0.2156610197685427	93.537894725629
1	1.0	perception	205	diff_vonmises	0.022988541890438054	1.3171464274817954	13.088625027569051	0.5636643472018934	1.9453569495889895e-16	2.8196226746436173	0.3565660635200463	-0.44875688632007504	0.8053229498401213	37.46883297770239
2	1.0	wm	205	diff_vonmises	0.02503786757766957	1.4345641402079083	7.406179299330088	0.33400049631904233	0.00591291784931361	2.794960934829157	-0.0914692435052129	-0.44464871183430354	0.35317946832909064	49.74495541595178
3	2.0	ltm	205	diff_vonmises	0.050872074602971454	2.9147551698249274	5.123644997168768	0.5352634154842479	0.21359701942921996	1.8444731491425315	0.11087173806608602	-0.2964195073878081	0.4072912454538941	56.08458295142083
4	2.0	perception	205	diff_vonmises	0.008815473054220407	0.5050894004181309	6.859015634924566	1.222488893053874	0.2632020781655737	2.7263640603357406	0.6969825557106074	-0.45354527447531473	1.150527830185922	49.720341369776804
5	2.0	wm	205	diff_vonmises	0.09355458456421449	5.3602828496292485	3.202645768081801	0.6189800114681688	3.214636366373126e-13	1.9177685423798572	0.11546279488403305	-0.3045269516954588	0.41998974657949184	76.73055105737731
6	3.0	ltm	205	diff_vonmises	0.016712177972377982	0.9575372642887601	3.971914244205921	0.5901967202032583	0.2729239754405788	1.2728008016941756	0.1907815010897571	-0.1917613959565106	0.3825428970462677	63.3064435464282
7	3.0	perception	205	diff_vonmises	-0.024727085237782366	-1.4167576237851711	4.976362499466417	1.576457774399629	0.20697305774655744	2.2256780429681315	0.9323240097954837	-0.34233094211704496	1.2746549519125288	59.04484417001265
8	3.0	wm	205	diff_vonmises	-0.11284517737242585	-6.465552401845177	1.3501656376752131	184.2360695237358	1.3352880576768793	184.92036432396458	0.2180768082101281	-0.23430857598865984	0.45238538419878793	74.81112676511978
9	4.0	ltm	205	diff_vonmises	-0.0884041631105662	-5.065185437621567	1.4371077283146374	4.3609163785976435	0.8278296360769882	5.824756954980047	0.04104478677954737	-0.34971679946645307	0.39076158624600044	76.43774185303764
10	4.0	perception	205	diff_vonmises	-0.03791230119718133	-2.1722148502272685	3.9062892283389057	1.502672113244534	1.1778029955404312e-13	3.47320718851745	0.587664150765307	-0.5523166379097608	1.139980788675068	69.29964310327523
11	4.0	wm	205	diff_vonmises	-0.037886681633218844	-2.1707469573392526	1.0529783502212393	274.33651350224306	1.040676316132377	276.0721830329653	0.02918551690746085	-0.4064693853249395	0.43565490223240033	78.56474552596427
12	5.0	ltm	205	diff_vonmises	-0.04275884527010369	-2.4499013708298643	1.956558489683677	1.0639495413143158	2.33129726844524e-16	1.8753441545271847	0.24312896427869685	-0.2876488451056491	0.5307778093843459	98.03749480070937
13	5.0	perception	205	diff_vonmises	-0.05300963990432806	-3.037228640026271	1.898109640208486	2.12702428410263	0.10315560027238073	3.0851877028993964	0.5201583716141863	-0.4178482700328014	0.9380066416469877	94.71599113454647
14	5.0	wm	205	diff_vonmises	0.0035559454892145222	0.20374066871057492	0.4777665616026552	163.59749851223643	0.4658702481980592	164.40251639725236	0.1685667500806005	-0.3011298835812912	0.46969663366189174	125.12845842796389
15	6.0	ltm	205	diff_vonmises	0.22520220213933032	12.903135719635666	0.7379074803949045	128.99493741874463	0.7252654180271878	129.593397313993	0.1379994218495142	-0.1931044927323562	0.3311039145818704	101.36730148622348
16	6.0	perception	205	diff_vonmises	-0.1654554504234432	-9.479899006699325	0.7561498999581874	197.1472436958877	0.7429711098318083	197.9476285220915	0.2616381965350527	-0.2907550579280489	0.5523932544631016	101.44273851551718
17	6.0	wm	205	diff_vonmises	0.11347967549258588	6.501906466239332	0.36971174644259247	138.39404352327597	0.35876607773049685	138.97728415104666	0.14691005487459563	-0.25391088625907265	0.4008209411336683	137.299834242137
18	7.0	ltm	205	diff_vonmises	-0.025489158638929612	-1.4604212133500887	0.8554113436188953	150.71857811522543	0.8401509312230788	151.88296025963507	0.07640014307855836	-0.28647134547442477	0.3628714885529831	89.88311808701184
19	7.0	perception	205	diff_vonmises	-0.10350604119643028	-5.930459314662685	1.2725486910988526	5.295198802812859	0.47659813942295476	6.149166015885923	0.5877813923755084	-0.4242919392388481	1.0120733316143564	97.27704608198786
20	7.0	wm	205	diff_vonmises	-0.12832174169227584	-7.35229421873534	1.0126640469421249	142.03703236574484	0.9967762765010454	142.95931642113524	0.11211480451724043	-0.24560314413645123	0.35771794865369166	83.82706002539715
0	1.0	ltm	206	diff_vonmises	-0.07666758870923306	-4.392729258483897	0.39487746725485323	69.99095836870222	0.37164624085623726	72.40290683304777	-0.24075075729068907	-0.4579544111970595	0.21720365390637042	117.61772485044261
1	1.0	perception	206	diff_vonmises	0.043565619725249353	2.496126142128677	11.239189582723649	0.6715846680495011	1.0022431835902349e-14	3.11734891235094	0.3912739552590304	-0.49614148858923823	0.8874154438482686	40.47108766444495
2	1.0	wm	206	diff_vonmises	0.07291731476478625	4.177854389449215	9.114602563958387	0.33943257449965997	6.82207346019465e-24	2.8695012794721855	-0.05380688168504605	-0.4566953079569669	0.40288842627192084	44.98381826504357
3	2.0	ltm	206	diff_vonmises	0.027481269334559532	1.5745607485325535	3.2906425450012335	0.7209174452555585	0.23041909330840574	2.181549642189712	0.06605648130504349	-0.3249145395529869	0.39097102085803037	67.54316560715765
4	2.0	perception	206	diff_vonmises	0.008059070988193872	0.46175075441983454	6.983692471963057	1.2271788685716762	0.18743238179781768	2.768651649729335	0.7417466510109011	-0.4529010311012564	1.1946476821121574	49.850945727086355
5	2.0	wm	206	diff_vonmises	0.10170020532640266	5.826992540816767	2.4433522841663686	0.7808499777283185	1.9191283678870499e-22	2.056176836323105	0.12678077583577152	-0.3238243961009635	0.450605171936735	87.98528977242486
6	3.0	ltm	206	diff_vonmises	0.08926942369813463	5.114761217468248	6.197816015918714	0.4277812217069546	8.052280789249145e-16	1.189397628495619	0.22624070185821446	-0.18929679290715673	0.41553749476537116	54.71730329030561
7	3.0	perception	206	diff_vonmises	0.010095727999792664	0.5784426055001721	4.33086793703027	1.772528531695906	0.2915160590476537	2.378917968136846	0.9266245333166834	-0.3529834527100796	1.2796079860267628	62.26828174163509
8	3.0	wm	206	diff_vonmises	-0.0891317047224989	-5.106870501405456	1.2624537059285064	156.0569460447813	1.2459122570433347	156.59905649489158	0.2627258412085709	-0.21270937467573958	0.4754352158843105	78.93883602631465
9	4.0	ltm	206	diff_vonmises	0.03259064196829552	1.8673062364052673	3.059571685259355	1.0227668463644408	0.3638571401021622	2.5675778570614125	0.10840784592927011	-0.36734787353080933	0.47575571946007944	67.26626860102567
10	4.0	perception	206	diff_vonmises	-0.041300012637486214	-2.3663164179649234	3.765104740055176	1.5412837047235073	1.0495793074354393e-15	3.577649671083539	0.5768773632814698	-0.5687854127461611	1.1456627760276308	70.62412795172762
11	4.0	wm	206	diff_vonmises	-0.0901498957049841	-5.165208547440137	1.1172235985715655	319.19997274550497	1.1048086956738195	320.8027868301599	0.16162733314088484	-0.42107584295672496	0.5827031760976098	78.97815658166192
12	5.0	ltm	206	diff_vonmises	-0.061769835223117235	-3.539150859503151	1.5869971207195377	1.1968609244911768	5.25696698636691e-17	2.0850214433756915	0.2046027619280132	-0.3093963981476172	0.5139991600756304	107.81535943120296
13	5.0	perception	206	diff_vonmises	-0.019781816364591618	-1.133414588793925	1.816677787661403	2.441464277183993	0.14616483273647501	3.364325071597689	0.5717430616260899	-0.4292947757734765	1.0010378373995663	94.99710206245996
14	5.0	wm	206	diff_vonmises	0.07151942347676692	4.0977611184276	0.5605834478206786	170.44813471556364	0.5491736734152256	171.1694718136808	0.18163218364884415	-0.2703829944530405	0.45201517810188463	117.069228859455
15	6.0	ltm	206	diff_vonmises	0.27483868511668397	15.747096704110985	0.8633839278823694	129.79188368632325	0.8500492734953682	130.39785840826187	0.14039228932429637	-0.1879033475787537	0.3282956369030501	93.42956025487206
16	6.0	perception	206	diff_vonmises	-0.17586123995291653	-10.076106829239569	0.6348685647827154	186.0054598920979	0.6224285985682937	186.7538213655552	0.23716339388693797	-0.29000514232071417	0.5271685362076521	110.87344644517273
17	6.0	wm	206	diff_vonmises	-0.023704780708220935	-1.3581838888641942	0.6668879662857109	138.39072771066645	0.6547032744118446	138.9166754106499	0.17558623180947563	-0.20340650402717309	0.3789927358366487	108.27816851689066
18	7.0	ltm	206	diff_vonmises	0.09009774224506026	5.162220374299495	0.6328218585453106	41.01029412152472	0.5847859609052166	42.13370103757889	0.07805310270004107	-0.29498798903606405	0.3730410917361051	107.22282164619043
19	7.0	perception	206	diff_vonmises	-0.10137589644759111	-5.808411010802246	1.3603680250444792	5.679706775807944	0.5690014048118901	6.28713916581986	0.6867079098996283	-0.3943112822899195	1.0810191921895478	93.53549865372759
20	7.0	wm	206	diff_vonmises	-0.05856682387174871	-3.3556318273372407	0.9617307729699694	118.15289777988467	0.9418999238855926	118.90744554337712	0.19536412957772598	-0.23817498897457234	0.4335391185522983	88.85906030063566
0	1.0	ltm	207	diff_vonmises	-0.07382144179451275	-4.2296570523962425	10.947610729885897	0.23446555930497665	9.351433544592863e-31	3.0188127119989887	-0.17468538963555996	-0.48045896528855603	0.30577357565299607	41.00240194325903
1	1.0	perception	207	diff_vonmises	0.04950977461993958	2.8367011303664573	12.481644831215487	0.6782620851975706	4.517489156476663e-16	3.535316007411678	0.3833153347258911	-0.5626630179578417	0.9459783526837328	38.37269238088663
2	1.0	wm	207	diff_vonmises	-0.12537115653934963	-7.1832381423787055	0.00024261983067379894	4293.18930584312	2.8984813292583746e-32	4296.515835080472	-0.36364652917029616	-0.6952005036748687	0.3315539745045726	179.53678988154599
3	2.0	ltm	207	diff_vonmises	0.14240810683760086	8.15938349024265	8.058737138483972	0.5056930763835477	0.25208098139332996	1.6336098070433271	0.23395462453644228	-0.2803208386169152	0.5142754631533575	45.651957872401596
4	2.0	perception	207	diff_vonmises	0.00018361023789910435	0.010520091707011674	7.662444793423058	1.1886278553360745	0.2100027275094176	2.581133700818196	0.7885121937851516	-0.4289473264980832	1.2174595202832348	47.60596508362701
5	2.0	wm	207	diff_vonmises	0.09773363925146072	5.599725045562821	2.4083456184870586	0.8194602994932126	4.4030372801331616e-13	2.4421822337628485	0.08373252626141314	-0.3848614001112224	0.4685939263726355	88.62241066110576
6	3.0	ltm	207	diff_vonmises	0.091456025940966	5.240044297456325	2.9035626549801976	1.2597450978304139	1.0902138652929043	1.6946598620138944	0.20191987446770354	-0.17729545279017056	0.3792153272578741	62.53469974278545
7	3.0	perception	207	diff_vonmises	0.015274976456385175	0.8751916831125686	2.559780171170452	4.026557116128304	0.8986226031268667	4.599473544440721	0.9230508495122529	-0.420488728339357	1.34353957785161	70.18958764349762
8	3.0	wm	207	diff_vonmises	-0.08887496201349637	-5.092160227758855	1.163149637322059	99.31594091215636	1.1365899285237504	100.14742451933103	0.18526680941728557	-0.25215852242897085	0.4374253318462564	79.97084754029248
9	4.0	ltm	207	diff_vonmises	0.027180890652375188	1.557350317787689	1.276252937984498	204.9601815773789	1.2582899155836134	206.3010286616044	0.150158488678386	-0.3680040820451538	0.5181625707235398	73.9413587137004
10	4.0	perception	207	diff_vonmises	-0.10408338065931375	-5.9635384292322575	1.601346470690288	8.785902072608788	0.8605106543522114	10.24478250927254	0.7306304230230531	-0.5729373982686877	1.303567821291741	80.28501944741072
11	4.0	wm	207	diff_vonmises	-0.1591009398316805	-9.115812368920142	1.0955711665552812	331.1820739062634	1.0828115716672295	332.9279770748558	0.1683366670572184	-0.45469495288139683	0.6230316199386152	79.68878301837418
12	5.0	ltm	207	diff_vonmises	-0.135306792862381	-7.752508170465283	2.000536539532065	0.8439204451944772	1.3787122781424292e-16	1.8533453915181441	0.14045963219311686	-0.28700218126412175	0.4274618134572386	96.98384963394125
13	5.0	perception	207	diff_vonmises	0.0061653996006526424	0.3532513761290396	0.873501148093047	162.3069862334238	0.843471768701489	163.42209533030828	0.5819081123052499	-0.47693848628378355	1.0588465985890334	96.27267073296437
14	5.0	wm	207	diff_vonmises	0.20298836862159245	11.630376812263039	0.365554259712816	54.89372723494533	0.33694242161489085	56.21896547019632	-0.0023478093416606782	-0.3465395103105058	0.3441917009688451	134.26191172757967
15	6.0	ltm	207	diff_vonmises	0.47739938958811945	27.35297016552098	0.8367400060301913	134.2910380637452	0.8242067485148145	135.24184369206176	0.028195372695655863	-0.22139403335708074	0.2495894060527366	89.34806739447927
16	6.0	perception	207	diff_vonmises	-0.08756355289599244	-5.017022020110904	0.6382420495496576	305.5203707497899	0.6278297376568609	306.72226344698237	0.2783503053976091	-0.41083896561427125	0.6891892710118803	109.25362868000941
17	6.0	wm	207	diff_vonmises	-0.09732194168775551	-5.576136512726695	0.5256351744519548	101.33185348890294	0.5045766163641414	102.73469601558541	0.05238982056797781	-0.3640977162517167	0.4164875368196945	115.65398125634219
18	7.0	ltm	207	diff_vonmises	0.11680342386531463	6.692343220160165	3.334352604186526	0.4541761550526257	1.8512221005989321e-19	1.5301229110371042	0.07222808191348323	-0.24312556449486283	0.31535364640834607	75.16291037607144
19	7.0	perception	207	diff_vonmises	-0.02826976117760299	-1.6197380033194353	0.9120452050644412	16.43991112258735	0.673124773663135	17.25669599718612	0.5210091796011653	-0.40204218157830507	0.9230513611794704	101.0115172754866
20	7.0	wm	207	diff_vonmises	-0.07063139129486944	-4.046880622333082	0.7958346585203632	120.64747591478064	0.7770991604202071	121.76945375932735	0.09589583084106579	-0.2863925818432609	0.3822884126843267	94.21481199868526
0	1.0	ltm	208	diff_vonmises	0.06435642374445495	3.687351465112787	0.2401384416727782	34.10240742853134	0.21970250960408363	35.6914426166092	-0.18924834522464362	-0.2975060600060617	0.1082577147814181	141.75973765028408
1	1.0	perception	208	diff_vonmises	-0.008542829681480006	-0.4894680858478937	10.907099861374176	0.755398400786519	2.141831733975254e-17	2.4081135679984467	0.5996991321858471	-0.38326317754317124	0.9829623097290183	41.08547596296805
2	1.0	wm	208	diff_vonmises	0.029070483373062887	1.6656160056817368	16.880057738142806	0.22637950144968308	1.0528341854786272e-23	1.9961142880763045	0.05043030363234885	-0.3176914559237027	0.36812175955605153	32.96294015301359
3	2.0	ltm	208	diff_vonmises	0.05156214060606747	2.954293039387791	4.064464428411977	0.5068093214658314	0.36649445089430227	1.4266998714282264	0.07622390278354635	-0.2223195313898786	0.29854343417342494	59.8338068701116
4	2.0	perception	208	diff_vonmises	-0.024872123941621763	-1.4250677293812166	10.169391934987107	1.076789789069339	0.09637531849339842	1.8740143756513021	1.0241953342245922	-0.3062360608976799	1.3304313951222722	42.17135317287941
5	2.0	wm	208	diff_vonmises	0.020145789324347553	1.1542687032448251	1.3058686876499008	0.9916484915098029	3.8864841966601365e-19	1.8964441874429214	0.09337269406367987	-0.2728177009537829	0.36619039501746276	116.8677495132547
6	3.0	ltm	208	diff_vonmises	0.15736123918068348	9.016134864001852	6.882030995944232	0.35223595897531584	0.3888904100306623	0.45344219291677995	0.25887216401627605	-0.07554197613916418	0.33441414015544024	49.81177826954368
7	3.0	perception	208	diff_vonmises	-0.00029353828028641943	-0.016818504585940048	4.375593485018604	1.629537505671758	0.4852131395761789	1.6160821928615114	0.9211563615504414	-0.2292883120898965	1.150444673640338	61.260759790129185
8	3.0	wm	208	diff_vonmises	-0.18421364680943406	-10.554664490894154	1.8873014171870914	64.57586875666358	1.861457840004706	64.55112694095429	0.2803517743446271	-0.08607266120334778	0.3664244355479749	68.95692213553471
9	4.0	ltm	208	diff_vonmises	0.09524798014907264	5.457307269687708	1.78207199132514	99.98427472881788	1.747754946004107	100.78920824596541	0.18313804757443108	-0.2821581080486144	0.4652961556230455	63.66646020314269
10	4.0	perception	208	diff_vonmises	-0.09916685592007914	-5.681842311802456	3.829773236084603	1.7928488364073691	1.9945494945869466e-14	3.0165742695057896	0.8658324088481508	-0.47946799429279974	1.3453004031409506	70.00912651179084
11	4.0	wm	208	diff_vonmises	-0.2012830456623675	-11.53266900399269	1.368004082200588	310.6900986080174	1.3564941954465939	311.65954342740133	0.24753030339807935	-0.31396659678019745	0.5614969001782768	73.52865489969224
12	5.0	ltm	208	diff_vonmises	-0.04812482760983859	-2.7573495118384086	2.741548339963016	0.6939824393726491	8.6726937823755e-15	1.1450997949605533	0.24934857042273667	-0.1804542986339627	0.4298028690566994	83.05025732500286
13	5.0	perception	208	diff_vonmises	-0.007198610132730672	-0.4124499789655769	1.6935508134754345	2.7644008318148914	0.2536356116044296	3.003370100538897	0.6828123167007633	-0.322998385361851	1.0058107020626141	95.82868792678553
14	5.0	wm	208	diff_vonmises	-0.03856541645379096	-2.2096355979666042	0.6667933400087523	90.75252834330347	0.6509000705819589	91.060188830439	0.18962564344225186	-0.1633285551960535	0.35295419863830535	110.58838652703152
15	6.0	ltm	208	diff_vonmises	0.2540132277677365	14.55388589158659	1.0686809989554222	71.14570944064472	1.0523984368477486	71.39405590120568	0.13052703708301294	-0.10139337483050959	0.23192041191352253	86.42444077749846
16	6.0	perception	208	diff_vonmises	-0.210346293289616	-12.051954841715986	0.7165358405588897	144.4253032138501	0.7044681721900471	144.7223423090076	0.24756287909445973	-0.18208522075471656	0.4296480998491763	107.35924199804731
17	6.0	wm	208	diff_vonmises	-0.2578844408727269	-14.775690064098274	0.8653610451019615	106.50727429293305	0.852092937296657	106.67056657093319	0.2183736390296218	-0.1251927878722583	0.3435664269018801	98.79906131102918
18	7.0	ltm	208	diff_vonmises	0.05001452039328353	2.8656209329061326	1.0597257244705403	97.21509516232992	1.0442436165913407	97.67174582398016	0.12345504538264862	-0.14516487643914822	0.26861992182179684	84.4868227206025
19	7.0	perception	208	diff_vonmises	-0.15827007073735988	-9.068207076487715	2.1660614194096497	1.6650778971700382	6.28925413829667e-13	1.7961098457070106	0.615387441336128	-0.2740176740667111	0.8894051154028391	93.34434141151999
20	7.0	wm	208	diff_vonmises	0.4671073801750842	26.763281463445143	0.00019829525501117702	3434.917758017686	1.3475447686986297e-29	3435.152315858331	0.07107827953257129	-0.14572961137298535	0.21680789090555663	173.39066770418196
0	1.0	ltm	209	diff_vonmises	0.02306012125583318	1.321247623019161	6.425244443049113	0.5879306491030565	0.14734930507898206	4.123906284195025	-0.17448077948128538	-0.6805819177954152	0.5061011383141298	50.03657793018229
1	1.0	perception	209	diff_vonmises	0.04362182943725685	2.4993467213943523	17.741318968391987	0.680972923904875	1.6402648665337342e-14	3.394654416647927	0.5949661850872777	-0.5402760304982427	1.1352422155855204	32.159211010516856
2	1.0	wm	209	diff_vonmises	0.15893925733090816	9.106548644004768	4.519311142874934	0.6036606164220419	0.042580542292674564	4.5278258675089145	-0.25576508162951367	-0.7150613730790603	0.4592962914495466	61.68485905688911
3	2.0	ltm	209	diff_vonmises	0.10671173199775799	6.114131868002674	2.6237302261518525	1.694775058460385	0.7193124325981574	2.998522795082096	0.1631760242276521	-0.3604632410397183	0.5236392652673704	66.33523547735214
4	2.0	perception	209	diff_vonmises	0.021630742574613008	1.2393502572592696	4.854169023112539	1.6121677814648487	0.40166105591628215	3.0729577672320403	0.6737794715907267	-0.48414587033347767	1.1579253419242044	57.032866432789746
5	2.0	wm	209	diff_vonmises	0.09484673254145688	5.4343174752316035	3.861088862985377	0.8030914111792357	0.14475344518964173	2.3808460551903585	0.16991341938351012	-0.3642762850043003	0.5341897043878104	65.37347156446594
6	3.0	ltm	209	diff_vonmises	0.1659641882321552	9.509047536017256	8.567220904311496	0.44551543448204617	0.009783464625141543	1.2831319063222268	0.30580846981159543	-0.2041820086814251	0.5099904784930205	46.313460482932186
7	3.0	perception	209	diff_vonmises	-0.07739623243347588	-4.434477468651704	5.935729799224992	1.0010193755873695	3.0776136315288125e-16	1.4918746264458296	0.7129544145524724	-0.23743257860713507	0.9503869931596075	55.942941672050665
8	3.0	wm	209	diff_vonmises	0.027387093687811195	1.569164881440959	3.0374838359619174	1.3440812140948697	0.5656500413413585	2.2683415787414027	0.2988459394899934	-0.2962809990288183	0.5951269385188117	66.85027980873963
9	4.0	ltm	209	diff_vonmises	-0.33183726241939826	-19.01287462180668	0.7326502887626781	162.8872124975568	0.7118840125396831	164.94843509553863	0.054063064625708535	-0.4812177232880366	0.5352807879137451	96.00746705265811
10	4.0	perception	209	diff_vonmises	0.06390899823703332	3.661715871891028	1.4369125933748108	2.867434102450804	1.3968254892830362e-11	5.3870754537780075	0.3527760438428714	-0.789023694529784	1.1417997383726555	112.44063363459469
11	4.0	wm	209	diff_vonmises	-0.06285609031198279	-3.6013886915697557	1.1396889754382395	187.14127847691478	1.1123509906562261	189.5983908086306	0.06316437870833624	-0.5919211268779314	0.6550855055862677	76.00010358628296
12	5.0	ltm	209	diff_vonmises	-0.05812700933391337	-3.3304323105507785	2.2617284081310025	1.0003716618682588	3.220329929954694e-18	1.6225901601661232	0.2973753774099341	-0.2522135248422257	0.5495889022521598	91.4190757772217
13	5.0	perception	209	diff_vonmises	-0.037855721196939224	-2.1689730550085464	1.7393112119777496	2.8292623139763413	0.24479415051975978	3.9026457037255247	0.5592598652411549	-0.4459205173753349	1.0051803826164898	92.85616345541635
14	5.0	wm	209	diff_vonmises	0.040591710447242815	2.3257336918441047	0.5792883746939168	169.44767444339388	0.5644252490120588	170.06798119159316	0.3147035399953779	-0.318158663096467	0.6328622030918449	117.70290446442256
15	6.0	ltm	209	diff_vonmises	0.21201186467764058	12.147385052727541	1.0446718728789286	46.05771397284961	1.0145080952772505	46.27893670443675	0.18589658822099508	-0.11633264344586358	0.30222923166685867	89.15112045858717
16	6.0	perception	209	diff_vonmises	-0.3051569231011117	-17.484203782891914	0.3800171713366641	5.006614002507118	3.543058168534188e-14	5.63711540466191	0.2270613819101629	-0.3714110586621533	0.5984724405723162	156.88071299720434
17	6.0	wm	209	diff_vonmises	0.4525363820939603	25.928424770103526	0.4418559474067366	139.12822559620383	0.4307730840938455	139.10538325161986	0.29034668505656924	-0.18134403754128314	0.4716907225978524	131.81938058347728
18	7.0	ltm	209	diff_vonmises	-0.04821585911951705	-2.7625652331456885	0.4146713061485779	115.1969820921283	0.39873446093555875	116.6967145909445	-0.004620079964624324	-0.3779782949466206	0.3733582149819963	127.07789101374796
19	7.0	perception	209	diff_vonmises	-0.03534970963727073	-2.025389169228545	1.0076838632669458	193.6197309826421	0.9860386124272	194.7118831596302	0.4227143106711253	-0.39431733478062725	0.8170316454517526	88.17939947231653
20	7.0	wm	209	diff_vonmises	0.09297872096019888	5.327288295543961	0.8700570011526665	170.27453488811463	0.8532179528015075	171.61245841411264	0.12707109955480433	-0.3435913294686408	0.47066242902344513	90.10580232429419
0	1.0	ltm	210	diff_vonmises	0.00026647197670848785	0.015267719623904729	1.6776593590867641	0.6002256852888044	0.01792537097117813	2.6112210351676173	-0.14478029802038295	-0.39846085938725606	0.2536805613668731	102.47229150435047
1	1.0	perception	210	diff_vonmises	0.06629697546849808	3.798536888827294	6.418227005532708	0.8122986900440657	0.266207062956353	2.9931688377181764	0.19281424137802095	-0.5041233202655995	0.6969375616436204	50.038331994495906
2	1.0	wm	210	diff_vonmises	0.004833926773903633	0.2769636026199679	3.7210608572346273	0.7059454042348414	0.24153069167775407	2.6712797792894603	-0.01183657356834833	-0.4132468218255111	0.40141024825716276	62.821910605105046
3	2.0	ltm	210	diff_vonmises	0.04404599375988142	2.523649546900766	3.3532988050908394	0.676467912430873	0.20209675459514362	1.9411629135660293	0.09745552708769356	-0.2894260524724047	0.3868815795600983	68.08670485178371
4	2.0	perception	210	diff_vonmises	0.054490849499917345	3.1220956984278163	4.603204730686864	1.6133195911637384	0.5016945288611561	3.2129449890876196	0.5446312938404254	-0.5059051067505078	1.0505364005909332	56.990968697662
5	2.0	wm	210	diff_vonmises	0.11735826070357261	6.72413302931073	2.5052804868837746	0.9613359969211744	0.24844645420046496	1.9264839951640282	0.18017480606657588	-0.2592345742919334	0.4394093803585093	77.46516302827558
6	3.0	ltm	210	diff_vonmises	-0.013472190607585414	-0.7718996626104325	3.439139392330582	0.9951427564075676	0.4850422411811604	2.0715141524531435	0.19859735093566155	-0.29801637666096226	0.4966137275966238	63.59175135160501
7	3.0	perception	210	diff_vonmises	-0.034406348206261345	-1.9713385406762856	6.032713078126906	1.358404614521346	0.08586627242417189	2.167985488429955	0.925675001626241	-0.34172618343285804	1.267401185059099	54.64933562513511
8	3.0	wm	210	diff_vonmises	0.010389425249203992	0.5952702183460422	1.0894357668414818	165.7274339054878	1.0735841332423828	166.48308262809172	0.22418858551839804	-0.24709720747987873	0.4712857929982768	83.60227839673175
9	4.0	ltm	210	diff_vonmises	-0.1559158029057989	-8.933317465895854	1.11949308795817	159.87707888738584	1.100135424545543	161.4686313634998	0.004888117662282809	-0.3717897646462589	0.3766778823085417	75.58782438969706
10	4.0	perception	210	diff_vonmises	0.03906137848209416	2.238052128987125	4.904176749050419	1.085690745345615	1.4606490097294057e-21	3.351676293821929	0.3982970100894786	-0.533384609185485	0.9316816192749636	61.66831729598837
11	4.0	wm	210	diff_vonmises	0.2320218297298753	13.293871598424865	1.0659713235948693	81.20567957072278	1.0271844843553577	82.82732555240133	0.030734138427732205	-0.3807553426954904	0.4114894811232226	78.6731203096457
12	5.0	ltm	210	diff_vonmises	-0.07466333300687061	-4.277893865673501	1.2216301135993823	1.5737751790188699	7.710776750106793e-15	2.7531632289099592	0.1647661954997397	-0.3857958248095899	0.5505620203093295	119.86775032027163
13	5.0	perception	210	diff_vonmises	-0.11894163327998612	-6.81485359533598	1.5816623218426797	2.639538519550278	0.22313626574163678	4.096404726329368	0.3758006158287788	-0.47061155348184935	0.8464121693106281	95.90540633039656
14	5.0	wm	210	diff_vonmises	0.14279583883221528	8.181598897116245	0.45946908594284447	132.82758847178988	0.4449049994555771	133.66794261280378	0.15990650802702788	-0.3089401927682669	0.4688467007952948	126.8887319434299
15	6.0	ltm	210	diff_vonmises	-0.022095436374088354	-1.2659752507351054	1.9459396367037365	0.8788538107084953	1.1747153779172332e-15	1.8663939610427216	0.14887658478456173	-0.28794552240400095	0.4368221071885627	98.28776329016523
16	6.0	perception	210	diff_vonmises	-0.23939332161866336	-13.71622697236734	2.398796157493243	1.0803819680406317	0.0017330792776658228	2.4406322949892143	0.2322840826638602	-0.38263923582979725	0.6149233184936574	88.66195043470984
17	6.0	wm	210	diff_vonmises	0.2575726600811938	14.75782634061018	0.5436287440608604	156.41720774904172	0.5307713403169853	157.22721147093557	0.17337296563005822	-0.2901919220771738	0.46356488770723203	118.16518218563002
18	7.0	ltm	210	diff_vonmises	-0.20284681636300128	-11.622266465265222	2.5416178693977356	0.9528496676768204	0.11961888257824065	2.782430299726562	0.06968219482926963	-0.4048910445913733	0.47457323942064294	79.24716229846442
19	7.0	perception	210	diff_vonmises	-0.049032855401623075	-2.8093756719882435	1.9536529062669568	3.0936063420782416	0.2026980461879416	4.98241601250072	0.6121894286245216	-0.6260103194294587	1.2381997480539804	88.84765210755506
20	7.0	wm	210	diff_vonmises	-0.04477367926271515	-2.565342855025994	1.1912371051903905	258.5018747272302	1.1768978664847232	259.8106021021219	0.19567156651946505	-0.3679748424290068	0.5636464089484718	77.47304712510467
0	1.0	ltm	211	diff_vonmises	0.010318986751218694	0.591234389696244	12.303100421663332	0.2600769497911426	0.06527409016989245	2.883877350059945	-0.12944388055843714	-0.47418433388122594	0.3447404533227888	37.74279118381551
1	1.0	perception	211	diff_vonmises	0.044854507134616015	2.5699739509529373	14.720797212210975	0.6181001025977818	0.01718899120176271	3.151659196890111	0.42715337193805136	-0.5052958675376329	0.9324492394756843	35.20413094471189
2	1.0	wm	211	diff_vonmises	0.1364459010368324	7.8177742612702	6.288778149522349	0.35529518434972424	1.7263813245506674e-14	3.5415458983579984	-0.21588593615976365	-0.5636533365363089	0.34776740037654524	54.3118487875621
3	2.0	ltm	211	diff_vonmises	0.1456579044050107	8.345583175127116	7.029634008627156	0.546971970779519	0.4343265697143861	1.4626237309548895	0.2243925407244623	-0.25918178061066405	0.48357432133512634	47.45368739604393
4	2.0	perception	211	diff_vonmises	0.002753503261961867	0.1577641157859201	7.906182451113608	1.2144893922523636	0.32807289120844757	2.4384026378828705	0.8148073422367823	-0.42066557416165856	1.2354729163984408	46.33885384375722
5	2.0	wm	211	diff_vonmises	0.07988886733402505	4.577294928320184	1.5668183910094933	2.4167820207370103	0.5168006758811622	3.928615932184739	0.09316308998224032	-0.36448751160373427	0.4576506015859746	82.6877359061798
6	3.0	ltm	211	diff_vonmises	0.10179893338094521	5.832649241661593	2.084134543509452	82.99961534216045	2.0546676296397854	83.32635915497768	0.20365784600646464	-0.16549011317555262	0.36914795918201726	60.948895850245776
7	3.0	perception	211	diff_vonmises	-0.03196972625165592	-1.8317303864084775	4.420804828863839	1.5430429188467838	0.32196795194745204	1.9113251815157795	0.8434574648908513	-0.2827588857337419	1.1262163506245932	61.615693168705604
8	3.0	wm	211	diff_vonmises	-0.032388615735443375	-1.8557309859119122	1.4143162531077558	124.88825643920832	1.3927212437745826	125.61084270376008	0.18174341868631672	-0.23517106877849692	0.41691448746481363	72.31251961253543
9	4.0	ltm	211	diff_vonmises	-0.06348520614544073	-3.637434373651751	1.325309998539453	233.2392633698074	1.3112155818204658	234.51011152467913	0.08792008973343002	-0.3376860863130382	0.4256061760464682	71.34362876714587
10	4.0	perception	211	diff_vonmises	-0.08103071594192415	-4.642718034395691	3.011002326618051	2.066749639038354	0.16101497649501698	3.5000533043585795	0.7062347098408979	-0.5003159320439153	1.2065506418848133	74.66437525421387
11	4.0	wm	211	diff_vonmises	-0.06624018507323949	-3.7952830388620966	1.1232551288863057	283.1636177871665	1.1107666237731035	284.8926064036803	0.03384964267334567	-0.41261280922369536	0.44646245189704103	76.0638940773348
12	5.0	ltm	211	diff_vonmises	-0.12409123160399244	-7.109903845489184	2.753988969482405	0.6829955556712222	1.6540729407594584e-19	1.6315679890279342	0.166214201250019	-0.2579454232936621	0.4241596245436811	82.85491496811238
13	5.0	perception	211	diff_vonmises	-0.04676142742075543	-2.679232435216605	0.8733432768687028	208.7117912987514	0.8512836021162684	209.8618965821752	0.5177050909026519	-0.4574386041112497	0.9751436950139016	95.55143409716516
14	5.0	wm	211	diff_vonmises	0.09047536910705777	5.183856799722721	0.9823322638043253	1.2231804786252876	1.9963166395011087e-11	2.426221612397637	0.027735081311436094	-0.32811735987485846	0.35585244118629455	129.23571469560568
15	6.0	ltm	211	diff_vonmises	0.23711337306764665	13.585595542887114	0.7773645099532231	114.76137769519806	0.7643339396328958	115.63863007775085	0.025148192935702696	-0.20448158639238478	0.22962977932808748	92.8821369459607
16	6.0	perception	211	diff_vonmises	-0.1842558866315113	-10.557084654426564	0.6491424507584015	277.72226515104904	0.6375309416925119	278.89949661188484	0.29158671627833144	-0.4092475911429254	0.7008343074212569	108.6133348864345
17	6.0	wm	211	diff_vonmises	0.27430459845865474	15.716495792711664	0.04181461061578975	34.49927200383931	9.276941320839592e-15	35.75777405859806	0.031658998438923724	-0.427453937707039	0.4591129361459627	175.28308199599851
18	7.0	ltm	211	diff_vonmises	0.0350995573826734	2.011056500804436	2.0224910897471755	1.1514906304992234	0.48854886119321994	2.374177711171226	0.017340250650642486	-0.27753542077615373	0.2948756714267962	74.61998947630482
19	7.0	perception	211	diff_vonmises	-0.02462008331442955	-1.4106268651772724	2.0094963361204745	1.7315987229650622	3.256247173171431e-16	2.88745854413185	0.43626787484020474	-0.4434527837659835	0.8797206586061883	96.8036407373819
20	7.0	wm	211	diff_vonmises	-0.11833969750697851	-6.780365216004698	0.7812894054773757	133.93795095401066	0.7669579011365911	135.22244688035556	-0.015371394876780187	-0.27949317585517974	0.26412178097839956	90.31717040160245
0	1.0	ltm	212	diff_vonmises	-0.211026859621021	-12.090948420184194	1.9245561003403826	0.3736027282257816	5.005047280558345e-26	3.944791098504344	-0.43953202865522856	-0.623822429255765	0.18429040060053647	98.72868449171271
1	1.0	perception	212	diff_vonmises	0.08743534689674452	5.009676357445741	12.238794023380148	0.6919678994536838	0.014375367071004824	3.8216082886635734	0.33849715694024596	-0.611091786774817	0.949588943715063	38.610505462938505
2	1.0	wm	212	diff_vonmises	0.19212195728013434	11.0077773039444	14.676748228079978	0.319534399767364	5.317617965516242e-41	4.228782963840104	-0.18896228933313547	-0.6730317119578618	0.48406942262472635	35.36297520898668
3	2.0	ltm	212	diff_vonmises	0.09439873465569268	5.4086490871465305	8.011325803869092	0.44692057478513353	0.11257877190397815	2.137245712652427	0.11669345565550088	-0.3507385461097957	0.4674320017652966	46.49093766539832
4	2.0	perception	212	diff_vonmises	0.027378800677209447	1.5686897269340214	8.204206540006764	1.298325322437536	0.19688767925458994	3.2453813774159537	0.8363753220500317	-0.5431523217762256	1.3795276438262574	46.02733717189281
5	2.0	wm	212	diff_vonmises	0.07791607679857589	4.464262356775593	3.267559011129204	0.727236257880092	0.0037164754202680303	2.6754286409417922	0.07246265400034047	-0.4235009901919124	0.49596364419225286	75.66794051995055
6	3.0	ltm	212	diff_vonmises	0.12383242965993323	7.09507558636481	5.873371316975571	0.4271983680201238	0.13280522853672616	1.178503994617911	0.1901474930555357	-0.1881503454989228	0.3782978385544585	54.30909249967007
7	3.0	perception	212	diff_vonmises	-0.0027849897258844032	-0.15956815728047236	4.976513710196678	1.3734118380375286	0.07953656425114734	2.02667225337688	0.8392207555176527	-0.31451214094279395	1.1537328964604467	60.193313292811325
8	3.0	wm	212	diff_vonmises	-0.02118691468696195	-1.2139207924666575	1.3064171916420526	146.60055229276506	1.2859071996915157	147.43719174936962	0.21651278257319007	-0.2685579872891495	0.48507076986233955	75.53845344478631
9	4.0	ltm	212	diff_vonmises	-0.06827377148075221	-3.911798957287747	0.9297946690715622	55.98450961148874	0.8702195621237282	58.20604869671193	-0.06913759335613179	-0.4747946052844245	0.40565701192829273	82.1850391551107
10	4.0	perception	212	diff_vonmises	-0.06523046321105172	-3.7374302376766475	1.5997043138453129	5.008174720564801	0.5062994834314525	7.312024206826717	0.44293985092079424	-0.6573014154644093	1.1002412663852037	85.20674275688009
11	4.0	wm	212	diff_vonmises	-0.08080815490865725	-4.629966226505427	1.0646301402347993	281.980121805968	1.0497160366695397	284.20855779018126	0.008770511359983857	-0.5146633521551323	0.5234338635151161	77.56863701365234
12	5.0	ltm	212	diff_vonmises	-0.11627686917153299	-6.662173858523674	2.226703617302841	0.8654092393630156	3.2553654751354907e-16	2.076426928104764	0.14572843057390011	-0.32493073970192743	0.47065917027582754	92.11216431118464
13	5.0	perception	212	diff_vonmises	-0.03631776518309833	-2.0808546663386998	0.9440871431949935	25.36376610400606	0.7567104854326113	26.660007731286772	0.523408273889479	-0.4932323039803286	1.0166405778698075	95.91513288098443
14	5.0	wm	212	diff_vonmises	0.005025738843184185	0.2879536246494145	0.5849982243176506	205.01190623951436	0.573485671177275	206.19593132241562	0.13726523067965957	-0.3459213392837306	0.48318656996339016	111.73714733522323
15	6.0	ltm	212	diff_vonmises	0.3126197266631417	17.911790930331428	0.8409618580762984	158.6060720776216	0.8293186319793466	159.51594257623395	0.07113224617000213	-0.2283235362490359	0.29945578241903803	91.04122406248777
16	6.0	perception	212	diff_vonmises	-0.2153349969323406	-12.337786505685646	0.47836763604511184	254.16756668578117	0.4682608584656266	255.177089843748	0.23490569508685155	-0.3917831744284719	0.6266888695153234	125.07291867065481
17	6.0	wm	212	diff_vonmises	0.19589113038538564	11.223735015129517	0.35329360250377095	146.58322185543503	0.3406258480761809	147.62394062855978	0.11019217411953264	-0.35187234625267116	0.4620645203722038	137.55222339961207
18	7.0	ltm	212	diff_vonmises	0.12817722032628018	7.3440137544143225	1.9043423403405957	1.3171722906061003	0.43406243197546457	2.9336751124487668	-0.028275830109995903	-0.3475080466609335	0.3192322165509376	76.33028304810762
19	7.0	perception	212	diff_vonmises	-0.07000585405756068	-4.011039978707016	1.5641037100010524	3.0216548991213927	0.2820637753263887	3.829276971469067	0.5502857617970066	-0.39664776138519253	0.9469335231821991	96.2493660729117
20	7.0	wm	212	diff_vonmises	-0.20581370384280612	-11.792256596148244	1.070250275470539	4.760768038442863	0.60505447013592	6.080386620266076	0.06935596216389572	-0.31766241193858996	0.3870183741024857	90.63431420409884
0	1.0	ltm	213	diff_vonmises	-0.04500084825438032	-2.5783586794846505	6.204359719506595	0.27196966517700444	0.037349984913289946	3.656956396367905	-0.3396692253730833	-0.584941240771659	0.24527201539857568	52.523765448324724
1	1.0	perception	213	diff_vonmises	0.046604739475028086	2.670254877225853	12.85232051163368	0.6197120988606524	0.039636761518766266	3.6836302380957475	0.2674599796738417	-0.5964055550163218	0.8638655346901635	37.477864994792725
2	1.0	wm	213	diff_vonmises	0.055433933541123574	3.176130433715075	5.318459197627675	0.45070122220550723	0.06633772403385321	4.408610255670495	-0.34509938365019144	-0.7052458596567025	0.36014647600651106	55.71782897815268
3	2.0	ltm	213	diff_vonmises	0.05283692011872296	3.027332525272694	7.785086234515366	0.5028785540815822	0.1852675879435003	2.0201130795589943	0.16652981756766982	-0.33890033783408124	0.5054301554017511	46.586671167969314
4	2.0	perception	213	diff_vonmises	0.01226708048715005	0.7028519388609838	7.215800026125211	1.2858621460211364	0.265798462900405	3.208684234442883	0.6977101232367888	-0.5404520884782149	1.2381622117150037	48.35943836256095
5	2.0	wm	213	diff_vonmises	0.056077267520735476	3.2129907555641926	2.8369211970236385	0.9317338660089499	0.16387460241138044	2.9325333063985775	0.04484709011872823	-0.4299914386160119	0.47483852873474014	73.54919542937961
6	3.0	ltm	213	diff_vonmises	0.006589971501273846	0.3775775541344824	3.4607321575035663	0.7413979828630225	0.4112139347695087	1.4328679623391127	0.19630443968824285	-0.20484166130382503	0.4011461009920679	65.22672290472062
7	3.0	perception	213	diff_vonmises	-0.032904911077416395	-1.88531252998923	4.686660678973507	1.6807503001764568	0.24104620005362723	2.5335794206280893	0.9020886113753497	-0.3863997374878559	1.2884883488632055	60.26124267262989
8	3.0	wm	213	diff_vonmises	-0.10571602540179889	-6.057082082420879	1.3412138088792063	212.23352999701365	1.325831306837287	213.3320020894679	0.14818712200904827	-0.3137455729372469	0.4619326949462952	72.44995464192164
9	4.0	ltm	213	diff_vonmises	-0.1637754995899351	-9.383644914149825	0.9671624505170725	151.97375403886136	0.9450455735425854	153.84162859222963	0.019200572129186355	-0.4267948811454474	0.44599545327463375	82.06809863520581
10	4.0	perception	213	diff_vonmises	-0.07523513017139206	-4.3106554299381274	2.5248952645796083	2.7187835360184804	0.32088369328846456	4.758085910366461	0.5942146192952682	-0.615109332282807	1.2093239515780752	76.32508586262756
11	4.0	wm	213	diff_vonmises	-0.09524705278250908	-5.457254135497554	0.872175570355613	190.0495313750722	0.8550504119129572	192.34426543546007	-0.10014491895041999	-0.47885715909051996	0.37871224014009996	82.97852644381882
12	5.0	ltm	213	diff_vonmises	-0.07496220908758647	-4.29501820369593	2.6959137062712326	0.9000811847530219	7.13409325458781e-17	1.981793905571855	0.2389348194854662	-0.3128878162224725	0.5518226357079388	83.75717991953124
13	5.0	perception	213	diff_vonmises	-0.0589976201313217	-3.380314634840795	1.3096996021460687	5.087030870392194	0.46550599717255947	6.374899905706922	0.49888849867582974	-0.4778268531632717	0.9767153518391014	95.01923913680221
14	5.0	wm	213	diff_vonmises	-0.12113087705585421	-6.940288024018505	0.43710011499231344	202.73727373187148	0.42557584785328945	204.1337606688081	0.10616319783816408	-0.41820893343849264	0.5243721312766567	127.07319436288965
15	6.0	ltm	213	diff_vonmises	0.2674230087229531	15.322209744515412	0.655692277371478	129.2037393784348	0.6429944510590653	130.0602359934474	0.07736444428802258	-0.22943246186055077	0.30679690614857336	104.38900447437027
16	6.0	perception	213	diff_vonmises	-0.12458783919166942	-7.1383573643372475	0.6829192377536298	293.7672461645246	0.6728929679954034	294.8597905665399	0.25553252177860486	-0.3641198121551277	0.6196523339337325	105.49310215756776
17	6.0	wm	213	diff_vonmises	0.3721116261242793	21.32042568467123	0.0003178417162931167	4339.892108436396	2.152159291125975e-29	4340.918632167129	0.056175813148797715	-0.3828935780380789	0.4390693911868766	175.6899645273508
18	7.0	ltm	213	diff_vonmises	0.01924152130143612	1.1024579619833608	1.0149737404646526	197.60794549802694	1.0020212695752237	199.02712016033053	-0.0016600031284355055	-0.3222957614341375	0.320635758305702	79.23253089250375
19	7.0	perception	213	diff_vonmises	-0.0978399701835012	-5.605817359200433	1.1496945966248646	4.070892701520275	0.3030119850901324	5.095525681008154	0.4321954139521851	-0.43448441923843917	0.8666798331906242	106.42329328482109
20	7.0	wm	213	diff_vonmises	-0.2720000347263976	-15.584454017234412	0.9537907325211757	149.1713660558109	0.9379024400883963	150.42750478348648	0.035752332162104494	-0.29393020957077454	0.32968254173287903	83.38832653675887
0	1.0	ltm	214	diff_vonmises	-0.01940910237616958	-1.1120596502918545	0.8271107787618744	1.1155481928238447	9.095052245182097e-10	3.2061358784828586	-0.16576796687108108	-0.4443888426455908	0.2786208757745097	136.12884217236802
1	1.0	perception	214	diff_vonmises	0.06686023575002778	3.830809325726296	5.39816868921937	0.7317907415956424	0.213133926959923	2.9284986254465255	0.09060835875169782	-0.4767425603287054	0.5673509190804031	54.38421979741261
2	1.0	wm	214	diff_vonmises	-0.07547718181829718	-4.324523967729982	3.6841292929915164	0.5783361043354738	0.13606409217941756	2.7195426508069818	-0.06862484562273563	-0.4213181182635234	0.35269327264078776	65.11816439992464
3	2.0	ltm	214	diff_vonmises	0.05182766718561042	2.969506591744146	12.998743101363448	0.31211786574189126	1.6972518996562141e-12	1.7200061773171995	0.17070658961988155	-0.27374748526588627	0.4444540748857678	37.5939121445131
4	2.0	perception	214	diff_vonmises	0.05110375645145254	2.928029561932683	5.17945019899156	1.400161256069741	0.3865426491093679	3.1807233950507183	0.5190935905816405	-0.5158299717750694	1.03492356235671	55.00849406129075
5	2.0	wm	214	diff_vonmises	0.1452237054609185	8.320705408161595	0.8460470825930964	54.836693334761236	0.8006317925834041	56.145090550007204	0.07800784026394325	-0.31936573139632163	0.3973735716602649	91.05098803153678
6	3.0	ltm	214	diff_vonmises	-0.05932608748031198	-3.3991344276457887	2.641829110213879	1.0373717534367042	0.5440907987469871	2.094189573392887	0.09737829220165728	-0.26949480945288606	0.36687310165454334	68.36702223197398
7	3.0	perception	214	diff_vonmises	-0.016921868116552427	-0.9695516245554455	4.247942285512974	2.1584362364069567	0.33997997571773564	3.333137494459975	0.9904989413254086	-0.4961929104696317	1.4866918517950403	61.86308482138742
8	3.0	wm	214	diff_vonmises	-0.09094694305174653	-5.2108759964817235	1.0385195876576516	216.8604089360367	1.025330256652226	218.0591716190457	0.12411970603804434	-0.3127056003661757	0.43682530640422	82.18736205121755
9	4.0	ltm	214	diff_vonmises	-0.09113564448090337	-5.221687791960497	2.231429928777957	0.9769470963886703	0.3717314975443102	2.6424715518288733	-0.051108713909974623	-0.3495780452768602	0.2984693313668856	72.96125135321023
10	4.0	perception	214	diff_vonmises	0.006878349170590744	0.39410037749216	2.6822007627655773	2.2569862338423645	0.3436806853591714	4.474712613098536	0.4106620416680039	-0.5970172760069041	1.0076793176749081	73.05151997467144
11	4.0	wm	214	diff_vonmises	0.2032892528687767	11.647616209748668	0.917706498921589	132.23199750065424	0.8952636554055504	134.27109210933213	-0.09120732628020534	-0.4281819940945333	0.33697466781432794	80.84137603719105
12	5.0	ltm	214	diff_vonmises	0.014757498589616927	0.8455423853553148	0.5552935141307969	34.50568491664817	0.4881145441030008	35.59546378628344	0.16813507379102077	-0.35686188360345605	0.5249969573944768	118.854301006163
13	5.0	perception	214	diff_vonmises	-0.08864091048278958	-5.078750062860779	2.002747626735988	1.7111076514215184	7.174796548277013e-12	3.0363444718152084	0.40021735576210293	-0.46715659197134807	0.867373947733451	96.94679401214484
14	5.0	wm	214	diff_vonmises	0.10840211944137555	6.210983934263869	0.3288375526076458	149.6461906398666	0.316457535522496	150.85107496952207	0.07686518257856534	-0.3775393858593077	0.454404568437873	140.0886372802721
15	6.0	ltm	214	diff_vonmises	0.42053684303165073	24.09498623546917	0.3575065362942881	171.1630567624014	0.34714749678857165	172.34492521228788	0.06336487792076184	-0.3547699582723105	0.41813483619307235	134.66878416244546
16	6.0	perception	214	diff_vonmises	-0.09128226384427537	-5.230088462676608	0.9402743244943977	284.3548393843838	0.927167031941476	285.6870778897632	0.27170567784824584	-0.394135555734632	0.6658412335828778	88.8789173496894
17	6.0	wm	214	diff_vonmises	0.05804087253352476	3.3254970354277504	0.251368133122791	151.5756052561235	0.23937156151259337	152.90817677473902	0.05437841420478051	-0.4147966281732174	0.4691750423779979	149.6492586727444
18	7.0	ltm	214	diff_vonmises	-0.06628112194973196	-3.7976285491115633	0.8937553640283702	155.10423134805936	0.8741436026784044	156.80897262977513	0.03799825738825291	-0.3931560444654387	0.43115430185369163	86.11378007280513
19	7.0	perception	214	diff_vonmises	-0.05053417122578879	-2.8953947324291436	0.8034994991471399	172.37921078009168	0.7721444640314172	173.72789749152304	0.6298348121815422	-0.5636183597828257	1.193453171964368	100.17613774107541
20	7.0	wm	214	diff_vonmises	-0.16711337774364776	-9.57489124488648	1.0934746867672238	228.76214777490281	1.0789318677038873	230.2982467254356	0.07609323756935282	-0.3776053673283215	0.45369860489767433	78.35051662990136
0	1.0	ltm	215	diff_vonmises	0.01827824519368114	1.0472663065032113	1.2106686029650642	0.5254880252703735	1.3678081718214904e-13	2.145911316702121	-0.1412657221464637	-0.3237481395955588	0.1824824174490951	120.29279600021685
1	1.0	perception	215	diff_vonmises	0.026944688532506155	1.5438169332071503	12.269426172250041	0.6978663786259015	2.2506605809563835e-21	2.277247715581768	0.6020665470416185	-0.36243523055830545	0.9645017775999241	38.71543428564087
2	1.0	wm	215	diff_vonmises	-0.22538274801191177	-12.91348023614309	0.00024686370141266054	3502.2455578566028	1.0881116553891459e-29	3503.961201086343	-0.13544301475212706	-0.41064620207725966	0.2752031873251326	178.53711565263276
3	2.0	ltm	215	diff_vonmises	0.18505652477059167	10.602957840713078	5.425999654651147	0.49376020716493346	0.41105381845007816	1.3253878621777757	0.14195153423541595	-0.2212357308910791	0.363187265126495	53.05006132517826
4	2.0	perception	215	diff_vonmises	-0.004530830671606078	-0.25959747517145254	8.786849647505045	1.140667191316519	0.21698117979606454	1.8483263327912332	0.9673214723723869	-0.3103515827584213	1.2776730551308082	44.84517005703643
5	2.0	wm	215	diff_vonmises	0.0676976860745963	3.878791694875933	2.4017412158484666	0.7012757212358771	7.924473114895762e-16	1.5263619815234244	0.16072252168627577	-0.23961762490541688	0.40034014659169265	88.74461756344812
6	3.0	ltm	215	diff_vonmises	0.18131830644338773	10.388773707665838	5.555275704369539	0.4880508106437269	0.7383721977620252	0.7552352541935353	0.22704653189561025	-0.12584997064394599	0.35289650253955623	51.98256013550858
7	3.0	perception	215	diff_vonmises	-0.011419006537774858	-0.6542608808467938	5.370217615067038	1.1246676844295342	0.034170780746315806	1.131269445052302	0.8266263818027157	-0.1772362504902581	1.0038626322929738	58.55663644764269
8	3.0	wm	215	diff_vonmises	-0.034862094950665445	-1.9974509056574679	1.6684538782022922	103.89255157245466	1.6494873007594704	104.00501228885335	0.2813653264326277	-0.12039486896046014	0.4017601953930878	71.55089130919194
9	4.0	ltm	215	diff_vonmises	0.1318460958115931	7.554224835281765	1.8182121551035582	23.81795881510044	1.6742195641447837	24.80625474448369	0.11033197014632812	-0.3118623876923956	0.4221943578387237	62.35778576898477
10	4.0	perception	215	diff_vonmises	-0.04933562717157298	-2.826723216562079	3.089102846435301	1.755691861489298	6.479013624137675e-20	3.218786361965482	0.6569003190065289	-0.5098606289150008	1.1667609479215297	78.15852474610804
11	4.0	wm	215	diff_vonmises	-0.07732408505553794	-4.430343728392925	1.3940888146080594	298.3740107618211	1.3813311076702683	299.516658380613	0.21001173146881058	-0.34729454960305617	0.5573062810718667	71.80077304838792
12	5.0	ltm	215	diff_vonmises	-0.14383555319529562	-8.24117014201988	1.6829414001987402	0.8401536339576057	1.0673423452527142e-28	1.4321896025875258	0.16233283425569484	-0.21446293747394685	0.3767957717296417	105.01874984460461
13	5.0	perception	215	diff_vonmises	-0.02216285017948121	-1.2698377772650324	1.4960408436421098	3.3527285444472508	0.3535887517631932	3.8597435357987564	0.6017547698101402	-0.35107919764178747	0.9528339674519277	96.58498934245586
14	5.0	wm	215	diff_vonmises	0.15474825378623183	8.866421828970445	0.7996170857457593	75.00621434739945	0.778621371462165	75.34666744413818	0.19875648400365975	-0.15960696117072892	0.3583634451743887	100.8375788149113
15	6.0	ltm	215	diff_vonmises	0.2613331309231213	14.973285448834636	1.1082533357293298	95.3302153959951	1.0930629610995604	95.73196527034969	0.12677563684196969	-0.1339876828870814	0.2607633197290511	83.04851174628621
16	6.0	perception	215	diff_vonmises	-0.30176804625462444	-17.29003544229859	0.6105740443008548	134.09596566080018	0.5940422713986977	134.5558518590282	0.2980596549683554	-0.26481522306091065	0.5628748780292661	115.49422525719129
17	6.0	wm	215	diff_vonmises	-0.02005405529359192	-1.149012730444804	0.6363665728145415	127.36139331323955	0.6231301863189355	127.69222909312977	0.23061213997873864	-0.19438277594345799	0.4249949159221966	113.43161144396059
18	7.0	ltm	215	diff_vonmises	0.04168135670883139	2.388165823795338	1.4678757699607565	1.4777735339255227	0.436052235259205	2.32905510566644	0.08477456422134333	-0.2166014449182563	0.3013760091395996	88.1600727867154
19	7.0	perception	215	diff_vonmises	-0.07790675069807422	-4.463728010577533	2.4385210236397006	1.830949024505178	0.09777224735077311	2.32779774158833	0.6557477874272145	-0.328603865589912	0.9843516530171266	84.94357091945454
20	7.0	wm	215	diff_vonmises	0.1073029345163661	6.1480052771564235	0.7943932265014322	4.440752758196511	0.49351541119483305	5.085664006345913	0.09498608123151198	-0.19207764545610378	0.28706372668761576	107.03013387923241
0	1.0	ltm	216	diff_vonmises	0.015802531719167703	0.9054183731299225	5.826575837394963	0.35393764280106155	0.00535409722681467	2.749924858575197	-0.10718686115050685	-0.4369002513764597	0.32971339022595286	56.14725242197474
1	1.0	perception	216	diff_vonmises	0.0016830141586004945	0.0964296081485697	15.823190595037875	0.5364860083322252	2.8604522137327594e-20	2.769510910200885	0.40363874776023556	-0.44078135130538987	0.8444200990656254	34.045943602154296
2	1.0	wm	216	diff_vonmises	-0.008161461856183251	-0.46761731901630715	5.338308766381046	0.382962594720196	0.011169988762811991	3.1673590978364223	-0.16596568570235704	-0.5025570654706697	0.33659137976831266	58.33101822186083
3	2.0	ltm	216	diff_vonmises	0.10616281946119309	6.082681496335685	6.229917065281157	0.6184524924676202	0.3789129284490968	1.7386470253294064	0.21232009582674555	-0.29710188302927354	0.509421978856019	50.273757173614655
4	2.0	perception	216	diff_vonmises	0.004883136639512458	0.2797831202297596	5.715920532619107	1.2834726568162933	0.33199185962219757	2.6448809628220067	0.6238480523939939	-0.43106124282227476	1.0549092952162686	53.55588847119063
5	2.0	wm	216	diff_vonmises	0.07420731241903472	4.251765810619429	2.6046065716203763	0.881495568890559	0.19322558091046121	2.3335433451002228	0.08574443617474242	-0.3308224259958915	0.41656686217063393	76.11284088977342
6	3.0	ltm	216	diff_vonmises	0.01925169985175739	1.103041149958331	1.4419015025234785	60.41239956748366	1.4021708543200007	61.031612227508425	0.1690475777937337	-0.20638685648104005	0.37543443427477374	72.06286147140347
7	3.0	perception	216	diff_vonmises	-0.05055886575711527	-2.8968096248512043	4.618296568043307	1.6671811206642229	0.20162012902226065	2.4172288124894017	0.9196207777166068	-0.36746455323706667	1.2870853309536734	61.1486185340064
8	3.0	wm	216	diff_vonmises	-0.11426652006779903	-6.54698933953181	1.3122576181576289	225.60499886460195	1.2978269456938079	226.6878849739257	0.16124213988250347	-0.31170005100304365	0.4729421908855471	73.56748317303848
9	4.0	ltm	216	diff_vonmises	-0.11868938240483372	-6.800400684811265	1.312524508028389	5.479188383827634	0.8262151257074541	6.859188953415028	0.07314984880008124	-0.3372605506940429	0.41041039949412417	79.52590076649619
10	4.0	perception	216	diff_vonmises	-0.04017550783888259	-2.301887038962727	2.483180323883676	2.5532446793484516	0.22800440710976605	4.400664345488641	0.6303484584313618	-0.5862611644020427	1.2166096228334045	79.34609500262565
11	4.0	wm	216	diff_vonmises	-0.09608315042250705	-5.505159001530287	1.0029078161096545	288.14923231124146	0.9901591610346169	290.24465092428767	-0.01703024050202373	-0.4704766014526882	0.4534463609506645	79.36005389031232
12	5.0	ltm	216	diff_vonmises	-0.015382631255441792	-0.8813598487428417	2.0346058521591233	1.0766060797538675	0.014220119550367179	1.652840172641524	0.2943759785195747	-0.24973908073959905	0.5441150592591737	95.56853566607279
13	5.0	perception	216	diff_vonmises	-0.03690330029170287	-2.114403356818474	2.1945705506060844	1.7786805828150403	3.4355622811607423e-16	2.6890418397682168	0.5423293799009051	-0.41593138328701884	0.958260763187924	92.77700449645556
14	5.0	wm	216	diff_vonmises	0.03280493766702559	1.8795844755103073	0.36159870552658413	112.64757821169034	0.3441184551136458	113.5828349317085	0.15339010076123216	-0.3530678177767399	0.5064579185379721	137.9748889199998
15	6.0	ltm	216	diff_vonmises	0.3565968955618637	20.431497103162187	0.6702766376609821	121.03463313835292	0.6582983461334267	121.47699337826317	0.15343175447231516	-0.173532656229888	0.32696441070220317	108.13279284318946
16	6.0	perception	216	diff_vonmises	-0.11540824239673697	-6.612405210355801	0.7624057477291619	233.92736540944495	0.7502478921651898	234.73408725583633	0.3056773091389431	-0.3108840925947689	0.616561401733712	101.5243465069901
17	6.0	wm	216	diff_vonmises	0.17380729948431925	9.958424709017823	0.16976361638173448	127.0891914418681	0.15820644145038318	127.69890689218656	0.13825759045985464	-0.2955110282101252	0.43376861866997984	160.0537445704977
18	7.0	ltm	216	diff_vonmises	-0.05667245299011783	-3.2470923709873145	0.7174429286466992	89.09760587570872	0.6947678715561959	90.17532771530962	0.0795644395230255	-0.2746579681584951	0.3542224076815206	99.28962122090654
19	7.0	perception	216	diff_vonmises	-0.06503445029169228	-3.726199524667313	0.834718235298018	244.14155703225913	0.8182785565673313	245.06471885964478	0.4827027199672216	-0.40066338139307334	0.8833661013602949	98.15004217043392
20	7.0	wm	216	diff_vonmises	-0.0541798704129365	-3.1042779092269823	0.9322524772580143	157.6516077925003	0.9174261372578807	158.85740552146717	0.05144981162337103	-0.2872545187179334	0.3387043303413044	84.98275951756028
0	1.0	ltm	217	diff_vonmises	0.07539607818802611	4.319877072012259	10.583463027630513	0.4805514737225284	0.2230652342394361	4.187013540316755	-0.20677204747919142	-0.7457150421817497	0.5389429947025582	38.97448134326979
1	1.0	perception	217	diff_vonmises	0.039758697616110186	2.278005572339961	14.78589229439805	0.5708543102806392	0.06333875063587231	3.8679611485872916	0.2127163072542233	-0.6364961434233666	0.8492124506775899	34.79521505988308
2	1.0	wm	217	diff_vonmises	0.09895535249564515	5.669724058229825	0.7750036396190849	160.5636181495463	0.7467708856878419	165.50317834017244	-0.5841505336676533	-0.9131334422602961	0.3289829085926428	77.75648853428913
3	2.0	ltm	217	diff_vonmises	0.09032144051131293	5.175037340840167	11.697199566272582	0.5015027106724158	0.4074452107045324	1.546722021858173	0.32152061016407857	-0.2966332648530217	0.6181538750171003	37.82960385524538
4	2.0	perception	217	diff_vonmises	0.005803298940383535	0.3325045365367193	7.712378948908063	1.214673271411665	0.3439840331605785	2.8972163908378366	0.6907171707253675	-0.5041777767141963	1.1948949474395638	46.47337072657143
5	2.0	wm	217	diff_vonmises	0.032163746224267056	1.8428469119803392	1.0135521835414483	215.80972244366848	0.9941845951559396	218.30595084086684	-0.059821915288935656	-0.5500109494405123	0.49018903415157666	78.12667353165111
6	3.0	ltm	217	diff_vonmises	0.04081124938961398	2.338312346680738	1.990210763647394	103.84868578824992	1.9669031352113209	104.20968354677373	0.19494844540563605	-0.16939900295272814	0.3643474483583642	62.09218579345679
7	3.0	perception	217	diff_vonmises	-0.054663582975823445	-3.1319925975778604	3.6127907511234234	2.3102256644643546	0.49941024107481286	3.160394129428558	0.9001093303434786	-0.4323524710444778	1.3324618013879563	64.94368395865698
8	3.0	wm	217	diff_vonmises	-0.07595948305197717	-4.352157792873797	1.3498853503007338	204.75625167993624	1.3323876719597139	206.4104828697265	-0.02071082028936644	-0.4072218669557337	0.38651104666636726	67.88935540260957
9	4.0	ltm	217	diff_vonmises	-0.1700413500515783	-9.74265170066208	1.1539465668312552	189.69730052183561	1.1369047740069942	191.17138147877074	0.060147713091524224	-0.3631188576658708	0.42326657075739504	75.88746591849628
10	4.0	perception	217	diff_vonmises	-0.10084876619543422	-5.778208672099989	1.2783120713418004	243.93245021672737	1.248803834023822	245.35342729180522	0.764922698847883	-0.5831274589868158	1.3480501578346988	78.96111820062742
11	4.0	wm	217	diff_vonmises	-0.21740552266248864	-12.456418891396371	0.7025168734750076	147.6685679647468	0.6851969179273045	150.27902076783485	-0.24812946751710996	-0.4905837889352185	0.24245432141810852	86.20029603611913
12	5.0	ltm	217	diff_vonmises	-0.10069683022365918	-5.76950338216106	3.4479745528866617	0.7141041019874065	0.04176701863862221	1.789597460054748	0.20901587778520753	-0.27598811787017624	0.48500399565538377	72.18911346545966
13	5.0	perception	217	diff_vonmises	-0.06305071504301664	-3.612539867246864	0.8704886397940576	215.3613339742267	0.8476817003953616	216.86661709345162	0.4661718403017687	-0.5135222739731624	0.9796941142749311	94.38382826577657
14	5.0	wm	217	diff_vonmises	-0.2620952967626159	-15.01695433472672	0.29886808593419445	113.60306729606499	0.2822578356854024	115.93727376238976	-0.14628492865985976	-0.5261880590703072	0.37990313041044743	139.10069782947113
15	6.0	ltm	217	diff_vonmises	0.8217186974345936	47.08101330998968	0.0005115340326945319	1708.519307746118	1.3970927743588903e-21	1709.8018482302816	-0.0650090392220477	-0.34320070029980343	0.2781916610777557	160.87262139539277
16	6.0	perception	217	diff_vonmises	-0.05677098182608638	-3.2527376574486486	0.7545224055679551	388.2079604181099	0.7435771855743246	389.9110052057068	0.31234379874688045	-0.5098827927658505	0.8222265915127309	99.26653981967006
17	6.0	wm	217	diff_vonmises	0.38592273692584406	22.111744043988434	0.0001216432140393932	13152.28108598208	6.480539703572567e-30	13154.558793043772	-0.10787135450618734	-0.6171298341901092	0.5092584796839219	175.39380270928132
18	7.0	ltm	217	diff_vonmises	0.18293571893204644	10.481444616997733	1.4392113723344377	121.05906592260617	1.4132236743642275	122.46786218957233	-0.030044449052567757	-0.3541329037942056	0.32408845474163783	65.4232705748033
19	7.0	perception	217	diff_vonmises	-0.03222033858076918	-1.8460894151606106	1.0819196415805026	2.2666236057400573	5.435134050628551e-12	3.5945573161061795	0.23742270019181766	-0.47909124646151924	0.7165139466533369	125.24012547518674
20	7.0	wm	217	diff_vonmises	-0.7228870752525417	-41.41837847652658	0.6379398782252842	157.42728703601304	0.6263211366915175	159.32371495780623	-0.16589656214173942	-0.3588009800446379	0.19290441790289847	91.83642021203454
0	1.0	ltm	218	diff_vonmises	0.058898571967108175	3.3746395930628412	9.917272383719354	0.41890019723622124	0.22652490897537728	2.893269820325485	-0.05100002934892833	-0.5111897035520327	0.4601896742031044	40.520028266321106
1	1.0	perception	218	diff_vonmises	0.002490035422671974	0.14266852055717819	15.471846225961825	0.5675062112799417	0.06075761986152192	3.0656250724136402	0.36508600147383696	-0.5037518597570169	0.8688378612308538	34.10963040288286
2	1.0	wm	218	diff_vonmises	0.06647088769833691	3.8085013256027676	2.799638696086475	0.9691958498257045	0.30739217180856515	4.213783162068093	-0.2807154390049357	-0.632732553986237	0.3520171149813013	65.333991661786
3	2.0	ltm	218	diff_vonmises	0.10715847332255186	6.139728260447446	6.51533067953254	0.6173684420663761	0.5657745488965071	1.3969774782382598	0.2536625027928258	-0.24907166551366075	0.5027341683064865	48.479407357079424
4	2.0	perception	218	diff_vonmises	-0.014241279118310657	-0.8159651883469908	6.9519510661964246	1.2101920287352539	0.41883318713263457	2.4380441437696514	0.6834711427293041	-0.4213367164649289	1.104807859194233	48.53666681860909
5	2.0	wm	218	diff_vonmises	0.0545710057959557	3.1266883158922156	1.064304262871684	121.63065200067622	1.0376141743909197	123.18499290308145	0.06896045700125342	-0.3771843295011621	0.4461447865024155	79.52634148634132
6	3.0	ltm	218	diff_vonmises	0.014333893843425675	0.8212716212168456	2.1187922796097887	106.94924836719314	2.0949792146701416	107.21281808914779	0.2471346377618886	-0.1615020094605466	0.4086366472224352	61.30690843161227
7	3.0	perception	218	diff_vonmises	-0.055873934223275565	-3.2013406157852615	4.170515392059033	1.9094773075249747	0.46820317066430583	2.4479539222739266	0.9123379033528383	-0.3526034227120036	1.2649413260648419	61.76337817950997
8	3.0	wm	218	diff_vonmises	-0.12477160126487484	-7.148886155566492	1.4386931695021532	201.71522122587612	1.4241396639187744	202.68949765029942	0.11177238250087385	-0.27987670190134395	0.3916490844022178	69.36603508474226
9	4.0	ltm	218	diff_vonmises	-0.16228799733757907	-9.298417313073621	1.3925406266389295	226.58097400343598	1.3785664888217606	227.605015243915	0.14511666245469712	-0.2983999644496471	0.44351662690434424	71.12255668916606
10	4.0	perception	218	diff_vonmises	-0.09089232982347017	-5.207746888995904	3.2536771852208557	2.122859054305323	0.22105099314619656	3.351908530076765	0.7983585959189461	-0.4753036239480187	1.273662219866965	71.21665568879413
11	4.0	wm	218	diff_vonmises	-0.08840652133145142	-5.06532055372545	0.9360423794051842	195.54426881105226	0.9219764946678972	197.32860829831878	-0.06027450444537408	-0.38200838504646484	0.32173388060109076	80.64725870747313
12	5.0	ltm	218	diff_vonmises	-0.08577611190903703	-4.9146091954296605	3.2801767824473336	0.7361959016755353	8.593625705927707e-18	1.5453968986711712	0.26120461770951586	-0.24523972040293396	0.5064443381124498	75.79410765559624
13	5.0	perception	218	diff_vonmises	-0.0729839653446148	-4.181673186375491	0.8870113030354899	86.24589455540496	0.8353981444952057	87.39773457335245	0.4915459507585247	-0.4473227925375092	0.9388687432960339	95.42983013115926
14	5.0	wm	218	diff_vonmises	-0.030640284977408602	-1.7555590122836118	0.05884489357271485	20.903870436567004	0.0018097102052599262	22.316675732734137	-0.03269099080553772	-0.41126767676023146	0.37857668595469374	176.49442429033638
15	6.0	ltm	218	diff_vonmises	0.11392221711540566	6.527262233485776	0.5526040097751309	123.24358296409417	0.542341576510767	124.0380011694059	0.035649543745694956	-0.2052338459781815	0.24088338972387646	112.32013080460635
16	6.0	perception	218	diff_vonmises	-0.12269558836762223	-7.029939378339192	0.809610437842585	285.9835815065951	0.7968120740479454	287.2868784304052	0.3040119011995728	-0.41075954303434514	0.7147714442339179	96.63026615224678
17	6.0	wm	218	diff_vonmises	0.3559657883864647	20.395337325591402	0.00020301976053937665	6694.731355334308	3.5512617406532346e-31	6695.965905593826	0.01983852295484212	-0.41278611928009923	0.43262464223494135	176.04107874448977
18	7.0	ltm	218	diff_vonmises	-0.08167066024203298	-4.6793841419153805	1.0965591242591581	127.98665462431235	1.079204681525989	129.02296166658775	0.046846937410450096	-0.2534796771913346	0.30032661460178467	78.13016773075677
19	7.0	perception	218	diff_vonmises	-0.05561530433058347	-3.186522214478083	1.4368920901983977	2.073279141067882	0.015484527605290314	3.4094461002622567	0.32393788093891474	-0.48483547972964036	0.8087733606685551	111.48360640141553
20	7.0	wm	218	diff_vonmises	-0.16740702177827202	-9.591715808749644	0.9154949519935973	139.21184995660062	0.9026139377737529	140.43129022554803	-0.052787989434598614	-0.256705959182149	0.2039179697475504	80.83903429831395
0	1.0	ltm	219	diff_vonmises	-0.08623470202557743	-4.9408844736338375	6.2535191896576565	0.22729035505778733	0.01066545890389555	2.6052345733671523	-0.19724324074262184	-0.41427397750079575	0.21703073675817391	53.77641132473198
1	1.0	perception	219	diff_vonmises	-0.002718567230553852	-0.15576242863330433	13.507700390998185	0.5506113096128374	4.0331739886870334e-18	2.9691438175366165	0.3269920888779324	-0.4725539153102132	0.7995460041881456	36.87557598967422
2	1.0	wm	219	diff_vonmises	-0.0022438534182000406	-0.12856333070886564	6.897816780576698	0.3300898160147572	0.05946286533415309	3.202516548829503	-0.20134087366871312	-0.5161792038433544	0.31483833017464125	49.776399106142236
3	2.0	ltm	219	diff_vonmises	0.044687956000569046	2.5604312738989283	9.181336197654147	0.4359497784994994	0.23929031544070778	1.575566829641899	0.2052437110114032	-0.27370322178824397	0.4789469327996472	42.94641852371319
4	2.0	perception	219	diff_vonmises	-0.008347518670170398	-0.4782775892074213	7.779878206707573	1.1423963545177802	0.25797368273745946	2.605673959323596	0.7211542920707522	-0.44092580601406617	1.1620800980848185	46.91258802918645
5	2.0	wm	219	diff_vonmises	0.06053675752896742	3.4685007118166435	2.6192531241254935	0.7504910917842189	0.11097537167280226	2.297054113200219	0.047261663593740066	-0.337437314568356	0.3846989781620961	78.3984296195026
6	3.0	ltm	219	diff_vonmises	-0.008510596267796893	-0.4876212472845521	1.870422522681645	4.514443022348414	1.3989868491689406	4.897598313075905	0.20227534060996355	-0.16343048151835832	0.36570582212832187	68.90835185530065
7	3.0	perception	219	diff_vonmises	-0.028622540336885847	-1.6399507602465166	3.8516831976516435	2.2720429178252712	0.5261321793958292	2.9378653981655476	0.9717434047777075	-0.40791084631070185	1.3796542510884093	63.260898316969076
8	3.0	wm	219	diff_vonmises	-0.2065971099070059	-11.837142457271845	1.4464459906865987	191.09210207777355	1.4316734882578919	191.9139550800748	0.1538960261657536	-0.25381436731200324	0.40771039347775684	70.4691080678086
9	4.0	ltm	219	diff_vonmises	-0.09903219006084497	-5.674126526423836	1.224760739986623	173.64584512876309	1.2073520832998204	174.86116858355123	0.09460980183682466	-0.3175052867970116	0.4121150886338363	74.69352397528226
10	4.0	perception	219	diff_vonmises	-0.09132970574191693	-5.2328066831835605	3.0727679334358537	2.3578366261402657	0.28778636180174616	3.8850661330077867	0.7577333918587817	-0.5352706014535287	1.2930039933123103	71.58734712785528
11	4.0	wm	219	diff_vonmises	-0.14832333750967103	-8.498301242598604	0.9676418137478557	220.25946517388385	0.9539231766268629	222.03064540583125	-0.016402146009610874	-0.3943735649300599	0.37797141892044905	80.81812110303181
12	5.0	ltm	219	diff_vonmises	-0.05004047039911791	-2.8671077587187823	2.6599751278592545	0.8610972581187084	1.6259817826707977e-14	1.6343783532188123	0.2661139989825399	-0.25754449847720695	0.5236584974597469	84.32467223727991
13	5.0	perception	219	diff_vonmises	-0.0489988667582308	-2.807428266170491	1.7385033898075026	2.572185743873448	0.20860749194477127	3.497917072943149	0.5402738492079828	-0.4128121736800253	0.9530860228880081	94.36420519673081
14	5.0	wm	219	diff_vonmises	-0.13364031282837519	-7.657025897873932	0.35486767385684853	151.1258290156742	0.3430059371833562	152.2638276661392	0.07706782460655859	-0.35366280624862867	0.43073063085518726	136.87664972620507
15	6.0	ltm	219	diff_vonmises	0.30235013151967116	17.32338647130252	0.567917769511458	128.06561396749026	0.5575076319337982	128.73176722875598	0.07975965129453755	-0.1983808779053522	0.27814052919988974	113.54177881608723
16	6.0	perception	219	diff_vonmises	-0.10443687972193558	-5.983792433582319	0.8438030788427395	271.7524572516251	0.832720654868405	272.6544588346364	0.29532119131305024	-0.3161708013714595	0.6114919926845097	95.78615940138931
17	6.0	wm	219	diff_vonmises	0.15472457657617295	8.865065224763427	0.00034737713073677525	3514.1705082644207	1.6477117775417533e-29	3515.072422729125	0.050759384538423546	-0.33781393005608606	0.3885733145945096	179.1333324714417
18	7.0	ltm	219	diff_vonmises	-0.011032278787628861	-0.6321030129428383	1.0816076505368741	150.55219289602994	1.0672386939115102	151.46473753102612	0.08280635827877347	-0.23551333165895372	0.3183196899377272	80.10991134923668
19	7.0	perception	219	diff_vonmises	-0.12108812575155371	-6.937838554713407	0.6895801616302221	125.02633712259265	0.6607605770870786	125.83004675580274	0.46321814389574456	-0.40456967636473706	0.8677878202604816	109.02720481008096
20	7.0	wm	219	diff_vonmises	-0.27901496548104776	-15.986379943052388	0.9827388375294985	126.38817767625684	0.9686295039343688	127.28307440969246	0.03754039003962362	-0.2140617421424853	0.2516021321821089	82.59766712865996
0	1.0	ltm	220	diff_vonmises	-0.15383181161891293	-8.813913560615251	2.9389040445454797	0.29566393455106	1.508169228834271e-31	3.7225358567850346	-0.40107747948768346	-0.5919239191452101	0.19084643965752668	80.16506579042357
1	1.0	perception	220	diff_vonmises	0.06787620541568874	3.8890200996819866	12.058765425424342	0.6955884890089101	0.005814077367594944	3.747055374290258	0.3533934520165696	-0.5972073479179633	0.9506007999345328	38.981124413701
2	1.0	wm	220	diff_vonmises	0.13012365502599485	7.455536247805787	11.006494649265587	0.333350771857239	6.087908619168803e-32	4.029369876577982	-0.20547761070452902	-0.6412941332828818	0.43581652257835274	40.89605326203366
3	2.0	ltm	220	diff_vonmises	0.044659030178402434	2.5587739463698354	4.51533649250479	0.6278546598171073	0.17752648056085268	2.415777339682625	0.059858389109538834	-0.38143329761291095	0.4412916867224498	59.51004916908485
4	2.0	perception	220	diff_vonmises	0.019004731992711466	1.0888909339596178	7.410974332090313	1.3233229601788328	0.1962706023058243	3.298287960886894	0.7785680104169241	-0.5459258641484757	1.3244938745653998	48.277082907532474
5	2.0	wm	220	diff_vonmises	0.07767819519706456	4.450632744985182	3.404460032684985	0.6997293602886764	8.865367344326763e-14	2.5208385122183414	0.0909328865785079	-0.4006605334138322	0.4915934199923401	74.37076309255579
6	3.0	ltm	220	diff_vonmises	0.09815095634259746	5.623635553603633	6.1000432943193275	0.4403246264145151	2.0904298269991135e-22	1.2888505222679048	0.21899011127070656	-0.20512479764669553	0.4241149089174021	55.16556615229973
7	3.0	perception	220	diff_vonmises	-0.006799697231492013	-0.38959395333128266	5.338686741472149	1.3389394079706491	0.045020192163324396	2.037622608588672	0.8630030291013391	-0.3193620177152182	1.1823650468165572	58.4801910576667
8	3.0	wm	220	diff_vonmises	-0.060558900087096156	-3.469769386945043	1.3433903925450994	154.1610501433377	1.32386072630261	154.92194571625484	0.23826042578553341	-0.25880771218321286	0.49706813796874627	75.023975886035
9	4.0	ltm	220	diff_vonmises	-0.12912513052468944	-7.398325008140582	1.758470698745841	1.6885870266490293	0.329105498439268	3.841448540203542	-0.021484189246100183	-0.45985793920381673	0.43837374995771655	82.28577181156862
10	4.0	perception	220	diff_vonmises	-0.04878985255723528	-2.7954526345951485	3.0229425167915864	1.8131036562726623	0.05910994508356491	4.212131915963724	0.48206689389246626	-0.6374893575793323	1.1195562514717987	76.4368554233796
11	4.0	wm	220	diff_vonmises	-0.10302682426320586	-5.903002206917723	1.0417343329426711	251.34111932135787	1.0252345747706197	253.47720439700234	0.04198276164545689	-0.5007272837593142	0.5427100454047711	79.22012958234285
12	5.0	ltm	220	diff_vonmises	-0.07843134036621227	-4.493784784538011	2.2145776688908847	0.9866029180922925	5.162455998333161e-14	2.072759429320692	0.2112081015503034	-0.32343649321549833	0.5346445947658017	92.36804334142624
13	5.0	perception	220	diff_vonmises	-0.03420448701997859	-1.9597727466547794	1.4822344293627594	3.8784322520211645	0.36552801898971865	5.033056656738495	0.5509851141168689	-0.4666750218371806	1.0176601359540496	94.6045612129279
14	5.0	wm	220	diff_vonmises	-0.03469052262691626	-1.9876205356253875	0.5750846982173522	214.90116489060003	0.5640276537148466	215.86956475885032	0.1977114477561983	-0.332825995587573	0.5305374433437713	114.84680447317673
15	6.0	ltm	220	diff_vonmises	0.260507518412792	14.925981336479564	0.8684353987909865	133.1882294469839	0.8551885237299157	133.86750390072697	0.12313141523917182	-0.19692353124382933	0.32005494648300115	92.23623576442205
16	6.0	perception	220	diff_vonmises	-0.20614174821952608	-11.811052154427296	0.5005218838483373	182.8426127202194	0.4884459294376716	183.63380949292426	0.2188111132842181	-0.32307726874566	0.5418883820298781	123.3748427526263
17	6.0	wm	220	diff_vonmises	0.20189943052792983	11.56798525534515	0.39607506585290386	154.9729624961463	0.3860219876620886	155.57321644077234	0.14979561784127782	-0.2550396884454553	0.40483530628673314	134.0580008522864
18	7.0	ltm	220	diff_vonmises	0.07668542689176154	4.393751311056963	0.8291738879282736	140.00707133824181	0.8126654529999122	141.43673391585455	0.0037144698303350765	-0.31889272348191255	0.32260719331224763	88.47049683479091
19	7.0	perception	220	diff_vonmises	-0.11043151858693934	-6.327259940252128	1.7013029346862534	2.683233514349774	0.24587504006385766	3.383270543613459	0.5764141907512937	-0.3771901719101343	0.9536043626614281	94.5159497782028
20	7.0	wm	220	diff_vonmises	-0.1630908416744158	-9.344416905180346	1.2781887116582245	3.1622297237462713	0.6103986420332823	4.180516452677225	0.1259055923972261	-0.26970545032904214	0.39561104272626824	87.6371000291463
0	1.0	ltm	221	diff_vonmises	-0.12715975570935048	-7.2857173260603565	9.11351453097261	0.3049675395618896	0.09410060992172141	2.925764945702788	-0.14853164011410652	-0.48338494925852604	0.3348533091444195	43.15157028558653
1	1.0	perception	221	diff_vonmises	0.021891558363607313	1.254293901199018	13.777014987627455	0.7856374040219533	1.8897935852809832e-15	3.2374875494339768	0.6370103417913142	-0.5152621466896385	1.1522724884809528	36.51041910795092
2	1.0	wm	221	diff_vonmises	0.1110656171922997	6.363591114134409	8.989528362685178	0.3372427489199175	1.329994200922917e-20	3.347328613282682	-0.13535126043034645	-0.5327438887742675	0.39739262834392103	45.30231500290236
3	2.0	ltm	221	diff_vonmises	0.05473357805375254	3.136003020129887	1.4125534495629068	16.039249887232046	1.2179937280221298	17.17290410014156	0.1319946713333442	-0.3158384514384285	0.4478331227717727	72.62983514361349
4	2.0	perception	221	diff_vonmises	-0.01857467831932727	-1.0642506735106059	7.059220030605789	1.263205558266482	0.2247608019644624	2.415755008585398	0.8381103951791252	-0.3973853476040921	1.2354957427832174	49.54614613127063
5	2.0	wm	221	diff_vonmises	0.08655768394784978	4.959389974639066	3.570371672887572	0.6675513493738028	1.2102082480939897e-19	1.9512916884723805	0.1715958165772417	-0.3101757727465348	0.4817715893237765	72.57193443539177
6	3.0	ltm	221	diff_vonmises	0.14095142185479198	8.075921588647615	6.843368477062719	0.4530121184276294	0.16581628974473991	0.8652028354350533	0.3020439963417116	-0.13989916534991118	0.44194316169162273	50.679406797041054
7	3.0	perception	221	diff_vonmises	-0.018981047187737226	-1.0875338945960034	5.176616289192547	1.2154476167088724	0.08184456475633142	1.4475842200323972	0.8239871573123467	-0.22451683953247326	1.04850399684482	59.17181477451311
8	3.0	wm	221	diff_vonmises	-0.07185203286372704	-4.11681823252685	1.5576375469715722	106.12832883518571	1.5336485815591885	106.48891752194541	0.28278746172643565	-0.18153331313601484	0.4643207748624505	71.99133238266666
9	4.0	ltm	221	diff_vonmises	-0.046076140618910334	-2.639968393714863	1.2681356283370573	137.37854960168968	1.2409297242662376	138.6009740837968	0.21185425963564342	-0.35714328728995426	0.5689975469255977	75.57798495302686
10	4.0	perception	221	diff_vonmises	-0.07073712148882247	-4.05293851621369	2.876161027923014	2.02763334992848	1.4595033898038611e-18	3.6756274786305996	0.7113750075605597	-0.5808777826254126	1.2922527901859722	81.0547751216495
11	4.0	wm	221	diff_vonmises	-0.16660793651602074	-9.545931595751542	1.2279579949434447	325.88617031847326	1.214332117753859	327.35418139455675	0.2571126014006495	-0.42714181017620234	0.6842544115768519	76.70122370234753
12	5.0	ltm	221	diff_vonmises	-0.07020269798427936	-4.022318304930779	2.445476959864652	0.8856926004805226	6.7137904244520656e-15	1.4735486320641957	0.28074013575384216	-0.23065073406856915	0.5113908698224113	87.95088120027327
13	5.0	perception	221	diff_vonmises	-0.00940290895084088	-0.5387469980289673	1.4117958820516854	4.580428486568247	0.4623813144079102	5.252885111281437	0.6533741149994117	-0.4011399332841874	1.054514048283599	94.98757128420635
14	5.0	wm	221	diff_vonmises	0.019455182616522508	1.1146998535830257	0.5945017782662972	151.25566652070995	0.5817558818927704	151.75074668022106	0.23469333727588548	-0.24126568681052696	0.47595902408641244	116.00161634776055
15	6.0	ltm	221	diff_vonmises	0.2155694720427183	12.351220939911153	1.072781607624559	52.63392468389125	1.0479050286095908	52.88361753954709	0.1586561104149986	-0.1118301426164452	0.2704862530314438	87.0263150545295
16	6.0	perception	221	diff_vonmises	-0.23793697515743037	-13.632784466629877	0.46346840894519103	136.63081068100678	0.44928549778813004	137.12334653436912	0.2426423643943636	-0.274486734520055	0.5171290989144186	128.54401317992745
17	6.0	wm	221	diff_vonmises	0.12366862386715807	7.085690205778999	0.6189562073143965	87.62822179186692	0.6048119141989969	87.69188817541675	0.2178860849878781	-0.13124058402779326	0.34912666901567135	117.43624711064214
18	7.0	ltm	221	diff_vonmises	0.004761900275283476	0.27283678823592805	0.6334673672193906	100.9006455623293	0.617951895744641	101.70014479963525	0.08195823240999545	-0.2214924641464755	0.30345069655647094	106.86560033705888
19	7.0	perception	221	diff_vonmises	-0.10153594938004969	-5.817581368330814	1.7117362622449517	2.587464603727943	0.3561071941819749	3.18755281198346	0.5125377952701642	-0.31864971317704405	0.8311875084472082	90.98743887222776
20	7.0	wm	221	diff_vonmises	0.16513521416838595	9.46155082083747	0.6519587452508241	38.659041378235585	0.6125709587124422	39.208309788150736	0.14182939708754105	-0.1954613300118453	0.33729072709938634	109.76198327347083
0	1.0	ltm	222	diff_vonmises	0.003171882511964475	0.18173548104691828	6.334507399902583	0.6803172215322464	0.17683556510279974	4.24728456436812	-0.1320236841047081	-0.7057630329535751	0.573739348848867	50.103988153864776
1	1.0	perception	222	diff_vonmises	0.012127741174653065	0.694868384334652	17.19621021654859	0.6758203972786158	3.0937993368994217e-21	3.7136348426381858	0.5183792276143152	-0.5910433420441589	1.109422569658474	32.655132751948116
2	1.0	wm	222	diff_vonmises	0.10041851708536836	5.753557213953956	4.795056388624404	0.4701058531868347	0.0012231130425238255	4.65310519289035	-0.3428534312815323	-0.7398355352087054	0.3969821039271731	62.22755369109922
3	2.0	ltm	222	diff_vonmises	0.055434727335758736	3.17617591479747	2.0555182518537802	3.1817073203130497	0.89847262277405	4.588126558229555	0.1893854879511112	-0.39881760023348306	0.5882030881845943	69.65807835568955
4	2.0	perception	222	diff_vonmises	7.096797807818409e-05	0.004066165624456895	4.249621274292094	1.5986424307598452	0.380826583263301	3.2048795579115135	0.5501294936411726	-0.4889324765546951	1.0390619701958677	60.32368752779166
5	2.0	wm	222	diff_vonmises	0.10757786562347309	6.163757669250512	4.814158523923846	0.6311066889083721	3.7178670246556215e-16	2.396322915168117	0.15490103080987677	-0.3813513278269062	0.5362523586367829	62.254544237777
6	3.0	ltm	222	diff_vonmises	0.026552610912728574	1.52135254035236	3.7218954320814723	0.8076929822446637	0.1800167195531333	1.7525969651555673	0.2655968778963683	-0.2622895520207861	0.5278864299171544	66.73177030009799
7	3.0	perception	222	diff_vonmises	-0.05589361289916614	-3.202468120860197	5.106083091386126	1.3868926593819326	0.013447231367324815	2.301400732451299	0.8448882752426322	-0.3633418033990844	1.2082300786417166	60.169627607420466
8	3.0	wm	222	diff_vonmises	-0.06980771640143676	-3.9996875272485015	2.2641312635090087	2.133890516650427	0.6437037803429948	3.479980386792073	0.23301202847563174	-0.3793928897859149	0.6124049182615466	72.01537451945345
9	4.0	ltm	222	diff_vonmises	-0.16739008436539785	-9.590745366476083	1.8940916969610266	2.0645155955524275	0.28818358338277483	3.8978286172421854	0.21983952842470056	-0.46956897531384695	0.6894085037385476	84.97700257494569
10	4.0	perception	222	diff_vonmises	-0.021370990742052925	-1.224467573532788	2.008013515984162	2.999218134101608	0.15019694904975978	5.271296095296192	0.5815327860507024	-0.7001903967185632	1.2817231827692654	89.28699643000138
11	4.0	wm	222	diff_vonmises	-0.19500573979420846	-11.173005871034471	2.4920310574202182	1.5509313231594504	0.20316473291342543	4.110415839569692	0.11897797526652609	-0.5761194344255897	0.6950974096921158	77.03800568081067
12	5.0	ltm	222	diff_vonmises	-0.01578458707079514	-0.9043902205133283	2.105010248868992	1.2470747097156318	1.2703972196487408e-18	1.7767691288336853	0.3807254482573724	-0.2729310638832787	0.6536565121406511	94.671380107105
13	5.0	perception	222	diff_vonmises	-0.014029631826416917	-0.8038386917761061	2.283124827544797	1.9542477130921934	0.007504328348434647	2.9967241062102827	0.6110165585229311	-0.46202209345578976	1.073038651978721	90.67893668681018
14	5.0	wm	222	diff_vonmises	0.008952172623748414	0.5129217088133408	0.4109004313934143	208.0482841487944	0.3984919783288804	208.93131931359258	0.2727870643052057	-0.4061446081086082	0.6789316724138139	133.34318903296008
15	6.0	ltm	222	diff_vonmises	0.2607627647397209	14.940605873748805	0.8682728223709101	62.187956661184785	0.8462761178049915	62.356428705011496	0.20832438654606733	-0.12216939701103868	0.330493783557106	98.71723453686985
16	6.0	perception	222	diff_vonmises	-0.13272945231425978	-7.604837434690003	0.9745019968148614	2.0026852706378495	3.281212130432956e-13	2.735603443269136	0.23926775056143706	-0.3392991398750929	0.57856689043653	129.51948513455065
17	6.0	wm	222	diff_vonmises	0.3995421558502812	22.892079267779284	0.3186775760077802	123.19934252488979	0.30850413438547475	123.2990602594559	0.20400212144810936	-0.17568483012596836	0.3796869515740777	142.89062774552818
18	7.0	ltm	222	diff_vonmises	-0.01515627002434841	-0.8683903055558053	0.2680685062419427	93.84943238750644	0.24951474051181385	94.98302160756155	0.07975558014469897	-0.37581485305681106	0.45557043320151	148.39751068959907
19	7.0	perception	222	diff_vonmises	-0.06262214632505493	-3.587984688476326	0.9133163230604432	231.10993097926283	0.8967386602542056	232.08643593635804	0.41493931498969516	-0.37338743148472275	0.7883267464744179	93.01921196820237
20	7.0	wm	222	diff_vonmises	0.06214651774476682	3.560733178210018	0.9668854359698249	157.59619124081823	0.9478617093082722	158.7136222375366	0.1982304487006914	-0.31925129618513104	0.5174817448858224	87.23513590771225
0	1.0	ltm	223	diff_vonmises	-0.05382299926753138	-3.0838306987652695	6.635239953840538	0.42655616528533735	0.11175906100440719	2.9979722745959987	-0.10248013093912584	-0.4893947723487073	0.3869146414095815	50.03762802016152
1	1.0	perception	223	diff_vonmises	0.009210785869807697	0.527739156338716	15.212721628235155	0.7102061308828961	7.314447154665985e-20	3.044046537800733	0.6106878451969489	-0.48447505349268966	1.0951628986896385	34.74027927265365
2	1.0	wm	223	diff_vonmises	0.08557223807110204	4.902928084962851	6.874053641259054	0.3699221212428532	3.1971207192426076e-22	3.3453584752341143	-0.15308614228118778	-0.5324299319452215	0.3793437896640337	51.90474776707387
3	2.0	ltm	223	diff_vonmises	0.08459735243516567	4.84707125251577	2.3694614499249536	1.9828403000583905	0.8461728150171319	3.0809355840359354	0.16954160065260726	-0.31919269902033326	0.4887342996729405	67.41712870499833
4	2.0	perception	223	diff_vonmises	-0.014049674680739692	-0.8049870627381966	6.024440288971721	1.2904225226026065	0.2736338499295131	2.4501236333484933	0.7317099175896886	-0.397304443408086	1.1290143609977745	52.977662543370116
5	2.0	wm	223	diff_vonmises	0.09716273882532384	5.567014860622958	3.9444217516834685	0.6172249343621776	3.027929630320236e-15	1.9318016105897873	0.16343484246180245	-0.30727919736952997	0.4707140398313324	68.95745960244912
6	3.0	ltm	223	diff_vonmises	0.11799782382753254	6.760777297045836	6.039238465397372	0.4909651619842183	0.16454726066681818	1.0056376798814577	0.28303989134295393	-0.16060852202396297	0.4436484133669169	53.70442813556619
7	3.0	perception	223	diff_vonmises	-0.03775064803857988	-2.1629528064944465	5.225392390950876	1.2549357508882808	0.028729058813828146	1.6485563711082116	0.8440414514129236	-0.25883359912126214	1.1028750505341858	59.33979442012944
8	3.0	wm	223	diff_vonmises	-0.07128476633968106	-4.084316254839958	1.46967663725802	108.88090239484495	1.4418061472469217	109.50494536518578	0.27177436444461023	-0.2409866225172692	0.5127609869618794	72.6204460498947
9	4.0	ltm	223	diff_vonmises	-0.089231755591061	-5.112602993910682	1.1804251917910833	45.438383846042626	1.103678976031004	46.71231010379352	0.18921936545947204	-0.355399848920273	0.544619214379745	78.95090769116095
10	4.0	perception	223	diff_vonmises	-0.046866725860776545	-2.6852655914191264	2.658080480914639	2.1243327479594556	1.4431019932930428e-14	3.8900555781431145	0.6785190411931034	-0.6127476059568772	1.2912666471499805	84.35794021239744
11	4.0	wm	223	diff_vonmises	-0.16099328879221356	-9.224235977724655	1.1668778501017834	334.09127150412655	1.1531346838229297	335.8400436053453	0.20516532385003927	-0.4722227916897168	0.6773881155397561	77.60756053091342
12	5.0	ltm	223	diff_vonmises	-0.03922805297821033	-2.2476018741670516	2.2236019254015624	0.9955073469755533	8.755774062091932e-17	1.4469714675631218	0.31705125034204973	-0.22388230431832973	0.5409335546603795	92.18427112165026
13	5.0	perception	223	diff_vonmises	-0.010358268064914291	-0.5934850431847312	1.9607275985853854	2.28939820598055	0.11766411638414648	2.981937013239342	0.6349190448761932	-0.39743059401799025	1.0323496388941835	93.24413619476397
14	5.0	wm	223	diff_vonmises	0.038256016352644355	2.191908277989983	0.5255127558535825	163.6654377068459	0.5130835176747323	164.19910295542255	0.2483191186787579	-0.2732089941830971	0.521528112861855	122.45698047859942
15	6.0	ltm	223	diff_vonmises	0.25740532140513334	14.748238540722609	1.0030302932857467	61.02989185065485	0.982288437204568	61.20142625510935	0.18157308271407757	-0.10527820779939567	0.28685129051347324	91.40498064767709
16	6.0	perception	223	diff_vonmises	-0.204324736680489	-11.706945061913903	0.5004552254498589	131.1782760413001	0.4848583043462366	131.6850934001866	0.25833101291009086	-0.27910659942607907	0.5374376123361699	125.11931604145057
17	6.0	wm	223	diff_vonmises	0.20335551252083933	11.651412608163861	0.4592986773446958	103.35038603189874	0.4472245088279725	103.41434350746923	0.21623111839150866	-0.15269180085073053	0.3689229192422392	131.03517898004117
18	7.0	ltm	223	diff_vonmises	0.003007688877179812	0.17232787875084465	0.48308662609380776	77.60191512908919	0.4628466104067135	78.43847908121984	0.09164403787012176	-0.2608330317500922	0.35247706962021397	123.16862624400156
19	7.0	perception	223	diff_vonmises	-0.08462904881516839	-4.848887321315769	0.9588218214609083	207.24756917964197	0.9406821397435929	207.92486975055402	0.49011593899544437	-0.33394918760738435	0.8240651266028287	92.45221608758317
20	7.0	wm	223	diff_vonmises	0.11150286790403045	6.388643734505672	0.8221250527819779	92.1933696168381	0.8006100649673948	92.94199803776955	0.15134016792988092	-0.2257228853008275	0.37706305323070843	95.59089991648099
0	1.0	ltm	224	diff_vonmises	-0.2271595973513566	-13.015286204123887	8.11755330378934	0.1992550803799127	1.0601239206198918e-08	1.806217533848969	-0.06469400067963241	-0.2874684259463149	0.22277442526668248	47.700972662524975
1	1.0	perception	224	diff_vonmises	-0.03195208645319766	-1.8307197004053575	12.376347440071049	0.6713906280051865	1.713483652921501e-17	2.4270075051391182	0.5460763552060723	-0.3862702413474362	0.9323465965535085	38.538136443997274
2	1.0	wm	224	diff_vonmises	-0.012952354967565352	-0.7421152743968009	14.314483727145728	0.21927275426606652	2.778386339131535e-25	2.169170076936014	-0.017302117703774156	-0.34523414015127263	0.3279320224474985	35.81436924524141
3	2.0	ltm	224	diff_vonmises	0.09012836779990992	5.163975089337627	6.24910882332044	0.5003055894318417	0.45228727224589055	1.2855071623654493	0.18232316836801254	-0.22280928851117657	0.4051324568791891	49.81958096650382
4	2.0	perception	224	diff_vonmises	-0.03179576074113435	-1.8217628968747526	8.657307900447881	1.050074143269062	0.15361660097441437	1.9209125441749464	0.8593217277892828	-0.31653117380039825	1.175852901589681	45.353742074560984
5	2.0	wm	224	diff_vonmises	0.05645897165105732	3.234860791254346	1.5025132722569454	0.837144868686966	8.463845104763333e-18	1.8639490470823568	0.0663184278870032	-0.2786753919512611	0.3449938198382643	110.36488152386653
6	3.0	ltm	224	diff_vonmises	0.0668830379896283	3.832115797818852	2.3596183817182528	2.874043250445561	1.7563428197302986	2.964091578180118	0.22387648416246453	-0.09967259193500605	0.3235490760974706	63.87417132743559
7	3.0	perception	224	diff_vonmises	-0.011796024884669368	-0.6758624409228484	3.212764068616562	2.805837810985273	0.815984129201674	3.0353925064926313	0.9794507458505209	-0.3409912196680896	1.3204419655186106	66.16977936978185
8	3.0	wm	224	diff_vonmises	-0.23669306232472928	-13.561513511233942	1.6544658211072194	108.5185071420075	1.6342052281578985	108.80779978146063	0.24071131857655814	-0.15233959521538232	0.39305091379194046	69.803236421126
9	4.0	ltm	224	diff_vonmises	0.027087153700305275	1.551979586049663	1.5997909958005827	139.74187920428264	1.5778204405488212	140.4760517126058	0.19900565138413384	-0.2542388850040318	0.45324453638816564	67.88327813141518
10	4.0	perception	224	diff_vonmises	-0.1092469284409354	-6.259387924433318	3.2889157593761804	2.2549480475071206	0.1828277406863936	3.356665069936466	0.9196275203379719	-0.48076524388480013	1.400392764222772	71.73800889423816
11	4.0	wm	224	diff_vonmises	-0.22740232874851599	-13.029193688736434	1.2437564699788846	264.75281738962036	1.229808149411308	265.9608675778793	0.21366384449817133	-0.3530939697776496	0.566757814275821	76.20937354477022
12	5.0	ltm	224	diff_vonmises	-0.026322996839247163	-1.5081966230250683	2.4950069863079474	0.7854375388351994	6.865887269391899e-18	1.1523930007763252	0.2789115409806021	-0.18026210920756797	0.4591736501881701	87.08433551415891
13	5.0	perception	224	diff_vonmises	0.00038611328162805475	0.022122661451233684	2.0025576517291537	2.1046475495069084	0.06058334175306438	2.46694208123891	0.6698303979498255	-0.34940661836021936	1.0192370163100448	94.804609022548
14	5.0	wm	224	diff_vonmises	-0.03463692816345731	-1.9845497990639214	0.44844336775546245	119.40944131064603	0.4365406230097148	119.98961324666341	0.12671310806826597	-0.22529972341817128	0.35201283148643725	128.42410463732904
15	6.0	ltm	224	diff_vonmises	0.37474905111153006	21.471539005223043	0.8660486039677999	81.59740144622627	0.8526452982543653	81.87057938004669	0.12292550333013708	-0.10875558939879859	0.23168109272893567	95.72101671404792
16	6.0	perception	224	diff_vonmises	-0.11594799148758111	-6.643330555257194	0.8074202863522792	197.36851949941374	0.7958098757455726	197.83916962843037	0.29505588554003737	-0.22796983131039106	0.5230257168504284	100.26806557806195
17	6.0	wm	224	diff_vonmises	-0.2668024373277854	-15.286653622685758	0.6228130444886798	110.95122353316617	0.6093464469551235	111.37640198050393	0.16955086914177997	-0.1850998774659196	0.3546507466076996	112.83916811921411
18	7.0	ltm	224	diff_vonmises	0.0364973339642876	2.0911431996331533	0.9405965233067108	77.23764734008988	0.9222480018117479	77.65144493582126	0.13416023020182166	-0.1411763955689631	0.27533662577078477	90.68755551181641
19	7.0	perception	224	diff_vonmises	-0.136883861307832	-7.842867536392883	0.8413762633373638	172.27028580097294	0.8222807787350983	172.55183532115228	0.5412747724489009	-0.2899825617694951	0.831257334218396	101.01817711094078
20	7.0	wm	224	diff_vonmises	0.020189567094301024	1.1567769846996536	0.6754059123209097	29.565505577735184	0.6407063582228232	29.975637444242967	0.08300912940843475	-0.13192654128362324	0.214935670692058	106.56463175876877
0	1.0	ltm	225	diff_vonmises	0.05327732826526552	3.052566053332762	9.692871950890096	0.29860244537460023	0.01961416095704235	1.826469789408422	0.0694269142370677	-0.29199883928250214	0.36142575351956985	43.29015982426358
1	1.0	perception	225	diff_vonmises	-0.002460168702120116	-0.14095728352166007	17.546304763868267	0.5480492926076042	2.9206540090632394e-16	2.16818905982367	0.5640219057959593	-0.3450780064287056	0.909099912224665	32.32099792385458
2	1.0	wm	225	diff_vonmises	0.05652746036270442	3.2387849053760127	4.95881715893696	0.45980125045010056	0.09609742256925027	2.256566151785388	0.0024810765323041717	-0.3577682023272729	0.3602492788595771	58.25189426715744
3	2.0	ltm	225	diff_vonmises	0.15927210271483874	9.125619279734401	3.737541829244067	0.9616953149432432	0.867397719764857	1.5436042765695126	0.22382579382366186	-0.21528909247457018	0.43911488629823203	58.62311644563144
4	2.0	perception	225	diff_vonmises	-0.010926621189768233	-0.6260492785119339	6.238451977895917	1.2055668773036416	0.4557799729493237	1.9561377523122074	0.7084064667418748	-0.3271572729045091	1.035563739646384	51.214663284627164
5	2.0	wm	225	diff_vonmises	0.10666140058864851	6.111248090683754	2.5232767017823585	0.9155660708994073	0.28896765580551137	1.692927506308344	0.19022157542322254	-0.22291803416373326	0.41313960958695584	76.72574129957445
6	3.0	ltm	225	diff_vonmises	0.058249844833113955	3.3374702662293547	2.092367449032612	114.39696754703596	2.068748737014712	114.71467774893276	0.2458443614819572	-0.17671525138420208	0.4225596128661593	61.29322072494736
7	3.0	perception	225	diff_vonmises	-0.05259827518315002	-3.0136591776621935	5.144827045374998	1.347623873427993	0.20964208074295715	1.6093684278306373	0.8740375944884287	-0.24718965049039882	1.1212272449788274	58.35679538294127
8	3.0	wm	225	diff_vonmises	-0.05525650859773059	-3.1659647332783094	1.4188162491905043	152.6110673811145	1.4026724015827146	153.1109096303155	0.23089697509421825	-0.19577714513654954	0.4266741202307678	74.02932205477487
9	4.0	ltm	225	diff_vonmises	-0.07469517858836924	-4.279718483089512	1.5527316006428948	207.68516922235247	1.538210047169736	208.48414114146993	0.17113155195815466	-0.26013648418346946	0.4312680361416241	68.20766249829018
10	4.0	perception	225	diff_vonmises	-0.03193917710136104	-1.8299800490288698	3.411678056982092	1.666109372605012	6.091094074333127e-19	2.9953956385337066	0.6965760832931633	-0.47545535075319856	1.172031434046362	74.28474783166479
11	4.0	wm	225	diff_vonmises	-0.0038460871827252835	-0.2203645632095198	1.2351399320860494	234.23329405693812	1.220745347261814	235.54080636692777	0.11944351689348309	-0.34770278369725816	0.46714630059074125	74.67170626663065
12	5.0	ltm	225	diff_vonmises	-0.07900262622811756	-4.526517053320679	1.999190664640933	0.9199609690696406	8.712016224203784e-19	1.3921374334199759	0.252880403467281	-0.21286050749556823	0.46574091096284925	97.03361206758326
13	5.0	perception	225	diff_vonmises	-0.057552287436595934	-3.2975031714407383	1.8057800654139107	2.2723268050397296	0.16631840500865602	3.067788334466091	0.529159641213152	-0.38195242492498477	0.9111120661381367	94.56927208975256
14	5.0	wm	225	diff_vonmises	0.18999241913676188	10.885763756017031	0.9589539517193313	1.380151917417994	1.2753862675730673e-16	1.9357401059463593	0.1527942760948487	-0.2403730823825989	0.3931673584774476	129.96565220809316
15	6.0	ltm	225	diff_vonmises	0.10494833796438024	6.013096832271577	0.7682468982791245	38.715475397218555	0.734543735128327	39.09132891551674	0.13966777775644523	-0.1439755113141259	0.2836432890705711	101.79110381559698
16	6.0	perception	225	diff_vonmises	-0.21891035144318388	-12.542639229420026	0.7672493128303728	128.4121368855748	0.7445988050767233	129.25181258736106	0.3091946944395616	-0.31962689576010384	0.6288215901996654	101.44874108969657
17	6.0	wm	225	diff_vonmises	0.17037160948597463	9.761574172397367	0.4064297985054896	99.47679814081862	0.3906299263031588	99.90206122931626	0.19192733692168318	-0.23709703733425513	0.4290243742559383	134.43680436982282
18	7.0	ltm	225	diff_vonmises	-0.1594544624014305	-9.136067720129436	0.7304399966550748	59.670929984683994	0.6976105337631423	60.57971243909649	0.11539869331515717	-0.2525949849335536	0.36799367824871076	100.42170397187718
19	7.0	perception	225	diff_vonmises	-0.031155438378343926	-1.7850751279590167	1.4203613578021579	4.412718244339439	0.46226120066762555	5.653935383451681	0.4941035927552566	-0.45781999355135516	0.9519235863066118	92.49550173134341
20	7.0	wm	225	diff_vonmises	0.14979196591843524	8.582447452093808	1.0607585411483198	129.89761158149037	1.043066529540074	130.81490679288476	0.11166557607675998	-0.24525346455146213	0.3569190406282221	81.8306548095957
0	1.0	ltm	226	diff_vonmises	-0.5867450221327523	-33.61801341851678	0.4403222899907907	0.9349948519982124	3.670799974877197e-15	4.380009565224388	-0.4767802812527905	-0.6057723453809363	0.1289920641281458	149.42333205440292
1	1.0	perception	226	diff_vonmises	0.06324672022999246	3.6237701372232514	10.340443873393921	0.6740296241050848	0.0003348302680485267	4.0996159622187465	0.2008545640884719	-0.6524473684302808	0.8533019325187527	42.199043110024746
2	1.0	wm	226	diff_vonmises	0.17384751473888188	9.960728873376306	112.44811948399456	0.40308084833463664	1.329378802332207e-57	4.135466591667079	1.0450838571896577	-0.6581799500552084	1.703263807244866	12.745474620122422
3	2.0	ltm	226	diff_vonmises	-0.04352689468697115	-2.4939073608738536	11.238003525759282	0.35347733328831876	1.672833529146888e-14	2.300476697724709	0.10092053241367405	-0.3661322378295942	0.46705277024326824	40.47312259850048
4	2.0	perception	226	diff_vonmises	0.008858242148208241	0.5075398889972321	9.95765218110535	1.151899624208439	0.10862875086966342	3.401480243704073	0.828781587201477	-0.5608126958352083	1.3895942830366854	42.32165018748148
5	2.0	wm	226	diff_vonmises	0.06965768397283793	3.9910913022996906	2.303644074882775	0.8192924176258708	1.0931273601558377e-23	2.9352004008872106	-0.00708644838035466	-0.46256073416989785	0.4554742857895432	90.59245239481052
6	3.0	ltm	226	diff_vonmises	-0.040005746224482726	-2.292160414934288	4.275371533614586	0.48282594255061084	7.907236767465076e-22	1.1827214797518877	0.19665017013891936	-0.18816152403446948	0.38481169417338884	66.16330370794111
7	3.0	perception	226	diff_vonmises	0.02518357310546979	1.4429124520025869	3.2461027424543163	3.084572339116292	0.6840976164123599	3.999310077646787	0.9864168493951639	-0.495658498019804	1.482075347414968	65.85607545948378
8	3.0	wm	226	diff_vonmises	-0.21494116176347924	-12.315221412686068	1.3577159657226354	146.32773995473036	1.33842823727439	147.10837354795996	0.19293052359071794	-0.25013311676996963	0.44306364036068757	73.8311246398427
9	4.0	ltm	226	diff_vonmises	-0.03905870747708826	-2.237899091673229	1.7709696031312578	2.265360231310441	0.5191264321809562	4.174164585244235	0.040628236404098406	-0.4370426576463894	0.4776708940504878	77.77987519665001
10	4.0	perception	226	diff_vonmises	-0.11905379715541052	-6.821280112011628	2.2919339951698032	3.978685319730412	0.581663693583658	5.974641288249422	0.6615201093270016	-0.6501688233104739	1.3116889326374754	74.43772602090394
11	4.0	wm	226	diff_vonmises	-0.18367619952130182	-10.523871029573426	0.9447956157660377	195.00868462515874	0.9265224607827159	196.9712004279099	0.03404943383436887	-0.4516023904870039	0.48565182432137277	83.35242930624325
12	5.0	ltm	226	diff_vonmises	-0.08113612441209946	-4.648757494861666	2.6157224389810034	0.8990898448159699	5.726138410506749e-17	2.1989387102245015	0.19411378143792568	-0.3470631081141319	0.5411768895520576	85.0409769173506
13	5.0	perception	226	diff_vonmises	-0.02800053405565679	-1.604312425501464	1.3156761276656221	5.436429633208683	0.48081121792327736	6.60532469154693	0.5700781561866659	-0.4791736855747952	1.0492518417614611	95.07346357834803
14	5.0	wm	226	diff_vonmises	-0.1910335535810448	-10.94541636558014	0.5110772460097518	180.59579364610306	0.49825564476362066	181.98208226127608	0.09149240782245016	-0.38618878664696865	0.4776811944694188	118.11134565140337
15	6.0	ltm	226	diff_vonmises	0.3268141821969069	18.72507332490229	0.674477698265424	147.08293066326252	0.6632007346085487	148.0650005577401	0.043053319821488856	-0.23967739894020745	0.2827307187616963	100.8924582342843
16	6.0	perception	226	diff_vonmises	-0.08800874886859329	-5.042529870397154	0.7231074353883283	240.2122219212668	0.7122862313873175	241.13166074200143	0.23200818249468114	-0.3078356089262577	0.5398437914209389	102.72495775415946
17	6.0	wm	226	diff_vonmises	-0.24237095752701168	-13.886832942842302	0.7149135055563464	118.49850156532014	0.6978500356103962	119.57333496757889	0.08008752792774487	-0.2742232026629505	0.3543107305906954	99.29279284871996
18	7.0	ltm	226	diff_vonmises	0.10810663965351955	6.194054189488298	1.1141181916142928	156.1409177627185	1.0985966747354237	157.2679140732533	0.04736698288266439	-0.275629294456472	0.3229962773391364	77.3254587995282
19	7.0	perception	226	diff_vonmises	-0.16454222016171718	-9.427574766978797	1.6120416478790076	2.244243042607251	4.70740979056143e-16	2.73298524434877	0.5805532734024279	-0.3945546098213456	0.9751078832237735	107.01522676288273
20	7.0	wm	226	diff_vonmises	-0.3589422333353294	-20.56587505911438	1.1222201533796694	99.98838113552087	1.1003173373401207	100.75011015259213	0.13476133360065745	-0.21870109753444567	0.3534624311351031	80.65380558474254
0	1.0	ltm	227	diff_vonmises	0.01943344348729429	1.1134542932279592	4.556456445202819	0.4267750340325011	7.153054052298214e-17	2.817236981318433	-0.0962627327758489	-0.44833837605873983	0.3520756432828909	64.03385580380564
1	1.0	perception	227	diff_vonmises	0.017151480143115082	0.9827074246029314	15.883580385296742	0.5384052374091027	5.266533712261677e-16	2.8336019017584086	0.39812049725470333	-0.45098174941943214	0.8491022466741355	33.97843068060297
2	1.0	wm	227	diff_vonmises	0.010559410625753888	0.6050096630012934	4.729564153899471	0.4416550264990312	5.316012008497633e-19	3.0908180952398845	-0.12019889119786126	-0.4918899868400433	0.37169109564218206	62.82634715205319
3	2.0	ltm	227	diff_vonmises	0.11305854920280567	6.477777707192923	4.933682299692742	0.7001696423502791	0.34134990426069456	1.8896423773935074	0.19169347346396193	-0.30490521626051637	0.4965986897244783	56.00817143098999
4	2.0	perception	227	diff_vonmises	0.02254984375119455	1.2920108756229003	4.831120479527568	1.4256951696784028	0.3806154888308825	2.8414772119948766	0.5753536866587372	-0.4479067388626601	1.0232604255213973	57.20677646090272
5	2.0	wm	227	diff_vonmises	0.10839311987812923	6.210468297272393	3.0895551558949297	0.7223705002088858	0.06742976837515233	2.0464526479764698	0.13306575594191383	-0.3103346051828751	0.4434003611247889	74.87851271719148
6	3.0	ltm	227	diff_vonmises	0.025426939631782757	1.4568563268350794	2.524614916939043	1.2831081298439155	0.6592060788702007	2.1300512337132402	0.1709494061126955	-0.24771195681281477	0.41866136292551026	69.27946219453503
7	3.0	perception	227	diff_vonmises	-0.0346418824149942	-1.9848336567676312	4.52678241401765	1.70124391701922	0.18864323173401137	2.5501022402122064	0.9129223097985744	-0.3872303696521079	1.3001526794506821	61.79282354529292
8	3.0	wm	227	diff_vonmises	-0.0571012457434813	-3.271660386040835	1.5687334646022626	3.638524077046088	0.7819444545965226	4.7599360214254265	0.1905391093820472	-0.31678827041147106	0.5073273797935183	78.9426549041055
9	4.0	ltm	227	diff_vonmises	-0.07896811409023313	-4.524539653477927	2.0042739280989856	1.620352942164522	0.4623602033719864	3.1247869709842826	0.08786076173457236	-0.3590709357451604	0.44693169747973277	76.88596124709031
10	4.0	perception	227	diff_vonmises	-0.005407840578558908	-0.30984644143101076	2.4794045999736714	2.2993855817048887	0.17750517613689418	4.350673493754875	0.5280982542330909	-0.5981952989363151	1.1262935531694058	80.30985146914998
11	4.0	wm	227	diff_vonmises	-0.04159552435658945	-2.3832479922661944	1.0155441892640549	269.95614649371396	1.00088539048855	272.02575855270385	0.04047795072976612	-0.4828593997174053	0.5233373504471714	80.2518690307607
12	5.0	ltm	227	diff_vonmises	-0.016380428630133666	-0.9385294271219197	1.616160814673344	1.283105212288204	2.079086044172023e-17	1.9570606319927601	0.27005770195149387	-0.28852516195698663	0.5585828639084804	106.96723771479293
13	5.0	perception	227	diff_vonmises	-0.03521859891164251	-2.0178770780011503	2.1648386771446364	1.8079423956803724	3.2646958014283277e-16	2.860881902669724	0.5229213547011795	-0.4424382514649414	0.9653596061661209	93.39440697991648
14	5.0	wm	227	diff_vonmises	0.1326208903977916	7.5986172950605235	0.38676248000075125	80.44984540170374	0.3618583526273701	81.35572319185042	0.1649987745405852	-0.34797931339852184	0.512978087939107	135.5211185110566
15	6.0	ltm	227	diff_vonmises	0.3252807041067606	18.637211502361126	0.7118379197606461	138.35540451881124	0.6998515429000921	138.88249657368775	0.16618505185605414	-0.19321465789070125	0.3593997097467554	104.47114421280043
16	6.0	perception	227	diff_vonmises	-0.12067154564181234	-6.9139702725961305	0.6977557938722868	183.74656666666232	0.6820993513576483	184.70848572045296	0.27762997848706306	-0.34366905224293554	0.6212990307299986	105.3573008297948
17	6.0	wm	227	diff_vonmises	0.16485822199189906	9.445680338166628	0.3855135704660017	153.30404693793815	0.37459022494032457	153.942360604325	0.16313000423512136	-0.27613309588507917	0.43926310012020053	135.4297027591578
18	7.0	ltm	227	diff_vonmises	-0.035306600348449305	-2.022919188921267	1.2027451617270613	1.298968551059572	3.444820490666589e-12	2.5925183744146585	0.08053351788054192	-0.3681198918050535	0.4486534096855954	120.58745828492556
19	7.0	perception	227	diff_vonmises	-0.032335814272486406	-1.8527056849323615	0.9064186805287693	305.9110951552169	0.890751320669517	307.0307725700668	0.5535139913012017	-0.4597054196639796	1.0132194109651813	93.87848620001608
20	7.0	wm	227	diff_vonmises	0.012187608049245584	0.6982985035814423	1.0172536192009287	215.87023947202027	1.002835294246094	217.17279880317625	0.14246570926651714	-0.341644849696209	0.48411055896272615	83.27895254086303
0	1.0	ltm	228	diff_vonmises	-0.014942616978981221	-0.8561488877761483	7.043392221659548	0.6021682780252	0.22142735428891827	4.0840472255458495	-0.1758662894995915	-0.6992274316763605	0.523361142176769	46.949245119816595
1	1.0	perception	228	diff_vonmises	0.014316484686807908	0.8202741500177654	14.847972137158227	0.7793984451485874	0.04931788574295983	4.168777242463197	0.49103402784264294	-0.6799938624616115	1.1710278903042544	34.869478444091044
2	1.0	wm	228	diff_vonmises	0.11957010578316593	6.850862417308205	6.1612171435299015	0.44297921265090645	0.03268020976121895	4.618024804187858	-0.33023173955586976	-0.7366007704284064	0.4063690308725367	53.260917902300264
3	2.0	ltm	228	diff_vonmises	0.009126801892167259	0.5229272288731978	1.2449012855201365	140.21774380746135	1.2177472472693187	141.59370836256696	0.17372576228254388	-0.38046893872493115	0.554194701007475	75.40080655236196
4	2.0	perception	228	diff_vonmises	-0.02133476493512363	-1.2223919876862837	4.976930388542008	1.4613029147827403	0.33910891172074076	3.1326128007186744	0.5838351859858065	-0.49770675707636886	1.0815419430621753	56.68264938443323
5	2.0	wm	228	diff_vonmises	0.10431874844341667	5.977024009894701	4.700343698506714	0.6681235650411689	1.171169859112838e-17	2.2758592693052555	0.19831166867109473	-0.36216791533631626	0.560479584007411	63.02318632756064
6	3.0	ltm	228	diff_vonmises	-0.024391548962650625	-1.3975328113465821	3.6304897280942	0.9698461057588446	0.2743129091591277	1.7674579506720962	0.34372141725206923	-0.2574674860136703	0.6011889032657396	66.47110695457357
7	3.0	perception	228	diff_vonmises	-0.033748911960280716	-1.9336702184826708	4.6217628671314115	1.655687488958324	0.25733172339338417	2.450488692402779	0.8803194582439521	-0.37214105562720673	1.2524605138711589	60.53117352249956
8	3.0	wm	228	diff_vonmises	-0.10895602081481227	-6.242720145228292	1.3192490445644547	168.69839321719473	1.2994232721227665	169.59994398266937	0.2487143051653362	-0.2948723461248157	0.5435866512901519	75.34272084309603
9	4.0	ltm	228	diff_vonmises	-0.13315803634099438	-7.629393490588617	1.1003078914965894	93.54056189647794	1.0520545227492004	95.04246115144933	0.3193736898750572	-0.4478931303118099	0.7672668201868671	82.65427406659094
10	4.0	perception	228	diff_vonmises	-0.0630124835385528	-3.6103493633966504	3.3688532543394123	1.869432853808677	5.949915647327868e-13	3.83136893529217	0.697368258829534	-0.6082316171429396	1.3055998759724736	74.77006406165361
11	4.0	wm	228	diff_vonmises	-0.15298603393497837	-8.76545406891945	1.4819984985656827	3.5122242097941796	0.4950787189504687	5.442835922582922	0.1722839855160858	-0.48374177834383736	0.6560257638599232	85.75380070855368
12	5.0	ltm	228	diff_vonmises	-0.0539467344104009	-3.090920200229141	2.366289135197991	1.2351296554885831	1.5503097687896757e-16	1.995620022672131	0.38709384291076504	-0.31140869785010356	0.6985025407608686	89.40383627429972
13	5.0	perception	228	diff_vonmises	-0.02827321136859688	-1.6199356847018995	1.5414817386393977	3.9704197337345284	0.37118256149265566	5.152050278865772	0.5998306637308095	-0.48587619429444073	1.0857068580252502	93.17158368776307
14	5.0	wm	228	diff_vonmises	-0.04823493504129405	-2.7636582029538324	0.3892302837360809	205.30558833188084	0.37755674664448746	206.2253505741424	0.23192879428361834	-0.394728678725496	0.6266574730091143	135.27743244734953
15	6.0	ltm	228	diff_vonmises	0.01697222068019731	0.9724366139399613	1.5449532376032575	0.8730661829511546	1.1556441319499629e-21	1.1868968299822886	0.19610400323097546	-0.17138039544604927	0.36748439867702476	109.0763178474864
16	6.0	perception	228	diff_vonmises	-0.12667332470141368	-7.2578468822812825	1.1335311331331293	1.6701963068840293	4.520633458719014e-11	2.562007151374461	0.2048656167274106	-0.34427715341181053	0.5491427701392211	123.1224463162182
17	6.0	wm	228	diff_vonmises	0.6377681105990107	36.54142104535602	0.0008343616877519287	1248.5347831156316	4.408728551138952e-22	1248.6294308490562	0.15076201791276844	-0.18082016894737762	0.33158218686014607	168.0762585092388
18	7.0	ltm	228	diff_vonmises	-0.07910375369677997	-4.532311230467876	0.49984047166861406	122.69998375310118	0.48443171953192793	123.72087782047731	0.10398764704429553	-0.30916967838622966	0.4131573254305252	120.77600778588577
19	7.0	perception	228	diff_vonmises	-0.10122823680809018	-5.799950736654419	0.8151012655848235	198.21955080518225	0.7949069516187106	199.37665816188968	0.41417210783225755	-0.42546228340708936	0.8396343912393469	98.13190886418178
20	7.0	wm	228	diff_vonmises	0.045052600568949414	2.5813238686894926	1.0198872521594242	123.99935572167325	0.9998507859918625	124.68007714489895	0.23697395963161227	-0.23575108782978127	0.47272504746139354	87.22027212215801
0	1.0	ltm	229	diff_vonmises	-0.5214932295327689	-29.879361096874756	0.0002851450607115955	1666.2674005900792	1.1590221783635691e-30	1669.7200097902655	-0.4738756414367913	-0.6251132190212161	0.1512375775844248	172.36412101837809
1	1.0	perception	229	diff_vonmises	0.08926598910494303	5.114564429774025	10.338220521075481	0.6786632534188636	0.004011173411106438	3.9062697398779735	0.23529546787434374	-0.6219796069991157	0.8572750748734594	42.13529343108311
2	1.0	wm	229	diff_vonmises	0.17736128633926837	10.16205315625138	121.01695686668167	0.48785487587418896	1.5116345733129233e-48	4.01180806450205	1.4992816239310014	-0.6384990842014306	2.137780708132432	12.282913710530721
3	2.0	ltm	229	diff_vonmises	-0.008721391729237683	-0.499698937565622	15.843233377313208	0.28931421633033794	1.3365251300237508e-16	2.252814556206559	0.09685813647731945	-0.3585465724896404	0.45540470896695984	34.04242921828981
4	2.0	perception	229	diff_vonmises	0.023879297972041632	1.3681829915332913	11.022045639308315	1.1703936480510082	0.10925766554346512	3.383264496502141	0.9326036929778238	-0.5608396234503781	1.493443316428202	40.28404239367495
5	2.0	wm	229	diff_vonmises	0.05436838611596396	3.1150790633823973	2.4571938165986573	0.7843936139241505	1.3275060247429568e-16	2.8744355639512786	0.00013511624102185982	-0.4541215989900488	0.45425671523107064	87.74275323882065
6	3.0	ltm	229	diff_vonmises	0.05745929535398197	3.2921751175788265	5.455411150469296	0.3749991566607812	1.3955477949776033e-14	1.0808491412103438	0.16853870768879542	-0.1720162641837573	0.3405549718725527	58.39981410740904
7	3.0	perception	229	diff_vonmises	0.021474911107829262	1.230421771897228	4.101445260134873	1.9786054588804873	0.3882614541586801	2.72117259667217	0.9269757813013554	-0.3953671502985676	1.3223429315999229	62.72384570008768
8	3.0	wm	229	diff_vonmises	-0.12627200885456002	-7.23485317800485	1.361617123383165	131.07823407797645	1.3412983338187874	131.7738219986025	0.19802526306170165	-0.2311124654970147	0.42913772855871635	74.184832624899
9	4.0	ltm	229	diff_vonmises	-0.0009297915156120321	-0.053273129671641634	1.763864604741754	1.9437151282359426	0.4897413131828497	4.095351322356807	-0.07352575470454736	-0.45571985726764536	0.382194102563098	76.03195030141597
10	4.0	perception	229	diff_vonmises	-0.10665481457565032	-6.110870739935139	2.103719011161872	3.9245433257416633	0.5317448136177672	6.11032267402525	0.5432943581694505	-0.654288535527717	1.1975828936971675	77.11378227294034
11	4.0	wm	229	diff_vonmises	-0.1390479289487368	-7.96685947879756	1.0204141559324558	223.16731008832954	1.0039880087195654	225.20491587212982	-0.0050892411543230764	-0.46230056656942864	0.45721132541510556	79.01418759279164
12	5.0	ltm	229	diff_vonmises	-0.10317870425351149	-5.911704289354724	2.5693254139120962	0.8027277601479715	3.945024632342405e-18	2.1614704654217847	0.13673385585947878	-0.3411888490485949	0.4779227049080737	85.80336829322164
13	5.0	perception	229	diff_vonmises	-0.04031069399039053	-2.3096326348927483	0.8793324503602534	76.41954686289834	0.8171702781748326	77.6136993767726	0.5398982125580751	-0.478427753799596	1.0183259663576711	96.37776416698287
14	5.0	wm	229	diff_vonmises	-0.12535924763007383	-7.182555812138598	0.5837005735129565	176.28030060392103	0.570554871788372	177.5669609451724	0.10304053523692858	-0.35117344021875496	0.45421397545568354	110.71842144271781
15	6.0	ltm	229	diff_vonmises	0.3412965827853296	19.554853755836692	0.7472803233915091	152.16883412639942	0.7356161488188249	153.21456669027634	0.034082667796170085	-0.24619878030761733	0.2802814481037874	95.00725625291489
16	6.0	perception	229	diff_vonmises	-0.1491715654474238	-8.546901123496923	0.6513852557315037	248.1778818609526	0.6412112719719529	249.07527702250323	0.23442661550366495	-0.31751556709010487	0.5519421825937698	108.56519028988046
17	6.0	wm	229	diff_vonmises	-0.04795534770177034	-2.7476390283938326	0.46663210511813713	142.43986965349822	0.4534124072714484	143.62138663699162	0.06831226031952298	-0.33338555269443226	0.40169781301395524	123.11011124267682
18	7.0	ltm	229	diff_vonmises	0.14902287080791646	8.538381548216934	1.2344984937218635	134.36792342506175	1.2128394232517048	135.73977126360737	0.012260862767703884	-0.33274353924507594	0.3450044020127798	72.10922806675305
19	7.0	perception	229	diff_vonmises	-0.14649522517524977	-8.393558121360456	1.7535276097943029	2.1565531814257737	8.55270843355655e-21	2.628190261455818	0.6088335058851282	-0.38748855452519754	0.9963220604103258	103.09778839636111
20	7.0	wm	229	diff_vonmises	-0.3904505225368513	-22.37116705003921	0.9976567774503841	94.97885006550608	0.9742841361160759	95.94227101349782	0.09590364787436556	-0.24907826778918363	0.3449819156635492	84.07328657291666
0	1.0	ltm	230	diff_vonmises	-0.20144735261843086	-11.542083099119761	5.050334594115446	0.2046991958136926	5.175035267482485e-24	2.6245345655856034	-0.23928435489489186	-0.41770032241890354	0.17841596752401168	60.7526711783909
1	1.0	perception	230	diff_vonmises	0.033705851718558444	1.9312030483671714	11.60866896018876	0.6385575161886453	0.021322827386773872	3.251018670862569	0.32971345092845683	-0.5209880662567528	0.8507015171852096	39.59355690894927
2	1.0	wm	230	diff_vonmises	0.07547572136876544	4.3244402901356205	9.341105453094213	0.2924042262866759	5.671563898808992e-30	3.0665919561495074	-0.13661386166272282	-0.4880632655605155	0.35144940389779267	44.43066600054513
3	2.0	ltm	230	diff_vonmises	0.03149954760355632	1.8047911342552034	5.6485321197205005	0.47649559172475314	0.14886144233327217	1.7243620951953045	0.12405095129641347	-0.27699240558405996	0.40104335688047343	54.58432458455232
4	2.0	perception	230	diff_vonmises	-0.004163199683556442	-0.238533771137984	8.247834537831881	1.1613780226547885	0.22404320054075502	2.6851312139111663	0.7810929914697469	-0.4528475683733743	1.2339405598431212	45.830823925671325
5	2.0	wm	230	diff_vonmises	0.0976472957981184	5.594777930097722	2.716751736238482	0.714386719706624	5.732046092387413e-21	2.097342911249952	0.1081330651666701	-0.3318719579894038	0.44000502315607387	83.4308892754897
6	3.0	ltm	230	diff_vonmises	0.024794153680872608	1.4206003625127555	3.7543675766922293	0.7502415952618723	0.5910160213223284	1.229954205882111	0.23255106555282556	-0.1749820217536986	0.40753308730652416	61.75627485889149
7	3.0	perception	230	diff_vonmises	0.002954505614734397	0.16928070227198577	3.68952136063412	2.352065424783359	0.6022838105741589	2.9135589070139334	0.9549644162857535	-0.3892975061744901	1.3442619224602437	63.83391428350319
8	3.0	wm	230	diff_vonmises	-0.15351704426280144	-8.795878719581571	1.3573921833393603	143.03295693387003	1.3406253698608188	143.57592995028978	0.2123326040846365	-0.19854500108051276	0.41087760516514926	75.28097716737417
9	4.0	ltm	230	diff_vonmises	-0.04208322212382143	-2.4111910160065406	1.2971237242146292	195.40933784005057	1.27947400815356	196.69513634410336	0.12188555660149802	-0.34824934583426526	0.4701349024357633	72.8904837154702
10	4.0	perception	230	diff_vonmises	-0.08701527437630462	-4.985607974935111	3.7258435272904014	1.815764336146814	0.15638124724802321	3.4080029565122785	0.712389876413924	-0.5084442324307383	1.2208341088446624	67.55750320098298
11	4.0	wm	230	diff_vonmises	-0.09317879366146199	-5.338751616922119	1.0414135907059936	263.0757054431379	1.0293648892681355	264.53896757768666	0.08951392041676343	-0.3618607316710296	0.45137465208779304	80.75739996301797
12	5.0	ltm	230	diff_vonmises	-0.10084259303556872	-5.777854976093437	2.3406114588741285	0.8717084545051783	6.24401662823536e-17	1.9193320861997467	0.18867022592538185	-0.3008914865971119	0.48956171252249375	89.8828133290838
13	5.0	perception	230	diff_vonmises	-0.04718968753276951	-2.703769932168812	0.8627786095707977	119.2314553821762	0.8249255666023955	120.29393629403495	0.5336273434747696	-0.44850541422329293	0.9821327576980625	96.98854521584033
14	5.0	wm	230	diff_vonmises	-0.030460952912490617	-1.7452840418324451	0.43000222186162695	139.47937224933548	0.4176308825297722	140.52338681533095	0.0765082871602587	-0.31240447781006964	0.38891276497032834	127.96298909680482
15	6.0	ltm	230	diff_vonmises	0.15018683366675378	8.605071707538293	0.7141531868525304	115.9968605641549	0.7007708032179135	116.85175745990257	0.052563135802955685	-0.2131374238637136	0.2657005596666693	98.70367901221928
16	6.0	perception	230	diff_vonmises	-0.1417116875405953	-8.119481603752764	0.7530225601707587	272.30117338833617	0.7424112803191482	273.32582485388417	0.25171413202248516	-0.3351939117893963	0.5869080438118814	100.47392861671835
17	6.0	wm	230	diff_vonmises	-0.08189171970724322	-4.692049916293346	0.5843789085326055	112.7651222917808	0.5684846415313956	113.70425607300328	0.09459670348296356	-0.26704839108558964	0.3616450945685532	111.53495165026013
18	7.0	ltm	230	diff_vonmises	-0.01655317315790187	-0.9484269594970182	0.9939877074103673	138.37430156800113	0.9776906516550355	139.41752906052267	0.07503612080774502	-0.26005185018718535	0.3350879709949304	83.23074178579884
19	7.0	perception	230	diff_vonmises	-0.10763071873259764	-6.166785929337493	1.8078635527370333	2.158217422749766	7.77407330807537e-19	3.0363640751149816	0.5639647738494773	-0.4550845431235771	1.0190493169730543	101.69081960801452
20	7.0	wm	230	diff_vonmises	-0.18002673254377924	-10.314771974289018	1.0404284128423047	108.59485808575606	1.0218318085597722	109.34218592209555	0.12247707135000496	-0.21004699007142413	0.3325240614214291	83.63685243065245
0	1.0	ltm	231	diff_vonmises	-0.06576297070573198	-3.767940669680911	3.185996725254692	0.40716397545801025	2.1621487240412824e-15	2.8713843267395824	-0.1810713113633855	-0.4565234999889321	0.2754521886255466	76.93567766495451
1	1.0	perception	231	diff_vonmises	-0.005609418582075273	-0.32139601027517173	12.930679375356291	0.6155958625762133	5.878872687298076e-21	2.876428755573435	0.41628473813792255	-0.45779785489604946	0.874082593033972	37.700170687929756
2	1.0	wm	231	diff_vonmises	-0.002032189090332217	-0.11643585804856606	9.909457024822544	0.2911543892669039	1.0800997028416191e-33	3.0785033826806347	-0.12916462495435516	-0.489959029787426	0.36079440483307085	43.11928764900264
3	2.0	ltm	231	diff_vonmises	0.08291651884428874	4.750766581694704	7.346112381283636	0.524039326085178	0.25893739248620434	1.901229820720718	0.17073956173562638	-0.3247671069146088	0.4955066686502352	47.29450983209779
4	2.0	perception	231	diff_vonmises	-0.003683336161569076	-0.21103961658582474	6.297191727633016	1.2070282106357242	0.18503015757102884	2.668996787680174	0.6754981131837696	-0.430870530718906	1.1063686439026756	52.370802460822205
5	2.0	wm	231	diff_vonmises	0.06883658806890894	3.94404597242908	2.6270643352840155	0.6405997695596267	8.108408997604786e-14	2.213420808350747	0.03638095993910523	-0.3502457716468021	0.3866267315859073	84.85399065568993
6	3.0	ltm	231	diff_vonmises	0.050134690938908766	2.872506197992243	3.8097300475045417	0.42651929797173765	0.007796535409805315	1.074446865282207	0.14695341715370455	-0.16960213976517077	0.3165555569188753	69.85132248200992
7	3.0	perception	231	diff_vonmises	-0.028406437669943052	-1.6275689894891732	3.980182612177871	1.9874212284367174	0.29677498055440377	2.771714533982108	0.9430881372818396	-0.40335266000350606	1.3464407972853456	64.50912458147602
8	3.0	wm	231	diff_vonmises	-0.17537827602004452	-10.048435034228964	1.3676826818542895	183.87910396045697	1.3500374974330613	184.845409010265	0.19078152123108794	-0.2956619420005673	0.4864434632316552	72.81983055493617
9	4.0	ltm	231	diff_vonmises	-0.04642111823013555	-2.6597341548645725	3.2973690260771833	0.6770973794898673	0.12231758894690042	2.1421680152072318	0.08393625919436842	-0.32309465004766136	0.4070309092420298	70.45174677138075
10	4.0	perception	231	diff_vonmises	-0.06330174277841603	-3.6269226970259765	1.8904091779021175	4.418614364386904	0.46968280348503844	6.360835289704693	0.6694144925733254	-0.6452114640246254	1.3146259565979508	82.60623930103034
11	4.0	wm	231	diff_vonmises	-0.2100865145787558	-12.037070617976347	1.0628877695443424	268.2121637708012	1.0466627611279076	270.3215774767219	0.07952659002070561	-0.5079521120661852	0.5874787020868908	79.1224086914263
12	5.0	ltm	231	diff_vonmises	0.02589725191711234	1.4838032358376172	1.6859450775028808	1.3917203470326402	0.13798147956565557	1.8470602868221957	0.31130225432776715	-0.23265093825839642	0.5439531925861636	98.75057778465973
13	5.0	perception	231	diff_vonmises	0.0004236012979907308	0.024270566571132392	2.211783604499972	1.8631036998861756	1.7555033529145512e-17	2.5036778759429934	0.6226510721707106	-0.3862280215663735	1.0088790937370842	92.42416655242005
14	5.0	wm	231	diff_vonmises	-0.012751970822028075	-0.7306341085761797	0.4691413336115825	169.69824112245945	0.4567603115796859	170.48394072867382	0.20273481931140935	-0.31986883189712145	0.5226036512085308	126.65126705164248
15	6.0	ltm	231	diff_vonmises	0.4728976128415466	27.095037357632222	0.7751116877177147	126.08822320478845	0.7643832786418235	126.36348831373327	0.1765989156490093	-0.13762680205887357	0.3142257177078829	102.40374914412874
16	6.0	perception	231	diff_vonmises	-0.08399708280034188	-4.812678335870507	0.7781981244066498	188.2106527615455	0.7662024288015681	188.69493489837032	0.2872035355467304	-0.23125543960791006	0.5184589751546405	101.99451291653054
17	6.0	wm	231	diff_vonmises	0.0035069398872220377	0.20093285454390766	0.3035412833205634	118.35156849671985	0.29230201342445084	118.76443932337718	0.1516840416633407	-0.2244046832747113	0.376088724938052	145.47297508490743
18	7.0	ltm	231	diff_vonmises	0.10687620316308545	6.1235553716275355	0.6524338223677801	48.06437009056456	0.6180018145584133	48.83166271649198	0.10781700858487042	-0.22618796134229058	0.334004969927161	107.13875436632927
19	7.0	perception	231	diff_vonmises	-0.12957926261562383	-7.424344860292574	0.9381622675170472	219.77032449246764	0.9220121997430131	220.08993135661026	0.5703638813477454	-0.2928232938473876	0.863187175195133	95.49937346981466
20	7.0	wm	231	diff_vonmises	-0.10426137008718345	-5.97373647224714	0.8453295659501645	75.39452688279286	0.8194193543340896	76.2906519554556	0.09748086294701963	-0.23550576376447552	0.33298662671149515	92.16989501845934
0	1.0	ltm	232	diff_vonmises	-0.060045727249315665	-3.4403667491794696	9.808567109482553	0.48672691113518746	0.1622442405382021	4.4834234413537875	-0.23393280874553934	-0.7695472326520375	0.5356144239064982	40.88165474821233
1	1.0	perception	232	diff_vonmises	0.03984952711307306	2.28320971917123	13.722850169901678	0.7736857324209317	5.418840900267697e-22	4.659003315721727	0.39092697074880267	-0.7415034075772797	1.1324303783260823	36.58384551369522
2	1.0	wm	232	diff_vonmises	0.20326356293324122	11.646144284866521	6.283807774022636	0.3727856992612673	5.407870231269204e-41	5.367251054923685	-0.4895192919934929	-0.8542232656321423	0.3647039736386494	54.33836658927649
3	2.0	ltm	232	diff_vonmises	0.07903794809042929	4.528540846955682	3.714661802198208	1.0579622194389284	0.43888162091181326	2.457365538930684	0.20257184451131427	-0.3680102141913711	0.5705820587026853	61.84091957934737
4	2.0	perception	232	diff_vonmises	-0.016866534499328692	-0.9663812418233331	5.9768034385865665	1.3570610561879488	0.24777415584470786	3.109315783447096	0.6689469539979984	-0.5053350248914342	1.1742819788894328	53.00854124694942
5	2.0	wm	232	diff_vonmises	0.09695933279641998	5.555360553639251	3.60940022509366	0.7784201509593749	7.132176041216308e-20	2.930248597403725	0.0992032944961328	-0.4659490787251872	0.56515237322132	72.17426961259059
6	3.0	ltm	232	diff_vonmises	0.04194809542108861	2.403448826240431	3.919051934988521	0.8000797241378959	0.46779560415766797	1.389974657111618	0.2736402490435911	-0.20371738949918122	0.4773576385427723	61.929180315689905
7	3.0	perception	232	diff_vonmises	0.001628014591352555	0.0932783650702168	2.4448198329580535	4.50708831319801	0.8790981189952699	5.367245289767579	0.9108775685599246	-0.4854638468614218	1.3963414154213465	70.90581891248058
8	3.0	wm	232	diff_vonmises	-0.12057157523437227	-6.908242390173611	1.1835610006185076	130.6537514303142	1.1579225088596505	131.83087692670352	0.18427858964775368	-0.3328425718407306	0.5171211614884843	78.07565433343447
9	4.0	ltm	232	diff_vonmises	-0.038956710723213495	-2.2320551081521702	1.0856713215242564	183.73609276381075	1.0612536590308244	185.37123598012522	0.26489027886900374	-0.4598000542273617	0.7246903330963654	81.84628682002113
10	4.0	perception	232	diff_vonmises	-0.11869774383963727	-6.8008797597361825	1.2036350777537799	121.387525655748	1.1413538164799026	123.02129532186211	0.8003758054849044	-0.6423199850934633	1.4426957905783677	81.8135209148985
11	4.0	wm	232	diff_vonmises	-0.2262059621128271	-12.960646929761195	0.9815451392704911	105.25449874823184	0.9354015036350645	107.40894616490664	0.21196728682236454	-0.5553202726733595	0.767287559495724	85.30132306686019
12	5.0	ltm	232	diff_vonmises	-0.0893947200910325	-5.121940171969508	2.4573183760226716	0.9681544727206647	1.7150196557384046e-18	1.958694939381037	0.25310249039218446	-0.30759093440078683	0.5606934247929714	87.73885819763339
13	5.0	perception	232	diff_vonmises	0.017701245140321068	1.0142066386668558	0.9021558704470467	183.63237590403077	0.8722582184525021	184.912885454204	0.639765676707178	-0.5304027520206667	1.1701684287278447	94.52720879918542
14	5.0	wm	232	diff_vonmises	0.017284428765875933	0.990324819579205	0.32444596632922973	183.51916512274403	0.3130027041804108	185.065333796877	0.04927123333791883	-0.449866052540834	0.49913728587875283	140.03180959067885
15	6.0	ltm	232	diff_vonmises	0.3715304507249101	21.287126787130546	0.8525563335048563	97.32057281110313	0.8363855736092832	98.02024227406164	0.08302160150828186	-0.18628845865447552	0.2693100601627574	91.75333000135564
16	6.0	perception	232	diff_vonmises	-0.04389721263759954	-2.515125016522794	0.5326182638963052	271.3269996919535	0.5218082308490568	272.5348224293352	0.24741960251290607	-0.4296124210954311	0.6770320236083371	119.19131941675874
17	6.0	wm	232	diff_vonmises	0.3531928354617656	20.236458826217685	0.07527942319939053	87.68539123143482	0.06205411217551319	88.63973493477687	0.029218079333857006	-0.32063178476824916	0.34984986410210617	168.56020364571822
18	7.0	ltm	232	diff_vonmises	0.01851948090947926	1.061088094886261	1.3951137787695183	0.7937864929481458	4.3795335611971167e-17	1.7713071835217693	0.04719754102419754	-0.2617025357617259	0.30890007678592346	113.82622823905191
19	7.0	perception	232	diff_vonmises	-0.04981291798369743	-2.854069965697181	0.7401832206559613	217.03189675470668	0.7241344111572227	217.90976051867074	0.41080369951862394	-0.3789867923504495	0.7897904918690735	103.97267343685735
20	7.0	wm	232	diff_vonmises	-0.019543351594698704	-1.1197515639165028	0.8711893890674514	51.9366749919557	0.823330313325724	52.92501414401039	0.16981010651441153	-0.28356756910785563	0.45337767562226716	92.87097458194799
0	1.0	ltm	233	diff_vonmises	0.006547452915328484	0.37514141860894884	6.4913269676107515	0.48719804358874075	0.1752287148395032	2.920295408545852	-0.06475434305067163	-0.4854261296888082	0.4206717866381366	49.736255044122316
1	1.0	perception	233	diff_vonmises	-0.00422015454300949	-0.24179704420740444	17.105946063586977	0.6096327903981098	1.997263962411224e-17	2.7619149117491193	0.558617592301443	-0.43957241060408686	0.99819000290553	32.74085660393911
2	1.0	wm	233	diff_vonmises	0.06558764580153251	3.757895292626746	4.92441612311782	0.47521845382918537	0.09196718824404715	3.3831765361815482	-0.18034421604315493	-0.5396354744741579	0.359291258431003	57.57143589452886
3	2.0	ltm	233	diff_vonmises	0.10588606566309189	6.06682467174027	3.2204503573979104	1.2871787555547631	0.7949861523674513	2.254237476110671	0.19528513823374616	-0.2991522918932855	0.4944374301270317	61.46679560492501
4	2.0	perception	233	diff_vonmises	-0.013703510426345504	-0.7851533119431168	5.8928331103750455	1.2873015401611723	0.35746932275405124	2.416068527109894	0.6850863108144487	-0.39576846747154076	1.0808547782859894	52.8632420606354
5	2.0	wm	233	diff_vonmises	0.08194024052390611	4.694829954306658	3.733186675879691	0.6740994134435249	0.1240862345420517	2.0123424182950016	0.13781166263468386	-0.30718873608499875	0.4450003987196826	66.84489576411119
6	3.0	ltm	233	diff_vonmises	0.04189534560650394	2.400426484494632	2.834266672609536	1.1389360345513257	0.817003427076687	1.5751562639140566	0.23862262719633964	-0.1767094085173877	0.41533203571372734	66.53758837859121
7	3.0	perception	233	diff_vonmises	-0.07220743021254139	-4.13718100066405	5.784503761044385	1.1841915168560924	1.1616469573357817e-19	1.6166566322138594	0.8519962288630991	-0.2572884059924752	1.1092846348555743	56.67736110209535
8	3.0	wm	233	diff_vonmises	-0.07883639380159055	-4.5169926368624616	1.550951889582666	179.7552202393773	1.5327646437698785	180.5273131057399	0.22797109840639962	-0.269831349656684	0.4978024480630836	69.24557395932797
9	4.0	ltm	233	diff_vonmises	-0.17772439718674723	-10.182857875307338	1.1305603932183006	140.69657144762218	1.108213075209185	141.9060087423051	0.14935697896844147	-0.3267646434907263	0.4761216224591678	79.22888917199316
10	4.0	perception	233	diff_vonmises	-0.041307135252552	-2.3667245137472896	2.770926851515006	2.0555686300818246	3.7336082990943094e-18	3.763600922822552	0.6872515929747784	-0.593953987355893	1.2812055803306714	82.60505527638057
11	4.0	wm	233	diff_vonmises	-0.12792953497433648	-7.329822429100737	1.1035887532939093	256.9134937265119	1.0883168218080725	258.80743281509126	0.05623121894444694	-0.4553271826873413	0.5115584016317882	77.23953416824193
12	5.0	ltm	233	diff_vonmises	-0.027660322152687034	-1.5848197193211828	2.529398656132735	0.9425170226844639	1.0036027275741031e-22	1.332798602454232	0.34714941643493163	-0.20856785622267238	0.5557172726576041	86.48993081046393
13	5.0	perception	233	diff_vonmises	-0.03945145539326906	-2.2604018896829463	2.1777782723584287	1.853698533128455	0.02705475317291966	2.585694712272418	0.5838343659420283	-0.3875482593607138	0.9713826253027421	92.0412328802594
14	5.0	wm	233	diff_vonmises	-0.023589934286969563	-1.3516036736343089	0.44425411408205173	118.11774039495646	0.42685238471632525	118.72124962561709	0.23914216533412969	-0.30481797282035217	0.5439601381544819	130.55880405410358
15	6.0	ltm	233	diff_vonmises	0.20885363628327105	11.96643189499179	0.8640910360721786	66.48694636518826	0.8457181467256747	66.6437309850657	0.1840858848470006	-0.10974971829396107	0.2938356031409617	98.73941142749885
16	6.0	perception	233	diff_vonmises	-0.19012181993066538	-10.893177875373343	0.6546929656166437	32.586018203558766	0.5856622244105558	33.12990156181499	0.28353866872268974	-0.27151016366468816	0.5550488323873779	113.39879589557749
17	6.0	wm	233	diff_vonmises	0.3286569140130567	18.830654080742153	0.19934286959667158	125.07705057349963	0.1889144751833799	125.15603077803357	0.21053756511006583	-0.19604067887189203	0.40657824398195785	155.82685230489295
18	7.0	ltm	233	diff_vonmises	-0.10805393756790507	-6.191034582411052	0.6954434068223396	116.88314763717932	0.6802487481809324	117.75671214714805	0.09302108185269731	-0.23695546076394436	0.32997654261664167	101.79675093692146
19	7.0	perception	233	diff_vonmises	-0.08605898836788732	-4.930816822645388	0.871845722451945	210.67131367870644	0.854861506434812	211.53266297906092	0.41192040508960304	-0.3523212973581451	0.7642417024477481	95.6981664960497
20	7.0	wm	233	diff_vonmises	0.061025692389452636	3.4965146157792644	0.8969767330911603	110.27864670014404	0.8797621529301496	111.18658640996422	0.07222079463351605	-0.22776537854467804	0.2999861731781941	88.18234003399715
0	1.0	ltm	234	diff_vonmises	0.013819803488086417	0.7918164135675254	8.131885648657363	0.8808483843042723	0.4711460347681635	3.5227399625900824	0.13542934793461103	-0.6661625872737525	0.8015919352083636	43.17694618648781
1	1.0	perception	234	diff_vonmises	-0.033928311229068184	-1.9439490394319259	18.843649240228693	0.7193736592207987	0.029751188667575604	3.450820450723749	0.6716424372076168	-0.5583583253676477	1.2300007625752647	31.07239780792102
2	1.0	wm	234	diff_vonmises	0.1627558919149734	9.325225697615373	3.5607717999415986	0.6162148434614323	0.13627723178156204	4.220066820745367	-0.32175593727180424	-0.6612703527388621	0.3395144154670579	63.9419000314376
3	2.0	ltm	234	diff_vonmises	0.08483004651822697	4.860403641392849	1.6967379965477865	124.08769344465408	1.6674731709678785	124.80248317360756	0.28022864514343127	-0.27990136783413	0.5601300129775613	66.88831752316253
4	2.0	perception	234	diff_vonmises	-0.0566990503794188	-3.2486162891403265	4.929167125565387	1.3155794485328463	0.45749991234517046	2.336761920757502	0.5740162252642234	-0.3692552228440732	0.9432714481082966	56.37753326112252
5	2.0	wm	234	diff_vonmises	0.1151878868036262	6.599779764878451	5.446171032608958	0.5845697581590849	3.341158287073466e-14	1.9344109331585342	0.22250582674129626	-0.30786119428305253	0.5303670210243487	58.45335229682806
6	3.0	ltm	234	diff_vonmises	-0.03340330110971425	-1.9138681753912856	1.8443625729695117	119.54838758289745	1.8179911098978248	119.8432797995493	0.36826151637031046	-0.20033498668439798	0.5685965030547084	66.76754104823021
7	3.0	perception	234	diff_vonmises	-0.06228850924024975	-3.5688686916279404	3.570213527100973	2.275982156553784	0.5861795142756119	2.8291748371671717	0.8997762359315007	-0.3731207397054016	1.2728969756369022	64.84268431153058
8	3.0	wm	234	diff_vonmises	-0.16007435927119626	-9.171585194500386	1.4214436879582812	163.20398008899136	1.4006378726550093	164.14771393001698	0.21253643256791577	-0.30013079146761257	0.5126672240355283	71.76595593124816
9	4.0	ltm	234	diff_vonmises	-0.12285320405081505	-7.038970091771211	1.3797769364248613	255.7393675182427	1.3641002826963005	256.4951547622568	0.41021890541534844	-0.3140591467007212	0.7242780521160697	75.63014012975535
10	4.0	perception	234	diff_vonmises	-0.0910811410564828	-5.218564975772188	3.4059443274139563	2.0858453432093294	1.1961993470902094e-16	3.207018030400059	0.9570886603548525	-0.5087975420033511	1.4658862023582038	74.34885495795092
11	4.0	wm	234	diff_vonmises	-0.2241374024960678	-12.842127194049688	0.9678786992882449	192.10121990440285	0.9471196123526416	193.73977474476527	0.21342891005431852	-0.4405821617154011	0.6540110717697196	86.19104223957306
12	5.0	ltm	234	diff_vonmises	-0.0426822852070547	-2.445514802337901	2.704007388194839	1.0542183696009175	2.895208658659246e-15	1.3652859159998412	0.43308635241117155	-0.21437748853685148	0.647463840948023	83.63514954080142
13	5.0	perception	234	diff_vonmises	-0.01781161588566958	-1.0205304165570388	1.6175781616640785	3.5214752828793063	0.34327948577992295	4.386548563210246	0.6411586089705038	-0.43183383634213035	1.072992445312634	93.1477289590816
14	5.0	wm	234	diff_vonmises	0.017295169356063702	0.9909402100664438	0.09562327221172012	66.93071154103994	0.06890867150841648	67.82079506579198	0.14418320271091645	-0.4044783265943135	0.5486615293052299	170.3780473878195
15	6.0	ltm	234	diff_vonmises	-0.30600346309185095	-17.532706951550317	0.0002125628363590534	4725.804420670963	1.507298549921094e-31	4725.8789275729205	0.1480210125658914	-0.1717203064624755	0.3197413190283669	177.32833096113524
16	6.0	perception	234	diff_vonmises	-0.0656625161264397	-3.762185046254701	0.6154145136660345	143.64100903996106	0.5966290912468218	144.5521363584604	0.2696305259516194	-0.349434445486148	0.6190649714377674	112.70700353422734
17	6.0	wm	234	diff_vonmises	0.5593999354518157	32.051255361279715	0.0004639680173280329	2238.8913219126916	6.851285936258629e-29	2238.959695581678	0.15446311165493398	-0.17618877351952733	0.3306518851744613	170.69560753830694
18	7.0	ltm	234	diff_vonmises	-0.20669073335975555	-11.842506685977844	0.5091302294917472	87.2737107806302	0.49102919343275897	87.85030467970549	0.1539590216062372	-0.23107683641288723	0.38503585801912443	122.70285156083288
19	7.0	perception	234	diff_vonmises	-0.06521336929411337	-3.7364508283807325	0.7398961250420553	228.27225106183187	0.7252016040916106	229.41623628934624	0.30904924840136516	-0.38953484337152133	0.6985840917728865	101.91052147873219
20	7.0	wm	234	diff_vonmises	0.18926233883362256	10.843933235941517	1.0303459449244232	96.68234753301553	1.0082749703228087	97.29592079118062	0.19234326543416813	-0.204660668534288	0.3970039339684561	86.42325996292365
0	1.0	ltm	235	diff_vonmises	-0.09550330878046571	-5.471936522655382	7.403790530638317	0.2222863197096429	0.0592202449386412	0.938195698478131	0.0785874891145302	-0.15053672720150546	0.22912421631603566	49.05583888629292
1	1.0	perception	235	diff_vonmises	-0.05187659423814195	-2.972309905358218	15.16342225527589	0.6241790341214453	4.5154547268828384e-23	1.4222535525814832	0.7350539825198724	-0.22635868322328706	0.9614126657431594	34.78737568515223
2	1.0	wm	235	diff_vonmises	-0.0634476322832899	-3.635281549930502	14.478698103067996	0.21381486779970835	7.306480362591192e-15	1.116155049935187	0.14394351248653423	-0.1776415934540796	0.32158510594061385	35.613298619948466
3	2.0	ltm	235	diff_vonmises	0.17678965312594294	10.129300985698332	2.6095799757744946	72.29459073757816	2.5742689554450933	72.51797237081306	0.21237746909091015	-0.1527440257466406	0.36512149483755074	54.77728126333355
4	2.0	perception	235	diff_vonmises	-0.04469962095528739	-2.5610996265725006	8.43368651673298	1.046921496591301	0.4035166502716101	1.217823975337025	0.9148661659151109	-0.21171441224338863	1.1265805781584997	45.37330730833037
5	2.0	wm	235	diff_vonmises	0.006245058138066838	0.357815474125058	0.9007977646981902	13.773654955736516	0.8022261280225153	14.153949880838699	0.14336856791757224	-0.1404518898392153	0.28382045775678755	95.55713368045483
6	3.0	ltm	235	diff_vonmises	0.11776517111466195	6.747447278506082	3.126490799729038	30.7691053915763	3.077208200508285	30.668905078082055	0.2515539868191965	-0.05536854545356906	0.30692253227276556	54.67684077895433
7	3.0	perception	235	diff_vonmises	-0.05432284822149687	-3.112469934221521	4.935213408658962	1.3518450372927258	0.4001261981873903	1.1881237448048956	0.8929264422126488	-0.17556077852776478	1.0684872207404137	58.827107313718784
8	3.0	wm	235	diff_vonmises	-0.14799676778673726	-8.479590175757743	2.1285369777332717	84.33568909330872	2.108527867294086	84.32303741023726	0.26237478270508774	-0.08444593673568512	0.34682071944077286	64.50812925610501
9	4.0	ltm	235	diff_vonmises	0.03475285214563245	1.9911917539869068	2.1425631675897323	124.59506025689195	2.121918258426382	124.93966123729574	0.20423509969850784	-0.17381782463880313	0.37805292433731097	59.83393231905035
10	4.0	perception	235	diff_vonmises	-0.07864944394753036	-4.506281199244227	3.4752942977735364	1.8922723141785174	2.5110570784937923e-18	2.669898121457554	0.9212922385543962	-0.42363737654181105	1.3449296150962073	73.59124306034533
11	4.0	wm	235	diff_vonmises	-0.14809611186175395	-8.48528217197583	1.430431092036441	209.5969329050378	1.415969207025367	210.42656991702088	0.19145595427838202	-0.26599378823004827	0.4574497425084303	71.51888808149295
12	5.0	ltm	235	diff_vonmises	-0.00951446265254226	-0.5451385543255177	2.9173171699680602	0.6507220295743983	5.769522820600693e-13	0.6303900881042609	0.3190753074347468	-0.0991029262933212	0.418178233728068	80.47751311944282
13	5.0	perception	235	diff_vonmises	-0.02988456399150844	-1.712259389302067	2.0385283802999017	1.7992029924101316	4.723196870640237e-13	1.8578345129056877	0.6432328187935729	-0.27976123953427073	0.9229940583278435	96.14242921339414
14	5.0	wm	235	diff_vonmises	0.043539771541098386	2.4946451502687497	1.284532545690107	0.8782173756132492	5.426758748435917e-13	0.9201880264550917	0.20011927455514533	-0.11990006320213728	0.32001933775728264	117.61195283668813
15	6.0	ltm	235	diff_vonmises	0.1898493459978187	10.877566268993897	1.0309486657841542	40.480053341913425	1.0107869393169284	40.451788187732646	0.16381824649688959	-0.05616202132762815	0.21998026782451774	93.85552291117494
16	6.0	perception	235	diff_vonmises	-0.2309948505642656	-13.235030026587562	0.8897165740975365	128.4725797704678	0.873525397265095	128.70034553020386	0.3241346830313816	-0.18040371315245274	0.5045383961838343	97.6437598812474
17	6.0	wm	235	diff_vonmises	-0.11495810467915306	-6.586614218938591	0.40136630085758507	67.20222195651205	0.3838971352674361	67.13945482408285	0.22915294475989967	-0.13827547562641662	0.3674284203863163	137.83898778823567
18	7.0	ltm	235	diff_vonmises	-0.08910805303823809	-5.105515359718935	1.0348905086920475	80.36096447587923	1.0180959871685806	80.61903633119069	0.16562773816040632	-0.11686644167766147	0.2824941798380678	88.51467400906807
19	7.0	perception	235	diff_vonmises	-0.1203867456613003	-6.897652435707382	1.5598568349197153	2.7271841463389173	0.3636866694012234	3.1313759168457005	0.5158234673599014	-0.28860593259517925	0.8044293999550807	94.8410780353915
20	7.0	wm	235	diff_vonmises	0.5362577052186034	30.725303240396595	132.81370273978342	0.3365907806207636	2.0637586098736457e-43	0.44266769289605873	1.473238752268306	-0.07045275147149282	1.5436915037397987	11.73786444325043
0	1.0	ltm	236	diff_vonmises	0.01119470485054601	0.6414093408309174	4.095304305249796	0.324932394255095	5.010061121393479e-14	2.5599174650799648	-0.1543898730603584	-0.40735335488256225	0.25296348182220385	67.64195708354109
1	1.0	perception	236	diff_vonmises	-0.009141275368221562	-0.523756497965993	15.125490077934286	0.4938233889254011	1.4710130171318434e-16	2.5597347176362195	0.3518692664137098	-0.40739443331568587	0.7592636997293957	34.84035362861715
2	1.0	wm	236	diff_vonmises	-0.02930901208378175	-1.6792826940986247	5.153454064340248	0.4367275652351446	0.1069116559873937	2.989476548561686	-0.14315010585427917	-0.47946148419571083	0.33631137834143165	56.10462683873749
3	2.0	ltm	236	diff_vonmises	0.05617760660454998	3.218739761586973	8.754002327578565	0.46367667473095886	0.2804329239357866	1.6618602154971776	0.19567888165628228	-0.29216449245254555	0.48784337410882783	43.595832418386806
4	2.0	perception	236	diff_vonmises	0.004101461860144448	0.23499645442015277	6.45461418174705	1.2098326578561964	0.3001043897463351	2.6536901737967638	0.6428923407238173	-0.44094131655763624	1.0838336572814535	50.848226802383635
5	2.0	wm	236	diff_vonmises	0.02038058538454161	1.1677215265402443	1.6962060371591365	1.7826305208475515	0.4757904243758382	3.2401968503834224	0.04720567018062238	-0.3362773536507023	0.3834830238313247	80.54527719617425
6	3.0	ltm	236	diff_vonmises	-0.04275130666857246	-2.4494694407786937	1.3054471165364565	26.155197289689763	1.2288684432560582	26.72992820880497	0.14509689475592502	-0.18245847985854224	0.32755537461446727	76.38193890964533
7	3.0	perception	236	diff_vonmises	-0.058125843919563255	-3.330365537227133	5.122741064129987	1.5708747776038559	0.15772595144732415	2.330568685089592	0.9481493117617528	-0.360951062246586	1.309100374008339	58.59672582554907
8	3.0	wm	236	diff_vonmises	-0.16115655270406898	-9.233590310820768	1.4424236383353415	217.77660097767907	1.4277667227498203	218.7673417593796	0.14926188495358872	-0.2950729139554973	0.444334798909086	69.96570708557894
9	4.0	ltm	236	diff_vonmises	-0.18503657826843714	-10.601814990323575	1.8566207365039888	1.399141271002792	0.4643400584908918	2.782179264457474	0.02196935629838115	-0.31212881974552487	0.334098176043906	77.6637964884959
10	4.0	perception	236	diff_vonmises	-0.04442347987341481	-2.545277908031025	2.9982657088616187	2.065785226492073	0.1418293774436723	3.9668735513982307	0.6285241884063887	-0.5745962604690056	1.2031204488753944	74.81486056987706
11	4.0	wm	236	diff_vonmises	-0.062149090647874224	-3.560880594699168	0.9767656235385404	206.6336689793126	0.9616376182009261	208.70320510540185	-0.09934497508778861	-0.4387697220040394	0.3394247469162508	77.86605849400468
12	5.0	ltm	236	diff_vonmises	0.0022503635859751118	0.12893633584629927	2.0413775487106633	1.1678908677160225	0.08561865019791744	1.724532318063102	0.3115362055987611	-0.24120345699555412	0.5527396625943153	92.28278683529467
13	5.0	perception	236	diff_vonmises	-0.055569789892487	-3.183914429268246	2.159959025345897	1.7086702693848537	3.5562058324964066e-16	2.5367257318263587	0.5195378113290121	-0.39145177304037115	0.9109895843693833	93.49508391588807
14	5.0	wm	236	diff_vonmises	-0.0761044232527025	-4.360462254657138	0.3975493609088671	148.3837222411872	0.3838390096943756	149.2667995689031	0.1735334443980392	-0.343693494259238	0.5172269386572772	133.93174174622084
15	6.0	ltm	236	diff_vonmises	0.3642052107146826	20.867421450624143	0.5679805264631389	128.94959865381014	0.5571053282408845	129.37490042798836	0.15485808171222715	-0.18545750006442496	0.3403155817766521	117.28306581199894
16	6.0	perception	236	diff_vonmises	-0.12475583669455767	-7.147982912221481	0.8764164884795141	233.91655490777504	0.8647163431150475	234.59511448977847	0.30747529956614983	-0.26992624134370047	0.5774015409098503	95.10890352396409
17	6.0	wm	236	diff_vonmises	0.17083407073214557	9.788071249991322	0.03608469281217039	37.093284657493214	8.057163647636024e-10	37.643797558826996	0.12730878679396973	-0.2986997801832283	0.426008566977198	176.95676220959945
18	7.0	ltm	236	diff_vonmises	-0.04438559275083734	-2.543107135809441	0.9579991382245683	145.3073495788787	0.9426185968254397	146.3246660737938	0.08782726895793047	-0.2579146820475646	0.3457419510054951	85.32457936312767
19	7.0	perception	236	diff_vonmises	-0.11486556790361727	-6.58131225225064	0.7927558209250491	219.06224844636992	0.7753199253681935	219.85669644047735	0.49189731057398944	-0.3859402370814884	0.8778375476554778	101.35529476729477
20	7.0	wm	236	diff_vonmises	-0.20338652005904814	-11.653189209236318	0.9412433493536063	125.80702671747277	0.9257875040144365	126.8910317279111	0.014491761929328106	-0.2479840455606599	0.262475807489988	83.25471069502535
0	1.0	ltm	237	diff_vonmises	0.004809248580096201	0.27554964626879613	4.903937833979825	0.4004037938730819	0.03936960863759421	2.6906427113503044	-0.10164172128452292	-0.4256543673962616	0.3240126461117387	59.701927689114996
1	1.0	perception	237	diff_vonmises	-0.016583619474412063	-0.9501714049347717	16.258710486848578	0.5445563605271493	1.1209715751392074e-17	2.7118802057385287	0.4374400427543984	-0.4316091398163464	0.8690491825707448	33.584724724147094
2	1.0	wm	237	diff_vonmises	-0.01570279226810361	-0.8997037235329982	6.412455055701481	0.365226451835789	0.033292962334991176	2.984623554380786	-0.12979795042567233	-0.47594828066333583	0.3461503302376635	52.507355978323034
3	2.0	ltm	237	diff_vonmises	0.055888797896258564	3.2021922415152497	3.7428511641121447	0.9346874022398459	0.50342447317419	2.1263907788283793	0.16689272608218975	-0.3193532236896883	0.48624594977187807	60.727465313492075
4	2.0	perception	237	diff_vonmises	-0.0049734617419840785	-0.2849583673854701	5.274662792434222	1.3065667457876196	0.32690545688579015	2.6928698703818053	0.5868474310129864	-0.43132534028585184	1.0181727712988382	55.52750194239388
5	2.0	wm	237	diff_vonmises	0.09345319963535427	5.3544739210993235	3.9256908263952126	0.5456904044645358	3.384868608523449e-10	1.8935836960104488	0.11387548446297419	-0.3012115604532288	0.41508704491620296	69.12509867768196
6	3.0	ltm	237	diff_vonmises	-0.06338267023990203	-3.6315594990158315	1.7375182450529043	2.2802511667509338	0.7873223579636965	2.9618002428476293	0.18784763944411365	-0.21612306234703424	0.4039707017911479	77.69104903247342
7	3.0	perception	237	diff_vonmises	-0.0537616260530359	-3.0803142725995274	4.868469842416918	1.638128427095319	0.17772595067702057	2.436930374397355	0.9407583663753674	-0.37451692626894445	1.3152752926443119	59.83458481624402
8	3.0	wm	237	diff_vonmises	-0.1570084669430279	-8.9959225036548	1.382696852038404	220.0257801348074	1.367409208958016	221.01817907322155	0.19667322518932906	-0.30496197892694354	0.5016352041162726	72.37006790797435
9	4.0	ltm	237	diff_vonmises	-0.14772379014077622	-8.463949708742758	2.2647924948602083	1.237113320819415	0.35433954027168496	2.546748120911656	0.12767074937725653	-0.32233441819406	0.45000516757131653	76.80479341956465
10	4.0	perception	237	diff_vonmises	-0.03667938503103091	-2.1015739574133994	3.159150405821973	1.9022047253690084	0.03459126188444574	3.836292636940717	0.651086553381236	-0.5898377311228784	1.2409242845041144	75.89410542682157
11	4.0	wm	237	diff_vonmises	-0.12708336098007575	-7.28134023049587	0.9723341185465755	231.95814541256914	0.9567618115096771	233.96126073676757	0.017172073927838483	-0.45721627009823607	0.47438834402607455	81.60300095915801
12	5.0	ltm	237	diff_vonmises	0.01802190346778536	1.0325790074962837	1.7867569446383835	1.4345774466108947	0.10785183479761574	1.8477110209180576	0.3645283782619515	-0.2438491183277185	0.60837749658967	97.70710089282099
13	5.0	perception	237	diff_vonmises	-0.03819694868734647	-2.1885239500627227	2.197474777862909	1.7755072794979583	3.6702037553675055e-16	2.560964212218994	0.561742082143716	-0.3956287515778937	0.9573708337216097	92.71732500016523
14	5.0	wm	237	diff_vonmises	-0.021479144906671157	-1.2306643507021757	0.3833336253199242	169.5077130984317	0.3709616833134225	170.23339172519687	0.22100314992273695	-0.33894912538130484	0.5599522753040418	136.33729134124766
15	6.0	ltm	237	diff_vonmises	0.27402911773137745	15.70071190970148	0.6866740194593655	87.62364528075987	0.6708546085189909	87.83656950655852	0.20451359708659922	-0.14771215236991253	0.35222574945651175	110.18330377813953
16	6.0	perception	237	diff_vonmises	-0.11304210927453098	-6.476835768687286	0.7930078989957309	151.57172042100686	0.7768510866429081	152.1954329856209	0.2810112807992766	-0.25654334952477065	0.5375546303240473	100.24184951423341
17	6.0	wm	237	diff_vonmises	0.1938358156247503	11.10597415377417	0.23452914078537265	111.48997256367231	0.22334804369139794	111.7375117969595	0.1695551833745732	-0.20458958733490107	0.3741447707094743	153.02110471371105
18	7.0	ltm	237	diff_vonmises	-0.04352560527150502	-2.4938334828096056	0.6180537096784128	114.1515454606222	0.6010912074633129	115.03395038870015	0.13228285842487253	-0.2685622478992169	0.40084510632408943	109.71955900471731
19	7.0	perception	237	diff_vonmises	-0.10807962360175659	-6.192506283743174	0.8728758853086317	228.32995037964088	0.8553473744426244	229.13650129980326	0.5099425186922986	-0.380737724981131	0.8906802436734296	96.56705090083358
20	7.0	wm	237	diff_vonmises	-0.03060564215958043	-1.753574125031617	1.0180882354910794	134.8644175931193	1.0013457455095665	135.76951871929015	0.1172604337522074	-0.24355100059502455	0.36081143434723195	83.8027145181808
0	1.0	ltm	238	diff_vonmises	0.01595145008376086	0.9139507669131007	5.073359072421948	0.3096606892068293	3.819452202442257e-16	1.7353893016471449	-0.005587544408758638	-0.27618517635443995	0.2705976319456813	60.606216133819856
1	1.0	perception	238	diff_vonmises	-0.033055421633963925	-1.8939361496515685	16.46701380124983	0.48485469474588866	1.8372377997931357e-16	2.087695476569818	0.4465097719007461	-0.33226705476667273	0.7787768266674189	33.37177575470241
2	1.0	wm	238	diff_vonmises	-0.032533722538084904	-1.8640449932819096	5.663273209928174	0.3924759706341837	0.11690908216411518	2.085324115970158	-0.008209610228944841	-0.33566526122530005	0.3274556509963552	54.234036316595336
3	2.0	ltm	238	diff_vonmises	0.0970872569064876	5.562690065244093	5.605524490760509	0.5785701542128733	0.5360020189203337	1.2650602069860863	0.21231544169321487	-0.21442404529672462	0.42673948698993946	51.931960396898916
4	2.0	perception	238	diff_vonmises	-0.015044460717082656	-0.8619841041391962	6.511209815620384	1.1230453254193342	0.3722182199250199	2.0658347192123294	0.6585163798385951	-0.34623131945611696	1.004747699294712	50.4995192391257
5	2.0	wm	238	diff_vonmises	0.094800237834871	5.431653524774534	1.8665847384779592	1.1379593905110126	0.3491990699802058	2.0159740839422606	0.12158836577842919	-0.2306830712008047	0.3522714369792339	83.865976388181
6	3.0	ltm	238	diff_vonmises	-0.02156861679345507	-1.2357907121999665	1.877716667826965	106.13553621671383	1.856134811203752	106.44914523312634	0.21409199451935734	-0.15727015309820835	0.3713621476175657	64.69732879890148
7	3.0	perception	238	diff_vonmises	-0.045191185135773485	-2.589264179474161	4.260131124024038	1.9631792521161398	0.4446054748488103	2.4585404088158884	0.9805737475876057	-0.3565558879446355	1.3371296355322413	61.50799803516006
8	3.0	wm	238	diff_vonmises	-0.1849682814281623	-10.597901869621747	1.4316992165531324	213.90347186075923	1.41973819591411	214.5475812715914	0.18445126338970397	-0.21751600507493407	0.40196726846463804	72.11794772473263
9	4.0	ltm	238	diff_vonmises	-0.08582323655696678	-4.917309238867075	1.4770139621462224	165.43859760589265	1.4606954381373398	166.23719575730556	0.1349131158278425	-0.2442576114815722	0.3791707273094147	69.41101982864225
10	4.0	perception	238	diff_vonmises	-0.055372332188076696	-3.1726009361731937	3.8617866194379067	1.650163292963796	0.036501756993277054	3.006300101153151	0.7484510651529621	-0.465914200467498	1.2143652656204602	68.73894526495312
11	4.0	wm	238	diff_vonmises	-0.03830535748389244	-2.194735316566899	1.1016065540452775	210.69337371668863	1.087678670692749	212.11002947070338	0.04227293747462113	-0.3405436976198537	0.38281663509447483	77.29169360327577
12	5.0	ltm	238	diff_vonmises	-0.01246519762395077	-0.714203214648881	2.0127828247819908	0.990260023498383	1.0057900826269077e-17	1.3929924884302909	0.29111678454922263	-0.21254566894424878	0.5036624534934714	96.72770956272052
13	5.0	perception	238	diff_vonmises	-0.05995784904189488	-3.435331698783083	2.091272168705702	1.7314076978251554	7.039672300257926e-17	2.4530718799923474	0.527103728620062	-0.3764157728205934	0.9035195014406554	94.96917433877383
14	5.0	wm	238	diff_vonmises	0.06849033158077542	3.9242069370300072	0.4999054205419533	2.520119256321279	3.6657712787213704e-12	3.216566452104399	0.10983281452876603	-0.2831543209206705	0.39298713544943653	152.08791272567228
15	6.0	ltm	238	diff_vonmises	0.21316697391620268	12.21356793697372	0.5672111393680728	99.12671463436703	0.5546283703023583	99.51214097667675	0.13602601141573345	-0.165856006379963	0.30188201779569646	117.53439176562509
16	6.0	perception	238	diff_vonmises	-0.13416707453437382	-7.6872071204367645	0.9404659950399323	240.2468000887684	0.9276130039407279	241.05433436499754	0.3221429427414364	-0.29843247365541004	0.6205754163968464	91.30181449419071
17	6.0	wm	238	diff_vonmises	0.02715859490188481	1.5560728653835139	0.17582774108851937	81.74633660714483	0.1591147272672129	82.33526170012703	0.1247746582266096	-0.27730293877293377	0.4020775969995434	160.27771270389638
18	7.0	ltm	238	diff_vonmises	-0.12115078760099242	-6.941428814222729	0.8931614108368211	123.13268866196663	0.8766405873916673	123.86332643262654	0.15516156450446772	-0.21981594753138367	0.3749775120358514	91.54959409457746
19	7.0	perception	238	diff_vonmises	-0.08425313449773404	-4.827349017468239	0.7976713934688473	214.07802624354392	0.777842477783786	215.052737551863	0.5188161174689014	-0.4352277821832118	0.9540438996521132	100.62381088124293
20	7.0	wm	238	diff_vonmises	-0.004226885035384655	-0.24218267301454635	1.0582962469778352	115.77184218603672	1.0419756238772244	116.60495600901726	0.0644418732033003	-0.21073532330868083	0.27517719651198114	80.68008447410077
0	1.0	ltm	239	diff_vonmises	0.027160039930761104	1.5561556594394	8.132624238865406	0.4766653277578589	0.16163539017559528	3.0605758718208387	-0.03552400515431142	-0.5156099842188323	0.4800859790645209	45.122729295598106
1	1.0	perception	239	diff_vonmises	0.03800150950065783	2.177326109513994	18.310180317966378	0.6636840039719707	1.566196239473549e-16	2.7100410672238326	0.6936220876764773	-0.43131643183070817	1.1249385195071855	31.635971018072865
2	1.0	wm	239	diff_vonmises	0.17593307206603107	10.080222506154538	4.637740016291578	0.5749399914401336	0.06403364919263528	3.5157902376407817	-0.11705702805392859	-0.5552105608906514	0.43815353283672276	60.50861032112104
3	2.0	ltm	239	diff_vonmises	0.195431074170074	11.197375735653397	4.1313769339644	0.9402545467164743	0.7476795532913013	1.7753591490449327	0.214405576356675	-0.27121774974338486	0.48562332610005987	56.7094850179987
4	2.0	perception	239	diff_vonmises	0.006822746872931452	0.3909146005050524	6.201232171664532	1.365204047499534	0.4171073667460427	2.25206056076693	0.8053227091868482	-0.37394917075108564	1.1792718799379338	51.56664628389731
5	2.0	wm	239	diff_vonmises	0.09319913795372917	5.339917259006209	3.039541042290369	0.9798250118532896	0.3076908461279278	2.1694119867304353	0.18776920260165741	-0.30647665305784905	0.49424585565950646	69.7175459626356
6	3.0	ltm	239	diff_vonmises	0.17593770528716943	10.080487970171317	5.489985731381411	0.5831928025117107	0.6540254834054159	1.001947173091089	0.2551014201791865	-0.16710440810430183	0.42220582828348835	52.394152159743896
7	3.0	perception	239	diff_vonmises	-0.08751639388604664	-5.014320007874994	6.311359360745113	0.8434967248132392	6.944584613505786e-15	0.9679364759416147	0.6731552585354779	-0.15404914804507802	0.8272044065805559	54.21105343162898
8	3.0	wm	239	diff_vonmises	0.057400190430824796	3.2887886549334753	3.3253579368990307	1.1315700747640944	0.7417186584077465	1.6586649229403025	0.3003291610917095	-0.21338240214549714	0.5137115632372067	63.48361161964158
9	4.0	ltm	239	diff_vonmises	-0.17130559398607023	-9.81508754238348	1.1117264525754755	149.78997930435747	1.0912616374378632	151.17982277765378	0.0749992846879266	-0.344514615345048	0.4195139000329746	77.92696382911606
10	4.0	perception	239	diff_vonmises	0.03091264749768324	1.771164235192895	1.4351754724501922	2.8966348213258155	1.1464827529235577e-14	4.756203852837265	0.4646309429600397	-0.6877324195459783	1.152363362506018	112.51108052937268
11	4.0	wm	239	diff_vonmises	-0.002835635648930182	-0.16246995492053984	1.3622208864915637	272.1404009956658	1.3446231149811272	273.9825355559201	0.11519929842323506	-0.4910232620768582	0.6062225605000933	70.17351711436677
12	5.0	ltm	239	diff_vonmises	-0.08399101805774	-4.812330851715586	2.4712556620658757	0.7710006597672661	4.983908738897079e-17	1.279845484734592	0.2476187329666789	-0.20047278923315442	0.44809152219983334	87.49355010051997
13	5.0	perception	239	diff_vonmises	-0.04762061425796282	-2.7284602148017822	1.5593272682303656	3.355024506514589	0.3677504647965772	4.183015260070551	0.5578680651914456	-0.39357654015660226	0.9514446053480479	93.53432276693022
14	5.0	wm	239	diff_vonmises	0.10216762051715732	5.853773458527312	1.4911279309683276	1.323581120605802	0.03599091515804442	1.7343996249195421	0.28519269736610203	-0.23724336648517713	0.5224360638512792	108.94855587309391
15	6.0	ltm	239	diff_vonmises	0.18261996470565042	10.463353232461822	1.1404595332535783	47.00343958435614	1.1122694259923434	47.22968140226714	0.165158359615873	-0.10806050067277351	0.2732188602886465	84.7672292656701
16	6.0	perception	239	diff_vonmises	-0.38035357900793404	-21.792654799850325	0.8162082701702492	2.7341449818977908	2.2648997924230176e-14	3.234267295223943	0.32391644817060483	-0.35082499337458806	0.6747414415451929	135.1518315927304
17	6.0	wm	239	diff_vonmises	0.40062186384797144	22.95394197915346	0.47937242777107014	131.5367148094163	0.4663987010710277	131.5105953341939	0.32382518046369313	-0.19456315073500186	0.518388331198695	129.0730992971675
18	7.0	ltm	239	diff_vonmises	-0.11307313632910197	-6.4786134879649255	0.5994616698049721	80.77701626521275	0.5775542567410841	82.03385106448347	0.006104852781430026	-0.2913758709305947	0.2974807237120247	105.76454390965223
19	7.0	perception	239	diff_vonmises	-0.014383910388745369	-0.8241373581694889	1.0863683297646913	36.87755779777453	0.9729263434335361	37.98081850809356	0.4177657909752437	-0.3934504208062779	0.8112162117815216	86.65444499284402
20	7.0	wm	239	diff_vonmises	0.1875182867537923	10.74400641251623	0.8447367778280171	105.7970901173871	0.8226280980361436	107.02992990186516	0.06681575682711838	-0.298235258721709	0.36505101554882735	90.23492137886126
0	1.0	ltm	240	diff_vonmises	0.11880803575725422	6.807199021130039	0.956629092113443	0.9376862535573639	2.720387502329882e-33	2.526091712851123	-0.08933140949699053	-0.35588410438973306	0.2665526948927425	130.26454052408968
1	1.0	perception	240	diff_vonmises	-0.002338946050197572	-0.13401173718511486	12.859779894789414	0.6068604869055327	9.539612202609536e-25	2.209157695708994	0.5078100586300798	-0.351598367335775	0.8594084259658548	37.79814349716304
2	1.0	wm	240	diff_vonmises	-0.42287295595900315	-24.228835646672415	0.0002013858764091952	4787.98694502797	6.58494892514996e-29	4789.743025728045	-0.1260199825038626	-0.4329424131756241	0.3069224306717615	174.9411456491027
3	2.0	ltm	240	diff_vonmises	0.1623080561951866	9.299566600956387	8.439147512940437	0.4371376499650624	0.3431690209480467	1.2890910763960173	0.21777186381168756	-0.2295595035435755	0.447331367355263	44.24330611107547
4	2.0	perception	240	diff_vonmises	-0.0024923610647408514	-0.14280177003238292	7.115591166175481	1.106625617324625	0.20604982493024918	1.988460558079361	0.7706207731638482	-0.32535092867098936	1.0959717018348376	49.55435550626609
5	2.0	wm	240	diff_vonmises	0.09232770386938635	5.289987763849518	2.1274223704368875	0.701562704348388	1.8425955801726384e-12	1.6587662729949897	0.111640730967966	-0.258668218277591	0.370308949245557	94.1769149318036
6	3.0	ltm	240	diff_vonmises	0.1314950220366101	7.5341097896775135	3.1900945471241813	0.7461969182896658	0.7700907717514921	1.1519012258225554	0.16282333754837847	-0.146368681979599	0.3091920195279775	63.47225762230315
7	3.0	perception	240	diff_vonmises	-0.017594099863509564	-1.0080676665107957	4.1042132959093305	1.7687461097968653	0.3126023640674453	2.1310899383001365	0.9265910436556597	-0.30840399597621965	1.2349950396318794	63.893600830025974
8	3.0	wm	240	diff_vonmises	-0.0980626594689116	-5.618576515397233	1.3587318211557362	103.16738442214437	1.3345378788100648	103.69536342230839	0.23678197679399204	-0.20271479567209205	0.4394967724660841	75.79216602096704
9	4.0	ltm	240	diff_vonmises	0.09347027033611856	5.355452000206448	2.9701858231015374	1.1033006675510737	0.7045292556108774	2.114621756937631	0.11491786073036592	-0.2787858632536683	0.3937037239840342	63.37750377073826
10	4.0	perception	240	diff_vonmises	-0.04531205133627937	-2.59618930264893	2.8174724323591316	2.1080003047370184	0.10985640703252304	3.6630210209366725	0.6830528927777189	-0.5308155334475803	1.2138684262252992	78.16167841437985
11	4.0	wm	240	diff_vonmises	-0.11113381899977448	-6.367498789857878	1.2565497691756389	314.10724516193187	1.243471647026466	315.6186008793482	0.16782548596938796	-0.41274401141310335	0.5805694973824913	74.45732093050009
12	5.0	ltm	240	diff_vonmises	-0.024145863133097724	-1.3834560502270303	1.6173240543562024	1.0125929372608058	1.3330176543775913e-11	1.424993044153815	0.23232106954949816	-0.20871612690241587	0.441037196451914	106.93422141283612
13	5.0	perception	240	diff_vonmises	-0.0062602066697703025	-0.35868342105748663	2.0597108647154476	1.8734080191272273	4.530511068194583e-21	2.4104137428130814	0.6001108281647924	-0.3676383475689791	0.9677491757337715	95.66985462117941
14	5.0	wm	240	diff_vonmises	0.18167182624741204	10.409028900410723	1.3337592881798614	1.070558352272569	1.0729472093347504e-15	1.6106755411042606	0.17569813439922993	-0.2263505133995574	0.40204864779878735	115.73347839322335
15	6.0	ltm	240	diff_vonmises	0.4513506953993467	25.86048992667735	0.896890544295682	122.9792110946924	0.8855974989152198	123.32419559175626	0.154228469670052	-0.13546970899226451	0.2896981786623165	93.92781476914925
16	6.0	perception	240	diff_vonmises	-0.15413612175948918	-8.831349247333304	0.7504299414746988	211.3313041897966	0.7386180754590774	211.8699299571723	0.3192365490604203	-0.2616234797239265	0.5808600287843468	103.88282139713208
17	6.0	wm	240	diff_vonmises	-0.08054878307315695	-4.615105315006698	0.4239687814821938	130.45096862773002	0.4114014772893216	130.97522837755355	0.18114255764588094	-0.2512479593595369	0.43239051700541786	132.1287381469994
18	7.0	ltm	240	diff_vonmises	0.06471799423172066	3.7080679280296005	1.7223444826640273	0.7925089589334003	8.937832509365115e-14	1.5561235405513378	0.1256975919964358	-0.23574847831269777	0.36144607030913356	103.96907969479585
19	7.0	perception	240	diff_vonmises	-0.07297462926067971	-4.181138268168831	0.99182552424885	258.0637495116682	0.9756084287579868	258.5052122189228	0.6439536612440833	-0.3393614782897849	0.9833151395338682	92.51293111804557
20	7.0	wm	240	diff_vonmises	0.033078377702604474	1.8952514354988845	0.8244841729129662	110.96527883241133	0.8070956977261989	111.84220254992252	0.10096649726177986	-0.23319674216268993	0.3341632394244698	93.33002639924985
0	1.0	ltm	241	diff_vonmises	0.3297090413903221	18.890936538969626	0.6819008716957152	147.46093450603826	0.6642531554268661	150.72879884123597	-0.41231644224338027	-0.5861157204204908	0.1737992781771105	80.01862120347798
1	1.0	perception	241	diff_vonmises	0.03449018571638289	1.9761420761711355	13.609009889161198	0.5803210696874824	0.005031052289228209	3.299029787379462	0.318244538991299	-0.5258748067599511	0.8441193457512501	36.686556086475775
2	1.0	wm	241	diff_vonmises	0.051013447971974414	2.9228552672043424	5.795320343142456	0.4537380546292948	0.11144869537722123	4.2196791634406505	-0.3229699618290022	-0.6868826934844038	0.3639127316554016	52.31714833360715
3	2.0	ltm	241	diff_vonmises	0.02150210698341132	1.2319799807882428	12.046039027169687	0.3925069085356881	0.16187830541718312	1.9451167357363084	0.17595731292282113	-0.33458876489077016	0.5105460778135913	37.980428048140794
4	2.0	perception	241	diff_vonmises	0.012173299616685047	0.697478690784276	8.47928174034983	1.2358948658849889	0.23552228201637643	3.0963798608048214	0.798013351535329	-0.5271560806377167	1.3251694321730456	45.07794355937682
5	2.0	wm	241	diff_vonmises	-0.008436255202463194	-0.4833618179964248	1.8997256459665415	1.7544915327227621	0.42110050332549825	3.759744298987304	0.00470409218435397	-0.441539390236725	0.446243482421079	77.64210422494034
6	3.0	ltm	241	diff_vonmises	-0.030499915643560097	-1.7475164418810296	3.8983687385657158	0.4696857169312317	0.09552834118216243	1.046036903666891	0.17330865195029754	-0.15971662208430862	0.33302527403460613	66.9045507523578
7	3.0	perception	241	diff_vonmises	-0.0560806135637916	-3.2131824697093774	6.128076722123989	1.213875717235686	3.0828889080953333e-18	1.861215011339208	0.8758970571771912	-0.2962159944203326	1.1721130515975238	55.034764534737775
8	3.0	wm	241	diff_vonmises	-0.08555223187420735	-4.901781814316678	1.5858610443645542	191.6249342331099	1.5687382512844292	192.5174374968879	0.16735835786391817	-0.28617717952380417	0.45353553738772234	67.09260427205481
9	4.0	ltm	241	diff_vonmises	-0.35804776499201174	-20.51462579813422	0.7644494074436478	59.127663042038044	0.7205082529916661	61.03596503629435	-0.05461888762133427	-0.4034122155133826	0.3487933278920483	91.0939812238789
10	4.0	perception	241	diff_vonmises	-0.07266720718743534	-4.163524280842767	3.2842801391949794	1.85524930303486	0.064093490873273	3.9779911209095755	0.6046272062665998	-0.6036058808107839	1.2082330870773839	73.46182398166513
11	4.0	wm	241	diff_vonmises	-0.09680215432063163	-5.546354890346279	0.9547279949383681	159.98373913090788	0.9348977879463182	162.29089899450835	-0.15723599418601708	-0.4742049275444806	0.31696893335846354	77.10807718248378
12	5.0	ltm	241	diff_vonmises	-0.057135384698074845	-3.273616404056034	3.100874617404903	0.8169040977859083	4.837439620530353e-16	1.7114427794669542	0.2727879280866278	-0.27128004392234256	0.5440679720089703	78.0087068291779
13	5.0	perception	241	diff_vonmises	-0.07231031547732963	-4.143075892110502	1.338675851704865	4.579821940031197	0.45995877640166816	5.605236366446286	0.5111873430960094	-0.4250198744453163	0.9362072175413257	95.21494392517783
14	5.0	wm	241	diff_vonmises	-0.2004490462035603	-11.484884354886843	0.5346326218182831	182.67761616377152	0.520919927202605	183.78400524603228	0.19276098710238188	-0.3734951743174122	0.5662561614197941	118.51737929419014
15	6.0	ltm	241	diff_vonmises	0.2443333755826988	13.999271215073442	0.750825201936531	104.1099027047326	0.7366182702105437	104.69455055679299	0.11187264230332161	-0.17743791267988307	0.2893105549832047	99.79487316869975
16	6.0	perception	241	diff_vonmises	-0.17366482086948698	-9.950261285717064	0.6859747742854257	165.13350740987357	0.6714778878606004	165.841117562825	0.258297234434238	-0.28109414702114677	0.5393913814553848	107.14014128095717
17	6.0	wm	241	diff_vonmises	0.3795857875905324	21.748663592086846	0.00024541749778661976	5723.777603606092	2.0381309429243463e-29	5724.413943581444	0.12230227572115382	-0.32482814823390527	0.4471304239550591	175.5292999238414
18	7.0	ltm	241	diff_vonmises	0.05702756215359069	3.2674386273207303	1.1992504233240533	199.33636976878316	1.1861627614396226	200.61757010325672	-5.3045645685756426e-05	-0.304987789467404	0.30493474382171826	72.6787923901098
19	7.0	perception	241	diff_vonmises	-0.14722796542852376	-8.435541045352403	1.4823498949327065	2.1988683780997333	0.1226856833527975	2.9410017425735298	0.418419196366834	-0.363705064586712	0.7821242609535459	104.9072845593347
20	7.0	wm	241	diff_vonmises	-0.4110751649413344	-23.552872013782643	0.9232676601724085	105.50637238105236	0.9059754833136857	106.57658449880964	0.0006012239536232755	-0.23984570186584975	0.24044692581947302	83.48132519165824
0	1.0	ltm	242	diff_vonmises	-0.04230169330100804	-2.423708492404588	5.859205211300087	0.23787842965940065	1.4617483243209374e-14	2.584849693036592	-0.18707885303370914	-0.4113897787391512	0.2243109257054421	56.31357405826634
1	1.0	perception	242	diff_vonmises	0.03096366262648074	1.774087186764308	13.343525967053202	0.606924785140485	0.03681068639879567	2.965385826470467	0.38630504242969976	-0.4794705462859113	0.8657755887156111	36.85276553108048
2	1.0	wm	242	diff_vonmises	0.05817226350682198	3.333025183663797	5.968700072543133	0.41845392853531616	0.06814531053427599	3.0762346081047887	-0.1250379752083321	-0.4930360905831173	0.3679981153747852	53.442544648837924
3	2.0	ltm	242	diff_vonmises	0.0802982903827169	4.6007531410456055	4.593635772460817	0.6177380020319457	0.3241832578406599	1.7403248676555843	0.13868349895439147	-0.2768662442369105	0.41554974319130195	57.72065353543428
4	2.0	perception	242	diff_vonmises	0.002784488019827836	0.15953941164087487	7.238257275051971	1.2289979685862769	0.3094844219700142	2.6130178657733323	0.7412511822134498	-0.4430124837254494	1.1842636659388992	48.266523811551195
5	2.0	wm	242	diff_vonmises	0.08831059365680875	5.059824302829921	3.1124674871174136	0.7236011567296275	0.08371741367109177	2.010062796697896	0.13670621197616223	-0.3029670417468711	0.43967325372303334	74.07009634326448
6	3.0	ltm	242	diff_vonmises	0.04574371313584268	2.62092170194093	3.285326376237601	0.9713893219767171	0.7801574642523202	1.488812497410413	0.22330964800191605	-0.19173207045382812	0.41504171845574417	62.79198072599871
7	3.0	perception	242	diff_vonmises	-0.031143115459661343	-1.7843690767272218	5.059298227219104	1.4711213850351248	0.2313419384593915	1.9634612749490206	0.8950395963291992	-0.30207982576098474	1.197119422090184	58.47735918678504
8	3.0	wm	242	diff_vonmises	-0.08340261962883797	-4.7786181050673715	1.3903929173262857	190.49238316209588	1.3768477149906375	191.0982814058041	0.21272869084393164	-0.21508613336958504	0.4278148242135167	73.93014855599705
9	4.0	ltm	242	diff_vonmises	-0.10042168044292085	-5.753738460990804	1.238381350050726	197.02839161963985	1.2219875475462696	198.36375855454227	0.08220679074693749	-0.34379195205226054	0.425998742799198	73.7656180151842
10	4.0	perception	242	diff_vonmises	-0.05208175409925007	-2.984064699525203	4.032985531078794	1.4979355513132158	2.176809391585653e-18	3.232200972260719	0.6424501107783857	-0.5140574510096826	1.1565075617880682	68.17075902037513
11	4.0	wm	242	diff_vonmises	-0.021618583655526862	-1.2386536025121924	1.0768456920903444	258.90341333268464	1.0644180868514397	260.5021761303472	0.03869898897858093	-0.37973506995282946	0.4184340589314104	77.96421590703633
12	5.0	ltm	242	diff_vonmises	-0.08987625416899381	-5.149530042328415	2.3342091899629227	0.8941824451408681	5.401580187813519e-16	1.8046463115536426	0.21884433226278516	-0.28246784185483215	0.5013121741176173	90.00489227584316
13	5.0	perception	242	diff_vonmises	-0.06754086246530548	-3.8698063639355604	1.2104849201561632	5.961090101471504	0.5271415740712362	7.02998287541998	0.5013005747765396	-0.4341949508943447	0.9354955256708842	96.20589713050396
14	5.0	wm	242	diff_vonmises	0.008223851753813462	0.4711919968347715	0.4531928677868655	134.12785630494352	0.43953398684634926	135.01945939127552	0.12929242400556973	-0.30349665910294554	0.43278908310851527	126.94148278986547
15	6.0	ltm	242	diff_vonmises	0.1158227284428456	6.63615351146489	0.7752205305822637	108.43302028686603	0.7602241346013243	109.13581049488153	0.10243471625661726	-0.1977543903747474	0.30018910663136467	97.16375660959113
16	6.0	perception	242	diff_vonmises	-0.19780956945564424	-11.333653477108335	0.7211616164966322	192.87855011780695	0.7065201525360806	193.84567363440775	0.2621451316917529	-0.3328752260685022	0.5950203577602551	103.28951573925393
17	6.0	wm	242	diff_vonmises	0.22035297812276972	12.625295649573266	0.2869059428727195	109.20766360965033	0.2730239067234207	109.92041157342526	0.1233532794970813	-0.2883801685576568	0.4117334480547381	145.99420351646393
18	7.0	ltm	242	diff_vonmises	-0.07188214616904645	-4.1185435978288405	0.946814914042618	159.48455111332046	0.9320274717707299	160.6829608799047	0.05412046585174579	-0.286840355993224	0.3409608218449698	84.38632844545907
19	7.0	perception	242	diff_vonmises	-0.0854949282534123	-4.898498558694303	2.018595321330498	1.9690585484911027	0.01804581774006694	3.0800048317739446	0.5224177134604165	-0.46336560210909244	0.985783315569509	95.72578004744577
20	7.0	wm	242	diff_vonmises	-0.10795184172032572	-6.185184921238944	0.988971691881251	147.06347274427662	0.9743567958499231	148.02290939240257	0.08402012530261516	-0.24409692716050913	0.3281170524631243	83.91232877184967
0	1.0	ltm	243	diff_vonmises	-0.14777105201741284	-8.466657614805905	7.245153361357349	0.2082407787995001	0.1566822970392344	0.8537407463969288	0.061472241714549236	-0.14095299575340436	0.2024252374679536	48.42253343825868
1	1.0	perception	243	diff_vonmises	-0.08685938141560323	-4.976675966231123	16.30188580384333	0.5831905594825711	1.9117397357224734e-20	1.3991661415266383	0.7092803786430506	-0.22268420763077246	0.9319645862738231	33.54013417406503
2	1.0	wm	243	diff_vonmises	-0.10046618929217677	-5.7562886302041525	17.188264385606704	0.23871012563335825	0.26944826977945485	1.1072350227147765	0.16522252115451516	-0.2069374563374822	0.37215997749199736	31.756527644101453
3	2.0	ltm	243	diff_vonmises	0.05865133249170268	3.360473814593078	2.495476829926171	51.18814959665611	2.4512601546595745	51.40144794416906	0.1910997380875159	-0.13839882311703455	0.32949856120455046	56.077901563095566
4	2.0	perception	243	diff_vonmises	-0.061882961520150555	-3.5456325188751037	8.536181692503003	1.009719870376367	0.3864716934816227	1.3093232333102631	0.8627895485523642	-0.2283601642421464	1.0911497127945107	45.04798959074162
5	2.0	wm	243	diff_vonmises	0.0346466079788189	1.9851044116306062	2.1959458023936347	0.4647179657839381	7.119202372661321e-12	0.8423769567672567	0.11954008553897019	-0.13092946863337335	0.2504695541723435	92.74717298472012
6	3.0	ltm	243	diff_vonmises	-1.1695137496298527	-67.0082019363102	0.00011933902613564892	7539.700223226152	9.211778142756845e-32	7539.349276435191	0.199063698784812	-0.08734532075459356	0.28640901953940556	144.5152010925152
7	3.0	perception	243	diff_vonmises	-0.055299726237504385	-3.1684409216378646	4.323490903130594	1.878910925510318	0.720142171867919	1.7950578107900856	0.989243849058778	-0.243576602967539	1.232820452026317	60.10341921551827
8	3.0	wm	243	diff_vonmises	-0.32324947235682666	-18.52083049587694	2.2119985125713373	19.757144440698806	2.1290155755162825	19.736904192043575	0.2561311366375332	-0.08046248111303633	0.3365936177505695	63.83299036841606
9	4.0	ltm	243	diff_vonmises	-0.04955207240019849	-2.8391246146580644	2.0682859473565194	120.8589789568164	2.049133875811948	121.10660489731985	0.22617902330847528	-0.14822894200443315	0.37440796531290843	62.02437136036363
10	4.0	perception	243	diff_vonmises	-0.09533481507162873	-5.462282544264517	4.134054162599142	1.8073559154098846	3.547794236227466e-19	2.5053004766782743	1.0158580617312105	-0.3983679157480994	1.41422597747931	67.3173747854768
11	4.0	wm	243	diff_vonmises	-0.2182609025270828	-12.505428547518088	1.3409023736899384	164.05580237062725	1.3253364978701827	164.81766577892034	0.1551286715100133	-0.23324621733744522	0.3883748888474585	73.66712865124953
12	5.0	ltm	243	diff_vonmises	0.016568800694097198	0.9493223513651984	3.105973027775983	0.739962884449932	1.3559017105967056e-12	0.5498503899058548	0.4067902454614389	-0.08652016658950842	0.4933104120509473	77.9397553540488
13	5.0	perception	243	diff_vonmises	-0.043992327964580184	-2.520574723325792	2.0413220239795025	1.7704966038050334	5.099069933627012e-18	1.7667674148133017	0.6434675817198698	-0.2655952077332139	0.9090627894530837	96.08207306874039
14	5.0	wm	243	diff_vonmises	-0.20521625038331376	-11.758025034463842	0.33223968846771595	58.55736730786951	0.31287658911801713	58.60199957399795	0.1946528687602278	-0.15271867795880567	0.3473715467190335	143.80517255676506
15	6.0	ltm	243	diff_vonmises	0.0868811558625885	4.97792355014461	0.7832585538330676	32.19943737689877	0.7603881237079232	32.04222721302816	0.18717058008276055	-0.053623572959183186	0.24079415304194374	110.44220088156794
16	6.0	perception	243	diff_vonmises	-0.18275495685949172	-10.47108771314431	1.032381718734855	134.08757961190202	1.0179231274974345	134.31014844381502	0.28907595908290773	-0.155227084954225	0.4443030440371327	90.39243404227182
17	6.0	wm	243	diff_vonmises	-0.23611155036917023	-13.528195330444008	0.4761173109485463	42.49433107582549	0.4535148812785313	42.35325915667149	0.2120453601256269	-0.09810060131152465	0.31014596143715156	131.77438381422482
18	7.0	ltm	243	diff_vonmises	-0.13458494049124545	-7.711149076167705	1.2328689109860649	70.85599849236989	1.2152996438274115	70.92610024213026	0.2023343033860634	-0.08549247583794006	0.28782677922400346	83.89020787845246
19	7.0	perception	243	diff_vonmises	-0.18545539959885896	-10.625811684926799	0.8072430868444561	101.03939667650471	0.7769302208122785	101.3696507904197	0.4860501025443753	-0.2841553826477954	0.7702054851921707	103.01132710589694
20	7.0	wm	243	diff_vonmises	0.7994070074256323	45.80264763867199	0.00018816225615664764	1916.7648372325448	1.847751363383896e-25	1916.8699487469516	0.04067460917013932	-0.07412724310978547	0.11480185227992479	161.84030931028184
0	1.0	ltm	244	diff_vonmises	0.03570541865682438	2.045769794783706	5.976886331771971	0.3133819369947319	0.0016257859913620639	2.613537676401047	-0.11796712386098485	-0.415628840305364	0.29766171644437917	55.62139126006721
1	1.0	perception	244	diff_vonmises	0.016070957387707578	0.9207980310502348	15.419277943094144	0.529312429011922	0.024047273596699444	2.758673635442287	0.37257315144857645	-0.4440470511859045	0.8166202026344809	34.35121732270153
2	1.0	wm	244	diff_vonmises	0.02053820867507353	1.1767526758406877	4.181354868528029	0.5658778422676327	0.13410373794751468	3.184061611384926	-0.13118700794667493	-0.5025130361578322	0.37132602821115723	61.11201530635469
3	2.0	ltm	244	diff_vonmises	0.09624399642376799	5.514374798554094	5.234888238686089	0.6323229903947362	0.3680162570907073	1.7201154169519084	0.1792744678263286	-0.28257064517365327	0.4618451129999819	54.29408203032759
4	2.0	perception	244	diff_vonmises	0.010641973633787816	0.6097401749055422	5.926344919062038	1.2957391500872477	0.3710955045709794	2.6772143512542885	0.6324108464901772	-0.4430050614828297	1.075415907973007	52.37035862651828
5	2.0	wm	244	diff_vonmises	0.07877426947014371	4.513433174865487	2.390478139452453	1.079557781044566	0.2963616648023881	2.396682674585647	0.1176748153113839	-0.3176207744422096	0.4352955897535935	76.47426702824728
6	3.0	ltm	244	diff_vonmises	0.014774959466506693	0.846542819907696	1.9130683704038638	3.71207268712236	1.2318432479718469	4.345700773674025	0.19103872042514247	-0.22104273475385355	0.412081455178996	68.85167806144455
7	3.0	perception	244	diff_vonmises	-0.04937240155328315	-2.8288302334282744	5.161254790626905	1.495409425966263	0.16383397548106024	2.1774256355969706	0.9132779310657377	-0.33735258756566006	1.2506305186313977	58.355768393668654
8	3.0	wm	244	diff_vonmises	-0.0842300739898536	-4.826027747693263	1.3067547731809857	243.72237497126216	1.2944354739899389	244.64534429105404	0.17979615614501654	-0.2782010374313231	0.4579971935763396	74.4963867004445
9	4.0	ltm	244	diff_vonmises	-0.1428355307326174	-8.18387307549014	1.138678812182353	177.5039676368632	1.1215544311672627	178.87998125029256	0.06531305241222185	-0.3404574125247386	0.40577046493696045	76.6604993085424
10	4.0	perception	244	diff_vonmises	-0.030247899708016616	-1.7330769924043472	3.574860492168915	1.59246989859145	0.010597544225364543	3.44864974596675	0.5962524490631119	-0.5423890455795756	1.1386414946426875	72.09744429324618
11	4.0	wm	244	diff_vonmises	0.011719375613228455	0.6714707611665315	1.021831934364493	243.48439491277253	1.0082277643546786	245.38047504107365	-0.02509785874485715	-0.4245751805339566	0.39947732178909945	78.31679206369031
12	5.0	ltm	244	diff_vonmises	-0.048897640306275164	-2.801628417698349	2.0932463694719385	1.026924533915223	1.1674413575267156e-20	1.7819175804633323	0.26093071734323653	-0.2753241736701545	0.5362548910133911	94.92557957345025
13	5.0	perception	244	diff_vonmises	-0.06559673889424429	-3.7584162884618526	1.9589138330419213	2.021618682149341	0.09224787282216376	3.0948135069792375	0.49088508160622857	-0.4277274975907418	0.9186125791969704	93.60854369814334
14	5.0	wm	244	diff_vonmises	0.03977602322583974	2.2789982566549556	0.3690565994275231	103.73191499174612	0.3507986449671853	104.67689211541786	0.13707977569366392	-0.342449643130303	0.47952941882396694	136.92103558122807
15	6.0	ltm	244	diff_vonmises	0.2107029894476395	12.072392026139264	0.6667826779586832	114.90197673545144	0.6529990220789926	115.51740125775274	0.1315975100730853	-0.20122407854859858	0.3328215886216839	106.6203734921707
16	6.0	perception	244	diff_vonmises	-0.15672772588582426	-8.979837225940992	0.7668352048681094	203.66604373343918	0.752087147004297	204.65630030534962	0.2818706152451398	-0.339396716346581	0.6212673315917208	100.23298086906699
17	6.0	wm	244	diff_vonmises	0.24457215434532972	14.012952230409551	0.2118485134346756	127.9965663933063	0.19972477025796678	128.70436661789896	0.133300389850735	-0.3106312201584345	0.4439316100091695	154.5181886065125
18	7.0	ltm	244	diff_vonmises	-0.10313594079240805	-5.909254123516124	0.8225355862779422	139.67415055284536	0.805774441464714	140.93961157642167	0.061379692524738516	-0.30371466617522636	0.36509435869996487	91.13158085267335
19	7.0	perception	244	diff_vonmises	-0.05802315548931204	-3.324481923568915	0.8111813088774392	191.25352075089802	0.7879197119931788	192.47877255828834	0.4803479355514497	-0.46948006436957357	0.9498279999210233	98.80807270531308
20	7.0	wm	244	diff_vonmises	-0.06164516301490508	-3.5320076681500185	1.0080120971083966	185.23928972455448	0.9944463037390235	186.45870549072913	0.059891234976966246	-0.295457423693243	0.35534865867020926	81.76254419176743
0	1.0	ltm	245	diff_vonmises	0.01112674807116069	0.637515704182837	8.406034406511306	0.39235867608514285	0.289518226082124	1.1107111732043098	0.21533456785530689	-0.19341984073426016	0.408754408589567	44.74747458956426
1	1.0	perception	245	diff_vonmises	-0.06588498177785171	-3.774931389167238	20.055055234330634	0.5763913168489015	7.712336575323057e-17	1.4975090832983886	0.7847073896047718	-0.23833597293195136	1.0230433625367232	30.223025678726202
2	1.0	wm	245	diff_vonmises	-0.07595296847098287	-4.351784534877528	10.703503380450593	0.2467478404455288	1.1762862999318084e-17	1.237395666026876	0.12111770602657382	-0.19693763664806999	0.3180553426746438	41.47512587883952
3	2.0	ltm	245	diff_vonmises	0.16389966820058172	9.39075925148788	2.46012678002964	81.16755644225158	2.42745022543235	81.31149533735865	0.28868525104407183	-0.1471248967840939	0.43581014782816574	57.87115336407214
4	2.0	perception	245	diff_vonmises	-0.05862452231386016	-3.358937704554706	6.345925144657974	1.0915217417541876	0.5588492468260149	1.3576484524741306	0.7234011957796203	-0.22651704074560144	0.9499182365252217	50.89867047689941
5	2.0	wm	245	diff_vonmises	0.117028118916614	6.705217298277094	3.3856111750105984	0.492802505848984	9.657336730316628e-18	0.8174686276025087	0.21544330739324416	-0.1297080388786776	0.3451513462719218	74.57721254349912
6	3.0	ltm	245	diff_vonmises	0.017532714668679537	1.0045505539224469	2.570298161041811	82.58617965405966	2.5450870935951637	82.55332708260467	0.30419698042253174	-0.09564238839519845	0.3998393688177302	58.67267462518561
7	3.0	perception	245	diff_vonmises	-0.05910113431186662	-3.3862455605057744	4.0750885461426	1.8716044067588442	0.6255995345483816	1.9159971521210464	0.9354375967419989	-0.25891508557780174	1.1943526823198005	62.01389378573958
8	3.0	wm	245	diff_vonmises	-0.1779155029013073	-10.193807426192462	1.7176191895718633	144.25919311526056	1.7027021742708046	144.48976072564983	0.2515267050286525	-0.1419597139278963	0.3934864189565488	68.97427955072965
9	4.0	ltm	245	diff_vonmises	-0.05192794136829906	-2.9752518792063296	2.0000712158565124	210.1235912771357	1.9875289772479856	210.35011712275502	0.2950924199369638	-0.16241653273126744	0.4575089526682312	63.854614799035005
10	4.0	perception	245	diff_vonmises	-0.06848068217766891	-3.923654066957184	3.585988842872287	1.8573442570231442	4.857633933210013e-15	2.57979836033133	0.9341661835752926	-0.4095551489447325	1.343721332520025	72.40958265455887
11	4.0	wm	245	diff_vonmises	-0.1364966118589468	-7.820679777352994	1.277455309616166	206.51659755381445	1.262746300532694	207.38601643987963	0.2153010702267153	-0.2748502870641083	0.4901513572908236	76.21368503074498
12	5.0	ltm	245	diff_vonmises	-0.011440645098578289	-0.6555006790555676	2.312872072612981	0.8685000386135342	3.033264843883417e-25	0.7476776850059055	0.36984078343767873	-0.11420737081563324	0.484048154253312	90.42264007009135
13	5.0	perception	245	diff_vonmises	-0.03479297660780916	-1.9934907163248645	2.067580366961698	1.8184184968372288	3.252343662498136e-16	2.081292778227989	0.6258523234471327	-0.3159343383851963	0.941786661832329	95.49050769182494
14	5.0	wm	245	diff_vonmises	0.15618069331863346	8.948494568584753	0.3019062283759155	3.597887840981095	1.627600890375103e-17	3.774836231857112	0.15629919871917297	-0.18686880515748228	0.34316800387665525	162.27843175178745
15	6.0	ltm	245	diff_vonmises	-0.11046330714156291	-6.3290812902688804	0.5620772951218348	1.5029535953452888	2.136805512798432e-20	1.3854833649109262	0.16784180939375296	-0.09431930820059459	0.26216111759434757	148.8073708613826
16	6.0	perception	245	diff_vonmises	-0.16521019636583342	-9.465846984289826	0.8956768037911657	154.79761034339896	0.8789372061133521	155.2983609507233	0.3341781250720075	-0.24125524126196396	0.5754333663339715	95.45038912226752
17	6.0	wm	245	diff_vonmises	-0.028261652462642034	-1.619273408174898	0.8256554433053127	1.3950226375367387	3.582223086868311e-10	1.3630492721894378	0.2134811124973107	-0.1343797357678877	0.34786084826519836	136.19395331322372
18	7.0	ltm	245	diff_vonmises	-0.1904941428479197	-10.914510407148017	0.7141338590317938	71.161254101409	0.6928688669741389	71.40969494965643	0.21811125387043617	-0.15855225733516587	0.37666351120560204	108.02772812884434
19	7.0	perception	245	diff_vonmises	-0.07800211108822375	-4.469191758465822	0.8667156872641132	198.3944075427808	0.8472040645352493	199.23226088698306	0.4764882183218191	-0.37476336620559536	0.8512515845274145	96.64226021861879
20	7.0	wm	245	diff_vonmises	0.5329472226444015	30.535626560743225	125.69807756482481	0.5199775099818807	4.850469274302363e-35	0.5785118235316754	2.2217619028382414	-0.0920730163521724	2.313834919190414	12.091309580936468
0	1.0	ltm	246	diff_vonmises	-0.052865746384304545	-3.0289841486296423	7.012019913921569	0.40406391798919394	0.20582758311944338	1.9420449545572918	0.042940698193046134	-0.32672180731710526	0.3696625055101514	48.21040842957427
1	1.0	perception	246	diff_vonmises	-0.045149823302147035	-2.586894320974443	16.59801889017475	0.6555845748011934	1.7966805273613602e-17	2.4099608557354038	0.6732688407106537	-0.3835571828482595	1.0568260235589133	33.24647023172699
2	1.0	wm	246	diff_vonmises	-0.022905016158613754	-1.3123607555675214	11.136825330214549	0.26067454822191527	1.5169807303472703e-20	2.166073557178183	-0.0018155591409390048	-0.34474131365277166	0.34292575451183266	40.649627894202354
3	2.0	ltm	246	diff_vonmises	0.04879236678834929	2.7955966894267017	1.5404300426701696	106.8774294539695	1.5136130296511892	107.53039105290213	0.21415568530115792	-0.23387515813126392	0.44803084343242183	69.92177778941203
4	2.0	perception	246	diff_vonmises	-0.05280998279564606	-3.0257891303490076	6.247016712612143	1.142551592679097	0.32401041236808803	1.9419917802759645	0.6981311997129722	-0.3181349299132314	1.0162661296262037	51.95052600896827
5	2.0	wm	246	diff_vonmises	0.1034919156017697	5.9296499777055205	3.3898638892706	0.5919766245299426	2.831426181780471e-20	1.3650257370241026	0.1981455325625464	-0.21677845838413365	0.4149239909466801	74.52816041923109
6	3.0	ltm	246	diff_vonmises	-0.02324907897086381	-1.3320741025968517	1.8531212043752612	56.57008565863021	1.8087998582799947	56.75320003798584	0.3181690525157457	-0.15351803772917538	0.47168709024492106	67.37954640979737
7	3.0	perception	246	diff_vonmises	-0.034834716474446144	-1.9958822345206026	3.865351416277815	2.1219232786124302	0.6066062167198829	2.418662902050033	0.9558609828758128	-0.325421515961103	1.2812824988369158	63.03856570629213
8	3.0	wm	246	diff_vonmises	-0.19843900120794145	-11.36971726000649	1.5871541750771634	134.8288870420559	1.5687937472473852	135.17265164613028	0.27287097300476404	-0.17494073726493653	0.44781171026970057	71.23402802286006
9	4.0	ltm	246	diff_vonmises	-0.062238771102224796	-3.5660189062382717	1.6044948700458712	191.6119457895958	1.5869504751482837	192.14823992999536	0.33570015422840527	-0.24500151247584512	0.5807016667042504	70.17961581958266
10	4.0	perception	246	diff_vonmises	-0.07762918026455053	-4.4478243962190085	3.767837027973747	1.8389430102125184	1.8547288984411764e-16	2.9589698345469206	0.8972113049723398	-0.47020432611637747	1.3674156310887173	70.59988903990242
11	4.0	wm	246	diff_vonmises	-0.17361577878973816	-9.947451381528913	1.1580568426778008	248.2398865772724	1.1441057964143182	249.31381711594045	0.2481509549881764	-0.3286228699961278	0.5767738249843042	80.04830756976625
12	5.0	ltm	246	diff_vonmises	-0.018348691194532606	-1.0513025650355752	2.242001385108887	1.0518150831084063	1.5216011747816992e-19	1.2085339655479337	0.3888231244048235	-0.1857838458216604	0.5746069702264839	91.8119372264444
13	5.0	perception	246	diff_vonmises	-0.02111623463955447	-1.2098711240544242	1.9625692827901469	2.171440546899275	0.08870127949514432	2.6368950736861287	0.6497696569740157	-0.36143696292638616	1.0112066199004017	94.58594836123171
14	5.0	wm	246	diff_vonmises	0.010335450589478724	0.5921776981431297	0.3283998506337098	113.99335664556814	0.31497801594972347	114.372896293339	0.1946292023084304	-0.24237288352462194	0.43700208583305233	143.1825988693912
15	6.0	ltm	246	diff_vonmises	-0.059791487436365316	-3.425799880913219	0.8680065134778621	1.167874565775295	1.9159100582936973e-27	1.1777444591394337	0.182325702664538	-0.12227934865311796	0.3046050513176559	134.25643134687647
16	6.0	perception	246	diff_vonmises	-0.1352203301531427	-7.747554222140661	0.7695326165657473	131.428440628097	0.7523951150085499	131.98076940688458	0.2673545846818186	-0.23839112861308465	0.5057457132949033	102.07801014409523
17	6.0	wm	246	diff_vonmises	-0.051500401509334194	-2.950755649714024	0.7750806149540697	36.093187641551616	0.7463978237398652	36.06349109557129	0.20637660031379568	-0.08878903820474715	0.2951656385185428	107.8471134169572
18	7.0	ltm	246	diff_vonmises	-0.1082394700672627	-6.201664811586758	0.6333294889078193	90.88596793616625	0.6158917313088068	91.2868281330423	0.19297184451890814	-0.19079775586396774	0.3837696003828759	112.75034835842285
19	7.0	perception	246	diff_vonmises	-0.11882069757718824	-6.807924489973213	0.8584803035874565	197.57137579434777	0.838975564430975	198.31449263036242	0.5041682187933887	-0.3675144925460003	0.871682711339389	97.66181123926522
20	7.0	wm	246	diff_vonmises	0.18476725545417969	10.586383929740036	0.9570170249067812	56.50854104672532	0.9311713701809783	56.768772773241615	0.1919214091534478	-0.129954148109384	0.3218755572628318	92.79052616488147
0	1.0	ltm	247	diff_vonmises	0.016684411837001614	0.9559463819183053	6.3166689842735595	0.3719229148136041	0.11822629412420027	2.7493050835953228	-0.12586245136480717	-0.44891717671994835	0.3230547253551412	50.882386530644766
1	1.0	perception	247	diff_vonmises	0.003102608787787237	0.17776638902040917	16.284940748937885	0.5532446624888334	9.165382435336038e-20	2.60821551159146	0.468464102494764	-0.4151103913187312	0.8835744938134952	33.558851494405275
2	1.0	wm	247	diff_vonmises	0.0544863924478377	3.121840328154583	4.201944215727506	0.5623718731188612	0.16722253172049323	3.401846501232289	-0.19139110805608117	-0.5418887574147233	0.35049764935864214	59.55808769635124
3	2.0	ltm	247	diff_vonmises	0.11087355601500105	6.352586819266882	5.921318084925656	0.6460022092001502	0.5399429468398982	1.6192480771528264	0.20093237070906783	-0.2826988996791784	0.4836312703882462	50.19236944392904
4	2.0	perception	247	diff_vonmises	-0.003643748575514753	-0.20877141498380108	7.047650643985815	1.2206589612638203	0.3403086783104053	2.3989296118670196	0.7467166480708011	-0.40670831868469975	1.1534249667555008	48.8022484856437
5	2.0	wm	247	diff_vonmises	0.014176893104719451	0.8122761415085428	1.0697621570235778	53.53096909881755	1.0138546642418422	54.97905148339642	0.06529335847605111	-0.35114955261901315	0.41644291109506426	79.92465911157845
6	3.0	ltm	247	diff_vonmises	0.07513424043693974	4.3048748739578135	1.7716009547330518	44.02887895311091	1.722122932996462	44.380969978555754	0.19487348568361895	-0.15772884075408644	0.3526023264377054	66.50528253889436
7	3.0	perception	247	diff_vonmises	-0.07799852364028151	-4.468986212839509	5.992606970654391	1.1581394974428294	4.1119644558378538e-19	1.558411009620174	0.8570355006244166	-0.2480219218932703	1.1050574225176868	55.67244429872929
8	3.0	wm	247	diff_vonmises	-0.060628061393594244	-3.4737320379129946	1.6478790916466979	176.76652269536586	1.6298440094713902	177.53916105835287	0.1891137587155356	-0.2650949351379879	0.45420869385352347	66.4664608217665
9	4.0	ltm	247	diff_vonmises	-0.20004708152785067	-11.461853475455335	1.1123391204517075	127.38931667245488	1.0908076276118939	128.6766926741117	0.05147431425793769	-0.3137679112630458	0.3652422255209835	77.43201476758841
10	4.0	perception	247	diff_vonmises	-0.051651429342735485	-2.9594089071569227	3.0842257566999214	1.8757380602067382	3.8496976513846906e-13	3.5579371195431597	0.6817638035680222	-0.5636493120170313	1.2454131155850536	78.22029762383164
11	4.0	wm	247	diff_vonmises	-0.0550615627123101	-3.1547951568102746	1.1317613423903605	220.72225460281925	1.1159140125364797	222.68129260592997	-0.05917914765505827	-0.4421061943475344	0.3829270466924761	73.36427657279435
12	5.0	ltm	247	diff_vonmises	-0.03857741650502487	-2.210323150256248	2.8478053492317987	0.8015743194207469	3.610845205863429e-17	1.3164737169006857	0.30004567613681254	-0.20781073337938935	0.5078564095162019	81.46462285418619
13	5.0	perception	247	diff_vonmises	-0.057938763531677824	-3.3196466205716275	1.9852584927000765	2.0091662534476544	0.10886008819305455	2.7835411793831306	0.5393388200381622	-0.37681430176033487	0.9161531217984971	92.77260525348763
14	5.0	wm	247	diff_vonmises	-0.0788111066056963	-4.5155437872620015	0.46145681335544775	112.08242774965908	0.4436185701746015	112.83790154614388	0.19218613159572584	-0.30835859346385064	0.5005447250595765	127.70271363873825
15	6.0	ltm	247	diff_vonmises	0.24570620247739872	14.077928402141799	0.788300084159817	82.37072916929851	0.7729026601581683	82.69881659994559	0.14428103774152135	-0.1336813630785052	0.27796240082002655	100.43358010718401
16	6.0	perception	247	diff_vonmises	-0.19822198431230206	-11.357283107803323	0.724352053694813	162.23632140143462	0.7088080903083835	162.8349613899646	0.30960504743638495	-0.2750196194800001	0.584624666916385	105.45563795409988
17	6.0	wm	247	diff_vonmises	0.30318640468157815	17.37130139399985	0.0008688504181552115	1652.2245486711938	1.0292258641735076e-28	1652.5962225752944	0.1693637208790051	-0.28757195305985306	0.45693567393885814	177.0334109473032
18	7.0	ltm	247	diff_vonmises	-0.05458006539794564	-3.1272073928503072	1.0042456582954513	137.0092148404543	0.9892124023607937	138.0012798563679	0.052774137966146384	-0.24152338805063245	0.29429752601677883	82.1021113025298
19	7.0	perception	247	diff_vonmises	-0.09282853802954344	-5.318683447462498	0.8000925640740263	153.19120334008204	0.7778319095289574	154.04081389957014	0.3968373851891869	-0.3548849473449991	0.751722332534186	100.10458996167479
20	7.0	wm	247	diff_vonmises	-0.12897717801491024	-7.3898479537618655	0.7982332972995809	101.9794748963358	0.7830779904316857	103.05372689158266	-0.027574736443941816	-0.2285900409433559	0.20101530449941407	88.34456190759866
0	1.0	ltm	248	diff_vonmises	-0.07875506278192736	-4.512332712692266	2.172706587492879	0.4726602616970691	3.4820970949920767e-15	3.745701180177336	-0.33986238766949795	-0.5928233122412898	0.25296092457179187	93.22934517866571
1	1.0	perception	248	diff_vonmises	0.06043805386379804	3.4628454083799656	11.170971799367186	0.6271149081476253	0.042552631222744046	3.6396252395437982	0.22194937643815782	-0.5884771836524513	0.8104265600906091	40.14564063543261
2	1.0	wm	248	diff_vonmises	0.0331588998682735	1.899865015748973	6.0828256277778525	0.3944831493846783	8.518170967664639e-33	3.920925652824628	-0.24458916757439625	-0.6240327236188901	0.3794435560444938	55.24203985968106
3	2.0	ltm	248	diff_vonmises	0.041156566567243924	2.3580975635523034	5.920880005172645	0.5557504697280864	0.1195496734064462	2.3744768959045293	0.10259622690560871	-0.38197243054188507	0.4845686574474938	53.56089623036604
4	2.0	perception	248	diff_vonmises	0.03156993093929806	1.8088238023412575	5.641542321580602	1.4278938627492899	0.2769503876813243	3.5493339434925297	0.5889558600324035	-0.5771234268583357	1.1660792868907393	53.90347011308239
5	2.0	wm	248	diff_vonmises	0.093612518788114	5.363602236148056	3.398084025060128	0.6799572455076579	1.6036935833002034e-10	2.5323406045164223	0.07471318420401968	-0.40250030520326224	0.4772134894072819	74.43947145785302
6	3.0	ltm	248	diff_vonmises	-0.0011936565365508328	-0.06839148173256601	4.481249536562489	0.5188452182594928	0.005680247188072001	1.6386120334088548	0.16198563482519296	-0.259577389329184	0.42156302415437696	64.33629597967987
7	3.0	perception	248	diff_vonmises	-0.012171363506891377	-0.6973677598644248	4.4819051120350855	1.8396008304834834	0.21453566824399006	2.9948596266404692	0.9203186816874216	-0.4550534122403673	1.375372093927789	61.622565515314676
8	3.0	wm	248	diff_vonmises	-0.08865040976836802	-5.079294331832814	1.1522703878153648	233.4971724529	1.137784327094214	234.7453031333491	0.17087071162134748	-0.34380890497172345	0.5146796165930709	78.58695783690865
9	4.0	ltm	248	diff_vonmises	-0.12756142836344375	-7.308731473885719	2.307465997163898	1.0561348742080339	0.1660576528781698	3.2417106263820594	-0.011327492199392997	-0.4584560578188592	0.4471285656194662	79.74424081217063
10	4.0	perception	248	diff_vonmises	-0.03028353551108129	-1.7351187735195124	1.8946563893965167	3.891684509690324	0.45560281960952276	6.3931426395542585	0.418318937602427	-0.6829634940773146	1.1012824316797416	80.93781487383288
11	4.0	wm	248	diff_vonmises	-0.04398149278092825	-2.5199539130322868	0.8564340834345249	186.49267669705327	0.8369414958424335	188.93022835614465	-0.06365963675758479	-0.520857477740492	0.45719784098290717	85.20266655520703
12	5.0	ltm	248	diff_vonmises	-0.03536317623141044	-2.026160748237166	1.827501847058189	1.2425403793075038	7.0521915750940855e-16	2.3622542498838373	0.23092374706066637	-0.3602694553678512	0.5911932024285176	101.20693014609718
13	5.0	perception	248	diff_vonmises	-0.03822447025988462	-2.1901008200147216	2.037868540167826	2.067368386909425	0.06626842797006371	3.393851117794622	0.5021414269412311	-0.48664352978970704	0.9887849567309381	92.87425060697555
14	5.0	wm	248	diff_vonmises	-0.011199338164235854	-0.6416748101505056	0.4505697341919143	228.22252316357364	0.4399982623703252	229.46628941239948	0.1536912485305706	-0.40667503534662686	0.5603662838771974	126.65217796761274
15	6.0	ltm	248	diff_vonmises	0.33828637093645564	19.38238132145594	0.6402352645036543	169.86549208980065	0.6291256718808009	170.73510879702573	0.12252217704604362	-0.2565904881419687	0.37911266518801234	107.19235988513392
16	6.0	perception	248	diff_vonmises	-0.10291563699599626	-5.89663164577102	0.6779670173378196	205.57930239699894	0.6643749079295207	206.64768666291647	0.23503585736936117	-0.3502230440830516	0.5852589014524128	105.79898490860425
17	6.0	wm	248	diff_vonmises	0.1994352134796281	11.426796018673274	0.30798516825514893	141.8479683437557	0.2965500444107329	142.7339621470727	0.10480627990079583	-0.3169571220095868	0.42176340191038264	143.0253396768785
18	7.0	ltm	248	diff_vonmises	0.030997305224046184	1.776014765616665	0.7217098165635991	161.64848826094914	0.7062295222984324	163.301959872002	0.0047480164892022	-0.37048040714292085	0.37522842363212305	95.2599684660766
19	7.0	perception	248	diff_vonmises	-0.0850371532242623	-4.87226998155753	0.8303159218075313	174.59936559004421	0.8040250817496006	175.57306275452783	0.5800687014203163	-0.4547403518145856	1.034809053234902	99.14073601134928
20	7.0	wm	248	diff_vonmises	-0.17389460560806705	-9.963426981434218	1.0239450698834336	163.77040567620674	1.0047827289999371	165.09603990684704	0.1387273566302909	-0.3457124719570075	0.4844398285872984	82.96312943479839
0	1.0	ltm	249	diff_vonmises	0.18800350131555488	10.771807159063515	0.8224100856979729	1.1586010253135952	4.0621375339812885e-18	2.5995896363121123	-0.056979086346172214	-0.3448653947266654	0.28788630838049317	135.92486068113743
1	1.0	perception	249	diff_vonmises	-0.028198156557029938	-1.6156353607669638	14.411374837648959	0.49356294906989895	1.6150562299080986e-30	1.9000791745263912	0.4381461130943074	-0.3024069928916182	0.7405531059859256	35.69828545208077
2	1.0	wm	249	diff_vonmises	-0.0716776344524709	-4.106825939608086	6.914301070179971	0.31415737840754304	4.925696151783008e-25	1.8984715481668675	0.020989905808405374	-0.3021508122642337	0.32314071807263905	51.75109901801903
3	2.0	ltm	249	diff_vonmises	0.10553206666563257	6.046542023233989	14.09471661551185	0.34647181145785055	0.32052618734089783	1.2198796886910992	0.2533982649015978	-0.22968804185907024	0.483086306760668	34.90222932612045
4	2.0	perception	249	diff_vonmises	0.004399541652858832	0.2520751685008214	6.522071248835372	1.1004796010473816	0.25138161069254733	2.069852326708372	0.6809172347877352	-0.33843961389474514	1.0193568486824804	51.25668472131093
5	2.0	wm	249	diff_vonmises	0.06350071354420234	3.6383228821520173	0.7984014117516911	61.748883892788896	0.7678669686903062	62.74678048184392	0.06317013664891391	-0.24596525961148874	0.30913539626040265	93.62595427117205
6	3.0	ltm	249	diff_vonmises	0.10160073633628042	5.821293387490334	1.318701764642485	63.18276201204383	1.295160418774694	63.640985397068555	0.08831777903290217	-0.1380050888156763	0.22632286784857847	74.27272185889674
7	3.0	perception	249	diff_vonmises	-0.04795474981318115	-2.7476047719010532	4.618605132594627	1.6656281138921833	0.18442770716229734	2.2260650384306406	0.9617907716727215	-0.33764225932838365	1.2994330310011053	61.46255531879066
8	3.0	wm	249	diff_vonmises	-0.1590287232496085	-9.111674663556558	1.4099251280194744	187.30595509455904	1.3952344704974402	188.06487242397066	0.17619984350298523	-0.24248432620731464	0.41868416971029987	72.08902152281402
9	4.0	ltm	249	diff_vonmises	0.07131822970532067	4.086233564459412	3.8590332900253745	0.4987024385020692	0.38569792890121446	1.5317177944866676	0.030433221570900282	-0.23857561772633112	0.2690088392972314	60.03912934507386
10	4.0	perception	249	diff_vonmises	-0.020737472268560396	-1.1881696387580956	2.5596599314169644	2.3613272147998945	0.18791836896757336	4.0949024797211635	0.6314758752226478	-0.5603372372634985	1.1918131124861464	79.39322640613739
11	4.0	wm	249	diff_vonmises	-0.05838279118222106	-3.345087530934865	1.2061069237223094	264.5726240032504	1.1920662215351523	266.34915276354207	0.015326443424399372	-0.42773727324621547	0.44306371667061484	72.85624352197826
12	5.0	ltm	249	diff_vonmises	0.06038873076685189	3.4600194030924367	0.8100408897902236	15.192862892823841	0.6857287283943256	15.435945083588678	0.2918860686519844	-0.1861388279010474	0.4780248965530318	105.57735618070467
13	5.0	perception	249	diff_vonmises	-0.03259678252024415	-1.8676580641158047	2.041690867650236	1.7338708178651907	6.45314886867596e-17	2.228442345492111	0.5510200952404181	-0.3394062612532365	0.8904263564936545	96.06854691568537
14	5.0	wm	249	diff_vonmises	0.09374766696495493	5.371345656289929	1.025803999846552	1.4727864873942453	1.5857876142600017e-11	2.00720952083706	0.19097932023520875	-0.2538490571599469	0.4448283773951556	127.42963074736754
15	6.0	ltm	249	diff_vonmises	0.5176726165567379	29.660456098195265	0.6680787427272527	119.21069443256046	0.6569706833785928	119.44527502664752	0.18705224250246033	-0.14575574796269386	0.3328079904651542	110.8339356575564
16	6.0	perception	249	diff_vonmises	-0.12324672857423948	-7.061517386098328	0.9503648976628363	187.7275792738739	0.9366161120632007	188.15732694660633	0.34868117499398465	-0.22700296959243538	0.57568414458642	93.08643020885799
17	6.0	wm	249	diff_vonmises	-0.07303738558584794	-4.18473394073872	0.16989588972393874	141.61745776190085	0.15941700382197838	142.0823917578665	0.16764903039368662	-0.277996065474472	0.4456450958681586	160.74404127971314
18	7.0	ltm	249	diff_vonmises	0.024251698008499918	1.389519941912869	0.8359379710657964	31.867496569294357	0.777519438760995	32.55614769962422	0.14931639960113685	-0.21209756679042835	0.3614139663915652	96.14753044843454
19	7.0	perception	249	diff_vonmises	-0.10177478475371679	-5.83126562724037	0.9623446179209006	238.09245808758598	0.9453321124471004	238.51506476313364	0.6289827835848598	-0.3338085615103701	0.9627913450952299	93.98544770089676
20	7.0	wm	249	diff_vonmises	-0.06921090494695793	-3.9654927497418004	0.8369828721180395	127.4341625185043	0.8231224211476856	128.462269553609	0.020472667685965007	-0.2357511219931272	0.2562237896790922	88.89269081418576
0	1.0	ltm	250	diff_vonmises	-0.022169781782544647	-1.2702349288658272	7.775334444339175	0.406728527310224	0.10744727677157229	4.10226817854598	-0.280200826328902	-0.6778416275335192	0.3976408012046172	46.0024202763835
1	1.0	perception	250	diff_vonmises	0.05150100420093955	2.950790181399359	15.028647263371836	0.6780874773820504	0.003277193863197197	3.826067310221057	0.42877372428559957	-0.609608621182667	1.0383823454682666	34.91647132578487
2	1.0	wm	250	diff_vonmises	0.15610984781288126	8.94443542010768	6.4480870636907985	0.39380519868403646	5.1340761367476557e-26	4.767081209389245	-0.36814484229768174	-0.7587035592112576	0.3905587169135759	53.62328398629981
3	2.0	ltm	250	diff_vonmises	0.11963175765909977	6.854394809598277	5.395366264160775	0.7139646368141113	0.36333041580727204	2.074254873303536	0.18517247457693725	-0.344155844492134	0.5293283190690712	53.41807552120733
4	2.0	perception	250	diff_vonmises	0.009024836645609229	0.5170850505884118	6.588481417188676	1.3598935124060159	0.28401909474729525	3.032295648893539	0.7352797437454585	-0.50396955618374	1.2392492999291984	50.47879472810922
5	2.0	wm	250	diff_vonmises	0.08074707094352705	4.626466373107542	3.464887856949185	0.8183058737019234	0.09843421941917396	2.8129312125324435	0.08842186369184074	-0.4293806301348556	0.5178024938266963	69.41877889843519
6	3.0	ltm	250	diff_vonmises	0.09456620987080469	5.418244710145495	4.157887585421576	0.6677829479669833	0.45300075802149364	1.2825115465052113	0.2190926323277163	-0.19411394989855846	0.41320658222627477	60.13922607679831
7	3.0	perception	250	diff_vonmises	-0.039160945740641113	-2.2437569126795536	5.043482497015765	1.317008617370428	0.0624143529640174	1.9454228190347225	0.8180120820598182	-0.302980472628766	1.1209925546885842	59.98163423314776
8	3.0	wm	250	diff_vonmises	-0.031525889033431814	-1.8063003870134091	1.368548889292646	130.15666230224605	1.3420960315439538	131.20235277969465	0.19609299290767268	-0.3165793236154748	0.5126723165231475	72.76643756465847
9	4.0	ltm	250	diff_vonmises	-0.14048420490263724	-8.049152029172182	0.9676298462724531	183.41637899987265	0.9476345508469577	185.323920929138	0.06321181851285473	-0.44985031053087354	0.5130621290437283	83.04669626580349
10	4.0	perception	250	diff_vonmises	-0.06758791096674446	-3.8725020445004295	1.7452861352541802	4.2941156341750775	0.4112360917228011	6.3114639472264455	0.5860488808673672	-0.6409254704388895	1.2269743513062568	86.2162957798171
11	4.0	wm	250	diff_vonmises	-0.13954166088806175	-7.995148235131689	1.0148072522967129	251.16547422303006	0.9975836233951201	253.53635805782318	0.008845304247842023	-0.5416251158132965	0.5504704200611386	79.57939084083074
12	5.0	ltm	250	diff_vonmises	-0.08296083118204226	-4.753305491628338	2.632221756010346	0.8445918505816509	7.632430673799585e-14	1.7524830194217929	0.2340794943225034	-0.2762628525327979	0.5103423468553013	84.7712341553335
13	5.0	perception	250	diff_vonmises	-0.02937078224709771	-1.682821863756463	1.2825573242133776	6.027638606367586	0.5249320082024949	7.245671700882662	0.5549916405559026	-0.4819332905544674	1.0369249311103699	94.33009961188546
14	5.0	wm	250	diff_vonmises	-0.01893777681746195	-1.0850546850012617	0.4831256232316273	183.9835850160125	0.470248401645096	185.19963973679933	0.1478368958681031	-0.38717184549072314	0.5350087413588263	123.03587679372676
15	6.0	ltm	250	diff_vonmises	0.29361713581711446	16.823022675040136	0.842319311143155	107.77945264004025	0.8280250496744602	108.39548854672101	0.10372621267560334	-0.1763057287133023	0.28003194138890564	93.49147437356024
16	6.0	perception	250	diff_vonmises	-0.17814716889306292	-10.20708090977677	0.4664145408013015	229.35754034239608	0.4549016918217836	230.33950746456492	0.25624664048939394	-0.40229377131000277	0.6585404117993967	126.77496580416341
17	6.0	wm	250	diff_vonmises	0.39339677458786926	22.539974857944305	0.12637720272628697	124.80822493577578	0.11396517087276192	125.57236718439765	0.1245493437495675	-0.3390717553739151	0.4636210991234826	162.25556208754335
18	7.0	ltm	250	diff_vonmises	0.0157018063368012	0.8996472338304804	0.7862549960737225	87.00641762988465	0.7628382679671494	88.36532440969093	-0.01391623544017051	-0.2965435094646711	0.2826272740245006	90.40767775517864
19	7.0	perception	250	diff_vonmises	-0.046846587438017714	-2.684111744788995	0.8114981732251068	163.64883538172023	0.7892903146165864	164.61978882084065	0.4011703723979352	-0.3807241044938632	0.7818944768917984	98.94377011588817
20	7.0	wm	250	diff_vonmises	-0.09500314583553551	-5.443279296842048	0.79769272259314	106.91843814359369	0.7760553888886258	108.26053411757641	0.040394990869117464	-0.3132050154535495	0.35360000632266697	91.95070673139026
0	1.0	ltm	251	diff_vonmises	-0.07675866065320193	-4.397947296505365	2.623378644709161	0.4696043606696659	8.595527849975575e-20	3.879574405009762	-0.33279084898187805	-0.6159546300498189	0.2831637810679408	84.91682190935393
1	1.0	perception	251	diff_vonmises	0.04200787624658767	2.4068740152373356	12.261149016679632	0.6018591283103392	2.8153629901389637e-19	3.625317128053219	0.2546050992619109	-0.5769871411867507	0.8315922404486615	38.726183816416864
2	1.0	wm	251	diff_vonmises	-0.012599463073539222	-0.7218960582447258	4.909156157254755	0.4197661159557586	3.5614135266889996e-50	4.15967519022369	-0.30160259102770626	-0.662013242142813	0.36041065111510673	61.63722930530392
3	2.0	ltm	251	diff_vonmises	0.05891264030169917	3.3754456492596834	6.911469352153214	0.5573664725236538	0.13816982385032264	2.4333438540972665	0.13055831149899866	-0.39832402780317255	0.5288823393021712	49.59815740555396
4	2.0	perception	251	diff_vonmises	0.025151972918302064	1.4411018946460528	5.398276943915271	1.426126937761748	0.24949360797582046	3.523114316914924	0.5793025701374941	-0.5656396014957861	1.1449421716332802	55.29190268900038
5	2.0	wm	251	diff_vonmises	0.0863744560962696	4.9488917920542725	3.2168211925133265	0.6833643123139873	2.4627484987139835e-12	2.701830783776613	0.035620345752730376	-0.4292616468731834	0.4648819926259138	76.55535687247203
6	3.0	ltm	251	diff_vonmises	0.019593884828019013	1.1226469049109062	3.663301892845529	0.538353447019604	8.584566990470678e-17	1.6542784927354823	0.13111717700092984	-0.263027154695689	0.39414433169661883	71.62136735846119
7	3.0	perception	251	diff_vonmises	-0.014140245494692939	-0.8101763881247823	4.001292613673655	2.069982957631302	0.2581222166154004	3.3158643281462843	0.9198539697088546	-0.4902717798539313	1.410125749562786	64.37970644372157
8	3.0	wm	251	diff_vonmises	-0.12186416331541178	-6.982302231866089	1.1556408487574292	204.71453014061657	1.1379056342843599	206.15215853390495	0.14722820750186827	-0.38068870870228366	0.5279169162041519	77.70961262081099
9	4.0	ltm	251	diff_vonmises	-0.12174809337908545	-6.975651914386238	2.8669155497809102	0.7720414162412963	0.01565789700159155	2.9924354885323616	0.008946913970071968	-0.4674879557540369	0.47643486972410887	79.80748174922664
10	4.0	perception	251	diff_vonmises	-0.039176169091387665	-2.2446291464273784	1.0309447913296694	280.3279318003184	1.0057885810144984	282.83773168263104	0.471447539673008	-0.725789556329957	1.197237096002965	84.64905410965963
11	4.0	wm	251	diff_vonmises	-0.1542080725443138	-8.835471723636406	1.652221787692537	2.383033843727629	0.384475641036977	5.049752788858605	-0.043407491335494264	-0.5678243167835939	0.5244168254480996	81.97692679183118
12	5.0	ltm	251	diff_vonmises	-0.001939616337704601	-0.11113183002509504	1.7081082767139155	1.3931352708992149	0.049049374479649875	2.313330663602007	0.26657541214925506	-0.32890081111317077	0.5954762232624258	101.58328401562736
13	5.0	perception	251	diff_vonmises	-0.00977531207148981	-0.5600841251196522	2.271250750031722	1.8699052367481703	2.7415676221801327e-14	3.024852090663714	0.5597214471698035	-0.47033391365350685	1.0300553608233103	91.23517706322025
14	5.0	wm	251	diff_vonmises	-0.01800584199611856	-1.0316587529570072	0.4484291214441174	237.78995553512766	0.4379123130818703	239.03086670467323	0.17098959683044512	-0.4176437873258081	0.5886333841562532	127.1701664703023
15	6.0	ltm	251	diff_vonmises	0.45281703913070465	25.944505233799624	0.6474070029262684	160.64919949176155	0.6364855491757486	161.32565760445777	0.1489588889822926	-0.22588899579930377	0.37484788478159636	108.26824086066475
16	6.0	perception	251	diff_vonmises	-0.06432846376159294	-3.6857494760995357	0.697577398442554	203.89528053497529	0.6844963676160485	204.7788405408038	0.2593299157119233	-0.3175429223309649	0.5768728380428882	105.33605958585896
17	6.0	wm	251	diff_vonmises	0.13890069176849984	7.958423409782576	0.2847482241693263	149.91195186867824	0.27462279019939534	150.68326247635778	0.11143611848996215	-0.2954749451499943	0.40691106363995644	146.2285686722608
18	7.0	ltm	251	diff_vonmises	0.07834295194711134	4.4887205011656945	0.6382629832366501	91.47096936698651	0.6143407211648269	92.91440945123124	0.027881162321076403	-0.3403519964410524	0.3682331587621288	103.1827485707268
19	7.0	perception	251	diff_vonmises	-0.09870826680964997	-5.655567091244206	0.8658539977386348	216.74350915724685	0.8465878300257755	217.42627995788084	0.5832487018002581	-0.3863988628517099	0.969647564651968	97.88720386335254
20	7.0	wm	251	diff_vonmises	-0.16778492504656373	-9.61336807108696	0.9554794852644839	156.6480082426346	0.9365747463275973	157.95516381157648	0.13156350609502	-0.3378323722784664	0.4693958783734864	85.95421540708253
0	1.0	ltm	252	diff_vonmises	-0.009148312523751968	-0.5241596972776624	4.535905717483071	0.32322737937294543	4.154447949972834e-18	3.630425109462576	-0.3118054780492745	-0.5777695404481668	0.26596406239889225	64.1914146887728
1	1.0	perception	252	diff_vonmises	0.08844197768284925	5.067352053017478	11.295623168746502	0.752860370920326	0.11282561905568661	3.8312136412083677	0.3173625286538906	-0.640544041378067	0.9579065700319576	39.44937081864805
2	1.0	wm	252	diff_vonmises	0.14743487157194718	8.447395894125895	6.717773105630315	0.45182550976851943	6.962456691013251e-18	3.960038286672633	-0.17254479200109996	-0.6302589985973659	0.45771420659626594	52.52463027120629
3	2.0	ltm	252	diff_vonmises	0.06896612133288978	3.951467681761736	3.323343073939993	0.8465276673022365	0.27786287737976323	2.3738403943427926	0.0981333842430937	-0.3516489670208026	0.4497823512638963	66.53050792091804
4	2.0	perception	252	diff_vonmises	0.03892716489129349	2.230362256680951	5.619994355684032	1.5337518379083486	0.3568498776241701	3.439796035918489	0.6570992503931042	-0.5643623962829577	1.221461646676062	53.47663793788766
5	2.0	wm	252	diff_vonmises	0.10051412322877834	5.75903504246687	3.31955117125429	0.8323740197395616	0.09222205147019	2.364849880522684	0.16539471884114498	-0.3579772423979761	0.5233719612391211	71.57382896188315
6	3.0	ltm	252	diff_vonmises	0.07188184416294453	4.118526294153813	4.881013699769407	0.6559527130273315	0.245173992096582	1.6534578478834132	0.230255609823386	-0.26120673770753283	0.49146234753091883	57.78878272495689
7	3.0	perception	252	diff_vonmises	-0.01980902605605696	-1.1349735892767423	5.792278443321605	1.2127719163243298	2.1292504128938622e-13	1.9592985609652545	0.8250410049135077	-0.31182146777528574	1.1368624726887935	56.63842060638751
8	3.0	wm	252	diff_vonmises	0.02498044342615011	1.4312739786837234	1.1642277348881906	139.96894329154145	1.143114005225201	140.82673686197958	0.23330084942973883	-0.27412947934140064	0.5074303287711395	80.51736114636364
9	4.0	ltm	252	diff_vonmises	-0.13604162298318156	-7.794610835046243	0.9343907000049276	160.39368385115452	0.9118525267357331	162.5295033720654	-0.00644469532111458	-0.4767623541663717	0.4703176588452571	82.875321322138
10	4.0	perception	252	diff_vonmises	0.010663035367947358	0.6109469233821104	3.4594776756298726	1.3914682934070794	1.1948896842868934e-16	3.8537774524186768	0.3741218536049118	-0.6123711038031677	0.9864929574080795	73.76157397469066
11	4.0	wm	252	diff_vonmises	0.06332872089775386	3.628468429403234	1.00714045974354	223.34814399057979	0.9898541070432058	225.41544940101454	0.02799110702791552	-0.47771183767826386	0.5057029447061794	80.38140912383906
12	5.0	ltm	252	diff_vonmises	-0.1381110780506503	-7.913181876304162	1.7607234579879654	1.166898139233532	8.048489523068185e-17	2.5203189355839317	0.15605801399860464	-0.38465280523092554	0.5407108192295302	102.90995995755337
13	5.0	perception	252	diff_vonmises	-0.0698418819063368	-4.001645066484207	0.8409208281688506	145.9556008231148	0.8074167908227106	147.57170747179902	0.4406013840872518	-0.5324368330042457	0.9730382170914975	95.93987985240653
14	5.0	wm	252	diff_vonmises	0.08613940755255145	4.935424502518526	0.5229315868200868	213.30053944291186	0.5120635126021585	214.38348066747204	0.1647654401409966	-0.3542772818618616	0.5190427220028582	119.20852098582652
15	6.0	ltm	252	diff_vonmises	0.12572023349065428	7.2032387784137555	0.8350094250349712	71.71259211415395	0.8047654002627784	72.72102409005755	0.10697961812050849	-0.2643943760399674	0.3713739941604759	92.8260945718005
16	6.0	perception	252	diff_vonmises	-0.2628795290916233	-15.06188753733656	1.0492208209995477	2.0867007619524944	2.0985576520403567e-10	3.4287178796463413	0.18673558163713821	-0.4558662823264609	0.6426018639635991	126.07050946027087
17	6.0	wm	252	diff_vonmises	0.34780527836295666	19.927774542570187	0.4738573446030004	158.49030970178745	0.46115148695423713	159.35693768374728	0.16680580172412363	-0.3161035778127417	0.4829093795368653	124.7814927305565
18	7.0	ltm	252	diff_vonmises	-0.03141461839607565	-1.7999250491091703	0.6984611604997863	60.98331952689562	0.6561953655630315	62.96626179722559	-0.05701847771324964	-0.42020720692134184	0.3631887292080922	95.6262132262336
19	7.0	perception	252	diff_vonmises	-0.032995205353577806	-1.8904860109274675	1.7263548521320384	3.2791131453934406	0.29336350418399787	4.8618940850803165	0.5314220416621962	-0.5380904680297796	1.0695125096919758	90.53365699111166
20	7.0	wm	252	diff_vonmises	-0.06734744449457038	-3.858724330530454	1.0126768262942523	236.36528248236107	0.9978828219110353	237.82142816011128	0.16419438197198133	-0.38344547559164965	0.547639857563631	83.5738856582559
0	1.0	ltm	253	diff_vonmises	-0.47386704373567057	-27.15058165639512	0.4768441053491056	106.45090910049191	0.4562269953740496	110.11171722257981	-0.46548767639816546	-0.6344103400512289	0.1689226636530634	95.10961669912638
1	1.0	perception	253	diff_vonmises	0.07274184046815824	4.167800452839403	10.83576589755956	0.724277482600554	0.0007740902396286304	4.371048962221427	0.24341824006748147	-0.6956733679271602	0.9390916079946416	41.199671445491674
2	1.0	wm	253	diff_vonmises	0.17836820118363453	10.219745127162634	86.12740585567923	0.33982897281003327	1.708587561804066e-44	4.454140118514942	0.5466458830873341	-0.7088984170855736	1.2555443001729076	14.563122269885781
3	2.0	ltm	253	diff_vonmises	0.014557357814927115	0.8340751636571099	6.535452922097825	0.4910344810032669	0.060810811891888215	2.3305308602851893	0.0966110904856709	-0.37260623664601844	0.46921732713168934	51.957931914081286
4	2.0	perception	253	diff_vonmises	0.005924471630725003	0.33944722028553104	8.420568461179222	1.2245408427518367	0.133081737062356	3.369002580590799	0.7852727112452919	-0.5540914120270054	1.3393641232722973	45.7777969884327
5	2.0	wm	253	diff_vonmises	0.08200289207931769	4.698419624011671	2.3345939011590358	0.8905749773374766	8.607935767380144e-24	3.000645435778805	0.026490526410242743	-0.4728392410522089	0.49932976746245167	89.99881732133147
6	3.0	ltm	253	diff_vonmises	0.02912861328918604	1.668946604539043	5.282695611283988	0.46320161882837224	0.010613449725515662	1.1809627051367204	0.22358871872768382	-0.18692611229244205	0.41051483102012587	59.104273759665034
7	3.0	perception	253	diff_vonmises	0.031753583091284725	1.8193462955485886	2.8143451738583867	3.7371863561488086	0.7875061493358245	4.640610673057227	0.9616535325518583	-0.5008417802032041	1.4624953127550624	68.4019353932164
8	3.0	wm	253	diff_vonmises	-0.15965170979259607	-9.14736916316319	1.2346835703155241	164.21442290903823	1.2171106380538208	165.07975692597594	0.20014827502464527	-0.2672651634613068	0.46741343848595207	77.43229737564062
9	4.0	ltm	253	diff_vonmises	-0.008708312741594122	-0.4989495667733423	1.6842195134824403	3.0125559699054962	0.5902144791503168	4.922327387972647	0.10197564126008496	-0.4597239225388304	0.5616995637989153	78.52940859588125
10	4.0	perception	253	diff_vonmises	-0.12090234429097135	-6.927194061110262	1.6884208092002055	8.125047655982108	0.8324165858209417	10.073313884431936	0.6607671810082776	-0.6599610276900286	1.320728208698306	78.23756937388879
11	4.0	wm	253	diff_vonmises	-0.18097531501152422	-10.36912174621091	0.9771212966228324	221.688590382081	0.9585926021206912	223.68016396333684	0.11411842008455153	-0.4859876024466807	0.6001060225312322	83.53621717286423
12	5.0	ltm	253	diff_vonmises	-0.09866661484199656	-5.653180609289251	2.348523737116441	0.9364999619490827	6.991000954919635e-20	2.2443590798620723	0.17471896861016317	-0.3523481607000266	0.5270671293101898	89.73562256226705
13	5.0	perception	253	diff_vonmises	-0.006168626358787996	-0.35343625575170484	1.2122219855064036	7.5781485016357015	0.5708202624848161	8.843113410546465	0.5906331785675021	-0.5078563767742961	1.0984895553417982	94.78945301344288
14	5.0	wm	253	diff_vonmises	-0.08566145907475155	-4.90804007191589	0.4814064961961121	182.13066108497796	0.4691689221558551	183.574133420547	0.06704241748297335	-0.3929228771777531	0.45996529466072644	120.81803946955364
15	6.0	ltm	253	diff_vonmises	0.3559874202566876	20.396576740458148	0.744234605234667	144.35802702631577	0.7321004869244918	145.36485769135152	0.041628581063726244	-0.240783831320579	0.28241241238430526	95.6465857869803
16	6.0	perception	253	diff_vonmises	-0.07870356979588869	-4.509382381917724	0.6381786942579359	280.0122997133849	0.6284013626931864	281.0788836515103	0.23069077068566912	-0.3561137333284421	0.5868045040141112	108.96535546222218
17	6.0	wm	253	diff_vonmises	-0.20135274625254646	-11.536662553639514	0.7503572921369782	142.4087029690446	0.7350359541018914	143.5585296082658	0.08156344595722942	-0.28897559694694763	0.37053904290417705	96.57464265809672
18	7.0	ltm	253	diff_vonmises	0.11167755211420549	6.398652402496278	0.9731815111742638	15.0368210946002	0.8339484098067965	16.199426715896607	0.03797702569287509	-0.27249517025259706	0.31047219594547215	85.65640949178686
19	7.0	perception	253	diff_vonmises	-0.12049442483372522	-6.903821997828791	1.519086828060675	2.627961930450051	0.12264581027637926	3.2246097353431784	0.5690613004262282	-0.39730347904503815	0.9663647794712663	104.38846731737459
20	7.0	wm	253	diff_vonmises	-0.23432880640899587	-13.42605162557358	1.012657015881091	52.4220114663599	0.9673995470606274	53.28440620555548	0.15978867799401897	-0.24860101267126922	0.4083896906652882	85.86893144869865
0	1.0	ltm	254	diff_vonmises	-0.12525584215697094	-7.176631114951249	1.8492962090032445	0.527977426662119	2.788431220040284e-16	3.944591185058104	-0.368060903241692	-0.6213703313837865	0.2533094281420945	100.62777522895057
1	1.0	perception	254	diff_vonmises	0.08289410197805669	4.749482189869697	10.903970290559311	0.6344159400413183	0.056082424349833085	3.724932688141781	0.1991085910900282	-0.605705471249019	0.8048140623390472	40.48670654058259
2	1.0	wm	254	diff_vonmises	0.017786337536916153	1.0190820738604076	4.534450316174006	0.45882642883904784	4.842371335368101e-32	4.200452992426882	-0.29094546936410415	-0.6684793626349766	0.3775338932708725	64.1924258003688
3	2.0	ltm	254	diff_vonmises	0.08259167238972111	4.73215425085819	10.401772935206393	0.4217269693229951	0.07157858535097983	2.1428782357324336	0.16984269640876704	-0.3501209865299177	0.5199636829386847	41.36747502288725
4	2.0	perception	254	diff_vonmises	0.03901822809509683	2.235579793927822	6.311586292805323	1.3763952348476303	0.2695259558656494	3.4715780156692526	0.6392943518307604	-0.5742070654517053	1.2135014172824659	51.32029245960433
5	2.0	wm	254	diff_vonmises	0.0879375531388744	5.038450655564908	2.5104160769783666	0.9883479747793347	0.12901480490757783	2.9689954245402514	0.04854705120536129	-0.4303855097089147	0.478932560914276	79.05412607083116
6	3.0	ltm	254	diff_vonmises	0.04902968562410856	2.809194057114666	3.9374702724253137	0.608007172745253	0.2407954025031224	1.6195705323741412	0.1402146987384355	-0.24709862254172227	0.3873133212801578	63.21170740962049
7	3.0	perception	254	diff_vonmises	-0.007544472417269523	-0.4322664281624058	4.174794896050289	1.9155315703404752	0.25331685934452963	3.0130211900432546	0.8993039172334508	-0.4493826696154576	1.3486865868489084	63.28209238036041
8	3.0	wm	254	diff_vonmises	-0.044816549892511104	-2.5677991611783697	1.0941061533025256	213.95085976868245	1.0786957223759006	215.2941163696807	0.13931749483239741	-0.352803771483039	0.4921212663154364	79.99828901792316
9	4.0	ltm	254	diff_vonmises	-0.09322889256458655	-5.3416220726293915	1.4249192439147942	2.60110635870967	0.45643570696482344	4.850569111833616	-0.06523612126323441	-0.472792572215769	0.40755645095253457	83.1787056488308
10	4.0	perception	254	diff_vonmises	-0.036360208885199925	-2.083286511336032	1.05194407764996	276.7210432996974	1.0280088854648866	279.1239819427888	0.41445945288117514	-0.6826695553183058	1.097129008199481	83.4311416484214
11	4.0	wm	254	diff_vonmises	-0.01873484659644809	-1.0734276398015106	0.8888757614676689	215.97513709300287	0.8716950469668495	218.5090053063117	-0.09674132294762217	-0.5344070402614314	0.4376657173138092	82.59408540204112
12	5.0	ltm	254	diff_vonmises	-0.07689369492173755	-4.405684190182092	1.8733274075216921	1.0794882234394885	3.735569726663982e-20	2.341505947546907	0.16255673020072642	-0.36003173898625607	0.5225884691869824	100.04776322653098
13	5.0	perception	254	diff_vonmises	-0.0416606938554162	-2.38698192950195	1.6777816505718763	2.8314111501991484	0.21924225890594234	4.303093719881941	0.4701954939690449	-0.5046553893471989	0.9748508833162438	94.19724984727947
14	5.0	wm	254	diff_vonmises	0.03971404320292941	2.275447062928069	0.438970008438767	224.69622872260976	0.4286372180879151	226.17862701428194	0.082810868927929	-0.4238891450747033	0.5067000140026323	126.20604727133139
15	6.0	ltm	254	diff_vonmises	0.433613955719486	24.84424960069911	0.5859136106435305	179.93072374675845	0.5752384918959409	181.09241611746717	0.059765597571512785	-0.29851779720524974	0.3582833947767625	109.15420758258674
16	6.0	perception	254	diff_vonmises	-0.10380264974759686	-5.94745373281202	0.6519535333168289	280.56164600332556	0.6406700259156721	281.87798004817364	0.24181561880276092	-0.4140668475755547	0.6558824663783156	107.18214357447035
17	6.0	wm	254	diff_vonmises	0.18710609911035012	10.720389800179548	0.2562717201670198	172.7224946762375	0.24545083170421883	174.10675866586783	0.05208331636740127	-0.4260171617167856	0.4781004780841869	148.40270431372954
18	7.0	ltm	254	diff_vonmises	0.06277648944028369	3.5968278975758348	1.4060815186691253	2.329248431405299	0.4712901217845326	4.211525621358588	-0.04633624944461867	-0.39876888322307974	0.35243263377846107	83.35606105014446
19	7.0	perception	254	diff_vonmises	-0.04181712888065415	-2.395944996216107	0.7965193345205933	193.66207594145254	0.7727780752248539	194.7691067789791	0.5476090279561063	-0.4768392641150623	1.0244482920711686	100.58151126376184
20	7.0	wm	254	diff_vonmises	-0.20938666084873161	-11.996971952969472	0.9230373445511002	198.12372069914767	0.9069114469550527	199.79702610337873	0.06581753954196756	-0.39645570901622307	0.46227324855819063	85.32552878153882
0	1.0	ltm	255	diff_vonmises	-0.02099047530144485	-1.2026656447463844	7.523735826832475	0.27181219060450706	0.007460814460484684	3.8804221771657055	-0.3300625926765207	-0.617798232471189	0.2877356397946683	49.136563865708325
1	1.0	perception	255	diff_vonmises	0.0777155936245005	4.452775517037687	13.953276195985074	0.6542139293244341	0.033898455476094665	3.742316527327396	0.34949899929392936	-0.604864708328802	0.9543637076227314	36.040525385273924
2	1.0	wm	255	diff_vonmises	0.15320568202149623	8.778038977255049	6.437030489022633	0.41954922202947864	2.5149336116304923e-34	4.530210445251151	-0.3053063728694589	-0.7210043197798156	0.4156979469103567	53.67197189669261
3	2.0	ltm	255	diff_vonmises	0.12473779677230465	7.146949300813639	7.604315539366965	0.5260740188380969	0.22844424759243157	1.9569170432689607	0.1822423254910751	-0.3321726508093888	0.514414976300464	46.808038393352376
4	2.0	perception	255	diff_vonmises	0.02755918879866662	1.5790252049678108	7.091922707033045	1.3498491187762791	0.2815727868075828	3.148003671680328	0.7556904428307901	-0.5299208135163844	1.2856112563471744	48.750207907648274
5	2.0	wm	255	diff_vonmises	0.07533058023204833	4.316124315567999	2.4054725414040714	1.2453963756718933	0.24734891522559602	3.2137420848425986	0.07236835892467497	-0.44054532728248386	0.5129136862071588	76.59382459559563
6	3.0	ltm	255	diff_vonmises	0.10964051765571393	6.281938925301995	3.8420316528243794	0.7149944853005985	0.5297864675557181	1.417604794398	0.18002795391325238	-0.21043282326443635	0.39046077717768873	60.73904444430511
7	3.0	perception	255	diff_vonmises	-0.029353392176764616	-1.681825486120941	5.159437418274275	1.3014210623761273	0.04114645607490504	1.982850164477559	0.8187382524359949	-0.3105167142680913	1.129254966704086	59.526611766184374
8	3.0	wm	255	diff_vonmises	0.0058883349389399564	0.3373767403606828	1.6897946454272805	4.004672855038053	0.9408216616136466	5.079711805802621	0.18609269787811655	-0.31246201729356776	0.4985547151716843	74.23793149766146
9	4.0	ltm	255	diff_vonmises	-0.12049507073841882	-6.903859005441703	0.9351052915921045	177.64075981145095	0.9158968240833614	179.7461740347008	-0.03683869528021688	-0.46068377391158677	0.4238450786313699	81.90126342148815
10	4.0	perception	255	diff_vonmises	-0.04883152129546081	-2.797840077433107	1.066264761145559	26.64314103654274	0.8408547172427787	28.824507458221316	0.45993005453603786	-0.6494421619055459	1.1093722164415838	88.12130165365718
11	4.0	wm	255	diff_vonmises	-0.04052408860128337	-2.3218592454677447	1.0262014698600004	253.4745765101821	1.0100625143078508	255.8826753351487	-0.05485904341591663	-0.5331495761136793	0.47829053269776267	77.63450414969626
12	5.0	ltm	255	diff_vonmises	-0.11464452607890135	-6.568647488598549	2.3613373541132914	0.838110402984805	1.107446322994612e-14	1.9759413660374099	0.1630816565311552	-0.310234084946594	0.4733157414777492	89.49338519200572
13	5.0	perception	255	diff_vonmises	-0.046120934739511704	-2.6425349077723217	0.8739358028114494	82.10834616608193	0.8149563642527706	83.52452492050452	0.49005004885444237	-0.5062592048012595	0.9963092536557019	95.64043279149453
14	5.0	wm	255	diff_vonmises	0.035332148194509944	2.0243829726761913	0.5026270571471548	185.46002917336816	0.49008884833491373	186.8130755344384	0.10302254566192204	-0.3874264812772772	0.49044902693919923	119.49188546819252
15	6.0	ltm	255	diff_vonmises	0.310066124334623	17.76548029435253	0.7821888568822369	142.2279936187473	0.7695194154774176	143.1713381064699	0.06315307701664352	-0.23413127780272092	0.29728435481936444	94.22404112827522
16	6.0	perception	255	diff_vonmises	-0.20035572935401366	-11.479537693250363	0.48524826359885875	239.92652891581687	0.4731101618011124	241.15507482355116	0.24548567274472788	-0.4497198870729626	0.6952055598176905	124.05572046725466
17	6.0	wm	255	diff_vonmises	0.3318947366490348	19.01616765259562	0.20709820099858225	111.12934359999328	0.19039469917698662	112.34180717762835	0.09022641455369751	-0.42159976699787194	0.5118261815515694	153.92558011738464
18	7.0	ltm	255	diff_vonmises	0.08265986599765829	4.7360614567827595	2.0250490268494907	1.1029505004453526	0.35791083700661114	2.8463544697203256	-0.05441522015443789	-0.3632054417488485	0.3087902215944106	76.05928458385091
19	7.0	perception	255	diff_vonmises	-0.018657035805808977	-1.0689694098973133	0.8340339021449791	79.7072691559115	0.7816807953722252	80.86832496244249	0.44833202438762143	-0.4403716736016108	0.8887036979892322	98.23615819787173
20	7.0	wm	255	diff_vonmises	-0.1695604494955418	-9.715098128435693	0.8006358887018638	168.1741672334017	0.7849106900231567	169.83394485104208	0.005831726935163317	-0.3706199895434992	0.3764517164786625	90.16521934322651
0	1.0	ltm	256	diff_vonmises	-0.18131434035345637	-10.3885464674516	1.237948992603623	0.7350766050765595	5.350657496968662e-18	4.055247007676041	-0.36158781045382127	-0.6215451454612456	0.25995733500742435	119.13005975605057
1	1.0	perception	256	diff_vonmises	0.10660224503395584	6.107858727065109	7.872303781668212	0.7105831439462618	0.1265060244391485	3.9352771500915296	0.07397248593006212	-0.6500689180626551	0.7240414039927172	46.49645595923215
2	1.0	wm	256	diff_vonmises	-0.03159405673208346	-1.810206108445268	4.176238900730894	0.4661267408418729	7.369338433817792e-25	4.0989154170608835	-0.2854735149154991	-0.6522761292988687	0.3668026143833696	66.96323948176314
3	2.0	ltm	256	diff_vonmises	0.058137744364723715	3.3310473825091544	11.46076300396997	0.3879833616142248	0.008653564912201001	2.176384607274964	0.16855622130007153	-0.347127814218845	0.5156840355189165	39.961143207167765
4	2.0	perception	256	diff_vonmises	0.04401026921337191	2.521602681160752	5.982553905803027	1.3897268170769903	0.2850866074111712	3.649542454128024	0.5678750766403892	-0.6019671462889821	1.1698422229293712	52.312028846973305
5	2.0	wm	256	diff_vonmises	0.11413175147081628	6.539267667713799	2.2414207680334712	1.0695031985144154	0.1291890577946332	3.051099175027459	0.04054368600625535	-0.4336125569237762	0.47415624293003156	83.10610879349812
6	3.0	ltm	256	diff_vonmises	-0.012501551595438252	-0.7162861437836526	3.789134563922801	0.6830158981878564	0.2731243279792771	1.81358586514615	0.13745070098543488	-0.2748502605366641	0.412300961522099	63.59899092752349
7	3.0	perception	256	diff_vonmises	0.008958695174998544	0.513295423471631	3.366713897626681	2.84013070020591	0.4969093329510517	4.202635881823425	0.9505854586480771	-0.565556479587095	1.516141938235172	66.37056992211805
8	3.0	wm	256	diff_vonmises	-0.06855971589941068	-3.928182365652199	0.9831092645004894	286.2267386631248	0.9719486391412301	287.7241948126696	0.1016885320763663	-0.3710037621955351	0.4726922942719014	83.46780000484355
9	4.0	ltm	256	diff_vonmises	-0.05852952003586364	-3.3534944749813773	1.4267775158921123	2.783347049323845	0.4887866930057089	4.97947519793158	-0.04852723498997813	-0.46808208501919374	0.4195548500292156	82.5488275481517
10	4.0	perception	256	diff_vonmises	-0.04320337764597961	-2.4753711998244774	1.1556806336966572	311.8393692278004	1.133515875872129	314.1897197078513	0.4245681671990411	-0.6802113380719064	1.1047795052709475	79.47537855044672
11	4.0	wm	256	diff_vonmises	0.051997768920441376	2.9792527032378135	0.7700228104552557	206.99467044739168	0.7543480193466048	209.4815101905013	-0.11391735783474388	-0.5108414858333497	0.39692412799860577	88.34950266521074
12	5.0	ltm	256	diff_vonmises	-0.07171412695487446	-4.108916805979681	1.6829633854292023	1.2031262896017052	9.607690660773978e-13	2.677121318486901	0.13281697449385121	-0.40677836170485493	0.5395953361987061	105.05538717188055
13	5.0	perception	256	diff_vonmises	-0.05234704695347909	-2.9992648604075054	1.5771619178704597	3.072989328500767	0.24343488377084954	4.73070250344994	0.4258549232404003	-0.5317157542772705	0.9575706775176708	95.15730549150578
14	5.0	wm	256	diff_vonmises	0.05844833850020248	3.348843115613602	0.34920168239229116	183.70873411495648	0.3374752037920375	185.4396427810407	0.014652973029676275	-0.46727081060939923	0.4819237836390755	136.03937474818628
15	6.0	ltm	256	diff_vonmises	0.4865641035968424	27.878069598665228	0.4165855317985136	197.63420539463954	0.40685385873974933	199.16220553278038	0.0031013477142423085	-0.38907947024828715	0.39218081796252946	125.51451405535826
16	6.0	perception	256	diff_vonmises	-0.04763161146963412	-2.72909030861696	0.7598574586532524	338.5900890529245	0.7489692988741257	340.2089181698665	0.22804988701979312	-0.45387544652109213	0.6819253335408852	97.93229792075806
17	6.0	wm	256	diff_vonmises	0.13094781711135214	7.502757256931461	0.25024364115907316	142.49718848865007	0.23697478191384977	144.26818766290458	-0.019727178473669227	-0.4798017767671361	0.46007459829346686	148.68152343605217
18	7.0	ltm	256	diff_vonmises	0.037387903134685284	2.1421690544614074	1.206068427666578	4.139065915624273	0.5903977837724086	6.144879860437806	-0.04673916716098936	-0.4288979540059752	0.38215878684498583	83.95176136770897
19	7.0	perception	256	diff_vonmises	-0.04164130301004204	-2.3858709159008202	1.0460789655599392	7.509532780643575	0.43412582315903875	8.813622278279388	0.5646215871923297	-0.5458380474684188	1.1104596346607485	104.23614429709372
20	7.0	wm	256	diff_vonmises	-0.22807534072337304	-13.067754434457507	1.0159889027722222	230.83434474736788	1.0002355426032805	232.56123585605576	0.0972492203350015	-0.42277219883818873	0.5200214191731902	81.72648181833202
0	1.0	ltm	257	diff_vonmises	0.034260453349941024	1.9629793811564635	4.402478950291134	0.39218057171408055	1.2034551432084469e-20	2.6845423242718436	-0.10962166677419877	-0.4272105392196978	0.31758887244549905	65.17423880767723
1	1.0	perception	257	diff_vonmises	0.03215005456106957	1.8420624374646088	14.73555623508098	0.5529715033212936	0.048687723657311596	2.8449436400792854	0.3642728830909423	-0.46376702562536615	0.8280399087163084	35.012925884824796
2	1.0	wm	257	diff_vonmises	0.03188564917724084	1.826913124890686	4.462056049832213	0.5237416293428501	0.06850583471255862	3.0083354300841414	-0.08487047709809953	-0.4738212051940618	0.38895072809596226	61.56661471843128
3	2.0	ltm	257	diff_vonmises	0.09790672288030804	5.609642006998581	4.0814253996663306	0.7437032093597521	0.3489904695462039	1.897747902961612	0.1626363653070545	-0.2926846679678373	0.4553210332748918	60.5960864473536
4	2.0	perception	257	diff_vonmises	0.02878425645182711	1.6492164111119034	4.978623401432179	1.4446073792372134	0.42052104046385	2.880764908512494	0.5814103562610518	-0.4597643408863614	1.0411746971474132	56.064688329043065
5	2.0	wm	257	diff_vonmises	0.1091377699352214	6.25313360275795	2.7760010064747664	0.868477155735441	0.1677686599725771	2.063429240419689	0.15835667945696041	-0.29589903537032086	0.4542557148272813	75.6683176432509
6	3.0	ltm	257	diff_vonmises	0.015796383303895812	0.9050660948841494	2.8534617263526876	1.2378856602224464	0.6899994135921026	2.09381289438955	0.19602612681415965	-0.2604402620934148	0.45646638890757446	65.98310397930373
7	3.0	perception	257	diff_vonmises	-0.0347880250579979	-1.9932070134186304	5.0426217393281165	1.5286182558007848	0.15206742238776494	2.30440945692062	0.9069937399180708	-0.3563668165616357	1.2633605564797064	59.068315653055464
8	3.0	wm	257	diff_vonmises	-0.027817605632617416	-1.5938313989083244	1.136060022682996	155.67383805061965	1.1170404371263092	156.62996364596023	0.20472477466734773	-0.28661329288289394	0.4913380675502417	80.7093790069276
9	4.0	ltm	257	diff_vonmises	-0.11090495272962227	-6.354385718505255	1.1114638658901121	148.40568931318197	1.089728886182808	149.89532379886242	0.06964191254736818	-0.36597554745746663	0.4356174600048348	77.7108855815182
10	4.0	perception	257	diff_vonmises	0.0051639249275869286	0.2958711040731303	3.5409244498550274	1.4779364721648807	4.746835801317439e-13	3.5260777668320085	0.5013361486286673	-0.560299865901133	1.0616360145298003	72.88369763851642
11	4.0	wm	257	diff_vonmises	0.05419683799075926	3.105250079824786	1.0333060772768832	232.09400670067475	1.0178210090025666	233.96558013686757	0.032466136308627824	-0.4367704749837671	0.4692366112923949	79.43654741908844
12	5.0	ltm	257	diff_vonmises	-0.05504345680048084	-3.1537577644782218	1.5821238837943479	1.2752305251606557	7.122341212850349e-20	2.139482605015551	0.2300194082229871	-0.3164064568238199	0.546425865046807	107.9567203803897
13	5.0	perception	257	diff_vonmises	-0.06332316878545402	-3.6281503168010705	1.9904367951964315	1.9693410058838845	0.06712583931922793	3.193102224466025	0.470102343383063	-0.4557572613020233	0.9258596046850863	93.90301576285484
14	5.0	wm	257	diff_vonmises	0.1418296494911574	8.126240325663103	0.40156206452560056	84.84783084387567	0.3786660959731042	85.76194809450557	0.15057352239110955	-0.33630530737349495	0.4868788297646045	133.49109672915665
15	6.0	ltm	257	diff_vonmises	0.18661756162828722	10.692398664323397	0.679808537524838	118.87501631293554	0.6648714904476443	119.5884273872457	0.13972243678055207	-0.22532103359159983	0.3650434703721519	105.25360906771101
16	6.0	perception	257	diff_vonmises	-0.16425676986086643	-9.411219669479308	0.7106207552242959	113.16800187749057	0.6839809401640639	114.31885830191992	0.2505492790674566	-0.3706486288207156	0.6211979078881722	103.69507187595147
17	6.0	wm	257	diff_vonmises	0.22366402165919094	12.815004469994273	0.4344602428858135	162.7751278814186	0.42334803717260433	163.51412496745542	0.16201783726788221	-0.2903797866422231	0.4523976239101053	129.5932325455697
18	7.0	ltm	257	diff_vonmises	-0.09455868750713112	-5.417813710455037	1.542182308147534	1.1688230242965418	0.06816382318583732	2.6549576951233784	0.0630141072495643	-0.3706886217555815	0.4337027290051458	103.39652376927353
19	7.0	perception	257	diff_vonmises	-0.02544232369298477	-1.4577377686137258	0.8848734428876257	248.02851874351325	0.8637473012752784	249.47353313127982	0.5426498980186523	-0.528962445949805	1.0716123439684573	94.23977100863235
20	7.0	wm	257	diff_vonmises	0.0016278519436912435	0.09326904604567599	1.0742447956490273	235.5941625380053	1.06034810395005	236.912813562312	0.14966335648122708	-0.34960579950088544	0.4992691559821125	80.99912458052842
0	1.0	ltm	258	diff_vonmises	-0.010083192964408795	-0.5777244008766292	6.2658139895339104	0.2789037410289998	1.1795761365407529e-20	2.8008525490312413	-0.173334988855312	-0.44576854405439226	0.27243355519908025	54.419826822198644
1	1.0	perception	258	diff_vonmises	0.06422685816513014	3.679927904247308	14.569226827686958	0.6357994758451838	0.02488489437734617	3.0041899311615703	0.4692653649510411	-0.48340316235699426	0.9526685273080353	35.348871933123604
2	1.0	wm	258	diff_vonmises	0.1346820585031268	7.716713528363208	6.0641087121445985	0.43371117458220776	1.6078320041772855e-31	3.203475094398997	-0.09337268507473073	-0.5098466450282346	0.4164739599535039	55.33027190417772
3	2.0	ltm	258	diff_vonmises	0.16365684556349802	9.376846539212748	5.580826742788425	0.5705452177137708	0.3323545979851403	1.6328000275729153	0.17187362157058006	-0.27040273652217073	0.4422763580927508	53.106350064306014
4	2.0	perception	258	diff_vonmises	0.019232371077814683	1.1019336927882515	7.071172260956732	1.2950895000003475	0.3306167073350417	2.552112545900261	0.7976004997680936	-0.4319001400906904	1.229500639858784	48.7840236696978
5	2.0	wm	258	diff_vonmises	0.09880107747475134	5.660884750648317	2.5532521036829134	1.0045335845305117	0.20674817518444902	2.2706540822529235	0.15969712278953313	-0.31507732196199195	0.4747744447515251	77.33029984813211
6	3.0	ltm	258	diff_vonmises	0.120811959472988	6.922015392507758	3.785061799923109	0.8411535646788281	0.8051880125193779	1.3874295054755306	0.2047881176354981	-0.1968380317737957	0.40162614940929375	58.87535754134825
7	3.0	perception	258	diff_vonmises	-0.02638634218459912	-1.5118260439655342	5.537751078244321	1.140406502983184	0.0030204815334478057	1.4972919492793952	0.8047605193169132	-0.2377224423801718	1.042482961697085	57.916329775340756
8	3.0	wm	258	diff_vonmises	0.023906537756988148	1.3697437162455706	1.9838160673621075	2.0816533757110074	0.8234148431764464	2.679762445339071	0.24292514198834836	-0.21549722214572398	0.45842236413407234	74.7814928193522
9	4.0	ltm	258	diff_vonmises	-0.03340336634973469	-1.9138719133691122	1.2268586375654744	175.95504628975567	1.2079878598239369	177.47515065158672	0.03317107787809448	-0.37327306820939654	0.406444146087491	72.81026836579142
10	4.0	perception	258	diff_vonmises	-0.0194647041958994	-1.1152453998956204	3.118210736705629	1.6011457628041537	3.894110253046107e-16	3.4618192351502928	0.5209938678016083	-0.5488679576139184	1.0698618254155265	77.7842976104208
11	4.0	wm	258	diff_vonmises	0.017013605645428552	0.974807797783007	1.2165968086466463	271.70273480053754	1.2020385883655365	273.396895915435	0.08669293226751051	-0.428882031828131	0.5155749640956415	74.10192230600873
12	5.0	ltm	258	diff_vonmises	-0.16985332301209521	-9.73187854486536	1.7278586079123335	0.9364121200727071	1.6010383646127763e-24	1.9337115040730084	0.13425836445043793	-0.293807066216487	0.42806543066692493	103.76903736629707
13	5.0	perception	258	diff_vonmises	-0.05217080953959885	-2.9891672003998675	0.8649899542435528	103.22815459610499	0.8215000879803811	104.41160613355444	0.49256365092563215	-0.4574359115880746	0.9499995625137068	96.37195563908148
14	5.0	wm	258	diff_vonmises	0.16718282364113926	9.578870201717242	0.5954095885405203	73.66064631402604	0.5692109495365575	74.52152449865577	0.14097422141353633	-0.27365386736348096	0.4146280887770173	112.71970614467281
15	6.0	ltm	258	diff_vonmises	0.20599207604353395	11.80247657043241	0.9099761725392546	130.1460033942308	0.8960403154805494	130.95735120582032	0.08415057542325144	-0.21057818330473665	0.2947287587279881	88.16849018930793
16	6.0	perception	258	diff_vonmises	-0.2838772754938613	-16.264969785470807	0.5304498986653094	122.70854531112649	0.5074482917576257	123.76907550375826	0.2658673895610768	-0.4084248624363713	0.6742922519974481	120.48863484295599
17	6.0	wm	258	diff_vonmises	0.2195089839671998	12.576938346525402	0.48582637424600544	148.64790430174514	0.4719428726625834	149.52462170971953	0.172659737913321	-0.31944411493800295	0.49210385285132396	123.98320726808578
18	7.0	ltm	258	diff_vonmises	0.0008774725740854603	0.05027547513357732	2.5118185603435146	0.6446661067856307	0.10107451189147583	2.154357283869031	0.0026171309617438188	-0.3172917731944588	0.3199089041562026	79.81826971574944
19	7.0	perception	258	diff_vonmises	-0.013392723135024927	-0.7673465118241449	1.912215376315693	2.6664326375009866	0.26630414882806425	3.911548781984539	0.5403869725952142	-0.45938359072900703	0.9997705633242212	88.18081202684039
20	7.0	wm	258	diff_vonmises	-0.0034991411378563556	-0.20048601911977373	0.8723795120812098	158.33710817511397	0.8561224425351885	159.66162894951785	0.07459120329810531	-0.3211971939714253	0.39578839726953063	88.62152917432283
0	1.0	ltm	259	diff_vonmises	0.016943375315893853	0.9707838963068558	7.39824018491967	0.504442518718843	0.11138867760750921	3.0512385347068696	-0.0036823209557073078	-0.4999491485315302	0.4962668275758229	47.912098410078016
1	1.0	perception	259	diff_vonmises	-0.014831081965562433	-0.8497584022393168	17.162628957522738	0.5830627268087677	7.272659445311007e-18	3.1434814671191833	0.45607880138564194	-0.5003006140097801	0.956379415395422	32.684963029927616
2	1.0	wm	259	diff_vonmises	0.022564807092088728	1.2928682119035522	4.662987611766361	0.40669611193075056	6.262872304078614e-13	3.545784205513413	-0.22460682470727056	-0.5642988172834043	0.3396919925761337	63.28285385894759
3	2.0	ltm	259	diff_vonmises	0.09629809317365157	5.517474314007798	3.794376019782665	1.0839020768315184	0.6087175369187645	2.105691991658245	0.24686723885261996	-0.31062056901128343	0.5574878078639034	60.04115423523484
4	2.0	perception	259	diff_vonmises	-0.014121035267905124	-0.8090757232063513	4.7879952677191016	1.3440015947773956	0.36644295364550844	2.6585299928196098	0.5483426382743515	-0.417272671936358	0.9656153102107095	57.605988836058344
5	2.0	wm	259	diff_vonmises	0.1124505990033603	6.442944726610566	3.8111606467471915	0.6195463818614402	2.3622502192465724e-14	2.0815872430421516	0.13254536039963255	-0.3310678420029295	0.46361320240256204	70.18722065978045
6	3.0	ltm	259	diff_vonmises	-0.026977919224769296	-1.5457209116241264	1.5239075630656111	116.59483082911983	1.4986591170293746	117.22892910967467	0.2392046966057535	-0.23593488844944588	0.4751395850551994	70.74589747560105
7	3.0	perception	259	diff_vonmises	-0.039604548739674846	-2.2691734923035325	3.258868618867058	2.740616701560553	0.5474998224203066	3.6493308822822392	0.9480998206203808	-0.46994497551789455	1.4180447961382754	67.25658975224968
8	3.0	wm	259	diff_vonmises	-0.1468177525206538	-8.412037577029666	1.1872663140414903	138.50278442364598	1.1624826950934928	139.79463046471085	0.1555426784857019	-0.3510082967233288	0.5065509752090307	77.16251570792494
9	4.0	ltm	259	diff_vonmises	-0.0694462298776311	-3.9789758750835817	1.16248864701768	58.14901418460879	1.1024020703520048	59.32550688117961	0.22679217494284032	-0.34458839396554897	0.5713805689083893	80.13517880128057
10	4.0	perception	259	diff_vonmises	-0.0636105618697164	-3.6446167275905528	2.2163549458270784	3.516035089661503	0.406884350564935	5.127975923249949	0.7526219074070148	-0.5871699425377542	1.3397918499447692	79.677115938034
11	4.0	wm	259	diff_vonmises	-0.17538030429610668	-10.048551245887014	0.9306039998534068	241.08479001050847	0.913749322762613	243.12808717628207	0.10823909374545337	-0.4938388183222244	0.6020779120676778	85.51929310980397
12	5.0	ltm	259	diff_vonmises	-0.00833955273670736	-0.47782117484010717	1.6771058454628072	1.5088862607692108	0.1320482337039444	2.0082596435525173	0.3362479450210706	-0.25443290995533396	0.5906808549764045	99.22316975193439
13	5.0	perception	259	diff_vonmises	-0.01328039735438592	-0.7609107186630174	2.2340753370497404	1.90116485880281	1.3248293968903064e-18	2.873185229421877	0.5909450670819252	-0.4452595706043477	1.0362046376862728	91.97384389739963
14	5.0	wm	259	diff_vonmises	0.11871002226063647	6.801583261438521	0.3318603213304861	5.008942264711424	2.759865779906638e-18	6.0846617714901585	0.11256779210253365	-0.411774937544352	0.5243427296468857	160.87638607235206
15	6.0	ltm	259	diff_vonmises	0.3167741009367098	18.149819042724612	0.6882541325763222	111.81607179437364	0.6759234644983442	112.16164688275906	0.16581614543277468	-0.1564720693868189	0.3222882148195936	107.85434564611984
16	6.0	perception	259	diff_vonmises	-0.041699460830867674	-2.3892031135798066	0.7305047131507517	234.77113334676758	0.717476706933944	235.7658236169843	0.2971190496159579	-0.35325314713238143	0.6503721967483393	102.91565773150597
17	6.0	wm	259	diff_vonmises	0.1727900449612034	9.90014031815269	0.2619069812406822	101.57562528005691	0.24843663339935876	102.16258158218632	0.12360944609153535	-0.2587722469584435	0.3823816930499788	149.35364693047825
18	7.0	ltm	259	diff_vonmises	-0.06493647301625963	-3.7205858402968315	0.8609365822621797	1.7074468259040159	6.256768077583342e-10	2.5916517017005076	0.12583840047385708	-0.3162590408145022	0.44209744128835926	134.56417596858233
19	7.0	perception	259	diff_vonmises	-0.038762418328325075	-2.2209229739335745	0.8126998041631591	281.2511976101674	0.7984675872428657	282.3018968244439	0.44564676296019456	-0.4159724441551802	0.8616192071153748	98.71009882470008
20	7.0	wm	259	diff_vonmises	0.05663717250405732	3.245070948036877	1.0329693175994075	199.01451681007006	1.0187327856613142	200.08096509905442	0.1665185943232501	-0.2968530499623796	0.4633716442856297	83.70116205338968
0	1.0	ltm	260	diff_vonmises	-0.06632095171323317	-3.799910626459187	1.632515022636486	0.8113864906704246	6.911266655870581e-11	4.2455152322709635	-0.30569875956883363	-0.6615621661232058	0.3558634065543722	106.48379816322254
1	1.0	perception	260	diff_vonmises	0.05504570512963142	3.153886584249506	10.50218628182937	0.6014446258488916	4.425030552400433e-14	3.8484929279007574	0.15535842628296126	-0.6125066723498377	0.767865098632799	41.869346155970106
2	1.0	wm	260	diff_vonmises	-0.32762705056041125	-18.771647251430796	0.36821228987164323	3.1425740004479867	1.8478620308024311e-22	6.814972345312106	-0.38572953916436326	-0.7499819373904587	0.36425239822609545	157.22801642196185
3	2.0	ltm	260	diff_vonmises	0.05594680969274343	3.2055160726158047	6.181010110063677	0.5985793052739207	0.077729391461764	2.6828398073848048	0.11980149135313384	-0.4290799429550774	0.5488814343082112	53.124936628087085
4	2.0	perception	260	diff_vonmises	0.041673448196267476	2.3877126994031994	4.081678512412405	1.6508483325079213	0.29692197778227264	3.948228008000009	0.4559356125571513	-0.6033792429383991	1.0593148554955505	61.768535600885315
5	2.0	wm	260	diff_vonmises	0.13707409898052297	7.853767352142467	2.2990918162243856	0.8655718086677193	1.3378290578435874e-27	2.8911242215161943	0.025341066839728366	-0.45524782302626476	0.48058888986599313	90.66784205683419
6	3.0	ltm	260	diff_vonmises	0.08157234898023664	4.673751321535844	2.4490234281905643	0.7412939017430875	0.009736297709854071	2.2530522810211115	0.06952433063887847	-0.35188115723882624	0.4214054878777047	87.11063037561368
7	3.0	perception	260	diff_vonmises	0.012127192758353047	0.6948369623952448	2.716829721155001	3.988974450795701	0.5852439647133215	5.750859921878957	0.9566690285266028	-0.6798241000591105	1.6364931285857134	70.73164529730349
8	3.0	wm	260	diff_vonmises	-0.09594766106428101	-5.497396033134999	0.9039517330760144	100.4979803558667	0.8677424109438264	102.35765780416918	0.10472606523565275	-0.45101999472541543	0.5557460599610682	87.48675444673825
9	4.0	ltm	260	diff_vonmises	0.00021521891914430308	0.012331135738335882	2.9521121194079183	0.904412237739118	1.3299145190831562e-18	3.2934094748875893	0.06277333997703405	-0.5225612970054487	0.5853346369824828	79.98557770824758
10	4.0	perception	260	diff_vonmises	-0.02124577364371918	-1.2172931622753898	1.075394665212293	496.1881657650878	1.060464542595315	498.895104369979	0.4362175953337726	-0.7600897417922567	1.1963073371260293	82.05137013791693
11	4.0	wm	260	diff_vonmises	-0.14055789507612323	-8.053374165104517	2.2863186844817354	1.3774276053447685	0.11614421110291404	4.208490762325561	0.02025004004353026	-0.6059000414415985	0.6261500814851287	82.68669253401947
12	5.0	ltm	260	diff_vonmises	0.05965636305709916	3.4180578242719433	0.560828027195698	85.88188117324992	0.5290016260883246	86.89706029379704	0.2581005342753322	-0.38503783819376736	0.6431383724690996	118.11029044050062
13	5.0	perception	260	diff_vonmises	0.0104953289045222	0.6013380508307838	2.305681989398296	1.9059263365451302	1.7986268931939925e-18	3.214499081951477	0.5591530492297232	-0.5009607813336193	1.0601138305633424	90.56171525051599
14	5.0	wm	260	diff_vonmises	0.07788693994293674	4.462592937919188	0.3707935902300163	234.74310897641487	0.3602820615326407	236.16521548472141	0.13488332084466492	-0.46384672856896003	0.598730049413625	135.4472419482196
15	6.0	ltm	260	diff_vonmises	0.5281459965798055	30.26053657075367	0.5802228990010483	205.99788716663838	0.5700137116053087	206.88113546714973	0.1674667393685212	-0.2950560534867712	0.4625227928552924	113.69470046235818
16	6.0	perception	260	diff_vonmises	0.03324347173460635	1.90471062675539	0.7690919150472146	195.39349273505977	0.7532554125678547	196.52648689710958	0.2569066134536584	-0.3591631651983924	0.6160697786520508	99.24654625960176
17	6.0	wm	260	diff_vonmises	0.013942273436529389	0.7988334247304925	0.43045769648516563	144.0427624714436	0.4185818487687257	145.0020455127533	0.09324777888981117	-0.30187457650577976	0.39512235539559093	128.4873023570359
18	7.0	ltm	260	diff_vonmises	0.15000801512899	8.594826160025729	0.5699195814186123	3.007086487376305	1.038484205487304e-14	4.6226978369647425	0.04571954956867985	-0.4857569883225303	0.5314765378912101	148.18047281555158
19	7.0	perception	260	diff_vonmises	-0.08299568242568231	-4.755302320799695	0.9196301124867711	225.95308860708897	0.8976663806455198	226.66495287500905	0.71535087567662	-0.4361760609068135	1.1515269365834335	95.42658265566699
20	7.0	wm	260	diff_vonmises	-0.11450486083931878	-6.560645259825783	1.0609340382391057	187.43754387289357	1.0392353083364436	188.85352315174634	0.27133917979486455	-0.4116948005268952	0.6830339803217598	83.36690681270974
0	1.0	ltm	261	diff_vonmises	-0.028719698850211934	-1.645517533003867	6.951702979157101	0.49004614480770553	0.08935927879822167	4.200682885491355	-0.22417502472159068	-0.6837768442523312	0.45960181953074053	49.08415995250806
1	1.0	perception	261	diff_vonmises	0.031520240711684626	1.8059767620159635	14.086009530659052	0.6701228742869683	0.009789722371510292	4.2435101316413	0.31207631102810984	-0.6779138153577737	0.9899901263858836	36.01290890417991
2	1.0	wm	261	diff_vonmises	0.08001194541821768	4.584346783094978	4.171911958822841	0.4666661637477011	6.49625522743368e-33	4.922192382101824	-0.4163161411238687	-0.7833039164213639	0.36698777529749516	67.00109794293698
3	2.0	ltm	261	diff_vonmises	0.06448681452615584	3.6948223065916594	3.8230476731188356	1.018823598287159	0.3754719134474981	2.5469004360482073	0.19432289261520685	-0.3865238153925852	0.580846708007792	61.80443017335409
4	2.0	perception	261	diff_vonmises	-0.0007287720153396093	-0.0417555607062029	4.895066785483342	1.4546553385787777	0.3009900915140905	3.3319153721948807	0.5466184775828291	-0.5273599279121559	1.073978405494985	57.30859684470897
5	2.0	wm	261	diff_vonmises	0.1051879334809762	6.026824644162782	3.6571837935790574	0.7367890896593281	1.3513122720260542e-16	2.7650544219474282	0.09921393221230584	-0.439712967085053	0.5389268992973588	71.68143192375564
6	3.0	ltm	261	diff_vonmises	-0.002403022813938366	-0.13768306531231925	3.3089975531838633	0.9652749518945448	0.3855211272024233	1.8798187007481726	0.2442336516830162	-0.2657079837092256	0.5099416353922418	66.76162746870926
7	3.0	perception	261	diff_vonmises	-0.009959544538579682	-0.5706398679331847	2.8208249642982866	3.5187808884702734	0.64214857984535	4.726262326108533	0.9317308903022301	-0.5500904692097954	1.4818213595120255	69.59463751599637
8	3.0	wm	261	diff_vonmises	-0.11490612248167197	-6.583635858413109	1.0833702166582302	111.41975212216231	1.0506604815026321	112.9480970279201	0.1480173703627301	-0.3969926967624904	0.5450100671252205	80.57525168805591
9	4.0	ltm	261	diff_vonmises	-0.052327897165875374	-2.998167658399241	1.660740846981655	3.01025791224691	0.4870423361406244	4.826904212037335	0.2077985172928858	-0.46833597531070836	0.6761344926035942	83.15460913743397
10	4.0	perception	261	diff_vonmises	-0.0800391748072606	-4.585906912165856	1.1363750230608034	248.04193848021671	1.1063815760645797	250.03112438529195	0.6695701382021042	-0.6779288487496942	1.3474989869517984	82.4685701437102
11	4.0	wm	261	diff_vonmises	-0.1860453144797953	-10.659611317876413	1.7006951571648061	2.5008587240779043	0.32473443598572427	4.94583090314505	0.10814895729518081	-0.5675840831515988	0.6757330404467796	85.59865066677986
12	5.0	ltm	261	diff_vonmises	-0.044362993014237885	-2.541812266284185	1.9813426603934166	1.2308603541855005	4.434340797686715e-12	2.1783788236841475	0.2846545869151278	-0.33469493272923606	0.6193495196443639	97.45469840693991
13	5.0	perception	261	diff_vonmises	0.001808832088382512	0.10363844451215265	1.8784069842866178	2.722260474665306	0.17641267513440861	4.068427709105594	0.5855396192971758	-0.5124276409348363	1.097967260232012	91.88535593392348
14	5.0	wm	261	diff_vonmises	0.054315116606586535	3.112026945318338	0.28273850761992547	186.6273512184324	0.2707925207655898	188.13468841168591	0.08737235128011633	-0.47982525931766773	0.5671976105977841	145.89192301045773
15	6.0	ltm	261	diff_vonmises	0.358322062862102	20.53034190841982	0.7055381813788343	137.85987075092555	0.6932400573807623	138.56445968562477	0.12353489631101411	-0.21268792384962687	0.336222820160641	102.70095119192445
16	6.0	perception	261	diff_vonmises	-0.019858733065504224	-1.1378215911302874	0.6209772507932123	234.74929792956556	0.607846296656554	236.0071477463659	0.24830732191379923	-0.4130491344393583	0.6613564563531575	110.3241804885512
17	6.0	wm	261	diff_vonmises	0.22785443714306336	13.055097591626433	0.29078683927955434	116.89455402483684	0.2782776894568441	117.79641796052375	0.07448494472993872	-0.30236806069707534	0.37685300542701405	144.59540443636922
18	7.0	ltm	261	diff_vonmises	0.001011168586453013	0.05793569237996695	0.942935375834204	1.4654816988483719	1.168764431857703e-12	2.694528986264248	0.056066576535438895	-0.3552875524600069	0.41135412899544577	130.9995346318843
19	7.0	perception	261	diff_vonmises	-0.04247179949196203	-2.4334548592152982	0.7761207545643619	255.33717363758004	0.7603090281886437	256.3930331621832	0.4582865181281335	-0.4303172127336161	0.8886037308617496	101.21002754029571
20	7.0	wm	261	diff_vonmises	-0.044280140744291485	-2.537065180893178	0.9988030866681101	173.30877503226324	0.9800100684065913	174.52621188786995	0.2052426473594906	-0.3438111607654051	0.5490538081248957	85.57093983350694
0	1.0	ltm	262	diff_vonmises	-0.05422403532420563	-3.1068083722452733	4.22135027414164	0.39010878363641266	0.0026178271792902707	2.816965733993251	-0.1406528258018344	-0.4472797154445575	0.3066268896427231	66.30846593304477
1	1.0	perception	262	diff_vonmises	-0.00010878805731385973	-0.00623309654551147	14.012963008408988	0.6429353259026773	9.909856198622597e-22	2.9983336265725606	0.4741023729198005	-0.4771996177070311	0.9513019906268316	36.19492583925779
2	1.0	wm	262	diff_vonmises	0.025236252796958732	1.4459307759909545	8.00903140634037	0.34270931795900983	1.6857147694236155e-21	3.0325765550043817	-0.10224195362947602	-0.48264950697021497	0.38040755334073895	48.03855920499214
3	2.0	ltm	262	diff_vonmises	0.03223032104490552	1.846661368224764	2.578917041545244	1.3894479614564959	0.5582184401573123	2.7269032161086417	0.13130431535186782	-0.34405578706632634	0.47536010241819415	68.86150664975565
4	2.0	perception	262	diff_vonmises	-0.0057904661842881205	-0.33176927377293125	5.408883436141964	1.2997062287043954	0.2453028614360027	2.725702905953258	0.6288214052187974	-0.4340490325764471	1.0628704377952445	55.686666927132705
5	2.0	wm	262	diff_vonmises	0.0966195614753521	5.535893090942476	3.1015473849678687	0.6660549440086048	1.0468932834521343e-18	1.9901766875591667	0.12777988757838277	-0.31584692661689456	0.44362681419527733	78.00276745103548
6	3.0	ltm	262	diff_vonmises	0.04391586444856883	2.51619368657161	4.708948541611053	0.5151050813351169	3.821038176519813e-16	1.2906521428432296	0.22708804722594403	-0.20537851287507508	0.43246656010101914	62.96868538173629
7	3.0	perception	262	diff_vonmises	-0.02051265751939803	-1.1752887024588	4.28154216718656	1.8239446190474784	0.2558210757915675	2.578358921902745	0.9337302179648055	-0.3840109705423927	1.3177411885071981	62.81712423661838
8	3.0	wm	262	diff_vonmises	-0.1308592116801963	-7.497680539684294	1.298230375892687	166.81859823087916	1.2792971925385759	167.64288792759208	0.25064171622661036	-0.27608833570224434	0.5267300519288547	76.30609071243086
9	4.0	ltm	262	diff_vonmises	-0.043574296135786054	-2.4966232638337527	3.036541398874395	0.9767448609091797	0.2100167151288045	2.3657545327770584	0.1846484413509507	-0.3419718112704146	0.5266202526213652	71.60893747807734
10	4.0	perception	262	diff_vonmises	-0.041286349785871486	-2.365533594231286	2.976981484967963	2.010256877535286	0.052879959623508506	4.008623546218583	0.6386152190313975	-0.6064454225719068	1.2450606416033043	77.52518381640854
11	4.0	wm	262	diff_vonmises	-0.15565007121473132	-8.918092161514807	1.0599062908968493	291.31239478656846	1.0449752608771319	293.1649030679657	0.16996059974658806	-0.4772454264898087	0.6472060262363968	81.01284812876415
12	5.0	ltm	262	diff_vonmises	0.010419354360039913	0.5969850300815198	1.7278872387309951	1.313862421463433	6.425797492253342e-20	1.7947373863853249	0.33453753762485516	-0.2660650405367174	0.6006025781615726	103.83389720611927
13	5.0	perception	262	diff_vonmises	-0.00768166841979965	-0.44012718007344825	2.175006857203013	1.9191455512661335	4.759354102462934e-15	2.6673119532235114	0.6167527625748317	-0.41107488225618943	1.027827644831021	93.18628963945633
14	5.0	wm	262	diff_vonmises	0.03856963187564636	2.209877123847786	0.46219584911228456	184.0543133902451	0.45093900233710327	184.70207850896188	0.23050046169157667	-0.3050160960487389	0.5355165577403156	128.11090286257263
15	6.0	ltm	262	diff_vonmises	0.308184774683668	17.657686899564396	0.8445677753585524	85.90633970478497	0.8277966378076685	86.13379910413526	0.20472450591195823	-0.13450855285069618	0.3392330587626544	99.19107966246176
16	6.0	perception	262	diff_vonmises	-0.11802432187220595	-6.762295523170971	0.6729566386480276	142.09043230441478	0.6576658010450548	142.67229035356385	0.25247215489321917	-0.25350291307996464	0.5059750679731838	108.86865109341414
17	6.0	wm	262	diff_vonmises	0.06887836298722166	3.946439498937903	0.520358120958403	94.24200645706617	0.506998769761182	94.45814840888858	0.18218733985901636	-0.15974316024187551	0.3419305001008919	124.27046972984948
18	7.0	ltm	262	diff_vonmises	0.09641877256340954	5.524388733715145	0.3567668311819667	80.94568124536748	0.3356539044204809	81.79504318463928	0.12568958061746116	-0.31258341715603954	0.4382729977735007	138.49055679880658
19	7.0	perception	262	diff_vonmises	-0.11173175673338862	-6.401758098405585	0.971174000244709	222.10672267366152	0.9522078389309994	222.6906223491425	0.6050398367565322	-0.35724480761223276	0.9622846443687649	92.82432044296306
20	7.0	wm	262	diff_vonmises	0.017337728015064058	0.9933786416089007	0.9701925770777883	110.06355280840357	0.9486704440503616	110.79737396540155	0.2059384779934419	-0.2373215917447986	0.4432600697382405	88.78200868047301
0	1.0	ltm	263	diff_vonmises	-0.040408848603824085	-2.3152564799822293	6.572606743058286	0.35873281142564933	0.007593384557706291	2.987040629720744	-0.1196984919956548	-0.47489508168647043	0.35519658969081563	52.742134582213
1	1.0	perception	263	diff_vonmises	0.011360106874397114	0.6508861787205078	13.889666659294413	0.6235826859704827	9.132525020689841e-17	3.2784692330355347	0.39649930603993366	-0.5217845842115081	0.9182838902514417	36.36548541578378
2	1.0	wm	263	diff_vonmises	0.031117825480884608	1.7829200676793393	4.479456134339196	0.4157187970740591	1.4186201959270843e-34	3.5495571404673805	-0.22507738493064444	-0.5648858616348502	0.3398084767042058	64.59787394645471
3	2.0	ltm	263	diff_vonmises	0.11833999335991026	6.780382167129044	6.00881812040638	0.645675184201531	0.3201423775380319	1.8092397718580708	0.23042907387112732	-0.3022900279708044	0.5327191018419317	51.66342239139655
4	2.0	perception	263	diff_vonmises	-0.005120309605814308	-0.2933721302134541	5.808091619404452	1.2572056254701112	0.26364562990939966	2.6721515724242524	0.6360665116358505	-0.4321524370592954	1.0682189486951459	53.717279401572
5	2.0	wm	263	diff_vonmises	0.10901167492242798	6.2459088907072395	2.822595471571957	0.7172392797290128	1.2162983475898731e-21	2.2662260849842117	0.09294495511045703	-0.3590776710322929	0.4520226261427499	81.82929548501241
6	3.0	ltm	263	diff_vonmises	0.03496578821631681	2.00339209214322	2.7071650316400993	1.217312013785516	0.7740379549988081	1.8280795177227835	0.20554292218085246	-0.20781108647736163	0.4133540086582141	67.08159497729736
7	3.0	perception	263	diff_vonmises	-0.010339896833663587	-0.5924324491696069	2.8928264239690975	3.2828727291148736	0.6821300787543011	4.107779848798171	0.9508294644345601	-0.46951641115711024	1.4203458755916702	69.07661564098572
8	3.0	wm	263	diff_vonmises	-0.1311846761904984	-7.516328282505897	1.1500385767069108	135.5994936908569	1.1273521788922054	136.70394744509403	0.16926600146256732	-0.3096969329941235	0.4789629344566908	79.16929390070402
9	4.0	ltm	263	diff_vonmises	-0.013013862078904955	-0.7456393722866015	1.4912998476340427	4.907766393398169	0.8458297755626613	6.231699603202215	0.1715749794044632	-0.3587682751144589	0.5303432545189222	78.13282196786508
10	4.0	perception	263	diff_vonmises	-0.077983696557721	-4.468136683586299	1.7572339780285282	6.017071014065015	0.6795584163175888	7.659560573229489	0.7197336575081397	-0.6036352642460097	1.3233689217541493	80.89313466384073
11	4.0	wm	263	diff_vonmises	-0.17226276685745195	-9.869929508178073	1.0098191412963098	311.7178582600913	0.9961110207763486	313.6786416071353	0.1395622267156824	-0.4891624226598452	0.6287246493755276	82.45557220905783
12	5.0	ltm	263	diff_vonmises	-0.03864945925264491	-2.214450895639402	1.8629887603826585	1.0930432939944206	4.074417836329248e-11	1.8040029613709998	0.2530235041374488	-0.27410393665194444	0.5271274407893932	100.30953591092738
13	5.0	perception	263	diff_vonmises	0.002030933888517568	0.1163639402821495	2.0030121398120877	2.2370416272705014	0.08581132056242535	3.2227667075317643	0.5972529052004533	-0.4488457048937555	1.0460986100942087	93.19145489138853
14	5.0	wm	263	diff_vonmises	0.13523754343256508	7.748540470403143	0.2914443208530604	93.42772694066784	0.2724661657864947	94.5776750697637	0.07963549251978108	-0.3746428593545055	0.45427835187428656	145.18522812899153
15	6.0	ltm	263	diff_vonmises	0.4391940288011356	25.163964237652195	0.7747543657705448	152.63828479202547	0.7645485349223148	153.23285187060512	0.12095593164725926	-0.18188415046482653	0.3028400821120858	98.26617283495654
16	6.0	perception	263	diff_vonmises	-0.05046872768460346	-2.8916450937228335	0.7083430276718543	258.2119607390944	0.6966195429177691	259.2183360520013	0.2913186262797325	-0.3573005321831779	0.6486191584629104	104.39695736311054
17	6.0	wm	263	diff_vonmises	0.008250326491347118	0.47270888755916657	0.401379395326043	100.23415998985973	0.38497441884530065	101.11756811182264	0.10202650538104407	-0.29500468975492566	0.39703119513596974	132.57277836667458
18	7.0	ltm	263	diff_vonmises	0.01434227764661699	0.8217519777559763	1.2960964969662518	1.0285403671558486	2.7613500741117298e-18	1.9943027266566176	0.09067319154944464	-0.2868559138009713	0.37752910535041595	117.21247797119781
19	7.0	perception	263	diff_vonmises	-0.04935164043518462	-2.8276407089832563	0.8318652455596733	267.1398658865853	0.8167553501073097	267.95377246426926	0.5208962686148908	-0.39409447761586236	0.9149907462307532	98.9301350993952
20	7.0	wm	263	diff_vonmises	-0.016330830191355238	-0.9356876459094777	0.9265362574259345	150.1326417728448	0.9092870103455191	151.20442714823545	0.14498239438145788	-0.29033458210013663	0.4353169764815945	88.24599217441892
0	1.0	ltm	264	diff_vonmises	0.03280610067944415	1.8796511112134122	7.6275407970285665	0.4110293438421079	0.02676314225315365	2.9689370284366454	-0.040310798535543146	-0.47416248363911995	0.4338516851035768	48.52293176505961
1	1.0	perception	264	diff_vonmises	0.011820463598270766	0.6772626760689375	16.553522474546938	0.5801159479058686	3.140812960118801e-17	2.98070319791479	0.45965736386328887	-0.47439364783795496	0.9340510117012438	33.28786744971694
2	1.0	wm	264	diff_vonmises	0.041679027505492086	2.388032370274368	4.173128413698652	0.4629255965335761	7.930238058489371e-17	3.480709100476105	-0.18977646086748934	-0.5538856248213759	0.3641091639538866	66.9908276538601
3	2.0	ltm	264	diff_vonmises	0.1433403800539006	8.212798810889712	5.689500410677767	0.715282968854582	0.4361076006078018	1.759820206146668	0.2508907368642426	-0.29644056717678846	0.547331304041031	52.10429977463039
4	2.0	perception	264	diff_vonmises	0.0066488108760541014	0.3809488019785795	5.135860354931054	1.357310821169795	0.3649166503082313	2.6385651534465877	0.6085308188047025	-0.42052865800829015	1.0290594768129926	55.97884007551622
5	2.0	wm	264	diff_vonmises	0.10335721644618455	5.921932284586516	3.148080643754807	0.7520414123316186	0.09035211400372846	2.1985433541700883	0.12399800459633442	-0.33150302928810915	0.4555010338844436	73.29525567540864
6	3.0	ltm	264	diff_vonmises	0.046925481443429895	2.688632038327995	1.5550215852840574	38.230486969095644	1.484120178472755	38.88399104974877	0.19096053727601614	-0.2265311992204655	0.41749173649648164	69.75810581684706
7	3.0	perception	264	diff_vonmises	-0.04178621093634673	-2.3941735284960712	4.146433028236297	1.7887652762733297	0.2524377192420573	2.5289415633937073	0.892452528325304	-0.3740537918739578	1.266506320199262	63.78374061830684
8	3.0	wm	264	diff_vonmises	-0.05820260913877765	-3.3347638603015146	2.4117901764137706	1.4367952795430756	0.4926566073793637	2.619143965058004	0.18637999995596943	-0.3186176283878708	0.5049976283438402	72.84839170350935
9	4.0	ltm	264	diff_vonmises	-0.07376223232196338	-4.2262645995119685	1.103725180031455	103.73692347790434	1.0718034943077952	105.11667303799896	0.13071224948519955	-0.3585230152534944	0.48923526473869394	79.70049237421503
10	4.0	perception	264	diff_vonmises	-0.03604007166209202	-2.0649439995869106	1.9549933738519816	3.6148994196857913	0.37110974923877166	5.407862578450986	0.6338030066086779	-0.5993630136136919	1.2331660202223698	84.00619925151017
11	4.0	wm	264	diff_vonmises	-0.11443340248027944	-6.5565509974418985	1.0288321459346361	292.9993521630185	1.0143713445338354	295.11943667944894	0.06970708558098693	-0.5044487994355649	0.5741558850165518	80.27120703120244
12	5.0	ltm	264	diff_vonmises	-0.03454345398066023	-1.9791941228962144	1.8944707313722793	1.0907394921200664	5.1918328636580704e-17	1.685255360479211	0.2763034586917377	-0.2558999258502309	0.5322033845419687	99.52935440265844
13	5.0	perception	264	diff_vonmises	-0.01913198628731473	-1.0961820679652994	2.1981529605110035	1.866254686725187	0.0017156359405885156	2.862736416626564	0.5626718950500562	-0.44227943041086265	1.0049513254609188	92.62860833947775
14	5.0	wm	264	diff_vonmises	0.14973434826164447	8.579146203534263	0.7078404399396689	2.333385566755047	4.569376443147607e-12	3.3217845124571137	0.13878032638016558	-0.36663977245942214	0.5054200988395877	141.40137993602306
15	6.0	ltm	264	diff_vonmises	0.3735304600987054	21.401718883235617	0.7850468309665838	119.89801682557679	0.7724829199667819	120.34989065797434	0.15282312587063274	-0.16415520723243304	0.3169783331030658	99.60149642955949
16	6.0	perception	264	diff_vonmises	-0.1101518909209675	-6.311238455156849	0.6474631445996627	225.74839942961125	0.634492049149781	226.69738555557765	0.2979499463120021	-0.3627774238299075	0.6607273701419096	109.74153758491398
17	6.0	wm	264	diff_vonmises	0.18276518731094407	10.471673874835043	0.31014418988481657	145.93705883736536	0.29896631710719374	146.6085213832522	0.15128872046773623	-0.29276702545939415	0.4440557459271304	143.66954276873685
18	7.0	ltm	264	diff_vonmises	-0.0652196545414135	-3.736810946524226	1.1524780620577966	1.2098886263155413	1.5161053046118766e-15	2.348008757828807	0.07435364454026239	-0.3289971371721859	0.4033507817124483	122.46616658539295
19	7.0	perception	264	diff_vonmises	-0.014444440564147853	-0.8276054817532378	0.8802028578993867	269.885200849064	0.8644703461180884	270.9450006602101	0.47477543972694036	-0.41912074374274155	0.8938961834696819	94.97106920740879
20	7.0	wm	264	diff_vonmises	0.05169757460869353	2.9620528361408276	0.9550270572696773	175.85598517944547	0.9386683680510628	177.18677409385734	0.10716507919204332	-0.3346610569398081	0.4418261361318514	85.3003993473177
0	1.0	ltm	265	diff_vonmises	-0.009287316383019797	-0.5321240317497395	6.171679621046562	0.2399642780151352	0.0370698145707195	3.4871231500194413	-0.3432182139572877	-0.5579254519926052	0.21470723803531755	52.53295406986237
1	1.0	perception	265	diff_vonmises	0.0618504327190583	3.5437687558598974	11.73182799639858	0.6553343631999262	0.0948997684042108	3.7081838309618878	0.2377499116189553	-0.6159009830612447	0.8536508946802001	38.801349213796584
2	1.0	wm	265	diff_vonmises	0.04251410500635175	2.435878786639959	4.0810269321969725	0.6622544212822405	0.15972595783044172	4.404500639042371	-0.3024629471212308	-0.7011683093063023	0.39870536218507147	59.98058769791794
3	2.0	ltm	265	diff_vonmises	0.0382130285703972	2.189445259496593	7.149762985996399	0.4744854777560437	0.14647898038790588	1.9362809215368164	0.14175679557289983	-0.3182110414263102	0.45996783699921	48.835060098600366
4	2.0	perception	265	diff_vonmises	0.016362077939696396	0.937478010008713	7.498845651203028	1.2952837091969986	0.29692524982743035	3.2416228617999145	0.7105996049895285	-0.5544116248317161	1.2650112298212446	47.29053143374642
5	2.0	wm	265	diff_vonmises	0.06048296771054549	3.4654187822402918	2.662200123809395	1.0777591645400297	0.23447149524071656	2.9137932316319275	0.08060249877207504	-0.4118425282637856	0.4924450270358606	73.89632416381082
6	3.0	ltm	265	diff_vonmises	0.009087067780333092	0.5206506319623992	3.458071747790489	0.8464299059964193	0.5271233887621043	1.5422250460263125	0.2121636676333284	-0.21697884567631165	0.42914251330964004	63.80620662515034
7	3.0	perception	265	diff_vonmises	-0.03331097309824837	-1.9085781700034552	5.182321213327802	1.5145722824502272	0.2105322194927347	2.293396924462137	0.8930211896988679	-0.35626956166154633	1.2492907513604141	57.77562491127756
8	3.0	wm	265	diff_vonmises	-0.0801225052815414	-4.5906813966469695	1.3385144999410352	198.1487539357577	1.323499667905797	199.08126424102537	0.16321362537117068	-0.2772992468230058	0.44051287219417645	73.26794041909943
9	4.0	ltm	265	diff_vonmises	-0.18104254010066215	-10.372973460095903	1.032822784591928	191.6869766476423	1.0150039931812216	193.52555884176024	0.01124349531187363	-0.4227954887708556	0.43403898408272923	78.97794120611908
10	4.0	perception	265	diff_vonmises	-0.06501060873183097	-3.7248335039102516	3.864776345422418	1.5938046965099752	0.08092041211668785	3.626675487142127	0.5776844775423089	-0.5553703108702475	1.1330547884125564	67.45222870673206
11	4.0	wm	265	diff_vonmises	0.02921310726396401	1.6737877526881055	0.8734356803353377	209.5577532695553	0.859618607077184	211.62575573141723	-0.09925940670430577	-0.42905269085864717	0.3297932841543414	82.46184931380333
12	5.0	ltm	265	diff_vonmises	-0.103958779857536	-5.956399329166446	2.8179042137827834	0.8691531742993166	4.079672827470557e-14	2.1564161181973236	0.2059888013113969	-0.34124487480709537	0.5472336761184923	81.89680915402835
13	5.0	perception	265	diff_vonmises	-0.08856624537206617	-5.074472067139451	0.8460707845230034	224.5224163000574	0.8250466987306881	225.98612330573087	0.4495857876761704	-0.5013162858948057	0.9509020735709761	95.70893005673945
14	5.0	wm	265	diff_vonmises	-0.11571799228732096	-6.6301525717909024	0.43253064661728885	184.72314362215715	0.4204239637541876	186.1230126612126	0.08782573642203317	-0.40852687409560673	0.4963526105176399	127.27426714445035
15	6.0	ltm	265	diff_vonmises	0.08296860420633864	4.753750853114574	0.7386898885715057	118.71970297718856	0.7227004851437214	119.77210585462346	0.05818273038632782	-0.2581726196453573	0.31635535003168513	96.77677384942743
16	6.0	perception	265	diff_vonmises	-0.16892696235770494	-9.678801989061819	0.6974683041587746	236.70356822957856	0.6842758320268717	237.99499798721797	0.2313114183939291	-0.3936885200698619	0.624999938463791	103.43634508079427
17	6.0	wm	265	diff_vonmises	0.4696756438460296	26.910432132467093	0.0002716322529567946	5215.1359162465205	1.4108728165063562e-30	5216.291522224913	0.0415533818681979	-0.40936356853922007	0.45091695040741797	173.31763053094514
18	7.0	ltm	265	diff_vonmises	-0.03297468741153455	-1.889310419444095	1.0963889473223885	227.57001053595457	1.0835070190980525	229.1713673674238	-0.022888337900440092	-0.3646353476557813	0.3417470097553412	75.42658917510869
19	7.0	perception	265	diff_vonmises	-0.09748110741772915	-5.585256037297303	1.678992257048978	2.127863898540819	1.0211956928784423e-16	3.4616544405046166	0.43606630289619397	-0.516583325517649	0.9526496284138429	105.15727094960246
20	7.0	wm	265	diff_vonmises	-0.27221762993564314	-15.596921304366447	1.033139417090978	164.37462928086802	1.0175925192979955	165.6479791251669	0.0429477571183412	-0.3035017729700371	0.3464495300883783	80.1498339474157
0	1.0	ltm	266	diff_vonmises	-0.08794160357403193	-5.038682728404626	5.370960632272928	0.258984232197588	1.9690357094725246e-25	3.78665358271605	-0.3693833579141986	-0.6026595920612039	0.23327623414700532	58.86543671737732
1	1.0	perception	266	diff_vonmises	0.05543147048118357	3.175989310775825	13.561207713041691	0.5989740282429127	7.587358674887498e-18	3.4808415405630555	0.31752389792642155	-0.5539931372987689	0.8715170352251904	36.80225199881829
2	1.0	wm	266	diff_vonmises	0.0773871008410011	4.433954266942667	6.873488902951189	0.34810472614592386	8.852496202159907e-33	4.372480821008123	-0.33901298060679147	-0.6959015538820982	0.3568885732753067	51.91674251294481
3	2.0	ltm	266	diff_vonmises	0.08011002617058054	4.589966396256837	12.738296543899107	0.4188582329597492	0.17562476527265178	2.0038214919667228	0.21289707493183657	-0.3482181956615208	0.5611152705933573	36.951723107375955
4	2.0	perception	266	diff_vonmises	0.024237444872745356	1.3887032973893054	7.841342488889796	1.2676725103243491	0.22196281297940496	3.138558349970853	0.7758103850044633	-0.5268977424416177	1.302708127446081	46.85710780564369
5	2.0	wm	266	diff_vonmises	0.02709400287105238	1.5523720146266364	1.81141336330674	1.747705820020433	0.3548365098769234	3.892059749258806	-0.007119746976275487	-0.4637247834970468	0.45660503652077133	80.79801831797374
6	3.0	ltm	266	diff_vonmises	0.1051150249907173	6.022647295380277	3.852570617495129	0.5485873006506787	0.3274807106500303	1.2421139242200199	0.14612780896915356	-0.18663480826528586	0.33276261723443945	62.99469414820075
7	3.0	perception	266	diff_vonmises	-0.03985900706858616	-2.2837528806121026	5.18932505921484	1.3599678338832104	0.029742971347114795	2.121143695312126	0.8550555049967766	-0.333184479954424	1.1882399849512006	59.479119886617156
8	3.0	wm	266	diff_vonmises	-0.04524344558658301	-2.5922584827409976	1.3926238366251367	164.76141695191268	1.3713807742550803	165.92431961654032	0.14958741224417338	-0.33414088988717694	0.4837283021313503	70.96522885397542
9	4.0	ltm	266	diff_vonmises	-0.2181642028845025	-12.499888066117814	0.7924097062988796	40.50895590538705	0.7240606100428297	42.64789520852414	-0.08991120703963773	-0.44203002271300207	0.35211881567336434	88.96459536243596
10	4.0	perception	266	diff_vonmises	-0.05890554376138794	-3.3750390474507057	1.001071546343889	235.8770292208054	0.9728091511161139	238.1087059674205	0.5113375728591905	-0.6782416100364088	1.1895791828955993	86.75722770915729
11	4.0	wm	266	diff_vonmises	-0.10868639197628589	-6.227271550745717	0.9932585745011384	203.51597206720237	0.9739226422821398	206.1223645795514	-0.1323196208017663	-0.5526598889735901	0.4203402681718238	77.06228179678192
12	5.0	ltm	266	diff_vonmises	-0.06390824949769802	-3.66167297228716	2.5786228315307396	0.8209330160345865	2.122080162716508e-20	1.7669800461491352	0.2114407802702155	-0.27838682065613235	0.48982760092634786	85.65529084148204
13	5.0	perception	266	diff_vonmises	-0.035977116432377984	-2.06133693062602	1.750020862300305	2.6934663482640913	0.2215498559076566	3.835055430008646	0.5288505065083917	-0.45092000927903964	0.9797705157874314	93.20060456375077
14	5.0	wm	266	diff_vonmises	-0.07429151247417809	-4.2565901184139125	0.5253262410067193	215.5941471928912	0.5138932497748003	216.8867203836987	0.1397537883147848	-0.38853865598910176	0.5282924443038866	117.88761301716215
15	6.0	ltm	266	diff_vonmises	0.444845832639472	25.48778874422471	0.6732807578046511	122.72002803429555	0.6608836093925163	123.44841719995195	0.08761893209312177	-0.20405846765145697	0.29167739974457874	103.87233201882376
16	6.0	perception	266	diff_vonmises	-0.15225507861969256	-8.723573414340919	0.6019378378257336	229.2186668542358	0.5901438715094536	230.0990566181746	0.2793141573538023	-0.35070095473410845	0.6300151120879107	113.89610030880395
17	6.0	wm	266	diff_vonmises	0.26832367576273025	15.373814164641184	0.03814268506658723	40.35257608116745	1.728005799223987e-11	41.35758103493236	0.08731301212663478	-0.40254561661500254	0.4898586287416373	175.57923225363697
18	7.0	ltm	266	diff_vonmises	0.1448744171463719	8.300692661904836	1.1039182936918286	122.94159143239197	1.0818369244178732	124.437445503995	-0.025538911250997387	-0.3397589357927906	0.3142200245417932	75.1736173638495
19	7.0	perception	266	diff_vonmises	-0.0778593362415148	-4.4610113623287715	0.7835656484335644	181.02353245084743	0.7641002130647305	181.77178440556918	0.45077111214056487	-0.3601102324447236	0.8108813445852885	101.94053087907993
20	7.0	wm	266	diff_vonmises	-0.3324129191456025	-19.045857322666503	0.7384181819868343	130.39516157606667	0.7221722577088894	131.88271130612134	-0.02537061262808038	-0.3210617349803382	0.2956911223522578	92.77806864385224
0	1.0	ltm	267	diff_vonmises	-0.28062265647327994	-16.07849385166849	0.44998226559859056	67.94669538569681	0.4156238326762204	71.5950545996554	-0.41187320384752013	-0.6556234172180764	0.24375021337055625	105.36161721485331
1	1.0	perception	267	diff_vonmises	0.07357091532306172	4.215302942925794	10.285825789789575	0.640644917401523	1.5803629371525203e-16	4.0637490465429025	0.16242350134088035	-0.6467657473004801	0.8091892486413604	42.31386595816326
2	1.0	wm	267	diff_vonmises	-0.35133455981996725	-20.129987474770676	0.00047058638481328697	2290.594433635272	5.618357846416696e-29	2294.7115352319565	-0.48368062946559576	-0.826793145475051	0.34311251600945525	176.47421559241678
3	2.0	ltm	267	diff_vonmises	0.06867115776951083	3.9345675144699825	12.581755351758162	0.4061724751821744	0.0445831701047283	2.3487856314648234	0.17816351282312337	-0.3810410402731107	0.5592045530962341	37.83730652929583
4	2.0	perception	267	diff_vonmises	0.024529634790378695	1.405444546485971	7.129679375683684	1.2525167101770687	0.15325931053420414	3.490312547972951	0.665159980835005	-0.5699708741272546	1.2351308549622595	49.3727006066558
5	2.0	wm	267	diff_vonmises	0.09901093813738242	5.672908880902897	2.1437608273678785	0.8720817264614346	7.650338838169331e-20	3.1652140551169436	-0.03466951864981127	-0.4973142172322568	0.46264469858244556	93.8281655692277
6	3.0	ltm	267	diff_vonmises	0.0406788430702873	2.330726023402458	4.806668150450801	0.4185886710808639	2.159018117378025e-13	1.384811514836752	0.13498164275029897	-0.22037584337777347	0.35535748612807244	62.30815096201496
7	3.0	perception	267	diff_vonmises	0.022917687730602	1.3130867831622444	2.4916170615997704	4.695012803305261	0.7811980101522699	5.991212330754192	0.9638348609645329	-0.5971833366888315	1.5610181976533644	70.99010586330232
8	3.0	wm	267	diff_vonmises	-0.1539394836663574	-8.820082714505352	1.056246964639793	191.04472324208356	1.039105223409994	192.5052158378668	0.10686187268441927	-0.36735992128328476	0.47422179396770403	80.64817080278661
9	4.0	ltm	267	diff_vonmises	0.010570187820804407	0.6056271507926775	2.37855322379806	1.1419668286956413	0.19859660564151874	3.347941502235723	0.009977969841837742	-0.4697445617324458	0.4797225315742835	77.74009501153503
10	4.0	perception	267	diff_vonmises	-0.08770411980087849	-5.0250759105000915	1.1907470289336417	516.4451194224212	1.1757847257494374	518.6787631334275	0.5940340038396243	-0.7111908289555018	1.3052248327951261	79.367984056621
11	4.0	wm	267	diff_vonmises	-0.18630993339423518	-10.674772864853152	0.8910839609507996	166.88296746630752	0.8655770306069351	169.47151126199464	-0.006941930859284184	-0.5749506877397934	0.5680087568805092	85.08252557952068
12	5.0	ltm	267	diff_vonmises	-0.04413102406190098	-2.5285214243372094	1.8457113828762717	1.0963449474816143	4.821513632538736e-16	2.297847114966943	0.17297235194367933	-0.3522791035406988	0.5252514554843781	100.74656097331278
13	5.0	perception	267	diff_vonmises	0.015145200550789707	0.86775607143946	2.2764977552843737	1.9887880220341074	0.014695973341440178	3.2825407277791756	0.5787867450468184	-0.5030999629547603	1.0818867080015786	90.45211532663535
14	5.0	wm	267	diff_vonmises	-9.024315725325775e-05	-0.005170552040547072	0.42315334252486436	205.49730640756428	0.41197288054782616	207.15197982072038	0.04182196433397678	-0.44507817145519013	0.4869001357891669	127.0735806395604
15	6.0	ltm	267	diff_vonmises	0.6225405272388232	35.66894478663364	0.5443100813996223	172.53329492144204	0.5334892604634046	173.6660718619912	0.06427976303294258	-0.3020083189314118	0.36628808196435436	113.47272005257261
16	6.0	perception	267	diff_vonmises	-0.010287825843274437	-0.5894490011852423	0.7341820377118992	281.08437920038955	0.7229372970381093	282.23235626014684	0.2713573783786387	-0.3739611393970854	0.6453185177757241	101.68346006356546
17	6.0	wm	267	diff_vonmises	-0.06823962883688652	-3.909842727892824	0.37173065970690955	156.15522465234494	0.3594778032016568	157.6043184946052	0.02828974109300475	-0.39704328752295837	0.4253330286159631	133.52055204900103
18	7.0	ltm	267	diff_vonmises	0.22324137755362347	12.790788746509175	3.5458221676959756	0.5188827028579522	0.055836437712868316	1.9508465903617582	0.04527344461719113	-0.3015222231285347	0.34679566774572584	69.99407701123596
19	7.0	perception	267	diff_vonmises	-0.09464808504519522	-5.42293581208497	0.7814820034966181	178.35490685100336	0.7589755388113151	178.90207663276038	0.6046145604297948	-0.3878384306862781	0.9924529911160729	103.84023226392661
20	7.0	wm	267	diff_vonmises	-0.2573283535248145	-14.743828606022271	0.9051362761297177	106.7693553359662	0.8777588674907015	108.14681374535016	0.11822816555161353	-0.348661120596244	0.4668892861478575	88.22346293738966
0	1.0	ltm	268	diff_vonmises	-0.023248764922837534	-1.3320561089703817	2.1343994815224576	0.5733873802915919	2.004953968195417e-21	3.7307165046497968	-0.28614830470354014	-0.5894555079213292	0.30330720321778903	94.04136931093305
1	1.0	perception	268	diff_vonmises	0.11421007497731958	6.543755274073103	8.255248926371376	0.7707471186227675	0.18832178925673282	3.6108156340891586	0.18138107795754754	-0.6118386530442512	0.7932197310017988	45.08667556024591
2	1.0	wm	268	diff_vonmises	0.04624944366718663	2.6498979269578466	3.5885146101675636	0.7321470503695648	0.0980923380170773	3.923620213558095	-0.1569064945168811	-0.6084942913700896	0.4515877968532085	66.74897527166985
3	2.0	ltm	268	diff_vonmises	0.11401716293097627	6.5327022280003995	5.577147440444916	0.5499763427630114	0.1290477502482733	2.118078689024236	0.1233323830193992	-0.3390028548226951	0.4623352378420943	55.09142375391781
4	2.0	perception	268	diff_vonmises	0.08217743909895449	4.708420431563447	4.1122935743343465	1.9848269500111257	0.5232833533160276	4.002208608683899	0.544227361893959	-0.6096523235774473	1.1538796854714062	59.195318940106716
5	2.0	wm	268	diff_vonmises	0.10540424972568309	6.039218652024606	2.088477514124078	1.5959114307370963	0.38900660176700297	3.1289444801333093	0.13733208699185273	-0.3764147465361818	0.5137468335280345	78.24769790166806
6	3.0	ltm	268	diff_vonmises	0.05839075033731705	3.345543556930355	4.00082736941866	0.7763775286131297	0.33103785377416645	2.0556369999916435	0.15363068800541035	-0.31616746791028055	0.4697981559156909	61.182432561935855
7	3.0	perception	268	diff_vonmises	-0.03003549180260503	-1.7209069158890493	5.787362434473131	1.2824917804055396	3.1738589081998084e-17	2.2936207189674893	0.836587459918297	-0.3650297772836692	1.2016172372019662	56.6642418144142
8	3.0	wm	268	diff_vonmises	0.08489818965060704	4.864307955281029	1.968069017108048	1.737359493149854	0.39723816846558563	2.9842544734411436	0.20806299593862776	-0.33822720912606735	0.5462902050646952	81.24013518584857
9	4.0	ltm	268	diff_vonmises	-0.1818124223723035	-10.417084464982898	0.8165897736325655	159.87569898098596	0.7966004738259819	162.30979047675967	-0.12726981403582727	-0.4971389572667064	0.36986914323087916	85.17996909173358
10	4.0	perception	268	diff_vonmises	0.09075710517142854	5.199999087147793	3.3137994281343173	1.2437596027509434	1.2018274517622175e-12	4.011879836156823	0.22321457097794772	-0.6373701084652724	0.8605846794432201	75.4007811095976
11	4.0	wm	268	diff_vonmises	0.2844032216348785	16.295104279602285	5.159846975659687	0.6486534363937747	0.1496339445094461	3.0882262612915468	0.004277412342197362	-0.4957730664769545	0.5000504788191519	56.09911761277854
12	5.0	ltm	268	diff_vonmises	-0.1259069825769471	-7.213938712886259	1.3817935215236037	1.3826055673840614	5.935717862071216e-18	2.8463206585751086	0.11693331455906147	-0.41706200444063174	0.5339953189996932	114.21217674255705
13	5.0	perception	268	diff_vonmises	-0.09253368896458929	-5.301789840447246	1.2808012972991514	4.593203998593293	0.3920920262401071	6.406179330983008	0.3568828260074286	-0.5426726060364732	0.8995554320439018	96.22282912087987
14	5.0	wm	268	diff_vonmises	0.15888389239308365	9.103376466734419	0.4833073624014941	183.98900388677762	0.4703599316048743	185.25817944401138	0.13742720518722962	-0.39361793860654615	0.5310451437937758	122.60052946978116
15	6.0	ltm	268	diff_vonmises	0.19875569077816607	11.387862235796172	0.7211750881673846	173.63980089141162	0.7072067364087367	174.97062972970215	0.08201978921125175	-0.33131742173728895	0.4133372109485407	98.2181215403935
16	6.0	perception	268	diff_vonmises	-0.24151211887336188	-13.83762511270547	1.2024346390801526	1.9726321092590742	3.408992677781691e-13	3.656932196226672	0.16676248166982643	-0.514420230111198	0.6811827117810244	120.28311506329418
17	6.0	wm	268	diff_vonmises	0.3478701564235573	19.931491781625596	0.48785947383866124	234.52087505744552	0.47700615609058294	235.8427514030262	0.1539042489450253	-0.41493150794681455	0.5688357568918398	121.84426048420187
18	7.0	ltm	268	diff_vonmises	-0.07701026497849531	-4.412363162451912	2.766284368605574	0.6505927400959965	0.012445568696569624	3.251698125922811	-0.11728421488200447	-0.5096253993924434	0.392341184510439	81.20549620324812
19	7.0	perception	268	diff_vonmises	0.038044425540384286	2.1797850174637357	0.9060192035740743	301.9007978766699	0.8856660370455027	303.87375694595084	0.5391799043846817	-0.6389155047748041	1.1780954091594857	91.89931245415445
20	7.0	wm	268	diff_vonmises	-0.07160730847400242	-4.102796557851714	1.0361591324707202	351.9567681043275	1.0233809811957635	354.0895628626868	0.11023793829265571	-0.5206074166054009	0.6308453548980566	80.65172743104839
0	1.0	ltm	269	diff_vonmises	-0.014693676963985738	-0.8418856755649837	8.92718291774567	0.32414773375428063	0.06542854509185503	2.9086246623290846	-0.11304540440691896	-0.47351486588812364	0.3604694614812047	44.11515295086667
1	1.0	perception	269	diff_vonmises	0.03904440357162709	2.2370795382597497	15.493308961285605	0.6709016615086224	6.546897011153235e-17	3.0732385243713334	0.5554980052267791	-0.48912110245410345	1.0446191076808824	34.4131224358529
2	1.0	wm	269	diff_vonmises	0.13962555036432409	7.999954748067084	6.180933590762969	0.4122303411855523	1.29907196859722e-21	3.3844695502602185	-0.13878955508725588	-0.5386533477733941	0.39986379268613825	54.79326623621728
3	2.0	ltm	269	diff_vonmises	0.14477031256828707	8.294727908952586	3.9649365452525247	0.851422979307398	0.5369484661423622	1.8462891892133442	0.18311589563213004	-0.28112452721597075	0.4642404228481008	59.320019439280316
4	2.0	perception	269	diff_vonmises	0.0006870994994081341	0.039367901421637694	6.674984513199859	1.2938946326381486	0.32736844908886537	2.4466902889188793	0.7806219194351691	-0.4085503483563166	1.1891722677914858	50.17865514915067
5	2.0	wm	269	diff_vonmises	0.1001700163281015	5.73931916935676	3.6475195683971378	0.6875778246436833	0.03950376223870107	1.9717352553473337	0.1761832855466695	-0.30574157103260885	0.48192485657927836	70.13030751723585
6	3.0	ltm	269	diff_vonmises	0.11213590564673859	6.424914125435337	4.143340348778394	0.76247398188472	0.7266251256969445	1.2234924945918955	0.24315709221268872	-0.18057509261388147	0.42373218482657016	58.12705805630927
7	3.0	perception	269	diff_vonmises	-0.03517927106188358	-2.015623758192639	5.438156517916916	1.1489738977240087	0.025882112476653608	1.4604629455437206	0.8032888504953395	-0.22974085711491077	1.0330297076102504	58.19334409252713
8	3.0	wm	269	diff_vonmises	-0.014779646885171681	-0.8468113892140106	1.4327070310985888	56.528911148108946	1.384512056333942	57.10086942186895	0.24938138958538403	-0.21922694609253046	0.4686083356779145	73.91112942514471
9	4.0	ltm	269	diff_vonmises	-0.06825195942269718	-3.910549218418699	1.2457827352716526	184.04492537758262	1.226782959345921	185.38054425092787	0.1293779335855021	-0.3580102068774984	0.4873881404630005	74.54472683633028
10	4.0	perception	269	diff_vonmises	-0.0411999878423894	-2.3605854193592153	2.8859466063059274	1.84798040184328	3.074704134020291e-16	3.551114450153276	0.6185698296659907	-0.5614909775363308	1.1800608072023215	80.91776031806188
11	4.0	wm	269	diff_vonmises	-0.07256367700610901	-4.157592438400544	1.1889917164583599	322.2697875767397	1.176251945026307	323.9298914261033	0.13821353322187235	-0.4330869322346089	0.5713004654564813	75.94873352781377
12	5.0	ltm	269	diff_vonmises	-0.10706228248897846	-6.134216931655844	2.225412081142343	0.867593037997362	1.6626605160227369e-18	1.6283129579184723	0.21809975035947365	-0.253584939295476	0.47168468965494964	92.13668006879116
13	5.0	perception	269	diff_vonmises	-0.035013536266424575	-2.006127853894374	1.1510057510394216	8.07604485123343	0.6149611137588988	9.062650011749534	0.5562561935603876	-0.43573348777787324	0.9919896813382608	95.63219056350465
14	5.0	wm	269	diff_vonmises	0.10468650999062316	5.998095194416835	0.5482898367499915	99.41381105369507	0.5289373037406624	100.14881300637164	0.1762480890062399	-0.27400571465516954	0.45025380366140944	118.52388628496963
15	6.0	ltm	269	diff_vonmises	0.2023074421994912	11.591362602117695	0.9514609573273247	105.27181705491994	0.9368125251472206	105.77485721059837	0.12708038932460397	-0.15774937125484279	0.28482976057944676	89.1438020190673
16	6.0	perception	269	diff_vonmises	-0.2565487860172539	-14.699162677993517	0.5035136081544997	142.53785877131335	0.4856383262868617	143.37317043627485	0.2719314821322385	-0.36590348806628903	0.6378349701985275	123.7268038808492
17	6.0	wm	269	diff_vonmises	0.25360673544494755	14.530595597086315	0.4472169499140761	126.33478917063225	0.43404920122514146	126.79805793221158	0.1990945862014648	-0.24296621141674457	0.4420607976182094	129.75232193717227
18	7.0	ltm	269	diff_vonmises	-0.05525142654957646	-3.1656735533677955	0.688923479224792	55.1788850175501	0.6547658839275545	56.35267649298597	0.034814158924866945	-0.27867047116463883	0.3134846300895058	99.95316448077101
19	7.0	perception	269	diff_vonmises	-0.03684443347412344	-2.111030536617806	1.5668381415187607	3.3802888728033866	0.40855376182621306	4.441264924359736	0.48290236297078426	-0.40959219241506395	0.8924945553858482	91.16774594779312
20	7.0	wm	269	diff_vonmises	0.06774528740801591	3.881519050380072	0.8475436660446183	139.4391107486966	0.8315152018534416	140.47684411609893	0.10523648344331349	-0.26953816731613855	0.37477465075945204	91.53917751701343
0	1.0	ltm	270	diff_vonmises	0.01827820370605222	1.0472639294371722	1.2106692078574928	0.5254878170901914	1.3338745446945016e-13	2.1459111082131024	-0.14126570967224983	-0.32374812976899037	0.18248242009674054	120.29277356756484
1	1.0	perception	270	diff_vonmises	0.02694468806461971	1.5438169063992317	12.269426067143707	0.6978663810652913	2.249729767606593e-21	2.277247718151742	0.6020665457398207	-0.36243523096732955	0.9645017767071502	38.71543445305042
2	1.0	wm	270	diff_vonmises	-0.22538446239731755	-12.9135784631913	0.00029460495752567156	2934.689536195949	4.568230918241802e-30	2936.4051794107777	-0.1354418818074805	-0.41064404572551894	0.2752021639180384	178.53442694684233
3	2.0	ltm	270	diff_vonmises	0.18505652907740594	10.602958087475358	5.425999827217278	0.4937601917958697	0.41105380111138445	1.3253878472202227	0.14195153558476387	-0.22123572945155892	0.3631872650363228	53.050060755801354
4	2.0	perception	270	diff_vonmises	-0.004530830811439277	-0.2595974831833047	8.786849675288437	1.140667186126065	0.21698117301239636	1.8483263264063476	0.9673214719215628	-0.3103515811409189	1.2776730530624816	44.8451700157045
5	2.0	wm	270	diff_vonmises	0.06769768622633882	3.8787917035701387	2.4017412136185263	0.7012757215924222	7.919420722314931e-16	1.526361981960665	0.16072252160068157	-0.23961762496037817	0.40034014656105976	88.74461760435534
6	3.0	ltm	270	diff_vonmises	0.18131830275564675	10.388773496373844	5.555275742209577	0.48805080823925207	0.7383721961815365	0.7552352515559979	0.2270465323576173	-0.1258499705567236	0.3528965029143409	51.982559989626964
7	3.0	perception	270	diff_vonmises	-0.011419006853918631	-0.6542608989604978	5.370217534944146	1.1246676959948478	0.03417079693767054	1.1312694565630805	0.8266263793623222	-0.17723625137355983	1.003862630735882	58.55663675785385
8	3.0	wm	270	diff_vonmises	-0.0348622490899308	-1.99745973718683	1.668455441942448	103.87989490205814	1.6494865520771087	103.99235556917169	0.2813653596964869	-0.12039487067258214	0.40176023036906905	71.55088282794864
9	4.0	ltm	270	diff_vonmises	0.1318470002357114	7.554276654966633	1.818505620223988	23.72394279868107	1.6739531837772428	24.71223891974488	0.1103320257778364	-0.31186210576474815	0.42219413154258456	62.357612530294745
10	4.0	perception	270	diff_vonmises	-0.04933562736825386	-2.826723227831063	3.0891028633315556	1.7556918548462679	6.482177332461979e-20	3.218786353837241	0.6569003195061072	-0.509860627704958	1.1667609472110652	78.15852452781186
11	4.0	wm	270	diff_vonmises	-0.07732437331312442	-4.430360244336043	1.393964342052382	304.3740921274261	1.3814576454226468	305.5167394486058	0.21001200805464748	-0.3472947168686886	0.5573067249233361	71.80074447316878
12	5.0	ltm	270	diff_vonmises	-0.14383555628677447	-8.241170319148573	1.6829413729171718	0.8401536428141049	1.766153026199104e-29	1.4321896113168682	0.16233283311995378	-0.2144629381185706	0.37679577123852437	105.01875060140453
13	5.0	perception	270	diff_vonmises	-0.02216285017948121	-1.2698377772650324	1.4960408436421098	3.3527285444472508	0.3535887517631932	3.8597435357987564	0.6017547698101402	-0.35107919764178747	0.9528339674519277	96.58498934245586
14	5.0	wm	270	diff_vonmises	0.15474814030992246	8.866415327256844	0.7997330303570692	74.18867847862911	0.7785064715172464	74.52913156922092	0.1987565091913268	-0.15960695680183878	0.3583634659931656	100.83756621132582
15	6.0	ltm	270	diff_vonmises	0.2613333651431404	14.973298868653204	1.1080141034499642	98.42443804070965	1.0933003132953507	98.82618793912296	0.12677559420381357	-0.13398770905354773	0.2607633032573613	83.0485302652217
16	6.0	perception	270	diff_vonmises	-0.3017681904453067	-17.29004370381613	0.6106766746563176	132.44557779551394	0.5939392566611852	132.9054640130477	0.29805962955327914	-0.264815350484195	0.5628749800374742	115.49426330956086
17	6.0	wm	270	diff_vonmises	-0.02005443983443469	-1.1490347630121451	0.6359920007065233	135.01221381606788	0.6235047731313449	135.3430496174113	0.2306122245637141	-0.1943826346961881	0.4249948592599022	113.4315490202492
18	7.0	ltm	270	diff_vonmises	0.04168125698145277	2.3881601098374414	1.467880144352943	1.4777629416676583	0.43605012394133935	2.3290445130458983	0.08477457121600906	-0.21660140579632753	0.3013759770123366	88.16004676611541
19	7.0	perception	270	diff_vonmises	-0.07790675508838209	-4.463728262123644	2.4385210785139226	1.8309489852110747	0.09777223479586937	2.327797700949808	0.6557477906089073	-0.32860386464663827	0.9843516552555456	84.94357035984211
20	7.0	wm	270	diff_vonmises	0.10735018075531871	6.150712287246274	0.7992127123022094	4.3062544029321534	0.4894888839582736	4.951165844235386	0.09499782602619344	-0.1920839439482771	0.28708176997447055	107.02517571052172
0	1.0	ltm	271	diff_vonmises	0.01957152833393412	1.1213659721551328	9.295573749125213	0.4691465495034011	0.19962889905889955	2.1522419456060944	0.14844815908358772	-0.3699428811359537	0.5183910402195414	42.64913420947178
1	1.0	perception	271	diff_vonmises	-0.0186832084354299	-1.0704689911133514	17.848625700421987	0.6202682103447928	7.837453875518824e-21	2.3024664619261976	0.6714473158224195	-0.36644891871886126	1.0378962345412808	32.042068629923705
2	1.0	wm	271	diff_vonmises	0.07580239053841814	4.343157054853763	4.8240070328430615	0.3726291783126254	7.495442302673402e-19	2.5501441754681795	-0.08889848427080321	-0.4058475860427627	0.3169491017719595	62.19388317620118
3	2.0	ltm	271	diff_vonmises	0.19082873097354935	10.933680894621787	4.873399721462298	0.9600120127994198	1.0841617318480445	1.4424118959026315	0.3053832606140623	-0.22835423307248442	0.5337374936865467	52.10246576354595
4	2.0	perception	271	diff_vonmises	-0.027065397077994977	-1.5507330234148227	6.167282196667589	1.1762610347380638	0.4140301836948645	1.8056264873192254	0.7227262388636764	-0.29770662896515426	1.0204328678288306	51.88651867093117
5	2.0	wm	271	diff_vonmises	0.10119245586421272	5.797900639583246	2.976956130766339	0.7211237910769436	0.15636562834631396	1.6938443355684154	0.15693054542938795	-0.2464921396045072	0.4034226850338951	73.84512248096584
6	3.0	ltm	271	diff_vonmises	0.08541224957335473	4.893761419271293	2.2420228602462333	106.20182062445458	2.22000174496578	106.38300839234019	0.24540012940143896	-0.13907142165414044	0.3844715510555794	60.15076927527687
7	3.0	perception	271	diff_vonmises	-0.059454678172449045	-3.406502131589909	4.253049599404081	1.5759278762767015	0.3282262410058948	1.8004022763063932	0.8652746576182619	-0.2615567197357278	1.1268313773539897	62.87754195047137
8	3.0	wm	271	diff_vonmises	-0.07189866737638638	-4.119490193281879	1.8210962965589668	4.441758911191447	1.2135464677681007	5.103683899895877	0.21708387610913715	-0.23389125870519106	0.4509751348143282	70.39315158661381
9	4.0	ltm	271	diff_vonmises	-0.04720217456935476	-2.7044853866637717	1.5416133383002861	207.159619486497	1.5270760093820999	207.84793306655814	0.22161364775773507	-0.24569769506968697	0.46731134282742204	69.68710040138589
10	4.0	perception	271	diff_vonmises	-0.06743507443101282	-3.8637451560476057	3.0021002283187053	2.077806770792364	1.1195879719024131e-17	3.149346866132493	0.8601727570837076	-0.4978736190305522	1.3580463761142598	79.30616552464008
11	4.0	wm	271	diff_vonmises	-0.14927961154177816	-8.5530917086963	1.2168540300114359	279.09696223354115	1.2023413449311204	280.60045955742527	0.17639609249805233	-0.4098600099071774	0.5862561024052297	75.913425738511
12	5.0	ltm	271	diff_vonmises	-0.045103523995214126	-2.5842415660928064	2.3657696679952687	0.8091265259775714	1.2940124763625279e-15	1.0662526207726477	0.29186257978830965	-0.16563117158852725	0.4574937513768369	89.41779060081132
13	5.0	perception	271	diff_vonmises	-0.014062728938152825	-0.8057350165926466	1.8963905251989353	2.25174401462344	0.13087845184827301	2.828138563971297	0.613936490067618	-0.36793021674310256	0.9818667068107205	94.34050719395265
14	5.0	wm	271	diff_vonmises	0.2075884272918204	11.893940759579662	0.5743701286784614	2.234074809723586	1.6082548492652068e-18	2.835212549181129	0.1312099751176683	-0.2665807804478804	0.3977907555655487	147.62820947273556
15	6.0	ltm	271	diff_vonmises	0.3342196788045346	19.149377025717808	0.9576622710962137	63.20398236271499	0.9406769018947941	63.37582376804559	0.1470948471878657	-0.09357222164105305	0.24066706882891875	92.94991828615795
16	6.0	perception	271	diff_vonmises	-0.1561672579844435	-8.94772478063932	0.6812397518711357	208.80403118037987	0.667969470295632	209.45283088447533	0.3468002692243459	-0.3131757666492021	0.659976035873548	108.82422174143248
17	6.0	wm	271	diff_vonmises	0.12322036381046991	7.060006796406473	0.48541053865959166	2.813400047749387	2.45567589990455e-19	3.1822160459159567	0.18004528024126631	-0.24643430890243823	0.42647958914370454	152.64650209724118
18	7.0	ltm	271	diff_vonmises	-0.1262503464335592	-7.233612012707467	1.269205051346335	0.9541123394830596	0.02255937757665878	1.5945195231608884	0.1143348937807897	-0.2185500891041744	0.3328849828849641	116.56408023197842
19	7.0	perception	271	diff_vonmises	-0.020639135819634058	-1.1825353752623127	0.8892320645918553	219.1375576759816	0.8725162659248139	220.01271075866237	0.42039233432424794	-0.35650850369604115	0.7769008380202891	94.73938846444025
20	7.0	wm	271	diff_vonmises	0.5358773051171267	30.703507920055635	24.351738233746516	0.25493195611387465	1.516278541430165e-41	1.1864845649372697	0.31025708467182556	-0.18883488341200336	0.49909196808382894	27.416474265491985
0	1.0	ltm	272	diff_vonmises	-0.006063308333020056	-0.34740197736855183	7.670034129616458	0.34755940522742446	0.20370823001977983	1.0520201629178978	0.17412299943707457	-0.17611589233121192	0.3502388917682865	47.19022594110086
1	1.0	perception	272	diff_vonmises	-0.07204940474331224	-4.128126808221646	18.644373163785442	0.5514808266420259	2.3571237160101806e-20	1.4412777320097434	0.7140215617830235	-0.22938647541762663	0.9434080372006501	31.35058751616137
2	1.0	wm	272	diff_vonmises	-0.12552198323865046	-7.191879875686532	14.692897657634365	0.2053404336198967	4.636260559393786e-19	1.2304340492943049	0.11539353843590525	-0.1958296610937116	0.31122319952961686	35.34482898964407
3	2.0	ltm	272	diff_vonmises	0.16544942063531293	9.479553525288102	3.1428972113682474	58.18418708934947	3.088319811874666	58.31650964365524	0.29815784633041176	-0.162294208460521	0.46045205479093276	50.890460504725525
4	2.0	perception	272	diff_vonmises	-0.05189120053730922	-2.973146784654808	7.13705652356902	1.0367800836542502	0.4758219273903589	1.3077674841253448	0.7674322615199906	-0.22315672943795561	0.9905889909579462	48.62170933647894
5	2.0	wm	272	diff_vonmises	0.03948736067490318	2.2624591107828103	0.9334493685783362	50.99038731174932	0.9054150995100707	51.46000901878123	0.11993045657113655	-0.14823928853850266	0.2681697451096392	90.42101091043318
6	3.0	ltm	272	diff_vonmises	0.02034520642622898	1.1656944615453613	2.8449963680571284	10.910243198045249	2.7182916223864138	10.810515638972781	0.24166698446449164	-0.05236565892120959	0.29403264338570123	57.87165370677832
7	3.0	perception	272	diff_vonmises	-0.06456670031622748	-3.6993994252058324	3.7983891430199868	2.079166372732305	0.674160281177801	2.1217113762244155	0.9605500505133125	-0.27299965314750074	1.2335497036608132	63.50366016919776
8	3.0	wm	272	diff_vonmises	-0.20660535335980304	-11.837614772325738	1.8287611181119288	121.9924434853497	1.8107743727781473	122.30487697903688	0.20544866056008004	-0.1525801505777764	0.35802881113785645	65.50320950991755
9	4.0	ltm	272	diff_vonmises	-0.035761857798674225	-2.049003519411042	1.9800886932044475	143.09297122419656	1.9641862236777559	143.37275933250248	0.2144072186713828	-0.15119248670941587	0.36559970538079867	63.08019502668054
10	4.0	perception	272	diff_vonmises	-0.08826976388849736	-5.057484929427181	3.609608292946403	1.9335064688192765	3.545670806759192e-20	2.606816046029161	0.990110554766815	-0.4138586688191379	1.4039692235859529	72.16461285687484
11	4.0	wm	272	diff_vonmises	-0.1816855616230163	-10.409815879462874	1.288717689378716	199.07069010814004	1.2731284211156821	200.11878575484084	0.154460023864317	-0.2995940447626211	0.4540540686269381	74.26948544059584
12	5.0	ltm	272	diff_vonmises	0.010343507949206267	0.5926393508495366	2.4284180540720275	0.8189222316320445	0.12875488630643778	0.7154369876587405	0.3454499039843281	-0.09633034297010916	0.4417802469544373	85.41159232301388
13	5.0	perception	272	diff_vonmises	-0.027811706927780067	-1.593493428016551	2.058227655205112	1.7897509794922908	3.533516459064941e-21	1.9661458777102137	0.6264705680584146	-0.2976060872541786	0.9240766553125932	95.7031247076128
14	5.0	wm	272	diff_vonmises	0.11125301235860627	6.374328066264927	0.00240950232613371	404.0459848875466	1.0227570199385412e-23	404.33583896721103	0.10890348941950379	-0.2009802541462875	0.3098837435657913	179.39040127896502
15	6.0	ltm	272	diff_vonmises	0.30856448862909375	17.679442906059553	0.7672870283462773	48.044191409680515	0.7517632907944883	47.993883801784875	0.15720846162578184	-0.06216386527085227	0.2193723268966341	108.63763464707068
16	6.0	perception	272	diff_vonmises	-0.1385483879409788	-7.938237887359315	0.9552797712979003	248.89861725416645	0.944625283289063	249.29712165675667	0.3716217720513981	-0.22879737695868485	0.600419149010083	93.13470833129028
17	6.0	wm	272	diff_vonmises	-0.11461985577775098	-6.567233984463315	0.06276044398605962	38.654030137857184	0.03062715777962794	38.85776096223122	0.1687519024118984	-0.22439366864066557	0.393145571052564	174.29716849842595
18	7.0	ltm	272	diff_vonmises	-0.12454057849233417	-7.1356495257285015	0.8912861211267831	55.59517545137583	0.8681068951551376	55.79284365133641	0.1830599396141288	-0.11640117729839172	0.29946111691252053	96.77899444851919
19	7.0	perception	272	diff_vonmises	-0.09342569356942808	-5.352897939610744	0.8269979535338292	180.12015160583687	0.8088772803801755	180.68443238798616	0.45088040474831814	-0.3126600468505245	0.7635404515988427	99.96992838224197
20	7.0	wm	272	diff_vonmises	0.5333810519868519	30.56048315109457	120.08515109673681	0.3842103788637064	0.020866095359360463	0.6853889102091326	1.5606258002965339	-0.11113113852782416	1.671756938824358	12.360594746639293
0	1.0	ltm	273	diff_vonmises	0.031052709667337364	1.7791892063835215	6.314122251175009	0.392888214918858	2.5990804774092406e-20	3.9811729815386854	-0.24825217848045456	-0.6336220959094226	0.3853699174289681	54.20185012024868
1	1.0	perception	273	diff_vonmises	0.052696568105587926	3.019290947273892	14.909072451458629	0.5435339060273199	0.00887155623266208	3.600677790891239	0.2518595132607627	-0.5751415303716197	0.8270010436323825	35.006996025232866
2	1.0	wm	273	diff_vonmises	-0.061307956502183236	-3.5126871581467323	2.684589106177975	0.5961941298334694	6.202802078496976e-17	4.754844434605308	-0.39048830325666245	-0.7550506000188385	0.36456229676217605	83.94060884588066
3	2.0	ltm	273	diff_vonmises	0.1168783295287305	6.696634998535522	10.384268410827312	0.524595904582863	0.21221575271635573	2.0392177991602205	0.26901066589860956	-0.35453662616440423	0.6235472920630138	40.652684184369434
4	2.0	perception	273	diff_vonmises	0.03577916770488111	2.049995303980464	5.168908352388612	1.4774614735585379	0.34221064951898406	3.384711434475396	0.5672362006807544	-0.5450058853718377	1.1122420860525921	55.51264495844404
5	2.0	wm	273	diff_vonmises	0.07481973306371033	4.286854928846022	1.6302372277885737	2.331793826728673	0.4320563947882535	4.504727316574446	0.0077892327075954615	-0.4789057660227698	0.48669499873036526	81.82388318867308
6	3.0	ltm	273	diff_vonmises	0.06821299685007282	3.908316827448351	1.2921165065332152	81.11069354130161	1.2592261139624459	82.06766587455535	0.11368551638636859	-0.2650713296461582	0.3787568460325268	73.83180150880983
7	3.0	perception	273	diff_vonmises	-0.03615951039036359	-2.0717873346272815	3.8668685755297383	2.037475595488863	0.2514746822384543	3.2508856052824733	0.8828470973277032	-0.47713844949006007	1.3599855468177633	65.46941352948812
8	3.0	wm	273	diff_vonmises	-0.03951497068367315	-2.2640410477576487	2.3701339559740826	1.43576259512191	0.3972929722209669	3.297311520564749	0.06910531095280181	-0.42851225412864946	0.4976175650814513	73.05269874624082
9	4.0	ltm	273	diff_vonmises	-0.10733489271434403	-6.1498363470214015	0.831441526115356	90.53229466628493	0.795122901656864	92.69564397421719	-0.027047722672520536	-0.47085571442600127	0.44380799175348074	87.9680342442418
10	4.0	perception	273	diff_vonmises	-0.029578662729358135	-1.6947325380331295	1.0503444476175547	405.05522657753147	1.0331466279983412	407.337262197518	0.5185198671363764	-0.6912589300669225	1.209778797203299	84.30674075695339
11	4.0	wm	273	diff_vonmises	-0.09869122636162914	-5.654590745491601	0.876135790764483	31.28896286130066	0.7571202292904583	34.262527733723545	-0.16771966692103923	-0.604129903667725	0.4364102367466858	84.2892717076596
12	5.0	ltm	273	diff_vonmises	-0.0449340688392163	-2.5745325008374	1.8832473753631174	1.1410147058354667	0.03948423027699411	2.133189574925274	0.21449550015984853	-0.3131066192052346	0.527602119365083	97.44286010348839
13	5.0	perception	273	diff_vonmises	-0.022440318063278574	-1.2857355159570478	2.2143354023110575	1.8987824305015468	0.02454623909204129	3.3076984946755768	0.5019306106601459	-0.5011700716948564	1.0031006823550022	91.1580995636603
14	5.0	wm	273	diff_vonmises	0.0911398708540081	5.221929945302046	0.30558346514988494	80.90807430067522	0.2782077451716743	82.57880751595123	0.050863141489855934	-0.4924631854531576	0.5433263269430135	143.38293562325075
15	6.0	ltm	273	diff_vonmises	0.5698989175033484	32.65280272201614	0.5153882471432287	203.67577052556908	0.5065389627677387	204.6693618918903	0.09105360840687382	-0.2907831170453363	0.38183672545221015	117.56688205113358
16	6.0	perception	273	diff_vonmises	-0.05279799004322099	-3.0251019962503056	0.6656062003587901	293.6156825289361	0.6537576215075468	294.9640950294042	0.28981425732879984	-0.44167712818900284	0.7314913855178027	106.65776959439118
17	6.0	wm	273	diff_vonmises	0.22162608318809232	12.69823919669298	0.09484858336952338	108.38554239007112	0.07878184543509997	109.81668972247927	0.042567306477852895	-0.4748153208627368	0.5173826273405897	168.37063483293247
18	7.0	ltm	273	diff_vonmises	-0.0030925379485730493	-0.17718937243728136	1.5119149860435583	1.4535747149194354	0.2859833643335278	3.2859387912357843	-0.049453840853207476	-0.38168511329254795	0.3322312724393405	87.98595714454459
19	7.0	perception	273	diff_vonmises	0.016121950492023286	0.9237197207117953	0.7748747044080877	227.82427982611676	0.7565688658269903	229.04042580653157	0.4371534967747408	-0.45589615225865643	0.8930496490333972	100.69068941829494
20	7.0	wm	273	diff_vonmises	-0.17157187064916257	-9.8303440713615	0.8199032884662102	205.54614143846422	0.8047454106949642	207.5938600369428	-0.02870250048049172	-0.44459160647314633	0.4158891059926546	87.91784606522026
0	1.0	ltm	274	diff_vonmises	-0.07246374562131622	-4.151866791811019	1.4453372966024833	0.36173203314106966	5.752543909127263e-29	1.784503065937888	-0.13080653633503694	-0.27550353314780757	0.14469699681277062	112.17182207147923
1	1.0	perception	274	diff_vonmises	-0.012274456436862627	-0.7032745496494152	12.786479885735556	0.49942021951374166	9.11920975517917e-19	2.126125891661422	0.36671546572853664	-0.33838344528805553	0.7050989110165922	37.91336336731078
2	1.0	wm	274	diff_vonmises	-0.015086690469266351	-0.8644036907092053	6.199222139835581	0.37761419703585	0.17263706268724333	2.0382312998797936	-0.015815383194319688	-0.3361431725341217	0.320327789339802	51.05795666891203
3	2.0	ltm	274	diff_vonmises	0.042656827119000304	2.444056161337912	15.757183920610682	0.26893687382113024	0.24235410300182422	0.9979018025302535	0.22277682269111662	-0.18181980245487472	0.4045966251459914	33.33626446817797
4	2.0	perception	274	diff_vonmises	-0.007207302535781127	-0.4129480169741946	9.653536846327977	1.0424841261469124	0.3150468499090349	2.008595470893674	0.8468812173479872	-0.35501662342827106	1.2018978407762582	42.346692151473434
5	2.0	wm	274	diff_vonmises	0.06787177292104617	3.8887661364462525	0.8763840815229506	77.05861428698965	0.8505651791610067	77.98965305107049	0.08779368706336399	-0.2388291354732628	0.3266228225366268	89.98154483628466
6	3.0	ltm	274	diff_vonmises	0.04315955585085092	2.4728603959129165	2.2531056957072892	67.9452727927245	2.2240185189045616	68.11633000994854	0.19684845820213326	-0.11990117310047665	0.3167496313026099	59.739490121485005
7	3.0	perception	274	diff_vonmises	-0.030042462557769593	-1.7213063107399977	4.383127409319323	1.8660827677009093	0.527539959523226	2.147333720875873	0.9668161395606412	-0.3095249179995132	1.2763410575601544	60.37104730239602
8	3.0	wm	274	diff_vonmises	-0.1878723354438094	-10.764291908196345	1.596166176886987	121.06863059209314	1.5798279032622795	121.42773803134472	0.17904809161100133	-0.14941127085199746	0.3284593624629988	69.709109694398
9	4.0	ltm	274	diff_vonmises	-0.049434488602654696	-2.8323875593196846	1.596173505778016	172.96411743090002	1.5810241467158312	173.8267918805688	0.06397727479851767	-0.2502714585939465	0.3142487333924642	64.76968341042911
10	4.0	perception	274	diff_vonmises	-0.07784371910120712	-4.460116566101078	4.41339963072865	1.5136089989442376	0.055283767114194984	2.742829390925225	0.7663806173418497	-0.4253010788639386	1.1916816962057883	64.00932663331855
11	4.0	wm	274	diff_vonmises	0.0037300714703050607	0.21371735253063756	1.1846609463266673	167.51428007995622	1.1698460514555835	168.72905363144199	0.006153896205461251	-0.2895536240966443	0.29570752030210556	73.39786339754946
12	5.0	ltm	274	diff_vonmises	-0.07607972175750392	-4.359046963234597	2.7700113286860124	0.6621697054076308	2.450148465923216e-16	1.377587088773501	0.19501679982320355	-0.21762302572536782	0.41263982554857137	82.61727074061665
13	5.0	perception	274	diff_vonmises	-0.08849781605134002	-5.070551355866896	0.8783523677530407	36.13418691609	0.7741766246974329	36.89035758974388	0.49264334711513946	-0.3695335005768743	0.8621768476920137	98.8857875547559
14	5.0	wm	274	diff_vonmises	-0.06024641417304849	-3.451865262912824	0.3587893068642274	58.81515720459142	0.337981158045034	59.62202905011803	0.046788439820597105	-0.24531985131684397	0.2921082911374411	136.85534759670773
15	6.0	ltm	274	diff_vonmises	0.12052499422044975	6.90557349467041	0.694294169897123	100.77122466497397	0.6813971645072803	101.4962123181075	0.04384293521392735	-0.18140240328408552	0.22524533849801287	100.13640045554646
16	6.0	perception	274	diff_vonmises	-0.18606227765856698	-10.660583236427156	0.9665095327616734	244.9617809753897	0.9534282047314235	245.82800354647418	0.319741382402853	-0.3087293773671007	0.6284707597699537	89.74894349609654
17	6.0	wm	274	diff_vonmises	-0.048454713867503725	-2.7762506021219857	0.1332778033449745	78.82165058366972	0.1153170581604327	79.81478315772426	0.06159117321215213	-0.3508851214377504	0.41247629464990254	165.1393969300571
18	7.0	ltm	274	diff_vonmises	-0.020355796796117345	-1.166301245043447	1.3543996869959425	156.01593548093913	1.338730008691413	156.8474336468687	0.10439663739099103	-0.2359976553650256	0.3403942927560166	71.88495544534652
19	7.0	perception	274	diff_vonmises	-0.11375734312347013	-6.517815649596396	1.680443395791629	2.2089732496837704	4.827449412338089e-15	3.070679463166981	0.5364375143610197	-0.4531322475022904	0.9895697618633101	105.10949825637064
20	7.0	wm	274	diff_vonmises	-0.35188456805441354	-20.16150062530189	0.974570667608118	95.40935170654014	0.9601831870081036	96.18831843616992	5.583922795437957e-05	-0.17584514162653164	0.17590098085448602	81.03910026385769
0	1.0	ltm	275	diff_vonmises	-0.20727273504533256	-11.875852926230905	7.808786032016868	0.20211376749679294	1.4033565473086528e-22	3.869955971195973	-0.3944518837941132	-0.615922585829021	0.22147070203490782	48.651143119987125
1	1.0	perception	275	diff_vonmises	0.08002741235303525	4.585232973182028	13.209946568207005	0.7204380621003178	1.9732534011704846e-16	3.7170463220067624	0.4424310867048087	-0.5915862958454511	1.0340173825502599	37.29830826628151
2	1.0	wm	275	diff_vonmises	0.1949604001104176	11.170408098508798	14.395502869992649	0.3300286893946183	3.6417568954540014e-37	4.348208276740302	-0.19700513890070032	-0.692038840836156	0.49503370193545565	35.70899466482865
3	2.0	ltm	275	diff_vonmises	0.12434112771939868	7.124221838218675	7.000954124096141	0.5100471862598807	0.1973960471745173	2.1345272878776522	0.11819421635493976	-0.3564909543756596	0.47468517073059935	48.65987788410962
4	2.0	perception	275	diff_vonmises	0.024806728319531873	1.4213208362368335	8.333968378287242	1.3220185466895553	0.19165547131392738	3.0996893194776898	0.9058962536142624	-0.5178696866787711	1.4237659402930336	45.786728546435
5	2.0	wm	275	diff_vonmises	0.0691852205643864	3.9640211430210526	3.341711383719786	0.7388491237651914	0.025267622623135703	2.6859278238034987	0.07597797097029235	-0.4186298891418828	0.49460786011217517	73.48085392035594
6	3.0	ltm	275	diff_vonmises	0.17638207768606703	10.105948633160255	7.766607193324173	0.35287485772369087	0.07327919798330489	1.0072478918037227	0.2133222742883258	-0.16197850191828722	0.37530077620661306	48.033789967845905
7	3.0	perception	275	diff_vonmises	-0.016435692063283585	-0.9416957886028133	5.254391143722416	1.1564755185723714	8.763860427066845e-13	1.6156388057721958	0.7725087153727108	-0.257108797164283	1.0296175125369937	59.52840041752813
8	3.0	wm	275	diff_vonmises	0.00773517220131898	0.4431927209424959	1.4806410843911813	51.75683408885569	1.4206972453694056	52.47543417246818	0.24697248981601305	-0.2566215765308808	0.5035940663468939	72.02459162002765
9	4.0	ltm	275	diff_vonmises	-0.1299417805523974	-7.445115608067491	0.8424598789541117	69.67907889242018	0.797858215056906	71.93940996929588	-0.0920764207358502	-0.4707677767588798	0.3786913560230296	85.48420743684221
10	4.0	perception	275	diff_vonmises	-0.057077082441956084	-3.2702759308443383	0.8671299079232734	96.54959926916787	0.8057103268347853	98.88764392391057	0.4193377274475196	-0.6792224192748808	1.0985601467224004	93.65818271432408
11	4.0	wm	275	diff_vonmises	-0.10105326776658675	-5.789925749030823	1.1631616435320384	314.2188037256587	1.14814732616256	316.48954119019373	0.037900731717002145	-0.545274842709496	0.5831755744264981	74.6074812154279
12	5.0	ltm	275	diff_vonmises	-0.10446814480004997	-5.98558379060442	2.435052076518404	0.7796378426981715	2.1793514215593855e-17	1.7964180371131337	0.16651402906157647	-0.28243756577804263	0.4489515948396191	88.13479455186354
13	5.0	perception	275	diff_vonmises	-0.02812781199794903	-1.6116049144199194	1.1112086775085495	9.942989824439223	0.6500259962838788	11.067514822146086	0.5615373109605604	-0.4673813866798243	1.0289186976403846	95.25630328331718
14	5.0	wm	275	diff_vonmises	0.0015157466507816281	0.08684588590087715	0.6561619845185025	209.75131288639997	0.6446278810019753	210.7220946382383	0.1938158006446784	-0.31237330291019916	0.5061891035548776	107.15549258959085
15	6.0	ltm	275	diff_vonmises	0.3073554331465646	17.61016912971348	0.9555806159202169	121.09180448879158	0.9421235106879076	121.73404964276655	0.09705605157511599	-0.17747586217981137	0.27453191375492736	87.09382815189008
16	6.0	perception	275	diff_vonmises	-0.2799429438384234	-16.039549186409495	0.3568177574631787	212.8748236518046	0.3461387609661565	213.64647508691124	0.24383362408116938	-0.3739659287779453	0.6177995528591147	138.50380836029757
17	6.0	wm	275	diff_vonmises	0.2440623082261279	13.983740199578163	0.3510547558109047	145.7820188950629	0.3388260857543819	146.50144987880856	0.16667369417377387	-0.30756843625715113	0.474242130430925	138.84100160093124
18	7.0	ltm	275	diff_vonmises	0.15982273896808702	9.157168413092425	2.164585332581968	0.9591695874826752	0.3626804917528334	2.4598014359842377	-0.025634190787651834	-0.3195027711042332	0.29386858031658136	74.6846524333227
19	7.0	perception	275	diff_vonmises	-0.06496513389782992	-3.7222279878479334	1.2920389946809232	4.968010861374433	0.5622568222662286	5.625654200614872	0.5135794874830848	-0.3426163625808475	0.8561958500639323	94.5122375495632
20	7.0	wm	275	diff_vonmises	-0.13156752663450688	-7.538263997132292	2.272982518439229	0.6453968509542911	2.1563518752403643e-13	1.9126387995477683	0.05510434498852662	-0.3005909778816889	0.35569532287021555	91.18669620134277
0	1.0	ltm	276	diff_vonmises	0.04677597750364071	2.680066093557497	6.057239403922125	0.420057274083529	0.07182485373334485	3.7863590651488974	-0.2435414673984897	-0.60931934019002	0.3657778727915303	52.585049724356765
1	1.0	perception	276	diff_vonmises	0.05439530895258798	3.1166216282934736	15.97743352121381	0.6085013873924109	0.03315515487516799	3.311027301845796	0.4179150074506568	-0.5358791030093512	0.953794110460008	33.69787037589256
2	1.0	wm	276	diff_vonmises	0.09802240538041045	5.616270126017971	3.6654265940969726	0.731626351470525	0.1220295672819134	4.4590748512241705	-0.26268329946611013	-0.6963302984344599	0.4336469989683498	64.5398159183967
3	2.0	ltm	276	diff_vonmises	0.11762887204781942	6.739637917224434	4.6240120325801755	0.759866866173331	0.37898363987751815	2.1310334329523255	0.15376214186386572	-0.3424538368117833	0.49621597867564904	56.76144803670206
4	2.0	perception	276	diff_vonmises	0.029999569948470403	1.7188487452548507	5.609101887327937	1.4970311500119777	0.3756224459923235	3.170717178473099	0.670228904743544	-0.5197698076904056	1.1899987124339497	53.51934813016311
5	2.0	wm	276	diff_vonmises	0.06939239493355809	3.975891359997875	2.6691599567976163	1.1961902159971993	0.31605118555793565	2.902720233375364	0.11431933275911854	-0.3999611415612278	0.5142804743203464	72.16224556168413
6	3.0	ltm	276	diff_vonmises	0.09489303394941945	5.436970350493372	4.459372530580671	0.6345835908383617	0.3140107145586642	1.4719751196954782	0.20453846814166488	-0.22903285306023421	0.4335713212018991	59.410276417523875
7	3.0	perception	276	diff_vonmises	-0.06848663226816301	-3.923994982030217	6.0643133337703645	1.1056872940682645	5.088473617087564e-16	1.752622535391856	0.7829024366768892	-0.27893280309809776	1.0618352397749868	55.327644812344715
8	3.0	wm	276	diff_vonmises	0.012440010965263565	0.7127601254060676	1.879616256629288	3.515077578790198	0.9616199000358235	4.5648207410000605	0.21976127514465915	-0.32093822483939205	0.5406994999840512	71.95822512695361
9	4.0	ltm	276	diff_vonmises	-0.30435127784798793	-17.438043710103173	0.7925494734324785	152.21469497226957	0.7720643620921633	154.3267191469334	-0.03459427105343593	-0.456221151367064	0.42162688031362805	89.51874089584626
10	4.0	perception	276	diff_vonmises	0.025136741634931355	1.4402292063923434	2.3674953769822	1.881355633366917	5.505914763918611e-13	4.329009928620871	0.3846816117120523	-0.6795525162371929	1.0642341279492453	89.38612139099024
11	4.0	wm	276	diff_vonmises	0.027516246077685175	1.576564768294766	1.063541531255259	158.05729024625967	1.0373097116244419	160.53924417051692	-0.08506094619878013	-0.5462283145196771	0.461167368320897	75.68774771772303
12	5.0	ltm	276	diff_vonmises	-0.07288780748109926	-4.176163746629055	2.3344287053701316	0.955605551807096	1.6692459476816632e-17	1.8432212517108255	0.24749587972173498	-0.28828284009117044	0.5357787198129054	90.00322692169209
13	5.0	perception	276	diff_vonmises	-0.06460364231715662	-3.7015160459458407	1.5863501151654886	3.1653855060432163	0.3022139588454358	4.432893179786467	0.4854169558083944	-0.46326087005294225	0.9486778258613366	93.70339548981536
14	5.0	wm	276	diff_vonmises	0.012516652719563313	0.7171513744619218	0.5221971944059096	172.22801450647574	0.5078423365143923	173.19667001129733	0.22269647246226754	-0.3622375020010562	0.5849339744633237	120.83519866301809
15	6.0	ltm	276	diff_vonmises	0.21134252678413304	12.109034816361381	0.8626362963583376	100.62932744017894	0.8454971202552888	101.19778288508849	0.15151758274778615	-0.18430507283211206	0.3358226555798982	94.10395971929236
16	6.0	perception	276	diff_vonmises	-0.2503029000512054	-14.341299772818948	0.9465234873000408	2.2686926259736473	2.30224790344008e-19	3.21101499903083	0.24117443202353084	-0.3977510938710447	0.6389255258945755	130.3286023569603
17	6.0	wm	276	diff_vonmises	0.4313590609001295	24.71505364430407	0.3011270645922996	169.47578907802992	0.29038774635962117	169.9915036215127	0.21778642460470365	-0.30183278825989746	0.5196192128646011	143.3416488101159
18	7.0	ltm	276	diff_vonmises	-0.06102967931286306	-3.496743049663923	0.73957772107677	146.90068228067074	0.7232642803759137	148.65518628911823	-0.04978085530018461	-0.3710848249511294	0.32130396965094477	91.83326958777334
19	7.0	perception	276	diff_vonmises	-0.031939586504808604	-1.8300035061185334	0.8897171554733132	161.20460567123462	0.8627085017240967	162.47928588464134	0.4277687005314448	-0.44599554765543203	0.8737642481868768	93.72082691612869
20	7.0	wm	276	diff_vonmises	-0.05864592635860618	-3.3601640659831626	0.8885784280018924	204.19625351068257	0.8748178045789061	205.7768950716434	0.03305469013896811	-0.36374046895743106	0.3967951590963992	86.16414222559351
0	1.0	ltm	277	diff_vonmises	0.04719912245129535	2.704310513180392	2.637347819232507	0.47876232754332426	2.1403456664553262e-14	2.669314510755659	-0.133712960393429	-0.4233440928667987	0.2896311324733697	84.68966616443592
1	1.0	perception	277	diff_vonmises	0.037186693907164496	2.1306406149253787	15.014017255518379	0.542199396056936	0.03198138105241748	2.6142852433556016	0.4014237691027165	-0.4223868686797211	0.8238106377824376	34.78309323487335
2	1.0	wm	277	diff_vonmises	0.03491504698503047	2.0004848337432155	4.764971493280855	0.5020486185354619	0.07304671075632169	2.7106953620787535	-0.03920582864971156	-0.42823487412260597	0.3890290454728944	59.741158837273076
3	2.0	ltm	277	diff_vonmises	0.08793560090418706	5.038338800756704	3.4121541924725043	0.8149432097798281	0.3583152571313986	2.0640757539028765	0.11861792741409544	-0.3044427923067873	0.4230607197208827	64.74070731472469
4	2.0	perception	277	diff_vonmises	0.04154930546358634	2.3805998447633496	4.809350729087993	1.5295375830734317	0.43686088854550537	2.9511675836314324	0.6054122396483366	-0.4659902728446268	1.0714025124929634	56.837721492353495
5	2.0	wm	277	diff_vonmises	0.10032657843866585	5.748289517523758	2.947414361136513	0.7903656718786257	0.15410253065097523	1.8742838645031576	0.1664974148916255	-0.2726243329546759	0.4391217478463014	74.18730712421947
6	3.0	ltm	277	diff_vonmises	0.0559832034075667	3.2076012788759805	4.256362728445172	0.648349322071818	0.26829276043765743	1.6054015271122377	0.1874002062019417	-0.2476908063522558	0.43509101255419746	61.00612152600681
7	3.0	perception	277	diff_vonmises	-0.0448402775941054	-2.5691586583372685	6.076747066358421	1.2198518715332818	8.088003959967437e-14	1.884502072765645	0.872616777583735	-0.2999216388000704	1.1725384163838055	55.275160652507935
8	3.0	wm	277	diff_vonmises	-0.004854768987284406	-0.2781577734823973	1.2164431560035807	133.22060006656739	1.194455851693982	134.00190679056305	0.24520047482118912	-0.26155204539153054	0.5067525202127197	79.15426533608351
9	4.0	ltm	277	diff_vonmises	-0.15991410754343077	-9.162403446839745	0.9999056306526909	54.134989315336796	0.9472381922324687	55.771687720953885	-0.0024031871599099475	-0.3690721445244103	0.36666895736450034	80.6924592767472
10	4.0	perception	277	diff_vonmises	0.06219015917047446	3.5632336477149993	3.017101271433716	1.4917893153961872	2.3407222022150413e-16	3.828960335514185	0.3707445060697713	-0.6070497134778478	0.977794219547619	79.10738159148329
11	4.0	wm	277	diff_vonmises	0.09110535957746467	5.219952594810499	1.1364245572245188	216.59629341846497	1.1187706222545428	218.45390804695424	0.03718929053508191	-0.4446715204954117	0.4818608110304936	75.70911246403259
12	5.0	ltm	277	diff_vonmises	-0.04459823947374378	-2.555290895559268	1.4876379658568484	1.3485268641640833	2.2071925633106266e-20	2.1408207916945985	0.24045007984507555	-0.3110603839758868	0.5515104638209624	110.84293548630295
13	5.0	perception	277	diff_vonmises	-0.07080273123148213	-4.056697677563028	2.1270190357669154	1.7227834528652752	0.002144321729687671	2.8267324829183424	0.4715048728289156	-0.4358205153213039	0.9073253881502195	94.08676042271392
14	5.0	wm	277	diff_vonmises	0.11594821059441865	6.643343109154247	0.5273628713941443	157.55734889644998	0.5143379790769217	158.19980378955375	0.224497053253927	-0.2845080485568783	0.5090051018108053	121.47691786698674
15	6.0	ltm	277	diff_vonmises	0.17529102367041735	10.043435842842728	0.8085494632228482	89.92469053832679	0.7877659483862265	90.4724074956043	0.19188077745727128	-0.20017568595430824	0.3920564634115795	98.48201827889352
16	6.0	perception	277	diff_vonmises	-0.24208806490289378	-13.870624389424965	1.5789392678100818	1.3803443258703063	1.5359703841890237e-20	2.265335611608171	0.2562615592724841	-0.3343153392098679	0.5905768984823521	107.88728302144398
17	6.0	wm	277	diff_vonmises	0.2471453131988423	14.160383372732543	0.5110126871040005	159.48850931790295	0.5000216812525047	159.90133423088201	0.22604529287407615	-0.23421572743163743	0.4602610203057136	123.91804372662978
18	7.0	ltm	277	diff_vonmises	-0.04767008115346628	-2.731294459139745	0.5949144086866451	75.67490664473613	0.5634581606369862	77.23505408542273	0.046032093459238865	-0.38306418248780183	0.4290962759470407	108.18606634436381
19	7.0	perception	277	diff_vonmises	-0.041029293318591904	-2.3508053435596237	0.9655129860428618	220.9334312847414	0.9408786171124705	222.23305911574738	0.6037698056726839	-0.5107991252419808	1.1145689309146647	90.8818607543214
20	7.0	wm	277	diff_vonmises	0.005958141722383235	0.3413763744333664	1.056668886781785	236.1461089462771	1.0432111256062906	237.3996511244508	0.15974440175789084	-0.33744753653219917	0.49719193829009	82.04883491751349
0	1.0	ltm	278	diff_vonmises	0.03383456583203149	1.938577823832945	3.795449424863208	0.29951094490555236	1.6881884387667215e-15	2.436865785636755	-0.16408569257586772	-0.38772623338312007	0.22364054080725235	70.32976867864258
1	1.0	perception	278	diff_vonmises	0.005596042650909508	0.32062962587231586	14.5971728127886	0.48805079341076535	0.025306872758539083	2.5486579088886345	0.32118513254163117	-0.41027244412892483	0.731457576670556	35.299746429743806
2	1.0	wm	278	diff_vonmises	-0.013178980465061885	-0.7550999589334049	3.842045459195913	0.6595147838267483	0.2472327259316202	3.04750987940415	-0.11568487120616106	-0.48079251721421695	0.3651076460080559	60.67807355978263
3	2.0	ltm	278	diff_vonmises	0.043077129153757415	2.4681376940502555	7.924476399438401	0.43846385494096307	0.22991054789897328	1.6043657233086182	0.16687669934470872	-0.2735389987431147	0.44041569808782344	45.97324091096456
4	2.0	perception	278	diff_vonmises	0.009470907705984482	0.5426430397108392	6.717066580726092	1.2203539972930357	0.33903927711883297	2.6849692771527627	0.6532656352196559	-0.45374995001133517	1.107015585230991	49.651520216162396
5	2.0	wm	278	diff_vonmises	0.036723693080104494	2.104112621623774	1.7693055381482685	1.833797381411629	0.5264005887837555	3.1560879949973635	0.08387815898199003	-0.32003100471985113	0.40390916370184116	79.00480318425124
6	3.0	ltm	278	diff_vonmises	-0.034705906956426995	-1.9885019927769911	2.113095981612302	1.7362565359291036	0.9056609289148796	2.331656200776593	0.17091906664226597	-0.19606410913945493	0.3669831757817209	70.92343511057427
7	3.0	perception	278	diff_vonmises	-0.05720277582006282	-3.277477630922596	5.709801113524238	1.425273615019298	0.12814698454009676	2.116593067579938	0.9445873248607828	-0.3320379524520459	1.2766252773128288	55.85714318941163
8	3.0	wm	278	diff_vonmises	-0.1315142125549622	-7.5352093253857575	1.4314285696626166	269.14591620421163	1.4205625057656759	269.9860038397536	0.16717758539114413	-0.261530863060095	0.4287084484512391	70.9971029237033
9	4.0	ltm	278	diff_vonmises	-0.20017432823758674	-11.469144174880139	1.0931834072259554	123.27499441958787	1.0713581124752987	124.65867202052019	0.013310023229088586	-0.32364186561052044	0.336951888839609	76.89525244127924
10	4.0	perception	278	diff_vonmises	-0.03543785983065026	-2.030439803272454	4.0410299584455	1.4658619789647862	9.800964008389907e-14	3.3714318149156957	0.5967503777078909	-0.5362298008416001	1.132980178549491	68.10068662191449
11	4.0	wm	278	diff_vonmises	0.07065859349876397	4.048439193809692	1.0037111608273304	185.06966703043804	0.9883535823723478	186.9374257857239	-0.09625940454829163	-0.39693193998033394	0.3006725354320423	76.51029240744353
12	5.0	ltm	278	diff_vonmises	-0.031275272619892075	-1.791941124240877	2.3033965154990246	0.9886557773199167	2.160063407157542e-13	1.7253167732002312	0.28053286194988886	-0.2690502704869782	0.5495831324368671	90.60310282155885
13	5.0	perception	278	diff_vonmises	-0.08743867820205421	-5.009867227180256	1.907847806443204	1.966637227024412	0.09551346557318326	2.9498889991246062	0.47062006708214654	-0.40403644120786497	0.8746565082900115	94.68689498526611
14	5.0	wm	278	diff_vonmises	-0.07118911468466461	-4.078835818704075	0.3955498858336185	145.41612364320656	0.38216011790920945	146.3094189925415	0.15538517166492483	-0.33451352357530517	0.48989869524023	133.8913918663149
15	6.0	ltm	278	diff_vonmises	0.19724971350031203	11.301576093732535	0.6355717716556302	117.64114245549278	0.6222014400610693	118.23034433167881	0.13952096999303976	-0.2035973286428252	0.34311829863586496	109.71526013032317
16	6.0	perception	278	diff_vonmises	-0.16604550828831877	-9.513706832025195	0.8815559615099425	191.65480871015836	0.8662408062697309	192.50747593472383	0.2899288348012874	-0.3000461324941526	0.58997496729544	93.90127040359333
17	6.0	wm	278	diff_vonmises	0.24465547900678303	14.01772638184018	0.05345454546637432	116.97219511308015	0.04151319587806026	117.61597053766603	0.12070016074043721	-0.3151594863570182	0.4358596470974554	172.732639060469
18	7.0	ltm	278	diff_vonmises	-0.1013342436705736	-5.806024482474143	1.055277028151374	184.23423933626404	1.0411423339190709	185.43674072151381	0.07012302143931493	-0.29686949368008797	0.3669925151194029	80.13627761860488
19	7.0	perception	278	diff_vonmises	-0.10830098918090784	-6.20518959715801	1.0955755484914478	6.149557416930064	0.4510834455769147	7.236722108948372	0.49234779097159653	-0.4557833098790486	0.9481311008506451	102.08902285319321
20	7.0	wm	278	diff_vonmises	-0.2009614964832554	-11.51424559312367	1.0308653411929622	156.81790105804916	1.0173035450808403	157.9150381840286	0.02292475401905847	-0.25715007686036984	0.2800748308794283	79.66138864217658
0	1.0	ltm	279	diff_vonmises	0.016684408657779225	0.9559461997622802	6.316668654165675	0.37192292629866536	0.11822629991620262	2.749305093258463	-0.12586245449781802	-0.44891717753814697	0.32305472304032895	50.882387630698645
1	1.0	perception	279	diff_vonmises	0.0031026089866092775	0.17776640041207295	16.284940753670682	0.5532446627353031	9.156051914490728e-20	2.608215512124349	0.4684641029251859	-0.4151103914035431	0.883574494328729	33.55885148969216
2	1.0	wm	279	diff_vonmises	0.05448639109490717	3.1218402506373732	4.201944787398706	0.5623717990078598	0.16722250241509437	3.4018464263889765	-0.19139110273818538	-0.5418887520119013	0.35049764927371596	59.558084987039166
3	2.0	ltm	279	diff_vonmises	0.11087355436655785	6.352586724818044	5.921318142772668	0.6460022064473651	0.5399429471381707	1.6192480729919594	0.2009323722491626	-0.2826988997240911	0.48363127197325373	50.19236923599527
4	2.0	perception	279	diff_vonmises	-0.0036437489719467805	-0.2087714376976831	7.047650724874085	1.220658951820968	0.3403086728686811	2.3989296026043014	0.7467166502062687	-0.4067083174798724	1.153424967686141	48.80224825855109
5	2.0	wm	279	diff_vonmises	0.014175106073291288	0.8121737521498518	1.0689963699999312	55.02641419603957	1.014589123233948	56.474496535592216	0.06529308504843456	-0.3511502619464846	0.41644334699491914	79.92497915767171
6	3.0	ltm	279	diff_vonmises	0.0751342122176513	4.3048732571116854	1.771757750823766	43.75420027457521	1.7219703118683505	44.1062913156724	0.19487359594283404	-0.15772881036736486	0.3526024063101989	66.50525423172311
7	3.0	perception	279	diff_vonmises	-0.0779985236522276	-4.468986213523969	5.992607006936977	1.1581394946570462	4.0787945132744773e-19	1.5584110066963368	0.8570355019481813	-0.248021921428422	1.1050574233766033	55.67244412649231
8	3.0	wm	279	diff_vonmises	-0.060627826132594514	-3.473718558450626	1.6482109857788805	170.50064887266362	1.6295146070545512	171.27328729038908	0.18911372751205136	-0.2650948211525339	0.45420854866458527	66.4664461798653
9	4.0	ltm	279	diff_vonmises	-0.20004730148647634	-11.461866078156254	1.112843397302243	121.69785273755183	1.0903101868895126	122.98522881686266	0.05147424384513499	-0.3137676805510061	0.3652419243961411	77.43195803901438
10	4.0	perception	279	diff_vonmises	-0.051651430412146086	-2.959408968429637	3.0842257994607274	1.8757380469049842	3.8508167388712216e-13	3.5579371054967805	0.6817638067742974	-0.5636493100030102	1.2454131167773075	78.22029706723916
11	4.0	wm	279	diff_vonmises	-0.05505972065801258	-3.154689614873393	1.1320991698250544	211.72893492964184	1.1155817790295006	213.6879728009353	-0.05917898660639764	-0.44210618159240056	0.3829271949860029	73.3642224187129
12	5.0	ltm	279	diff_vonmises	-0.03857741705521129	-2.2103231817796076	2.8478053547171522	0.8015743199927703	3.608825561679819e-17	1.3164737183955164	0.3000456768240165	-0.20781073363295813	0.5078564104569746	81.46462277493416
13	5.0	perception	279	diff_vonmises	-0.05793876584898459	-3.319646753343525	1.985258594174675	2.009166122435367	0.10886005325272188	2.783541047463012	0.5393388242407343	-0.37681430179533626	0.9161531260360706	92.77260441155104
14	5.0	wm	279	diff_vonmises	-0.07881106068681115	-4.515541156303682	0.4618836608247153	106.96776493637307	0.4431954504897652	107.72323872827616	0.19218627405677324	-0.30835875731200524	0.5005450313687785	127.70270135610772
15	6.0	ltm	279	diff_vonmises	0.24570650255441484	14.077945595288352	0.7877867101744771	88.25866445921224	0.7734145842804091	88.5867519077639	0.14428110832508168	-0.13368136770620787	0.27796247603128954	100.43355610043093
16	6.0	perception	279	diff_vonmises	-0.19822186270127592	-11.357276140004782	0.725325434117587	144.1926943732281	0.7078403573855544	144.79133437800468	0.30960521836416177	-0.27501978392943727	0.584625002293599	105.45561296233345
17	6.0	wm	279	diff_vonmises	0.3031901992217073	17.371518805134446	0.0008100090875004072	1772.2471597361907	3.95434586648858e-26	1772.6188336444734	0.16936040593714097	-0.2875753606888338	0.4569357666259748	177.0365466806392
18	7.0	ltm	279	diff_vonmises	-0.05457985351507295	-3.127195252855951	1.0041475989499757	138.80048900869895	0.9893076773545365	139.79255412012532	0.052774034585731044	-0.24152336925285312	0.29429740383858416	82.10215595111114
19	7.0	perception	279	diff_vonmises	-0.0928284167689334	-5.318676499741322	0.7998089868567909	157.18082630674914	0.7781118568665503	158.0304369067555	0.3968374040269822	-0.3548851235981605	0.7517225276251427	100.10465005524745
20	7.0	wm	279	diff_vonmises	-0.12897799562804857	-7.389894799543967	0.7978348134784575	107.64319655563624	0.7834729665806011	108.71744856558769	-0.02757450041243459	-0.22859020974257227	0.20101570933013768	88.34458719094039
0	1.0	ltm	280	diff_vonmises	0.026900283416455898	1.541272707468682	7.528300264423099	0.3681570718689889	3.2261209532973473e-20	1.9558135450751302	0.08446333336939515	-0.31127727901320906	0.3957406123826042	49.571264298904225
1	1.0	perception	280	diff_vonmises	-0.03426419896563814	-1.9631939891275862	17.15220281022451	0.5498202910659116	1.534509417631472e-22	2.2664307314455097	0.5409110258731975	-0.36071365408493167	0.9016246799581291	32.694258354212394
2	1.0	wm	280	diff_vonmises	-0.02502205982975619	-1.433658422968865	5.424389411085167	0.35445433030433776	2.3608233462479257e-18	2.324651306695455	-0.04907417591656965	-0.36997350983220684	0.3208993339156372	58.573780857698836
3	2.0	ltm	280	diff_vonmises	0.15123733206030085	8.665260831873814	5.992903030682754	0.6825001724932739	0.6461705454193478	1.3230857997668617	0.2883683805852781	-0.2305093754544932	0.5188777560397713	50.13230969002842
4	2.0	perception	280	diff_vonmises	-0.020369640858036317	-1.167094451362722	5.663961337646144	1.1605180191897815	0.3461424591667083	2.021162885395909	0.6336976055712165	-0.3260409563798767	0.9597385619510932	54.082924487690576
5	2.0	wm	280	diff_vonmises	0.11946005701830863	6.844557087541253	2.907794241740258	0.5880499735035637	5.655926277197412e-11	1.56852414934903	0.12869455219241607	-0.24851064090722502	0.37720519309964107	80.60156434553804
6	3.0	ltm	280	diff_vonmises	0.013751389439444046	0.7878965773209148	1.838388577182498	120.18473073077006	1.8189263697110312	120.52737534962635	0.2130883383155151	-0.16379936391469663	0.37688770223021173	65.18518912153252
7	3.0	perception	280	diff_vonmises	-0.04064280745334808	-2.3286613346396905	3.347768306939127	2.5567097598923887	0.5876608457461263	3.1042454663582575	0.9643811094216419	-0.393981659885467	1.358362769307109	66.67487598525418
8	3.0	wm	280	diff_vonmises	-0.1614040155707179	-9.24776888866596	1.2884414622203948	151.3926984357681	1.2696769002372879	152.2629914708563	0.1771144405281504	-0.2635576473158068	0.44067208784395717	75.30011301191962
9	4.0	ltm	280	diff_vonmises	-0.023346071512922246	-1.3376313659010453	1.4089658364420832	144.87388438017823	1.3891953361863307	145.63549771677788	0.1963087474893328	-0.24908824134240248	0.4453969888317353	72.51430326540878
10	4.0	perception	280	diff_vonmises	-0.06264465672943688	-3.5892744396425442	2.646091513792813	2.6210263086327066	0.2600938219565549	3.900287211560901	0.8050996657380569	-0.5135526904160848	1.3186523561541417	77.37446111514149
11	4.0	wm	280	diff_vonmises	-0.15132649608213236	-8.670369554009172	1.1066762940229513	310.5275591389489	1.0943174107342954	312.1239846314187	0.14458877187186658	-0.41357741265940007	0.5581661845312667	79.09791773292099
12	5.0	ltm	280	diff_vonmises	0.003869908114743385	0.22172940207822506	1.600031998844023	1.3195609894592057	0.13731558949514355	1.582025753437112	0.30692133306257796	-0.1942223630025001	0.501143696065078	101.67188361832692
13	5.0	perception	280	diff_vonmises	-0.013848248254589827	-0.7934461786374059	2.1121696862769177	1.8606239633285477	1.5725715959721205e-14	2.4954027380995467	0.5948032265757899	-0.3826379638511845	0.9774411904269744	94.5165233872917
14	5.0	wm	280	diff_vonmises	0.2144551495323466	12.28737496305043	0.31884171615980583	4.127118522600454	2.3169148719339634e-17	4.859967967105059	0.10749659727211702	-0.30787034854080775	0.41536694581292477	160.88221677380818
15	6.0	ltm	280	diff_vonmises	0.4084158260097811	23.40050311670981	0.7928666807004079	96.47422307783783	0.7802168658025426	96.70421205524903	0.16408154784511098	-0.12114196880930983	0.2852235166544208	101.62212099148235
16	6.0	perception	280	diff_vonmises	-0.07642931287661545	-4.379077058914942	0.8305870923943238	243.1208566381281	0.8182823041524261	243.8710923732008	0.34070065048751985	-0.30411355875232715	0.644814209239847	97.79577632444052
17	6.0	wm	280	diff_vonmises	-0.024370222813748708	-1.3963109130212346	0.2687406194828513	55.542467762946046	0.24283774818132153	56.100541566398135	0.14243845734297622	-0.2652128570626475	0.40765131440562374	149.96497501478552
18	7.0	ltm	280	diff_vonmises	-0.06017730140183771	-3.447905392811993	1.1396236014013799	1.227015420958023	5.584122881976799e-16	1.847827064838307	0.15735647565513816	-0.2478768910956016	0.40523336675073973	122.96495883551115
19	7.0	perception	280	diff_vonmises	-0.04458397055940447	-2.554473346989392	0.8702028122746588	293.28391638915144	0.8565679992320587	294.0956996354234	0.507436540759457	-0.3809472733960213	0.8883838141554783	96.57560668624802
20	7.0	wm	280	diff_vonmises	0.12335545559055618	7.067746985252325	1.0187025106382819	102.83812374914132	0.9965908102953445	103.7581097538096	0.11610054205799258	-0.2464762814571113	0.3625768235151039	83.81089112588003
0	1.0	ltm	281	diff_vonmises	0.0405507344802759	2.323385941875433	4.359965373441417	0.31858301544525147	0.03483835870168568	2.527580353347475	-0.15975015628582073	-0.3988754702757877	0.23912531398996695	63.017693423417796
1	1.0	perception	281	diff_vonmises	0.007442308894998625	0.4264128895160925	15.721269570733412	0.5102826978398494	6.545458107372279e-17	2.462238666187495	0.40833372848717614	-0.3918774547957173	0.8002111832828934	34.17064812447026
2	1.0	wm	281	diff_vonmises	0.019646345360578042	1.1256526720175473	4.320091229063449	0.5778072175621152	0.19795088012438639	3.050089024875153	-0.12272274883596024	-0.48762994446065566	0.3649071956246954	58.698730302468505
3	2.0	ltm	281	diff_vonmises	0.07870141406649382	4.509258867721626	6.098636129825042	0.5476645452724977	0.37722090089099164	1.661033443166338	0.15525619591738016	-0.2839771375270428	0.43923333344442295	50.493979736761844
4	2.0	perception	281	diff_vonmises	0.00648716616841847	0.3716872424504317	6.964193284370423	1.2266234109443765	0.3312791369915511	2.536277290997384	0.7191881496713034	-0.42916044797632336	1.1483485976476269	49.03057364292155
5	2.0	wm	281	diff_vonmises	0.02069486926549764	1.1857286664880167	1.623272045762999	2.444364272489193	0.6367761649871283	3.7692024768447716	0.08358757150172624	-0.32441288467762575	0.408000456179352	78.72197118389857
6	3.0	ltm	281	diff_vonmises	0.031704968554724905	1.8165608877807264	2.562121533268038	1.0927262309299783	0.7795991090045243	1.6008442300509091	0.17348915568137685	-0.1733501287813916	0.34683928446276846	68.42688299318104
7	3.0	perception	281	diff_vonmises	-0.07201458907244532	-4.126132017220055	6.369267009644892	1.1641817857467205	1.353293951916355e-18	1.6529393021841843	0.8840860743288197	-0.26307009265018083	1.1471561669790005	53.960181633241035
8	3.0	wm	281	diff_vonmises	-0.07794805045501861	-4.466094312345363	1.5745647743776463	201.26509105101275	1.559602115333014	201.98842160167777	0.1984886699710131	-0.24982821436010383	0.44831688433111694	68.42627600137945
9	4.0	ltm	281	diff_vonmises	-0.24872342976194292	-14.250802791377899	1.007604419615214	100.14737156066633	0.9825098243950788	101.55440871193198	-0.0005270242574866302	-0.3190319620627129	0.31850493780522626	79.8321154223496
10	4.0	perception	281	diff_vonmises	-0.023591391354809706	-1.3516871574720133	3.2795582198701805	1.6642334988970202	3.269978208661294e-16	3.5961569558974875	0.5739490007862424	-0.5707214973290934	1.1446704981153357	75.80737743619437
11	4.0	wm	281	diff_vonmises	0.03517971096512879	2.015648962791984	1.130996090688794	198.64366018900327	1.1144954892440355	200.55101038545078	-0.08088572624090773	-0.4245609510233699	0.34367522478246215	72.64815507394891
12	5.0	ltm	281	diff_vonmises	-0.03137558118758969	-1.7976883818189526	2.5269438723566426	0.9013547522772652	2.3900589706331684e-18	1.4906262743384133	0.29732808685005085	-0.23382749819853152	0.5311555850485824	86.52823568381314
13	5.0	perception	281	diff_vonmises	-0.07459700287840207	-4.274093429257692	2.028362181224979	1.8330327766276304	0.062166681051440804	2.6574949710292515	0.5040441279323018	-0.3805720387615654	0.8846161666938672	93.6486291568373
14	5.0	wm	281	diff_vonmises	-0.06781580663568171	-3.8855595044998443	0.48464629826565386	139.20134494017557	0.4700636336404387	139.88708638522533	0.21263761451596963	-0.29806867670740544	0.5107062912233751	125.60175308440908
15	6.0	ltm	281	diff_vonmises	0.20300427164085275	11.63128798814817	0.7808352438379869	91.07235994085966	0.7648215427744542	91.45508065167763	0.16484533917279265	-0.15503743926062974	0.3198827784334224	100.87438871684921
16	6.0	perception	281	diff_vonmises	-0.210684780611366	-12.071348736670949	0.7930566388383242	62.763500736208435	0.7537373814929231	63.37459835672191	0.2910850753115781	-0.2598391995260023	0.5509242748375804	101.19019297098788
17	6.0	wm	281	diff_vonmises	0.27859675120064453	15.962418029853183	0.10420174703317897	116.59659611167055	0.09183937101243636	116.94714435258047	0.17903983132017842	-0.2684342595911495	0.44747409091132795	166.66805221993357
18	7.0	ltm	281	diff_vonmises	-0.07991174417085482	-4.57860567451914	1.0261422069222346	166.30827728559177	1.0119218777721593	167.43773274196275	0.058107422255211816	-0.2751744886375924	0.33328191089280423	81.09275998839308
19	7.0	perception	281	diff_vonmises	-0.10619785562971695	-6.084688920922411	0.8456686540286588	57.721796378408946	0.7784618950327845	58.63433582252191	0.467362034071936	-0.39457199129592624	0.8619340253678622	98.9684471388572
20	7.0	wm	281	diff_vonmises	-0.1604649229727973	-9.193962846233132	0.9152737174694393	123.01068657181986	0.9006071599633753	124.06507541135578	0.003077910971462927	-0.2368994751949014	0.23997738616636433	83.9265943849527
0	1.0	ltm	282	diff_vonmises	0.018862652873151635	1.0807504000519048	4.197801252380182	0.3601941675657456	2.5639770592628106e-11	1.8277835553932857	-0.006592331192484091	-0.2908365737598474	0.2842442425673633	66.78583527640379
1	1.0	perception	282	diff_vonmises	-0.029194645470489836	-1.6727299698397933	16.30992219861796	0.5562971708646525	1.1114104880568034e-21	1.8846842293651507	0.5890182670580087	-0.29995681127079715	0.888975078328806	33.53840138804739
2	1.0	wm	282	diff_vonmises	-0.03769510377949414	-2.159770354872652	9.304937859367987	0.2821749264084532	2.2934524581262808e-15	1.9543646676119935	0.027469022817379007	-0.3110467946527523	0.3385158174701313	44.51433029375161
3	2.0	ltm	282	diff_vonmises	0.132465214143439	7.589697702715715	5.108355033586084	0.6958585131723874	0.7147522890673257	1.4357577523821552	0.1976665013089826	-0.2417973378458633	0.4394638391548459	52.36650515877139
4	2.0	perception	282	diff_vonmises	-0.015068749126302742	-0.8633757274785938	6.6267954468231975	1.1272538932871043	0.2855919191909158	1.8692076143991037	0.7461699327899172	-0.3069517559176844	1.0531216887076016	50.85252655429986
5	2.0	wm	282	diff_vonmises	0.04030620862258556	2.30937564224796	2.2261758244027194	0.8355707379827036	0.25660765236541316	1.7425998281489636	0.10707446983686225	-0.22745806525135895	0.33453253508822123	80.40688652021186
6	3.0	ltm	282	diff_vonmises	0.09554065172717796	5.474076115896576	2.238648583393939	1.3802224257811269	1.0909026442421617	1.6571942942824154	0.16725486832374126	-0.12162776378934985	0.2888826321130911	69.10239457059981
7	3.0	perception	282	diff_vonmises	-0.06988013304447925	-4.003836695261342	5.6339928875677145	1.2236197277309742	1.77033153756718e-20	1.4825586965192883	0.8944586253120916	-0.23594210342041252	1.1304007287325042	57.44436133002958
8	3.0	wm	282	diff_vonmises	-0.10100072202752784	-5.786915099951353	1.7099757475463944	154.81766963729163	1.691560753342854	155.30919204138021	0.2481357384448728	-0.21049457552251383	0.4586303139673866	67.21459159821728
9	4.0	ltm	282	diff_vonmises	-0.03240350234781115	-1.8565839259718329	2.3080420400001556	1.3016241177484777	0.7562718345086803	2.18249105490964	0.08726245221815443	-0.23645095765821184	0.32371340987636626	68.41841315039841
10	4.0	perception	282	diff_vonmises	-0.02434402445213718	-1.3948098574707366	2.6823897145764337	2.066850029418482	5.044220095039659e-16	3.6444165327632763	0.6891695319937846	-0.5740882240773189	1.2632577560711034	83.97434555262379
11	4.0	wm	282	diff_vonmises	-0.09438550748020887	-5.40789122581643	1.297749152171641	247.80379331592448	1.2819224399622535	249.39469731229937	0.08700855750777237	-0.4130496156266261	0.5000581731343985	71.7481846470248
12	5.0	ltm	282	diff_vonmises	0.02546626181256691	1.4591093218352618	2.093168590613493	0.9812085467600756	0.03207689838525623	1.0621887312427833	0.34573241255116527	-0.15576417608469248	0.5014965886358578	93.9076404161413
13	5.0	perception	282	diff_vonmises	-0.03198285384331985	-1.8324825420059916	2.1110884641488536	1.7199111219701193	9.814394128188599e-15	2.050004665675244	0.5903940352995245	-0.3128237377354496	0.9032177730349741	94.53883299199231
14	5.0	wm	282	diff_vonmises	0.031563793578047304	1.8084721574442422	0.9135816882352553	2.3029785682713735	0.18887849433005385	2.5445266465197443	0.2643436751009689	-0.21178227926179416	0.47612595436276306	122.66407037765913
15	6.0	ltm	282	diff_vonmises	0.3355484655780564	19.225510899713413	0.8931307789330069	74.26480906320859	0.8789768529331045	74.25351803392104	0.20391898480607296	-0.08162972345514063	0.2855487082612136	99.94408354813027
16	6.0	perception	282	diff_vonmises	-0.19520458653917747	-11.18439895029111	0.8063447057860558	123.45054185191789	0.7902128316402453	123.68733757727848	0.30885100786886	-0.18532982765560035	0.49418083552446035	102.3751115635831
17	6.0	wm	282	diff_vonmises	0.07288363217489152	4.175924519205178	0.24987982125525035	102.28098771234042	0.23753817834796787	102.27185311433796	0.2238467633243424	-0.17277341292329496	0.39662017624763735	152.6285573493041
18	7.0	ltm	282	diff_vonmises	-0.021322574350445243	-1.221693518634415	0.7271808672732092	75.49028837370673	0.7059639690872151	76.04692617661651	0.14644869280351358	-0.18925389424573869	0.33570258704925227	102.97158484257949
19	7.0	perception	282	diff_vonmises	-0.10980101054760977	-6.291134490649476	0.9930637615135115	186.63740475629578	0.973763833040684	187.0844848892273	0.5317897407563166	-0.29762495830244795	0.8294146990587645	92.10510046740067
20	7.0	wm	282	diff_vonmises	0.08578447287323171	4.9150882433906755	0.8456129191000339	62.82003882674996	0.821891715487329	63.56820330243639	0.05415137980089568	-0.18611187951228914	0.24026325931318482	90.91782487913596
0	1.0	ltm	283	diff_vonmises	0.054246859475492945	3.1081160997850046	5.554157683738341	0.31716360542495026	1.4870169247940615e-33	1.8081965801621793	0.0030175110231301927	-0.28777906544242987	0.29079657646556006	57.86334066145517
1	1.0	perception	283	diff_vonmises	0.02216548363879715	1.2699886633693551	16.356840012988442	0.5088097416318841	0.024939141949114865	2.115234879593137	0.4692480055419419	-0.34072843571779715	0.809976441259739	33.37827623009193
2	1.0	wm	283	diff_vonmises	0.04566238480630098	2.616261931903341	4.675504980022108	0.48836415101934033	0.10283304387597533	2.1402721079293014	0.03197969811393092	-0.33733887450832	0.36931857262225093	59.92749548603345
3	2.0	ltm	283	diff_vonmises	0.1746294387949183	10.005529821686943	5.567657250582117	0.5649502150897342	0.5308352759193664	1.2121901932805053	0.21256565280105377	-0.20445985354900476	0.41702550635005853	52.19353927785613
4	2.0	perception	283	diff_vonmises	0.00957029442315729	0.5483374791445015	6.520733681281251	1.213583395576277	0.4614583483681981	2.0510607518970776	0.7190789269899514	-0.3484117950762364	1.0674907220661878	50.09028222743322
5	2.0	wm	283	diff_vonmises	0.12036939250086726	6.896658172853355	1.0535103507719983	104.08368754370933	1.0308562823367582	104.85129579982674	0.17751587822991155	-0.23359078533647626	0.4111066635663878	84.34890789597912
6	3.0	ltm	283	diff_vonmises	0.0702533433599101	4.025220071206275	2.0585189954636776	130.61263506050093	2.0373810001036214	131.03164722833844	0.20691643299392126	-0.19395233373553822	0.4008687667294595	60.70299555793159
7	3.0	perception	283	diff_vonmises	-0.044100297311182486	-2.526760911202889	5.279136823275095	1.3266188372643326	0.1748304292037513	1.6347861458999111	0.8763339808401591	-0.2526487897783087	1.1289827706184679	57.8634254199674
8	3.0	wm	283	diff_vonmises	-0.011173394820858336	-0.6401883660685151	1.3074508529308884	94.44006805848454	1.2826387284111687	94.96625388092751	0.2188025512227867	-0.1952887717375873	0.414091322960374	77.13120027260118
9	4.0	ltm	283	diff_vonmises	-0.05155671522166112	-2.953982187759071	1.5335184282678938	185.33156910838994	1.5178724499911793	186.28974038451258	0.08650564178834941	-0.2765469442251032	0.3630525860134526	66.53913631944783
10	4.0	perception	283	diff_vonmises	-0.012419484711073413	-0.7115840576717593	3.720609632148694	1.449549784161518	2.0847935312886602e-19	2.927911871305441	0.6050587532631206	-0.46536334244223027	1.070422095705351	71.05544661373193
11	4.0	wm	283	diff_vonmises	0.10671656118283114	6.114408559925852	1.3016873308995265	197.2105316194703	1.2846693733169547	198.54754012154294	0.08308216971791182	-0.35019202037294406	0.4332741900908559	71.86556769889577
12	5.0	ltm	283	diff_vonmises	-0.13708976979873255	-7.854665223887392	1.5405700827608328	0.9905403622227859	7.122236754792919e-17	1.706833868860576	0.16440241086293844	-0.25163299273240153	0.41603540359533997	109.15482851711899
13	5.0	perception	283	diff_vonmises	-0.07694136326610436	-4.408415385130687	1.624391251427942	2.581972375637696	0.23574135984458924	3.56769245154226	0.4649051886063388	-0.40085652723848575	0.8657617158448245	95.69180373786077
14	5.0	wm	283	diff_vonmises	0.2694188927477304	15.436565475532735	1.2959103162120755	0.9883155129720478	2.7783929436990674e-20	1.6745910421265373	0.12555180052114467	-0.23715753459578623	0.36270933511693093	116.83344646595154
15	6.0	ltm	283	diff_vonmises	0.12108000538154537	6.937373291783844	0.7541416315158384	94.45804111055297	0.737914492206862	95.15969728537193	0.0878503466842595	-0.19245820098075406	0.28030854766501356	98.09045566054087
16	6.0	perception	283	diff_vonmises	-0.23940442808494528	-13.716863326010598	0.8055371376863664	132.68107140047027	0.7809761289662561	133.7419504223032	0.3040426999342998	-0.3595076828454733	0.6635503827797731	98.04157832041211
17	6.0	wm	283	diff_vonmises	0.14050689071123057	8.050451830259421	0.4679335564561289	16.7311143648352	0.3559617828743399	17.58128719793198	0.15727996743710682	-0.3194134710246137	0.4766934384617205	131.35947424634662
18	7.0	ltm	283	diff_vonmises	-0.12529719555260124	-7.1790004899893995	2.119853400591621	0.8713705919302699	0.1571995360388146	2.085924050114038	0.07946323554550411	-0.28591833238248965	0.36538156792799376	84.83390916735104
19	7.0	perception	283	diff_vonmises	-0.007627777917186235	-0.43703948171786083	1.9561887824233124	2.6967793558612088	0.23175017896055428	4.138961644070428	0.553140562139501	-0.5060312642651489	1.05917182640465	88.1597184045994
20	7.0	wm	283	diff_vonmises	0.09660533360994845	5.535077894303368	1.065551977244424	154.94509054070573	1.0485955212975193	156.1437148408957	0.07368179777802908	-0.2975200169780159	0.37120181475604497	79.89616913977386
0	1.0	ltm	284	diff_vonmises	0.21225238849763295	12.161166052485468	0.6389631425576003	73.61721033199592	0.6212906533307623	75.02166553051117	-0.13172696506724435	-0.2625687432498385	0.13084177818259413	90.80850595399303
1	1.0	perception	284	diff_vonmises	-0.061124496248664124	-3.5021756599116873	13.716648891268758	0.5329991844523025	2.6076050043914844e-20	2.0521320277141695	0.45308190622545835	-0.3266069560869533	0.7796888623124116	36.60207719500306
2	1.0	wm	284	diff_vonmises	-0.06033917391972809	-3.457180004906268	11.162521916163357	0.2642933844711705	0.15489701200082961	2.0254019661680087	-0.026078542059706833	-0.34771575466532473	0.3216372126056179	38.93579163244286
3	2.0	ltm	284	diff_vonmises	-0.0008951590761907783	-0.05128883705856129	13.828563726940184	0.3370459218823267	0.4866978188486755	1.0558392180286447	0.23744873208200712	-0.21502165935464723	0.45247039143665435	34.76631087678123
4	2.0	perception	284	diff_vonmises	-0.026894812102818466	-1.5409592242888648	9.64717831480701	1.0033171969879144	0.2387700895887742	1.924428790304672	0.8425099150840911	-0.33049787463244357	1.1730077897165347	42.66737226087736
5	2.0	wm	284	diff_vonmises	-0.09595531501181086	-5.497834572025073	0.8830641358361784	73.92405066568631	0.857647172691187	74.9857574015488	0.024210611989488484	-0.24485026752782524	0.2690608795173137	86.84878368289606
6	3.0	ltm	284	diff_vonmises	-0.11966390800177805	-6.856236888543642	1.9573644399040468	19.531791805049036	1.904333143502135	19.461636521712556	0.19933755120200836	-0.047598091212982974	0.24693564241499133	69.26759256861456
7	3.0	perception	284	diff_vonmises	-0.0473019034932961	-2.7101994331009918	4.210155574778339	2.039305226341703	0.5734420073596606	2.312779959356757	1.0095946532134046	-0.3254547456378093	1.335049398851214	61.11290473311473
8	3.0	wm	284	diff_vonmises	-0.3074119600739738	-17.61340788408287	1.877459104729854	101.91778915445856	1.8552483485620406	102.28345980352404	0.1841688275971407	-0.16276546122008995	0.34693428881723065	63.91147083818248
9	4.0	ltm	284	diff_vonmises	-0.0737467147979651	-4.225375510878374	1.5435685128481234	107.15227840804047	1.5214810831133094	107.86113888733946	0.10148757085957527	-0.2154383433151903	0.31692591417476557	67.42427409501371
10	4.0	perception	284	diff_vonmises	-0.10436943315258633	-5.979928029815971	3.9072979206748353	1.9131408378553196	0.10808442604413898	3.022093102609324	0.917875663764644	-0.45597163835884136	1.3738473021234854	67.22171376095079
11	4.0	wm	284	diff_vonmises	-0.2186944075628952	-12.530266556467808	1.1545503529564205	176.3530166360438	1.1395060632903153	177.66917217638826	0.00950363699568868	-0.31193145079509677	0.32143508779078545	74.49795122682727
12	5.0	ltm	284	diff_vonmises	-0.00030808860320437917	-0.017652176679691618	2.6955459067604366	0.890088922761908	0.1667736290067832	1.1669126590997099	0.33026133976203054	-0.1601066433739336	0.49036798313596414	79.31972706995626
13	5.0	perception	284	diff_vonmises	-0.04995511308092938	-2.8622171446360243	2.0908234409236495	1.7400897492059202	2.471790174141544e-13	2.1069285688620623	0.5867260068362729	-0.3212450864043215	0.9079710932405943	94.97816099221296
14	5.0	wm	284	diff_vonmises	-0.2858837235614054	-16.37993079155326	0.4027221255551645	119.91900321214612	0.3900978748154181	120.52154478987138	0.14109358523639415	-0.24873299403876103	0.3898265792751552	133.09257635425655
15	6.0	ltm	284	diff_vonmises	0.3563058183419028	20.414819606946025	0.5294137981487357	84.2497600521751	0.5180419086928498	84.48500750779426	0.12085230283835457	-0.12668919438247617	0.24754149722083074	121.79396394197539
16	6.0	perception	284	diff_vonmises	-0.13948122348794745	-7.991685427180396	1.0095231426752758	202.1806828976286	0.9976126571923237	202.60269397924876	0.3113876166655416	-0.20718543276142043	0.518573049426962	89.95414924198427
17	6.0	wm	284	diff_vonmises	-0.04037401059717327	-2.313260409234489	0.000501247586680159	2309.121748150816	1.3725933692104628e-28	2309.5388988178693	0.11784130328061337	-0.25057831934094565	0.36841962262155903	179.92546989105048
18	7.0	ltm	284	diff_vonmises	-0.003717229902645263	-0.21298158490139946	1.3872575538337484	111.50061346359671	1.37205761651154	111.89255018920471	0.1427757462512318	-0.1406656783761715	0.2834414246274033	74.16128985395437
19	7.0	perception	284	diff_vonmises	-0.187178372719802	-10.724530772971319	0.7090389289414353	143.23015946956681	0.6880200473862736	143.60621249025093	0.4676122082435299	-0.3082744720786206	0.7758866803221505	109.23270739499378
20	7.0	wm	284	diff_vonmises	-0.6024108019530453	-34.515596485000785	1.14918784553312	50.78084962227232	1.1292961309979994	51.252543603631565	0.015528049288704437	-0.11496251984880335	0.13049056913750778	75.81815243255822
0	1.0	ltm	285	diff_vonmises	-0.023599725294926176	-1.352164657067402	4.88127770690783	0.3933310512509393	0.018387317531290935	1.8557933419879036	0.035880397092554916	-0.2932976152061285	0.32917801229868343	61.01022332485087
1	1.0	perception	285	diff_vonmises	-0.07327161719835325	-4.198154423563818	18.054673109098164	0.5411998312821409	1.7417414781496048e-20	2.0775066128656494	0.5801488345583734	-0.3306454467436685	0.910794281302042	31.86191025707936
2	1.0	wm	285	diff_vonmises	-0.1016301200622099	-5.822976950972462	17.463011884994984	0.22429564451825215	7.34779307023798e-19	2.0385644354367987	0.0467034930109706	-0.3244476067111052	0.3711510997220758	32.399506014202245
3	2.0	ltm	285	diff_vonmises	0.06028972822196635	3.454346975109441	4.182469765807649	0.9356206059880393	0.801400902257437	1.689482444063303	0.2235037988351921	-0.25751868699747665	0.48102248583266877	56.20369905357495
4	2.0	perception	285	diff_vonmises	-0.04256541439788428	-2.4388185982241573	5.6276193060277855	1.1006374189761101	0.2474997826236859	2.0348936530495227	0.6074980472912723	-0.3243930072718565	0.9318910545631288	54.936109305430335
5	2.0	wm	285	diff_vonmises	0.08878568774875238	5.087045189169891	2.555549480203173	0.527312561834437	1.0885260334249221e-20	1.541706030089673	0.0694381147686624	-0.24347200269112848	0.3129101174597909	86.03464768650616
6	3.0	ltm	285	diff_vonmises	-0.12635019289284266	-7.239332793423734	1.3328558075365224	90.66087814207499	1.3147774017948317	90.92193831822179	0.19221641694249314	-0.1245926203373422	0.31680903727983534	77.96071450659426
7	3.0	perception	285	diff_vonmises	-0.05765272029948309	-3.3032575506085884	3.4499205190095026	2.6276195553091397	0.5571271017819428	3.2866619337725433	1.015726751013251	-0.4290431188128005	1.4447698698260516	66.03098355985307
8	3.0	wm	285	diff_vonmises	-0.2983772070528656	-17.0957546670303	1.570500300689019	207.5664139732838	1.5548184572779755	208.3888194061223	0.19782218719139166	-0.2754061746832157	0.4732283618746074	68.13559904923292
9	4.0	ltm	285	diff_vonmises	-0.04953512760079561	-2.838153749167584	3.1783714485075008	0.7643926701685999	0.33364681012991115	1.4314684435111624	0.20792958952374657	-0.2001382497834341	0.4080678393071807	69.03731949962634
10	4.0	perception	285	diff_vonmises	-0.07798670327539237	-4.468308955819056	2.9503136748322563	2.5154119959830727	0.17888082082340753	3.8781967617309108	0.8994328442913403	-0.5450962568984195	1.4445291011897599	75.31149021326436
11	4.0	wm	285	diff_vonmises	-0.25275693415642825	-14.48190556982938	1.0698534204431525	221.93689404150007	1.0527850980901017	223.58710185445074	0.131966864912485	-0.4194675794026175	0.5514344443151025	80.31702093715393
12	5.0	ltm	285	diff_vonmises	0.0867056830921139	4.967869700976948	0.9031663612558974	75.96218260261348	0.8756638811221104	75.86002954158263	0.43057849299610496	-0.15630705255423472	0.5868855455503397	100.53413957341215
13	5.0	perception	285	diff_vonmises	-0.0110840035882243	-0.6350666257131128	2.138579407123008	1.8077612729596724	1.6259155529204327e-17	2.1167976288940107	0.6340704488600183	-0.32341859530642564	0.9574890441664439	93.95343542100812
14	5.0	wm	285	diff_vonmises	-0.016088391048111526	-0.9217969062128454	0.28183968639484946	111.68433075796715	0.2663000630629753	112.15076517373139	0.2129794558829623	-0.2899812783628217	0.502960734245784	148.37892486172154
15	6.0	ltm	285	diff_vonmises	0.4057781555734216	23.249375732959983	0.7335589594470986	69.48554470723796	0.7189986226169218	69.3490862564607	0.2323479193364868	-0.08259304401996648	0.3149409633564533	111.82620500243905
16	6.0	perception	285	diff_vonmises	-0.055725160267566486	-3.1928164960216647	0.9771363314904554	174.6554660722665	0.9642050408235513	174.9941010501954	0.3148460955895871	-0.19264658177318594	0.507492677362773	92.12020958519696
17	6.0	wm	285	diff_vonmises	-0.06921105305251822	-3.9655012355653274	0.20081536545812032	56.93279880142019	0.18196528015367797	57.04198911033065	0.16474992353490592	-0.16744940875215697	0.3321993322870629	158.0995581530501
18	7.0	ltm	285	diff_vonmises	0.03697681867023123	2.1186156496247945	0.5027318365699708	65.62257009897357	0.4813445017157446	65.83282033440103	0.2108410756890713	-0.17892188617190286	0.38976296186097414	126.611060732236
19	7.0	perception	285	diff_vonmises	-0.1485128881134827	-8.50916169220117	0.9260430489681276	206.41353459914455	0.9099991923346085	206.74731429836868	0.5217357923765178	-0.278110138319164	0.7998459306956818	95.88693830968231
20	7.0	wm	285	diff_vonmises	0.04738514995322047	2.714969103914063	0.9790110243408157	84.80837568950574	0.9605614835057968	85.35941979028492	0.1125322557270323	-0.16267142966849057	0.27520368539552287	87.14104653452952
0	1.0	ltm	286	diff_vonmises	0.03793238696583709	2.17336567999952	8.34460749170342	0.42754408828073875	0.07798386485712634	4.157832713848723	-0.2294585860702577	-0.67961041715116	0.4501518310809023	45.195702812723766
1	1.0	perception	286	diff_vonmises	0.029988145487458633	1.7181941718556644	15.235915782556225	0.5231842813582925	7.818407334134849e-14	3.7783835326399906	0.2063143115363112	-0.601348416116578	0.8076627276528892	34.70628164914933
2	1.0	wm	286	diff_vonmises	-0.15789961261148966	-9.046981389389025	0.4638561878784413	82.50608496291665	0.4282241062875371	87.21671532873616	-0.5550947512775579	-0.8342491451975249	0.279154393919967	101.6847995975067
3	2.0	ltm	286	diff_vonmises	0.10004558313908402	5.732189672794704	12.039004844563658	0.5418248131432175	0.3167512331842503	1.8881524530289917	0.3394685628163997	-0.3492540092961139	0.6887225721125136	37.571222696945966
4	2.0	perception	286	diff_vonmises	0.013219696254058133	0.7574328018024351	6.092467180376979	1.3005225061180683	0.304145095791595	3.144017949669845	0.5890948623210633	-0.5203019575545875	1.1093968198756508	51.912576185857944
5	2.0	wm	286	diff_vonmises	0.04260760908169929	2.4412361755246463	0.8890297022772983	160.26879635121878	0.8655787133104443	162.78398552148803	-0.07871004518970892	-0.5355169461677747	0.45680690097806576	83.26636420814978
6	3.0	ltm	286	diff_vonmises	0.031015655187675194	1.7770661410868258	1.531425640515737	113.57761381186354	1.5094862443555108	114.2350320969866	0.14818138639002143	-0.21480355121694217	0.3629849376069636	68.95535863143661
7	3.0	perception	286	diff_vonmises	-0.04283451743469933	-2.4542370664878135	2.898996455245345	3.3064510025603013	0.5878930732678634	4.546119858605182	0.9265884872143155	-0.5495242715237172	1.4761127587380327	69.50328268516478
8	3.0	wm	286	diff_vonmises	-0.1534110560675729	-8.789806043316768	1.1261956127064463	219.03592296632067	1.1091652286108917	221.11222119460146	-0.05526405868349116	-0.4696290175295168	0.41436495884602564	73.77842864664618
9	4.0	ltm	286	diff_vonmises	-0.08061597634019844	-4.618955205619871	0.8980278685717873	179.56403330778815	0.880593734915103	181.34334925437406	0.028860148685645015	-0.4068507241946371	0.4357108728802821	85.54546001580368
10	4.0	perception	286	diff_vonmises	-0.08384749916815057	-4.804107825061709	1.2228716909724653	428.0973373094756	1.2048063710674746	429.8913540773655	0.7438231269821927	-0.6606714567343346	1.4044945837165272	79.79713384495912
11	4.0	wm	286	diff_vonmises	-0.2953262014357147	-16.920944921896844	0.6891021868743711	90.31686200668423	0.653510845845151	93.33844740906241	-0.22129723985901606	-0.5882449035276611	0.36694766366864506	91.19725339109354
12	5.0	ltm	286	diff_vonmises	-0.04680707983481841	-2.6818481258669973	2.054174631943736	1.185432232191045	0.1611278188328736	2.127294268625008	0.22628214992492973	-0.2821667501655726	0.5084489000905024	87.8527203461262
13	5.0	perception	286	diff_vonmises	-0.01636036488076282	-0.9373798589617619	2.172283592469987	2.03728754615298	0.06656111915299892	3.406152893640118	0.5258327657036662	-0.4923511460774809	1.018183911781147	90.04003857574926
14	5.0	wm	286	diff_vonmises	0.08336106504781275	4.776237202955193	0.0009127622233817261	1657.9461274796172	1.6923572938046563e-26	1660.0767427471162	-0.09819398550564529	-0.5798920013758675	0.4816980158702222	179.65748179509632
15	6.0	ltm	286	diff_vonmises	0.791234804414111	45.33441489678772	0.2217001126417877	118.01935553977174	0.20928148576576946	119.13894270708161	0.03809710975319902	-0.3487606227411941	0.38685773249439315	142.9993748708052
16	6.0	perception	286	diff_vonmises	-0.0005746819613873783	-0.032926850949796915	0.7780079046193776	388.2287843734619	0.7676282400468397	389.6562346183875	0.34489712198433153	-0.4597208896992697	0.8046180116836013	98.71206630799654
17	6.0	wm	286	diff_vonmises	0.1866476510989982	10.694122664002919	0.00018058435596371151	8825.941987314789	1.2819067682610742e-30	8827.811109944701	-0.043806816526057446	-0.5511304923641092	0.5073236758380517	178.80138086292243
18	7.0	ltm	286	diff_vonmises	0.14820605621948904	8.491581519655327	1.1874970590597684	15.389493251048323	1.0184248666525513	16.83705506265624	-0.012920464337042858	-0.33247524280447704	0.3195547784674342	75.29729662912749
19	7.0	perception	286	diff_vonmises	-0.0021216121167511957	-0.12155942005366038	0.5946379929647311	149.0661024882231	0.5731476214619339	150.15310177525774	0.32218543624427554	-0.42485539091099866	0.7470408271552742	114.8209808984251
20	7.0	wm	286	diff_vonmises	-0.4297775668268005	-24.624440708577367	0.6549687963337547	198.05188475435975	0.6436976173369541	200.0510005840133	-0.12320223803268249	-0.39782303766326166	0.27462079963057917	94.35907281874726
0	1.0	ltm	287	diff_vonmises	0.029492328161825114	1.6897859316874002	2.4921165359955553	0.31042299769555876	3.050672911407286e-11	1.6394508398026766	-0.07832129714596178	-0.2596766750835793	0.1813553779376175	87.13152072875582
1	1.0	perception	287	diff_vonmises	-0.01047573993852323	-0.6002156857540175	13.755864515772819	0.44706580107692895	0.055817334581583535	1.9877416857996284	0.3207965843271635	-0.32462448303086705	0.6454210673580305	36.23052512638813
2	1.0	wm	287	diff_vonmises	-0.0262655901126833	-1.5049074598772973	3.724570523589253	0.7110078905598276	0.4236013700491714	2.240230604758231	0.004651245293181949	-0.3489091665159654	0.3535604118091473	59.78368481764531
3	2.0	ltm	287	diff_vonmises	0.04985636101343704	2.856559067950522	15.156651057126737	0.28000719410771185	0.24939420469690865	0.9602201324917936	0.23807632425775468	-0.1749406966422884	0.4130170209000431	33.97704055540876
4	2.0	perception	287	diff_vonmises	-3.052749280326725e-05	-0.0017490964967432077	8.313928711157525	1.07541135304605	0.41331106045108285	2.0776780813750197	0.738086416094275	-0.37070083239009644	1.1087872484843715	44.911415174260014
5	2.0	wm	287	diff_vonmises	0.07261957572639817	4.160795199153295	1.0436309113083382	108.55432349129624	1.023470211252438	109.41523660595887	0.11472548059440868	-0.2330971086851683	0.347822589279577	82.86661521274777
6	3.0	ltm	287	diff_vonmises	0.0028926923689455448	0.16573906417027973	2.153459407749674	86.06933450660254	2.1271473531462024	86.34525878337328	0.19361040779836003	-0.149131876309621	0.342742284107981	60.12270928535705
7	3.0	perception	287	diff_vonmises	-0.04853805809482187	-2.7810258745940946	4.992843751452103	1.6605106973310788	0.3814130520642779	2.0675108660802612	0.9739458234099239	-0.31606189468648516	1.2900077180964091	57.829515322459144
8	3.0	wm	287	diff_vonmises	-0.1576293350446099	-9.03149562550975	1.487777855361981	159.07184314033157	1.4742291522482174	159.59501738981982	0.15425975373499057	-0.18018166631901522	0.3344414200540058	70.74947305182391
9	4.0	ltm	287	diff_vonmises	-0.12869132476596634	-7.373469769037278	1.560510034318331	182.71351042939975	1.5467871077973385	183.60095908744913	0.04201816172651718	-0.2483202646422633	0.2903384263687805	64.8674252726963
10	4.0	perception	287	diff_vonmises	-0.05450202480920461	-3.12273599648473	4.889963898534609	1.3038477688711865	0.0012406832432070392	2.6433739252537385	0.6960273354813136	-0.4201333433694255	1.116160678850739	61.72175823896603
11	4.0	wm	287	diff_vonmises	0.19307756360226952	11.062529513078763	1.2157356215126727	119.26642173156742	1.1951605711438802	120.56395947165863	-0.03786282299609667	-0.3004999496522345	0.2626371266561378	70.84822326004365
12	5.0	ltm	287	diff_vonmises	-0.07438889165431778	-4.262169534448361	2.446681390370564	0.7448222686539406	6.0895283073255285e-18	1.4903004048814164	0.1962357129598764	-0.2339394858923201	0.4301751988521965	87.9326058754742
13	5.0	perception	287	diff_vonmises	-0.12374439069932278	-7.090031325489113	1.1063862017914576	6.081469428156604	0.5327798439488092	7.010437188488347	0.4270531161998734	-0.3815314804206457	0.8085845966205192	98.84473528383971
14	5.0	wm	287	diff_vonmises	0.0066647996664621146	0.3818648921884779	0.4880666951639949	2.04665849352524	2.2348742877148966e-09	2.9162592396970126	0.03628610667916904	-0.2755910001012755	0.31187710678044456	152.81921126661348
15	6.0	ltm	287	diff_vonmises	0.0006505045545030745	0.037271165527064	0.6973540482956676	108.51662625679383	0.6834957000551388	109.3337687610785	0.05655795477204251	-0.2075227840553424	0.2640807388273849	100.29116131322223
16	6.0	perception	287	diff_vonmises	-0.2008068735750053	-11.5053863530649	1.0487102212483954	228.25328103218484	1.0324471038021998	229.3262205709646	0.3262993234343412	-0.35391297953526646	0.6802123029696077	85.3953498569783
17	6.0	wm	287	diff_vonmises	0.06683124436631366	3.8291482417972325	0.00035907995697964873	3882.8656785090448	1.2243425402604937e-32	3883.9766298762797	0.04510877943971536	-0.3986957429044651	0.44380452234418044	179.77635749509912
18	7.0	ltm	287	diff_vonmises	-0.09813684314012237	-5.622826926666397	1.3233661140907735	190.8341165884026	1.3087827420773663	191.8549698179932	0.0970518277939334	-0.27855029036944856	0.37560211816338196	72.07806840494482
19	7.0	perception	287	diff_vonmises	-0.08992912385823726	-5.152559252386233	1.7363328340524435	2.2709822612146975	3.9728991831762e-15	3.5499601447002362	0.5101981391990378	-0.5316255823686197	1.0418237215676576	103.58535408696468
20	7.0	wm	287	diff_vonmises	-0.220068590918337	-12.609001463011747	1.0374734517806508	109.24176547005786	1.0218417741451704	110.26973438947499	-0.03336245617077083	-0.2255200578069978	0.19215760163622697	76.58197762353691
0	1.0	ltm	288	diff_vonmises	-0.2219371500157315	-12.716062013063228	0.3351706979532613	162.4886381050575	0.3237456233975917	165.701703293454	-0.3538654463194888	-0.6009421010241418	0.247076654704653	124.20291702716246
1	1.0	perception	288	diff_vonmises	0.13367877598448324	7.659229674385676	6.278538772057835	0.9326903485916106	0.17983383859842597	4.336349793102823	0.09259772168018265	-0.7145767185507946	0.8071744402309773	51.052464783679454
2	1.0	wm	288	diff_vonmises	0.10033801348521455	5.7489446974295335	7.962245458032046	0.3889904466875505	1.876554991951901e-40	3.701106443252633	-0.1585069701697998	-0.5890493330935942	0.4305423629237944	48.17454390856926
3	2.0	ltm	288	diff_vonmises	-0.03035964042116639	-1.7394792636676113	4.214301804755655	0.5643241594000499	8.828997741086246e-11	2.567740582373239	0.03769527572416137	-0.4085710554234378	0.44626633114759917	66.65233130747646
4	2.0	perception	288	diff_vonmises	0.04169411987213061	2.3888970991856198	5.6798942628050995	1.448457112612924	0.2601962041073678	3.828806813045593	0.5664410795522442	-0.6230122671468449	1.189453346699089	53.767820161024815
5	2.0	wm	288	diff_vonmises	0.13531789973902975	7.7531445476208285	2.5465199168420782	0.8649012427106358	2.6773783586227307e-25	2.536052525518739	0.11164522001244309	-0.4004617306442375	0.5121069506566807	86.18358794539537
6	3.0	ltm	288	diff_vonmises	-0.003189671075237221	-0.18275469064604802	5.182245733427495	0.5674420771943599	5.85373301053191e-15	1.8835260534629004	0.20173019662929353	-0.2997566673787605	0.5014868640080541	59.951459236699606
7	3.0	perception	288	diff_vonmises	0.03644576515625106	2.088188524578139	3.4600983250726447	2.77828467900507	0.5056916880204646	4.062766435901487	0.9652205485827403	-0.5512835605352701	1.5165041091180105	65.60803399338533
8	3.0	wm	288	diff_vonmises	-0.04000608498825179	-2.2921798246685072	0.9740598591743439	205.88987976111073	0.9597781242541621	206.9283097905887	0.21079712993555688	-0.30613861891079	0.5169357488463469	87.2547632600359
9	4.0	ltm	288	diff_vonmises	-0.005472312749841915	-0.31354042474157157	2.8421595348583355	1.021559453702107	0.1750081554565917	3.240099531874483	0.03903394150972772	-0.4745237341715878	0.5135576756813155	73.03408002707278
10	4.0	perception	288	diff_vonmises	-0.03998589812853503	-2.291023202805114	2.873691890495264	2.1643952662018013	0.30875221062173885	4.664221564702856	0.39589291468256294	-0.6468169207407134	1.0427098354232762	71.39348805503079
11	4.0	wm	288	diff_vonmises	0.05796127104241175	3.320936205944027	0.8227229662913809	213.0918355982413	0.8063972931942316	215.1196472510791	0.04604889133260315	-0.4670757082849093	0.5131245996175124	89.9235179903499
12	5.0	ltm	288	diff_vonmises	-0.07527508590733564	-4.312944724975034	1.3028004667347077	1.5724063523856715	2.7052857673249268e-14	3.2166427177418067	0.11382020003708848	-0.4657245937248631	0.5795447937619516	116.95628394383749
13	5.0	perception	288	diff_vonmises	-0.04937710123255384	-2.82909950521555	1.2338224471170667	5.537586786245448	0.4345721301610044	7.223314100356755	0.43958321282473767	-0.5489980603541821	0.9885812731789198	96.82788398058443
14	5.0	wm	288	diff_vonmises	0.0677001512100599	3.8789329367339254	0.4504961464523262	207.67284934939968	0.43970232084487276	209.02318737748485	0.09698271066262976	-0.396960643469189	0.4939433541318188	125.34221556372825
15	6.0	ltm	288	diff_vonmises	0.2128652716511953	12.196281670519259	0.6376723270876605	173.35313765705808	0.6248748597199585	174.74191560400158	0.045710580861047845	-0.33596734318073374	0.3816779240417816	103.48986930649212
16	6.0	perception	288	diff_vonmises	-0.09708207093264906	-5.562392930830479	0.6843795077082206	226.8082759763423	0.6707418054261384	228.28753725860884	0.17618480529954184	-0.4116731201943118	0.5878579254938536	102.99049586497537
17	6.0	wm	288	diff_vonmises	0.00829040235243719	0.4750050652599802	0.6546354280720428	166.4834420963476	0.6412849959918423	167.7314532311971	0.08116714358751409	-0.3192603442911306	0.4004274878786447	103.54950261608994
18	7.0	ltm	288	diff_vonmises	0.0788355027580606	4.516941583828833	0.6407653810995599	50.55047676292913	0.5892480113690056	52.43737165571967	-0.0036980871350813516	-0.427252629986274	0.42355454285119265	102.84271897727862
19	7.0	perception	288	diff_vonmises	-0.08116739943192133	-4.6505494215016485	1.7017079973904627	3.329193636208319	0.17262525220133218	4.5350820658120385	0.7055255552243807	-0.5519562957939399	1.2574818510183206	96.6464734276745
20	7.0	wm	288	diff_vonmises	-0.16015238884556657	-9.176055959789007	1.1614886323688596	182.98721119455988	1.1403764500545746	184.17495795678772	0.281421854544476	-0.36574365002515563	0.6471655045696316	80.14084877423511
0	1.0	ltm	289	diff_vonmises	-0.0010130374870800539	-0.05804277249822575	5.954204442378764	0.623154302253662	0.11105121807801964	4.133769630203586	-0.14021505555033653	-0.6695247399653075	0.529309684414971	52.65057861097753
1	1.0	perception	289	diff_vonmises	-0.004954340274466672	-0.2838627879986262	16.60211997789704	0.6001667720908948	6.475367034923133e-17	3.9179753126900545	0.34426714263433633	-0.6235651379266327	0.967832280560969	33.23802288032334
2	1.0	wm	289	diff_vonmises	0.005490045618694416	0.3145564432854789	4.078957290314611	0.46794187054291153	9.503282780285491e-19	4.645780183201634	-0.3757857176803213	-0.7392947075472875	0.3635089898669662	67.7801007773231
3	2.0	ltm	289	diff_vonmises	0.03298980702605679	1.890176709544084	2.9126508131496625	1.5583169407291686	0.5389861133930439	3.1396690926357427	0.2059170671238093	-0.4206330848868128	0.626550152010622	66.50742549437476
4	2.0	perception	289	diff_vonmises	-0.0026861815290942846	-0.15390686462310046	3.7755656452634008	1.6404445632602365	0.3753880114165454	3.5053261472834545	0.4377975151452549	-0.521170558856962	0.9589680740022168	63.02669954196014
5	2.0	wm	289	diff_vonmises	0.10637876759576742	6.095054413040517	4.118779374130023	0.6693721040206884	2.41998872848589e-15	2.600282436523759	0.10907302269572272	-0.4137094737887581	0.5227824964844808	67.43949877512202
6	3.0	ltm	289	diff_vonmises	-0.08518221300786216	-4.880581294934883	1.1365567246887844	92.43241826473785	1.0991290092784967	93.60578814718596	0.22343184959603235	-0.3422901106410734	0.5657219602371057	80.64395756801105
7	3.0	perception	289	diff_vonmises	-0.03621136686531754	-2.074758491782569	3.0259952562971364	3.2507982380925133	0.5191636553755031	4.778780980410194	0.9433700235394746	-0.6098606478778248	1.5532306714172994	68.87785549223611
8	3.0	wm	289	diff_vonmises	-0.16020788567733368	-9.17923569402561	1.7044781441376702	3.376807434086569	0.6537189898751289	5.2620410544846585	0.12982667658014768	-0.4671801890210208	0.5970068656011684	77.22184062815035
9	4.0	ltm	289	diff_vonmises	-0.07433796327011842	-4.259251552976317	2.5325818296559612	1.3588384360333168	0.08743410887690255	3.160236134274734	0.25905986065525033	-0.462525894242284	0.7215857548975344	81.84416472028312
10	4.0	perception	289	diff_vonmises	-0.052118586097921936	-2.9861750176001327	1.106962410354033	100.43046640731774	1.0318290717007572	102.63235141882342	0.6519729555288549	-0.7194947002040397	1.3714676557328946	84.09171724092795
11	4.0	wm	289	diff_vonmises	-0.21591615688717647	-12.371084518319755	2.865144782330061	1.1111490985211792	7.51127291434907e-16	3.8218043640177206	0.10054953893767804	-0.6059578896186438	0.7065074285563219	81.20255628359895
12	5.0	ltm	289	diff_vonmises	0.029826422717276296	1.7089281396730525	0.8719350984267283	10.865715780847502	0.601496948439864	11.502412015288648	0.3906898620886743	-0.3178302140435093	0.7085200761321836	104.73024378660546
13	5.0	perception	289	diff_vonmises	-0.0034411958933112685	-0.1971660011644868	2.3481776671517895	1.9320202300376774	4.412926640407854e-16	3.135220911808207	0.5983125293936172	-0.48896895295225085	1.087281482345868	89.74642391105439
14	5.0	wm	289	diff_vonmises	0.03067141140119725	1.7573424249980372	0.24666460917941427	243.1951663029558	0.23645989056990938	244.52267359296664	0.17227167918012753	-0.5068808701292404	0.679152549309368	151.02939741559993
15	6.0	ltm	289	diff_vonmises	0.3215488654922661	18.423392899926643	0.6433087621469734	86.8799455127025	0.6250208301636787	87.22630923388611	0.2079894687818893	-0.18514182075908092	0.3931312895409702	112.54336116300107
16	6.0	perception	289	diff_vonmises	0.011305770556448831	0.6477729370277903	0.6999865113968852	160.95375306339827	0.6816460224047444	162.01201728214855	0.2649569034447836	-0.35847568107774386	0.6234325845225275	104.73818987246108
17	6.0	wm	289	diff_vonmises	0.2722619402907853	15.599460100704821	0.2642318441102512	110.86079400050788	0.25302277706787923	111.35154702281278	0.12059911746223051	-0.22912453594274673	0.34972365340497724	148.42618361492876
18	7.0	ltm	289	diff_vonmises	0.023765114802022643	1.3616407777997783	0.1903985208909207	114.07354487072774	0.1735216949748286	115.18378801182253	0.12288126511832687	-0.42371698851418316	0.54659825363251	158.2383512706013
19	7.0	perception	289	diff_vonmises	-0.05619182772556299	-3.2195545718009635	0.818183200274543	259.1706830395709	0.8024434865717684	260.2372938137526	0.4545768705498858	-0.4223201847646436	0.8768970553145294	98.4328934706401
20	7.0	wm	289	diff_vonmises	-0.008214412251186845	-0.47065115317356365	1.0936659052824826	194.12514566947942	1.07508022119047	195.29000328317952	0.26215330711356444	-0.35242188437353406	0.6145751914870985	82.52050527942052
0	1.0	ltm	290	diff_vonmises	0.00920344868261027	0.527318766478806	6.553226402086039	0.5470054729599058	0.18075102590787515	2.96536835918552	-0.013872682580235662	-0.49292268824285185	0.4790500056626162	49.71461324512748
1	1.0	perception	290	diff_vonmises	-0.015260786754780684	-0.8743786730980811	17.821160852951344	0.6193055089030062	1.9943362230387725e-18	2.985363791686154	0.5603100931842715	-0.4751354043744144	1.035445497558686	32.06868767974714
2	1.0	wm	290	diff_vonmises	0.05266557704024079	3.017515290026887	5.300200933684398	0.44389611626531394	0.051072220688342135	3.3338915719756717	-0.1610043657733069	-0.5300094310648703	0.3690050652915634	56.95472015253122
3	2.0	ltm	290	diff_vonmises	0.056805949395670345	3.25474115160564	1.4761867022515223	63.05475124583486	1.4198075729880602	64.06496135010269	0.20522419889514865	-0.31740751888570884	0.5226317177808575	70.47671316534004
4	2.0	perception	290	diff_vonmises	-0.019438888935758902	-1.1137662944425375	4.870346159164382	1.3570148644027662	0.3824588862364749	2.5749330427150783	0.5809634393883129	-0.4050954185925978	0.9860588579809106	57.16848489576219
5	2.0	wm	290	diff_vonmises	0.10862267974674006	6.223621108889371	4.439088841289567	0.5846918118802653	3.055302117401566e-13	1.8153202741263836	0.18674378216606907	-0.2888508842676935	0.4755946664337626	64.89881367589913
6	3.0	ltm	290	diff_vonmises	-0.0325203947593772	-1.863281367811674	2.202823896768941	2.0979838982439047	0.8834149247929193	2.7156666545288908	0.2792370874489518	-0.23388742582228947	0.5131245132712413	71.49638949694781
7	3.0	perception	290	diff_vonmises	-0.05427094410889173	-3.1094960476298747	4.745847260893815	1.5960730969287193	0.2162933465190841	2.2582545935744722	0.9049292670872147	-0.3443644455126192	1.2492937125998338	60.27864287747434
8	3.0	wm	290	diff_vonmises	-0.11791202458633207	-6.7558613626396244	1.3537134080562272	156.98139028583154	1.3325911410223719	157.87652554490515	0.23704570797649183	-0.29143357832242955	0.5284792862989214	74.1958817700054
9	4.0	ltm	290	diff_vonmises	-0.1281652000093432	-7.343325040985424	1.1907467554182973	116.62937254460658	1.1594749084239593	117.7424190196227	0.2624831479402374	-0.3431772888427318	0.6056604367829692	79.25396934576935
10	4.0	perception	290	diff_vonmises	-0.04060442260613697	-2.326462044897239	3.1007140246078806	1.9415982222504182	3.007870091075399e-14	3.6675718829946105	0.71198339991676	-0.5810861580614175	1.2930695579781775	78.01221024984
11	4.0	wm	290	diff_vonmises	-0.1405353938935847	-8.052084942311003	1.0022836916718292	247.4069419443448	0.9862432844605282	249.2035912980474	0.14184889049160176	-0.45240257221567504	0.5942514627072768	83.08573777577817
12	5.0	ltm	290	diff_vonmises	-0.013409476702786825	-0.768306420548688	2.071389100009514	1.2290975425132427	7.84186505431907e-14	1.6010002790775055	0.39281879999564795	-0.24452331799059043	0.6373421179862384	95.40831042418773
13	5.0	perception	290	diff_vonmises	-0.03151483373382081	-1.805666965004446	2.2364679163102688	1.8631522046564861	3.1884072412620976e-12	2.7061046404122195	0.5972416571995396	-0.4189570660802425	1.016198723279782	91.92417431878854
14	5.0	wm	290	diff_vonmises	0.028400467704634967	1.6272269356731803	0.34239392033392363	147.72809128785704	0.3284975327961165	148.38415975880974	0.22965959473013697	-0.3379472104366812	0.5676068051668182	141.17755168133823
15	6.0	ltm	290	diff_vonmises	0.11774889317824169	6.746514621450019	1.6151744022090868	0.8147878295835248	3.2896705885123027e-13	0.9321616356802976	0.2207803203499939	-0.1337605691360612	0.3545408894860551	106.94741918654964
16	6.0	perception	290	diff_vonmises	-0.13098099108333416	-7.504657985515716	0.6637597474776179	44.40922266522505	0.6103051348034948	45.12349484102271	0.25962522577414227	-0.29232450205714633	0.5519497278312886	110.65969991795876
17	6.0	wm	290	diff_vonmises	0.3049291750654529	17.47115478165627	0.3442557168198787	99.9196590690647	0.3326274018703934	99.97853584924911	0.1973371790267393	-0.15604371756002955	0.35338089658676886	141.4536648033562
18	7.0	ltm	290	diff_vonmises	-0.0758890430611788	-4.348121878692111	0.42936333657386294	113.6176011480015	0.4132747979209429	114.44382227578123	0.14628205850434384	-0.3037431106468471	0.45002516915119095	130.2389131445131
19	7.0	perception	290	diff_vonmises	-0.0810636210484214	-4.644603358122412	0.8787939656632928	246.11813247335346	0.8621123065111811	247.16431397667287	0.4528217565947017	-0.40759426102970764	0.8604160176244093	94.95727389404193
20	7.0	wm	290	diff_vonmises	0.10163291119677148	5.823136871202895	1.045379821060546	149.07264597673384	1.0287668154953649	149.83840860923448	0.20104848397214425	-0.24139642058183952	0.4424449045539838	85.01616731053468
0	1.0	ltm	291	diff_vonmises	-0.49793935579068915	-28.52982354026958	0.0002534513194209064	1915.3633246813297	1.8799544328115597e-31	1917.6271018000264	-0.28302704158767256	-0.43754580565286005	0.1545187640651875	173.02728117257672
1	1.0	perception	291	diff_vonmises	0.050625418413323124	2.9006228111673	10.771004496853013	0.5946786589749729	0.022786580962971547	2.878254259228733	0.3005672553262849	-0.46104318699503904	0.7616104423213239	41.09708755537255
2	1.0	wm	291	diff_vonmises	0.06861476132899662	3.9313362364489577	9.578468833242468	0.2987387731208242	0.03173358516643845	2.734658535889652	-0.08536979324252492	-0.4395576890720946	0.35418789582956967	43.19926580944872
3	2.0	ltm	291	diff_vonmises	-0.008094911133203875	-0.4638042434660446	17.881973167298398	0.22992941474347756	6.00029174280519e-15	1.5838865200947467	0.1328022776162484	-0.25208336896969796	0.3848856465859464	32.02986432363804
4	2.0	perception	291	diff_vonmises	0.013867416772964797	0.7945444538398105	10.506858983922948	1.121193955982732	0.2042266924538692	2.679676960065791	0.9140120856255531	-0.4601228345586652	1.3741349201842183	40.920563053227625
5	2.0	wm	291	diff_vonmises	0.06481660995903621	3.7137181929983947	2.4299200939599093	0.7628930753006685	0.07512489183276516	2.1370536734409704	0.07600029024035815	-0.315667182209764	0.3916674724501221	83.24168032627426
6	3.0	ltm	291	diff_vonmises	0.07234679790651444	4.145166181329177	4.129721317234129	0.5441969404697192	0.49398671058278976	1.0152583142383977	0.17638098310023154	-0.15297792078171635	0.3293589038819479	59.9331138253236
7	3.0	perception	291	diff_vonmises	-0.011806707710232376	-0.6764745217408833	5.078878547770811	1.5117296800106415	0.27852784664202934	1.9357588512236101	0.9224906030351221	-0.29746020499036674	1.2199508080254888	58.08314354049327
8	3.0	wm	291	diff_vonmises	-0.11641851359227734	-6.6702894860239	1.5078430454312441	115.68837013634129	1.4890225959343504	116.09107859528281	0.20733234882938234	-0.16679465470856059	0.3741270035379429	72.01200247754304
9	4.0	ltm	291	diff_vonmises	-0.00578018385612699	-0.33118013976572996	1.244773633863107	125.39943316379737	1.2215104074941443	126.89839803182333	-0.038131134015266355	-0.3515787184689074	0.31344758445364107	70.23290678892548
10	4.0	perception	291	diff_vonmises	-0.0655411926457384	-3.75523372285468	4.759951045133862	1.3453021870324766	1.6102133111220106e-12	3.1531380482909	0.6344088142526766	-0.5017541252190328	1.1361629394717094	62.61833566866491
11	4.0	wm	291	diff_vonmises	-0.009854399032181374	-0.5646154741817958	1.1241230667583901	210.25668180680404	1.110417755468799	211.760315153577	-0.006701955003364901	-0.34884421602675175	0.34214226102338685	74.97270639084809
12	5.0	ltm	291	diff_vonmises	-0.10394822023780946	-5.9557943075228525	2.608585454642617	0.7342752562101211	5.4216602220853425e-18	1.8494726805984407	0.14930896180723263	-0.2919468940964791	0.44125585590371175	85.15417077262171
13	5.0	perception	291	diff_vonmises	-0.08345845865446735	-4.781817445568059	0.8413885937974099	167.89889727879532	0.8165495917978766	168.8951855599973	0.490481015824102	-0.4190748674655804	0.9095558832896824	97.79905331844496
14	5.0	wm	291	diff_vonmises	-0.07829880554182723	-4.486191098462242	0.5586763208355275	135.62588217744846	0.5452804776065637	136.53440810307188	0.11014548927556689	-0.27351936024716217	0.38366484952272906	114.76035809433901
15	6.0	ltm	291	diff_vonmises	0.12717153486744787	7.286392222105554	0.8461849222132556	130.40969973714752	0.8326815617174015	131.31957818974723	0.054145704116457694	-0.22186065706642744	0.27600636118288513	90.11664842602357
16	6.0	perception	291	diff_vonmises	-0.21470496380611648	-12.30168826659957	0.7902682785961026	238.7878828772983	0.7788857793894557	239.63767361614643	0.2644410499035956	-0.2979658569009942	0.5624069068045898	98.9084620976128
17	6.0	wm	291	diff_vonmises	0.030468113747308283	1.7456943274452879	0.34219737851843923	118.35529071192107	0.32817376782112945	119.32264910953874	0.09169510449487461	-0.32205990555847386	0.41375501005334847	139.19954695385567
18	7.0	ltm	291	diff_vonmises	0.03284868329146844	1.8820909151630472	1.2964884803150842	193.74273879210605	1.281595361535212	194.97525889358238	0.03972447328351336	-0.3124006697434538	0.3521251430269672	71.0422449562463
19	7.0	perception	291	diff_vonmises	-0.13145197624348529	-7.531643447405669	1.8311459635622178	2.1742780924632665	1.578797990380245e-16	2.9208549989869423	0.5983260567826687	-0.43756913560192706	1.0358951923845958	101.08675813221329
20	7.0	wm	291	diff_vonmises	-0.36645773010832655	-20.996481305151306	1.0277385042914127	109.74481904819453	1.010818531757029	110.60039486870811	0.05655494849010978	-0.21245100968965502	0.2690059581797648	81.59184869327899
0	1.0	ltm	292	diff_vonmises	-0.11316547977908281	-6.483904377914505	4.145878137114133	0.32046970914534223	1.0796179538055141e-14	3.88597800202305	-0.367259635315052	-0.6184096417112438	0.2511500063961918	67.21884334216722
1	1.0	perception	292	diff_vonmises	0.044038816040706044	2.5232382938854867	12.525847685689978	0.5824970305739131	2.2095510201400294e-14	3.6051116612107967	0.2397996897397	-0.5737713412691812	0.8135710310088812	38.31689374384197
2	1.0	wm	292	diff_vonmises	-0.588375274314956	-33.711419988099045	0.0007968695650707541	1161.1103664707616	9.030023510663772e-28	1165.240138687386	-0.5099875325805101	-0.804501121664174	0.2945135890836639	170.31597918797587
3	2.0	ltm	292	diff_vonmises	0.07194356630600185	4.1220627124535	14.130203458695313	0.4304872121734807	0.16546454802841798	2.1337065699918596	0.2416811722930713	-0.3710221777527386	0.6127033500458099	35.1971142495201
4	2.0	perception	292	diff_vonmises	0.022348105074324384	1.2804521008736862	7.292631016932932	1.248734210338936	0.200129757074859	3.2585616168817118	0.6932624140342831	-0.5396978722279595	1.2329602862622426	48.55166045104889
5	2.0	wm	292	diff_vonmises	0.028757310787816594	1.6476725382879234	1.8006413968494726	1.4798086930658105	0.2599417752225597	3.8014712154486507	-0.055262274981828896	-0.48225118945808365	0.42698891447625476	83.48205265988216
6	3.0	ltm	292	diff_vonmises	0.06841212632060957	3.919726105686782	2.5550804916528413	0.7835941583392235	0.4015258434865176	1.5693065631851408	0.10918713135810693	-0.2036839183995125	0.3128710497576194	72.74575898079675
7	3.0	perception	292	diff_vonmises	-0.026751697204645215	-1.532759344638093	3.8208666229592354	2.112714403096021	0.308278618811102	3.1885502547075624	0.909349445001097	-0.46133771395065626	1.3706871589517533	65.2740602177015
8	3.0	wm	292	diff_vonmises	-0.12635346909868322	-7.239520506191215	1.2462144769252754	188.36705958878792	1.2273095171259945	189.86940207523514	0.07694194217249617	-0.38304480541418684	0.459986747586683	73.23660087582576
9	4.0	ltm	292	diff_vonmises	-0.13749623090539245	-7.877953729835221	1.9840866288040264	1.109452989259328	0.20191210499891626	3.225347137656415	-0.05223831678290369	-0.4354521503787156	0.3832138335958119	82.66190473581767
10	4.0	perception	292	diff_vonmises	-0.0724846276676374	-4.153063244932819	1.1136264617519163	396.01634046243936	1.0949104998421637	398.2073564361667	0.5990976517090587	-0.6993089191708393	1.298406570879898	82.4051744940765
11	4.0	wm	292	diff_vonmises	-0.203227827526278	-11.644096796868347	0.8858689320030216	80.66814192254905	0.8388604117204606	83.46621772771253	-0.14709797353870968	-0.5762771961983884	0.42917922265967867	82.2680661243879
12	5.0	ltm	292	diff_vonmises	-0.03501205659823197	-2.006043075151858	2.2096272074968746	0.9926322414571214	0.03810998175806291	1.932040821251243	0.22439886031004613	-0.2893401538555498	0.513739014165596	90.35368579274581
13	5.0	perception	292	diff_vonmises	-0.009095825042355881	-0.5211523861163952	2.3016414131009095	1.838623738069784	1.4123242575831026e-11	2.979677035837248	0.557613033283231	-0.4638907403709072	1.0215037736541381	90.64208599849587
14	5.0	wm	292	diff_vonmises	-0.08287464399115702	-4.748367329342525	0.45121594799510506	207.8538308637012	0.43945141366410806	209.38625002095264	0.09190219280316114	-0.43882828138420393	0.5307304741873651	124.93499322158624
15	6.0	ltm	292	diff_vonmises	0.6192655041081546	35.4812997834386	0.5106555489939252	156.19760745868234	0.5007028692479155	157.01903521039193	0.08801069033685849	-0.24895256500314922	0.3369632553400077	118.2797076386168
16	6.0	perception	292	diff_vonmises	-0.06302921654255572	-3.6113080939045936	0.7335775317986637	273.7765226453895	0.7225568686487165	274.71357490504823	0.3049789949288737	-0.34362036087759407	0.6485993558064678	102.94579564041686
17	6.0	wm	292	diff_vonmises	0.15590107845108025	8.932473816784844	0.00041106732631864337	3581.489556433329	4.914209150092628e-30	3582.7027670896296	0.04124865340941142	-0.42737744021508206	0.4686260936244935	179.1180317839801
18	7.0	ltm	292	diff_vonmises	0.17461277648355572	10.004575141568935	1.1066500923981464	71.91900349168704	1.069697768556931	73.3174700716111	0.002002212709729889	-0.3242946581752779	0.3262968708850078	76.28862031988353
19	7.0	perception	292	diff_vonmises	-0.08820997338873136	-5.0540591861356114	0.7447814364831606	194.08314357549287	0.7271038143215164	194.72181726800244	0.46971932129061145	-0.35447632605269774	0.8241956473433092	105.14704244633276
20	7.0	wm	292	diff_vonmises	-0.36559383109541205	-20.946983537785787	0.7650182733140606	133.7112988347018	0.7478259981215877	135.24201231909055	-0.010650468346383946	-0.33599931477226797	0.325348846425884	91.76448383077896
0	1.0	ltm	293	diff_vonmises	-0.2473036237116153	-14.169453896966987	9.871103618340511	0.1710260976755706	0.012485373142630972	2.689303647165101	-0.2218703320996897	-0.4295759673590022	0.20770563525931252	42.7490991981135
1	1.0	perception	293	diff_vonmises	-0.0018787602272502448	-0.10764503173847846	12.114634437353818	0.6418281744260089	1.8446450777359296e-22	3.1907252977098937	0.373818246456336	-0.507819703152424	0.88163794960876	38.956597897640734
2	1.0	wm	293	diff_vonmises	0.030841966042088203	1.767114486097458	12.151355790680709	0.2194476668721327	6.195316371892806e-35	3.2920942880519948	-0.2220690039147652	-0.5239530790596474	0.3018840751448822	38.89841845460455
3	2.0	ltm	293	diff_vonmises	0.03727145619519152	2.135497136291199	9.78636690991124	0.413868061183723	0.2190249073954847	1.6223215534868953	0.19196657908303638	-0.28156036327551176	0.47352694235854814	41.72440000170741
4	2.0	perception	293	diff_vonmises	-0.01414981899159846	-0.8107249090926502	9.001765083473062	1.1100402920011736	0.17288789716004896	2.5545182266187934	0.8294109550683844	-0.42696985672115495	1.2563808117895392	44.24565848031966
5	2.0	wm	293	diff_vonmises	0.049215251903139294	2.819826221723074	2.534937924364436	0.6416762954508607	1.2155267426205096e-12	2.2960156155396927	0.015844966005893246	-0.3630265964419113	0.37887156244780457	86.38912169291916
6	3.0	ltm	293	diff_vonmises	0.017738523011854714	1.0163425033749647	3.2681908668216177	0.7192627124612031	0.6972624954772103	0.9936725122206476	0.21224133112550564	-0.12542059265259062	0.33766192377809623	64.98546503787222
7	3.0	perception	293	diff_vonmises	-0.012050018232282791	-0.6904151877654968	3.3521708416147566	2.7235700265808034	0.7013180084017321	3.251569022622222	0.9730854775119614	-0.40033193748514107	1.3734174149971023	65.49784690739011
8	3.0	wm	293	diff_vonmises	-0.22971199666036202	-13.161527912162004	1.537516915047276	139.2914262428092	1.5185072555494663	139.92415739756376	0.18437128413074078	-0.2196446180677185	0.4040159021984593	69.53599206944415
9	4.0	ltm	293	diff_vonmises	-0.04270715880956236	-2.4469399547828763	1.2667871458789464	137.96105702656436	1.243731204565204	139.1492051513185	0.12245765543674025	-0.3220608859169154	0.44451854135365565	74.10420248557833
10	4.0	perception	293	diff_vonmises	-0.11725846568713719	-6.718415196052542	2.8372759698014285	2.822876092546233	0.37494043609696903	4.226743725797318	0.8454764828390773	-0.5468684109017783	1.3923448937408556	72.92394395434428
11	4.0	wm	293	diff_vonmises	-0.23692895473333314	-13.575029150666118	1.0756845294227282	216.99358524647272	1.0593791852347718	218.65375044565994	0.0789722092284677	-0.40569042424576907	0.48466263347423677	78.99612314611772
12	5.0	ltm	293	diff_vonmises	-0.05335916721918025	-3.0572550799918417	2.8991407199117103	0.7831788063894473	4.859785360422544e-19	1.5231320701121949	0.26060331735452497	-0.24088846159684674	0.5014917789513718	80.72801676516119
13	5.0	perception	293	diff_vonmises	-0.02014505453492948	-1.1542266029123387	1.7165147199994635	2.8462024721013415	0.25169332036690095	3.595944630965124	0.613555880946829	-0.40011774060334165	1.0136736215501707	93.95805196010858
14	5.0	wm	293	diff_vonmises	-0.1861750326458657	-10.667043621318426	0.4437000093563731	136.5660429583216	0.4302592146558863	137.63624139389833	0.08911979203866593	-0.32425809147001416	0.4133778835086801	126.51610988834919
15	6.0	ltm	293	diff_vonmises	0.36299646399991153	20.798165365367456	0.6796852288425983	117.83627944686529	0.669108653282754	118.4097895729185	0.0774177978164019	-0.16414878996735638	0.24156658778375828	103.68474930239597
16	6.0	perception	293	diff_vonmises	-0.09620775254848918	-5.51229817746742	0.7852336647034427	260.92402130814753	0.7752305593857781	261.635886669458	0.2856165608523753	-0.27806811734476966	0.563684678197145	100.13530274853012
17	6.0	wm	293	diff_vonmises	-0.07479813349008989	-4.285617364438289	0.3163360882964534	74.93552008691371	0.2978542280607499	75.73146429712686	0.08137514679527591	-0.2744123193423693	0.3557874661376452	142.71580326228553
18	7.0	ltm	293	diff_vonmises	0.06668017350764223	3.820492519187942	1.1375017884362009	120.41756125461934	1.122127217752784	121.12089147008628	0.08884900600820345	-0.19095319757271056	0.279802203580914	78.9084526127435
19	7.0	perception	293	diff_vonmises	-0.14536872211867582	-8.329014250610184	0.7125035498807921	114.15446391063888	0.6846976335626903	114.62312890696013	0.4729441827045733	-0.3304250349836426	0.8033692176882159	108.75690539236841
20	7.0	wm	293	diff_vonmises	-0.31593066358520433	-18.101493642199653	0.9454531613897272	81.21099378618356	0.9274519693427988	81.87568003185797	0.05988464744771704	-0.16929272332306233	0.22917737077077938	86.09798879090908
0	1.0	ltm	294	diff_vonmises	-0.007226904510450989	-0.41407112739290003	4.8480201109014205	0.2944229677209238	3.4163448517598537e-19	1.779431605260635	-0.032104571859349396	-0.2831898825712499	0.2510853107119005	62.038230797564154
1	1.0	perception	294	diff_vonmises	-0.033268011527339617	-1.9061166533091318	15.349731828090786	0.5070350399340652	1.1192558202598421e-21	1.942077596712762	0.476739248904595	-0.30909124938482796	0.785830498289423	34.57359465158541
2	1.0	wm	294	diff_vonmises	-0.076265101738676	-4.369668453761971	8.281786222840744	0.259034084109077	3.3186641874858357e-14	2.0779481172920238	-0.03813837932954728	-0.3307156956089219	0.2925773162793746	47.22444974128916
3	2.0	ltm	294	diff_vonmises	0.09636679945307591	5.52141089384486	13.035578447209156	0.4083241912208496	0.6157145186156482	1.0681867981875826	0.2951914033472453	-0.2267991625624984	0.5219905659097437	35.53390557535275
4	2.0	perception	294	diff_vonmises	-0.010697427130754467	-0.6129174262409728	7.930473828660116	1.0592433001441104	0.2967087417262866	1.8735316796013008	0.7773504643858176	-0.3186909299430517	1.0960413943288692	46.62395588871948
5	2.0	wm	294	diff_vonmises	-0.012200554155934396	-0.6990402608558374	0.9367087303193145	114.3494862922588	0.9183839605314715	115.43939008481587	0.04294042292323752	-0.25850607678261817	0.3014464997058557	84.71946403526223
6	3.0	ltm	294	diff_vonmises	0.0951212744725494	5.450047569182576	2.0520334185439246	73.44672591595969	2.0317562090244183	73.59750144255074	0.15130646767819655	-0.09435334029342712	0.24565980797162368	62.5146427481867
7	3.0	perception	294	diff_vonmises	-0.06789434696074421	-3.8900595336475114	4.807478499136748	1.5321429686956607	0.22220297016372437	1.8509325630077826	0.937611710361274	-0.28071837039501385	1.2183300807562878	60.14741435385946
8	3.0	wm	294	diff_vonmises	-0.12729341151771706	-7.293375239787171	1.6993474617316704	138.583951516569	1.679776531703068	139.23503573643504	0.1530078374911028	-0.2247104547053489	0.3777182921964517	65.26665922670736
9	4.0	ltm	294	diff_vonmises	-0.021287689286466897	-1.2196947517004122	1.41261809088236	98.94033726694364	1.3901103105996584	99.7982554981317	0.04241876348235252	-0.22896224688228273	0.27138101036463524	68.53274539037483
10	4.0	perception	294	diff_vonmises	-0.06860905454059825	-3.931009261559157	3.044870943045786	2.1302888039660184	0.11819503481806741	3.440001655010937	0.7930519424928395	-0.5005803612003299	1.2936323036931694	75.38870759114644
11	4.0	wm	294	diff_vonmises	-0.07377461248463583	-4.226973930582785	1.2345704523696954	219.12406408881247	1.2193434751865393	220.79990005318547	-0.02753852465724549	-0.39599119636233127	0.3684526717050858	70.86561962705707
12	5.0	ltm	294	diff_vonmises	0.007020585096989836	0.4022498957699613	2.1768292997906795	0.9490828955520153	0.1740883308442276	1.2198913444805897	0.28587681328796083	-0.15788593409649943	0.44376274738446025	87.2210640660555
13	5.0	perception	294	diff_vonmises	-0.04190960471861686	-2.4012434714383057	2.1062947298428547	1.7010980154738455	1.914747429576247e-14	2.169723581391447	0.5600362413774127	-0.33191432344621813	0.8919505648236308	94.64447738669904
14	5.0	wm	294	diff_vonmises	-0.01896063001395149	-1.0863640767084954	0.8722996995168232	1.499685420974845	7.292321382111557e-14	2.1247320969599426	0.1379037708827915	-0.2549857032816859	0.3928894741644774	134.0909936401556
15	6.0	ltm	294	diff_vonmises	0.5042179069890266	28.889558025391118	0.6023247864604206	99.65788364090336	0.5914985653107036	99.92164612902623	0.13452609210278865	-0.13273925716220436	0.267265349264993	114.95057160063837
16	6.0	perception	294	diff_vonmises	-0.15081586991681667	-8.641112829827634	0.9349614246614618	232.09465605599823	0.9232617801033718	232.54476953708303	0.36908525077457455	-0.24054178168236362	0.6096270324569382	93.84208733159305
17	6.0	wm	294	diff_vonmises	-0.01160111252727675	-0.6646947854693059	0.0003303796822012435	4410.82814641788	3.802000335186265e-33	4411.377371787304	0.14453147143785827	-0.3193170267071537	0.46384849814501194	179.97819872867657
18	7.0	ltm	294	diff_vonmises	0.01982265992452073	1.1357547523981528	1.1743814624278859	89.55740156786366	1.1535104205957913	90.18044353775507	0.11621399588430847	-0.18192748761882527	0.29814148350313374	78.87221626993593
19	7.0	perception	294	diff_vonmises	-0.10221983871023405	-5.856765340604407	0.8163773092361031	173.77916018664956	0.7973784925920526	174.316761134876	0.46749873675736353	-0.3162812994209805	0.783780036178344	100.88039608480123
20	7.0	wm	294	diff_vonmises	-0.29225116182517036	-16.744758130377104	0.6329376067746767	74.64439041428511	0.6189623038662868	75.6170136042366	-0.06387727539248189	-0.1921363877253981	0.1282591123329162	95.6898742825167
0	1.0	ltm	295	diff_vonmises	-0.28024004330912544	-16.05657173217629	0.5961447423273976	0.8713495605583095	1.7394132495408615e-15	3.300376228917679	-0.2945148377998509	-0.45523070100022767	0.16071586320037679	146.1535069263894
1	1.0	perception	295	diff_vonmises	0.060908760869131	3.4898149331727866	11.574648526020301	0.6360589651860956	0.019024923274970015	3.087695841202386	0.3524099901236605	-0.4943087166722348	0.8467187067958952	39.69244890427086
2	1.0	wm	295	diff_vonmises	0.10960492586644537	6.2798996659915876	9.38491833870398	0.3151475093089813	1.1790932781088091e-32	2.9741329773899072	-0.09363429603871282	-0.47334796208556357	0.37971366604685075	44.324388998025654
3	2.0	ltm	295	diff_vonmises	0.07268062116986258	4.16429284542231	8.595803680114981	0.3517220580989559	0.09095489471728165	1.6207395140521232	0.12311421211653578	-0.2646709354613966	0.38778514757793237	45.22903988180033
4	2.0	perception	295	diff_vonmises	0.012039101430235587	0.6897897010824122	9.126571498959802	1.1719422187836575	0.22115694027131344	2.6457904311906613	0.8728975324203618	-0.45051347625260796	1.3234110086729698	43.733982013688404
5	2.0	wm	295	diff_vonmises	0.08801301000070115	5.042774015282882	2.8014181451111706	0.6965312269108831	4.2547372071448946e-13	2.0652017537366536	0.10994524393204419	-0.32706965650603753	0.4370149004380817	82.14089545800411
6	3.0	ltm	295	diff_vonmises	0.09741839121065836	5.581662663325078	4.036781478396732	0.6567868162050713	0.6300212026338426	1.1526277083469059	0.1948085034534286	-0.17110534133636757	0.36591384478979616	59.166381140683455
7	3.0	perception	295	diff_vonmises	-0.0021453161522911263	-0.12291756124752651	4.565375328589005	1.6037417215021135	0.31988451201496815	2.0234167018362545	0.8922668572408977	-0.302419919798508	1.1946867770394056	60.69080937414131
8	3.0	wm	295	diff_vonmises	-0.07075574632407927	-4.054005640668031	1.3809019856412663	134.8447174818157	1.3638687191549854	135.31531738290664	0.21961697795976676	-0.18403076512997174	0.4036477430897385	75.15431752380695
9	4.0	ltm	295	diff_vonmises	0.0018455931157332752	0.10574469622991636	1.2677834139071562	167.7640314938213	1.2483699746035803	169.2477333847827	0.020456827461103444	-0.36543076760307613	0.3858875950641796	71.26739022041872
10	4.0	perception	295	diff_vonmises	-0.06463135160898367	-3.703103671420827	4.174233057636925	1.4585260088070633	0.01340528789358443	3.219481160841376	0.6283827887680239	-0.5068375918366229	1.1352203806046468	66.55183280246658
11	4.0	wm	295	diff_vonmises	-0.03756726649706612	-2.1524458181251047	1.1407634502289017	260.8304642603371	1.1279970661337964	262.360412941047	0.061145404523216484	-0.3755575571812173	0.4367029617044338	76.24260706895171
12	5.0	ltm	295	diff_vonmises	-0.13789738183210498	-7.900937984883611	2.15061914482744	0.8051245214209414	5.205276775142365e-21	1.9317756166616968	0.1264668908868652	-0.30157123746480885	0.42803812835167404	93.67406626689734
13	5.0	perception	295	diff_vonmises	-0.05637708589974871	-3.230169083302105	0.853793412871738	155.74696606387351	0.8253959627000205	156.83274498934455	0.5091854921134455	-0.44407764119395665	0.9532631333074022	97.00294208441298
14	5.0	wm	295	diff_vonmises	0.03799993648448392	2.1772359823261236	0.5604686429081436	138.3095255130945	0.5473601689509487	139.26804778467596	0.09639372844844729	-0.27683814793116923	0.3732318763796165	113.90440980657102
15	6.0	ltm	295	diff_vonmises	0.19434659083936565	11.135239417851519	0.8357400799161747	148.97274147146305	0.8240045293439803	149.91297479386313	0.04394493398211807	-0.22486531731578907	0.26881025129790714	90.14266104464721
16	6.0	perception	295	diff_vonmises	-0.21131280817555304	-12.107332065516747	0.6877913691710281	244.47067620330026	0.6762891970940389	245.45309999124478	0.2603778107733916	-0.3414483933261643	0.6018262040995559	105.6494975986385
17	6.0	wm	295	diff_vonmises	0.023578585405761424	1.3509534306388873	0.470776455386724	156.10510229834574	0.45862976882556034	157.1467261040459	0.10333787339561695	-0.31995849450562375	0.4232963679012407	123.84506988342666
18	7.0	ltm	295	diff_vonmises	0.03606885069514783	2.066592916719476	1.0891478602019897	146.49508571151915	1.0715241509250177	147.77347744477981	0.030405529239452278	-0.30409770611532494	0.3345032353547772	77.57784170044027
19	7.0	perception	295	diff_vonmises	-0.08659370818746223	-4.961454011529027	2.0457987928115737	2.019334028708785	1.4546476315539997e-19	2.8868753476129734	0.5966240089814308	-0.4418106400166233	1.038434648998054	95.9668139166864
20	7.0	wm	295	diff_vonmises	-0.203080398920605	-11.635649759983785	0.9208260832994655	109.09665616329335	0.9021501705737385	110.06052364578856	0.07635785491775238	-0.24168632637640997	0.31804418129416234	86.98503735005161
0	1.0	ltm	296	diff_vonmises	-0.1645985076901843	-9.430799804799184	4.380002178195806	0.29919489002023025	1.3357112758755066e-17	2.988891062131779	-0.23407009064491213	-0.47565887016931896	0.24158877952440683	65.34976317940567
1	1.0	perception	296	diff_vonmises	0.05423546042653463	3.10746298238923	12.28381834538521	0.6950195617904034	2.57239363381629e-15	3.314609446552652	0.433959633812092	-0.527536477817368	0.96149611162946	38.68445080186706
2	1.0	wm	296	diff_vonmises	0.1270712233396824	7.280644794928083	7.382312486392258	0.37177409922910665	2.4936211894658435e-33	3.418492556282658	-0.14842724718405453	-0.5440698350812637	0.3956425878972092	50.0610740600128
3	2.0	ltm	296	diff_vonmises	0.14475395713322167	8.293790811551238	7.299598952195041	0.4910505080798616	0.22133462047829675	1.7141819439532988	0.1832425123440975	-0.28836477864713866	0.47160729099123616	47.8686864578155
4	2.0	perception	296	diff_vonmises	0.007229480484798155	0.41421871985112657	7.765906584948337	1.2089822024465413	0.19645117752526067	2.580053794061818	0.8257713760065437	-0.42751257551803545	1.2532839515245793	47.415903497128795
5	2.0	wm	296	diff_vonmises	0.08771718907816661	5.025824724929987	2.561505522426965	0.781010695090564	1.4241068694883598e-15	2.280581292302431	0.10393857152490721	-0.3601839420912118	0.464122513616119	85.93367044999312
6	3.0	ltm	296	diff_vonmises	0.12241995962267667	7.014147014541323	4.403385909146435	0.592763937062909	0.5280191337656772	1.10254115618813	0.2023223750495438	-0.16998736587965882	0.37230974092920266	58.05389072757927
7	3.0	perception	296	diff_vonmises	0.008854928580590561	0.5073500355576078	3.6874494481513795	1.9691754709254492	0.42233397862599886	2.4372146686087395	0.8814974004239906	-0.33548525025532755	1.2169826506793182	65.75275974724713
8	3.0	wm	296	diff_vonmises	-0.05264753676205199	-3.016481658225427	1.2554094585984732	121.78144181644979	1.23377568539408	122.44462913895224	0.22776428642124102	-0.22926189276584807	0.4570261791870891	78.12770148247955
9	4.0	ltm	296	diff_vonmises	0.036216736643083634	2.075066157385489	1.2461456336907022	127.3991437764755	1.2177891138330084	128.8858529878943	0.0955270790784084	-0.38406036710679103	0.47958744618519944	73.78934974905837
10	4.0	perception	296	diff_vonmises	-0.08135786388641855	-4.6614622308916	2.179494319881321	3.213990823325693	0.3796766524414263	4.919527984975818	0.6416288589800017	-0.5726934091754331	1.2143222681554349	80.34129223404491
11	4.0	wm	296	diff_vonmises	-0.12805187167454626	-7.336831805702315	1.1594449455230789	357.9658971058981	1.1473575174508268	359.6984831732502	0.16457863042006693	-0.45543397285289444	0.6200126032729614	77.28163953492378
12	5.0	ltm	296	diff_vonmises	-0.12593030260688345	-7.21527485217973	1.857292646100316	0.8946677053507547	1.2004118990873595e-17	1.8340456581435023	0.1493908560250266	-0.2811449213990754	0.430535777424102	100.42638812252916
13	5.0	perception	296	diff_vonmises	-0.004039009074315062	-0.2314181733732945	1.265578212890585	5.813131001392401	0.5090350989099288	6.812149308623675	0.5816910188299518	-0.4493208963899779	1.0310119152199297	95.9793398595111
14	5.0	wm	296	diff_vonmises	0.14070734665352386	8.061937109731145	0.5434147373837213	122.24303348747564	0.528061288697171	123.24567041997271	0.09994827581434507	-0.29293618695128565	0.3928844627656307	115.83865545705444
15	6.0	ltm	296	diff_vonmises	0.3976916450750089	22.786052810412702	0.9004857076735738	136.10496904333957	0.8881029800114678	136.87427236447274	0.07454293386152244	-0.19780709035409316	0.2723500242156156	88.41689713756605
16	6.0	perception	296	diff_vonmises	-0.16780220705627324	-9.614358257304819	0.5711653196768715	240.88095875552105	0.5598181589386421	241.82015246482416	0.27313184308519567	-0.36972458267777597	0.6428564257629716	116.49922732053044
17	6.0	wm	296	diff_vonmises	-0.01439552447153351	-0.8248027960961649	0.5394898901171257	137.1776642931773	0.5249135190157166	138.16900937926027	0.1262496785231093	-0.30639245828760764	0.43264213681071695	117.0534648178418
18	7.0	ltm	296	diff_vonmises	0.12124311580367672	6.946718830566568	2.9658280604699936	0.49250183307773365	1.241631506158646e-15	1.6384745195251198	0.05969446495624592	-0.25992077398536145	0.31961523894160737	79.79344552280287
19	7.0	perception	296	diff_vonmises	-0.04523991780887382	-2.5920563559672005	0.8962232185508239	127.7695510885184	0.8636810915725323	128.46854577951748	0.5718022268231948	-0.38070971675989007	0.9525119435830849	96.43984853926057
20	7.0	wm	296	diff_vonmises	-0.0510212364159773	-2.9233015121746817	0.779020023882505	90.94698660955088	0.7549173253437496	92.00920134258172	0.10517942342713837	-0.27804343072948257	0.38322285415662094	95.91227230752716
0	1.0	ltm	297	diff_vonmises	0.08073246547349264	4.625629541316766	2.8447675300687765	0.42001785223398985	1.403996647284396e-10	3.5552750108891407	-0.2990048820805516	-0.5649372702860559	0.2659323882055043	81.50920756139959
1	1.0	perception	297	diff_vonmises	0.08028793822561511	4.600160006134818	14.888632869614677	0.5682121145463809	0.050806510130427945	2.9498705589131053	0.37315017606859113	-0.4815467850793913	0.8546969611479824	34.8267407167109
2	1.0	wm	297	diff_vonmises	0.07315936981868666	4.19172312244752	3.848282717793278	0.7016425341812539	0.12498400912927557	3.811254926068763	-0.15650182053187844	-0.5955976479373106	0.4390958274054322	63.71019751910069
3	2.0	ltm	297	diff_vonmises	0.12948855340501728	7.4191476053618555	5.709421296357068	0.5482220122763166	0.21884030814192415	2.0899980311037276	0.10086173589174685	-0.34243261665740427	0.4432943525491511	53.16058682671235
4	2.0	perception	297	diff_vonmises	0.05968618786761935	3.4197666600395276	5.648773941126043	1.6025711701654013	0.3995638062065538	3.3963298445245615	0.7075261951550847	-0.5601577839682578	1.2676839791233425	53.13772317841833
5	2.0	wm	297	diff_vonmises	0.0632016505269446	3.6211878334547007	2.0226052337992644	1.7945626785141042	0.49545757496357723	3.3252827441147055	0.1144113775821457	-0.3748722214162732	0.4892835989984189	76.25652387614463
6	3.0	ltm	297	diff_vonmises	0.1532893189522259	8.782831020397285	7.196332107849898	0.4090583673922963	0.08560529310788553	1.442921966664887	0.17988070302482131	-0.23240139908451984	0.41228210210934113	49.55759216690092
7	3.0	perception	297	diff_vonmises	-0.07398237788374684	-4.238878011080697	6.971428351065746	0.9720331493726548	1.9596877560305195e-17	1.5685835631084177	0.7544322909716619	-0.24964694359315234	1.0040792345648142	51.53737624719162
8	3.0	wm	297	diff_vonmises	0.06605506505841503	3.784676443309256	2.2997440750897877	1.9550786211557354	0.7551287779356262	2.8540808213623166	0.2545645935125386	-0.288411763397695	0.5429763569102335	71.05158377186223
9	4.0	ltm	297	diff_vonmises	-1.1952812255662668	-68.48456955617164	0.00023162186014894114	4762.29142581047	1.1729310959647782e-28	4764.812744214657	-0.2257204150571397	-0.5768198308193178	0.35109941576217807	143.07763930380165
10	4.0	perception	297	diff_vonmises	0.14889066979378004	8.530806988059568	1.8108932800918554	1.8241039161487445	7.338024647910116e-17	4.764418832390353	0.1276715673999157	-0.7345921097509079	0.8622636771508236	101.58645866524176
11	4.0	wm	297	diff_vonmises	0.26585714844210306	15.232492559115535	4.485095912566832	0.8698306088863724	0.4054811550340747	3.3718217891990254	-0.0613076734626784	-0.5581806853498775	0.4968730118871991	55.02710583552488
12	5.0	ltm	297	diff_vonmises	-0.09566132374482432	-5.480990113213041	1.939655475963668	1.0069491253808087	5.369983586606098e-16	2.0580424828811585	0.18234474902831138	-0.31700923737058684	0.4993539863988982	98.42825291380146
13	5.0	perception	297	diff_vonmises	-0.0943963962027691	-5.40851510366342	1.392689510053691	3.7534069641423855	0.369316173997308	5.085756568974575	0.4224257194959773	-0.4595450960408066	0.8819708155367839	95.57910438954836
14	5.0	wm	297	diff_vonmises	0.051469306420909716	2.9489740323837155	0.6363107002941178	188.52247930348594	0.6231795142845851	189.3290869832056	0.2520440534751174	-0.3104256827971561	0.5624697362722735	110.72020808224308
15	6.0	ltm	297	diff_vonmises	0.1859999676024138	10.657013133188357	0.9346605477092513	107.45505644775467	0.9155285221958617	108.16723273314885	0.15907193331116076	-0.2160392085489402	0.37511114186010097	89.64282003403332
16	6.0	perception	297	diff_vonmises	-0.36498411996808267	-20.912049663467652	0.6759703343506882	3.035934597077416	7.671547050801587e-13	3.975190666558973	0.21733100067401545	-0.4127433114657062	0.6300743121397216	141.61085788473534
17	6.0	wm	297	diff_vonmises	0.3946065691118104	22.60929097824417	0.4400365413639508	172.0050148894972	0.4275033834940631	172.57391979464668	0.26553958700508673	-0.3136688616570602	0.5792084486621469	129.94822403117905
18	7.0	ltm	297	diff_vonmises	-0.015698158175149572	-0.8994382095648606	0.8391125613062862	192.72078459189234	0.8236189381584289	195.0011984413419	-0.1327097354265021	-0.46335652477727507	0.33064678935077296	83.28368753647075
19	7.0	perception	297	diff_vonmises	-0.01157564788586328	-0.6632357689895	0.9662825882794696	194.34840553129067	0.939947768166944	195.69768988615004	0.5260112643111228	-0.49203285156479737	1.0180441158759201	90.27665839376681
20	7.0	wm	297	diff_vonmises	-0.10351396574163807	-5.930913357657652	0.877345581280857	199.734466238465	0.86192477013456	201.5682665967247	0.008867968734342924	-0.4115941746155265	0.4204621433498694	85.95094967371881
0	1.0	ltm	298	diff_vonmises	-0.053822997401092476	-3.0838305918261972	6.6352399992238285	0.42655616278874187	0.11175906060211567	2.9979722680909577	-0.102480130553393	-0.4893947714451192	0.3869146408917262	50.03762786604119
1	1.0	perception	298	diff_vonmises	0.009210785771477227	0.527739150704795	15.212721641127544	0.7102061304442228	7.317284837107307e-20	3.0440465370020693	0.610687845105877	-0.4844750533655784	1.0951628984714554	34.74027925826792
2	1.0	wm	298	diff_vonmises	0.08557224059572488	4.902928229613085	6.874053769742857	0.3699221197172244	3.2040345072362567e-22	3.3453584737084925	-0.1530861398923416	-0.5324299317025132	0.3793437918101716	51.90474726992596
3	2.0	ltm	298	diff_vonmises	0.0845974107555508	4.847074594027697	2.3694583922377195	1.9828460879236003	0.8461739625515625	3.0809413654648727	0.1695415592693721	-0.3191927260065345	0.48873428527590657	67.41714233883556
4	2.0	perception	298	diff_vonmises	-0.01404967481913797	-0.8049870706678339	6.024440289051671	1.2904225245916157	0.2736338517558043	2.4501236353128566	0.7317099183073247	-0.39730444384301045	1.1290143621503352	52.97766253005173
5	2.0	wm	298	diff_vonmises	0.09716273953245745	5.567014901138729	3.944421698877291	0.6172249375775234	3.0269525142648427e-15	1.9318016135847387	0.16343484100118133	-0.3072791978279194	0.47071403882910073	68.95746007595352
6	3.0	ltm	298	diff_vonmises	0.1179978256270773	6.760777400152156	6.0392383541126975	0.4909651692394954	0.16454727194782465	1.005637687805136	0.283039890342582	-0.1606085231918109	0.4436484135343929	53.704428510142435
7	3.0	perception	298	diff_vonmises	-0.037750647683870264	-2.1629527861710827	5.2253924285764715	1.2549357405999715	0.02872904602866205	1.6485563607589815	0.8440414516427026	-0.25883359851850307	1.1028750501612057	59.339794340770055
8	3.0	wm	298	diff_vonmises	-0.07128485138008549	-4.08432112729622	1.4694568640762018	110.61744311861656	1.4420226931669398	111.24148607701812	0.2717742930100542	-0.2409866965562255	0.5127609895662797	72.62047301734736
9	4.0	ltm	298	diff_vonmises	-0.08923396636534395	-5.112729661946551	1.1786872921183331	47.56781978980052	1.1053332844977195	48.84174551826834	0.1892173151029617	-0.35540193562233835	0.5446192507253	78.95172832516107
10	4.0	perception	298	diff_vonmises	-0.04686672521740991	-2.685265554556933	2.6580804968203178	2.124332742538527	1.4434343868660284e-14	3.8900555710504894	0.6785190435150775	-0.6127476050248318	1.2912666485399094	84.35793995930854
11	4.0	wm	298	diff_vonmises	-0.16099307411538882	-9.22422367764864	1.1671154719989996	322.9109417575271	1.1528977506927272	324.6597139946537	0.20516522589593933	-0.4722226340019233	0.6773878598978627	77.60756425749798
12	5.0	ltm	298	diff_vonmises	-0.039228052984752154	-2.2476018745418704	2.223601931500769	0.9955073455062706	9.277205075481421e-17	1.4469714650633267	0.3170512508290919	-0.2238823039976251	0.540933554826717	92.18427099818848
13	5.0	perception	298	diff_vonmises	-0.010358269700351412	-0.5934851368883758	1.9607273697475738	2.2893986159360566	0.11766423305705292	2.9819374231061713	0.634919039862656	-0.39743058813822535	1.0323496280008813	93.24413689532392
14	5.0	wm	298	diff_vonmises	0.03825594895274614	2.191904416260275	0.525932724233517	153.2996164223974	0.5126644978809931	153.83328166706593	0.24831908265577596	-0.27320915701930204	0.521528239675078	122.45702492503108
15	6.0	ltm	298	diff_vonmises	0.25740531050993765	14.74823791647388	1.0030311407539731	61.02486370019119	0.9822875774852553	61.196398104048065	0.1815730894426153	-0.10527821043541685	0.28685129987803215	91.40498110469488
16	6.0	perception	298	diff_vonmises	-0.20432467420196718	-11.70694148215829	0.5012529308937362	119.01504487994795	0.48406536630206154	119.52186222536729	0.2583312196702323	-0.27910684702897903	0.5374380666992113	125.1192898052896
17	6.0	wm	298	diff_vonmises	0.20335560285152351	11.651417783730826	0.45920274781248815	105.02447890524638	0.4473209849773261	105.08843638776858	0.21623111943276996	-0.15269174173404743	0.3689228611668174	131.03514701507964
18	7.0	ltm	298	diff_vonmises	0.0030076568959330465	0.17232604636038143	0.4833918055490097	75.32981897881325	0.46254465237750897	76.16638292563934	0.09164402635240876	-0.2608331425878614	0.35247716894027015	123.16865501110698
19	7.0	perception	298	diff_vonmises	-0.08462904881516839	-4.848887321315769	0.9588218214609083	207.24756917964197	0.9406821397435929	207.92486975055402	0.49011593899544437	-0.33394918760738435	0.8240651266028287	92.45221608758317
20	7.0	wm	298	diff_vonmises	0.11150216365498761	6.388603384007792	0.8201644241258211	112.67415088057777	0.8025474035376626	113.42277945231582	0.15133995315783721	-0.2257233508412444	0.3770633039990816	95.59118777463485
0	1.0	ltm	299	diff_vonmises	0.03876753362234138	2.2212160586916774	9.78486184954959	0.4294562459938638	0.09229937901910269	3.1431158307339504	-0.01874863099245261	-0.518894163616867	0.5001455326244144	42.09596782704904
1	1.0	perception	299	diff_vonmises	0.04355257363011563	2.4953786559383886	17.893814593092042	0.6364204273060649	2.6352456748546953e-17	2.8638745866199646	0.6097927081987122	-0.45579979685582545	1.0655925050545376	32.02116844114181
2	1.0	wm	299	diff_vonmises	0.166079605545278	9.515660460941932	4.370521093067404	0.5148448680754513	1.6039955240659692e-14	3.7026934949486234	-0.17401839764898758	-0.589235553220091	0.41521715557110345	65.4242809760865
3	2.0	ltm	299	diff_vonmises	0.2052461389284356	11.759737521955108	6.330572119383422	0.6950591956037808	0.6154820148646879	1.5446687855237964	0.2679617260944094	-0.27606703830339996	0.5440287643978093	48.72277725847212
4	2.0	perception	299	diff_vonmises	0.01321876933975567	0.7573796935249336	6.25255338470477	1.3309391292108297	0.386675849859158	2.319002071462358	0.7752123175235248	-0.3850833829625031	1.160295700486028	51.449150310137554
5	2.0	wm	299	diff_vonmises	0.0891719857668221	5.109178435239555	1.9423341324480226	1.884855472705903	0.5096335781676729	3.305506881245869	0.13375050903610286	-0.3568364040180364	0.49058691305413926	77.53037832615797
6	3.0	ltm	299	diff_vonmises	0.1557069396115546	8.921350480640456	3.0497480899666205	1.273850737737664	1.2014090568702318	1.7003149433706868	0.19706965834643564	-0.17943043501088668	0.3765000933573223	60.369187897958454
7	3.0	perception	299	diff_vonmises	-0.06583795971456859	-3.772237223397118	5.286274216318255	1.057748441336701	1.892485778273235e-12	1.3298608276320927	0.7330836365603041	-0.2116297280940756	0.9447133646543797	59.346190744572965
8	3.0	wm	299	diff_vonmises	0.07462176426195243	4.275512152030032	4.443653892748119	0.7990533458343014	0.3636790806383006	1.643579657546545	0.28622366540714883	-0.2540268508758523	0.5402505162830011	59.32703470748078
9	4.0	ltm	299	diff_vonmises	-0.07670192409966581	-4.3946965314436275	1.1704020228340803	170.3204043700992	1.1515278461812999	171.78209285798593	0.0560696756687733	-0.3603700828474885	0.4164397585162618	75.26779896078855
10	4.0	perception	299	diff_vonmises	-0.0054197186213071355	-0.31052700314936016	1.7135808826033838	3.0782092218730757	0.15003793169913024	4.829296169914461	0.5576668058631743	-0.612097422345424	1.1697642282085983	96.27607636381617
11	4.0	wm	299	diff_vonmises	-0.027626775087900977	-1.58289761409389	1.2818509367680568	312.8350309935044	1.2662296574030847	314.9230664605418	0.07510626394943642	-0.5290466158604943	0.6041528798099307	71.60982978252144
12	5.0	ltm	299	diff_vonmises	-0.09835185709426546	-5.635146318775215	2.252062640771934	0.7602106481330845	1.1396776564694893e-18	1.3671936044577202	0.20355421040030564	-0.2129359033797591	0.41649011378006473	91.60693334088276
13	5.0	perception	299	diff_vonmises	-0.028181926839344108	-1.614705466440877	1.5217685573488633	3.5219679634884935	0.35892406563055573	4.484193756679394	0.5491792563755775	-0.42254128165364274	0.9717205380292202	94.31658275228577
14	5.0	wm	299	diff_vonmises	0.16749608768332788	9.596818909207858	1.4450400082408732	1.2089637228404333	3.570515398561921e-14	1.988998595297913	0.19539942793672094	-0.28810649090906104	0.483505918845782	112.07887148418217
15	6.0	ltm	299	diff_vonmises	0.32299712383195045	18.50637199043518	1.0029255534757133	88.00992981039437	0.9868293119707953	88.43284288440553	0.12462422262708728	-0.13846741447540722	0.2630916371024945	87.3031050511616
16	6.0	perception	299	diff_vonmises	-0.2975968762353442	-17.05104500456233	0.3944880963446538	125.93302714078449	0.3726832968708123	126.72987546795329	0.32405075561480956	-0.42562982584803954	0.7496805814628491	135.3936468489892
17	6.0	wm	299	diff_vonmises	0.3113879088762309	17.841212970012297	0.38409756531757644	113.97572205442873	0.36663361172902104	114.54432993380422	0.2368433528975764	-0.3096112649638254	0.5464546178614018	136.11203128019147
18	7.0	ltm	299	diff_vonmises	-0.054101752347426285	-3.09980207376952	2.023468397600819	0.5783220535215743	7.909934937442321e-19	1.9177200554500002	-0.0047575101249167084	-0.29996385814343807	0.29520634801852136	96.47883386785847
19	7.0	perception	299	diff_vonmises	0.031514195127803825	1.8056303755749012	0.9880284591554688	202.83770233233037	0.9674326049993832	203.94200803557558	0.4211938483325497	-0.3975091025545794	0.8187029508871291	89.01686760133072
20	7.0	wm	299	diff_vonmises	0.13381998228887307	7.667320199667853	0.8236663288776116	75.27643567582186	0.7896650606702613	76.8771918274704	0.0058398709132703175	-0.357540023833506	0.36337989474677634	89.35451714036859
0	1.0	ltm	300	diff_vonmises	0.2513607893047983	14.401912362242067	0.7572808328627294	102.02557715982141	0.7357500977523062	104.17270844732043	-0.2063176556143418	-0.40659553230288914	0.20027787668854735	82.91146423197068
1	1.0	perception	300	diff_vonmises	-0.011017059732627508	-0.6312310253230834	15.200168135400036	0.4691206498587442	0.0013160743545958028	2.46846028760711	0.32985795334535956	-0.39301153642044373	0.7228694897658032	34.73796585033628
2	1.0	wm	300	diff_vonmises	-0.011963338217330047	-0.6854487887405737	3.595232515718348	0.734530765097453	0.3162830093798197	3.256203023992596	-0.16103165752768844	-0.5132661624014995	0.352234504873811	60.31590666487003
3	2.0	ltm	300	diff_vonmises	0.019375955889127425	1.1101604964786538	12.62832907482116	0.3703325112389961	0.2626206745244395	1.4671890047145293	0.22113988225032383	-0.266036574446189	0.4871764566965128	36.849378650729165
4	2.0	perception	300	diff_vonmises	-0.00019934487905938099	-0.011421620237648355	7.795325751983093	1.1480696894761673	0.3174710965663822	2.556506379008963	0.7118310211885917	-0.4405239533535719	1.1523549745421635	46.53283733489093
5	2.0	wm	300	diff_vonmises	-0.0274242895403038	-1.5712960468041763	1.0671552227444752	100.94922693148925	1.0384341019979073	102.40078718820853	0.03913846169179891	-0.34471778249880103	0.38385624419059994	78.77342249461881
6	3.0	ltm	300	diff_vonmises	-0.05627319944606473	-3.2242168279574313	1.5136043711363725	31.36886592799959	1.4527518955569982	31.746059225192727	0.17483255657196928	-0.14969038175424165	0.32452293832621093	72.09083239197545
7	3.0	perception	300	diff_vonmises	-0.06940391006561179	-3.976551128465088	5.769593394270595	1.404351010099655	0.14069883925088314	2.0028543422128133	0.948649495886539	-0.3143983614890833	1.2630478573756223	55.516494820142725
8	3.0	wm	300	diff_vonmises	-0.1573068450645951	-9.013018310719643	1.6060948865509133	182.1341702502183	1.5898506323946329	182.95032259426424	0.14058111813274365	-0.2596565266167765	0.40023764474952017	66.3994853984263
9	4.0	ltm	300	diff_vonmises	-0.23476014338107062	-13.450765413621415	1.1177152023919639	103.32265625816909	1.0932426649198033	104.59718848511308	0.015164812646560222	-0.30056686048367354	0.31573167313023376	76.1523848299772
10	4.0	perception	300	diff_vonmises	-0.06402468557911192	-3.6683442683352183	4.069166056123681	1.5719791557302103	0.007115433875247723	3.2902163177309354	0.6925099963996753	-0.5198777906144512	1.2123877870141264	67.62077257113276
11	4.0	wm	300	diff_vonmises	0.03438208159720385	1.9699481663941971	0.991356511458305	171.57817634467145	0.9764208783388576	173.46989834394907	-0.15253992733051547	-0.3875113306924476	0.23497140336193212	74.32441032247291
12	5.0	ltm	300	diff_vonmises	-0.030274357735851073	-1.7345929257335013	2.823331903641252	0.8722759957568222	0.010930580856119677	1.507364875907238	0.309227292064722	-0.23534206105413982	0.5445693531188618	81.37995543157396
13	5.0	perception	300	diff_vonmises	-0.09118607410382995	-5.224577196516627	1.7916559938463943	2.1597896214789127	0.16071923992857629	3.0072658695808614	0.4837897114634996	-0.37694288203642873	0.8607325934999284	94.8935125246618
14	5.0	wm	300	diff_vonmises	-0.1939307124905885	-11.111411343675718	0.40672814086539955	155.9213857385779	0.39396801612112753	156.84238534151496	0.15586515683272495	-0.3390786154120331	0.49494377224475805	132.29684603303753
15	6.0	ltm	300	diff_vonmises	0.25058896926048013	14.357690331159034	0.5770246481881327	117.67663820707133	0.5654752998680973	118.17591358150666	0.12712142067180565	-0.18548828472188994	0.3126097053936956	115.4193293074675
16	6.0	perception	300	diff_vonmises	-0.16436932316777322	-9.417668498935308	0.9311920448654998	211.22641214377293	0.9176899460982266	211.9439526397184	0.30846847797144505	-0.27436298179461716	0.5828314597660622	92.05385497488591
17	6.0	wm	300	diff_vonmises	0.24464695997357064	14.017238277191579	0.00018032203223538148	7629.359972849818	7.493710183842088e-32	7629.9725329070525	0.12147399026775929	-0.31643817106669303	0.4379121613344523	178.03315029659046
18	7.0	ltm	300	diff_vonmises	-0.061454789635376574	-3.521100076971393	1.247266336119083	178.8914077783259	1.2332532314912399	179.90580683604855	0.06936056106093247	-0.2637929453588832	0.33315350641981567	73.6545891236006
19	7.0	perception	300	diff_vonmises	-0.1435914576207918	-8.227184495802993	0.7048546120107533	57.39623769869019	0.6432017950965492	58.29371403409544	0.4278445758871978	-0.40759273523512274	0.8354373111223206	108.49527140954558
20	7.0	wm	300	diff_vonmises	-0.38782255393420484	-22.220595540414678	0.9784203869824971	109.51201688248348	0.9636429491874552	110.50965897791748	-0.027174766103506443	-0.21731711661558784	0.1901423505120814	79.27052573973404
0	1.0	ltm	301	diff_vonmises	0.2762456534552363	15.827710051818565	0.0002484062248082479	3232.321874140017	1.140989639919824e-29	3234.9126378899286	-0.2845354005031595	-0.5401144422196467	0.25557904171648715	177.53295034849063
1	1.0	perception	301	diff_vonmises	0.06277422427407683	3.5966981131122866	9.01417093724681	0.7648383328517019	3.9325040449178085e-19	3.301379064282529	0.3770577000876786	-0.5254307837338976	0.9024884838215762	45.24070444159659
2	1.0	wm	301	diff_vonmises	-0.23590084773146827	-13.516122958571412	0.00016789386158138893	6728.546207678476	1.8638960745326922e-29	6731.2352294777675	-0.24817556631546722	-0.6077515655265415	0.3595759992110743	178.40572550242035
3	2.0	ltm	301	diff_vonmises	0.09122586385155673	5.226856981129261	8.426935170940022	0.33084486996207113	0.0010151645622328896	1.998574443217326	0.058694485728603585	-0.31801519466723477	0.37670968039583835	46.77739881037809
4	2.0	perception	301	diff_vonmises	0.011323941213046787	0.6488140389618348	8.595153761879065	1.1482641232924808	0.053512418236495635	2.759831962177335	0.8590623022312839	-0.44283874040076954	1.3019010426320534	45.92829290533962
5	2.0	wm	301	diff_vonmises	0.08593520699851204	4.923724672597834	1.2273039011367564	1.268511969940912	1.7791892726865763e-23	2.7618898722194194	0.04775569867488083	-0.39770871385007717	0.445464412524958	119.6310516444372
6	3.0	ltm	301	diff_vonmises	0.16200938053834532	9.282453746376083	7.334781523148994	0.3493428186083107	1.0510301244668845e-26	1.0719915802935465	0.19991168680809693	-0.17061260120129632	0.37052428800939324	50.225449466811995
7	3.0	perception	301	diff_vonmises	0.04102276663676234	2.3504313922365645	3.5201693287210816	2.2606816792341564	0.45031081884754204	2.8459755419241324	0.9440545307313374	-0.38347736411003813	1.3275318948413755	66.66411164293524
8	3.0	wm	301	diff_vonmises	-0.10826319776302759	-6.203024308411656	1.2451193406720356	99.32214389587146	1.2198093907383523	99.82917821344783	0.267966660482017	-0.2061486010114315	0.4741152614934485	79.94228573560892
9	4.0	ltm	301	diff_vonmises	0.18461356578093235	10.577578160108219	5.1320941355996235	0.6955484524641233	0.26771651588840506	2.4285391544453225	0.1152534228549919	-0.3952145066249092	0.510467929479901	55.15218008504587
10	4.0	perception	301	diff_vonmises	-0.0827013495461009	-4.738438289027748	1.7952831607876147	4.711230911493551	0.5386576293788031	6.774331169283066	0.5557193311988511	-0.637570346089591	1.193289677288442	81.88661731061748
11	4.0	wm	301	diff_vonmises	-0.16284166725362986	-9.330140262506694	1.1970771392634605	354.46967280752875	1.183857353657036	356.1692313935052	0.22749957532516873	-0.47014981608340634	0.6976493914085751	76.92301332675402
12	5.0	ltm	301	diff_vonmises	-0.06657506911161527	-3.814470480887326	1.4687969480057788	1.1258441210674344	6.043733480401179e-19	2.037490848529206	0.15721689948602036	-0.2987605150001724	0.4559774144861928	111.42633323338652
13	5.0	perception	301	diff_vonmises	0.023879244555609892	1.3681799309971958	2.1241642602605912	2.0614640471186165	0.016282336724124633	2.820796323880533	0.6464638877839084	-0.4259063551589993	1.0723702429429076	93.60645471058254
14	5.0	wm	301	diff_vonmises	0.08549103516594506	4.898275501213155	0.6390324112576212	169.4332315319819	0.6273706811888778	170.20854328229663	0.16516127897877197	-0.25756301268270043	0.4227242916614724	108.91023702071982
15	6.0	ltm	301	diff_vonmises	0.4607115809695522	26.39682916235504	0.9229325962027364	152.31853124937737	0.9114752544690128	152.96822730102707	0.12097942266745321	-0.1882255525587304	0.3092049752261836	89.38549170363197
16	6.0	perception	301	diff_vonmises	-0.1508066055311437	-8.64058201962879	0.612822557406036	181.3309445805872	0.6009726995630579	181.93587400231098	0.24619451700451833	-0.268116572618748	0.5143110896232663	113.77161975372012
17	6.0	wm	301	diff_vonmises	-0.16803272013426718	-9.62756568379644	0.6960048637767753	152.13028196663885	0.6835878217060681	152.81959107545228	0.16587304906349942	-0.2304188408880563	0.39629188995155573	104.66352100618666
18	7.0	ltm	301	diff_vonmises	0.23113636844525628	13.243138403893962	2.434160299904444	0.6078597457225658	2.2862392268480076e-17	1.6106870179924788	0.09630751408365112	-0.2536380727667787	0.3499455868504298	88.12044952269403
19	7.0	perception	301	diff_vonmises	-0.12360501449914679	-7.082045657454458	1.0303730965546878	121.55913057292486	0.9957685421411169	121.62910555673979	0.7709678030555409	-0.30666483256145227	1.0776326356169932	93.11884603045954
20	7.0	wm	301	diff_vonmises	-0.07801175280640951	-4.46974418822512	2.213746056706629	0.785445411333692	1.2117752648454335e-11	1.5358719888950487	0.18623910531368185	-0.23929662745462493	0.4255357327683068	92.38444230983927
0	1.0	ltm	302	diff_vonmises	-0.07917331391295483	-4.536296737276713	2.1338314759665664	0.47078828410695733	1.43474047032754e-14	3.6143079143704346	-0.3227131276274848	-0.571695509050544	0.24898238142305923	94.05002169198295
1	1.0	perception	302	diff_vonmises	0.07961953994542115	4.5618636056459	8.82677235248042	0.5976981972344481	0.1336187416192292	3.5460727958118277	0.055455753889769865	-0.5922550035003786	0.6477107573901485	43.94397489885037
2	1.0	wm	302	diff_vonmises	-0.0763235864940584	-4.373019383411238	2.186532470514766	1.281210368070065	0.2690756927803016	4.8093756839355954	-0.2865110802341828	-0.6748340791570021	0.3883229989228193	73.40260850091667
3	2.0	ltm	302	diff_vonmises	0.046986360621461	2.692120158289403	13.865866967320914	0.3830530273047928	0.06988458045485829	2.00555269011959	0.2217406785774343	-0.33032417595896635	0.5520648545364006	35.963430462837266
4	2.0	perception	302	diff_vonmises	0.04454684865267803	2.5523464184064886	5.846424416664498	1.3914543178136296	0.3455395325849795	3.5822407284094684	0.5286399145312307	-0.5962709635393846	1.1249108780706152	52.27401700614968
5	2.0	wm	302	diff_vonmises	0.07332716365847083	4.201337001295448	0.940169177037086	76.58576165936874	0.8949509784249831	78.59343445162598	0.012954775380979555	-0.453882404818609	0.46683718019958853	83.6576532727048
6	3.0	ltm	302	diff_vonmises	-0.03801672376494076	-2.1781978226458025	2.0892743901061746	1.8546336998220658	0.7690385293723198	2.9116518514300864	0.11541920723638877	-0.2845486490234179	0.3999678562598067	70.83644974622752
7	3.0	perception	302	diff_vonmises	-0.023943814621878556	-1.3718795232772703	4.001834947215457	2.3208331938021702	0.3658988774947496	3.727344247072573	0.9573003668305512	-0.5469127534801699	1.504213120310721	63.03195920192215
8	3.0	wm	302	diff_vonmises	-0.11051078603124244	-6.3318016302634845	1.0643547271593015	306.83875215920665	1.0534273139125445	308.53699770047194	0.033238062885118325	-0.4000738832844206	0.43331194616953894	78.21932864118813
9	4.0	ltm	302	diff_vonmises	-0.15978562721543052	-9.155042066294873	0.8857849696392612	100.78913382355478	0.856040940786115	102.84689507100697	-0.07518340915639499	-0.4343554533141347	0.35917204415773973	83.18407749245571
10	4.0	perception	302	diff_vonmises	-0.028983186815192997	-1.6606142813497726	1.1782389854984745	232.8759605682538	1.1488303058012246	235.14809810948773	0.4317650507779973	-0.665996555855493	1.0977616066334903	78.95058795768898
11	4.0	wm	302	diff_vonmises	0.23311659968746465	13.35659729653245	1.4604526416224857	1.40713702275827	0.28142160147326745	4.043571130603798	-0.23636280434807855	-0.49321179805945936	0.2568489937113808	83.61923100147024
12	5.0	ltm	302	diff_vonmises	-0.0594038720815985	-3.4035911570106143	2.004548032535664	1.096915007991735	5.612979933189128e-14	2.4839963393964983	0.17129137162570202	-0.3850550250308322	0.5563463966565343	96.91321526455295
13	5.0	perception	302	diff_vonmises	-0.09242472159689331	-5.295546470173617	1.427416106942139	3.4218427601151244	0.2950306037617359	5.077848261206451	0.37612588899300814	-0.5164007781766662	0.8925266671696743	96.56251917763863
14	5.0	wm	302	diff_vonmises	-0.010516492207888356	-0.6025506187942196	0.2674655908134981	159.5656855551742	0.25449883286314073	161.4379239243839	-0.012271493918142085	-0.508985442107388	0.49671394818924597	146.72635602130265
15	6.0	ltm	302	diff_vonmises	0.6760358474047806	38.73400085584408	0.04210559379047671	111.89157413200437	0.029616954958184557	113.4437245228242	-0.028091967622351888	-0.45810908923363414	0.43001712161128225	163.438238543292
16	6.0	perception	302	diff_vonmises	-0.05919669018735975	-3.391720508879208	0.8583957304363067	369.64077734599687	0.8472549632534532	371.3317491952547	0.25699458114979734	-0.4715940248215631	0.7285886059713604	92.11691697361019
17	6.0	wm	302	diff_vonmises	0.24486196920103093	14.029557398481423	0.00031435144384352133	4980.359090168353	7.44691491562341e-30	4982.267029896196	-0.05446820771840066	-0.5528087063986504	0.49834049868024977	178.02253809890743
18	7.0	ltm	302	diff_vonmises	0.012228989397056468	0.7006694801615689	1.0460229144523112	224.9854629686866	1.0305178127479122	227.0730969140385	-0.06784960325965983	-0.4589760165870409	0.3911264133273811	76.25176838177134
19	7.0	perception	302	diff_vonmises	-0.042566157789321386	-2.43886119141603	1.1236008163493254	4.601047625439247	0.22932655593330548	6.186611918530324	0.4567976168180765	-0.5951795705435768	1.0519771873616532	110.10645496769004
20	7.0	wm	302	diff_vonmises	-0.2947596625470524	-16.888484634646463	0.9898784274511956	250.86711091133793	0.97644160810032	252.82595270833554	-0.022046345732405825	-0.4368320352185364	0.4147856894861306	79.73592299751601
0	1.0	ltm	303	diff_vonmises	0.3834578433144471	21.97051604310663	0.0003494009190646642	1781.4821707991548	2.1807378386619402e-21	1783.0385167008994	-0.14862526979703716	-0.3467577101427537	0.19813244034571653	175.43696791730707
1	1.0	perception	303	diff_vonmises	-0.041078600404250924	-2.3536304314679755	11.692391436932175	0.6578032519012956	2.2871777294374324e-20	2.337519983736539	0.515126074943475	-0.3720278599257686	0.8871539348692435	39.66569998017121
2	1.0	wm	303	diff_vonmises	-0.5550944673677436	-31.804570211234108	0.0002352233700089762	3325.264857758429	1.5252037488730564e-30	3327.076486750736	-0.1638352991199099	-0.4128094783477536	0.2489741792278437	171.3775116001003
3	2.0	ltm	303	diff_vonmises	0.0558710344976176	3.2011744737433143	7.5948988656957885	0.401786674551823	0.2998276978069478	1.3370791952776766	0.1530984210430268	-0.2320251111428288	0.3851235321858556	46.42779319970438
4	2.0	perception	303	diff_vonmises	-0.030447997090578303	-1.7445417279167466	8.447102016904648	1.015601748526084	0.0733325742769558	1.9907954480864294	0.8185093208554546	-0.32034091699371736	1.138850237849172	46.27597128978769
5	2.0	wm	303	diff_vonmises	0.2520438632978756	14.441049619140541	0.09280296708360193	11.25194945337368	1.5032618822941806e-34	12.29566614767534	0.0038056342689996026	-0.3283300119294532	0.3321356461984528	172.8091287772059
6	3.0	ltm	303	diff_vonmises	0.034416416942207234	1.9719154367510165	4.264712048453684	0.37336390533991254	0.1559501516893482	0.5663968379090664	0.19252164299134722	-0.08552889420433116	0.2780505371956784	63.90534982170183
7	3.0	perception	303	diff_vonmises	-0.0073873362747519985	-0.42326319038718546	3.1167394818958654	3.0623692745093516	0.7880917572510856	3.4282071548415862	1.0163945989653451	-0.3844075814330218	1.400802180398367	66.93180734629001
8	3.0	wm	303	diff_vonmises	-0.28143970341244307	-16.12530719294662	1.6374091984765298	117.56901127478295	1.6173034074134167	117.89944959709258	0.25245525077927056	-0.1663259738550309	0.41878122463430145	69.96908535630266
9	4.0	ltm	303	diff_vonmises	0.06863728330400855	3.9326266505634404	2.527951320472572	1.5976495608009533	0.8857366168602467	2.3990968099541092	0.18003335778929774	-0.2528359083134028	0.43286926610270055	66.2621918547847
10	4.0	perception	303	diff_vonmises	-0.10367111532993262	-5.939917365819148	3.0176538640630066	2.520211437774394	0.2530060858782633	3.817366004065457	0.8860679269459434	-0.5242729549521488	1.410340881898092	73.19778064442187
11	4.0	wm	303	diff_vonmises	-0.24149539407207712	-13.83666685217866	1.2373267036296158	262.0724407023706	1.2222916051788975	263.38303602904085	0.222268349792472	-0.37964828165738496	0.601916631449857	76.30862472888356
12	5.0	ltm	303	diff_vonmises	0.023396613466210817	1.3405272065128278	2.0704110775609537	0.9432582825360731	1.1537300116930366e-18	1.2024365562146155	0.3054889819049599	-0.18346817427641007	0.4889571561813699	95.42948116682271
13	5.0	perception	303	diff_vonmises	0.009024547934084705	0.5170685086365598	2.1106405782225024	1.935668532910385	3.5266609749152584e-17	2.2068913952442584	0.6802175068541253	-0.3360938219511798	1.0163113288053052	94.55368790930811
14	5.0	wm	303	diff_vonmises	-0.0338006169359535	-1.936632695368548	0.47999137624904653	133.52099606784031	0.468382717960217	134.02668301456686	0.16669179833994008	-0.22649254948781383	0.3931843478277539	126.10287889053535
15	6.0	ltm	303	diff_vonmises	0.4559315050347038	26.12295098553617	0.850719514842731	92.87838980190637	0.8385519083189451	93.05899624313179	0.1595031315904265	-0.10501937671713879	0.2645225083075653	98.64262703355683
16	6.0	perception	303	diff_vonmises	-0.09000407657316882	-5.156853726614859	0.865462715097116	170.3276365498364	0.8534797121226001	170.67703286348686	0.2796950352923915	-0.18960778245324406	0.46930281774563554	97.52173631755284
17	6.0	wm	303	diff_vonmises	-0.29043067161308933	-16.640451724579982	0.6078080134619085	98.44462003806422	0.5936822696827508	98.7725952060865	0.17650654223261597	-0.16952281800083924	0.3460293602334552	115.13166960723863
18	7.0	ltm	303	diff_vonmises	0.10688534615402334	6.124079226420403	0.8335344338009073	46.862139345133556	0.8047946613891371	47.20088697099972	0.15398051208750552	-0.13768572904203813	0.29166624112954365	98.11641554311373
19	7.0	perception	303	diff_vonmises	-0.16636671085756932	-9.532110383612011	0.9330889104924449	194.35982825208532	0.9159781126830284	194.41368279530283	0.614974521313016	-0.25704502685266384	0.8720195481656798	97.36935123342288
20	7.0	wm	303	diff_vonmises	-0.04146210106984346	-2.3756034010468854	0.7584495143620547	32.761519858158294	0.723792823653993	33.142565756001886	0.10653790367478955	-0.13084681148892274	0.2373847151637123	101.43832515432125
0	1.0	ltm	304	diff_vonmises	-0.22041364183595427	-12.628771424308333	11.165938977652901	0.263340652279642	0.044970157671636465	4.09326484016061	-0.3342104767669545	-0.6651935183318699	0.3309830415649154	39.556711608485585
1	1.0	perception	304	diff_vonmises	0.054264495995846304	3.1091265979665486	11.773131424993608	0.8489027211037712	5.949918417900054e-19	4.48129680185682	0.43593194744108876	-0.7132205374091205	1.1491524848502093	39.52143766932849
2	1.0	wm	304	diff_vonmises	0.14986196763465714	8.586458254991994	14.042648146090567	0.313402507282404	1.354638096553724e-24	4.725999250575061	-0.28811789491524953	-0.752166141777319	0.46404824686206947	36.169048378165314
3	2.0	ltm	304	diff_vonmises	0.0024222026795763896	0.13878199066500602	2.3555343683608143	1.5255596477405822	0.4502201767614433	3.2889925084219778	0.08701805729634216	-0.4167645730771112	0.5037826303734534	72.34900115568556
4	2.0	perception	304	diff_vonmises	-0.00817465348363624	-0.4683731435942723	6.839450651436888	1.3343984671322109	0.14759496028986197	3.2379727241900036	0.7704309614211378	-0.524378103213576	1.294809064634714	50.572702967354815
5	2.0	wm	304	diff_vonmises	0.07453362594471151	4.270462198438743	2.795605172384531	0.861519653670736	8.631384706278391e-26	2.8359974495915377	0.09050279780190246	-0.4493414509865387	0.5398442487884412	82.23158154746986
6	3.0	ltm	304	diff_vonmises	0.09924798760559654	5.686490814967387	6.016726053261094	0.4997280775719956	9.633480797092697e-23	1.2194825134829215	0.2838009291703969	-0.19408382987924622	0.4778847590496431	55.5530671141704
7	3.0	perception	304	diff_vonmises	0.02184380056933719	1.2515575811484856	3.4777141696402993	2.2698644704397313	0.46580077068059395	2.9825606684417485	0.8987331825902668	-0.4012379359019395	1.2999711184922063	66.59532136177165
8	3.0	wm	304	diff_vonmises	-0.11140235715733801	-6.382884892924487	1.2884400584246545	124.6084069584459	1.2640663523125917	125.35813519952168	0.26119406721617366	-0.2613208740505133	0.522514941266687	77.14778630835181
9	4.0	ltm	304	diff_vonmises	-0.014962693281409884	-0.8572991751735389	2.316557030888539	1.8028444306274596	0.3394007757488677	3.676394108498253	0.21732542176849	-0.4702011878473699	0.6875266096158599	76.79354533699197
10	4.0	perception	304	diff_vonmises	-0.11476029896930025	-6.575280786600436	1.8893137679815155	4.681913242598951	0.4987281617510911	6.69265359334156	0.6836045364809897	-0.6650290904808923	1.348633626961882	81.91205754901307
11	4.0	wm	304	diff_vonmises	-0.2117400630443045	-12.131811966272622	1.0858802269855659	176.06497496031434	1.0567343879193483	178.027489697845	0.2723070157464633	-0.5366915402477055	0.8089985559941688	81.43951730384353
12	5.0	ltm	304	diff_vonmises	-0.07765981473039286	-4.449579621819412	2.2365667693472178	1.0261809211112436	7.953618695202566e-19	2.0118238408981126	0.245952356092705	-0.31373026541929644	0.5596826215120014	91.92260860705684
13	5.0	perception	304	diff_vonmises	0.018684498892268427	1.0705429288438426	1.412407768045269	5.255356163933241	0.46966671669687465	6.292270334350233	0.6781615820351061	-0.4866676447254281	1.1648292267605342	93.8416964605282
14	5.0	wm	304	diff_vonmises	-0.025886950465533656	-1.4832130061393	0.5299185675875445	201.3455579155964	0.5183505345580618	202.38820761960753	0.17602231741701502	-0.34964260137007486	0.5256649187870899	118.8679241874286
15	6.0	ltm	304	diff_vonmises	0.33492229314193045	19.189633861875972	0.9642193480779127	165.63807035409033	0.954584631483007	166.1732556689984	0.12459302278339379	-0.16365779498147504	0.2882508177648688	88.10365570340434
16	6.0	perception	304	diff_vonmises	-0.13434913869970275	-7.697638628710684	0.4569714641715471	190.0489518687106	0.4457806336658764	190.80335034414017	0.21569726329412475	-0.323278027986337	0.5389752912804617	128.05402836314238
17	6.0	wm	304	diff_vonmises	-0.09433904705269501	-5.405229239405512	0.8574614187382388	100.21946567146493	0.8407407695716671	100.71569366928637	0.16521236114089888	-0.17446988339505864	0.3396822445359575	95.22198000089288
18	7.0	ltm	304	diff_vonmises	0.14260078475858629	8.17042312192047	1.43761928485594	0.7850780654976243	2.4001874466395106e-08	1.7339474973913556	0.05546809499742272	-0.2572722808831947	0.3127403758806174	112.34503056991505
19	7.0	perception	304	diff_vonmises	-0.11140080602888129	-6.382796019810434	0.886962939184012	130.69321286913086	0.8592741998587541	131.17378279304089	0.5386021973002002	-0.32245926452916507	0.8610614618293653	97.60900617654073
20	7.0	wm	304	diff_vonmises	-0.003965934060964986	-0.227231283520473	2.1401072886398023	0.832583378586875	4.792973430243482e-14	1.5119280174284768	0.2067628904771631	-0.23443881798808264	0.44120170846524576	93.91832604359053
0	1.0	ltm	305	diff_vonmises	0.033429983248648626	1.9153969493406071	7.461428894127657	0.3850777890760023	5.869687216772991e-11	3.0247856934791457	-0.06929880405517952	-0.4814094587048122	0.4121106546496327	49.78578563114948
1	1.0	perception	305	diff_vonmises	0.03584808612993662	2.053944038866833	16.86531219127241	0.617533466084467	1.03506409194124e-18	2.746462692859396	0.5669100209695302	-0.4371131135860485	1.0040231345555788	32.97344487070626
2	1.0	wm	305	diff_vonmises	0.09253733687711314	5.301998850438896	3.798703342985921	0.531929837270871	5.813670921941069e-17	3.515889668451238	-0.1620190077063785	-0.5593717268487396	0.3973527191423611	70.30166400863317
3	2.0	ltm	305	diff_vonmises	0.19353153217032126	11.088539996059726	7.092960544048868	0.6344850661994363	0.4780253006814121	1.6486275722390646	0.26134764698481405	-0.2960404722802514	0.5573881192650654	47.01718786650429
4	2.0	perception	305	diff_vonmises	0.020434587753981864	1.170815634392877	5.831520142506417	1.3553945633215416	0.3482319869643047	2.447282766317332	0.7396950456004731	-0.39835288084813436	1.1380479264486074	53.2790232017594
5	2.0	wm	305	diff_vonmises	0.08041409855853676	4.607388460753193	2.2004450723248428	1.3011955609233405	0.34435820444111676	2.7341022120356024	0.11471365626604257	-0.345039488303427	0.4597531445694696	77.61690495867805
6	3.0	ltm	305	diff_vonmises	0.17211086375662002	9.861226101605451	4.421487574800824	0.5961764867883766	0.5343445079489482	1.1731895873888607	0.18695536274251534	-0.18261603330769471	0.36957139605021005	57.57938158785058
7	3.0	perception	305	diff_vonmises	-0.05962902876047498	-3.416491684439419	5.052530553288524	1.167701094062592	8.167600898723923e-14	1.5649154118616337	0.7690108884488198	-0.2490224012744227	1.0180332897232425	60.738103183035264
8	3.0	wm	305	diff_vonmises	0.055129679690583626	3.158697972178532	4.269442193432535	0.8347386910611461	0.3200674245680017	1.7809824716820526	0.284374056532273	-0.27274807524669287	0.5571221317789659	60.757409634378234
9	4.0	ltm	305	diff_vonmises	-0.08836278940242331	-5.0628148987621735	1.0344066331299675	71.94150726387024	0.9931375513289803	73.55904942462666	0.010318857330432252	-0.37132429317183124	0.3816431505022635	79.40253261411658
10	4.0	perception	305	diff_vonmises	0.017531856187276776	1.0045013665612783	0.8376944007093574	30.972378257961626	0.6611714153761757	32.97028283098108	0.48930998688255123	-0.6528125630154791	1.1421225498980303	100.44225918725374
11	4.0	wm	305	diff_vonmises	-0.04351767138984761	-2.4933789048754798	1.261206300607005	297.5412131318925	1.2441288674839959	299.7756303452673	0.0655936924068925	-0.5587268553978433	0.6243205478047358	72.01826199271565
12	5.0	ltm	305	diff_vonmises	-0.06253642562792487	-3.583073254313854	2.0050780762250824	0.8753216703777448	9.5770066206599e-12	1.4107829871957729	0.22770119112871345	-0.21633295302177108	0.44403414415048453	96.90063256451944
13	5.0	perception	305	diff_vonmises	-0.01815010680826468	-1.0399245178252274	2.0648699236610235	1.9812669516262478	0.05489065826722803	2.835178269854369	0.5656543504681188	-0.4100475820201682	0.9757019324882871	93.2098200576977
14	5.0	wm	305	diff_vonmises	0.1487357029999574	8.521928044808856	1.39515960959744	1.333464839195587	5.002983778257331e-19	2.030683294858535	0.2296557477313016	-0.28924416607534764	0.5188999138066492	113.72561992447865
15	6.0	ltm	305	diff_vonmises	0.38704829166774535	22.176233580310317	0.9713419981891716	108.90920776444308	0.9585409421896824	109.24673314359013	0.15179142581235539	-0.13042342510323657	0.28221485091559195	90.1983850813815
16	6.0	perception	305	diff_vonmises	-0.27473427808546413	-15.741114621870597	0.40619166957121744	127.56067494573871	0.3864403333958331	128.2133346679801	0.3145142756541617	-0.3779452917868724	0.6924595674410341	134.4526861978336
17	6.0	wm	305	diff_vonmises	0.23803836728450717	13.638593807587231	0.39009663930533206	124.74881717137286	0.37512534376105466	125.20450240422926	0.239377243591818	-0.28038895386115215	0.5197661974529701	136.07987845980855
18	7.0	ltm	305	diff_vonmises	-0.028915526327708337	-1.6567376209771039	1.569271089231347	0.7739698292812495	3.0148240859950315e-14	2.0897426956818674	0.01195537871286606	-0.31765726957165874	0.3296126482845248	108.3478528548385
19	7.0	perception	305	diff_vonmises	0.008517760843822358	0.4880317472528119	1.0122097335804663	329.06560959998507	0.9995704949322033	329.9526317561304	0.483293003033495	-0.37146705471873176	0.8547600577522267	88.92880653779
20	7.0	wm	305	diff_vonmises	0.08863181546951629	5.078228956985605	0.8019374422326048	95.67659529165633	0.774967323390703	97.23798134620164	0.02614100582685097	-0.35638404866690365	0.3825250544937546	91.16924800745005
0	1.0	ltm	306	diff_vonmises	0.07960292088174867	4.560911403438008	7.5086066479786275	0.3068117691003511	1.6542236902831802e-28	2.6815007431270197	-0.09741651583630229	-0.42677399909774694	0.32935748326144465	49.63667473993678
1	1.0	perception	306	diff_vonmises	0.06334369280063107	3.629326256249378	15.374863348016536	0.581220607025675	0.07578630136541765	2.819614881685887	0.4178938994649443	-0.4670715591131832	0.8849654585781275	34.18886456398184
2	1.0	wm	306	diff_vonmises	0.09171495255403105	5.254879699588569	4.238944249849389	0.6152278770797617	0.10041371615296708	3.182886737300016	-0.0705018270447682	-0.4997199450147102	0.42921811796994197	62.179845257524505
3	2.0	ltm	306	diff_vonmises	0.1630540307695342	9.342307795690573	5.400989759975996	0.5870619090993495	0.35670975204027844	1.5802717705542684	0.18216833471653482	-0.2604368631692021	0.44260519788573693	53.76966697963337
4	2.0	perception	306	diff_vonmises	0.03399366120475313	1.947693317229956	5.896158943571764	1.4050413161416944	0.4468752315166966	2.6853352042624445	0.6934891004362568	-0.44782555449064737	1.1413146549269042	52.08546691498222
5	2.0	wm	306	diff_vonmises	0.10627674206981153	6.089208781000641	1.6011851549141998	2.8718731263530666	0.6730451979351598	4.039960665438133	0.1653892786288631	-0.31608429069506483	0.48147356932392793	80.18997767774445
6	3.0	ltm	306	diff_vonmises	0.0899515259062962	5.1538427951924595	2.748534563566606	1.657450382836449	1.1007391512064477	2.3291059881673633	0.19228007852531526	-0.23813499766746762	0.43041507619278285	62.44255122304645
7	3.0	perception	306	diff_vonmises	-0.048886113413578104	-2.800967975395907	6.001442863876119	1.1144330035142782	7.796225799975418e-12	1.5841133320841838	0.8122406553308823	-0.25211294593460043	1.0643536012654828	55.622248384049186
8	3.0	wm	306	diff_vonmises	0.05283867722560179	3.0274332000810045	2.3275411255109195	1.3780093445624997	0.5479063967999026	2.1409021446756316	0.2310879367043962	-0.24060373694070425	0.47169167364510045	74.3786913370052
9	4.0	ltm	306	diff_vonmises	-0.11003986873482893	-6.304820056679279	1.176823783825209	191.04208264247043	1.1604465332011058	192.59500227038166	0.0031615923923311584	-0.36801760508578596	0.3711791974781171	73.54495000656081
10	4.0	perception	306	diff_vonmises	0.02381579608122467	1.3645446011983786	3.1501126472430054	1.4684987589982217	3.0831445895084464e-17	3.453227972048693	0.4391776143531162	-0.5477827849558765	0.9869603993089927	77.3844519629119
11	4.0	wm	306	diff_vonmises	0.13681206326452602	7.838753811534152	1.2254551773248403	184.97789923699926	1.2046005267099453	186.77204901734646	0.029222361984224676	-0.43760005693788884	0.4668224189221135	72.66976727117023
12	5.0	ltm	306	diff_vonmises	-0.1636812928596792	-9.378247266104434	1.6071355697546517	1.0427320462742031	7.675481263295919e-17	2.084784435573496	0.13916377654813072	-0.3128767752625919	0.4520405518107226	107.15785222929826
13	5.0	perception	306	diff_vonmises	-0.0840578461548666	-4.816159819633831	1.2371329241017606	5.313405434978391	0.48313196061309926	6.675309908331669	0.42480573672545474	-0.46756413849775	0.8923698752232048	95.62392665876156
14	5.0	wm	306	diff_vonmises	0.20252027465211636	11.603557003396533	1.3030310709906512	1.2095309583718092	2.8470473033859993e-15	2.1311057498372925	0.14222159841729481	-0.3036347709459619	0.44585636936325673	116.74897957339624
15	6.0	ltm	306	diff_vonmises	0.13210846960572054	7.569257746340101	0.8252069176845588	107.09310320658457	0.8070854927486927	108.01671376423383	0.08884070164157976	-0.23868198334571034	0.3275226849872901	92.74843496521973
16	6.0	perception	306	diff_vonmises	-0.2927285769897777	-16.77211200438465	1.4603898045476522	1.7462174810978706	2.2371891112906724e-16	3.0322998663162246	0.2616155428562722	-0.44249728057783566	0.7041128234341079	111.39898896839813
17	6.0	wm	306	diff_vonmises	0.31577408186626094	18.092522170555295	0.473247105093423	146.2240134078764	0.45784557677299337	147.2114699443906	0.18263230688514653	-0.3560692538311212	0.5387015607162677	124.98429143704922
18	7.0	ltm	306	diff_vonmises	-0.09879428601400628	-5.660495628610897	2.9594719457740566	0.5777565173483415	0.03594172550089031	2.372116186804898	-0.015762799476200684	-0.36625817299769864	0.35049537352149795	77.05128178356833
19	7.0	perception	306	diff_vonmises	0.012730006098762106	0.7293756226348669	1.7783692985070492	3.398845718983037	0.35535062268750484	5.1268042720550975	0.5045501367530576	-0.5506113684069656	1.0551615051600232	87.19181862181568
20	7.0	wm	306	diff_vonmises	0.02833088221815537	1.6232399809825349	0.9969511122735987	243.59563826029674	0.9835910235485711	245.23742529491696	0.06022492186514228	-0.3907080555146436	0.4509329773797859	81.74829944132117
0	1.0	ltm	307	diff_vonmises	-0.43144748267870925	-24.72011983903373	0.00029846950004815717	2198.482925442632	4.5922353129339227e-29	2201.574848242205	-0.387653945311456	-0.59652006462602	0.208866119314564	174.73263067799465
1	1.0	perception	307	diff_vonmises	0.10376943300601399	5.945550553710145	10.608047387413777	0.6929496968210815	0.11737371572659819	3.363983499659495	0.28928015657977757	-0.5617245750930286	0.8510047316728062	40.653558696332425
2	1.0	wm	307	diff_vonmises	0.10002308703258808	5.7309007408370105	5.597077128519462	0.5136787885463323	0.06644106225258499	3.5824197323719758	-0.13577915694476622	-0.5719663397011352	0.436187182756369	55.18874328186698
3	2.0	ltm	307	diff_vonmises	0.08365648616413313	4.793163586099394	5.271713500217006	0.48239084436993945	0.11511356446298075	2.1216850300630647	0.05260353648054933	-0.33816241134963093	0.39076594783018026	56.48548468540005
4	2.0	perception	307	diff_vonmises	0.04946221292813644	2.8339760461596355	7.114786604148199	1.4294074206078808	0.31590042893479214	3.4022439136327156	0.7678710383477391	-0.5792376454551192	1.3471086838028583	48.384692129210435
5	2.0	wm	307	diff_vonmises	0.07604598116015665	4.357113769408348	2.471377801588166	1.1599450519151446	0.27983388888955263	2.669136127474477	0.12784588230737015	-0.3603297412152963	0.48817562352266647	75.77335427721403
6	3.0	ltm	307	diff_vonmises	0.11304949038378079	6.477258675095424	5.7770299906205524	0.48579313185182216	0.1602452394283402	1.4680503969679333	0.18217320555959232	-0.23571577769636282	0.41788898325595514	54.24015647762147
7	3.0	perception	307	diff_vonmises	-0.04030098553115735	-2.3090763811531123	6.633254965543638	1.0502820921463132	4.971550046836917e-22	1.6587974768181855	0.7930645232300724	-0.2640039873303917	1.057068510560464	52.85958587390354
8	3.0	wm	307	diff_vonmises	0.04242438272155696	2.4307380783929466	1.3128582681254553	148.12635550006075	1.2938224371451639	148.8257173039041	0.23502478443233343	-0.2418642349301905	0.4768890193625239	76.17860861912703
9	4.0	ltm	307	diff_vonmises	-0.4131256478220424	-23.670356028811042	0.6096460750566305	108.52228665727883	0.5887939662623685	110.91644421708013	-0.20244632085521275	-0.4552175200175146	0.25277119916230184	94.99046455417918
10	4.0	perception	307	diff_vonmises	0.05210143012466531	2.9851920527390887	3.387398633152285	1.2475963187167167	4.359422214563891e-25	3.964910014172752	0.24406247695924332	-0.6300354892896027	0.8740979662488461	74.5570368262704
11	4.0	wm	307	diff_vonmises	0.1655331508641382	9.484350914017455	1.1393866088727491	136.8898903607741	1.1117833711837861	138.9962220850196	-0.0588921464099883	-0.47677642996596603	0.41788428355597773	73.44274069767542
12	5.0	ltm	307	diff_vonmises	-0.1505876782988135	-8.62803841319579	1.8232642658329872	1.027593590725289	7.731708655313536e-18	2.4305623769064004	0.11433962189873165	-0.37376359339338616	0.4881032152921178	101.27626681009203
13	5.0	perception	307	diff_vonmises	-0.10599873306887475	-6.073280038580315	0.8247472208684421	176.6274343143891	0.7990861682100315	178.1475924206562	0.4041487030746467	-0.4984866636896861	0.9026353667643328	96.58875073009006
14	5.0	wm	307	diff_vonmises	0.04407745421093418	2.525452097967667	0.6244430013592477	212.65022293114274	0.6134204335517349	213.59760443445649	0.19039881658972746	-0.3118920484403098	0.5022908650300373	109.97985824634365
15	6.0	ltm	307	diff_vonmises	0.10337845886239484	5.923149385382026	0.9381877246041099	129.72563389227707	0.9198522647737348	130.77707464767596	0.10901262181417337	-0.27279398576606795	0.3818066075802413	86.86091953956083
16	6.0	perception	307	diff_vonmises	-0.33910857444072323	-19.429490112151342	1.052889439195671	2.0188963825615027	5.396748473301359e-15	3.1766269437853176	0.20443148409224043	-0.4191267956230795	0.6235582797153199	125.59935331972144
17	6.0	wm	307	diff_vonmises	0.3525245017869743	20.198166127345676	0.427439981162985	171.4186460906975	0.4149428848969788	172.31250638740104	0.1883221320866113	-0.3483046994908392	0.5366268315774505	129.8325539150191
18	7.0	ltm	307	diff_vonmises	-0.01608756243445089	-0.9217494301472442	0.9819601124514834	203.4483956403522	0.9655566890678637	205.67917745781114	-0.1150522353320298	-0.4713727085717281	0.3563204732396983	77.39103031611549
19	7.0	perception	307	diff_vonmises	-0.0675969082441956	-3.8730175505254882	2.573940420792402	1.8684135252119556	8.087548059508796e-13	3.291351612188221	0.5963035813652209	-0.5173248790114873	1.1136284603767082	85.72958665352058
20	7.0	wm	307	diff_vonmises	-0.1735803881486985	-9.945423647163077	0.9619054327324962	174.5882222543388	0.9441730121002669	176.16255982689978	0.06649702816461911	-0.37576725064768723	0.44226427881230634	83.63332014789782
0	1.0	ltm	308	diff_vonmises	0.05248241534930854	3.0070208981679896	12.07690331786444	0.5453939114188993	0.2527365551058344	3.371805853791235	0.06795030794645107	-0.6117337980511465	0.6796841059975975	37.11317680694262
1	1.0	perception	308	diff_vonmises	0.01908424415605914	1.0934466453393945	17.174846357485144	0.5808517045905828	0.006417722437937667	3.3277792079583413	0.4200945388383931	-0.5311520370536296	0.9512465758920227	32.63247651359126
2	1.0	wm	308	diff_vonmises	0.19188321343914547	10.994098289470994	3.2441745196369203	0.5195210482271709	0.058208998877874334	4.344119227810288	-0.3765239467868298	-0.6770138763696325	0.3004899295828027	70.01522600925779
3	2.0	ltm	308	diff_vonmises	0.1619863758842026	9.281135676784547	7.815806540714919	0.6597494369275264	0.7080600236708983	1.3454824467616926	0.3382855301221031	-0.2587906607643398	0.5970761908864429	44.42460254136719
4	2.0	perception	308	diff_vonmises	-0.010254396135152341	-0.587533619999492	6.564463202583765	1.2210953414180439	0.407172561657202	2.332359974504261	0.6868802597404896	-0.3956061513958405	1.0824864111363302	49.998322063550944
5	2.0	wm	308	diff_vonmises	0.09565501259321482	5.4806285108619495	0.9918780858174874	181.89281124281104	0.9729618261023087	183.70194710071286	0.04286894387799833	-0.42262969806568407	0.4654986419436824	81.53794955912826
6	3.0	ltm	308	diff_vonmises	0.061750499199502054	3.538042986957436	2.2179299942626125	107.59454863140513	2.1955727566169236	107.85737205854187	0.2133744393921475	-0.15373164499067826	0.36710608438282577	59.46861627323409
7	3.0	perception	308	diff_vonmises	-0.04689648022729466	-2.6869703910426996	3.088253915215816	2.660493952655987	0.6652942844392455	3.2095899240423096	0.8793045770307681	-0.3803484330828907	1.259653010113659	67.93601169303287
8	3.0	wm	308	diff_vonmises	-0.05088320331002786	-2.915392797770697	2.3192928664684915	1.5781769150644334	0.6755619906591817	2.902796060388357	0.0772798504659522	-0.33412949855176777	0.41140934901771997	68.7014128688422
9	4.0	ltm	308	diff_vonmises	-0.07885150593622614	-4.517858498396515	1.3590358190800784	276.93003421020353	1.3475055581758488	277.9613349218056	0.15610491963404627	-0.3009904648370849	0.4570953844711312	72.20724989991908
10	4.0	perception	308	diff_vonmises	-0.09496740594140764	-5.4412315517482766	1.2422939601360659	140.21655985213354	1.1939569706979163	141.31099199086927	0.8347102667972877	-0.5316857264389743	1.366395993236262	81.52451996242274
11	4.0	wm	308	diff_vonmises	-0.18198631391211392	-10.427047716307065	0.9828500821375595	249.03069626078582	0.9679604074964835	251.13486704393688	-0.0034121354694178763	-0.47459427354982964	0.47118213808041176	80.60391354027436
12	5.0	ltm	308	diff_vonmises	-0.10120375750249586	-5.798548175758453	2.95372362742247	0.6688859888216	1.0944704836974836e-12	1.4434332487239345	0.20448442889076032	-0.22854881389078865	0.433033242781549	79.96385984640821
13	5.0	perception	308	diff_vonmises	-0.020548732871646814	-1.1773556678871029	0.8812718713777209	165.38196196071024	0.8522783648662398	166.59448028980478	0.5342028281623215	-0.47678650099053144	1.010989329152853	95.2242417027403
14	5.0	wm	308	diff_vonmises	0.32009871132633483	18.340305186575467	0.00016504443178222552	6164.513267379824	5.315754723607492e-29	6166.254608749408	-0.1152120645681407	-0.4390607469434826	0.3238486823753419	176.7582836091035
15	6.0	ltm	308	diff_vonmises	0.5117231025813834	29.31957405725335	0.6398702285197169	96.37927969238652	0.6266217280468209	97.25824097091275	0.004531505162290728	-0.2009197779953773	0.20545128315766803	101.70113499430695
16	6.0	perception	308	diff_vonmises	-0.056994292914245445	-3.265532440318637	0.6870004050635731	362.4036782278229	0.6761875313907969	363.8884216694863	0.33045958489398686	-0.48567507710787794	0.8161346620018648	105.00588760364364
17	6.0	wm	308	diff_vonmises	0.22790988166495768	13.058274328728098	0.00017980485674852248	8334.204118242818	3.400514733187804e-28	8335.98496198546	-0.044920970772182045	-0.5219177567068982	0.47699678593471617	178.27389058882926
18	7.0	ltm	308	diff_vonmises	0.021094079671948446	1.2086017379153502	3.9342884007529877	0.38028017947264514	0.06443913333008283	1.4547003400257035	0.04306208258087449	-0.22597324093936483	0.2690353235202393	66.3309195324207
19	7.0	perception	308	diff_vonmises	0.05301498119812058	3.0375346736177216	1.5786145651405599	1.8992399252342544	0.07111024313353857	3.1762177537286123	0.30648304614504607	-0.43411660138829494	0.740599647533341	103.77069905565759
20	7.0	wm	308	diff_vonmises	-0.019173503567543413	-1.0985608328992646	0.7589966465807179	112.1386416266318	0.7409630062107594	113.82554605639338	-0.10715152809650874	-0.3361021424988664	0.22895061440235764	87.2587187140137
0	1.0	ltm	309	diff_vonmises	-0.013615587458060317	-0.780115696938113	7.656127317479033	0.3550122305734525	0.0694043049712116	3.9550762768852117	-0.2888641788065781	-0.6429473363591933	0.3540831575526152	46.989775701173556
1	1.0	perception	309	diff_vonmises	0.05499521940779708	3.1509939654627273	13.568778206282747	0.6669812136488349	0.03859942798089625	3.951316031215646	0.31738457355975913	-0.6399849645262558	0.9573695380860149	36.491441547961216
2	1.0	wm	309	diff_vonmises	0.12479416547859615	7.150178989780755	6.222645426158481	0.38861884285427806	3.0812784707776545e-28	4.650174804610109	-0.36181134000088694	-0.7400968173124426	0.37828547731155565	54.605835360691316
3	2.0	ltm	309	diff_vonmises	0.09571813956953856	5.484245420178722	5.74347741033578	0.6522079456624913	0.27735097547476134	2.0727076800073223	0.18148975393998773	-0.3423043143929951	0.5237940683329828	52.78764100000015
4	2.0	perception	309	diff_vonmises	0.011627294510976863	0.6661949026346027	6.368121367851183	1.355833960648307	0.29262897161456	3.180537662100338	0.6717757825638596	-0.52804842901104	1.1998242115748996	51.07399063914036
5	2.0	wm	309	diff_vonmises	0.08532764380968479	4.888913866090523	3.3221983438308804	0.8227640980843466	0.08482431734491673	2.8181541445169285	0.08350873938770187	-0.42960689427261683	0.5131156336603186	71.2374030223809
6	3.0	ltm	309	diff_vonmises	0.0455978661516129	2.612565285289852	3.4514860975298123	0.8702399319140454	0.5456174029443289	1.5779933401926942	0.21393423277257229	-0.22143821382563098	0.4353724465982033	63.60089432141683
7	3.0	perception	309	diff_vonmises	-0.02450506281358463	-1.4040366759213778	4.206108314847588	1.8017969078401108	0.28813338768534763	2.6420271406745726	0.8741362986768848	-0.39180380958876126	1.265940108265646	62.87630473360301
8	3.0	wm	309	diff_vonmises	-0.06508371316057172	-3.7290220791408117	1.2331224294581942	197.16447850641043	1.2162171389350984	198.34815143722477	0.1610679126563639	-0.3303832614084463	0.4914511740648102	75.82461364074067
9	4.0	ltm	309	diff_vonmises	-0.11343417388606739	-6.4992994162247575	1.0022116533226766	207.22454084561926	0.9841305802900288	209.09630243905278	0.0751865494171966	-0.4476909012086274	0.522877450625824	81.76649848445851
10	4.0	perception	309	diff_vonmises	-0.0734412971928511	-4.207876371116348	1.8802117123988595	4.373076773863197	0.5106436020071445	6.363239527450888	0.5903977276541219	-0.6300532937649361	1.220451021419058	81.40752392507886
11	4.0	wm	309	diff_vonmises	-0.11324671511787744	-6.488558819974752	0.9129597723590085	252.3688556430861	0.8977520324013893	254.69660113990062	-0.019485918732613072	-0.514395241700587	0.49490932296797396	83.41393815191597
12	5.0	ltm	309	diff_vonmises	-0.09065429700265058	-5.194108612977348	2.4532875629859867	0.9271284716245805	1.1515726602512158e-13	2.016149784111917	0.21949545712715923	-0.31688251054172223	0.5363779676688815	87.81165442818786
13	5.0	perception	309	diff_vonmises	-0.036639763104058254	-2.0993037882216905	1.2373618148102046	6.477681524197608	0.5282440442005502	7.869328843196718	0.5172108222453071	-0.5073002926397203	1.0245111148850274	94.72296624181132
14	5.0	wm	309	diff_vonmises	-0.010569862788866966	-0.6056085278344551	0.3956404413558616	188.492729183596	0.38377671559867566	189.94793004946015	0.08153788881477197	-0.42866895057619914	0.5102068393909711	131.6591466194273
15	6.0	ltm	309	diff_vonmises	0.28799228347312544	16.500742375345297	0.7072782414762611	135.08496052665245	0.6947703330397036	135.9627530918857	0.07313435498434018	-0.22777133801246663	0.3009056929968068	100.0208715294471
16	6.0	perception	309	diff_vonmises	-0.11904573116695683	-6.820817964915631	0.5829136959719874	289.98490078806424	0.5724717343764755	291.2372365141218	0.2457399580934947	-0.42212457985136	0.6678645379448547	113.87409061887574
17	6.0	wm	309	diff_vonmises	0.3793167974018356	21.73325158954409	0.06555187694385835	112.75151633145052	0.052619344436566295	113.85348267339789	0.053985799045268124	-0.3912977607422441	0.4452835597875122	169.15470826536014
18	7.0	ltm	309	diff_vonmises	-0.003847278369712149	-0.2204328131964781	0.7998943866854594	114.80707561464149	0.7803265944548181	116.27206063197416	-0.010311679012545483	-0.3214559600554896	0.3111442810429441	89.67397914293207
19	7.0	perception	309	diff_vonmises	-0.04568381652484575	-2.617489878923669	0.7498072751749831	138.73840079815534	0.7213183516401624	139.89265216721228	0.4211079019199673	-0.4424012716432344	0.8635091735632017	102.8370684613125
20	7.0	wm	309	diff_vonmises	-0.1401980829207515	-8.03275844718421	0.9073410958516607	171.9312078717124	0.8916875920778246	173.32424402481416	0.06523817839725865	-0.3333389572501062	0.39857713564736486	86.40342055352858
0	1.0	ltm	310	diff_vonmises	-0.07535019735986644	-4.317248294198145	6.561976087552156	0.47599809029732165	0.24124114143630584	2.065745435594326	0.06392588305751012	-0.3483003862799682	0.4122262693374783	49.420329930447
1	1.0	perception	310	diff_vonmises	-0.05603989944683807	-3.210849722641338	16.82761296797457	0.6831114791555948	6.711631912355193e-18	2.428138378421656	0.7228138443767653	-0.386450225436943	1.1092640698137084	33.012120521047024
2	1.0	wm	310	diff_vonmises	-0.06064138033360026	-3.474495156962927	15.994734486296887	0.23124279266809555	2.358745450083139e-23	2.25417160286223	0.007018121579093817	-0.3587625531729	0.36578067475199383	33.87836423922727
3	2.0	ltm	310	diff_vonmises	0.056279772043542904	3.2245934100533686	1.6412779203238157	118.91923230143462	1.6150143706058175	119.58053505332396	0.23183122923666843	-0.24723203476476563	0.47906326400143406	67.74576720008545
4	2.0	perception	310	diff_vonmises	-0.06005863150128063	-3.4411061083548353	6.051296553694291	1.12641035371349	0.2658300010961149	1.9100817145251665	0.6906801199107483	-0.30793306535465265	0.998613185265401	53.14335317182929
5	2.0	wm	310	diff_vonmises	0.0928748139500212	5.321334862398957	3.007255753421957	0.6059276175910464	2.915152434117388e-26	1.4813048297712321	0.1616279054816935	-0.23478606627623755	0.396413971757931	79.23655737367093
6	3.0	ltm	310	diff_vonmises	-0.02851686341858765	-1.633895918836081	1.7360627297502016	41.27653927912411	1.682212754357259	41.428256843075744	0.3008295076233196	-0.13734668111722037	0.43817618874054	70.1111863885742
7	3.0	perception	310	diff_vonmises	-0.03820500258072113	-2.1889854041617394	3.37925766580652	2.5688717128151883	0.6983843210874614	2.911258410757269	0.9718978257976647	-0.35560845900645277	1.3275062848041175	65.70231607508751
8	3.0	wm	310	diff_vonmises	-0.22609713678115562	-12.954411697552308	1.6085856601754849	149.5609656690001	1.5900593124959834	150.00086088877202	0.2770862419018272	-0.20162576712786517	0.47871200902969235	70.1058733078491
9	4.0	ltm	310	diff_vonmises	-0.043203096549385964	-2.475355094176026	1.5476314608465622	137.06776964645593	1.5235088653012172	137.5805849918727	0.3497953843551045	-0.24104040012026395	0.5908357844753684	71.8770890510385
10	4.0	perception	310	diff_vonmises	-0.09123299082001066	-5.227265326342394	3.514593316891674	2.055590903806294	2.4463844979527075e-13	3.1379885489287656	0.9723082678119062	-0.49812287233303104	1.4704311401449373	73.16202494382031
11	4.0	wm	310	diff_vonmises	-0.23210160363096344	-13.29844230627251	1.175297270222818	243.36902785129115	1.1587024239505623	244.57348853440757	0.3021208288948287	-0.37695243791372945	0.6790732668085582	79.75167218282506
12	5.0	ltm	310	diff_vonmises	0.011360363573335124	0.6509008864862613	2.191560194422274	1.0876046177493757	2.148455130876394e-16	1.0891066610109086	0.4194632407273482	-0.16593420734018718	0.5853974480675354	92.84102411302294
13	5.0	perception	310	diff_vonmises	0.0018194965517956698	0.10424947325649826	2.1301543296418934	1.9881006476648615	5.795942050004017e-13	2.2986330939832365	0.6995070484056586	-0.350798219785461	1.0503052681911196	94.12842294498512
14	5.0	wm	310	diff_vonmises	0.004987848093958242	0.28578264463617936	0.3241765210661379	99.66266883758276	0.3080896825018213	100.02431763814533	0.21163886793074838	-0.25108153969155467	0.46272040762230304	143.92883530377952
15	6.0	ltm	310	diff_vonmises	0.16842725923633173	9.65017110919762	1.6142962790397988	0.6524691938665665	3.044097054230843e-11	0.5471310983722291	0.20841960897162512	-0.07537228016308066	0.28379188913470577	106.9285663772834
16	6.0	perception	310	diff_vonmises	-0.09458731357954676	-5.419453863588489	0.7608708793987795	145.9771200675319	0.7466627516634262	146.39164348946838	0.27430009896380625	-0.2132077225667217	0.48750782153052796	103.58678142687803
17	6.0	wm	310	diff_vonmises	-0.09196921706063856	-5.269447982697156	0.7224298217942556	26.66999703499703	0.6862303712336422	26.60937087683582	0.20113306983815438	-0.0853875074009991	0.2865205772391535	112.36161651761437
18	7.0	ltm	310	diff_vonmises	-0.025469855477452126	-1.459315223666169	0.4572068812527024	75.3711377493664	0.4395023817845031	75.63990331558311	0.18390774665732224	-0.18358065288674386	0.3674883995440661	130.27218522702748
19	7.0	perception	310	diff_vonmises	-0.13025218358396096	-7.462900391724148	0.903644963651992	226.52240930221	0.8885684979332996	227.01273053194214	0.4933442736449365	-0.3024282896810888	0.7957725633260253	96.09923953004156
20	7.0	wm	310	diff_vonmises	0.21127889562564287	12.105389019534368	0.8724396052946533	41.202051841711935	0.8386498290224795	41.45614141727361	0.1865820108191958	-0.1311574440163068	0.3177394548355026	97.5029285554532
0	1.0	ltm	311	diff_vonmises	-0.36125467004393197	-20.69836792290843	0.5202299775250123	61.795412993868226	0.4796498648758142	65.53900538854926	-0.44080720454799405	-0.6627326038187933	0.22192539927079924	95.69774755044938
1	1.0	perception	311	diff_vonmises	0.07780530869587902	4.457915811986392	11.449284678079326	0.6535706404335068	0.008791346469016895	4.210898658628144	0.19580151101684806	-0.6717264935695327	0.8675280045863808	39.97171827856309
2	1.0	wm	311	diff_vonmises	-0.25067248337239484	-14.362475337301529	0.0005750823946139981	1729.29898092132	7.389108759512113e-32	1733.6753500100417	-0.5382232874275132	-0.8547727513291079	0.31654946390159466	178.17834728574192
3	2.0	ltm	311	diff_vonmises	0.08220745363947993	4.710140138059579	11.060044125146824	0.4407174644823955	0.09221427903550279	2.1455115005943433	0.20408065655334362	-0.35462428532062856	0.5587049418739722	40.02935115354944
4	2.0	perception	311	diff_vonmises	0.019124550259621984	1.0957560149621626	7.621608651354339	1.2455365161311456	0.18046130644113564	3.3401314534619693	0.7161799977817901	-0.552854160477456	1.2690341582592461	47.67085384878854
5	2.0	wm	311	diff_vonmises	0.09043460104162844	5.181520961634708	2.6416580014821296	0.8020272816001949	7.563519190529538e-20	3.0817614424977537	-0.0023130885925500277	-0.48799978722999177	0.48568669863744174	84.6159351456599
6	3.0	ltm	311	diff_vonmises	0.05414982137656737	3.102556226264596	3.8439577012573	0.6307463518426906	0.3468463659884987	1.3963161596148448	0.16938232386012653	-0.2093015081940795	0.378683832054206	62.847560290986735
7	3.0	perception	311	diff_vonmises	0.0185296266043459	1.061669400382347	2.580127338613829	4.246389485401212	0.7896391696891769	5.325598881914621	0.9428038663820144	-0.5395043198758688	1.482308186257883	70.28838161939532
8	3.0	wm	311	diff_vonmises	-0.12014146038566431	-6.883598624636737	1.0913429768143923	184.11638718653435	1.0742326993622051	185.44954767162437	0.11678759384929549	-0.3431606764975257	0.4599482703468212	79.69023705691671
9	4.0	ltm	311	diff_vonmises	-0.005869077132986057	-0.3362733493568425	0.9721551231009092	113.74518075497055	0.9395970679967297	115.77050202522625	0.034091329165207185	-0.46693266154086643	0.5010239907060736	82.39657833831083
10	4.0	perception	311	diff_vonmises	-0.10013972076083567	-5.737583361214473	1.2100760976614622	463.3853827571362	1.1938391352918536	465.3715336002395	0.6386364200090782	-0.6697122452910236	1.3083486653001017	79.35743251666472
11	4.0	wm	311	diff_vonmises	-0.16974223501099195	-9.725513671247597	0.9082572063652034	220.85179250691215	0.8896646815121158	223.2724307174938	0.005651149622806884	-0.5428421725235495	0.5484933221463564	84.33354215901863
12	5.0	ltm	311	diff_vonmises	-0.09614053545485339	-5.508446921690954	2.167439549753088	0.9262121573316079	6.722144454430747e-19	2.209778089782326	0.14978040235652462	-0.345124968194908	0.49490537055143263	93.33673704530567
13	5.0	perception	311	diff_vonmises	-0.0037152134973056955	-0.2128660533856546	1.5187922193185035	3.9441394361363873	0.35069507847848086	5.360717638711272	0.5461834085708801	-0.5190269197815811	1.0652103283524612	93.65544756310368
14	5.0	wm	311	diff_vonmises	0.008288456473790366	0.4748935746260726	0.39103691305661004	185.89407622709788	0.3796032884793554	187.66951395589732	-0.009905009103626128	-0.4502863760729312	0.4403813669693051	129.81521617211268
15	6.0	ltm	311	diff_vonmises	0.5475195622771782	31.37056011933255	0.5904938381232789	171.36350944796405	0.5800138558793608	172.59484377042077	0.01705683286579074	-0.2914799310235239	0.3085367638893146	106.65870618361538
16	6.0	perception	311	diff_vonmises	-0.03748643631585887	-2.147814589884652	0.6736441834065076	329.0387313290611	0.6634989000568154	330.3867915571515	0.26099710093937745	-0.42517596756917087	0.6861730685085483	105.51469553230491
17	6.0	wm	311	diff_vonmises	0.02235392898466252	1.280785786356324	0.3001907989532252	115.36773017472366	0.2841247834285692	117.04887567139238	-0.01753922545046649	-0.4441807789270893	0.4266415534766228	142.31923133893298
18	7.0	ltm	311	diff_vonmises	0.18329899203222233	10.502258632448443	3.3632245945178405	0.5685642103090324	0.15481762674361252	2.0089908916398582	0.02611073667810404	-0.30410567479591954	0.3302164114740236	68.3419815274336
19	7.0	perception	311	diff_vonmises	-0.06155284245119038	-3.5267180894868977	0.7227936131331519	110.3783427199463	0.6874919655240725	111.18214725504511	0.5159727932306843	-0.4205704189196311	0.9365432121503154	107.0158291792251
20	7.0	wm	311	diff_vonmises	-0.2545221509149704	-14.583045040019607	0.8742092633010192	136.17172195237058	0.8538555555193011	137.59514083621053	0.08177059920433294	-0.34577281341185717	0.4275434126161901	88.6814001227147
0	1.0	ltm	312	diff_vonmises	0.3319525579982053	19.01948057186884	0.8653256907556709	172.1378730198327	0.8465283508368824	175.3672666348694	-0.3919467086076125	-0.6117548218697806	0.2198081132621681	73.10876761473537
1	1.0	perception	312	diff_vonmises	0.013716667528537129	0.7859071583693191	14.347271999439696	0.5218239715927283	0.042673278911534586	3.24076143223922	0.24333115803894567	-0.5266065293007822	0.7699376873397279	35.46389818245615
2	1.0	wm	312	diff_vonmises	0.03411808383452112	1.9548222087915803	0.9391200995135495	243.39485939426524	0.9200544304794223	247.4283587647595	-0.43469596260243293	-0.7909028595694139	0.35620689696698093	72.85174643918296
3	2.0	ltm	312	diff_vonmises	0.0242049817209757	1.3868432958032115	13.261942053522525	0.42993216388656424	0.28314755906378947	1.7303348421915024	0.2600233687459569	-0.3186155482518115	0.5786389169977684	35.925378315340055
4	2.0	perception	312	diff_vonmises	0.0060370163324612374	0.34589555670157596	8.19598521736794	1.2000741050292127	0.3061467629178826	3.006412967992929	0.713319026587439	-0.522496385360402	1.2358154119478408	45.360728770078026
5	2.0	wm	312	diff_vonmises	-0.05024134884705817	-2.8786172459808976	1.0736140591542742	168.61357862825912	1.0506034440942833	170.80944050589935	-0.04177206503418773	-0.49365540820281595	0.4518833431686282	76.17709082637327
6	3.0	ltm	312	diff_vonmises	-0.03986193244814348	-2.283920492514211	1.5432145328273994	40.7660952227743	1.4916282501003508	41.18459362200644	0.18586696234986633	-0.16460192274305196	0.3504688850929183	71.08701292592838
7	3.0	perception	312	diff_vonmises	-0.07674930036507402	-4.397410991500609	5.448020197172968	1.475890074650619	0.16049471456616612	2.272988895007992	0.9172972462941638	-0.3553455892679895	1.2726428355621533	56.82678659840812
8	3.0	wm	312	diff_vonmises	-0.1092801322909631	-6.2612903649034894	1.5810847061974094	200.6496607562146	1.5632127652175893	201.9077854681432	0.05895629958965287	-0.3540619110365384	0.41301821062619126	64.45006996748904
9	4.0	ltm	312	diff_vonmises	-0.2928998025772328	-16.78192250789047	1.0231298793327808	51.868116384727664	0.9669334316804636	53.492464720013324	0.006725397779234754	-0.3704651128990193	0.37719051067825404	80.07044215666035
10	4.0	perception	312	diff_vonmises	-0.08913668405154136	-5.107155795944395	2.927476496630272	2.4322435830456577	0.2731178826686059	4.2187245260372706	0.7048249772105214	-0.5786490039271952	1.2834739811377167	73.05690311964648
11	4.0	wm	312	diff_vonmises	-0.035261990200533354	-2.0203632157222287	0.7322160759957463	93.15315964818886	0.70919189390072	95.6185410806047	-0.2967406077317598	-0.45011125870293434	0.15337065097117453	79.1889753469473
12	5.0	ltm	312	diff_vonmises	-0.05813225708123789	-3.330732984324425	3.174676843270897	0.8913931359323457	0.08791450280725203	1.781825724994412	0.29379495689042634	-0.2661965027053005	0.5599914595957268	74.13772322310308
13	5.0	perception	312	diff_vonmises	-0.09922105200641873	-5.684947518815842	0.8725830135150452	75.84119381364643	0.8163958725453128	76.9859624365591	0.46198712613044535	-0.43632045821738163	0.898307584347827	96.194599408532
14	5.0	wm	312	diff_vonmises	-0.3429191256631112	-19.64781861481259	0.46876891778418106	215.68594168405062	0.4567137740454715	217.25117407048563	0.10936880545557415	-0.4526769930001997	0.5620457984557738	122.82116439600169
15	6.0	ltm	312	diff_vonmises	0.4186167865176201	23.984975100788613	0.3763652756150086	24.7734554164373	0.32762926447308494	25.52374897803459	0.05767322554170651	-0.2375509135974463	0.2952241391391528	135.20785308250578
16	6.0	perception	312	diff_vonmises	-0.1266235453104178	-7.254994733270488	0.8403400509203053	242.8962804268066	0.8271055706854926	243.89395724241714	0.3055203935176678	-0.34152608943262663	0.6470464829502944	95.80698783193394
17	6.0	wm	312	diff_vonmises	0.4120442913707642	23.608398868003555	0.00014600307873688977	10471.626289131733	6.12122554133278e-34	10472.710453244783	0.07078346901244004	-0.4158658626124634	0.4866493316249034	174.78796163603758
18	7.0	ltm	312	diff_vonmises	0.06920482064214734	3.965144144754882	1.3775636665831719	210.29876651227218	1.363918755551934	211.5768228258216	-0.007746335991299702	-0.3197563160311958	0.3120099800398961	67.40092735160337
19	7.0	perception	312	diff_vonmises	-0.14662611110728868	-8.401057332863923	0.537436520835265	99.80628088820707	0.5081750125454564	100.80570421055864	0.2995446612908097	-0.4126054830964332	0.7121501443872429	120.81947849047754
20	7.0	wm	312	diff_vonmises	-0.6110776228234317	-35.01216874266982	0.9041543630227032	121.2892825013322	0.8892387010453953	122.59515694414942	-0.07414440772336661	-0.2692245978349135	0.19508019011154687	80.25073916564963
0	1.0	ltm	313	diff_vonmises	-0.17694958832608546	-10.138464597662079	6.899208195991429	0.2221616636246432	3.7479351453854327e-16	3.7852101079054745	-0.3741824770891691	-0.6024346671174601	0.228252190028291	51.80918936109529
1	1.0	perception	313	diff_vonmises	0.06463658051759955	3.703403265815976	12.024245115530185	0.6990177598641485	0.01596109871234505	4.024096644149845	0.30567416996544383	-0.6438271552166686	0.9495013251821124	38.93669253403675
2	1.0	wm	313	diff_vonmises	0.149033876147346	8.539012107718355	11.24304199145135	0.3170227059082391	1.4396528231719804e-36	4.374393714369808	-0.27720276542833266	-0.6962063826001346	0.4190036171718019	40.46240349132577
3	2.0	ltm	313	diff_vonmises	0.056325588131938574	3.227218478552239	5.5071596936756215	0.5899530441528976	0.16916604679083017	2.2676918235807504	0.11407824108717879	-0.3656001731337562	0.479678414220935	54.74595182839957
4	2.0	perception	313	diff_vonmises	0.011800183016928803	0.6761006843519712	7.323394400854852	1.2995348858209759	0.20566709271586145	3.2802826485726464	0.7426220471888151	-0.5439241222057091	1.2865461693945242	48.46287821823037
5	2.0	wm	313	diff_vonmises	0.08249454714655095	4.7265893843403575	3.3134417018459215	0.7262144665700948	9.857868258439906e-14	2.701106865896184	0.07321586084770915	-0.42922819828169906	0.5024440591294081	75.4057229524451
6	3.0	ltm	313	diff_vonmises	0.053963536537647086	3.0918828912071894	4.96511676227143	0.5153043863642036	0.12321429263229028	1.2723741427993105	0.2169798580577733	-0.19913510232513754	0.41611496038291085	59.079352329248366
7	3.0	perception	313	diff_vonmises	0.0003925583396833112	0.022491936076516672	4.064208069639317	1.9199796933816289	0.3370626007095366	2.7322344015915414	0.8968586269229792	-0.39891056560109645	1.2957691925240757	63.396519689871525
8	3.0	wm	313	diff_vonmises	-0.09208606298174339	-5.2761427608297815	1.2663678208391678	167.73734901468754	1.2480740770241172	168.66927376091462	0.20020682545484192	-0.2844029157977701	0.484609741252612	76.16525990761491
9	4.0	ltm	313	diff_vonmises	-0.07448542167497597	-4.267700297228386	1.2168015046495442	7.275782720477038	0.7552631455939175	9.25225567220105	0.05070210473224046	-0.4604608671831959	0.5111629719154364	81.92952571673928
10	4.0	perception	313	diff_vonmises	-0.08699394749460607	-4.9843860346236095	2.1257548219722944	3.551611539857728	0.430780768529154	5.659065162716621	0.5772926164242476	-0.6415546715625542	1.2188472879868018	79.22067559231138
11	4.0	wm	313	diff_vonmises	-0.13627538738198017	-7.808004548497816	0.9724756845137421	238.19640214078055	0.9556118322017023	240.34630113137746	0.04551350166235579	-0.49918320976105335	0.5446967114234091	82.22914046863181
12	5.0	ltm	313	diff_vonmises	-0.08896728103649884	-5.0974497181456675	2.3378524655904007	0.9507865736280899	3.10493725782054e-17	2.109674757191611	0.20283346180732015	-0.33074595635767357	0.5335794181649938	89.93495885627911
13	5.0	perception	313	diff_vonmises	-0.026000682285944408	-1.4897293594451761	1.3043661756001799	5.60710759679714	0.4872713612243326	6.878289670100108	0.5522111449781113	-0.4940699289877982	1.0462810739659094	94.81013170603859
14	5.0	wm	313	diff_vonmises	-0.04487017835940865	-2.570871845993356	0.4909586422588933	201.95091513692637	0.4795150647227563	203.2303434045259	0.12011404985797469	-0.38312758478916464	0.5032416346471393	121.3394514794747
15	6.0	ltm	313	diff_vonmises	0.29825165711419854	17.08856118542655	0.7718450460254531	146.14445301767083	0.7599362410072777	146.99334572815158	0.08105844409753615	-0.22100562995302298	0.30206407405055913	95.86891270738653
16	6.0	perception	313	diff_vonmises	-0.1332957759090139	-7.637285386508091	0.5784269254980401	255.31560212051804	0.5680342564521534	256.3453808780222	0.23354771678089037	-0.3659421563717977	0.5994898731526881	114.86174573771383
17	6.0	wm	313	diff_vonmises	0.19286697339389977	11.050463582932396	0.30697094261208846	148.12141225293314	0.2964250851358114	149.06023017548787	0.08298895765624437	-0.3152471221062143	0.3982360797624587	142.7670505254917
18	7.0	ltm	313	diff_vonmises	0.06495075345706215	3.7214040492844025	0.8490096521393332	119.92309752109429	0.8302673852810277	121.27293580672152	0.011314208265332582	-0.30405720622696464	0.3153714144922972	87.75117739497597
19	7.0	perception	313	diff_vonmises	-0.09256253720042738	-5.303442722607167	1.2647897437298916	4.151059933730026	0.3687530698813453	4.966705837849943	0.5181453280862229	-0.40243070298953	0.9205760310757529	101.04514560215178
20	7.0	wm	313	diff_vonmises	-0.18251163856830216	-10.457146601980812	0.9389769782598297	88.05157743276338	0.9109032295409074	89.13246725230111	0.1190722705364351	-0.28294404539065354	0.40201631592708864	87.24969291970254
0	1.0	ltm	314	diff_vonmises	-0.05243962729105148	-3.0045693230163	7.0413831143101255	0.2236266843086506	0.04871597852113955	2.577366464358503	-0.19820442755551604	-0.4146668109541104	0.21646238339859436	49.35628570596978
1	1.0	perception	314	diff_vonmises	0.014342575602457537	0.8217690493681209	13.944462634986786	0.5813043880899901	0.011072747503523292	2.8773473088783357	0.3948794271036648	-0.4598182990083315	0.8546977261119963	36.20399669165374
2	1.0	wm	314	diff_vonmises	0.04204650975070815	2.4090875519712402	5.766904027152103	0.43460580825799894	0.12949044927644138	3.2264386161158014	-0.17563833633111764	-0.5257802713843714	0.3501419350532538	52.63624170412737
3	2.0	ltm	314	diff_vonmises	0.06778284635034594	3.883671019258558	6.611849490407641	0.49674442667172264	0.3245612341407282	1.5536303183984024	0.16591011639474657	-0.2656242326915115	0.43153434908625804	49.23475958116023
4	2.0	perception	314	diff_vonmises	-0.005196903486586673	-0.2977606363182388	8.192196106304529	1.1787685853587733	0.29877723866843925	2.506596872007601	0.7979767934826073	-0.43179686360049807	1.2297736570831055	45.66351961851569
5	2.0	wm	314	diff_vonmises	0.048071977246866716	2.7543214090943855	2.458119719400178	0.9676978746152812	0.24666805780392914	2.3794939134656876	0.08730753428709132	-0.32614718858878666	0.413454722875878	76.45138482560952
6	3.0	ltm	314	diff_vonmises	0.050821060324930986	2.9118322669983017	2.2040828728640056	3.1631800689272227	1.5015202514865136	3.492481127500758	0.2163443266354803	-0.15967281109655407	0.3760171377320344	65.0461678196204
7	3.0	perception	314	diff_vonmises	-0.04443578416353431	-2.545982891924777	5.161740747935134	1.4395352858312618	0.24889142037531548	1.8483557053094142	0.8978734695131363	-0.28496266206350196	1.1828361315766382	57.86825886859455
8	3.0	wm	314	diff_vonmises	-0.11485671643072069	-6.580805100211193	1.569860187971745	148.00768638137583	1.552320949385566	148.5895811078296	0.19088722191601448	-0.21010182528589993	0.4009890472019144	69.10026698956452
9	4.0	ltm	314	diff_vonmises	-0.1287547988142316	-7.377106564111487	1.266678655902747	190.74241934960665	1.2507091933777807	191.9783625789358	0.07739310723195558	-0.3209112381727657	0.39830434540472126	72.91347875551924
10	4.0	perception	314	diff_vonmises	-0.07692620111017755	-4.407546657587761	4.063894800673096	1.590268726675468	5.9420308457025854e-15	3.146155953848156	0.7324497863892732	-0.5003621386522611	1.2328119250415344	67.91135650366925
11	4.0	wm	314	diff_vonmises	-0.07480627268790692	-4.286083706121827	1.0746725533235288	224.25010236555966	1.0613059738509047	225.87106012590354	-0.009392064753086515	-0.37084034427739354	0.361448279524307	76.67360910271933
12	5.0	ltm	314	diff_vonmises	-0.07239656663216372	-4.148017719260626	3.0261469550843367	0.7636359865365758	2.257415514280638e-15	1.5630667785247925	0.2538528146433816	-0.24758738095923652	0.5014401956026181	78.98445194751369
13	5.0	perception	314	diff_vonmises	-0.07267054513244793	-4.163715531004234	1.0712344915594008	10.055589552306493	0.6650589541376097	10.980199898689984	0.5197012186067917	-0.4097527039506579	0.9294539225574496	96.24979898298604
14	5.0	wm	314	diff_vonmises	-0.11972366635219107	-6.859660789812973	0.44128216719994867	139.04364185570523	0.4281670110501868	139.96425391709525	0.12209011032506822	-0.3086793733731241	0.43076948369819235	127.96936672266219
15	6.0	ltm	314	diff_vonmises	0.12088126632342593	6.925986382529195	0.7850021288931232	105.92600291809116	0.7712624681510637	106.53173561336209	0.09732742823069884	-0.17376635734393275	0.2710937855746316	96.83152291543607
16	6.0	perception	314	diff_vonmises	-0.18894581301773908	-10.825797642584458	0.770581952862891	212.78875126233757	0.7575918857591896	213.61628959702114	0.28321352231248653	-0.3041369742942308	0.5873504966067173	100.61777018510102
17	6.0	wm	314	diff_vonmises	0.2982494487407467	17.088434654948173	0.0003716743258414567	3462.528721476864	1.8328767300687013e-29	3463.2091753215295	0.09654294527410912	-0.31310006781188804	0.40964301308599715	177.14776548463254
18	7.0	ltm	314	diff_vonmises	-0.04245563391636274	-2.4325286399600596	1.1455213446811663	167.81342307660555	1.1318182093925444	168.82613534874363	0.0572819058813252	-0.25374811899041916	0.31103002487174436	76.66858471452065
19	7.0	perception	314	diff_vonmises	-0.11547634181261945	-6.616307019473173	1.771852474484547	1.880061757581198	5.250420299301479e-18	2.8048496157826874	0.4547155181799596	-0.4203557719572361	0.8750712901371958	102.62967568627671
20	7.0	wm	314	diff_vonmises	-0.2425709163593511	-13.898289740011714	0.9457370988548539	110.29631312340732	0.9310018052933982	111.16813386405875	0.022379344249337407	-0.20303356073173617	0.22541290498107358	83.60783622285649
0	1.0	ltm	315	diff_vonmises	-0.04916224096989275	-2.8167889189799977	8.65082410245803	0.30960033060772985	0.16024713932517853	1.9231269051607487	0.0007323610823563587	-0.32494162328065795	0.3256739843630143	43.96498039060029
1	1.0	perception	315	diff_vonmises	-0.017179466711688112	-0.9843109368652194	15.120094584519588	0.6425698004071495	2.1276130056472155e-16	2.290405894520208	0.6237713127274539	-0.36452941979963255	0.9883007325270865	34.83761967329272
2	1.0	wm	315	diff_vonmises	0.025128247447385853	1.4397425252955935	8.353721221633066	0.2645197488624852	1.3376933037222281e-21	2.2895119742268237	-0.06429622801434581	-0.3643871313123621	0.3000909032980163	47.019468948232316
3	2.0	ltm	315	diff_vonmises	0.1555593245763129	8.912892762128433	4.265503943016198	0.896083262233106	0.978371563841674	1.4606468086431268	0.22032212717296762	-0.219656146266769	0.4399782734397366	54.78834282130066
4	2.0	perception	315	diff_vonmises	-0.029127339510087835	-1.6688736223726839	7.855804282345944	1.1320465395657693	0.34917664820911304	1.7937477058614446	0.8514700205593102	-0.30771431507187413	1.1591843356311844	46.7243245997812
5	2.0	wm	315	diff_vonmises	0.07743589804441599	4.436750140750381	3.2546807127014645	0.5604086213547377	0.028758583793035596	1.5038897453646156	0.13805477267513616	-0.23310362008631436	0.3711583927614505	74.66892244695526
6	3.0	ltm	315	diff_vonmises	0.09991528048177027	5.724723880471287	2.4675390223226192	76.24817405197999	2.440474832555587	76.32127702999335	0.24634074639854475	-0.10917869726604224	0.355519443664587	58.35632198795446
7	3.0	perception	315	diff_vonmises	-0.0483984053933309	-2.7730243642010617	4.639373266773467	1.4462569368834024	0.36262162912756424	1.52244412408634	0.8677908658902967	-0.22468054550376163	1.0924714113940583	60.36188862492139
8	3.0	wm	315	diff_vonmises	-0.10215207295926346	-5.852882649078258	1.7654191310696514	111.0090986747097	1.7445788412975034	111.32691580022147	0.2314792267021204	-0.16017688506984662	0.391656111771967	67.06496256108449
9	4.0	ltm	315	diff_vonmises	-0.0417990240122156	-2.3949076636659385	1.6314241577427757	196.2989986794372	1.6163886802452514	196.9961318352823	0.1866549020034256	-0.2429671155286499	0.4296220175320755	67.05127542264896
10	4.0	perception	315	diff_vonmises	-0.08638228103656208	-4.949340128107973	3.4671151357040073	1.8828324788835402	2.699700277199292e-18	2.914185630969421	0.8741113379552794	-0.4625040829377309	1.3366154208930103	73.67203124039415
11	4.0	wm	315	diff_vonmises	-0.15322095863483717	-8.778914262724738	1.2682400517500731	255.8491749494459	1.2548238189426832	257.08005187019967	0.14889918043192552	-0.34063885712830455	0.48953803756023007	74.31820475810403
12	5.0	ltm	315	diff_vonmises	-0.05306026784231546	-3.040129407198399	2.98654460037843	0.6811254838848595	7.643114207574319e-13	1.0483862572854863	0.2781100645880811	-0.16572280868910177	0.44383287327718285	79.51600119036775
13	5.0	perception	315	diff_vonmises	-0.03155345288670692	-1.8078796794731906	1.5618374110671533	3.1877092116371033	0.34626647112719744	3.674022567704687	0.6125569876138296	-0.34596425671331615	0.9585212443271458	95.29655066555563
14	5.0	wm	315	diff_vonmises	0.017675797757292486	1.0127486110196653	1.0147075798378213	1.197910516679354	1.4342930127447643e-15	1.7092211150276313	0.1406383701442761	-0.21780113465390644	0.35843950479818254	127.96477610499511
15	6.0	ltm	315	diff_vonmises	0.20823671708934288	11.931085028879092	0.9069372422463522	63.26569797245734	0.8901658439063136	63.51902518427016	0.12082013920998236	-0.10225658538397031	0.22307672459395267	93.75813714955987
16	6.0	perception	315	diff_vonmises	-0.19852228027073635	-11.374488798826443	0.7423823210312441	188.54725576325663	0.7290958868416962	189.0872950071453	0.32138802736340466	-0.26447619287821844	0.5858642202416231	104.52024100949752
17	6.0	wm	315	diff_vonmises	0.08513508165712533	4.877880867454912	0.2295321295808632	39.43915411789591	0.19680278280689203	39.75411226814788	0.16429441914871656	-0.22229835161167344	0.38659277076039	155.21723746040857
18	7.0	ltm	315	diff_vonmises	-0.07218970393828385	-4.136165359962602	0.9571428414698214	85.28403882783161	0.9387258416701107	85.86292405452923	0.10723538359614082	-0.16710718144719117	0.274342565043332	87.8373883354057
19	7.0	perception	315	diff_vonmises	-0.0874179859512888	-5.008681648542772	1.50194056046883	2.6072280447707	0.2856177363437647	3.2888013837861925	0.4477370464900432	-0.3324802267515976	0.7802172732416408	97.6360997305892
20	7.0	wm	315	diff_vonmises	0.11303368135872775	6.476352884681669	0.7232726622424682	35.75751250749303	0.6919181424447991	36.37352732322943	0.03940515202286221	-0.1542513044125262	0.19365645643538842	98.80054011151813
0	1.0	ltm	316	diff_vonmises	0.013771165421392973	0.7890296576223151	2.663296059129874	0.3513547496552579	4.3766376319078274e-11	2.4168430550916264	-0.169779226724746	-0.38360806671056985	0.21382883998582386	84.27331540868832
1	1.0	perception	316	diff_vonmises	0.0052146456554493115	0.2987771877134764	12.643330830915703	0.4834504526842645	0.06961443758789072	2.655569866072513	0.2260697788916738	-0.4363194895316212	0.662389268423295	37.60235331629235
2	1.0	wm	316	diff_vonmises	-0.04853073166548587	-2.7806061011142407	3.367955193317092	0.7824766937050978	0.3114339369677441	3.0865096959782474	-0.10767384008018588	-0.47481977265278197	0.3671459325725961	62.74475113686535
3	2.0	ltm	316	diff_vonmises	0.008488736069577403	0.48636875018725595	9.887450519752457	0.37360976446740035	0.11566156240461443	1.5932072534737505	0.17858045350554314	-0.2644739672422523	0.44305442074779544	42.17028919796536
4	2.0	perception	316	diff_vonmises	0.012915810742944721	0.7400214445604607	6.430178508318978	1.220409824169959	0.3490950803746916	2.840804284346691	0.5865896093851317	-0.47895781738478654	1.0655474267699183	50.39933042125975
5	2.0	wm	316	diff_vonmises	0.05935363549290956	3.4007128125016037	1.7618538540453017	1.6897649263111403	0.4696639177867219	3.0092949057161533	0.08164436812635445	-0.31655358159902647	0.3981979497253809	80.54888370720181
6	3.0	ltm	316	diff_vonmises	-0.09822427136232402	-5.627836194808883	2.3352003102028043	1.4669036733762217	0.7912392037042522	2.156693080959725	0.17912048883560072	-0.21832501437890853	0.3974455032145092	69.88622619700118
7	3.0	perception	316	diff_vonmises	-0.04020444503308245	-2.30354501806133	4.7706449397731285	1.898708445879076	0.3303026510026162	2.8168181212133065	0.9984455856011831	-0.43094043853532454	1.4293860241365077	58.9810279733052
8	3.0	wm	316	diff_vonmises	-0.18906839826092145	-10.832821259649393	1.3289256536737224	229.20128907921278	1.316283133588227	230.1649989917017	0.13874700059338352	-0.2771043038526315	0.41585130444601504	72.9465256155772
9	4.0	ltm	316	diff_vonmises	-0.1798468531959828	-10.304465646838715	1.146936563184342	152.32282143013418	1.128543083576333	153.6790632348529	0.025851023089160208	-0.3250982324043612	0.3509492554935214	75.31799235155455
10	4.0	perception	316	diff_vonmises	-0.04214528452185843	-2.414746929480522	3.85554821967351	1.630205239520751	0.1442679700277495	3.5009426791314637	0.5879698621262945	-0.5288997790623103	1.1168696411886048	66.37677974069436
11	4.0	wm	316	diff_vonmises	0.14130022879079843	8.095906753945673	0.8770370820682406	161.57851019409682	0.861756728659643	163.40481669928843	-0.1052406792270375	-0.3739882584842604	0.2687475792572229	81.45043857416798
12	5.0	ltm	316	diff_vonmises	-0.025924456231331078	-1.4853619282268986	2.064905013317043	1.087944836508844	1.6782203949313642e-19	1.9880497323245205	0.2557283364886543	-0.3072032315159164	0.5629315680045707	95.55615054211793
13	5.0	perception	316	diff_vonmises	-0.1030157806325916	-5.902369453493025	1.7166118891015283	2.2563834219168535	0.1550403731744333	3.4058898399932462	0.43169572835357395	-0.4280210338448921	0.859716762198466	96.26587263974272
14	5.0	wm	316	diff_vonmises	-0.0708814340019004	-4.0612070141439816	0.3007639485846149	152.79788803017018	0.2888097919679839	153.91268155213592	0.094351142861818	-0.3729411164184562	0.4672922592802742	144.00861301579482
15	6.0	ltm	316	diff_vonmises	0.19470652506034283	11.15586212961584	0.4805497724027605	130.28857224421782	0.46816523554744993	131.12700629919016	0.09842326240710264	-0.2652237474519783	0.36364700985908094	123.05430455076657
16	6.0	perception	316	diff_vonmises	-0.13023088212469627	-7.461679908010812	0.9691697430053909	235.36071643014938	0.9544195045126397	236.4841316484611	0.28451301965158393	-0.3519070001569915	0.6364200198085754	88.29999123802989
17	6.0	wm	316	diff_vonmises	0.2054666308320927	11.772370777451467	0.0015208689360588852	867.7795532903029	2.1673364274388583e-24	868.7507384301624	0.055558594214573986	-0.364536701879814	0.420095296094388	178.4976651836251
18	7.0	ltm	316	diff_vonmises	-0.12176687538599366	-6.976728044112864	1.0870660996870771	198.27958335916767	1.0726428380668076	199.5541785246028	0.08369456701939271	-0.3192168924597816	0.4029114594791743	79.13486926734552
19	7.0	perception	316	diff_vonmises	-0.11002044499448674	-6.303707158335314	1.2834991035743477	3.863474023050721	0.22289540871796418	5.140378145893205	0.5141567363129145	-0.5296093114433446	1.0437660477562591	105.67974924460178
20	7.0	wm	316	diff_vonmises	-0.22993490505362094	-13.174299622313784	1.1367957321551045	168.2780760285693	1.1221030398657847	169.41631489502268	0.0461286975609525	-0.2792775701002945	0.32540626766124703	76.43625304768779
0	1.0	ltm	317	diff_vonmises	-0.032941251643046864	-1.887394691024974	1.5175204053879179	0.5587050629302925	2.3302707952198676e-29	3.44840941294869	-0.3051181133316059	-0.5371153790682486	0.2319972657366427	109.91358020119706
1	1.0	perception	317	diff_vonmises	0.10579752281460329	6.061751540215807	9.247385734842318	0.6879209779094856	0.1839981208164618	3.172648595899302	0.22082387555946115	-0.5413278711244885	0.7621517466839497	42.87168747526917
2	1.0	wm	317	diff_vonmises	0.030874974838478175	1.76900575081741	3.0976818145946963	0.9733310017566661	0.2636154968227018	3.7645592470284686	-0.1172982242804479	-0.5663114209425646	0.4490131966621167	66.22449651357707
3	2.0	ltm	317	diff_vonmises	0.09004537354179301	5.159219868623709	5.165014081380511	0.4988765919097149	0.13276050458563296	2.0418530851963417	0.07064855065602071	-0.32533337578433774	0.39598192644035846	56.82397679670666
4	2.0	perception	317	diff_vonmises	0.07074359736812	4.053309556766075	5.356135506853637	1.6895653707193965	0.4599101391977371	3.6709500307124148	0.6413069097750634	-0.6055635006151998	1.2468704103902633	53.65923465769487
5	2.0	wm	317	diff_vonmises	0.07708439045092168	4.416610239176357	1.8154819041242858	2.26599593490179	0.5970214323517591	3.650888487375451	0.13484274557032427	-0.3531921401828274	0.4880348857531517	77.51311167809001
6	3.0	ltm	317	diff_vonmises	0.07726489473114936	4.42695237261745	4.4827301200188785	0.6508706585585559	0.29117644101247664	1.7960575235623173	0.15776378620750547	-0.28260274126021206	0.44036652746771754	58.9058889747713
7	3.0	perception	317	diff_vonmises	-0.06432710346324869	-3.685671536745531	7.436779650571512	1.0199758881393197	2.387629730684522e-19	1.7473190224971737	0.8114964198345751	-0.27809408127185703	1.0895905011064322	49.87554145185845
8	3.0	wm	317	diff_vonmises	0.06712152363292034	3.8457800186539486	1.2385571035931253	147.07371305609948	1.2182434051113096	147.9331655912344	0.22074824799342707	-0.27254847141837146	0.49329671941179853	77.69538327817975
9	4.0	ltm	317	diff_vonmises	-0.45810010696413195	-26.247202723536333	0.6679030786370799	137.8533172093235	0.6504383308481877	140.27746477969308	-0.20907428525910632	-0.46052807036560495	0.25145378510649863	90.05923467745723
10	4.0	perception	317	diff_vonmises	0.11048956864074856	6.3305859633359045	3.478015964354217	1.1251370120338298	1.3848939327342279e-27	3.96604888885857	0.16964607980984459	-0.6304530790095667	0.8000991588194113	73.55635790938129
11	4.0	wm	317	diff_vonmises	0.40620258879610877	23.273693965305092	9.154675953306828	0.46485784465832725	0.19892381141878826	2.6788539156187503	0.03789824635872585	-0.46207247937571067	0.4999707257344365	42.58624869634119
12	5.0	ltm	317	diff_vonmises	-0.14476054770341798	-8.294168423408072	1.6796864641226221	1.1465083835378769	2.1451087257312252e-18	2.60894854031421	0.11672421809055677	-0.396737182215252	0.5134614003058088	105.1089228162988
13	5.0	perception	317	diff_vonmises	-0.14112935039799443	-8.086116143228026	0.7996342866472332	242.7984837736221	0.7814393788247527	244.48119527693757	0.33867613362023974	-0.5097432057277906	0.8484193393480304	96.87087378285845
14	5.0	wm	317	diff_vonmises	0.06964753425819996	3.9905097664876723	0.5756333530307859	198.9474088662294	0.5637205197844762	199.95430381287215	0.18665551270409253	-0.3354039924676542	0.5220595051717467	114.46824071611043
15	6.0	ltm	317	diff_vonmises	0.04825113019821384	2.7645861170938884	0.9165651254403909	63.28698591538466	0.8751618672164749	64.47102200351827	0.1226210142830979	-0.30730280897626017	0.4299238232593581	88.53665192298152
16	6.0	perception	317	diff_vonmises	-0.3360423930258347	-19.253810857856777	1.29480520687328	1.7394672201839134	7.322777640829358e-14	3.1337909905663457	0.19096721544195788	-0.44699361131321713	0.6379608267551751	116.7200557442713
17	6.0	wm	317	diff_vonmises	0.42509384001276074	24.35608292974063	0.4474430038381301	198.67934880330793	0.4353407647330136	199.68517127749834	0.20876713142099845	-0.3839382189517053	0.5927053503727038	127.33057941021269
18	7.0	ltm	317	diff_vonmises	-0.09565392682108916	-5.480566300701636	0.9725981311512699	169.31036112955604	0.950817690525488	171.88920694841084	-0.157485487104843	-0.5369548371123471	0.37946935000750415	77.07967200666636
19	7.0	perception	317	diff_vonmises	-0.052946688615979676	-3.033621796888997	2.723032861908497	1.9212138871641997	0.01935395496756793	3.872973137324353	0.5617876621807575	-0.5993975527550954	1.1611852149358528	82.39121406004932
20	7.0	wm	317	diff_vonmises	-0.13457530828016537	-7.710597191125437	1.0281045824980288	290.9781190193454	1.0152721731243328	292.8965151230702	0.043891985137932465	-0.45058813705519896	0.4944801221931314	79.84051114342864
0	1.0	ltm	318	diff_vonmises	-0.04596199331267956	-2.6334282348250526	6.194148872973709	0.3850960743578178	0.06692624503009326	2.885278159510395	-0.11652429355765415	-0.4631020714509297	0.34657777789327554	52.53935082445841
1	1.0	perception	318	diff_vonmises	0.007605551382125537	0.4357659950656833	14.795907643336598	0.6596973910548237	4.492421996805979e-17	3.1166273926259707	0.5070565397722184	-0.4960266553118872	1.0030831950841057	35.22770837491424
2	1.0	wm	318	diff_vonmises	0.06323316810268696	3.6229936575252224	6.858398332390646	0.36240493970743076	6.052684439711226e-18	3.2522650968806257	-0.14647183507520972	-0.5176136566437232	0.37114182156851344	51.97279146933343
3	2.0	ltm	318	diff_vonmises	0.06333616165949806	3.628894753647539	2.6150511013556814	1.461110861458428	0.6539893210333539	2.611442888133429	0.1638334340400065	-0.3177293161700949	0.4815627502101014	67.66790617347584
4	2.0	perception	318	diff_vonmises	-0.01153428312845173	-0.6608657429692357	5.812589290088862	1.2857148058822565	0.2841836668982109	2.595335684724222	0.6694669114952702	-0.42024312055262464	1.0897100320478947	53.62994747305345
5	2.0	wm	318	diff_vonmises	0.10034256799407812	5.7492056515651715	3.5779564102288135	0.6472497872087624	2.1486946684334563e-14	1.9588882872261992	0.15625823857471904	-0.3114015584200389	0.46765979699475796	72.49349940361543
6	3.0	ltm	318	diff_vonmises	0.042765123373847316	2.450261079677719	4.081592526802411	0.700484160892659	0.35068125166440306	1.3011604059297985	0.2592364931864745	-0.19480342404500195	0.45403991723147646	62.092007814575084
7	3.0	perception	318	diff_vonmises	-0.026143959552837076	-1.4979385421382954	4.370532602179445	1.7053821232438364	0.27887175493667704	2.2908108110113394	0.9029607724294392	-0.3410313850831121	1.2439921575125512	62.134574683853714
8	3.0	wm	318	diff_vonmises	-0.10448831543565737	-5.986739482894821	1.3319713995618851	153.57703675171808	1.3125607700451836	154.3142845489095	0.2450520677084711	-0.2547894951056371	0.4998415628141082	75.55630150590949
9	4.0	ltm	318	diff_vonmises	-0.07150998720862253	-4.0972204600885735	1.351595687408937	9.92957431490054	1.0077198531755194	11.193511813575276	0.19808024485110032	-0.3567645224683338	0.5548447673194341	77.91034155408252
10	4.0	perception	318	diff_vonmises	-0.05508149267218159	-3.155937059396776	3.292511329271122	1.8396313450930548	2.308785960277025e-16	3.596269629641466	0.6976132190911225	-0.5706103387953113	1.2682235578864338	75.65007807447017
11	4.0	wm	318	diff_vonmises	-0.14155797658626054	-8.110674614804454	1.075876469645944	301.17334426319803	1.0621303324089932	302.89346306276934	0.16992793642455695	-0.4479999889101123	0.6179279253346692	80.54523693678817
12	5.0	ltm	318	diff_vonmises	-0.039156978174714634	-2.2435295878970263	2.0204130985045543	1.1088666586796097	4.1175635531936847e-13	1.6926100756687188	0.306170863351454	-0.2592668872463392	0.5654377505977932	96.55099880928458
13	5.0	perception	318	diff_vonmises	-0.017225770446898422	-0.9869639454684616	1.9475826334691875	2.285636288508822	0.11303248152075468	3.1390847858437376	0.6027235416745725	-0.4212884863820533	1.0240120280566258	93.45651711047779
14	5.0	wm	318	diff_vonmises	0.047048567168419105	2.695684330888185	0.4379709405870971	150.26817441602196	0.4248339568411883	150.9953280781071	0.1952523393336989	-0.308382789336342	0.5036351286700409	130.11790118353701
15	6.0	ltm	318	diff_vonmises	0.23546208139618785	13.490983499367422	0.8380434746299252	89.82282928360452	0.8222103152228801	90.14721897984198	0.17160141073023993	-0.1414007175685139	0.31300212829875385	97.97533333411226
16	6.0	perception	318	diff_vonmises	-0.14620898198066068	-8.377157594396161	0.6171414601522984	164.73254589232587	0.6026901447453095	165.4599804569411	0.25743823741828464	-0.3007919206801404	0.558230158098425	113.00480614416843
17	6.0	wm	318	diff_vonmises	0.1433754759724796	8.214809658902423	0.4787073873592382	111.81184033324733	0.4666519196293435	112.10740049183329	0.1797208796855294	-0.1836162099736871	0.3633370896592165	127.50952217402389
18	7.0	ltm	318	diff_vonmises	-0.007563658905118874	-0.43336573293985264	0.5070857828240848	89.7336603444346	0.48763539293024477	90.64054219408277	0.10439453392844911	-0.280887476558906	0.3852820104873551	120.56322046990643
19	7.0	perception	318	diff_vonmises	-0.08324708899215942	-4.769706856000709	0.8957570400991856	238.37270561162003	0.8784726281914802	239.19975480558094	0.5216420930408248	-0.38623738078142367	0.9078794738222484	95.28520322777419
20	7.0	wm	318	diff_vonmises	0.04588135332160371	2.6288079036764334	0.9441122650256264	121.65239306448919	0.9254640855941999	122.42472094806378	0.17823464806458134	-0.2361645162597501	0.41439916432433144	89.27537748328618
0	1.0	ltm	319	diff_vonmises	-0.05459455310549394	-3.1280374773476445	11.25250460338156	0.3230277715978666	0.05696533221577341	4.235866343124834	-0.2858310370375132	-0.6924625977098476	0.4066315606723344	39.34398298943378
1	1.0	perception	319	diff_vonmises	0.06942397893365244	3.9777009899034224	12.606255741399607	0.7466669828085113	0.025805953347756386	4.578490567418023	0.2991197115075038	-0.7361585639429051	1.035278275450409	37.928984469958806
2	1.0	wm	319	diff_vonmises	0.2203382377253309	12.624451087011677	9.303270327705748	0.35882360283289433	2.082793956869375e-54	5.084956116644912	-0.3789374156798696	-0.8092958977943241	0.4303584821144545	44.52352550266485
3	2.0	ltm	319	diff_vonmises	0.10046989054003176	5.756500696085175	5.356210616661647	0.702450649286274	0.24703558505946474	2.1753054162952212	0.19524362136846068	-0.3524916464271074	0.547735267795568	54.8669511890613
4	2.0	perception	319	diff_vonmises	0.003478791794475676	0.19932008762819833	6.40117326474934	1.342492750085931	0.24129117617633208	3.2243233496035955	0.6824996349242035	-0.5296536743628497	1.2121533092870531	51.34727541912747
5	2.0	wm	319	diff_vonmises	0.10191369087585142	5.839224361787212	3.208500864489971	0.8177994596484107	2.7720736809951664e-17	2.9436991862535264	0.08790793074960224	-0.4675953281712112	0.5555032589208134	76.65690750828267
6	3.0	ltm	319	diff_vonmises	0.05303302712252348	3.03856862892342	3.872442077139966	0.7967151018859777	0.5043996080127966	1.4754776410093602	0.2365244996135898	-0.217249074930274	0.4537735745438638	61.3573588152326
7	3.0	perception	319	diff_vonmises	0.015411424992382327	0.8830096083459442	2.5262495200863366	4.20317032705924	0.8265316985107691	5.1236592710959945	0.9106831527843673	-0.4955001072570719	1.4061832600414392	70.60547527284032
8	3.0	wm	319	diff_vonmises	-0.07741458608273054	-4.43552905529266	1.0860563186063057	124.1328785245032	1.0605479867639998	125.34204894112239	0.1676276864247228	-0.33070541895023453	0.49833310537495734	81.3619586005646
9	4.0	ltm	319	diff_vonmises	-0.022012348846350338	-1.261214686065541	1.0594226898461436	196.65440104356182	1.0376404627421247	198.4715861360019	0.17272422808981958	-0.46986544957793797	0.6425896776677575	81.26742050874265
10	4.0	perception	319	diff_vonmises	-0.1067707478317432	-6.117513226214471	1.1835915788566087	318.0836858171001	1.160633138035448	319.87336989889985	0.6889307742308546	-0.6400629963232092	1.3289937705540638	81.0279415290724
11	4.0	wm	319	diff_vonmises	-0.167122239209481	-9.575398969479025	0.9452895194586451	239.92967412298722	0.9265578455060894	242.1235839256176	0.13511450368362432	-0.5371643402971742	0.6722788439807985	85.17998997031331
12	5.0	ltm	319	diff_vonmises	-0.12125912279132818	-6.947635963401715	2.20651383494875	0.9598259611035501	3.6422767593484114e-15	2.199339469424163	0.17527223629795413	-0.34366982721351486	0.518942063511469	92.51839516457711
13	5.0	perception	319	diff_vonmises	0.005817935343691617	0.33334314067352366	0.8758283513655833	244.22960566266727	0.8534858823920135	245.7269195154387	0.5707868038622337	-0.5531532073035841	1.1239400111658178	94.82979511392853
14	5.0	wm	319	diff_vonmises	0.08891072819546765	5.094209479035106	0.32842609514055987	166.4303363101092	0.3163946393696995	168.1228719821394	-5.6742101705253845e-05	-0.45227046917831615	0.4522137270766109	138.4781304491011
15	6.0	ltm	319	diff_vonmises	0.3917497380525068	22.445606615764184	0.7712272854462769	127.97393524714167	0.7571038452247958	129.0335917531318	0.03202151825051658	-0.24779869336397908	0.27982021161449566	93.38870597183478
16	6.0	perception	319	diff_vonmises	-0.05701008906756582	-3.2664374932364364	0.5574487643061977	312.81968428932083	0.5471336257168222	314.2871784674613	0.23244956558833962	-0.4728620246525459	0.7053115902408855	115.67933583360228
17	6.0	wm	319	diff_vonmises	0.09727207975671696	5.573279634519814	0.4446524319819719	107.4971570393953	0.4269255015600215	108.915734368254	0.021408226964474864	-0.36782973966013977	0.38923796662461463	124.23244051012439
18	7.0	ltm	319	diff_vonmises	0.06224482271356763	3.5663656380274693	2.2123016338673476	0.5974275267689247	5.103614830528984e-16	1.909531432074158	0.023549927402689408	-0.2999882226388597	0.3235381500415491	92.41274427257719
19	7.0	perception	319	diff_vonmises	-0.025127098558350276	-1.439676698802726	0.7459379679261194	148.10550227211152	0.7189779690023222	149.1602169863958	0.4579467072514163	-0.4387620961515033	0.8967088034029196	103.69341251760038
20	7.0	wm	319	diff_vonmises	-0.08729615694182159	-5.001701360478041	0.9004916350808788	97.70282405263707	0.8707289740785754	98.97236094083165	0.15155969872405706	-0.3370731285143176	0.48863282723837465	89.51240980225543
0	1.0	ltm	320	diff_vonmises	-0.05744624697331184	-3.291427500436948	3.1746311274597367	0.3784331678351684	1.8388219934085487e-15	1.9010743819544655	-0.04663248488023919	-0.3021179683369034	0.2554854834566642	77.07704044585287
1	1.0	perception	320	diff_vonmises	-0.015944231754926222	-0.9135371871357384	13.83331988762065	0.5760674819430512	6.272194037038677e-20	2.305498290804289	0.4798308072890204	-0.36693144927060145	0.8467622565596218	36.4332535198464
2	1.0	wm	320	diff_vonmises	-2.634104707984327e-05	-0.0015092308256304209	7.462257173949959	0.31829178305070005	1.9148942149145552e-19	2.0463869922498334	0.014966128769838827	-0.32569249291648067	0.3406586216863195	49.782802769107064
3	2.0	ltm	320	diff_vonmises	0.09867382786708412	5.65359388518429	4.303549064060145	0.6519465076928272	0.44478821357816717	1.4587615268395924	0.17659531570522397	-0.22701771548793884	0.40361303119316283	58.6212320041262
4	2.0	perception	320	diff_vonmises	-0.015562350544228106	-0.8916570054873902	6.714369529914844	1.1134335193557408	0.2670618901102494	2.0766053203311583	0.7037853898274842	-0.3421447094966206	1.0459300993241047	50.47434792938509
5	2.0	wm	320	diff_vonmises	0.12769025337246678	7.316112603198473	2.2693468147045692	0.704649255745059	1.4385420240342113e-18	1.5584318138124658	0.1441251212537952	-0.24384071178863942	0.3879658330424346	91.25290717044984
6	3.0	ltm	320	diff_vonmises	0.025762069452122574	1.4760578511295286	2.4045887101170393	1.8993730410807022	1.225020488010388	2.288665431447309	0.2157113822602711	-0.17021970766466413	0.3859310899249352	65.7076909301118
7	3.0	perception	320	diff_vonmises	-0.013892212599910947	-0.7959651500733618	3.6471161062925357	2.325395216423501	0.5763148012569239	2.777062832254147	0.9743932776423536	-0.36799290399681234	1.342386181639166	64.612751471313
8	3.0	wm	320	diff_vonmises	-0.15350838532210168	-8.795382598824421	1.3351336101873987	166.32760395947264	1.3207109814054037	166.82294281268022	0.23517094394249227	-0.19396847380001248	0.42913941774250475	76.53179046721718
9	4.0	ltm	320	diff_vonmises	-0.0027991994863472464	-0.16038231658288513	1.4976165758520628	134.37149236248018	1.4746179083909228	135.21605161815705	0.18010308088585703	-0.2704928663352284	0.4505959472210854	69.64133826079839
10	4.0	perception	320	diff_vonmises	-0.059262181276830174	-3.395472871901577	3.6921203389837824	1.7234088900811042	0.04901533573118162	3.131133327990965	0.7449070013259971	-0.48118980575319953	1.2260968070791967	70.00900729909449
11	4.0	wm	320	diff_vonmises	-0.0977174127346192	-5.598795334631604	1.1539747480553066	288.208279526134	1.1419983532930653	289.5005190997609	0.16624373537830195	-0.35278682795914307	0.519030563337445	78.30107672941702
12	5.0	ltm	320	diff_vonmises	-0.027598749156100475	-1.5812918464847996	1.646725947286726	1.0996363085432461	3.3128597002888725e-13	1.5735174057396357	0.2536411341553128	-0.23171743309726492	0.48535856725257776	106.0905803991157
13	5.0	perception	320	diff_vonmises	-0.025100980160922548	-1.438180224862472	2.0590199085797765	1.8736215468882518	0.00010307784635083378	2.548369706219523	0.5780062788415465	-0.3895318988601203	0.9675381777016668	95.68207534166103
14	5.0	wm	320	diff_vonmises	0.14705984377891854	8.425908384385247	0.41008590841975595	50.443361477237524	0.3805456680135387	51.06409143801848	0.13362837176751619	-0.24859064414727872	0.3822190159147949	133.4510173537351
15	6.0	ltm	320	diff_vonmises	0.2648951806296217	15.17737586343292	0.7386656131264286	108.93072072390129	0.7264313119420496	109.33307561976333	0.13778581097476916	-0.15032336368940769	0.28810917466417685	102.81296923600348
16	6.0	perception	320	diff_vonmises	-0.12513472621488325	-7.169691682637874	0.8254067109356088	216.40980998718882	0.812713126538416	217.16514714288874	0.29331257532116695	-0.2858618453448045	0.5791744206659715	97.56200027625634
17	6.0	wm	320	diff_vonmises	-0.09221966502678582	-5.283797594145029	0.5383945311356781	104.23613841262943	0.5232847119694581	104.76965636789906	0.16172832804898363	-0.21988015294797592	0.38160848099695954	120.08126799501899
18	7.0	ltm	320	diff_vonmises	-0.021466886123307324	-1.2299619741534629	0.6802327828249474	22.62961202259259	0.6009963957202529	23.34719672349889	0.14982205000763393	-0.23572647129383517	0.3855485213014691	108.20744695840511
19	7.0	perception	320	diff_vonmises	-0.08256926764055206	-4.730870553289754	0.890508930001598	232.9750166686639	0.8714117479666988	233.71219547572537	0.6141811784872999	-0.4058552380664793	1.0200364165537792	96.43095958410768
20	7.0	wm	320	diff_vonmises	0.03644676440994729	2.0882457775975958	1.0026026814254319	106.69256319688961	0.9837272287885818	107.35093875733838	0.15824590886111167	-0.2026755335196313	0.360921442380743	86.64111301018423
0	1.0	ltm	321	diff_vonmises	0.04897580851881974	2.8061071263692345	2.4959445123058983	0.37095507426729135	4.999245654086564e-17	1.7488887379624627	-0.059929274193882665	-0.2768605911627391	0.21693131696885642	87.06272980427875
1	1.0	perception	321	diff_vonmises	0.010912736324822429	0.6252537343514302	15.207927793031667	0.4730451555937695	0.029549763032851076	1.9604183136016378	0.4081776832123445	-0.316293465427603	0.7244711486399475	34.598314211012905
2	1.0	wm	321	diff_vonmises	0.008763763070791707	0.5021266366089749	4.306526408689484	0.5646999026374914	0.26054602535311466	2.059745480110729	0.03361909643147265	-0.3263810703095834	0.36000016674105606	59.1402578804738
3	2.0	ltm	321	diff_vonmises	0.12561565587102702	7.197246922177589	6.618171733826464	0.43539740336932864	0.4057185489226614	1.1395901738713585	0.17645253078849543	-0.19759674981617567	0.37404928060467113	48.98398714811498
4	2.0	perception	321	diff_vonmises	0.007776036060726336	0.4455340476211534	7.383483907809038	1.1491742394681719	0.4287534716944	2.0511623766972322	0.7439448709992642	-0.3572631233346849	1.101207994333949	47.45958137991721
5	2.0	wm	321	diff_vonmises	0.09317315565051572	5.338428582690049	1.0618992835459602	90.80926065873824	1.0372679489504013	91.58289671303403	0.15132025297884866	-0.22597519192877868	0.37729544490762734	83.45658290490928
6	3.0	ltm	321	diff_vonmises	0.06297109930318028	3.607978221371429	2.0296138540979234	111.52955538404477	2.0073241369333212	111.91127878110957	0.1884728474772288	-0.1753585865987386	0.3638314340759674	61.18864717518349
7	3.0	perception	321	diff_vonmises	-0.05384378415451488	-3.0850215850670804	5.846799511847474	1.2707653154546787	0.13786990558235557	1.581583400583328	0.9095844936626124	-0.24779772779685252	1.157382221459465	55.30552263651833
8	3.0	wm	321	diff_vonmises	-0.056160857592310286	-3.2177801138746256	1.4452876990837473	164.35811000303298	1.4316841643897256	164.81103978866344	0.2053163529368902	-0.17693791396474978	0.38225426690164	73.20828793945321
9	4.0	ltm	321	diff_vonmises	-0.07614475355868562	-4.362773010976442	1.511400675469135	177.98858039908254	1.496678966464052	178.96861651511918	0.03403813846321668	-0.26657332139467727	0.30061145985789395	65.6197492351344
10	4.0	perception	321	diff_vonmises	-0.017672928163661797	-1.012584195415709	4.221022120112203	1.3469278888928402	6.376483982848132e-21	2.872261306368128	0.6092134126579524	-0.4569046705486696	1.066118083206622	66.59656460575889
11	4.0	wm	321	diff_vonmises	0.16557106456706505	9.486523209180877	1.329460821631183	159.36106075317957	1.3104952408743977	160.67368453623388	0.023203405787455722	-0.33078301208326977	0.3539864178707255	69.66129304261756
12	5.0	ltm	321	diff_vonmises	-0.09246051460661392	-5.297597258566679	1.903244591712145	0.8668683995186375	2.122593982215849e-13	1.5626248376172303	0.1852634940751044	-0.23905367904026756	0.424317173115372	99.3040601027456
13	5.0	perception	321	diff_vonmises	-0.102726042628638	-5.885768688701939	1.6091878627602243	2.469978848534485	0.23154248876749323	3.370423561681901	0.4493025147908932	-0.37817933332127335	0.8274818481121666	96.34389475828266
14	5.0	wm	321	diff_vonmises	0.14181355180903557	8.125317996417579	1.1687488110404591	1.063564739705929	2.0296583958131235e-14	1.701994293565785	0.12620115537297427	-0.2325347873838173	0.35873594275679155	121.72306926821867
15	6.0	ltm	321	diff_vonmises	0.0707547560046203	4.053948899542663	0.7734361940912089	101.78020358864606	0.757968817510467	102.45148498840906	0.10215898555781422	-0.1908309121052394	0.2929898976630536	97.45021254981637
16	6.0	perception	321	diff_vonmises	-0.24511200710322928	-14.043883514995693	0.9248958577522813	131.60692859441187	0.9002715452278959	132.5339431029292	0.3176098335184463	-0.3240274923007451	0.6416373258191914	91.85080399001842
17	6.0	wm	321	diff_vonmises	0.11820933926032869	6.772896238646938	0.26765913728189805	62.08157247209654	0.24061984817009097	62.86040349421308	0.14081812753957657	-0.3256529664566008	0.46647109399617737	149.5879183379567
18	7.0	ltm	321	diff_vonmises	-0.12219134255132297	-7.001048221228115	1.0815372962387653	138.22564736181738	1.0628273364071454	139.37009947400378	0.0811234955169553	-0.2881143504947623	0.3692378460117176	79.60099144369562
19	7.0	perception	321	diff_vonmises	-0.05772509482096117	-3.3074043052335615	2.3177559073399476	1.9215508693322179	2.821034882538186e-15	3.2161274951567536	0.5710528363930395	-0.5013563727661574	1.072409209159197	90.32563088811031
20	7.0	wm	321	diff_vonmises	-0.023222190794184448	-1.330533523554322	1.0354192857970155	126.74986234000383	1.0190219558566087	127.83179812794069	0.018583937815499496	-0.25251587554779675	0.27109981336329625	79.3633377200481
0	1.0	ltm	322	diff_vonmises	-0.15700273145291438	-8.995593884277858	1.1078625779632334	0.5938526157296709	1.785654666916772e-30	2.8762254154884843	-0.24278674278717402	-0.43431681628052327	0.19153007349334925	124.06119370650495
1	1.0	perception	322	diff_vonmises	0.061149382936494426	3.5036015620904233	11.263314510897345	0.6056146838849057	0.0840060790060555	2.925457849912026	0.2956122868459776	-0.48193629858153386	0.7775485854275115	39.749158982978656
2	1.0	wm	322	diff_vonmises	0.048552429133589405	2.7818492744626933	5.398716606030334	0.45352109591304074	0.07513713643738158	2.9135106026811526	-0.08956498895233028	-0.4647051751068673	0.37514018615453704	56.01741847818647
3	2.0	ltm	322	diff_vonmises	0.0810001522656627	4.640966864739506	7.834821741389537	0.3809755914123082	0.11901235146929286	1.5761251858203342	0.136574495994628	-0.2583505812606122	0.39492507725524023	47.079626666984154
4	2.0	perception	322	diff_vonmises	0.02138658850856432	1.2253612597237213	7.8115969267245475	1.217920981448074	0.30939488963696227	2.7157211952412816	0.7596604954754043	-0.4669617704703139	1.2266222659457182	46.53647757528475
5	2.0	wm	322	diff_vonmises	0.09454787674162705	5.417194299218348	1.9660988679142748	1.3293374499821629	0.3230537266431098	2.597877693293252	0.12217944400095204	-0.31358750536343466	0.4357669493643867	82.16564395634975
6	3.0	ltm	322	diff_vonmises	0.06678193261094519	3.8263228863342373	3.104966834732348	1.0648704363188084	0.8550647243559113	1.6827483494232711	0.18255867434010353	-0.20963383903023053	0.39219251337033406	62.464188170071935
7	3.0	perception	322	diff_vonmises	-0.022474154283692992	-1.2876741885814682	5.148529044497168	1.4584770096587294	0.20887642572549558	2.002723852561382	0.895945900252908	-0.3094790503674198	1.2054249506203278	58.13371470671444
8	3.0	wm	322	diff_vonmises	-0.0408659914305338	-2.3414488345873763	1.290645043715606	169.6932893004969	1.2761413103070596	170.32427266167318	0.20057484574731177	-0.21395265629770677	0.41452750204501854	76.61638879560525
9	4.0	ltm	322	diff_vonmises	-0.07315976818080645	-4.191745946915702	1.2083132875940852	185.55087291153728	1.1919450741410311	187.06422663135257	-0.010507408484642156	-0.3583120086897438	0.3478046002051016	72.13072190991446
10	4.0	perception	322	diff_vonmises	-0.03394926149794573	-1.9451494014182733	4.468343443945232	1.2949820621491763	9.471742423273339e-15	3.173053664144031	0.552262935324266	-0.5048681692211577	1.0571311045454237	64.6796452464531
11	4.0	wm	322	diff_vonmises	0.09253056032552195	5.301610582633069	1.1078028590145825	214.93517884394925	1.0932961811588395	216.560994409237	-0.00041148338152652286	-0.37743885561542	0.3770273722338935	75.76235867374217
12	5.0	ltm	322	diff_vonmises	-0.1362398560884348	-7.805968755337027	1.9329033756635314	0.9079682550825846	8.893877200877084e-17	2.0816141249440503	0.12752761307585653	-0.32168837061682676	0.4492159836926833	98.57028254030281
13	5.0	perception	322	diff_vonmises	-0.08947779107799349	-5.12669978892236	0.824607020529888	187.37191485144203	0.8016481157819715	188.63801140822662	0.43658675285610116	-0.4570147015961634	0.8936014544522646	97.49098378519754
14	5.0	wm	322	diff_vonmises	0.07670705279718373	4.394990384165804	0.49085369935646705	121.74746958290551	0.4760048260963025	122.76838374980288	0.08964973094531814	-0.3023062037652551	0.3919559347105732	121.34827310748011
15	6.0	ltm	322	diff_vonmises	0.11246413006108412	6.443719999110489	0.7702425126625724	140.52661899062466	0.7568467540831714	141.58658615329847	0.046304501434306644	-0.2535817798229658	0.29988628125727246	94.0604349455594
16	6.0	perception	322	diff_vonmises	-0.21699044479908183	-12.432636681653854	0.754378469559874	214.72026995312393	0.7395799674815959	215.92141018330258	0.2556653092007437	-0.37553172754416764	0.6311970367449113	99.97923544695232
17	6.0	wm	322	diff_vonmises	0.1663395225159564	9.530552606385632	0.34224865257983617	115.9385788524066	0.32617789083262255	117.10087553881519	0.08682869116755043	-0.3705349184701614	0.45736360963771183	138.68958278491436
18	7.0	ltm	322	diff_vonmises	-0.034944619904802	-2.002179237234003	1.0497237661011831	187.67399404054694	1.0343985296299485	189.21256300532778	0.006206569585430088	-0.3542014779830964	0.3604080475685265	78.15414634983136
19	7.0	perception	322	diff_vonmises	-0.06341992347897868	-3.633693952388115	2.1274267627925187	2.068367434650485	3.416895344615383e-14	3.3642235350904	0.5720279619894398	-0.5197108445642655	1.0917388065537055	94.18712595285356
20	7.0	wm	322	diff_vonmises	-0.17003087461722285	-9.742051502484946	0.9938381830521975	169.89768219773165	0.9790969645937107	171.13440153335134	0.05660985623003967	-0.2977510221551931	0.3543608783852328	82.27211689583908
0	1.0	ltm	323	diff_vonmises	-0.01072994505918816	-0.6147805662987319	7.63409694978931	0.32467813496003683	0.0870938908758785	3.8436544296189226	-0.31457209752246185	-0.6300348568187866	0.3154627592963247	46.506972193802625
1	1.0	perception	323	diff_vonmises	0.04211057220697615	2.412758060340638	12.737890843629751	0.6241975431370005	0.050864635018669876	3.966255183135142	0.215654525757781	-0.6458969099988902	0.8615514357566711	37.542386725000114
2	1.0	wm	323	diff_vonmises	0.046170192484722164	2.6453571686812114	4.597533130787431	0.45982575804558556	0.06749981172741648	4.786298586485531	-0.43284067784091157	-0.7617455238675556	0.328904846026644	59.10425739667261
3	2.0	ltm	323	diff_vonmises	0.059002795164307974	3.3806111423897494	8.444574017207747	0.5156624944717144	0.20685280093037484	1.9313243029232174	0.21431953789297226	-0.328634608840106	0.5429541467330783	44.81270678872684
4	2.0	perception	323	diff_vonmises	0.0046481961584464064	0.2663220222279016	7.074408856563136	1.2679829673863745	0.2781520587660576	3.187953945497416	0.6625038141163129	-0.5375726086679757	1.2000764227842886	48.68710549865594
5	2.0	wm	323	diff_vonmises	0.06283505092190905	3.600183223315001	2.712071985521583	0.9852150456117255	0.16706889801254246	3.1445308458845793	0.021506021473670534	-0.45794085671693324	0.4794468781906038	74.6561238621191
6	3.0	ltm	323	diff_vonmises	-0.0022543813802890504	-0.12916653850343962	2.5370026415979803	1.4615015164036742	0.8799724356051873	2.0661964559440014	0.2098833054348357	-0.21176958530464976	0.4216528907394854	67.36585766607178
7	3.0	perception	323	diff_vonmises	-0.022251201645462862	-1.2748999433795747	3.532225442735634	2.542868284317102	0.5332475814445269	3.5170981347577883	0.9359468493658809	-0.4749605750995066	1.4109074244653876	65.07254079777735
8	3.0	wm	323	diff_vonmises	-0.15042873493398257	-8.618931629209369	1.26772659031593	247.62512269719082	1.2543850102574636	248.92313515976343	0.09933164630680835	-0.34236441388818406	0.4416960601949924	73.23973805701141
9	4.0	ltm	323	diff_vonmises	-0.1243790238336984	-7.126393125627994	1.0565843232275187	197.45107538571267	1.038513981616383	199.14601512133228	0.08042760708870844	-0.4126773870277951	0.49310499411650355	79.77691530459452
10	4.0	perception	323	diff_vonmises	-0.0957364962309311	-5.485297179402465	1.9807141615875898	5.046338292703754	0.6738027129262644	6.818947167384506	0.6816257302465778	-0.616219923053972	1.2978456533005498	77.27365826843672
11	4.0	wm	323	diff_vonmises	-0.14578617183946466	-8.352932357770298	0.7926504907504289	204.82466768318812	0.7774132133199128	207.1323044148079	-0.09474579287297047	-0.47863831887839225	0.3838925260054218	87.42322836095066
12	5.0	ltm	323	diff_vonmises	-0.08675312326091254	-4.970587822428499	2.8343439060343414	0.8736374565378189	7.772622742887022e-16	2.027980124444235	0.23111582702849082	-0.32085085255313844	0.5519666795816293	81.65763333620555
13	5.0	perception	323	diff_vonmises	-0.05001255541989653	-2.8655083482242016	1.111661152305411	9.290923452906902	0.6147582225294437	10.698850648772773	0.4989225854527888	-0.5057803158130273	1.0047029012658162	95.15394229788981
14	5.0	wm	323	diff_vonmises	-0.14106675555845896	-8.082529723103345	0.33909793216032347	166.44143336404665	0.32627853821494246	168.20601606253143	0.006139555527070684	-0.47311742576873783	0.4792569812958085	137.15607389709908
15	6.0	ltm	323	diff_vonmises	0.32837114575799675	18.814280765808398	0.5201823815768254	147.97803814526455	0.5098528372572361	149.0330686548088	0.024075794667581363	-0.2647245312725328	0.2888003259401142	114.8070341822278
16	6.0	perception	323	diff_vonmises	-0.06707095681745551	-3.8428827535443966	0.7302359226394541	332.2742240315506	0.7198259092644256	333.6436508216803	0.2650483438643789	-0.4201116345303184	0.6851599783946973	101.16672481118525
17	6.0	wm	323	diff_vonmises	0.3553843082661062	20.362020968824098	0.00018763141858433148	7079.9943659941155	2.7865164813483595e-29	7081.439651634756	-0.018592554709584874	-0.4414363195594433	0.4228437648498584	176.05383593862342
18	7.0	ltm	323	diff_vonmises	0.026009409799772346	1.490229409153159	1.0329403577562764	166.30526314399881	1.0179781626161502	167.6458688094611	0.0069438470627432025	-0.3080056678306242	0.3149495148933674	78.87200724564556
19	7.0	perception	323	diff_vonmises	-0.08081000599532003	-4.6300722859587164	0.9129081907694279	5.576714887590351	0.3170574174338285	6.7085272978904165	0.3835424067464013	-0.4662903599746993	0.8498327667211005	114.0666629988919
20	7.0	wm	323	diff_vonmises	-0.29228216386795264	-16.74653441658481	0.9576670910376017	171.77324591095285	0.9434729108643075	173.10169567329294	0.023291702099214717	-0.3063502077166298	0.3296419098158445	82.66765372319126
0	1.0	ltm	324	diff_vonmises	-0.041950180536510985	-2.403568294553931	7.279441224893668	0.5038815688743573	0.22126583283430612	3.041837971047342	-0.06440694025282745	-0.520398956455596	0.4559920162027685	46.66091592741088
1	1.0	perception	324	diff_vonmises	0.0006591767609627839	0.037768046356271436	16.076727673073936	0.740675332995135	5.406425332607301e-22	3.1051486023479757	0.6810926830162308	-0.4941997490985577	1.1752924321147886	33.77407599094249
2	1.0	wm	324	diff_vonmises	0.09456160275817914	5.417980742036309	7.347385019909652	0.3525633613323656	1.1904310212689951e-11	3.36661929243958	-0.16157962064539722	-0.5358139464921087	0.37423432584671146	50.18631038615891
3	2.0	ltm	324	diff_vonmises	0.06277332972265953	3.5966468590915177	1.4342497137710086	119.8864875948279	1.4060707171063196	120.885430496476	0.18443615831071725	-0.30627566113829197	0.4907118194490092	70.93244932341366
4	2.0	perception	324	diff_vonmises	-0.028427993062999767	-1.6288040225370684	5.964157101730889	1.2982124984477315	0.31388983143690563	2.376107021474008	0.7306215284809081	-0.38660403318393693	1.117225561664845	52.981995784962635
5	2.0	wm	324	diff_vonmises	0.1048272914644117	6.0061613786985495	4.524532141225534	0.5971164456801346	8.678555832923755e-16	1.8009079043033174	0.20417702468375687	-0.28656572551280046	0.49074275019655733	64.26475812260185
6	3.0	ltm	324	diff_vonmises	0.0831999520766357	4.767006109681935	5.0717861607574095	0.6239908821404562	0.3093677911406535	1.0498410652573993	0.3228720136646682	-0.16421731444296742	0.4870893281076356	57.23984348237059
7	3.0	perception	324	diff_vonmises	-0.04725044338652043	-2.7072509861694534	5.575644573482321	1.1605744214347036	0.035953776989786586	1.459734797785049	0.8254631703164148	-0.22926982412283306	1.0547329944392478	57.38004423718601
8	3.0	wm	324	diff_vonmises	-0.08280684853121172	-4.744482935617511	1.5570832217132689	127.0380131029797	1.534681551387984	127.52212233331242	0.2804032640355132	-0.21205945889602695	0.49246272293154014	71.15931570336946
9	4.0	ltm	324	diff_vonmises	-0.11667533587274452	-6.685004318779595	1.2413579295561428	157.03572529671445	1.2176253860534023	158.10702057649718	0.2756663218503377	-0.33994675231707205	0.6156130741674097	77.66821617744236
10	4.0	perception	324	diff_vonmises	-0.05492161448879713	-3.1467767142526277	2.673231174828604	2.154816833834681	7.525837872418774e-17	3.770963196649362	0.7204927496325572	-0.5938744057927552	1.3143671554253125	84.11349848162675
11	4.0	wm	324	diff_vonmises	-0.16464186755300905	-9.433284141939309	1.1649750573385678	277.04131405664776	1.1494220314916843	278.5782340136873	0.23246709876809746	-0.4311354016188709	0.6636025003869683	78.4562994409884
12	5.0	ltm	324	diff_vonmises	-0.044685738713283615	-2.560304232695505	2.4998264271286965	0.9876348980813681	2.663517687496692e-13	1.3812066172756379	0.36218141790643865	-0.21590238722339739	0.578083805129836	86.99862753548132
13	5.0	perception	324	diff_vonmises	-0.02136363960682966	-1.2240463845098648	1.7293676340728243	2.900689211656053	0.2636992681366893	3.570563238150716	0.642913111002685	-0.3919709105574805	1.0348840215601656	93.52990857245285
14	5.0	wm	324	diff_vonmises	-0.002164633605048285	-0.12402436976145506	0.5019493101161169	150.14663779368954	0.48864892308883145	150.57270318077963	0.2687482311231193	-0.26537482285055347	0.5341230539736728	125.49814706499976
15	6.0	ltm	324	diff_vonmises	0.11638591083531061	6.668421485649215	2.4494481263480536	0.5166021590868398	8.644875446689924e-12	0.604461699413341	0.20461195984085753	-0.09396036550327086	0.29857232534412836	87.87680056150583
16	6.0	perception	324	diff_vonmises	-0.2154885849996315	-12.346586453724985	0.9880339712552307	1.87257984271529	0.047358068000316236	2.3514847729372303	0.2434473076244114	-0.26863047414614183	0.5120777817705533	126.07979328630302
17	6.0	wm	324	diff_vonmises	0.3173863806923588	18.1849000886046	0.4002174013811514	78.44309115654286	0.3869234470403251	78.29495028643842	0.22449343902773577	-0.11313191627541919	0.33762535530315496	137.41329367129939
18	7.0	ltm	324	diff_vonmises	-0.07463505204157833	-4.276273485721696	0.5509368565310809	101.66439860192413	0.5351871931001144	102.4021153607723	0.11421396136804418	-0.23786759365479782	0.352081555022842	116.56302844005172
19	7.0	perception	324	diff_vonmises	-0.1008931133737984	-5.7807495782535705	0.9350077884546464	98.87808550602004	0.8979301876745	99.66947920918506	0.4425461746108894	-0.34331440362217513	0.7858605782330645	93.34718795153158
20	7.0	wm	324	diff_vonmises	0.17907328299231348	10.260143339011387	0.815846006302413	73.20572175163105	0.792154864370963	73.74761874087967	0.16745375008256502	-0.1880572329246899	0.3555109830072549	97.64820462190946
0	1.0	ltm	325	diff_vonmises	0.054848261468810486	3.142573895792854	6.103807836767612	0.41014584047983826	0.1475977017793491	3.714056240020697	-0.28618628962113113	-0.6145826861051213	0.3283963964839902	50.30725686907749
1	1.0	perception	325	diff_vonmises	0.02885952603354787	1.6535290404702179	15.226020299157854	0.5552652466815255	0.030095484873558037	3.228606747993565	0.32739546076456005	-0.5214063844184773	0.8488018451830374	34.526211958074356
2	1.0	wm	325	diff_vonmises	0.06367856371602484	3.6485129463831236	1.4910023853891883	3.2437810370681346	0.5103434211684136	7.210628068595129	-0.3931687030242259	-0.7678366144531309	0.374667911428905	73.83674326077877
3	2.0	ltm	325	diff_vonmises	0.06562126872685259	3.7598217443424704	8.888254257369132	0.5068787820150441	0.31194838975441647	1.8131912452340013	0.2090619522930423	-0.32355502454630886	0.5326169768393512	43.08152347999933
4	2.0	perception	325	diff_vonmises	0.01046678184461373	0.5997024247805213	7.30551447717785	1.2823056485713784	0.32060921157926175	2.994428624186353	0.7169613738518421	-0.512263313245938	1.22922468709778	47.823429810335995
5	2.0	wm	325	diff_vonmises	-0.004775163403504893	-0.2735967095061561	1.0721065579388664	106.95981751004008	1.0365628148203208	108.98665004397957	0.008840581484975019	-0.4680341531369727	0.47687473462194774	77.69857049997162
6	3.0	ltm	325	diff_vonmises	0.034318667634838464	1.966314813988459	1.973516332488095	2.575846362571832	1.131940426553423	3.1065395487575533	0.17961253570698532	-0.18875634387155232	0.36836887957853764	69.81473547568157
7	3.0	perception	325	diff_vonmises	-0.08048594821281314	-4.611505142702704	6.154943412030317	1.1919714461566835	6.272112823559835e-16	1.8677731175955283	0.8562350692003102	-0.2972601239835233	1.1534951931838335	54.91446059800728
8	3.0	wm	325	diff_vonmises	-0.05275171496448728	-3.0224506295422287	1.5586239551353396	201.3739385593056	1.540562055778927	202.51186929953616	0.12869714017574552	-0.3380150472309502	0.46671218740669573	66.46742083309178
9	4.0	ltm	325	diff_vonmises	-0.31404213564104183	-17.993288961506625	0.9116732773106657	90.32060532607197	0.8789337735159245	92.11885581381686	-0.009806564201106482	-0.39853652211935753	0.38872995791825105	84.0716227654594
10	4.0	perception	325	diff_vonmises	-0.062206997179188504	-3.5641983945497184	2.879739403480649	2.095442577881774	0.11497175652597551	4.099714487520868	0.610994777583052	-0.5973389173314135	1.2083336949144656	76.85937620228916
11	4.0	wm	325	diff_vonmises	-0.012703621991532046	-0.7278639246443639	0.9136796644032168	125.08614844520304	0.8896672754626043	127.57530311475453	-0.22640200028332913	-0.49239053146497014	0.265988531181641	76.31070290045488
12	5.0	ltm	325	diff_vonmises	-0.060124550606142586	-3.4448829948527058	3.181877059485772	0.8030241261254311	2.291475311392128e-17	1.636768239438231	0.28325209856410916	-0.25956275346713176	0.5428148520312409	76.98893825529422
13	5.0	perception	325	diff_vonmises	-0.08174971874500304	-4.683913860470187	1.3859908229138684	4.18017146024564	0.43234308428179946	5.310192563980273	0.48282354129598604	-0.4348044232261474	0.9176279645221335	94.47437451486701
14	5.0	wm	325	diff_vonmises	-0.18927817559622706	-10.844840615599905	0.4660757367099892	169.58250823710597	0.45138217989815704	170.85197554582848	0.16076635351975455	-0.4135222001604646	0.5742885536802191	125.04002098205015
15	6.0	ltm	325	diff_vonmises	0.24846020610535355	14.235721186787327	0.6842015362976727	94.84829875421596	0.6688989459266741	95.45514250364948	0.10723021768808394	-0.18562211344624657	0.2928523311343305	104.51656349716274
16	6.0	perception	325	diff_vonmises	-0.16491545470084001	-9.448959530839046	0.6966963925221068	148.74629513505351	0.6778594667298278	149.6357878337312	0.2843414540170528	-0.3316885554959814	0.6160300095130342	105.96256859668114
17	6.0	wm	325	diff_vonmises	0.4414351600447205	25.292371599244515	0.00019055117686894574	8319.927477141531	1.2782081549601527e-31	8320.694037727148	0.13032661313263816	-0.3743063872284438	0.5046330003610819	174.0605721085054
18	7.0	ltm	325	diff_vonmises	0.025168394196083	1.4420427645571123	1.1637563978460381	194.86032445629053	1.1501627119770927	196.24982001674445	-0.021681274285285212	-0.32178668440354485	0.30010541011825964	73.07865115326615
19	7.0	perception	325	diff_vonmises	-0.10624129981673992	-6.087178089483204	0.6876427800444254	59.94729152110105	0.6340999280483411	60.97494414565487	0.33091803740753534	-0.3913423232515312	0.7222603606590665	108.14220097483711
20	7.0	wm	325	diff_vonmises	-0.375061394522154	-21.489434964410517	0.8250977057465845	139.24779478676714	0.8117941849282636	140.62388364030124	-0.06725042587915908	-0.28298447422577055	0.21573404834661147	84.85557845473801
0	1.0	ltm	326	diff_vonmises	-0.20545325879002138	-11.771604615877308	10.9201220167468	0.16534368509114286	0.04121269179263892	2.66160334516634	-0.22589036519829328	-0.43155364605167845	0.20566328085338517	40.016763755558344
1	1.0	perception	326	diff_vonmises	0.014245268722372063	0.8161937758216377	12.72137378571482	0.6658402885713554	2.874634212666932e-16	3.08942893309197	0.4460106164078663	-0.49169788602434206	0.9377085024322084	38.00695001854285
2	1.0	wm	326	diff_vonmises	0.07160925571206399	4.102908126374349	11.200877001315755	0.24693590639119165	0.010294769157556984	3.239532232144045	-0.19505292214993702	-0.5173161423442266	0.3222632201942896	40.26129794775275
3	2.0	ltm	326	diff_vonmises	0.06059458911695155	3.4718142177306737	7.127523659033532	0.4643268879624488	0.2907806471186332	1.5889115047418612	0.15393117703985604	-0.2727938510012125	0.42672502804106854	47.7630261791856
4	2.0	perception	326	diff_vonmises	-0.010688603319057919	-0.6124118590715424	9.295667859088956	1.1585971946959928	0.2191003451093981	2.4620716625366685	0.9069391588136302	-0.41910389340696397	1.3260430522205942	43.42181616712236
5	2.0	wm	326	diff_vonmises	0.054145413841245715	3.1023036930926104	3.2441720821569118	0.5911391712829293	4.163982244071065e-13	2.1069899374448573	0.06937538307979069	-0.33472226184140663	0.4040976449211973	76.22406594985287
6	3.0	ltm	326	diff_vonmises	0.08240824237883304	4.721644485398264	3.472017678972536	0.8012814070313721	0.9620421605915231	1.032025466764251	0.2245788048453891	-0.12593335240981568	0.3505121572552048	61.223895196612034
7	3.0	perception	326	diff_vonmises	-0.0263446220330807	-1.5094356553628823	4.606538067957892	1.5760038456379244	0.3668108287280565	1.8645626372832123	0.8935515958891349	-0.2772641190649623	1.1708157149540972	60.23414757101091
8	3.0	wm	326	diff_vonmises	-0.13501372447838175	-7.735716588953407	1.6736267644836325	118.56899786238577	1.6532648559442131	118.99319464225213	0.2126071717586413	-0.17967721292394678	0.3922843846825881	68.00486233087545
9	4.0	ltm	326	diff_vonmises	-0.06373554941372724	-3.651777986354079	1.3097114738042106	164.55371490127177	1.2902741039706227	165.76106977783041	0.10362944529440199	-0.3248825430991822	0.4285119883935842	72.31756818570994
10	4.0	perception	326	diff_vonmises	-0.10336064182831431	-5.922128544525771	3.7776240666541208	1.813658650533894	0.038520942796447834	3.247015719248664	0.8145381321793953	-0.5020812465422189	1.3166193787216143	69.46463569080564
11	4.0	wm	326	diff_vonmises	-0.18109595807378626	-10.376034084506058	1.1520498843266012	246.25276982869164	1.1382424922797814	247.77158745595878	0.07448744198229917	-0.3777467881873271	0.4522342301696263	76.18722022633222
12	5.0	ltm	326	diff_vonmises	-0.07096560886083546	-4.06602987830207	3.2893506619499253	0.6973602493819518	3.3804724564719244e-15	1.461212489310937	0.24860411977948343	-0.23189053770326454	0.480494657482748	75.68654686492951
13	5.0	perception	326	diff_vonmises	-0.04363750297401447	-2.500244748900607	0.9330306949530796	46.13576863109079	0.8392866063646133	46.88671905506467	0.5903896209843715	-0.3981826859071824	0.988572306891554	96.00318704293866
14	5.0	wm	326	diff_vonmises	-0.1596268820829103	-9.145946640183219	0.5161902862515896	139.01508222290556	0.5029881472049138	139.87326151490365	0.13129828826473755	-0.28285889161820776	0.4141571798829453	120.04257500182669
15	6.0	ltm	326	diff_vonmises	0.19490938161674845	11.16748495414444	0.8535590947035214	95.00206850342754	0.8397821850235491	95.52373979801838	0.08740272914813829	-0.14881339042142017	0.23621611956955846	92.80930585589073
16	6.0	perception	326	diff_vonmises	-0.17945014094554818	-10.281735709207675	0.7046618212361165	222.50351457650078	0.6938651054749855	223.15152883814548	0.2742215172934195	-0.272002087423985	0.5462236047174045	106.06562008354032
17	6.0	wm	326	diff_vonmises	0.23614901384858114	13.530341829700129	0.0005376789593713037	2170.1834922141356	4.8602511010611106e-23	2170.77207468839	0.09205476164311222	-0.2793564620655502	0.3714112237086624	178.1393340178977
18	7.0	ltm	326	diff_vonmises	0.03212282746826756	1.8405024399586427	1.1885478916549486	123.06831283917691	1.1723892402062666	123.87319960230191	0.06733717907854242	-0.2099759748352401	0.27731315391378253	76.03303110652757
19	7.0	perception	326	diff_vonmises	-0.1373331894396255	-7.868612141961148	1.7446057823948544	1.762407600621872	7.956405913408217e-16	2.346573547404819	0.4633588744659464	-0.3479244398191063	0.8112833142850527	103.33985646495613
20	7.0	wm	326	diff_vonmises	-0.2713021506320364	-15.544468204038205	0.8866607512036988	65.58773931884691	0.8668820753648164	66.23378648672372	0.04288702054666871	-0.15901009111011444	0.20189711165678315	88.3342795037191
0	1.0	ltm	327	diff_vonmises	-0.06569394530387443	-3.7639858054752793	0.20080752708817848	37.565887156985866	0.16810535826939396	41.09529553263247	-0.44816237865188135	-0.6474812847794311	0.19931890612754977	149.091170205941
1	1.0	perception	327	diff_vonmises	0.055546425675804166	3.18257575826069	10.428297892614955	0.6413581337238509	1.659991083805854e-16	3.7071862807198177	0.22583127491552457	-0.590017020824931	0.8158482957404556	42.02003109895483
2	1.0	wm	327	diff_vonmises	-0.5280786488558756	-30.256677830412674	0.0004947842967519337	1920.8255954581075	6.742854452892964e-28	1924.753581324881	-0.4738812211768959	-0.7763980939848807	0.3025168728079848	172.1646180649928
3	2.0	ltm	327	diff_vonmises	0.04016465687935393	2.301265324778068	15.8750404333169	0.35819737175425487	0.07874861175188697	2.338845723218667	0.16251088792848623	-0.3890105792757297	0.5515214672042159	33.54198042984669
4	2.0	perception	327	diff_vonmises	0.023272343666584087	1.3334070714732797	8.717262687766084	1.1816505711709144	0.1128079103704953	3.3530659311727167	0.7750388313576788	-0.5491817379317302	1.324220569289409	45.1311039822194
5	2.0	wm	327	diff_vonmises	0.04578297797670797	2.6231714116057634	2.487482313152515	0.7172892311012838	5.270972984411508e-13	3.0165645890611086	-0.05862662845600608	-0.47718898435578894	0.41856235589978286	87.21208254502733
6	3.0	ltm	327	diff_vonmises	0.05281689911182576	3.026185406075882	3.5976737998609387	0.419534705328048	4.167069750562491e-16	1.257760976315307	0.10412131359196952	-0.199950630809989	0.3040719444019585	72.28817789909778
7	3.0	perception	327	diff_vonmises	0.00010259872798029347	0.005878474096681605	3.7151989858839696	2.2502672550191116	0.3623319456953503	3.29367634557492	0.9324441690736979	-0.467988116314177	1.400432285387875	65.5042091737684
8	3.0	wm	327	diff_vonmises	-0.16005064098717947	-9.170226236928931	1.2835236550221405	174.68583333238436	1.2646021925676965	175.88866563058517	0.13313948739174464	-0.33018047467746925	0.4633199620692139	73.69739240179922
9	4.0	ltm	327	diff_vonmises	-0.1161461595358474	-6.654684748057197	2.756985316560693	0.6574641260784642	0.055259525184792456	2.8971867655148906	-0.07672130612236083	-0.44204136182558385	0.365320055703223	78.10509841356657
10	4.0	perception	327	diff_vonmises	-0.08595482325139538	-4.924848601097911	1.122171129205929	387.47916633976234	1.1027664666422572	389.79801461252714	0.5683537144914794	-0.7182394417045401	1.2865931561960195	81.70608044065582
11	4.0	wm	327	diff_vonmises	-0.21810679171174846	-12.496598648222111	0.9676688328563412	88.8202269819107	0.921265827661505	91.4185310989588	-0.06613198006546028	-0.5642601957430724	0.4981282156776121	80.54543097063117
12	5.0	ltm	327	diff_vonmises	-0.030412275500578397	-1.7424950315722552	2.2150140441236905	0.9529670444375181	8.37914425818871e-16	1.9570057093434996	0.21127629404035964	-0.3052388074310741	0.5165151014714338	92.35920553111063
13	5.0	perception	327	diff_vonmises	0.004943116037136219	0.28321968657133806	2.3054669668398233	1.8797657613723049	1.1870367800579097e-13	2.907474957700743	0.5932909789425533	-0.4522388118734719	1.0455297908160253	90.563784360661
14	5.0	wm	327	diff_vonmises	-0.1079472543052521	-6.18492208171635	0.5318242334169275	218.474529645051	0.5203847531148658	219.82638643441584	0.13020087345535813	-0.3950602842080393	0.5252611576633974	116.80068443428145
15	6.0	ltm	327	diff_vonmises	0.5977817370892323	34.250370605212	0.5756134975271423	139.7067370958386	0.5643527525066795	140.4928649984456	0.09334764610452595	-0.23241617983573803	0.325763825940264	112.50408428130973
16	6.0	perception	327	diff_vonmises	-0.07064403114264861	-4.047604832264516	0.7338114508160721	209.4425007948137	0.7215774494647651	210.1880014472375	0.2736782235157662	-0.28778301250202887	0.5614612360177951	103.42164597481268
17	6.0	wm	327	diff_vonmises	0.024685495081905155	1.4143746833841158	0.21597615477163895	124.74141336744549	0.20353503048387894	125.77541561435106	0.07023697628692815	-0.3516126072315622	0.42184958351849033	154.53024553394556
18	7.0	ltm	327	diff_vonmises	0.21655307177224573	12.407577053143282	1.517783837599229	3.2073164773496394	0.81480222099179	4.465429897240473	0.030667207438206168	-0.3003918658465085	0.3310590732847147	75.28620792809102
19	7.0	perception	327	diff_vonmises	-0.14012423172760508	-8.028527085504916	0.8169981752615885	150.3510956793871	0.7938838173387726	150.6576728492705	0.5709099949982814	-0.3137177637739672	0.8846277587722486	102.5757860934069
20	7.0	wm	327	diff_vonmises	-0.3714047110048097	-21.279922431851638	0.8501100694737067	114.00455161258718	0.8302315961311454	115.20619391968782	0.060722791424083766	-0.28898257878028133	0.3497053702043651	89.71942441083667
0	1.0	ltm	328	diff_vonmises	-0.15879990748577502	-9.098564486002836	1.526416746520918	0.42747408177009283	1.3376450748855836e-21	2.952792546011421	-0.2828202962790282	-0.46111423159045956	0.17829393531143134	109.56389627766107
1	1.0	perception	328	diff_vonmises	0.04443211629727182	2.5457727386681177	11.570734050743889	0.6486527872106811	2.1791260842019832e-14	3.1013878870216605	0.3764185860000587	-0.49360121258725603	0.8700197985873147	39.88071938975031
2	1.0	wm	328	diff_vonmises	0.09137097646158693	5.23517132123812	9.877492705449523	0.30138213014893206	1.5652708460079089e-32	3.121706238996523	-0.12400978974593213	-0.49683497783514047	0.37282518808920834	43.19090490275133
3	2.0	ltm	328	diff_vonmises	0.08809591113108094	5.047523900170508	9.983659399289527	0.368003172912995	0.13390455750085398	1.6739149113584688	0.15456087812106978	-0.28054606787718506	0.43510694599825483	41.770451270105525
4	2.0	perception	328	diff_vonmises	0.008332566159929557	0.47742087347749496	8.842031666683612	1.1554200355784	0.17559578882533017	2.6081537490681845	0.8587694069933985	-0.4354852889875539	1.2942546959809524	44.63746086112582
5	2.0	wm	328	diff_vonmises	0.07322031215398898	4.195214861054015	2.5184847983967327	0.7163663780417617	5.578525711915518e-14	2.2217643883156617	0.07041786643473985	-0.3508513572403872	0.42126922367512704	86.66995002649256
6	3.0	ltm	328	diff_vonmises	0.10955885897982662	6.277260227813025	4.4080977694281565	0.5217998108194727	0.4436191457599622	1.0098238248595781	0.1843183342615272	-0.15564476063308183	0.339963094894609	58.815314531043356
7	3.0	perception	328	diff_vonmises	-0.001250674359208188	-0.07165836232785786	4.144484302276352	1.7994341281338797	0.3606203256375247	2.272350283790954	0.9082727212145235	-0.329275312511366	1.2375480337258895	63.01007331287673
8	3.0	wm	328	diff_vonmises	-0.09711312259595449	-5.564172060084741	1.3821738072721235	184.92900585814198	1.368484550156708	185.5111627573473	0.2153264564445294	-0.20982132652644836	0.4251477829709778	74.33815347542517
9	4.0	ltm	328	diff_vonmises	0.024889658083145024	1.4260723616878845	1.2297688831156424	82.09448623456991	1.190263474649781	83.59145918928873	0.03328015310082577	-0.36700193044737794	0.4002820835482037	73.06479912374158
10	4.0	perception	328	diff_vonmises	-0.08127079199218346	-4.6564733788377195	2.7927041368103014	2.311716310780326	0.23509661312193234	4.0683917106017224	0.6451826115650089	-0.558397265152682	1.2035798767176908	75.26954137445733
11	4.0	wm	328	diff_vonmises	-0.12015420981503461	-6.884329113130855	1.14468152203245	321.5664355183269	1.1328322073805435	323.2762404548259	0.08298427450266388	-0.42437907406453945	0.5073633485672033	76.39004015082307
12	5.0	ltm	328	diff_vonmises	-0.09098342970729724	-5.212966527853327	2.20165019319081	0.8182616092392	1.826421111378764e-17	1.7462366584650493	0.16931118083918656	-0.2724492853583354	0.44176046619752196	92.6249401398685
13	5.0	perception	328	diff_vonmises	-0.025672063807049166	-1.4709009075344697	1.5008237935240785	3.5450319736421743	0.3436328725827968	4.458304307360522	0.5643565172187136	-0.4220713378557583	0.9864278550744718	95.5147472525075
14	5.0	wm	328	diff_vonmises	0.023564797852460385	1.350163462024926	0.5509492460646256	144.81603983669632	0.5379878833646049	145.76749628867705	0.11149765148218194	-0.2858210890895698	0.39731874057175176	115.4478591043657
15	6.0	ltm	328	diff_vonmises	0.3575731790531811	20.48743402682297	0.8060275825899132	137.69774839500064	0.7945831683356366	138.44844641875144	0.07375374355320474	-0.1950594872316902	0.26881323078489494	93.77449404914267
16	6.0	perception	328	diff_vonmises	-0.16605597245452444	-9.514306384584904	0.6734217469245578	246.30965684801322	0.662752335579359	247.11488035046239	0.2766149699717886	-0.3136866240057543	0.5903015939775429	107.7828192473606
17	6.0	wm	328	diff_vonmises	-0.02772221842273123	-1.5883661143623173	0.43652321850397546	133.41208984005314	0.4231356695670742	134.33153442067152	0.11595440361414333	-0.30550774899933586	0.4214621526134792	128.48007150227735
18	7.0	ltm	328	diff_vonmises	0.08952627026798725	5.129477441903215	1.3034745331921906	3.7310870092559174	0.7660118537951286	4.82856855125337	0.050502823707845534	-0.2639928636060966	0.3144956873139421	80.79234631645303
19	7.0	perception	328	diff_vonmises	-0.09420917242822094	-5.397787971557301	1.5261743015948106	3.0424168028093557	0.2790490732586885	3.624851994000723	0.5837068653193948	-0.367301145841363	0.9510080111607577	98.02147917789628
20	7.0	wm	328	diff_vonmises	-0.1898863053074973	-10.8796838814522	0.8237581679022327	113.6820070222191	0.8072056097898086	114.63174280107769	0.06961514001228863	-0.23695772629005418	0.3065728663023428	92.01607777354592
0	1.0	ltm	329	diff_vonmises	-0.022963902186638862	-1.3157346764456492	6.028107339383771	0.4167712780893143	0.12804858219539364	1.1170926111341817	0.19769968831309112	-0.17850961907399257	0.3762093073870837	53.749478672764724
1	1.0	perception	329	diff_vonmises	-0.08419208364624098	-4.823851061342007	20.34735570064089	0.5824363790216713	1.0765681671998542e-19	1.4395155533588182	0.8123323620061618	-0.22910601597472094	1.0414383779808827	30.002227337449995
2	1.0	wm	329	diff_vonmises	-0.124701809317812	-7.144887371555791	24.590109746271708	0.21060978524953933	1.124108361451054e-19	1.1848386628325385	0.22588467023260958	-0.18857292995619004	0.4144576001887996	27.28003483150053
3	2.0	ltm	329	diff_vonmises	0.14011980791775944	8.028273619871392	2.476674450506202	98.1881258651363	2.4469448275585104	98.38869773410306	0.2911234370191309	-0.1675743136072132	0.4586977506263441	57.1350290912421
4	2.0	perception	329	diff_vonmises	-0.06427367791810583	-3.6826104784906595	6.119305690482965	1.0056368648883456	0.3008891468206509	1.3378170671070828	0.6889986451450714	-0.21465986934340253	0.9036585144884739	53.04254537948847
5	2.0	wm	329	diff_vonmises	0.1002783511464905	5.745526297224766	2.102509055768634	0.5692789130770953	6.924210872796646e-19	0.9884359654791215	0.145348900690485	-0.15279838892693431	0.2981472896174193	94.71073376825584
6	3.0	ltm	329	diff_vonmises	-0.014726028499568018	-0.8437392820146157	2.1462216485234644	64.98643627660479	2.1230905683675645	64.94094640278666	0.25120696940797416	-0.07144678879539335	0.3226537582033675	64.87864217618943
7	3.0	perception	329	diff_vonmises	-0.059635414718952666	-3.416857572908336	3.4335760356086746	2.4785506117301517	0.6909808268353196	2.6676163576053327	0.9970625513006506	-0.3254521449946436	1.3225146962952943	65.71762679369493
8	3.0	wm	329	diff_vonmises	-0.2493563633017757	-14.287067211922594	1.715054672799679	166.02275688843153	1.6996499070614128	166.38122036388134	0.2598840928688162	-0.178595539534399	0.4384796324032152	68.05780923360805
9	4.0	ltm	329	diff_vonmises	-0.0017549534363096493	-0.10055142514252383	1.9198245499674622	110.57211027872857	1.8975488493104358	110.76494987026534	0.296189456475652	-0.15082594330728227	0.44701539978293425	65.68217608601444
10	4.0	perception	329	diff_vonmises	-0.07677727172518502	-4.399013632382211	3.323777410933595	2.1170063798323633	2.3305532517273287e-18	2.963199347783946	0.9975226104454058	-0.4697017748972573	1.467224385342663	75.2882045128899
11	4.0	wm	329	diff_vonmises	-0.22096774208425293	-12.660519029962998	1.2640144859492273	242.1271147568429	1.2484953881958405	243.1930540654905	0.274375585571363	-0.3395452899335183	0.6139208755048813	76.78780698926937
12	5.0	ltm	329	diff_vonmises	0.07202934173354517	4.126977282437663	1.0009612021264087	28.14243636075602	0.9445028311942898	27.7633487264408	0.426775847021327	-0.09192202235353886	0.5186978693748658	100.01320171563799
13	5.0	perception	329	diff_vonmises	-0.0029789828140891436	-0.17068314248931307	2.02431251107615	1.8788112806984254	4.404242287649536e-14	1.9140314775292062	0.6717160698218468	-0.2875936354260051	0.9593097052478519	96.46340818734669
14	5.0	wm	329	diff_vonmises	0.11999672321415443	6.87530579557056	0.48358743089412853	2.699503960104601	8.074059242256904e-14	2.7944914328828134	0.21304311289614147	-0.19469016446245951	0.407733277358601	152.7564592942687
15	6.0	ltm	329	diff_vonmises	0.3275361951739529	18.766441621240702	0.9880260178658812	36.99767944146492	0.9696385691370182	36.67586118073749	0.23703270714133318	-0.031122513990987644	0.2681552211323208	103.62180385426885
16	6.0	perception	329	diff_vonmises	-0.09796482367503395	-5.612970937322732	0.9365067270225955	150.51945320869063	0.9221222388886107	150.7625648387079	0.332213207488806	-0.18245722164605205	0.514670429134858	95.04474424916015
17	6.0	wm	329	diff_vonmises	-0.14465492840990632	-8.2881168836547	0.3673807822785081	37.93931553518929	0.3399007931269427	37.84052710342466	0.21067137323601415	-0.12173332929581715	0.3324047025318313	141.7333473505271
18	7.0	ltm	329	diff_vonmises	-0.010017507034835177	-0.5739608743386674	0.3832947988805194	33.87945915616677	0.34506991299453127	33.9105992883012	0.22882873925598535	-0.16679287450592728	0.3956216137619126	140.18637411536622
19	7.0	perception	329	diff_vonmises	-0.11713962175483346	-6.7116059403107995	0.9747935323745412	224.51613391290962	0.9595891172488562	224.87716090327348	0.5268543312860032	-0.27948411680359087	0.8063384480895941	93.3000994258792
20	7.0	wm	329	diff_vonmises	0.5260201676203323	30.138735543409165	120.84629160960061	0.5272631312761633	1.4904681182137846e-37	0.5554796030137276	2.2207269108023837	-0.08840732460635843	2.309134235408742	12.289811740792203
0	1.0	ltm	330	diff_vonmises	-0.07200833568171684	-4.1257737243236665	1.8545919912609607	0.4483586137555918	8.750084231548483e-19	2.8298056553569184	-0.22942147762242504	-0.4449646368678469	0.21554315924542183	100.51312705931328
1	1.0	perception	330	diff_vonmises	0.044210592391079835	2.5330803537820654	12.818367877128711	0.5617313426905354	0.009599972386729575	2.884728884819107	0.33034268090581104	-0.46051206734951483	0.7908547482553259	37.78514109774778
2	1.0	wm	330	diff_vonmises	0.03825692929087495	2.191960585497552	6.273014998128496	0.3618728296876026	1.2913000220903042e-19	2.983719750640184	-0.12113387475248238	-0.4748724880652436	0.35373861331276124	54.38139781063438
3	2.0	ltm	330	diff_vonmises	0.09385233031849047	5.3773424247172015	9.364769830330083	0.3896065553444361	0.1516479860675096	1.6219448030979968	0.17017503904257003	-0.27254109587485476	0.4427161349174248	43.008177161895674
4	2.0	perception	330	diff_vonmises	0.017727141802064823	1.015690408088251	7.561283850063627	1.2013295535562893	0.26691196280255297	2.677943475510139	0.7477717892478222	-0.45226841234599374	1.2000402015938159	47.504929731106415
5	2.0	wm	330	diff_vonmises	0.08607194824730816	4.9315593690392	2.1353754301579237	1.0567601868417744	0.2068654900726076	2.4576283195222657	0.09118113206038209	-0.3283786890321003	0.4195598210924824	82.59066421581363
6	3.0	ltm	330	diff_vonmises	0.07590053893077206	4.348780543501637	3.145403131033129	0.8829743318947556	0.7115580296540007	1.4938629638860454	0.16565151677446227	-0.1950845832604075	0.3607361000348698	63.655147368915095
7	3.0	perception	330	diff_vonmises	-0.020558827797939383	-1.1779340645581626	4.673344351750177	1.615932241944317	0.24006678546187016	2.220771160342874	0.9085400778079726	-0.33681188819846836	1.245351966006441	60.55059053421229
8	3.0	wm	330	diff_vonmises	-0.06834152039761382	-3.9156806842904994	1.2914024660247094	173.8718679246387	1.2759161600988003	174.63425406919652	0.19113774430370256	-0.24227683791560395	0.4334145822193065	75.82354137893768
9	4.0	ltm	330	diff_vonmises	-0.046205393082437575	-2.6473740143666427	1.1466178311003108	141.0266407338118	1.1254001760388745	142.5549763947864	-0.0005978249729565732	-0.35800554955743635	0.3574077245844798	74.52091506254934
10	4.0	perception	330	diff_vonmises	-0.04510152830040417	-2.584127221203	3.2081324967841884	1.808174478225508	0.12626098921676565	3.6922005948678573	0.5660098626704713	-0.5448068152340103	1.1108166779044817	72.739096782693
11	4.0	wm	330	diff_vonmises	-0.00704481345648054	-0.40363807851330435	1.0888786017606296	260.9720505210515	1.0756347763435203	262.79163557262007	0.0007012856813872759	-0.4208588248031333	0.4215601104845206	76.45861306286722
12	5.0	ltm	330	diff_vonmises	-0.08722391976670638	-4.997562475219992	1.9880164707734798	0.9201075481803694	3.283501866705706e-19	1.8891279769588618	0.17228439393777412	-0.2917915835876688	0.46407597752544294	97.28722266620417
13	5.0	perception	330	diff_vonmises	-0.05592737565502365	-3.204402584275563	1.5380792118613886	3.0899860542379134	0.2854441871694859	4.1822645097272835	0.4911722681920555	-0.43468094676687713	0.9258532149589327	95.87181727453071
14	5.0	wm	330	diff_vonmises	0.06347852867538943	3.6370517827999866	0.4781662386377238	135.6115679009979	0.4643831459299485	136.62586329068915	0.10416539730131547	-0.31231349048980306	0.4164788877911185	123.16619269852782
15	6.0	ltm	330	diff_vonmises	0.30002180171468956	17.189983000162556	0.7084871433144491	151.51164576236877	0.6974352952772387	152.37452791182608	0.07408108737415375	-0.22474128828051576	0.2988223756546695	99.95952056211726
16	6.0	perception	330	diff_vonmises	-0.16855068063862044	-9.65724263465035	0.7311856279484257	246.4325473262121	0.7191138828276732	247.4391866758632	0.277418601662319	-0.34654935166041057	0.6239679533227296	102.52176755577281
17	6.0	wm	330	diff_vonmises	0.10182569401817494	5.834182513231937	0.30194354465638956	143.34866794500195	0.289657225834868	144.38190964014086	0.09958105531483952	-0.3544443351126567	0.45402539042749623	143.92979118504178
18	7.0	ltm	330	diff_vonmises	0.013227436723401426	0.7578762980272562	0.9637642508898592	120.59594420449292	0.9429147953415759	121.9546905764248	0.02778210881272969	-0.3147152729219549	0.3424973817346846	82.67845405209752
19	7.0	perception	330	diff_vonmises	-0.06458681308142218	-3.7005518017658265	1.377990092809575	4.097064358261678	0.364274674213975	5.068928264298686	0.5623979563895438	-0.44294666130681587	1.0053446176963596	97.80281684814825
20	7.0	wm	330	diff_vonmises	-0.16682585999303318	-9.55841769124117	0.9104410457858124	159.56393193578927	0.8959025295368273	160.78580979331792	0.0483634209650603	-0.2893846874668	0.3377481084318603	85.9243691487451
0	1.0	ltm	331	diff_vonmises	-0.11541031757574362	-6.612524109354616	2.7476539167374687	0.3893161276636001	1.0041576228775671e-18	3.7200403098415014	-0.34963936472147505	-0.5910672899453762	0.2414279252239011	82.9542210664666
1	1.0	perception	331	diff_vonmises	0.025426169302971736	1.4568121902453706	11.948927959861546	0.5458841518872679	2.655774311116166e-16	3.6222045208069513	0.1678245300206591	-0.5764917543450918	0.7443162843657509	39.23588498166933
2	1.0	wm	331	diff_vonmises	-0.04944268977922389	-2.832857452124141	6.083984732269005	0.333662492635554	1.197318066541496e-44	4.136665786660926	-0.33740065978839645	-0.6583691405992899	0.3209684808108934	55.23708776577223
3	2.0	ltm	331	diff_vonmises	0.02072002607610818	1.1871700455620107	10.627925984905156	0.4545604233496356	0.10492346164653918	2.3202198021705858	0.17488309783130018	-0.3853670065872779	0.5602501044185781	40.672394657024455
4	2.0	perception	331	diff_vonmises	0.01513892179889845	0.8673963254554812	6.168255600181128	1.294142180639767	0.22101155735709024	3.492886640187848	0.5689347828202104	-0.5706492247923995	1.1395840076126098	52.177146523715095
5	2.0	wm	331	diff_vonmises	0.07814501649486132	4.4773796351357555	3.09801750806126	0.6390929689474091	3.1935252166377267e-13	2.8237668387227384	-0.02316233016572855	-0.4485477738208523	0.42538544365512376	78.04919942500149
6	3.0	ltm	331	diff_vonmises	-0.11649286078694507	-6.6745492664969985	3.4642724566870906	0.5236712924331954	4.457898714110469e-13	1.5036061719821452	0.13261800220808959	-0.23894204201041194	0.37156004421850153	73.7063383360593
7	3.0	perception	331	diff_vonmises	-0.014019709571469153	-0.8032701884443465	3.300402840236689	3.007798345266403	0.514715384982143	4.414453352198795	0.9778240217585217	-0.5863991618447896	1.5642231836033114	66.69422619114212
8	3.0	wm	331	diff_vonmises	-0.23446479846135018	-13.433843396220803	1.2234928758444445	255.0210389216249	1.2091127388434952	256.57811629017493	0.08274931574761979	-0.3957608297426063	0.4785101454902261	73.94771922297852
9	4.0	ltm	331	diff_vonmises	-0.12368431113198153	-7.086589019845487	2.7772516906858904	0.7746263534515244	0.05963742531395961	2.7799464404537475	0.016164164506775158	-0.4217104216911004	0.43787458619787556	78.29946645437963
10	4.0	perception	331	diff_vonmises	-0.07180210531406932	-4.113957594650032	1.1853703930343642	330.67659510483975	1.1620782105242946	332.9271722263182	0.5907111190442578	-0.7133609296183963	1.304072048662654	79.6627161222728
11	4.0	wm	331	diff_vonmises	-0.2134485062381871	-12.229698550819945	2.3394085879804516	0.9126618351632534	0.11432003574733696	3.5664693365335562	-0.11709358004483528	-0.5220694056678284	0.40497582562299317	80.35048639602576
12	5.0	ltm	331	diff_vonmises	0.005117276388739901	0.2931983396767435	1.6595906658229596	1.6514511554434834	0.16257331413455012	2.6296703651554925	0.2714675473505393	-0.32681017636645265	0.598277723716992	96.79722980680569
13	5.0	perception	331	diff_vonmises	-0.017596645355307746	-1.0082135124476168	2.2956393914903344	1.8242373556370117	4.968034184137489e-19	2.9967523506770575	0.5453148536111727	-0.4665823237443745	1.0118971773555472	90.75398019863621
14	5.0	wm	331	diff_vonmises	-0.1206663702261859	-6.913673743123509	0.3948445476439545	199.8217701589998	0.3825306218824928	201.34955653241644	0.10651318800713483	-0.4644877196605428	0.5710009076676776	132.05409464792345
15	6.0	ltm	331	diff_vonmises	0.5436348875639291	31.14798465348218	0.425483553081726	171.54920638843913	0.41579655086795797	172.40145209612058	0.10923284266005595	-0.28619250346351066	0.3954253461235666	127.64114013340364
16	6.0	perception	331	diff_vonmises	-0.022888901510046886	-1.3114374542163034	0.8487616819708271	268.9710872567057	0.8373215663910484	269.9406611706448	0.28592750321013227	-0.32646182483647124	0.6123893280466035	95.11958193444582
17	6.0	wm	331	diff_vonmises	0.13807410277969842	7.9110633493322675	0.03130379803996967	127.2569565609766	0.021258355053805574	128.30887271433133	0.03509781952365287	-0.36462505361309994	0.3997228731367528	176.30248100161768
18	7.0	ltm	331	diff_vonmises	0.07885778491540602	4.518218257403173	0.8951594045877503	155.89466591040036	0.8796521413142451	157.19982331317036	0.04452385861178243	-0.3063852219696308	0.35090908058141324	86.4879854278517
19	7.0	perception	331	diff_vonmises	-0.129478836524548	-7.418590869120933	0.7310231087243803	196.62270683585575	0.7116640755394297	197.29706267880792	0.5326751445083033	-0.3958421369863956	0.9285172814946989	106.4102537858852
20	7.0	wm	331	diff_vonmises	-0.2977843398200514	-17.061785876778448	1.0045077062511076	155.96165505425844	0.9872322726960503	157.2108199203794	0.08603712158405585	-0.3104477043725744	0.39648482595663026	82.68778312005766
0	1.0	ltm	332	diff_vonmises	0.22434126464000187	12.8538076344996	0.5584638309341082	26.8325286718942	0.5174284102559991	27.491672570157963	0.04212922577296574	-0.1786083622422625	0.22073758801522825	114.27129523425825
1	1.0	perception	332	diff_vonmises	-0.03599557375500013	-2.06239445731338	15.915271969593961	0.5039498523689394	6.558013335599933e-31	1.1644127990285027	0.6102405579711185	-0.18532205276484398	0.7955626107359626	33.94550148319169
2	1.0	wm	332	diff_vonmises	-0.05089145953258449	-2.9158658444779126	9.337058854973456	0.25969546812935945	3.7480394148640857e-16	0.9746620007101565	0.1569874275226837	-0.1551222728344361	0.3121097003571198	44.43588718583365
3	2.0	ltm	332	diff_vonmises	0.18153225524749886	10.401032071173276	5.000110486753577	0.7035693251948164	1.3942993692934849	1.017133394198414	0.18847405413848606	-0.16081116787094374	0.3492852220094298	49.63593566197312
4	2.0	perception	332	diff_vonmises	-0.015822109151739802	-0.9065400773900056	8.066470022643093	1.0274396596891742	0.3980537009808754	1.2529131130967965	0.8594724791591366	-0.21599994605453324	1.0754724252136698	46.289155240304524
5	2.0	wm	332	diff_vonmises	0.03493620883578312	2.001697318478028	1.0312739956569263	66.36493928947519	1.0094880860738624	66.7293944286217	0.14781663505187126	-0.1336659456852649	0.28148258073713617	87.28481982251009
6	3.0	ltm	332	diff_vonmises	0.175119299524022	10.033596774013787	2.6119696192329136	59.393448210005864	2.5856626248915875	59.45736608107261	0.1732167895466432	-0.08274162081215941	0.2559584103588026	56.347994821385726
7	3.0	perception	332	diff_vonmises	-0.07237171646225289	-4.146593909404552	6.2392975953134195	1.0746809595953908	1.044608098388172e-13	1.0113938811856193	0.8866097002176458	-0.16096434701639148	1.0475740472340374	54.53125409870265
8	3.0	wm	332	diff_vonmises	-0.06273696988039495	-3.594563593585996	2.030157069563303	100.1197036603125	2.0102117803421513	100.20338155466771	0.26649393353213213	-0.11233459394411938	0.3788285274762515	64.72428118568749
9	4.0	ltm	332	diff_vonmises	0.2018976613792958	11.567883890595088	2.4843756801193835	40.19741862725671	2.4170346578665	40.73770982909897	0.06697169674962211	-0.21484548809447546	0.28181718484409757	52.21869695927427
10	4.0	perception	332	diff_vonmises	-0.009265656191542671	-0.530882994194655	2.910356801767432	1.806434907512164	3.4698653679855182e-22	3.0632157196943366	0.6751634621073133	-0.4840773091203028	1.159240771227616	80.57539963579097
11	4.0	wm	332	diff_vonmises	0.08313902120669339	4.76351502799218	1.6267287944334339	181.8271632266418	1.6079389604489072	182.89941543825395	0.09825677552728962	-0.31903155324506827	0.4172883287723579	64.54104775613092
12	5.0	ltm	332	diff_vonmises	0.010750222203507248	0.6159423610887933	2.101698523147116	0.7751408364742977	2.822517879780015e-13	0.7728004948079032	0.28901061701419056	-0.11683712737443602	0.4058477443886266	94.74459633248156
13	5.0	perception	332	diff_vonmises	-0.05988934541243094	-3.4314067299334714	1.9929206060190103	1.6303520973022658	3.6359123650789215e-14	1.7986184287463816	0.5529673615781587	-0.2706671026190363	0.8236344641971951	97.18186978204466
14	5.0	wm	332	diff_vonmises	0.12923144931376115	7.4044166260373325	1.8124878833054472	0.7843838626016633	4.4544209698918997e-14	0.7801273391944652	0.257017641429472	-0.11400188879622497	0.37101953022569695	101.55611134418655
15	6.0	ltm	332	diff_vonmises	0.26206617094335394	15.015285548208148	0.9574972272719714	69.30157701977399	0.9426694095704226	69.30347709477294	0.19451601575271482	-0.07693881956067194	0.27145483531338677	96.3869009556997
16	6.0	perception	332	diff_vonmises	-0.2777657312241755	-15.914804092510447	0.9754421780873893	89.95970583341678	0.9513802452529521	90.12891936066485	0.3544171876046782	-0.17297834248562882	0.527395530090307	94.09708124930864
17	6.0	wm	332	diff_vonmises	-0.03348543540945513	-1.9185741241197007	0.2465899769699621	113.80246638590607	0.23424174235058692	113.78766786997446	0.2498456542540488	-0.1921952094840318	0.4420408637380806	153.09841822827076
18	7.0	ltm	332	diff_vonmises	-0.07469739220719951	-4.279845314105937	1.0348367401824108	91.26187278467629	1.0156324673065398	91.73283836353176	0.16845374875241603	-0.16449585808113554	0.33294960683355157	86.6317941086111
19	7.0	perception	332	diff_vonmises	-0.09530076143789362	-5.460331414774411	1.0279634518327396	89.81848433045337	0.9828348337016498	90.29012665949043	0.6067146839482973	-0.32888547643188204	0.9356001603801793	91.2611966679525
20	7.0	wm	332	diff_vonmises	0.1829103966301843	10.479993755973476	0.9306202095034313	42.10436154134885	0.9017634004390531	42.73648315934012	0.026984454344054498	-0.15050331782823267	0.17748777217228717	85.41155265931994
0	1.0	ltm	333	diff_vonmises	0.22709970336398602	13.011854531429343	0.6378337773446416	75.81079036997987	0.6123909692860229	78.17386919283427	-0.26717738843931826	-0.4271580423331258	0.15998065389380756	86.76066813961208
1	1.0	perception	333	diff_vonmises	0.039942673760726605	2.28854662895757	14.085761818686484	0.5668587452498102	0.0030186264751454663	2.7086578520217683	0.4084063547150555	-0.43146226010729727	0.8398686148223528	36.08237850704762
2	1.0	wm	333	diff_vonmises	0.06859800047991288	3.9303759105354037	5.856814220846431	0.43018369843315724	0.10232606924465344	3.1054890065307585	-0.14044938916249694	-0.5019224748260859	0.36147308566358893	53.03850394801941
3	2.0	ltm	333	diff_vonmises	0.08058649060085302	4.617265797199556	11.00940743213286	0.355601388782108	0.23421185382060972	1.4325938556907416	0.18075285443572636	-0.25315765232200144	0.4339105067577278	39.40196862587206
4	2.0	perception	333	diff_vonmises	0.010957489471474811	0.6278179007745418	9.055945851478437	1.1884489161341005	0.2960099269459036	2.466174220764035	0.8893918427485004	-0.430132363876282	1.3195242066247823	43.63068388228439
5	2.0	wm	333	diff_vonmises	0.032383732945832376	1.8554512226749518	1.0071843035148806	46.57061680641965	0.9459920703020346	47.96736603742634	0.07712346805736559	-0.34014493824191927	0.41726840629928486	83.07144670509837
6	3.0	ltm	333	diff_vonmises	0.13333150876848213	7.639332728545554	2.3343994582069763	2.9096224507114856	1.5929174905810841	3.2652335546140154	0.17986370685470976	-0.15988760959115322	0.339751316445863	62.36930864061108
7	3.0	perception	333	diff_vonmises	-0.052111276612415804	-2.9857562149302193	6.2142424861995265	1.0865263050066445	3.347969852112163e-17	1.371481820156522	0.8386344439049485	-0.218273880294244	1.0569083241991923	54.6431004102873
8	3.0	wm	333	diff_vonmises	-0.027053988841209766	-1.5500793795953443	1.6528511607610294	127.46782349569818	1.6326836125236375	127.97281564917185	0.20564621898475366	-0.19824563828859354	0.4038918572733472	67.86630312499204
9	4.0	ltm	333	diff_vonmises	-0.07898992850370265	-4.525789527302284	1.219464999515415	145.621029614263	1.2002818113394307	147.0511496271918	-0.027068834888403615	-0.3352683245442343	0.30819948965583066	71.25832552150112
10	4.0	perception	333	diff_vonmises	-0.05455771575780261	-3.1259268527964754	3.6541385650476115	1.5609446064663453	1.602041024309354e-17	3.2855492740180052	0.6190722458052511	-0.5221462990616728	1.1412185448669239	71.71301307107288
11	4.0	wm	333	diff_vonmises	0.026194305253355667	1.5008231382946402	1.2184774366031619	229.79896924911526	1.2042172853746997	231.489849142857	-0.03813955456328699	-0.39505924021578664	0.35691968565249965	71.02810227175567
12	5.0	ltm	333	diff_vonmises	-0.08877467703725758	-5.0864143218718025	3.0074595198546445	0.6732016071371186	4.95134318264714e-14	1.545446108008389	0.19557615362915662	-0.24488711521224152	0.44046326884139814	79.23331606227282
13	5.0	perception	333	diff_vonmises	-0.0824400953554915	-4.723469526525723	0.8753511485865748	106.86846667503137	0.8366578576463758	107.8121212505947	0.49573308572460917	-0.40536434909044416	0.9010974348150533	96.43616813536822
14	5.0	wm	333	diff_vonmises	-0.050117657384077946	-2.871530247190332	0.5655941056236539	121.84456445656649	0.5501989521548217	122.68454696712121	0.1382426618366921	-0.2724553924044155	0.4106980542411076	115.2368509871867
15	6.0	ltm	333	diff_vonmises	0.13921460174807482	7.976409126759259	0.9023123545262329	111.88391376940699	0.8879683803162924	112.56733659447008	0.086739210929629	-0.18325305879090514	0.26999226972053414	89.20568434340754
16	6.0	perception	333	diff_vonmises	-0.2579667233835608	-14.780404504696797	0.7098337621370565	177.62200160369176	0.6945371751345074	178.40199200600625	0.29677034089503707	-0.3107940451532123	0.6075643860482494	105.45380730580037
17	6.0	wm	333	diff_vonmises	0.27329127239552087	15.658436486023485	0.09478770925719265	15.68154990271341	3.4090323657623554e-07	16.45413384240324	0.1190265444002021	-0.35375111284988625	0.47277765725008836	172.39298816001457
18	7.0	ltm	333	diff_vonmises	0.030554299971157096	1.7506324343239945	1.2465266944944744	185.0884762672387	1.2320439089844668	186.33551714849082	0.012013782609301416	-0.30408659734813526	0.3161003799574367	71.66056428886071
19	7.0	perception	333	diff_vonmises	-0.09307295216553642	-5.332687345908233	2.0353740953533856	1.7464900286413698	2.5866326319804956e-18	2.672196962960838	0.48525557433683136	-0.4097541212884623	0.8950096956252936	96.20429983256314
20	7.0	wm	333	diff_vonmises	-0.2925946514759514	-16.764438637673276	0.8044225013749455	123.98281161714092	0.7915711153699159	125.07081400129792	-0.024335451253463702	-0.23286663463434643	0.20853118338088272	88.1580895241644
0	1.0	ltm	334	diff_vonmises	0.6918638019211152	39.64087584795508	0.815453990574084	150.33581005598413	0.8010400140210681	152.53951714592108	-0.25579518416370206	-0.4135710368318293	0.15777585266812721	76.11667613948111
1	1.0	perception	334	diff_vonmises	0.029613052433296698	1.6967029229275137	13.208635323835917	0.5240574987907362	0.005795328981749812	2.5015911390311625	0.35179161421871347	-0.39880890016160525	0.7506005143803187	37.24571006584665
2	1.0	wm	334	diff_vonmises	0.030863017172540565	1.7683206270263576	5.369137489205846	0.4908485433668085	0.20326082983218077	2.938987851219128	-0.12527115614758227	-0.484587221231237	0.3593160650836547	53.225763626076656
3	2.0	ltm	334	diff_vonmises	0.01609414311296758	0.922126475252583	19.443870284646895	0.25915082494068137	0.1630349501619398	1.414201358588271	0.1896934114880015	-0.24948137539713305	0.43917478688513456	30.164248304189215
4	2.0	perception	334	diff_vonmises	0.013415175403786662	0.7686329320646857	10.302266838426107	1.1442876085287164	0.2801544124933684	2.5008029541187535	0.9299814724082888	-0.4414095323773894	1.371391004785678	41.07440739470772
5	2.0	wm	334	diff_vonmises	-0.012165830041826756	-0.6970507156701389	1.0150876081914573	105.55812506076593	0.9885986428875401	106.96135329423588	0.05238123825005658	-0.33476954498527434	0.3871507832353309	81.27656880759193
6	3.0	ltm	334	diff_vonmises	0.1336023756154595	7.654852255687374	1.942099961317088	20.85051565408586	1.845910222293075	21.1738854828709	0.16184590478719407	-0.1445704802618728	0.3064163850490669	63.38527268157148
7	3.0	perception	334	diff_vonmises	-0.06003624149504362	-3.439823255494183	6.720340361921652	1.0716358363197578	6.543028193651213e-23	1.3590427078912641	0.8695299032723109	-0.21629678460624532	1.0858266878785563	52.514193800686854
8	3.0	wm	334	diff_vonmises	-0.0517679046421415	-2.9660824502304104	1.7807166679190332	123.37141472129647	1.7608840500991019	123.81756860935894	0.18988874957644697	-0.18324962420854263	0.3731383737849896	65.2847137494131
9	4.0	ltm	334	diff_vonmises	-0.08149804393962196	-4.669493956312075	1.1875368053766655	113.46546983310499	1.1657352009062663	114.91211719034274	-0.08080678515051432	-0.3230187540840319	0.2422119689335176	70.07935590925476
10	4.0	perception	334	diff_vonmises	-0.057238223782215866	-3.279508649546305	4.163428524109887	1.4483827645926965	7.367937824940737e-17	3.2221989262782706	0.6252646750935257	-0.5125535190853232	1.1378181941788488	67.06957932343289
11	4.0	wm	334	diff_vonmises	0.09081013204615125	5.2030373032701736	1.226302476930445	175.04672640504143	1.2099080858631215	176.708525062435	-0.10442912227871659	-0.37378040978097715	0.26935128750226056	68.41145416149547
12	5.0	ltm	334	diff_vonmises	-0.0721549611367306	-4.134174744065141	3.3555642168720867	0.6550958563599221	4.084697106104594e-16	1.51651941452312	0.21571564887827901	-0.24080515548909692	0.45652080436737597	74.91951044067423
13	5.0	perception	334	diff_vonmises	-0.10819431731895078	-6.199077749675068	0.8606870408538773	130.52549269401044	0.830918343194554	131.38437199956633	0.4756311366766752	-0.3806628306623221	0.8562939673389973	97.19724394334918
14	5.0	wm	334	diff_vonmises	-0.15618873546890488	-8.948955349853515	0.5685451763091404	118.94743700698707	0.5525514354189069	119.73785112433099	0.15571651660775743	-0.2703833105763156	0.426099827184073	115.60401890445571
15	6.0	ltm	334	diff_vonmises	0.06235361715131527	3.5725991001449082	0.9678204223604427	97.60892266178848	0.9505521744543182	98.26709810373019	0.1011333242030048	-0.18243586053063865	0.28356918473364345	86.65679898648744
16	6.0	perception	334	diff_vonmises	-0.25842820462020877	-14.806845431881204	0.8215940549042874	168.14774088258466	0.8061048024467911	168.810022685629	0.2954447034661811	-0.2674355018835861	0.5628802053497672	98.37551628208983
17	6.0	wm	334	diff_vonmises	0.26249376269970687	15.039784751201758	0.00025086530365788016	5852.268923411922	8.536668399958046e-32	5852.97398516952	0.12146087370058467	-0.34585969290696994	0.4673205666075546	177.75548657830683
18	7.0	ltm	334	diff_vonmises	0.03294717988877575	1.8877343544851555	1.4416375900187355	205.28051768762685	1.4271808858171826	206.48841557819384	0.01842042874689298	-0.3151199504117699	0.33354037915866286	66.62778750911991
19	7.0	perception	334	diff_vonmises	-0.14092523593735526	-8.074421246095811	1.7887047581446045	1.8992553480139558	2.751636399571803e-15	2.7090135002337403	0.4844618206596082	-0.4055632092004718	0.89002502986008	102.17057988785906
20	7.0	wm	334	diff_vonmises	-0.526622703621893	-30.173258313303283	0.9146246592902965	113.09879709808902	0.901445983225052	114.06378666404775	-0.027928490029303532	-0.20717948312428014	0.1792509930949766	81.95286332592934
0	1.0	ltm	335	diff_vonmises	0.06441942345502305	3.690961082638885	0.19557074702242375	25.07706812314644	0.16333556134242955	26.65127808965385	-0.15398074655826566	-0.3275653385407633	0.17358459198249765	154.63714218294416
1	1.0	perception	335	diff_vonmises	-0.008745199368066489	-0.5010630147906844	10.930147031467827	0.6234614034720214	3.379296892104453e-17	2.370853537275289	0.4348112989235607	-0.37733305954353913	0.8121443584670998	41.04171838877494
2	1.0	wm	335	diff_vonmises	0.013322161452640991	0.7633036252282027	11.195798663974164	0.24891059776918545	5.111112943493344e-25	2.0537339272705983	0.0014982544574356216	-0.3268619062587189	0.32836016071615454	40.53970290863444
3	2.0	ltm	335	diff_vonmises	0.08065966718752243	4.621458506774887	12.558315590940838	0.2995856555078721	0.20784230133208545	1.1641693488814908	0.193407771994045	-0.2049598103908821	0.3983675823849271	37.21418819401893
4	2.0	perception	335	diff_vonmises	-0.0122569472403982	-0.7022713465893381	9.560124439576681	1.027922497532203	0.15200402860118709	1.9920500439480877	0.8833809104081594	-0.33113526996577153	1.2145161803739308	43.19445982041785
5	2.0	wm	335	diff_vonmises	0.08773865464208042	5.027054611147117	1.466031524301035	0.8592372020564825	3.7924747431248587e-14	1.8744522119052507	0.06872890004649462	-0.27876895312856126	0.3474978531750559	111.49022333974435
6	3.0	ltm	335	diff_vonmises	0.09677716774047901	5.544923264759069	2.013410708318318	36.204544891322904	1.9630498606601234	36.40379553995933	0.18340675421611863	-0.11795790376503668	0.3013646579811553	63.234250520581725
7	3.0	perception	335	diff_vonmises	0.0006328600121878206	0.03626020772095996	3.309362749122254	2.685410290812122	0.7604180856164783	2.9676631664154867	0.9805127192485898	-0.34896603265401366	1.3294787519026035	65.79583869067466
8	3.0	wm	335	diff_vonmises	-0.20515605645458285	-11.754576176395249	1.5168750047313746	102.96650191627879	1.4970626174517871	103.27986915181083	0.22076644145371915	-0.148912258782806	0.36967870023652516	72.68438820884455
9	4.0	ltm	335	diff_vonmises	0.0662031914616226	3.7931634610475027	1.5889129392896244	158.11478899359304	1.5698892271072329	159.0103509563719	0.11855942555587262	-0.2732834049010542	0.3918428304569268	66.15663743058002
10	4.0	perception	335	diff_vonmises	-0.09573913121401849	-5.485448152812461	3.21497111690954	2.1872809184955613	0.23950342857804488	3.4472763622344385	0.8024847242521971	-0.48489597740060075	1.2873807016527978	71.28147806561506
11	4.0	wm	335	diff_vonmises	-0.15850504259142773	-9.081669972030166	1.2289009012583167	264.1531946252677	1.2160971051137317	265.4040927211492	0.14465663107797866	-0.341266230923587	0.48592286200156565	75.44388343978275
12	5.0	ltm	335	diff_vonmises	-0.057399918010662784	-3.288773046407938	2.1664915384762233	0.7615368493761752	1.2940800675170464e-13	1.365051286127386	0.1949763939109552	-0.2118424581717295	0.4068188520826847	93.35884098940451
13	5.0	perception	335	diff_vonmises	-0.01596819482213078	-0.914910169750748	1.7994117027787901	2.34144656471309	0.1449113026918377	2.8860992532993994	0.6047087495464465	-0.36431487638822946	0.969023625934676	96.14387125402118
14	5.0	wm	335	diff_vonmises	0.05064977660871441	2.9020184329597756	0.49897086580462247	73.30859833311274	0.48005575772403947	74.02119689743277	0.08556281023994572	-0.22412289838571997	0.3096857086256657	121.55000971680725
15	6.0	ltm	335	diff_vonmises	0.4164775902181678	23.862408181279996	0.7763256705484795	112.94229933495161	0.764969104843587	113.50310592108346	0.07839272931674657	-0.1562562943088377	0.23464902362558426	96.82082485999999
16	6.0	perception	335	diff_vonmises	-0.13138652612058865	-7.5278934315950785	0.8387535027756389	230.96643820373023	0.8273261486869793	231.6040928354013	0.30684545563626386	-0.2647864194927365	0.5716318751290004	97.4811528410512
17	6.0	wm	335	diff_vonmises	-0.2655498532745923	-15.214885842952402	0.5210106416410659	145.90452417555773	0.5088052194251383	146.70562031027077	0.13460808289561754	-0.27014767360630465	0.4047557565019222	119.67039786507839
18	7.0	ltm	335	diff_vonmises	0.06431258201472517	3.684839519032717	1.096826220077651	56.940769705145115	1.0641252583472713	57.583646286615206	0.12194282019086344	-0.18680360446092692	0.30874642465179036	82.08931650990476
19	7.0	perception	335	diff_vonmises	-0.11649435325955522	-6.674634778878599	1.2193799723541932	4.952810089493279	0.47138538463095353	5.317276179497313	0.6118676201501869	-0.33836040951461965	0.9502280296648066	100.72320073938978
20	7.0	wm	335	diff_vonmises	-0.15613042612196554	-8.945614470367726	0.815025981719521	67.10570193177699	0.7950869964721713	67.71826755574443	0.07008392032992106	-0.16300755178966497	0.23309147211958603	93.9586521226785
0	1.0	ltm	336	diff_vonmises	-0.2740855291764258	-15.703944047418986	0.00029178898450563795	1870.0429470413787	2.3640275488192034e-30	1872.3332883157348	-0.2776698032421905	-0.4513557977127789	0.1736859944705884	177.8458017713026
1	1.0	perception	336	diff_vonmises	0.036938675798833906	2.1164302240752173	10.1964272940065	0.5562338597560946	1.4577591948832542e-13	2.962070439210558	0.22803573054054793	-0.47142815121329995	0.6994638817538479	42.50015844456118
2	1.0	wm	336	diff_vonmises	0.03804499156608872	2.1798174483476958	10.509526832233584	0.2609880803754062	1.7980961246167608e-31	2.774519776129386	-0.10825984573582442	-0.4415785368292141	0.3333186910933897	41.8553161262634
3	2.0	ltm	336	diff_vonmises	-0.012265843351867523	-0.7027810562306083	17.42443271827777	0.2519807492605666	0.011027033954989992	1.7013608096185482	0.14265794938560572	-0.2722552456810805	0.4149131950666862	32.36773308008816
4	2.0	perception	336	diff_vonmises	0.01216955794129798	0.6972643085762891	10.354575867403149	1.0614157064212277	0.15584697469826014	2.771346600474122	0.8328134722088201	-0.4663572214836828	1.299170693692503	41.35870312301407
5	2.0	wm	336	diff_vonmises	0.10403373813354048	5.9606941220210805	2.0791145565158335	0.727173431926913	1.1861177947788353e-14	2.234454654657772	0.028398132795141473	-0.34962021850119424	0.3780183512963357	95.21994816670929
6	3.0	ltm	336	diff_vonmises	-0.016978952396030922	-0.9728223128461085	4.390026807456988	0.42733333398807	0.21086425768463438	0.967656992203884	0.15751540148484725	-0.14895772692190973	0.306473128406757	61.37961700243429
7	3.0	perception	336	diff_vonmises	0.006387120994093086	0.36595507620093665	3.7630370933365076	2.433036807649603	0.5733552984171773	3.122061633367149	0.9955935206019036	-0.42579568740065254	1.421389208002556	63.42208536031512
8	3.0	wm	336	diff_vonmises	-0.20795658790887725	-11.915034809119952	1.3868554612842239	145.5803576953505	1.370425682975073	146.18783257292247	0.17945968358466047	-0.20489096561644615	0.3843506492011066	73.51743397343273
9	4.0	ltm	336	diff_vonmises	-0.00231644787343768	-0.13272268661003372	1.1938371108295234	85.42316823408707	1.1599292455407317	86.90188920630699	-0.012817128006808787	-0.34706976581660065	0.33425263780979186	72.77959746686238
10	4.0	perception	336	diff_vonmises	-0.08490736914071563	-4.864833901322333	3.149162967792451	2.227309807262672	0.3278257031124361	4.007246994265001	0.6376466168538777	-0.5566652250872081	1.1943118419410856	69.64215470762025
11	4.0	wm	336	diff_vonmises	-0.07272657169713992	-4.166925616701702	1.016105745845691	219.42769729658465	1.0028939101428727	221.07651112226446	-0.01635960488863475	-0.3703240168175945	0.3539644119289598	78.72320863668139
12	5.0	ltm	336	diff_vonmises	-0.07122783435124726	-4.081054292183414	2.2684926880923464	0.8394517759341453	2.9847384845133154e-17	1.9341922393198885	0.15925268546668353	-0.30283575103658367	0.4620884365032672	91.28222329112614
13	5.0	perception	336	diff_vonmises	-0.06426180470697879	-3.6819301936038125	1.2084813401829881	5.365723525633681	0.47589027583589955	6.364092580726563	0.5010759503086692	-0.4249018620188683	0.9259778123275375	98.1629507053756
14	5.0	wm	336	diff_vonmises	-0.10085910784005905	-5.778801204690216	0.47311810807446536	134.3378714680788	0.4597270408029745	135.4550263761211	0.06709612441088808	-0.31541987395239346	0.38251599836328154	122.40455850875072
15	6.0	ltm	336	diff_vonmises	0.36437337434146955	20.87705651670665	0.5756726385404783	135.29730156234288	0.564423994198066	136.29533175355115	0.02881787301281946	-0.24581614119620987	0.27463401420902933	109.06999209046967
16	6.0	perception	336	diff_vonmises	-0.12554298734079417	-7.1930833220918275	0.866594614438078	274.46242676275904	0.855841456072877	275.38331951613236	0.2735330497981465	-0.30928087155696105	0.5828139213551076	94.10438866456612
17	6.0	wm	336	diff_vonmises	-0.14762180144241438	-8.458106186768592	0.409297190140078	139.21126411312298	0.3963621929206669	140.3966328695821	0.06081616098433784	-0.3424334283774293	0.40324958936176714	129.7684375763818
18	7.0	ltm	336	diff_vonmises	0.06912548217310428	3.9605983853256856	1.247563540268535	189.9415040556554	1.2330950366790683	191.07438507828556	0.0680844798838649	-0.29193451727603303	0.36001899715989794	73.3999736276667
19	7.0	perception	336	diff_vonmises	-0.14356693413113417	-8.225779403346676	1.6847254357854036	2.3767610149313945	6.876610904157912e-13	2.978738778421253	0.6306998715865706	-0.4360661239588881	1.0667659955454587	104.96930865267969
20	7.0	wm	336	diff_vonmises	-0.38596701419793317	-22.114280944807494	1.0566210283051123	123.16251857763052	1.040149387134228	124.0403473131751	0.07539555600553882	-0.22438176809124677	0.2997773240967856	81.00761309533434
0	1.0	ltm	337	diff_vonmises	0.03678382704145068	2.1075580438143136	6.6633085683789846	0.40770528301345477	0.19397893727059826	2.680602287407369	-0.10177592836351246	-0.45103929982263125	0.3492633714591188	48.59664250247471
1	1.0	perception	337	diff_vonmises	-0.0088470835172673	-0.506900546539172	16.05517394017282	0.5635546463636213	0.03735207959766137	2.767121760629958	0.43610029265557654	-0.4488355917884782	0.8849358844440547	33.630306808357375
2	1.0	wm	337	diff_vonmises	0.03650970717143496	2.091852132181738	3.4386798558744993	0.8280893452583459	0.3185387908515876	3.618253665212602	-0.18643234035034517	-0.5652775143354865	0.3788451739851413	61.21233521581178
3	2.0	ltm	337	diff_vonmises	0.07629943335428228	4.371635510440077	4.017748852282665	0.8563014929286928	0.6136621894682952	1.7788963457582037	0.18291721031932207	-0.2716470238571738	0.4545642341764959	58.264671492284776
4	2.0	perception	337	diff_vonmises	-0.01663875271429954	-0.9533303068912065	6.591191670565403	1.2380584096431742	0.39355197830612326	2.4771351957716368	0.6796584418311278	-0.4204452380371163	1.1001036798682442	49.88194625671957
5	2.0	wm	337	diff_vonmises	0.04501217120444864	2.5790074367352025	2.5877406861927934	1.0779298071261767	0.36672455369515616	2.4062710185471605	0.1137170041132145	-0.32182799947917773	0.43554500359239223	72.27437198885667
6	3.0	ltm	337	diff_vonmises	-0.018059642607520524	-1.034741300925563	1.7605715422728103	66.6773021729982	1.723081806407884	67.01622431333436	0.2547278990857542	-0.17285828451182006	0.4275861835975743	67.41874354953487
7	3.0	perception	337	diff_vonmises	-0.07029050828394202	-4.0273494644992285	5.604104282756506	1.3583845225200877	0.18279530815715853	1.8384046472987454	0.9030335952200532	-0.28758681452419305	1.1906204097442463	56.047101832679175
8	3.0	wm	337	diff_vonmises	-0.12860367556901892	-7.36844783997448	1.571465905170844	191.09677531669914	1.556148361487156	191.8238090667339	0.18311739642591363	-0.2459968097335583	0.42911420615947193	68.24701778780346
9	4.0	ltm	337	diff_vonmises	-0.2023585007787061	-11.594288043214641	1.283631045090811	213.4801683220924	1.2689000501128158	214.57792388701301	0.14381371205494986	-0.3080971788042568	0.45191089085920666	74.08126484315855
10	4.0	perception	337	diff_vonmises	-0.0647041169036436	-3.7072728156998664	3.857245515458328	1.6603486893863897	1.0863081822919285e-15	3.188849071279409	0.7438525866309362	-0.5069625324356488	1.250815119066585	69.75217262476272
11	4.0	wm	337	diff_vonmises	-0.061554476516976986	-3.526811714559917	0.9971118996080056	214.61887941884837	0.9838545816201308	216.31153215253087	-0.03457064644852892	-0.37355357741241235	0.33898293096388343	78.8954214346025
12	5.0	ltm	337	diff_vonmises	-0.05017015247507424	-2.874537994349575	2.9718089118415256	0.8787454213863025	1.8703805670399116e-16	1.4725320836735905	0.33808450105426713	-0.23285948678604054	0.5709439878403076	79.71617171819707
13	5.0	perception	337	diff_vonmises	-0.08018306603078687	-4.594151271982885	1.6813185069790406	2.711976757536579	0.2700051111008104	3.621387063933863	0.5175714258615105	-0.3963655833303651	0.9139370091918756	93.4980702935774
14	5.0	wm	337	diff_vonmises	-0.13076473224859114	-7.492267267002524	0.34890008804876504	120.333410033915	0.3331152960794521	121.17927296330367	0.16087608324382074	-0.3377965073982079	0.4986725906420286	139.47282263948438
15	6.0	ltm	337	diff_vonmises	0.050392432839889395	2.887273721122112	0.7401971800050408	29.589333308796864	0.6934724645953538	29.976863666080277	0.153889267993625	-0.15603246399435866	0.3099217319879837	104.51285883476709
16	6.0	perception	337	diff_vonmises	-0.17972992424011838	-10.297766111164814	0.8080392047393771	153.77726926906274	0.7899500339664721	154.59042384104586	0.28585586138284214	-0.29751013091407685	0.583365992296919	98.44313054086236
17	6.0	wm	337	diff_vonmises	0.41205073409505516	23.608768008913994	0.00031008028288315127	4152.031766959703	5.1295813991157656e-30	4152.404991293717	0.1455167365837724	-0.2642859661516468	0.4098027027354192	174.77922932881148
18	7.0	ltm	337	diff_vonmises	-0.16931994610501255	-9.701318299199782	1.04182617702716	143.09196542597635	1.0264794553024528	144.02143216499888	0.09184337135819476	-0.24107247252131003	0.3329158438795048	81.9665864938236
19	7.0	perception	337	diff_vonmises	-0.11344786183799561	-6.500083678100423	1.2024906417888361	3.6305952052886363	0.29714305445568834	4.754989387810484	0.3815977528899336	-0.4263227660832628	0.8079205189731964	104.28672452917219
20	7.0	wm	337	diff_vonmises	-0.1123627216677645	-6.4379097261660725	1.0186536828310828	115.55049130367037	1.0037661635696367	116.41998084122665	0.027354324199045266	-0.2061434364379231	0.23349776063696837	80.64208239318256
0	1.0	ltm	338	diff_vonmises	0.021187115318683013	1.213932287817511	7.740590254571771	0.47540473565526414	0.12208111034224256	3.0821409270892737	-0.03362040198273908	-0.5090127831215632	0.4753923811388241	46.665696655368976
1	1.0	perception	338	diff_vonmises	0.026496329706450602	1.518127864766727	17.569447773404097	0.6473186754815773	6.397695260807558e-18	2.8090950572512847	0.6267940281018016	-0.44708136397655207	1.0738753920783537	32.31532077463916
2	1.0	wm	338	diff_vonmises	0.1314881481955636	7.533715947596505	4.8530167306094585	0.4680440559494299	1.6311910968148678e-13	3.490667944715651	-0.15617604809501479	-0.5555327220361528	0.399356673941138	62.007025526798884
3	2.0	ltm	338	diff_vonmises	0.1796676024559771	10.294195335961792	4.736030531334075	0.8490874792189038	0.6355760141178969	1.7641357414063426	0.2348248454533592	-0.2864185278604984	0.5212433733138575	54.64368633246917
4	2.0	perception	338	diff_vonmises	0.005281237387664542	0.3025926129198745	5.798778806776673	1.3510720859258165	0.38058638641416	2.3635950545338176	0.736188937878018	-0.38546642687141613	1.121655364749434	53.241324687643186
5	2.0	wm	338	diff_vonmises	0.09340427913227933	5.351670982741473	3.1921281946959628	0.856595535234958	0.2036336040252523	2.173489386842914	0.16141741453552694	-0.31858272289260653	0.48000013742813347	70.0709196477452
6	3.0	ltm	338	diff_vonmises	0.1430965193908105	8.198826624105388	4.599840745901855	0.6550469411975852	0.6073344082767674	1.1450120058240298	0.23754835463188922	-0.17863886096893294	0.41618721560082217	56.556863401924915
7	3.0	perception	338	diff_vonmises	-0.0696113975351605	-3.9884392847720784	5.516236676038357	1.066955875824737	8.971185705784027e-13	1.3707773999694068	0.756576591719007	-0.21815023939100678	0.9747268311100138	58.06489363187637
8	3.0	wm	338	diff_vonmises	0.02483160726124443	1.422746294595715	3.345007343594471	1.0992251232720656	0.5668347553275781	1.8631467222736982	0.2824560788522885	-0.25426888872151016	0.5367249675737986	64.54139374425031
9	4.0	ltm	338	diff_vonmises	-0.13320263320053016	-7.631948702419555	1.1062566663661848	146.26117526253023	1.0843319100415596	147.66235483674149	0.09962840067419165	-0.3542236358098627	0.45385203648405437	78.72143794332669
10	4.0	perception	338	diff_vonmises	0.0021217497751776877	0.12156730730051278	2.0222988763660013	2.3685267141534427	3.003898448711158e-12	4.202952303442503	0.5611746953333447	-0.6473731669874766	1.2085478623208212	96.50894549277521
11	4.0	wm	338	diff_vonmises	-0.06535145800502085	-3.7443627287141332	1.2401459295423847	300.65195194890833	1.2243532311239198	302.6460471672632	0.10776189789628177	-0.5094075646669296	0.6171694625632114	73.46810845277665
12	5.0	ltm	338	diff_vonmises	-0.06352496322414539	-3.6397122864672973	2.270876826264379	0.8640720466079712	8.311750175096025e-13	1.3522638662046167	0.2658492528701698	-0.2100933727351782	0.475942625605348	91.23773792578044
13	5.0	perception	338	diff_vonmises	-0.029391777425971297	-1.6840247988960417	1.8526157182026488	2.4041622326222725	0.17689149797992249	3.236516510761555	0.5740034431186298	-0.40147741284793975	0.9754808559665695	93.16168137753726
14	5.0	wm	338	diff_vonmises	0.10829776524311253	6.205004879128926	1.2933073110318958	1.4402531579837072	1.2485854601861084e-11	2.0226336568001893	0.24878039420364617	-0.2789528710540894	0.5277332652577356	117.2409914836399
15	6.0	ltm	338	diff_vonmises	0.2678174478661056	15.344809442692807	1.0231162596976027	72.65522223824334	1.004965087529224	72.90096327009834	0.16495196759992936	-0.11425407720575809	0.27920604480568745	89.20648584843065
16	6.0	perception	338	diff_vonmises	-0.28113823231108503	-16.108034171193644	0.8832855898314186	2.490666949019411	4.1744276047056496e-06	3.0965483053726093	0.3030289372644127	-0.35680132388252267	0.6598302611469353	132.8805594841967
17	6.0	wm	338	diff_vonmises	0.3210227122139948	18.393246537704727	0.4111538587107896	137.7109730565793	0.3991402722179003	137.89209116793083	0.2625339870505954	-0.22066504249965568	0.48319902955025107	134.51935294975087
18	7.0	ltm	338	diff_vonmises	-0.0841915551411398	-4.823820780230259	1.217652283404236	1.0687721441488778	0.05168594105460662	2.2284886554782593	0.03544987829686236	-0.3007944550221788	0.33624433331904113	115.4439349236897
19	7.0	perception	338	diff_vonmises	-0.01530087441064404	-0.8766755265896243	0.9888818348196298	193.3686051465216	0.9679364005584402	194.35786797132567	0.43551634247889126	-0.37775290593608446	0.8132692484149757	89.48486705333369
20	7.0	wm	338	diff_vonmises	0.14294089859667583	8.189910209396997	0.8604229781617302	120.1529817514333	0.8399464864337389	121.41601388440495	0.07631459515565098	-0.3082719886973404	0.3845865838529914	89.54980257184516
0	1.0	ltm	339	diff_vonmises	-0.36397771017288894	-20.854386629742425	12.437161213185405	0.12273326998948494	2.872409444957665e-32	2.450467009593019	-0.21913691051708636	-0.3900039374576529	0.17086702694056652	38.44219013436984
1	1.0	perception	339	diff_vonmises	0.020847224880662492	1.1944580002220822	12.017815662660697	0.6235270530165059	2.563487576423749e-14	2.9442479814803355	0.3843593565795974	-0.46859161990984133	0.8529509764894387	39.11540691445208
2	1.0	wm	339	diff_vonmises	0.05318071433636619	3.047030482964653	10.320898502383933	0.28534349415442584	0.03897372859509633	2.916903303252861	-0.12143792655455593	-0.4711436310632207	0.3497057045086648	41.48006887346261
3	2.0	ltm	339	diff_vonmises	-0.0019398901307516045	-0.11114751721114838	10.031812362673795	0.3252723874054904	0.09073696703796547	1.6003867633569966	0.12729553329522142	-0.2633087362850543	0.3906042695802757	41.95243009178682
4	2.0	perception	339	diff_vonmises	-0.003281909725308386	-0.18803957600310983	9.483640035939976	1.1402542400624316	0.20317610878411105	2.5828091306872993	0.8828556221801789	-0.43856790825362524	1.3214235304338042	43.0228336364942
5	2.0	wm	339	diff_vonmises	0.060270658903491786	3.4532543836426575	3.067562860028486	0.6050940189060721	3.9543957915008456e-11	1.9974600562127045	0.08342078724394736	-0.3170364212121865	0.40045720845613386	78.44308370089743
6	3.0	ltm	339	diff_vonmises	0.03612090813496899	2.0695755883134845	4.3089928698341655	0.5115301645515246	0.35686651279895293	0.8819156987338795	0.21520369310147044	-0.1330548928852944	0.34825858598676485	60.89454021220459
7	3.0	perception	339	diff_vonmises	-0.020618157841018867	-1.1813334256249464	4.993295341646031	1.5237083081645668	0.30179831136678387	1.8965281262903195	0.9212468682344975	-0.2898064360549176	1.2110533042894152	58.419761518535125
8	3.0	wm	339	diff_vonmises	-0.15202553579435932	-8.710421579231816	1.6145833425904934	118.19149928523287	1.5951254357306346	118.5729771209494	0.2218048868451632	-0.16919158592201633	0.3909964727671795	69.75613387298114
9	4.0	ltm	339	diff_vonmises	-0.0647157781401388	-3.7079409553349456	1.2554689674722614	144.72291530995744	1.234249588784823	146.0418550092505	0.05495688796431608	-0.3335091263154304	0.3884660142797465	72.67560923367691
10	4.0	perception	339	diff_vonmises	-0.08223661722148015	-4.7118110882236754	4.315728056799559	1.5457212404651777	4.733175684561928e-14	3.206847126519105	0.7280736409701823	-0.5101646008824916	1.2382382418526738	65.84500173106335
11	4.0	wm	339	diff_vonmises	-0.11735838849266517	-6.724140351086401	1.1229436997725382	229.957433269784	1.1095027119227623	231.4314534276375	0.04346544625438753	-0.35588620674952054	0.39935165300390807	76.49257206359536
12	5.0	ltm	339	diff_vonmises	-0.07018805331355185	-4.021479227105734	2.9151681522827304	0.7702541037026206	2.4990447036076696e-16	1.6278432339089686	0.23720285096908328	-0.25762167179107587	0.49482452276015915	80.50089450701483
13	5.0	perception	339	diff_vonmises	-0.06296734127413713	-3.607762902167969	0.9747662431864469	18.353357340903525	0.7494911331347929	19.161589413079547	0.5502887821619726	-0.3982830235093784	0.948571805671351	96.98785916630173
14	5.0	wm	339	diff_vonmises	-0.1367523798721663	-7.835334205044917	0.5294182335381343	157.5981819254681	0.5176220562715933	158.38063345347314	0.15303436287857863	-0.27483394972781383	0.42786831260639246	119.38359488877985
15	6.0	ltm	339	diff_vonmises	0.14234579280177279	8.155813158985275	0.8505101912327468	111.22698589168715	0.837060909351493	111.81474956843735	0.102860722601811	-0.16948781227813647	0.2723485348799475	93.13209361908952
16	6.0	perception	339	diff_vonmises	-0.19561290052343855	-11.207793618305441	0.7575275426077578	209.92612699738265	0.7463060026338503	210.58148741806406	0.25743865498568397	-0.2572490353520571	0.5146876903377411	101.95692661568862
17	6.0	wm	339	diff_vonmises	0.0958561970406009	5.492155530600844	0.2817023557914954	91.8892243917995	0.26727037789487734	92.4480809276936	0.12134690363597045	-0.24570485667878295	0.3670517603147534	147.44658228728872
18	7.0	ltm	339	diff_vonmises	0.00024306084816201105	0.013926360764553366	1.1851522837846504	166.60241487348466	1.1715471546226228	167.53204808470574	0.0724593007225991	-0.2408319988620704	0.3132912995846695	75.94394116723586
19	7.0	perception	339	diff_vonmises	-0.15105159317077094	-8.654618777412303	1.8290408911754394	1.9435375227273588	5.466147369212419e-16	2.561752495122737	0.5420119514331394	-0.3832281454726454	0.9252400969057848	101.12854389825522
20	7.0	wm	339	diff_vonmises	-0.29819244556407914	-17.08516861350628	1.0344457839800403	82.01290102739243	1.0157850496834069	82.64160172424096	0.07214434885505838	-0.16622542951540709	0.23836977837046547	82.77013137559082
0	1.0	ltm	340	diff_vonmises	0.39441049683929885	22.59805686454972	0.7096007616525446	127.3485283331876	0.6954671567851956	129.67637758533368	-0.31730254720865503	-0.416985439329963	0.09968289212130799	75.19443764904344
1	1.0	perception	340	diff_vonmises	-0.02380080831040516	-1.3636858651861115	12.746144657376824	0.6204542912997902	1.1673166515801626e-17	3.035505360935053	0.39137652687614466	-0.48311568296733454	0.8744922098434792	37.97672357562723
2	1.0	wm	340	diff_vonmises	-0.0014384057808949227	-0.0824145804724985	10.289733355515075	0.29700075864181535	0.13576761768768922	3.178075692803518	-0.2014641958895954	-0.5401861268696485	0.3387219309800531	40.09785737297878
3	2.0	ltm	340	diff_vonmises	-0.05111106764955304	-2.9284484627270255	11.373119923953203	0.3564270056073154	0.15837398233609196	1.5345432600013706	0.18968050733040553	-0.26207360383973133	0.45175411117013686	39.1663846974356
4	2.0	perception	340	diff_vonmises	-0.02414132733094427	-1.3831961679069311	9.569569893569247	1.1046663284982166	0.20683657393806484	2.5391547673496104	0.8525657772003351	-0.4322834151198433	1.2848491923201784	42.81140578543224
5	2.0	wm	340	diff_vonmises	0.03589837860321145	2.0568255853267554	3.2948810726602913	0.5257055887742238	1.0540942671600125e-13	2.061661609664361	0.034944188092856154	-0.32762464617097103	0.3625688342638272	75.62199364975245
6	3.0	ltm	340	diff_vonmises	-0.9683475522664617	-55.482227846692155	0.0001491957184677171	7914.263454670593	4.1951841156847506e-30	7914.4080895040215	0.16490705755745694	-0.21093173802910314	0.3758387955865601	154.96970377696604
7	3.0	perception	340	diff_vonmises	-0.026594537581375366	-1.5237547615148646	4.116017017669677	2.1311704684650543	0.6018031983708719	2.553321378092992	0.9851518282906652	-0.3576740738846839	1.342825902175349	61.20899847295317
8	3.0	wm	340	diff_vonmises	-0.27768428390086386	-15.91013750463205	1.7717452654345793	113.7275488248532	1.7499681847722166	114.15523370694892	0.2053477632754408	-0.18243234806082675	0.38778011133626755	65.82284172311455
9	4.0	ltm	340	diff_vonmises	-0.12007393030821495	-6.879729436208697	1.331821632874521	147.56040575805036	1.3108310488456385	148.59943878536973	0.14589817628584	-0.2975762838033411	0.4434744600891811	72.91430910662407
10	4.0	perception	340	diff_vonmises	-0.11753400513579929	-6.734202443550241	3.9930969571228156	1.9409734412851403	0.12918510351150134	3.2655326090722085	0.9019252766896987	-0.492582631135784	1.3945079078254827	66.09836722373333
11	4.0	wm	340	diff_vonmises	-0.24637621963413628	-14.116317557424216	1.0577082281354475	157.85164741318482	1.0395325763987944	159.2792839032621	0.04175082793266682	-0.3397373409435822	0.38148816887624903	79.02635686648273
12	5.0	ltm	340	diff_vonmises	-0.04966870289437138	-2.8458070497366963	3.484549519425283	0.7891469452073248	0.002617753268292537	1.451790410601619	0.33065531441706253	-0.2299262860637614	0.560581600480824	73.38994647019925
13	5.0	perception	340	diff_vonmises	-0.05608215236109518	-3.2132706363003987	1.3124876467024713	5.046908764785462	0.5155328987472935	5.700670692524727	0.5942570420566555	-0.37672631268576884	0.9709833547424244	95.72421744875433
14	5.0	wm	340	diff_vonmises	-0.3438297978282656	-19.69999628639598	0.47869843443074533	115.71320301842209	0.461664710321403	116.59984844293733	0.1541464743867067	-0.31247874101399553	0.46662521540070223	124.3003863282188
15	6.0	ltm	340	diff_vonmises	0.11497430575435295	6.587542472171119	0.7293897640701454	76.0614651606099	0.7136042137630046	76.48253972433213	0.10811671773774734	-0.14157615494795728	0.24969287268570461	102.51659881231174
16	6.0	perception	340	diff_vonmises	-0.13465797795292353	-7.715333814468207	0.8493133798528044	184.0894052229621	0.8369070730093634	184.66720294922186	0.2563497928349108	-0.22991770975614934	0.4862675025910601	96.6032737569682
17	6.0	wm	340	diff_vonmises	0.22149688833785583	12.690836877039603	0.00025354218736425713	3865.0641467971345	4.9963973323651575e-30	3865.5159043460744	0.084073138610961	-0.2278522618983061	0.3119254005092671	178.35866673337895
18	7.0	ltm	340	diff_vonmises	-0.026644899560456625	-1.526640290364147	1.2926565014488078	123.39092874289304	1.2777429211877027	123.97802934918212	0.10434515299940728	-0.17336898474890994	0.2777141377483172	74.69376103761962
19	7.0	perception	340	diff_vonmises	-0.19858717511452287	-11.37820699948757	1.2715300167218684	2.473134696794379	0.11970403333928518	2.969246525439547	0.43936873875770377	-0.34147854571803726	0.780847284475741	112.21363742154
20	7.0	wm	340	diff_vonmises	-0.4737635049968046	-27.144649323641993	1.286297200439758	67.44898084049537	1.2681057876310629	67.85409795799751	0.06523396664472259	-0.11737223884006198	0.18260620548478457	74.63808763430966
0	1.0	ltm	341	diff_vonmises	-0.09041052550139826	-5.180141534790021	1.639171494220274	0.49605328354233824	5.112648632044897e-18	3.08895992897357	-0.2648593671365198	-0.48307622336051936	0.21821685622399956	106.28284715071648
1	1.0	perception	341	diff_vonmises	0.05838946081778611	3.3454696729036324	12.062317450852948	0.7065465039177269	1.8950699938275494e-20	3.0979848405212076	0.47514074138300716	-0.4930596009604253	0.9682003423434324	39.04513802296543
2	1.0	wm	341	diff_vonmises	0.1180897138993991	6.766042210342944	8.250290323852937	0.3728197908994445	8.167482146712125e-32	3.1437516339417426	-0.080031914300211	-0.5003435837189504	0.4203116694187394	47.31338666068709
3	2.0	ltm	341	diff_vonmises	0.14694851031369696	8.419529446709484	6.42662776901439	0.48109246566685315	0.19622931994990442	1.8027806814566187	0.13042575605583373	-0.2973295210038525	0.42775527705968625	50.811524902537144
4	2.0	perception	341	diff_vonmises	0.014172947582333973	0.8120500797278805	7.842507513240259	1.2321725342068233	0.18515698398757469	2.576944158551005	0.8638153541122938	-0.42582014771268395	1.2896355018249777	47.27881938601095
5	2.0	wm	341	diff_vonmises	0.07978074349184174	4.571099888498342	2.6986006688732926	0.7443762537420744	3.370200286237944e-16	2.123863544330316	0.1206741113020135	-0.3359455167575877	0.4566196280596012	83.71648911727422
6	3.0	ltm	341	diff_vonmises	0.16576828764138035	9.497823258961738	6.976395062157709	0.3833167148017466	0.15536654113669537	0.9722485534581293	0.2163604444007923	-0.15819938616113052	0.3745598305619228	49.984431866935324
7	3.0	perception	341	diff_vonmises	0.003111322281413728	0.17826563543002122	4.873835820639423	1.3214890346222345	0.06483792463433398	1.6924601480856403	0.8432563104031509	-0.26236425929570656	1.1056205696988575	61.07624639775415
8	3.0	wm	341	diff_vonmises	-0.023390587764670113	-1.3401819592459399	1.3678238521515846	57.22527523400349	1.3222936565881147	57.735868350106585	0.26479785864385263	-0.20756545301699347	0.4723633116608461	76.29191958543296
9	4.0	ltm	341	diff_vonmises	0.08830986847273704	5.059782752843241	2.909613860923155	1.1286926298690678	0.48690026330611824	2.767164889965647	0.05043501668341477	-0.38733263714542787	0.43776765382884264	65.54827750615914
10	4.0	perception	341	diff_vonmises	-0.040411023601153166	-2.3153810981496377	3.0111906710250427	1.7405158364542332	1.8042733938525776e-09	3.7126464853231047	0.5514473407755697	-0.5881168952421001	1.1395642360176699	79.1860859155912
11	4.0	wm	341	diff_vonmises	-0.09467218604609443	-5.4243166977185355	1.2315101568644686	328.1971989649619	1.2179325978740254	329.916842112186	0.1623394306560897	-0.4585091310867142	0.6208485617428039	74.85670637207679
12	5.0	ltm	341	diff_vonmises	-0.11797399444677147	-6.759411974099816	1.7216908141954304	0.9510819820320512	5.2901738085183936e-17	1.8222364016800419	0.1579501107918238	-0.27570203345823824	0.43365214425006204	103.96977964847564
13	5.0	perception	341	diff_vonmises	-0.01220937535891014	-0.6995456785565757	1.5688182669529653	3.284381778257855	0.30514604728092465	4.170165098680453	0.5819417419559629	-0.4222441960127022	1.004185937968665	95.26821309685772
14	5.0	wm	341	diff_vonmises	0.11495712909021787	6.586558321810065	0.6599150586275541	158.41198433761014	0.6473522447796338	159.1325376795261	0.18050214435594114	-0.24977250036087106	0.4302746447168122	107.77173236288309
15	6.0	ltm	341	diff_vonmises	0.3393273685491213	19.442026091144882	0.9753890631428896	133.93861084537986	0.9628321089028993	134.54781404409462	0.11505828781717042	-0.17648790479390364	0.29154619261107406	86.89910508862391
16	6.0	perception	341	diff_vonmises	-0.25175807054966376	-14.424674900852558	0.49006354051776874	188.7152078481052	0.47769976586965013	189.4202893274776	0.26390933952574613	-0.33264911623859916	0.5965584557643453	125.1619635689182
17	6.0	wm	341	diff_vonmises	0.04672344995156248	2.677056486515261	0.5684137424092509	162.4008545452585	0.5569317871124858	163.03782778074685	0.18753268947877189	-0.2526244904710264	0.4401571799497983	116.84897126212836
18	7.0	ltm	341	diff_vonmises	0.1323673876469105	7.584092657340081	2.6456333231942737	0.5352329896774355	5.535622643874115e-18	1.7525642597139242	0.04711429830963604	-0.27728728349369797	0.324401581803334	84.55060909973676
19	7.0	perception	341	diff_vonmises	-0.05950686400114277	-3.409492159324452	0.9845336110215592	127.68584022930327	0.950838542963279	128.26290877058608	0.6241427134888866	-0.36239467647859414	0.9865373899674807	92.63821736421156
20	7.0	wm	341	diff_vonmises	-0.028976955151220743	-1.6602572333048187	1.1029279389689437	2.886454141610702	0.45645933945151573	3.890095180561021	0.11394741986001189	-0.26893264060522293	0.3828800604652348	97.03598285163903
0	1.0	ltm	342	diff_vonmises	-0.15991140556844	-9.162248635076423	6.636641001412083	0.22130503774644528	7.441365285870991e-15	3.927566261605314	-0.4022811932550381	-0.6250912016378573	0.22281000838281917	52.84429071561783
1	1.0	perception	342	diff_vonmises	0.0856703533969633	4.908549679040252	12.199617100457683	0.6942690916795743	0.024745275120575408	4.10080852249607	0.28817932862444195	-0.6587133126866486	0.9468926413110905	38.57218148355727
2	1.0	wm	342	diff_vonmises	0.22187295769007753	12.712384063726125	24.42631378677917	0.2717922805199541	2.710112174115506e-35	4.54283928026527	-0.19008252650056634	-0.7230153271262459	0.5329328006256796	27.374297509296525
3	2.0	ltm	342	diff_vonmises	0.09553951004150964	5.47401070212625	8.961586329420841	0.45815711848489554	0.1295957325630826	2.04170202957186	0.17057967781777977	-0.3392533899859456	0.5098330678037254	44.02351241822592
4	2.0	perception	342	diff_vonmises	0.020774736523194448	1.1903047232753274	8.109790968885342	1.27297660274699	0.20514098107373904	3.2269650776879804	0.7985182114361747	-0.5411039019154954	1.3396221133516701	46.20114860010466
5	2.0	wm	342	diff_vonmises	0.0833274616372594	4.774311869353241	3.151709923202466	0.7580783132764152	0.006256346086917878	2.863740448192187	0.051964571309555174	-0.45199697164336106	0.5039615429529163	76.85644275759265
6	3.0	ltm	342	diff_vonmises	0.09190179034747276	5.265584716606316	4.1967365529543175	0.6106689303511676	0.41649079971865904	1.277258100992166	0.186572910529978	-0.19542410991782797	0.3819970204478059	59.95147007895187
7	3.0	perception	342	diff_vonmises	0.0055406293256904295	0.31745467620847684	3.7734516855707536	2.019348714288279	0.3878924757367788	2.783009063897837	0.8747459378746092	-0.3934766046339251	1.2682225425085343	65.02182711804261
8	3.0	wm	342	diff_vonmises	-0.05087945483378833	-2.915178025902567	1.2195168370141702	146.324150591543	1.1988348081757192	147.33889291243824	0.17374208446542383	-0.2933978962608528	0.4671399807262766	77.02679813262239
9	4.0	ltm	342	diff_vonmises	-0.03931558304156717	-2.252616977377911	1.0040885549072232	186.62747706440226	0.9843312989798643	188.66332257557818	0.008229928632111694	-0.4642269649573052	0.4724568935894169	80.09465428508753
10	4.0	perception	342	diff_vonmises	-0.09288183450701253	-5.321737110684391	1.1155824890009138	189.60274341318168	1.0794836346946406	191.62217599371976	0.5614488756208402	-0.6475594333398753	1.2090083089607155	82.73191336537144
11	4.0	wm	342	diff_vonmises	-0.11868938249906795	-6.800400690210489	0.990697723587409	300.49785967749074	0.9772009783970356	302.73958932670945	0.011916916807166444	-0.511089078764023	0.5230059955711894	80.59368370400136
12	5.0	ltm	342	diff_vonmises	-0.12613223365305232	-7.226844648877868	2.370523796343368	0.8298249453384983	2.1295311902774932e-17	2.11437568227462	0.13743989529560163	-0.33237581455582826	0.4698157098514299	89.3162272856471
13	5.0	perception	342	diff_vonmises	-0.025402693282909325	-1.45546711337603	0.8700102808006936	149.30926149811214	0.836085852524032	150.7277201570821	0.5258891806414425	-0.5199602772516538	1.0458494578930964	95.39203264055007
14	5.0	wm	342	diff_vonmises	0.004439120074429648	0.2543428450166187	0.48598588999430226	194.32064246457992	0.4745536999117059	195.84274981327516	0.04554658640135756	-0.3974527878954035	0.44299937429676106	119.46144447601151
15	6.0	ltm	342	diff_vonmises	0.37100145133086415	21.256817354486735	0.7411457684813904	161.09802022256846	0.7299348639165535	162.20650249467846	0.022905035885237623	-0.25577263401462247	0.2786776698998601	94.79301444766449
16	6.0	perception	342	diff_vonmises	-0.1362485546932382	-7.806467148679914	0.5614737589359545	301.03429331969863	0.5514403937189136	302.3035804296345	0.24351695931645168	-0.431863032125019	0.6753799914414707	115.92809790341194
17	6.0	wm	342	diff_vonmises	0.19146161773761508	10.969942635112446	0.2450128081072769	96.74193653236557	0.22685354198986202	98.19663643383676	0.02143941692332163	-0.425489124882688	0.4469285418060096	149.92804496288642
18	7.0	ltm	342	diff_vonmises	0.1479897556836735	8.479188411846678	2.837894282801788	0.7192196106930464	0.27468353033735604	2.249594345203279	-0.00618220354950183	-0.3256810901169624	0.31949888656746056	69.70322589117146
19	7.0	perception	342	diff_vonmises	-0.054196595401912434	-3.1052361805077062	1.4355288530384933	3.017591400461385	0.2222521139912008	3.9441483095513434	0.4984444496874404	-0.4245750132141667	0.9230194629016071	101.60368588839101
20	7.0	wm	342	diff_vonmises	-0.2284882391612122	-13.091411772313236	0.8393191500899033	116.78933038872657	0.8175156934457162	118.18263501450247	0.05839878979720936	-0.3307337848321268	0.38913257462933615	90.02012437659845
0	1.0	ltm	343	diff_vonmises	0.014213731542847307	0.8143868285371227	6.55930925170567	0.679632267901781	0.2065061375514075	4.207406725256788	-0.1344490650235074	-0.7091394511102312	0.5746903860867238	48.888671094719655
1	1.0	perception	343	diff_vonmises	0.024247592826837874	1.3892847323294994	17.644836936042896	0.69739426492822	0.0016674715068995987	3.5955031133062088	0.5865173414485078	-0.5726025558025281	1.1591198972510357	32.2303398969579
2	1.0	wm	343	diff_vonmises	0.1470722955722134	8.426621819588412	4.235122853589166	0.6205100508722413	0.06361736124327902	4.695841994495939	-0.3035678206519041	-0.7404997850774294	0.43693196442552534	62.482447439117124
3	2.0	ltm	343	diff_vonmises	0.06517314887562449	3.73414636815107	1.4094524115875022	59.68580137708843	1.3439598952341922	60.98063298756769	0.1757795792457344	-0.3741504503900641	0.5499300296357985	71.25409619679522
4	2.0	perception	343	diff_vonmises	0.0037874463611260105	0.21700469162470187	4.597473603824442	1.5797200755593601	0.3968387364849668	3.067022804595989	0.6114757717205834	-0.476889323152453	1.0883650948730366	58.33094187194567
5	2.0	wm	343	diff_vonmises	0.10317589525858555	5.911543345800793	4.561896838211176	0.690144019065266	0.061597124400633294	2.2960904702508946	0.18149370476322207	-0.3592306584979988	0.5407243632612209	62.16230639682075
6	3.0	ltm	343	diff_vonmises	0.0925330739039097	5.301754600066162	5.658499548498154	0.6034515777023844	0.08240108147054503	1.4445127452577284	0.3094968376611825	-0.22797903997791372	0.5374758776390962	56.08358121723583
7	3.0	perception	343	diff_vonmises	-0.0697327751165451	-3.9953937079129216	5.694796629448376	1.1353140389980168	1.4935747832365597e-13	1.7640680796456751	0.7740357904966716	-0.2807482223393509	1.0547840128360224	57.13115781991385
8	3.0	wm	343	diff_vonmises	-0.026091750797575423	-1.4949472008081712	2.2986685314086373	2.1736729228240037	0.7630726706657001	3.1957794650516154	0.2711126279366809	-0.323031229260515	0.5941438571971959	70.7718132646894
9	4.0	ltm	343	diff_vonmises	-0.22796590269460315	-13.061484097290762	0.8989655395127345	115.63765205541145	0.8645779474225378	117.4549799923155	0.18373256269577354	-0.47029810944845174	0.6540306721442253	89.20302981749393
10	4.0	perception	343	diff_vonmises	0.009028884587783616	0.5173169805907173	1.9665141213442392	2.4586862966583136	4.288676503563753e-14	4.768136189768275	0.4965518222223436	-0.7342824360641477	1.2308342582864913	97.804963993863
11	4.0	wm	343	diff_vonmises	-0.13186365289007337	-7.555230781779264	1.4457263239785332	5.372796329139413	0.6796457845907473	7.74872752081356	0.10097442771470355	-0.5666542525551503	0.6676286802698539	80.07813325877848
12	5.0	ltm	343	diff_vonmises	-0.04091544178544661	-2.344282131219304	2.300830236166561	1.1135410254180051	1.512808158987118e-11	1.6691748260641583	0.3591597357438603	-0.2593867641162051	0.6185464998600654	90.65356081610932
13	5.0	perception	343	diff_vonmises	-0.030897445836934052	-1.7702932441903767	1.9072750770640734	2.500096442552714	0.17152377820082837	3.547399772454492	0.5878695992728739	-0.448292111782836	1.0361617110557098	91.85155123033701
14	5.0	wm	343	diff_vonmises	0.008035718892771014	0.46041277790931806	0.48595356925019895	207.61436949858322	0.47373880697519977	208.30445106398625	0.30552720242494047	-0.35576132246440295	0.6612885248893434	126.25413147618117
15	6.0	ltm	343	diff_vonmises	0.1515159709960847	8.681225666902245	2.383485983691477	0.5737257183011794	6.587285898483058e-10	0.7339679535470159	0.21192154911602318	-0.11401815936771037	0.32593970848373355	89.06744130493337
16	6.0	perception	343	diff_vonmises	-0.22200142226875	-12.719744541900983	0.6292361159094769	2.915556997539926	2.557851367874963e-10	3.5726386668544605	0.2217897448897922	-0.3440588245272167	0.5658485694170089	144.93330660094216
17	6.0	wm	343	diff_vonmises	0.47855093164100604	27.418948665083214	0.35400537588782044	119.14370965593326	0.3430350470109401	119.07886842867383	0.2510256309718244	-0.1597887092041308	0.4108143401759552	139.43782539404233
18	7.0	ltm	343	diff_vonmises	-0.05864362594958682	-3.3600322622551992	0.3696365517744693	117.6998898837604	0.3543950435355948	118.93868041714983	0.05384238388557705	-0.36079302713194217	0.4146354110175192	134.76255007381423
19	7.0	perception	343	diff_vonmises	-0.061091771091422116	-3.500300646517818	0.9452863090800372	207.74308428883293	0.9262751736399754	208.8219370628923	0.3970847696128459	-0.38581715346786183	0.7829019230807077	90.93118742481812
20	7.0	wm	343	diff_vonmises	0.09770103704482498	5.59785707671978	0.9255082781797628	207.7656822938018	0.9120851759519785	208.86215985856873	0.17423639521150847	-0.3065214409260619	0.4807578361375704	88.74724238356555
0	1.0	ltm	344	diff_vonmises	-0.16903920359823518	-9.685232938431515	5.538162473737971	0.3104512596809225	1.1486651149998186e-09	2.985358368374443	-0.19094263864820227	-0.4751301422537899	0.28418750360558764	57.953667349427974
1	1.0	perception	344	diff_vonmises	0.020023865265408277	1.1472829692465003	12.06156965243319	0.7382234423914695	2.2989195755457213e-16	3.2851812694550104	0.4889047351721225	-0.5228528379528999	1.0117575731250223	39.04329360232009
2	1.0	wm	344	diff_vonmises	-0.25762948584686046	-14.76108221715048	0.00015201398990287362	6973.229014851266	4.7870602183415936e-29	6976.279956184257	-0.31685869589682625	-0.6542732699617773	0.337414574064951	178.10098357714168
3	2.0	ltm	344	diff_vonmises	0.10721228285057806	6.142811319300938	5.116136633583371	0.6531387232248395	0.2963491351301108	1.9876296448563808	0.15705002946356633	-0.32273401674683955	0.4797840462104059	55.312402567910425
4	2.0	perception	344	diff_vonmises	-0.008467870337224436	-0.48517323178698135	6.8443564576219185	1.2127571893490174	0.1475821135247097	2.591158610355584	0.765164155122984	-0.4184808492783784	1.1836450044013624	50.6973068264175
5	2.0	wm	344	diff_vonmises	0.06969334171837617	3.993134340625983	2.2277320980626163	0.8167006638088343	2.5670397419983332e-21	2.349210519745116	0.07565246675044551	-0.3686670812812264	0.4443195480316719	92.09216795456226
6	3.0	ltm	344	diff_vonmises	0.12933717560220442	7.410474296148715	6.736743715898766	0.38296579214911386	1.6647476863500283e-14	0.950985604153723	0.23718782286982382	-0.15135351253465043	0.3885413354044742	52.44831768119485
7	3.0	perception	344	diff_vonmises	0.0015013600689634341	0.08602159548107499	3.5504192224794506	2.1557178390455025	0.42760682218414375	2.722203725332861	0.9171123256476943	-0.36988553704951105	1.2869978626972054	66.66744385905932
8	3.0	wm	344	diff_vonmises	-0.12034294454736114	-6.895142816740696	1.3204506648127934	103.4976436972287	1.2923014622184135	104.20985479224532	0.24690300696496337	-0.24880912397326327	0.49571213093822664	76.1805789174937
9	4.0	ltm	344	diff_vonmises	0.033302115538662615	1.9080706692224059	2.8115458127003294	1.2229868392391454	0.3827422802802294	2.655835052460926	0.17406481265579377	-0.362210704154661	0.5362755168104547	70.09207580697495
10	4.0	perception	344	diff_vonmises	-0.08668158661582148	-4.966489074584255	1.993429371367783	3.9819282609612943	0.42422879772325056	5.7463995577193705	0.7131347740949421	-0.6170858886145898	1.3302206627095319	82.38413946072535
11	4.0	wm	344	diff_vonmises	-0.20501887679467226	-11.746716360847332	1.157495861338869	347.56556587770814	1.1433784464444314	349.3827285638396	0.24288147736598376	-0.4991418742266944	0.7420233515926782	78.32228584953506
12	5.0	ltm	344	diff_vonmises	-0.03643470276382077	-2.087554696180566	1.940475510621748	1.015737715929219	1.8209332873722017e-14	1.6314814450706874	0.25485010054010565	-0.24904336447753997	0.5038934650176456	98.4151964473406
13	5.0	perception	344	diff_vonmises	0.021297443522688336	1.220253628268274	2.0960867014311795	2.161969885264039	0.0468758052091953	2.8563085542628492	0.6711766822563419	-0.4161992283544911	1.087375910610833	93.03955430449327
14	5.0	wm	344	diff_vonmises	0.05965176976457969	3.4177946479965087	0.5254969220474752	166.74328502821393	0.5135403535572204	167.52898451117704	0.17784565388242868	-0.29113542763495204	0.4689810815173807	120.30827332611929
15	6.0	ltm	344	diff_vonmises	0.43511618026119103	24.930320726819783	0.9676640802672134	115.31285295389529	0.9551885370003333	115.68567669043661	0.14874665083475236	-0.13702257395261697	0.2857692247873693	89.95041046788293
16	6.0	perception	344	diff_vonmises	-0.12350323706915839	-7.0762142402664345	0.5983230264978081	199.11727835583483	0.5870982996731304	199.70207931617853	0.26885103921026854	-0.27926544427185185	0.5481164834821204	115.46914185797698
17	6.0	wm	344	diff_vonmises	-0.05759234803062586	-3.29979847440344	0.5869045567698726	102.16397176135007	0.5718096260943023	102.63253991881248	0.1693238396342558	-0.20074588665358384	0.37006972628783963	115.94405477532577
18	7.0	ltm	344	diff_vonmises	0.13408459649170476	7.682481476689327	1.3351023776820115	0.88051546423223	1.140539458773021e-17	1.6669846773294743	0.09025912579405998	-0.2406890096911998	0.3309481354852598	115.76036770856604
19	7.0	perception	344	diff_vonmises	-0.10097641262509034	-5.785522273789199	0.9576339993247215	215.56805507053102	0.9405975932219589	215.91043545364587	0.5843209560108988	-0.30030693311822887	0.8846278891291277	94.46698000387461
20	7.0	wm	344	diff_vonmises	0.016935112243940984	0.9703104571581435	1.4818010735677767	1.3261558184747892	0.23015068900072463	2.0932720627870824	0.15632542719028897	-0.23402134411072598	0.3903467713010149	97.63734810428093
0	1.0	ltm	345	diff_vonmises	-0.027306778853256566	-1.5645631803886872	4.070234083654204	0.3028106117761435	5.68271866551039e-12	1.7442087638930892	-0.042588533246324556	-0.2775309246051109	0.23494239135878636	67.85796698301192
1	1.0	perception	345	diff_vonmises	-0.016043461479402884	-0.9192226315504972	14.885672679051511	0.6083083298143424	1.4565157945228206e-20	2.1768875870865125	0.5817184225056202	-0.3464624200400981	0.9281808425457183	35.11306609131378
2	1.0	wm	345	diff_vonmises	0.012114689235566078	0.6941205633105059	8.857877039101757	0.3011529080505898	3.622893918665876e-19	1.867498203714617	0.05497265857114325	-0.29722156320726856	0.3521942217784118	45.64164507394128
3	2.0	ltm	345	diff_vonmises	0.041547227360715464	2.3804807782394546	1.3448741828656856	52.12432168183183	1.2962921967892285	52.930747192296174	0.13863603950618852	-0.23847773884149692	0.37711377834768545	73.52182761517605
4	2.0	perception	345	diff_vonmises	-0.022820583988742073	-1.3075231485787426	6.669209069082241	1.1475733091794964	0.2993263567315033	2.0009543401159378	0.7381348692632094	-0.3306724188896616	1.068807288152871	50.5350781231931
5	2.0	wm	345	diff_vonmises	0.10399095458329828	5.958242805159616	3.095976604092574	0.5997716517582896	7.600838465374659e-19	1.2878105079630497	0.19495989990322204	-0.20414323698380776	0.3991031368870298	78.0655426105049
6	3.0	ltm	345	diff_vonmises	0.036472353759360664	2.089711939319468	3.901552128902015	0.7309946747081401	0.5630260724298097	1.1100256543867912	0.26740113805236226	-0.1585728091788095	0.42597394723117177	61.654553251121115
7	3.0	perception	345	diff_vonmises	-0.03229252457184037	-1.850225367788959	5.222099728605909	1.4082402586588114	0.22858686990555135	1.6638992837502669	0.9211598802280638	-0.25607328314775457	1.1772331633758184	57.82550419761364
8	3.0	wm	345	diff_vonmises	-0.12387139608874931	-7.097308198278668	1.5318858207109505	144.90034976065664	1.5165900513766495	145.1442908989478	0.2793814049102181	-0.15097141338967113	0.43035281829988925	73.43742884283066
9	4.0	ltm	345	diff_vonmises	-0.04122492979441933	-2.3620144879433482	1.5473510710117473	119.79646762917304	1.5210546991580682	120.57375727967415	0.20755416495502743	-0.2645281846546048	0.47208234960963225	69.12632480157268
10	4.0	perception	345	diff_vonmises	-0.033671503403156	-1.9292350348612273	3.724753551614264	1.6188947548107198	1.4435029418629236e-19	3.12324018769806	0.6998848715062952	-0.4963828025861266	1.1962676740924219	71.01349679132349
11	4.0	wm	345	diff_vonmises	-0.0713397863610912	-4.087468669855479	1.2252762856880877	249.26277862586733	1.2120520047881116	250.3634509045796	0.18743433340117122	-0.3184470241769475	0.5058813575781187	76.69161744454874
12	5.0	ltm	345	diff_vonmises	-0.029703495848161694	-1.7018849488840286	1.8333678697748372	1.103743059171805	5.154459306303299e-16	1.4388688923736936	0.31113100713223674	-0.2151967092479455	0.5263277163801823	101.05916666227425
13	5.0	perception	345	diff_vonmises	-0.04376169848499442	-2.5073606275142293	2.0425643924367325	1.8744320992725956	0.020221918240881154	2.42414531775162	0.5856385125226653	-0.3615776193600523	0.9472161318827176	95.26494335081878
14	5.0	wm	345	diff_vonmises	0.06916450041471293	3.9628339658938834	0.5247472298221448	111.39520092999857	0.5106165311342434	111.67424423024428	0.2255794971224354	-0.19977869433964202	0.42535819146207743	123.81902456533071
15	6.0	ltm	345	diff_vonmises	0.07278508137030544	4.170277974034776	2.043562239410568	0.6535604010029729	7.371813679762748e-16	0.8011627368131654	0.21406589103763526	-0.12177473920911248	0.33584063024674776	96.01796821246856
16	6.0	perception	345	diff_vonmises	-0.220316347688576	-12.623196880292234	0.7800423084318417	60.70817807273101	0.7443749932854491	61.221047262396645	0.2631294800840287	-0.2279050694192284	0.4910345495032571	102.19550465110368
17	6.0	wm	345	diff_vonmises	0.03560526134553773	2.0400312035596024	0.6648031454274516	81.0170501844582	0.6499303445918888	81.02892280524763	0.22586488565256957	-0.11826203869564544	0.344126924348215	114.56998488583754
18	7.0	ltm	345	diff_vonmises	-0.07788955429155453	-4.462742729061163	0.7030001977519222	129.95740827962473	0.6884609935053804	130.62366822921086	0.17192416100026975	-0.22750315325112602	0.39942731425139577	104.47556183603758
19	7.0	perception	345	diff_vonmises	-0.11189048685912999	-6.410852664692147	1.752556678831669	3.0342699270401505	0.33677726619146264	3.8080672958851607	0.6194804125311701	-0.3941155288160202	1.0135959413471904	90.55582622827328
20	7.0	wm	345	diff_vonmises	0.10662183413220029	6.108981099718983	0.9994755764051695	82.0425541679964	0.9785832914241709	82.45917257614529	0.18387922940973667	-0.1589644253827034	0.34284365479244006	88.99760278237548
0	1.0	ltm	346	diff_vonmises	-0.020853205842526104	-1.1948006840942957	5.308410824654055	0.2935034898333235	4.7506927966066424e-15	2.7060240197373724	-0.1679470819914321	-0.43067066148454275	0.26272357949311065	59.21954466829342
1	1.0	perception	346	diff_vonmises	0.04497090632709088	2.576643133420478	14.40754801031863	0.6417595791523181	0.017309257263188403	2.9423943367400454	0.4862768916767856	-0.47163038969219234	0.957907281368978	35.59632015272402
2	1.0	wm	346	diff_vonmises	0.10396115838192149	5.956535608575204	6.559547595770033	0.40152384454248824	1.3892384539365383e-23	3.0101473728859487	-0.07727715515430073	-0.4790790275908527	0.40180187243655197	53.15889504463519
3	2.0	ltm	346	diff_vonmises	0.10475201412847719	6.001848305056513	3.306784830924742	0.8803527998995446	0.4462606767046364	2.015639411577211	0.1320500488619895	-0.2907096532285339	0.42275970209052344	64.43413080260652
4	2.0	perception	346	diff_vonmises	0.011541062896733506	0.6612541950778582	6.519058648595759	1.3112145886515596	0.3234601776318438	2.5948616056204017	0.7516740774890214	-0.43204488778519634	1.1837189652742177	50.65969173197618
5	2.0	wm	346	diff_vonmises	0.10161696409393987	5.8222231695151825	3.5431157691695785	0.6642629768812144	0.02122264824697329	1.8329700837872251	0.17978519245237162	-0.2863554876409092	0.4661406800932808	71.8601342283363
6	3.0	ltm	346	diff_vonmises	0.1011649391643159	5.79632404881303	4.768759240013684	0.63087186973371	0.43136951886058944	1.2549408546512886	0.23973431380907284	-0.19818206419798715	0.43791637800705996	56.968031292155246
7	3.0	perception	346	diff_vonmises	-0.03053602056483662	-1.7495851014898265	5.798659358851456	1.1457659226464754	5.478628850497464e-12	1.5379062408787247	0.8298763145839587	-0.244755502445503	1.0746318170294618	56.60741323198181
8	3.0	wm	346	diff_vonmises	-0.015461977018374541	-0.8859060260811338	1.3574023350473392	125.20118038905908	1.3365820103900419	125.73237440916174	0.25524151804082607	-0.20943505292617814	0.4646765709670042	75.99376124728386
9	4.0	ltm	346	diff_vonmises	-0.07595473101921604	-4.351885521452477	1.1855518956163393	138.9300601214566	1.1615999849641943	140.38450561753092	0.07593096570607827	-0.36543598916856723	0.4413669548746455	75.31812429299637
10	4.0	perception	346	diff_vonmises	-0.01264560702640375	-0.7245399119939139	3.1183127117032563	1.6253594666324938	4.9139319134352725e-20	3.5708365370505857	0.5198419896751638	-0.5661872088642869	1.0860291985394506	77.78603151476082
11	4.0	wm	346	diff_vonmises	-0.011876532836771614	-0.6804752067955485	1.1789962684248498	288.0576144347481	1.1656430652321685	289.6706432198588	0.11206424712459295	-0.4132930353985955	0.5253572825231885	75.90412200555184
12	5.0	ltm	346	diff_vonmises	-0.10850421280429098	-6.21683345307522	1.8822713278589132	1.01187892244768	9.447000595649871e-18	1.8667232584554792	0.2060693711682069	-0.2854353950296834	0.4915047661978903	99.81271546252921
13	5.0	perception	346	diff_vonmises	-0.05264397697808391	-3.0162776976280776	1.3929660021475796	4.122820166533775	0.4096613381396326	5.166604520414582	0.519527420822222	-0.4330989173058423	0.9526263381280644	95.47021209988876
14	5.0	wm	346	diff_vonmises	0.10190636919716911	5.838804860499765	0.5745589457612821	142.66702577717996	0.5608834407964849	143.332535026347	0.19619553839483928	-0.2629964016626172	0.45919194005745645	116.34680302052553
15	6.0	ltm	346	diff_vonmises	0.1564343382331326	8.963027351680509	0.9165706510577031	97.91350922705641	0.8989727418117909	98.48440564172908	0.14391671633561387	-0.17982026341126733	0.3237369797468812	90.97309037401345
16	6.0	perception	346	diff_vonmises	-0.2742819985313216	-15.715200912258174	0.9852216149026947	2.736645467591374	0.17268552271586654	3.583835044290129	0.2546024215729257	-0.3470779074410421	0.6016803290139678	118.50072490506822
17	6.0	wm	346	diff_vonmises	0.22350652101698906	12.805980347925505	0.5247667957831728	148.0383310859768	0.5132356839714367	148.4776273054031	0.21047935633353632	-0.22854603022875608	0.4390253865622924	122.36960230650132
18	7.0	ltm	346	diff_vonmises	-0.047213355301770885	-2.705125995443081	0.711068955556943	92.92595200353077	0.6878402411869236	94.2491942046745	0.0379308398803353	-0.31157316117738	0.3495040010577153	97.78581950288944
19	7.0	perception	346	diff_vonmises	-0.055367785093018713	-3.1723404068173267	1.8684378838933684	2.7538956357291737	0.2838264004100118	3.876540436978822	0.5600876558121133	-0.4421014200549585	1.0021890758670717	88.79878331666853
20	7.0	wm	346	diff_vonmises	0.019477431311141248	1.1159746098843548	0.9338067095820054	152.75406250069156	0.9177223214442439	153.76790866126524	0.13669162912405142	-0.2743866137571178	0.41107824288116923	87.84098719632104
0	1.0	ltm	347	diff_vonmises	-0.01954556666025192	-1.1198784778240467	8.200653201092155	0.5065200623948704	0.2288099436019614	3.069442704710474	-0.03686445820904183	-0.5326747548646322	0.4958102966555904	44.248325154856104
1	1.0	perception	347	diff_vonmises	-0.0095520486986254	-0.5472920761346658	15.766245265127688	0.6911778605934369	0.013137545823804258	3.4118839393087805	0.5352247934788005	-0.5461663512935069	1.0813911447723075	34.046139360189414
2	1.0	wm	347	diff_vonmises	0.08520203738346668	4.881717147988504	6.7973863037539966	0.33288532825084494	1.5485908855346024e-15	3.5466295536265404	-0.2250935080623943	-0.5644632015698196	0.33936969350742524	52.20216016387906
3	2.0	ltm	347	diff_vonmises	0.052181362078178875	2.989771816323652	1.646855841692699	7.92560344448597	1.235813539037271	8.88156604083055	0.20750931073529388	-0.30220356172337226	0.5097128724586661	70.97225487591766
4	2.0	perception	347	diff_vonmises	-0.03583214386582258	-2.0530306144172155	5.670805153895121	1.280139287984435	0.342950593807938	2.5158865713746215	0.6387065600287325	-0.4089336441268666	1.047640204155599	53.76916353513653
5	2.0	wm	347	diff_vonmises	0.10650622026167748	6.102356912884854	4.106847356896787	0.641577707406618	3.629972043082797e-17	1.9547331738349507	0.18931120659105627	-0.31096987343280946	0.5002810800238657	67.53968028810533
6	3.0	ltm	347	diff_vonmises	-0.011893194980620825	-0.6814298773157482	2.670731470106462	1.7348878958908567	1.0164920499583001	2.1580470574785315	0.3185349128261914	-0.20452496522966543	0.5230598780558569	66.36923377427215
7	3.0	perception	347	diff_vonmises	-0.02875893550931921	-1.6477656279729074	3.5814056129671537	2.3386628440918003	0.5874610902122515	2.9142106597651956	0.9249634094113439	-0.3850347752957256	1.3099981847070694	64.73065864856068
8	3.0	wm	347	diff_vonmises	-0.15060454542179066	-8.62900482815491	1.3625154547226217	162.41281063676578	1.344390781356321	163.15025622435226	0.23094119704572336	-0.25167240108276445	0.4826135981284878	74.43575074293028
9	4.0	ltm	347	diff_vonmises	-0.08689593303943582	-4.97877022001108	1.3352326130146523	209.8532757194333	1.3165200392775736	210.822056883292	0.32261103599161345	-0.33517270539033106	0.6577837413819445	75.45237589435698
10	4.0	perception	347	diff_vonmises	-0.08586628700974566	-4.919775848117433	3.6232083764176792	1.8959280120827369	0.02921399087806221	3.2678458169200417	0.8451618872912912	-0.5067566120860068	1.351918499377298	71.18042856478755
11	4.0	wm	347	diff_vonmises	-0.16928477529405703	-9.699303160169977	1.0126605930634716	249.73737970685792	0.9974105191147578	251.25963081567178	0.20070960292487428	-0.4107059360909844	0.6114155390158587	84.06406028586233
12	5.0	ltm	347	diff_vonmises	-0.05815193853964687	-3.3318606488259213	2.405061706696303	1.0537172478410366	1.801620053655808e-20	1.6398483208317178	0.34599834440820587	-0.2560445219053138	0.6020428663135197	88.68750067834736
13	5.0	perception	347	diff_vonmises	-0.019312789756383897	-1.1065413436642866	1.4386512341522093	4.355167665418386	0.4214850234571361	5.291713027829569	0.6108808098521881	-0.4418294747073265	1.0527102845595144	94.6632732807428
14	5.0	wm	347	diff_vonmises	0.009342508385460201	0.5352863005524504	0.2766862836063993	152.03509654354383	0.2648252732374008	152.9254303226148	0.1383993219604811	-0.35065382191827155	0.48905314387875265	147.68789439405464
15	6.0	ltm	347	diff_vonmises	-0.05108688845734678	-2.9270630970615716	0.8941269655730631	1.1434827911756256	1.0366758545612912e-22	1.4733081023238062	0.1332642115893392	-0.1729775285123296	0.3062417401016688	133.10414112662562
16	6.0	perception	347	diff_vonmises	-0.09915018991874894	-5.6808874202648765	0.6491443169640211	180.54750722379086	0.6344263948834061	181.47799813115594	0.25156657784711456	-0.33462219872521537	0.5861887765723299	109.0904958679712
17	6.0	wm	347	diff_vonmises	0.3006806004072284	17.22772938479377	0.25239433704186565	80.60667641981723	0.2388080124243401	80.92310073031015	0.1296999392631264	-0.18978085401863076	0.31948079328175716	150.02622649160443
18	7.0	ltm	347	diff_vonmises	-0.11589395408974985	-6.640234440425593	0.5844011260105562	120.95868598934628	0.5702177796246082	121.70335288832224	0.13038056802076525	-0.2423178289519381	0.37269839697270335	113.48006950714507
19	7.0	perception	347	diff_vonmises	-0.08186130629186539	-4.690307355951618	0.77550761393303	232.44892843173147	0.7588995867949274	233.50099548822172	0.4259462697377643	-0.41532480456270093	0.8412710743004652	101.02753084738897
20	7.0	wm	347	diff_vonmises	0.08638077292242978	4.949253719533169	0.9904612288818879	107.84151807136566	0.971135598071466	108.4401798383717	0.19358924063853067	-0.2025572706875156	0.3961465113260463	88.28299674124023
0	1.0	ltm	348	diff_vonmises	-0.04784190910113764	-2.741139475343709	7.720191029375228	0.32982353648601065	0.13043968711250342	2.8715842273180354	-0.15923861409344875	-0.47821702300183505	0.3189784089083863	46.01666723527677
1	1.0	perception	348	diff_vonmises	-0.007954323683175632	-0.4557491759269199	14.19460679780178	0.5925016599011351	1.6048688172351796e-15	3.1180750852518457	0.38579851206896365	-0.4962570627490998	0.8820555748180634	35.97592655013722
2	1.0	wm	348	diff_vonmises	0.012663046699287073	0.7255391316462171	7.491083889224491	0.2668310059108313	0.022293681871149936	3.5093764407009087	-0.2849252767683196	-0.5607102365723271	0.2757849598040075	48.664403710866964
3	2.0	ltm	348	diff_vonmises	0.08158251095192257	4.674333559624979	8.168099476482102	0.530043534504082	0.4029609271847602	1.5267035271634493	0.24519931807786227	-0.2762699606920789	0.5214692787699411	44.52983279977806
4	2.0	perception	348	diff_vonmises	-0.017058619102333757	-0.9773868788849692	7.7223691598861155	1.1529413643263395	0.27355985819255246	2.478806831392371	0.7470374940030229	-0.4201557372946619	1.1671932312976847	47.05664871897065
5	2.0	wm	348	diff_vonmises	0.041327594928554263	2.3678967668324242	2.215203063836897	0.9822442597667094	0.20881051038813164	2.658332843317796	0.023124620741363344	-0.3636368153266089	0.38676143606797225	80.01910692624861
6	3.0	ltm	348	diff_vonmises	0.024799573336857995	1.4209108859271309	1.8938891682481904	70.64464948317183	1.8635224816671405	70.89374025276815	0.22121084022197124	-0.14158789482913825	0.3627987350511095	65.11947724459534
7	3.0	perception	348	diff_vonmises	-0.03557261346825713	-2.0381606179813634	3.5092233248699802	2.461649631064961	0.6149037058327627	3.0264357397997146	0.9487779187638834	-0.39254260760809767	1.3413205263719812	65.04792969921402
8	3.0	wm	348	diff_vonmises	-0.18965414148099127	-10.866381874037796	1.4851333753887022	183.8042147446441	1.4692494312413449	184.68191818971084	0.1376966441441141	-0.26600138478776714	0.4036980289318812	69.00028489771373
9	4.0	ltm	348	diff_vonmises	-0.0913231374138246	-5.2324303457054135	1.276993651358991	197.06316673712985	1.2612271853798447	198.16764208002974	0.13653400923446668	-0.3070546229825517	0.4435886322170184	74.13988867557632
10	4.0	perception	348	diff_vonmises	-0.10795281906194373	-6.185240918788798	2.7132653001492257	2.9225762455585893	0.3883860999856895	4.226549729886802	0.8511727290992339	-0.5320006843910056	1.3831734134902396	74.2260995615097
11	4.0	wm	348	diff_vonmises	-0.22383001229940394	-12.824515033117153	1.0003135470141968	218.14864337566095	0.9849813748635019	219.96864861492534	0.016377877896431414	-0.41761620325484117	0.4339940811512726	80.40612919377912
12	5.0	ltm	348	diff_vonmises	-0.0572008966246835	-3.2773699609584805	2.9953781209561594	0.7757895478477828	0.0009012481783721266	1.461898226746933	0.27476698250171516	-0.231188585877986	0.5059555683797011	79.35996391720548
13	5.0	perception	348	diff_vonmises	-0.0322560385832592	-1.8481348746318953	1.660399357432236	2.9916807844028006	0.2840194130346136	3.8599325420037642	0.5784671631520982	-0.41166754422892354	0.9901347073810218	93.82460864763092
14	5.0	wm	348	diff_vonmises	-0.15102048714978097	-8.652836533692133	0.32536877562188177	130.31516558248916	0.31224507229278337	131.54594924506657	0.04631695370429867	-0.36324138617389856	0.40955833987819723	139.95682811628706
15	6.0	ltm	348	diff_vonmises	0.3580749221740824	20.516181790050336	0.6016006177527476	111.70321024855838	0.5908960460934837	112.29387387941792	0.07038495932638966	-0.1716495112206946	0.24203447054708427	110.14706237049344
16	6.0	perception	348	diff_vonmises	-0.0879423721387198	-5.0387267639175235	0.7911542773390551	272.6847913720379	0.7800044522777091	273.5765190905302	0.31326760748257243	-0.32803727255543436	0.6413048800380068	99.29599718463658
17	6.0	wm	348	diff_vonmises	0.1683027310588648	9.643036170198311	0.00025802162423879996	4782.4334227265335	1.2783697258877209e-31	4783.376848441343	0.04625061125864249	-0.34652700835829364	0.39277761961693614	179.00088626894478
18	7.0	ltm	348	diff_vonmises	0.01469540262890155	0.8419845488815135	1.0854512277427408	114.23671246208532	1.068945298694718	115.02106920795572	0.07574203482818831	-0.20395584833258162	0.27969788316076993	80.15969974251021
19	7.0	perception	348	diff_vonmises	-0.10568906813538297	-6.055537544828037	0.657467198235851	187.37605534349444	0.640669004734859	188.125804835433	0.39331336228421065	-0.366003204681979	0.7593165669661897	110.89871825907316
20	7.0	wm	348	diff_vonmises	-0.26950452346651466	-15.441471754315744	0.8550112193569493	105.1006745522418	0.8405372633675182	106.0165690327496	0.005082791678503895	-0.20548807295380556	0.21057086463230945	87.15200625851608
0	1.0	ltm	349	diff_vonmises	-0.0021164726404681398	-0.1212649497537337	6.5251503436195195	0.2823125443123708	0.07549896773545632	3.626259198934482	-0.33978225421538233	-0.5884965878593615	0.2487143336439792	49.96720428766278
1	1.0	perception	349	diff_vonmises	0.056680975094642316	3.2475806516091366	13.384309387778332	0.6535980266597468	0.05661660055225964	3.5760120363806505	0.3427807497092502	-0.5843904226137658	0.927171172323016	36.64900453042742
2	1.0	wm	349	diff_vonmises	0.09151277059872201	5.2432955268556585	4.871975047027503	0.5627595476281378	0.11866068494723693	4.415137893353474	-0.3071834764351408	-0.709801833035395	0.4026183566002542	56.600230095269325
3	2.0	ltm	349	diff_vonmises	0.07286321847347635	4.174754900269847	5.746642285327249	0.5718589377406096	0.2640317786017841	1.9722190096842607	0.13212985862184312	-0.3259170471753347	0.45804690579717783	52.68481178584176
4	2.0	perception	349	diff_vonmises	0.014096360680813616	0.80766197350478	7.68452926552411	1.3096599348380025	0.29246172544283183	3.097622148661773	0.7765767689763943	-0.5297295870580132	1.3063063560344075	46.89632728522275
5	2.0	wm	349	diff_vonmises	0.05324567049096003	3.05075219647628	2.700521409483899	1.0972898058608351	0.2567677476377443	2.9321208397224137	0.08304623316438742	-0.4136625690542781	0.49670880221866553	72.86098165083538
6	3.0	ltm	349	diff_vonmises	0.061934047239252284	3.548559514973024	3.8539556763411036	0.7137141419021182	0.5015368521100625	1.3173148686031395	0.2122185333007796	-0.19352627321042154	0.40574480651120115	61.5357392208135
7	3.0	perception	349	diff_vonmises	-0.04916501826375044	-2.816948046196511	6.147780644709557	1.1492473991184429	0.005397266215525509	1.724285686248605	0.835686215955535	-0.27363472124760013	1.1093209372031352	54.87407470500392
8	3.0	wm	349	diff_vonmises	-0.04100128926828204	-2.349200829667596	1.468582275379918	179.48331413172735	1.451629505186425	180.2964113389794	0.19135215560793029	-0.26408291784832016	0.45543507345625045	70.60040097722867
9	4.0	ltm	349	diff_vonmises	-0.2119146425409533	-12.141814634620115	0.9758470271415346	178.45726103951336	0.9574524513394348	180.33216213042593	-0.0029037187216900406	-0.42226357523103886	0.4193598565093488	80.98397823391939
10	4.0	perception	349	diff_vonmises	-0.05764774990129098	-3.302972767769681	3.6356991439338597	1.5771806467666154	2.6639393276638048e-14	3.6493923477829884	0.569772220319755	-0.5800189290490095	1.1497911493687645	71.90307611565149
11	4.0	wm	349	diff_vonmises	-0.022423408594635028	-1.2847666747699638	0.9910084850871015	219.99897298821503	0.9758860067976464	222.11559662998673	-0.08338252557584269	-0.4551924422207527	0.37180991664491003	77.92472366067625
12	5.0	ltm	349	diff_vonmises	-0.09299006009709605	-5.32793798023149	3.0044278222398297	0.806388340231524	4.06015731265746e-15	1.8957323324605213	0.22685319985849467	-0.3004164050204006	0.5272696048788953	79.27535115222597
13	5.0	perception	349	diff_vonmises	-0.07841947625671584	-4.493105021136185	0.8706810477205412	164.49551054515436	0.8423658103453748	165.78337768678702	0.4870588993626441	-0.47545742725576723	0.9625163266184114	95.2651617559365
14	5.0	wm	349	diff_vonmises	-0.10735534550733593	-6.1510082057390925	0.5060176850071683	198.3284669514159	0.49424095357649767	199.49498945784234	0.14997959473576827	-0.3700346623586732	0.5200142570944415	120.55982508898464
15	6.0	ltm	349	diff_vonmises	0.11837476670968192	6.782374533310493	0.8473184574086524	116.12595247544688	0.8321140894473676	116.90405274395441	0.09595448902935999	-0.20870188626184039	0.3046563752912004	92.15037595721128
16	6.0	perception	349	diff_vonmises	-0.21586110798850117	-12.367930448758816	0.5916251067022409	158.12726244684777	0.5746516241867103	159.14258921295243	0.2423450869621817	-0.3646519962603829	0.6069970832225646	114.06290014102595
17	6.0	wm	349	diff_vonmises	0.48967893726760886	28.056536421885387	0.0002996689293947573	4953.428035606319	1.5789381500932556e-33	4954.232041029109	0.10830390836883907	-0.36419138500025383	0.4724952933690929	172.76870682418948
18	7.0	ltm	349	diff_vonmises	-0.009499858922621653	-0.5443018222359179	1.0781855071288522	206.58873912474635	1.0651654037693319	208.09354316642447	-0.02748325572416377	-0.33944181506956284	0.31195855934539907	75.87442506490152
19	7.0	perception	349	diff_vonmises	-0.09786391506123125	-5.607189299635322	1.8984981539153718	1.7763547260485044	1.6509762416855635e-12	2.91692577546261	0.42365465754162346	-0.4443186666131873	0.8679733241548108	99.41996306932137
20	7.0	wm	349	diff_vonmises	-0.2446884194603923	-14.019613730807238	0.9229028399611341	134.0697836690747	0.9066589551615505	135.29038829457258	0.019004699127336266	-0.2794959919800437	0.29850069110738	84.25139680449165
0	1.0	ltm	350	diff_vonmises	-0.0644072732793253	-3.690264928851061	4.8383283744045835	0.23973585937409797	1.8868208261660366e-22	1.7023444338556115	-0.06668326666895522	-0.27092371669451887	0.20424045002556365	62.09878900778472
1	1.0	perception	350	diff_vonmises	-0.01858692318379883	-1.0649522525655357	14.014272594473189	0.548344834019996	7.847769344978268e-17	2.236832870373615	0.4553721042091288	-0.3560030081898483	0.8113751123989772	36.19332188304034
2	1.0	wm	350	diff_vonmises	-0.003277882954512232	-0.1878088590314237	7.256191945722198	0.32713962841458166	0.07487448309091224	2.0366087274290243	-0.0037950838803159637	-0.32920759614502887	0.3254125122647129	48.902678923513605
3	2.0	ltm	350	diff_vonmises	0.08198154258128743	4.697196387879814	4.951675915727851	0.5465972533074271	0.45287320753201193	1.2711789917052696	0.16899999852409642	-0.20657968108343291	0.37557967960752936	55.17843176461241
4	2.0	perception	350	diff_vonmises	-0.01995017245246382	-1.1430606820843359	7.8274734298640185	1.0914407760848779	0.3192045485447369	2.0181192742204312	0.7665216285568512	-0.34544115388600083	1.111962782442852	46.727424438832
5	2.0	wm	350	diff_vonmises	0.10556413514005623	6.048379411473888	2.7783733455925987	0.5898058549695547	1.4281106758041219e-11	1.4342746798575683	0.14138512836354447	-0.22684453884628572	0.3682296672098302	82.48539628145755
6	3.0	ltm	350	diff_vonmises	0.021919956640989648	1.2559210026384675	2.0509887963015028	78.30476588843517	2.0217712917150563	78.5301487321762	0.2365424988162701	-0.14424097467240138	0.3807834734886715	62.696859117740956
7	3.0	perception	350	diff_vonmises	-0.027016189470086785	-1.5479136351617488	4.185590405834775	1.9521345503654566	0.5396837655296212	2.2664476109884983	0.9621607929745882	-0.3204019223929549	1.2825627153675432	61.44977139643822
8	3.0	wm	350	diff_vonmises	-0.17834723831040752	-10.218544043000259	1.5247039996580922	138.02608856372026	1.5090888829234368	138.38871179650886	0.21805006180501607	-0.16061253770120842	0.3786625995062245	71.98867103048784
9	4.0	ltm	350	diff_vonmises	-0.053112502235451164	-3.043122217470502	1.586873186710991	199.1939136015387	1.5721743712939173	199.9795399941411	0.15343706889966313	-0.2538320280738269	0.40726909697349	67.1530411794505
10	4.0	perception	350	diff_vonmises	-0.07054048271207744	-4.041671944217584	4.35962255583891	1.5237975965067203	8.993120494462043e-17	2.7756191167623596	0.7859037264718776	-0.44155289002752557	1.2274566164994032	65.50124162192873
11	4.0	wm	350	diff_vonmises	-0.06525263620605284	-3.7387006567093763	1.1569712749317524	238.03237511988823	1.1451343461823578	239.197479791419	0.09420314181275558	-0.30113451936471947	0.39533766117747504	76.97406197860681
12	5.0	ltm	350	diff_vonmises	-0.059818332786871556	-3.4273380061967758	2.2950996476485708	0.8374760603762396	1.669488704148425e-17	1.399158073956257	0.246524785477154	-0.21791946540324258	0.4644442508803966	90.76468874772448
13	5.0	perception	350	diff_vonmises	-0.058931332607189864	-3.376516639473669	1.5960424937444213	2.773673426755366	0.2609928919550582	3.4784583692885502	0.5408878967139563	-0.371230045716983	0.9121179424309394	96.42077596093975
14	5.0	wm	350	diff_vonmises	0.02369585379131773	1.3576724142015764	0.36062373550450894	85.95784975706867	0.34490428764607944	86.60944045166256	0.1030134029062495	-0.24329756674760716	0.34631096965385666	137.93115199467564
15	6.0	ltm	350	diff_vonmises	0.09421358920103949	5.398041033998872	0.6826643747445672	75.9301576700819	0.666133797050013	76.41673040633965	0.10359950183215005	-0.15753418766798255	0.2611336895001326	105.41309258283675
16	6.0	perception	350	diff_vonmises	-0.16918285175187348	-9.693463371369836	0.8885825119689235	211.72980460145644	0.8749563597593845	212.52610268049037	0.29672818672699464	-0.2899358266360821	0.5866640133630767	93.79865343399433
17	6.0	wm	350	diff_vonmises	-0.05117940573277468	-2.9323639464756392	0.4064027677829631	81.40829869190968	0.3885741553617495	82.00107935608321	0.13208391488300109	-0.2399925316356697	0.3720764465186708	133.44918195994853
18	7.0	ltm	350	diff_vonmises	-0.09743926487030982	-5.582858635926099	1.0176888262476442	133.12721116926897	1.0024482314516163	133.84713592573104	0.1371193993451172	-0.2088357421427478	0.345955141487865	85.06291087443839
19	7.0	perception	350	diff_vonmises	-0.10258989395044456	-5.877967944055169	1.7424885462620732	2.35114064186248	0.0920835761724524	3.226682518166907	0.5536609214460164	-0.43317766673372804	0.9868385881797445	99.19825792040092
20	7.0	wm	350	diff_vonmises	-0.06043425777266077	-3.4626279083791527	1.0179727708784554	87.79466355354043	1.0002279938830934	88.40794267255632	0.08486598197620054	-0.1668670623387527	0.25173304431495325	84.04223720899898
0	1.0	ltm	351	diff_vonmises	-0.004542102393097935	-0.2602432972407829	5.346264544486911	0.397189062725933	0.108421387966024	3.5721463663807467	-0.2748941556127341	-0.577767347568424	0.30287319195568985	54.321851599253876
1	1.0	perception	351	diff_vonmises	0.030231025195895964	1.7321101540784916	12.763470927597508	0.7039204852520782	0.07757315717198737	3.8196776256309994	0.3369691466643068	-0.6303494767235562	0.967318623387863	37.38322857481427
2	1.0	wm	351	diff_vonmises	0.055393559415034585	3.173817166688647	5.224290907535999	0.5445889625937216	0.11670876096104045	4.154049164092314	-0.2570799914045201	-0.6701874193821451	0.413107427977625	55.1443977602828
3	2.0	ltm	351	diff_vonmises	-0.0029606566500043558	-0.1696331306325905	2.7309717727057063	1.179091672764906	0.38873133798704435	2.724417768111208	0.11554672372111885	-0.37159176349324685	0.4871384872143657	70.04699329390522
4	2.0	perception	351	diff_vonmises	-0.0010458149142144374	-0.05992078073632351	5.600193361123619	1.420116618595318	0.3210639550353827	3.316653882890804	0.5984679949553123	-0.5414072623278575	1.1398752572831699	53.79045358372409
5	2.0	wm	351	diff_vonmises	0.0937490814061868	5.371426697802884	4.326569605538147	0.6348710551024406	1.915844206732147e-11	2.2228906209062984	0.15555816292500246	-0.3536950941781794	0.5092532571031818	65.76227162392601
6	3.0	ltm	351	diff_vonmises	-0.062525646994041	-3.582455684083392	3.640541309526622	0.8238542298130863	0.16300157490388784	1.7140467558787698	0.2824650088050612	-0.2556918984557675	0.5381569072608288	67.85740488224002
7	3.0	perception	351	diff_vonmises	-0.03216912720973949	-1.843155219737531	5.243322653295725	1.5443121330036078	0.19632478809956685	2.409237594698666	0.9112319327144329	-0.3752469767413877	1.2864789094558207	57.534020204525376
8	3.0	wm	351	diff_vonmises	-0.11656037775278544	-6.678417703685181	1.3346171701274907	190.71705423750296	1.3181921495673834	191.57085492889442	0.22458005713228602	-0.27665342165423823	0.5012334787865242	74.6717628757558
9	4.0	ltm	351	diff_vonmises	-0.17399031739025758	-9.968910862603412	1.0394075310527164	89.556186009354	0.9957844727265796	91.25875994520898	0.15743657253815613	-0.4372702859788955	0.5947068585170516	82.48615565799889
10	4.0	perception	351	diff_vonmises	-0.04928495264151575	-2.8238197798609908	4.07013290085807	1.5298687394059223	8.413113321129876e-17	3.6955671285502287	0.5992619595549314	-0.5878215560664697	1.187083515621401	67.85240973705979
11	4.0	wm	351	diff_vonmises	-0.05332604917264955	-3.0553575556999144	0.8555203818303551	170.92286629247388	0.8362669673702428	172.85624653995532	0.02756647933097156	-0.4396086145145617	0.46717509384553324	87.72199079301305
12	5.0	ltm	351	diff_vonmises	-0.05944397904823555	-3.4058891169279892	2.3580474646330454	1.1869302770021466	2.3339588082833907e-14	2.1874485706185913	0.32762640859929115	-0.3420943573057305	0.6697207659050217	89.56170616481418
13	5.0	perception	351	diff_vonmises	-0.06411660191175297	-3.673610686263871	1.4711035652886386	3.9332526591960546	0.37539497851176945	5.213841224703049	0.5173387207077915	-0.4797909979834743	0.9971297186912658	94.10191163884232
14	5.0	wm	351	diff_vonmises	-0.08938187017865443	-5.121203926223132	0.4232905497474962	209.75474888199776	0.41201401554217293	210.7511465461627	0.20597057801870022	-0.3867060506083817	0.5926766286270819	130.99562319341632
15	6.0	ltm	351	diff_vonmises	0.019758867860289117	1.132099736351254	1.8452566325149005	0.8242729057955329	6.125825993769818e-18	1.3905836421881452	0.18364864206509415	-0.21121051620880127	0.3948591582738954	100.75569261859215
16	6.0	perception	351	diff_vonmises	-0.1523588477848137	-8.729518949545957	1.4118957396786485	1.5368396820796069	0.08287490219791742	2.506922709239808	0.20905536127705837	-0.32851651527816395	0.5375718765552223	108.00776929144088
17	6.0	wm	351	diff_vonmises	0.5617080325047809	32.183499581121204	0.0028042753796013696	405.95792687562846	5.332389999879828e-15	406.30441660159033	0.12616524298873344	-0.23620230765686756	0.362367550645601	170.51001501691033
18	7.0	ltm	351	diff_vonmises	-0.11773646073497492	-6.7458022949217975	0.7928710871632432	155.40828610630584	0.7774246710936562	156.68968792799782	0.07485475429280797	-0.31327297800730136	0.38812773230010933	93.30248139508807
19	7.0	perception	351	diff_vonmises	-0.12400041438899162	-7.104700402362504	1.6204659725084534	2.6419338667011067	0.16647684660629714	3.869480765102583	0.47693910338869216	-0.4713311496788988	0.9482702530675909	98.28970433382503
20	7.0	wm	351	diff_vonmises	-0.10737499645472164	-6.152134122087727	1.1394394732646158	132.7650587941452	1.1200005816155219	133.58336592004787	0.1833127641918182	-0.24802557276059645	0.43133833695241464	80.73958539037508
0	1.0	ltm	352	diff_vonmises	0.10686508116607521	6.122918128139092	0.23304453467272093	22.46209428601027	0.1850059628028272	23.886260490982252	-0.08281500914109152	-0.3389324032119072	0.2561173940708157	152.19104789860916
1	1.0	perception	352	diff_vonmises	0.019499853477046074	1.1172593053582436	11.742234340862515	0.5471049713473497	3.678067221525098e-25	2.0862569460514915	0.40757573928059193	-0.332038105477139	0.739613844757731	39.5736776234732
2	1.0	wm	352	diff_vonmises	0.008533481121208115	0.4889324527997907	6.798247448204671	0.3411598747004789	8.596697068695364e-24	1.742201988518149	0.07046775184989901	-0.2772796252287064	0.3477473770786054	52.21002595654386
3	2.0	ltm	352	diff_vonmises	0.11942830529427735	6.842737847761997	6.233277530116537	0.3656082645784505	0.13863714191165893	1.3426251232765143	0.11191965061586309	-0.21717347094736983	0.3290931215632329	52.29745152516651
4	2.0	perception	352	diff_vonmises	0.014680567012849819	0.8411345306952728	7.1625522976035745	1.1309381070092532	0.2648735498318165	2.1544445763464686	0.7457012805342719	-0.35867044256668296	1.1043717231009549	48.965348483669516
5	2.0	wm	352	diff_vonmises	0.13080813709296005	7.494754181395284	2.253853032068512	0.6931669306216547	2.9438041161226553e-12	1.456511246897416	0.15236458801348043	-0.2275752095239427	0.37993979753742313	91.56318297375168
6	3.0	ltm	352	diff_vonmises	0.08648353882880763	4.955141772246456	4.138138597307691	0.5612408068530774	0.4655441214350748	1.1553383523022052	0.1619221467466913	-0.17623193838516527	0.3381540851318566	59.7010269977317
7	3.0	perception	352	diff_vonmises	-0.011779106686879688	-0.6748930995925322	4.948188932480723	1.5144039872510708	0.19747231923227115	1.9185297676103006	0.937411598664025	-0.29352396137166253	1.2309355600356875	59.458364964494876
8	3.0	wm	352	diff_vonmises	-0.06407414477760116	-3.6711780716667515	1.2866885361494733	131.15437176540286	1.2698289369565334	131.53429527264947	0.25449158926028304	-0.17264289550373135	0.4271344847640144	79.1363120980308
9	4.0	ltm	352	diff_vonmises	0.09993284259595028	5.725730115493128	3.605063514106609	0.8088726525722454	0.6338550552852105	1.942754166337737	0.058966667225882174	-0.2938393046518418	0.352805971877724	58.727762385578984
10	4.0	perception	352	diff_vonmises	-0.0006718322271867212	-0.03849315115867341	3.9341979616721154	1.3834932573290135	1.268622619128696e-17	3.1980438954574355	0.5451247656276577	-0.5085811410223035	1.0537059066499612	69.04668397119431
11	4.0	wm	352	diff_vonmises	0.03513623824605784	2.0131581594652603	1.2663924595330265	232.71716568772305	1.2516301081883905	234.034571090564	0.11679581619937096	-0.35188596637961567	0.4686817825789866	73.62218312732483
12	5.0	ltm	352	diff_vonmises	-0.05634027286063476	-3.2280598515298253	1.1636488392365572	1.3136728152853503	3.659145736516843e-12	1.9751316109477342	0.17486110828455703	-0.2666239283375939	0.44148503662215094	122.04667778492762
13	5.0	perception	352	diff_vonmises	-0.0515771274893665	-2.9551517245488803	1.9842461312718807	1.779626681744381	1.9863557887823784e-17	2.5358618618291944	0.5101084299452894	-0.3863241895383936	0.8964326194836829	97.3817025402893
14	5.0	wm	352	diff_vonmises	0.18547107995529605	10.626710103171904	0.623697728067604	77.54016249224263	0.6026650837507861	78.03495146373744	0.1774006845409346	-0.205263709005564	0.3826643935464986	112.74471494220944
15	6.0	ltm	352	diff_vonmises	0.262563822177627	15.043798863601472	0.8112673576133866	126.59790297771463	0.7982942363007668	127.1731680675402	0.13914418080820923	-0.1832918815195974	0.32243606232780664	96.66995173643738
16	6.0	perception	352	diff_vonmises	-0.20892562437795223	-11.970556508992209	0.8125346546093578	152.03649575245652	0.7952332531178714	152.7513248086834	0.2859178077319129	-0.27580752246860385	0.5617253302005167	98.60624472327689
17	6.0	wm	352	diff_vonmises	-0.030657699580866456	-1.7565567955636407	0.5315641156011127	159.55808053613114	0.520368783216773	160.14308789589936	0.18856918526852695	-0.24865619676213768	0.43722538203066463	120.77523931354547
18	7.0	ltm	352	diff_vonmises	0.00908803867932786	0.5207062603771329	1.3318680160100849	1.8189386607665432	0.3274655877627339	2.8890200627494993	0.11225918808164947	-0.2808606565211875	0.393119844602837	95.64420625475387
19	7.0	perception	352	diff_vonmises	-0.0703355974980063	-4.029932886166674	1.1171884788228195	17.795909610532686	0.8321433545406045	18.526786525423766	0.7340026285103578	-0.43610497320751684	1.1701076017178746	92.20520225136158
20	7.0	wm	352	diff_vonmises	-0.022275591822245224	-1.276297397570782	0.9978339463279108	138.72517948522025	0.9813814198304055	139.58571178972295	0.14111537779689343	-0.24162541718616914	0.38274079498306257	85.46372054956316
0	1.0	ltm	353	diff_vonmises	0.3045882752549886	17.451622661279856	0.7301742838552367	125.67059089018628	0.7073468364686961	128.8870224316044	-0.3725974303352402	-0.5899792501010026	0.21738181976576243	80.41657351942075
1	1.0	perception	353	diff_vonmises	0.05478369669538838	3.1388746067705493	14.071969812865522	0.5287827420912238	0.05781682283215778	3.134375299209455	0.2559422067259569	-0.5133028860380136	0.7692450927639705	35.722678082164094
2	1.0	wm	353	diff_vonmises	0.02327494712862523	1.3335562388603597	1.8699562705727386	1.9991942607469415	0.41639246668590324	5.705156621594538	-0.32901028233707763	-0.7239745909132633	0.3949643085761857	72.24246525873508
3	2.0	ltm	353	diff_vonmises	0.05402900823889011	3.095634143365956	15.48397406271996	0.3648739320901584	0.18556429049309317	1.741049317465431	0.23726886235318473	-0.30766885535043514	0.5449377177036199	33.63782728829784
4	2.0	perception	353	diff_vonmises	0.028619456876199406	1.6397740909628888	8.068195094022178	1.2578129857717764	0.3117220698886043	3.097699339842608	0.744344958609038	-0.5378062600796619	1.2821512186886999	45.68170293403679
5	2.0	wm	353	diff_vonmises	0.00953687893981835	0.5464229129787905	1.0625465187304604	158.53529925207604	1.0386913310053323	160.53673401710154	0.013410040352553665	-0.46315734212458537	0.47656738247713903	77.95622554952575
6	3.0	ltm	353	diff_vonmises	0.08468357122842643	4.852011225484323	1.5670384758012985	41.3221289544247	1.5091256554560957	41.95576103161822	0.13980975563173104	-0.20707523974648545	0.3468849953782165	68.46821783892645
7	3.0	perception	353	diff_vonmises	-0.07304610818260031	-4.185233708719026	6.309028247665578	1.1881299273886494	6.430336645864727e-20	1.917984838365391	0.8596642144961746	-0.30525290970722724	1.1649171242034018	54.223224662434575
8	3.0	wm	353	diff_vonmises	-0.019545643992986677	-1.1198829086633666	1.47720291207342	194.6606115753045	1.4593813040980654	195.824630880019	0.11496102965614341	-0.3327825432848819	0.4477435729410253	68.09571733991379
9	4.0	ltm	353	diff_vonmises	-0.32473202556213493	-18.605774537444695	0.8596776632053093	91.60136566240915	0.8303894983828497	93.5866350095895	-0.10236355918038953	-0.40826129416508294	0.3058977349846934	83.22204935781116
10	4.0	perception	353	diff_vonmises	-0.04021790111199306	-2.3043159945917027	2.6225310668575825	2.198548631109449	0.20407912702810266	4.359516704774312	0.49036322369210017	-0.6022847947539205	1.0926480184460208	77.39446674372056
11	4.0	wm	353	diff_vonmises	0.1957700726799249	11.21679891952908	1.5969059075443264	2.1865427163716014	0.6001230974076023	4.705212283295376	-0.2658175187004659	-0.49972271034235854	0.23390519164189266	69.48836688670372
12	5.0	ltm	353	diff_vonmises	-0.07999898957923156	-4.583604468201021	3.038829217518794	0.768688318347831	8.779128402918237e-19	1.8296807845057934	0.2159151781484967	-0.2900394587830189	0.5059546369315155	78.81815349542475
13	5.0	perception	353	diff_vonmises	-0.10566001960407523	-6.05387318658305	0.8412928247340585	123.30641496967733	0.8063216053832403	124.61836412906005	0.42332766596105387	-0.45954762293633955	0.8828752888973934	96.59591455672906
14	5.0	wm	353	diff_vonmises	-0.14491217706933848	-8.302856146125562	0.4723347275303354	153.30552168166685	0.4567162714354666	154.71934655258485	0.10743569633962835	-0.41379869923074075	0.5212343955703691	123.13512850157593
15	6.0	ltm	353	diff_vonmises	0.30012594179564467	17.195949787279435	0.6039371129735681	117.6675691400508	0.5901231143007553	118.6024329921873	0.061047846917073656	-0.24492867154396158	0.30597651846103524	108.15195998780254
16	6.0	perception	353	diff_vonmises	-0.18133836094086817	-10.389922745731722	0.7224875046877646	193.75096577187136	0.7061780163801558	194.87361921832598	0.2818388058218204	-0.37585843945566566	0.6576972452774861	102.95704362893268
17	6.0	wm	353	diff_vonmises	0.3939091574052373	22.569332230874515	0.00019395196559945428	8946.310988958567	2.4324466703284468e-33	8947.53898397642	0.08072254133321621	-0.47157871799049644	0.5523012593237127	175.2101685833559
18	7.0	ltm	353	diff_vonmises	0.08635415341302541	4.947728533991589	1.2874421423826636	254.31300133884162	1.2739925817897646	256.09069409840123	-0.07436452612539313	-0.4167499113413129	0.34238538521591977	68.0273965777208
19	7.0	perception	353	diff_vonmises	-0.08604243447489227	-4.92986835444226	1.5757434010653206	2.08683426779816	0.04128187589006863	3.3231431370116584	0.3803973773135636	-0.46743824708309734	0.8478356243966609	105.77033585282537
20	7.0	wm	353	diff_vonmises	-0.46875828138501996	-26.857871135167507	0.7821323276655736	168.3272410156768	0.7696721000318015	170.02332925231096	-0.10465805079672208	-0.3399663755316986	0.23530832473497654	85.93400412413683
0	1.0	ltm	354	diff_vonmises	0.03978775301510063	2.279670324074182	3.792833554900311	0.3568009755266616	5.099489780602436e-17	2.665368522740014	-0.15776623513881782	-0.42407129796535054	0.2663050628265327	70.35730770263675
1	1.0	perception	354	diff_vonmises	0.04172823832006399	2.3908519422557393	15.525536402326665	0.5163618797383893	0.016577372869463515	2.5914847246631725	0.38534817500807855	-0.41552245763797874	0.8008706326460573	34.28599379179002
2	1.0	wm	354	diff_vonmises	0.03740783368701795	2.143310990993434	4.218228415546974	0.5563765244971769	0.10816974084973159	3.0591142496034798	-0.10059515333578994	-0.48119430212393766	0.3805991487881477	61.84507973674911
3	2.0	ltm	354	diff_vonmises	0.12941443829257349	7.414901122220688	7.284412352051968	0.484067770083747	0.29308728192204425	1.5916317610846988	0.1791231149961401	-0.2738347722496992	0.4529578872458393	47.37965490115445
4	2.0	perception	354	diff_vonmises	0.02734576840093278	1.5667971169156583	6.527297839888433	1.2961739807050014	0.36595249367497956	2.6355909614183375	0.7084299181245225	-0.4439690968088973	1.1523990149334198	50.26802157508652
5	2.0	wm	354	diff_vonmises	0.07097844597014118	4.066765390486435	1.074918295533877	25.06335946821719	0.9603231796451375	26.364540401504634	0.10753088706311154	-0.3299006395846451	0.43743152664775664	82.2141757761216
6	3.0	ltm	354	diff_vonmises	0.09622731753687211	5.513419168727984	2.498376428474175	1.505050918015954	0.9876341167459741	2.1563653316172275	0.15482096907418996	-0.21276147297704062	0.3675824420512306	65.39134154614189
7	3.0	perception	354	diff_vonmises	-0.056356126230456514	-3.2289681827116716	5.988610128583433	1.183480156071215	5.699354276320581e-14	1.7171889168552452	0.8557210613064774	-0.2732920068864187	1.129013068192896	55.683938969962554
8	3.0	wm	354	diff_vonmises	-0.0071517877721532525	-0.409767255317651	1.3547493589422486	147.870685454108	1.334718811097117	148.6974271864357	0.20030536021237566	-0.2634967935197565	0.4638021537321322	73.86817098719851
9	4.0	ltm	354	diff_vonmises	-0.13556049582993826	-7.767044279756258	1.0593010952005055	141.28110326183247	1.0400976712176335	142.86736169532978	-0.043238211436325	-0.3519825582335727	0.3087443467972477	76.15162246808993
10	4.0	perception	354	diff_vonmises	0.007923846693398524	0.4540029730404283	3.143088214616335	1.5549306478641447	1.7364975082411385e-15	3.5969358137990852	0.4731449788710228	-0.5705229360327311	1.0436679149037538	77.47556315502234
11	4.0	wm	354	diff_vonmises	0.10648126504619385	6.100927084360802	1.1937086127278607	211.67893580020228	1.1761047776320352	213.6466723671537	-0.047479852194143746	-0.4552423488654753	0.4077624966713316	71.7441905579374
12	5.0	ltm	354	diff_vonmises	-0.07803342236471783	-4.4709857624601	2.0121240730719947	0.9306381349861922	1.216451707038493e-17	1.7688533935622501	0.20030474358027683	-0.2729070450662036	0.47321178864648045	96.73758373124151
13	5.0	perception	354	diff_vonmises	-0.07578054248347431	-4.341905253514912	1.7556082213908355	2.3160752224956336	0.17574140551830236	3.4070691328109914	0.4624377712710884	-0.42068352216293114	0.8831212934340196	94.65522755435606
14	5.0	wm	354	diff_vonmises	0.08629486923756764	4.944331800945946	0.6515510979718806	6.309728942510841	0.3557569659560493	7.172949828985036	0.15827295953817222	-0.30313997729690884	0.46141293683508106	121.87670178495551
15	6.0	ltm	354	diff_vonmises	0.2442367137515367	13.993732900107847	0.7675022764434982	126.47724125930955	0.7539426231139202	127.18566176168194	0.11857359333565398	-0.2063189491139692	0.3248925424496232	98.13007329107819
16	6.0	perception	354	diff_vonmises	-0.23070382374592271	-13.218355418171393	0.6892260012312139	90.58372313506183	0.6573661569957132	91.5263340322384	0.2887388547130847	-0.3485366984616798	0.6372755531747645	106.91874520655553
17	6.0	wm	354	diff_vonmises	0.24400591008482847	13.980508824109322	0.28383828640186876	138.7630689140104	0.27047121578961425	139.5635162394218	0.16571539605631358	-0.3450966817523806	0.5108120778086942	146.3591885268047
18	7.0	ltm	354	diff_vonmises	-0.049721406039053576	-2.8488267174940534	0.9055503593926502	121.41108160529402	0.884334135446593	122.95670231530936	-0.0034832623099774196	-0.34413727117084925	0.3406540088608718	84.2730498048341
19	7.0	perception	354	diff_vonmises	-0.02990751486151402	-1.71357437728954	0.8891669449529606	128.48400896197614	0.8526577923231898	129.71196254874965	0.5092556378921671	-0.4693490640563205	0.9786047019484876	94.78209912682141
20	7.0	wm	354	diff_vonmises	-0.0772859895755548	-4.428161018171367	0.9055748341368111	181.0124972448956	0.8917735221567921	182.49377963734074	9.029895415579858e-05	-0.3310833958648871	0.3311736948190429	84.22524512269919
0	1.0	ltm	355	diff_vonmises	-0.33183135113856727	-19.012535930363548	0.6455478413802104	101.96002776267785	0.6204806789921472	104.67087689384356	-0.24524894759544225	-0.5100299056738624	0.26478095807842017	91.22552719803652
1	1.0	perception	355	diff_vonmises	0.04269394573605962	2.446182901436773	11.237850012708275	0.6729211098641532	7.278678480378419e-19	3.422549643486484	0.3444830665608887	-0.5447156935840292	0.8891987601449178	40.4710957037008
2	1.0	wm	355	diff_vonmises	-0.23830440640190478	-13.6538367261995	0.00020954951027655146	5302.599189425643	2.9839278162634035e-30	5305.725304308921	-0.3206844615929185	-0.6743702834428404	0.3536858218499219	178.37006894608052
3	2.0	ltm	355	diff_vonmises	0.12729102650257176	7.29323858848527	9.33904667932352	0.44887253725199655	0.1538572574973356	1.762319625430347	0.21426212778448966	-0.29606669801360125	0.5103288257980909	43.10734702703289
4	2.0	perception	355	diff_vonmises	0.0047227489427416345	0.27059358211896734	7.312811442932969	1.1771289516049295	0.16279314970049613	2.6898817373133963	0.7460921341528838	-0.43949501644742717	1.1855871506003108	48.934556455747014
5	2.0	wm	355	diff_vonmises	0.10018990475860143	5.740458692485545	1.915827721645844	0.9102706072273606	9.308978187971644e-20	2.548116239814241	0.05197308910826842	-0.39562878621283937	0.4476018753211078	98.98967596892547
6	3.0	ltm	355	diff_vonmises	0.09065616526321552	5.194215656422749	3.810799690702215	0.6383083905615003	0.47437881564913914	1.2260422786070533	0.18125430838857437	-0.1804678827796137	0.36172219116818805	61.928183438311834
7	3.0	perception	355	diff_vonmises	0.019764122183115893	1.1324007868734274	2.4649628149605336	4.522403813116705	0.8875892376769291	5.263227233604443	0.9571636938304993	-0.47154998386682645	1.4287136776973257	70.9464733012259
8	3.0	wm	355	diff_vonmises	-0.11807418035438302	-6.765152203772646	1.1139796123167216	117.40836052211485	1.0905580653206512	118.33358995588559	0.18275205896127034	-0.27170385743730385	0.4544559163985742	81.36426197107315
9	4.0	ltm	355	diff_vonmises	0.05723278607877566	3.2791970920889377	1.8817945813071892	2.516780189992018	0.6891128886202718	3.992969509128248	0.12335336533728314	-0.3768028099208359	0.5001561752581191	74.31999057841756
10	4.0	perception	355	diff_vonmises	-0.09404932006007309	-5.388629105517258	1.1894134913462344	298.92389474289826	1.165610374219449	300.5982870907241	0.6944167860378059	-0.6157469504339055	1.3101637364717114	81.08450173043883
11	4.0	wm	355	diff_vonmises	-0.17303159732772272	-9.913980249285645	1.0826507968783572	330.69766743750284	1.0691756737341174	332.5787324585145	0.1693279555950511	-0.4851385836377631	0.6544665392328142	80.02791983291107
12	5.0	ltm	355	diff_vonmises	-0.0801141697147476	-4.590203803849835	1.740778055386552	0.9937216480914368	5.954047822714645e-14	1.9147959377161892	0.16644106494315414	-0.2902543656177783	0.4566954305609324	103.4727933941626
13	5.0	perception	355	diff_vonmises	0.015994499593547887	0.9164173221340045	1.7423338943886053	2.857877908766671	0.21317937135994294	3.855749579235558	0.6049914937702173	-0.45283060159853694	1.0578220953687543	94.17455761835618
14	5.0	wm	355	diff_vonmises	0.15973484997331988	9.15213274462662	0.41344244296123844	129.44995067054367	0.399712623797984	130.67059683373498	0.04802333453771723	-0.3420496918210709	0.39007302635878816	128.85464304874182
15	6.0	ltm	355	diff_vonmises	0.5389648451123608	30.880410930860386	0.8114574084731936	154.81898168485048	0.8002051105285775	155.66383051648822	0.0761017163301716	-0.21658643837459834	0.29268815470476994	93.17008990848558
16	6.0	perception	355	diff_vonmises	-0.060784112074834216	-3.4826730833381863	0.6870740025699376	265.50982348583426	0.6757866792718529	266.52776255854565	0.28569746931572126	-0.36166892160601805	0.6473663909217393	105.926022391271
17	6.0	wm	355	diff_vonmises	-0.14235642718689187	-8.156422464370314	0.5235790228308305	157.52111145113997	0.5105433011788789	158.72429563905482	0.08552589003636513	-0.335918129403602	0.4214440194399671	116.91752518940913
18	7.0	ltm	355	diff_vonmises	0.1376189256512622	7.884983620941988	2.575563708970418	0.5694217260760671	1.9362881451881e-19	1.6076426792243186	0.08563779144816092	-0.25388598147239255	0.33952377292055347	85.69296798811479
19	7.0	perception	355	diff_vonmises	-0.05991311115488769	-3.432768406673238	0.8529163388659761	230.0822614085463	0.8352750485918828	230.64533900974746	0.5998136272230141	-0.370766458334419	0.9705800855574331	99.14482193165735
20	7.0	wm	355	diff_vonmises	-0.09366200653484312	-5.366437675173247	0.8259495523175286	127.84082332585304	0.8071976826984654	128.91891903724593	0.12887876334004744	-0.28855466809359775	0.4174334314336452	93.40917505228771
0	1.0	ltm	356	diff_vonmises	-0.11200321648366031	-6.417311596403828	9.196099869054008	0.28114480236478995	0.11998727206446415	3.8114646760280158	-0.346317147930168	-0.6410802500445958	0.2947631021144278	41.928820426871965
1	1.0	perception	356	diff_vonmises	0.033977326728354344	1.9467574206717493	13.049975866733854	0.7141964134778827	0.014134637581698266	4.0098393180761525	0.37181387899914575	-0.6414519703127597	1.0132658493119053	37.39139088051522
2	1.0	wm	356	diff_vonmises	0.1271139199838106	7.2830911324360015	11.051415045419047	0.2827189095695332	0.02200128730106563	4.559671850199747	-0.3712748043672401	-0.73215599484158	0.3608811904743399	40.199473824247235
3	2.0	ltm	356	diff_vonmises	0.0332181767201405	1.903261329183774	4.71858278273595	0.6924305729987251	0.2897940668016763	2.168780016002357	0.13045247023848372	-0.34737169279270336	0.4778241630311871	57.16858956930636
4	2.0	perception	356	diff_vonmises	-0.00925749021295469	-0.5304151180859694	7.8740355135654365	1.2751280778626122	0.23069936418761758	3.08782949066247	0.7921428961454604	-0.5197709519761741	1.3119138481216344	46.74227424871137
5	2.0	wm	356	diff_vonmises	0.07415759000438021	4.248916926112527	4.1460343056173725	0.6301372724246516	3.647506411627642e-15	2.6243220179108073	0.07634825813653762	-0.4175500613009	0.4938983194374376	67.21327656907297
6	3.0	ltm	356	diff_vonmises	0.008576027058285774	0.4913701554297697	4.142679483615938	0.6091950221593786	0.2789594518387958	1.0845316810771246	0.2535702671593145	-0.16261304126891124	0.41618330842822576	62.79430416342905
7	3.0	perception	356	diff_vonmises	-0.024140485720156576	-1.3831479471608035	4.522677283809964	1.6798201371141104	0.33482388938964464	2.276035390482442	0.887882796571343	-0.34098484399520507	1.228867640566548	60.62788648165068
8	3.0	wm	356	diff_vonmises	-0.1352872307881908	-7.751387346175663	1.5078521930605686	150.83483107312946	1.4882535367930825	151.56891991029607	0.20087044994015457	-0.24908858823695113	0.4499590381771057	70.08864292553307
9	4.0	ltm	356	diff_vonmises	-0.13594534028929842	-7.7890942430465895	1.0838706946148806	174.0461665788018	1.062292469375545	175.67361627128145	0.13008323435742142	-0.4143758813286631	0.5444591156860845	79.84476150157045
10	4.0	perception	356	diff_vonmises	-0.10827186586589344	-6.203520954122254	3.3277369896818523	2.101456274896482	0.133906511086272	3.869737501837616	0.7584102932666597	-0.5701895761724427	1.3285998694391024	71.6545972581392
11	4.0	wm	356	diff_vonmises	-0.19780346823636502	-11.333303902993753	0.9796678751228373	193.87457367431097	0.9609973211677689	195.80498967125354	0.04100924907987746	-0.448671804326203	0.4896810534060805	81.95483683397758
12	5.0	ltm	356	diff_vonmises	-0.07876651642548792	-4.512988958128333	3.2335087923572634	0.8333770744024203	1.4896786432397157e-22	1.8182795706115433	0.28004908208132423	-0.2885031530154952	0.5685522350968194	76.36041345473961
13	5.0	perception	356	diff_vonmises	-0.041702204337065556	-2.3893603049060133	0.9076638502702064	118.42975548784283	0.8664998230625385	119.52370991965735	0.5829067660457738	-0.4677620381559766	1.0506688042017505	94.75201591876726
14	5.0	wm	356	diff_vonmises	-0.19984477004300757	-11.450261881226801	0.49064603326971257	181.8305806346225	0.477722047118222	183.0227220718842	0.1488967372489114	-0.3799387225586095	0.5288354598075209	122.15829062778467
15	6.0	ltm	356	diff_vonmises	0.15450849341301737	8.852684571490775	0.7999286504062428	89.37203188454575	0.7835878158675438	89.98292147456583	0.09531908070727724	-0.17343195021431868	0.2687510309215959	95.85296923100475
16	6.0	perception	356	diff_vonmises	-0.14225236208720154	-8.15045997336345	0.6057785569219136	203.86981837988657	0.5938851763109014	204.71190366032343	0.23626900842656084	-0.31757308145803265	0.5538420898845935	113.08326246510664
17	6.0	wm	356	diff_vonmises	0.4733966220083002	27.12362847682554	0.00018019247306187044	6430.778629623478	2.118251578018288e-31	6431.396402615682	0.08611148421869075	-0.2827381191899576	0.36884960340864836	173.2220408402151
18	7.0	ltm	356	diff_vonmises	-0.0024879590394977897	-0.14254955256464544	1.0296143792347616	145.45603684943595	1.0155549945243225	146.4657052509006	0.038089493274370056	-0.24178434901506307	0.27987384228943313	80.41982779187981
19	7.0	perception	356	diff_vonmises	-0.13951889374544868	-7.993843773948388	1.6509984822314283	1.7807379531327674	3.744546976617516e-13	2.549552679196722	0.41184232864763504	-0.3756777952589345	0.7875201239065696	105.91537999602112
20	7.0	wm	356	diff_vonmises	-0.2468928262604067	-14.145916936778004	0.9939592732090508	78.69528975565578	0.9715368002955695	79.44961852244721	0.08058624482719523	-0.19684837516034825	0.2774346199875435	84.41789928999529
0	1.0	ltm	357	diff_vonmises	0.1709906142179334	9.797040531037231	0.0005077828800581155	1598.9365325673639	1.2664279737100871e-20	1601.4806793846737	-0.2756780486676291	-0.5341162281822562	0.2584381795146271	178.9574222287623
1	1.0	perception	357	diff_vonmises	0.055168526377060136	3.160923723361704	10.121786818221972	0.641914197621441	3.6690630733391456e-16	3.285236402671166	0.2812889119389914	-0.5228616114112813	0.8041505233502727	42.659337785589685
2	1.0	wm	357	diff_vonmises	-0.2572936783326752	-14.741841863858884	0.00030474700027733253	3423.323546543895	3.909129195850982e-31	3426.089842306063	-0.27422067239615444	-0.6062933180452319	0.33207264564907746	178.09749707410157
3	2.0	ltm	357	diff_vonmises	0.09831366131229162	5.632957861672912	9.394551586598359	0.376887902224204	0.03498557171070195	1.8528473777269054	0.14901083956091338	-0.297422746439832	0.4464335860007454	43.85490642957234
4	2.0	perception	357	diff_vonmises	0.015507400812240182	0.8885086177591072	7.167508091842754	1.1825700701568373	0.1629957139060109	2.842168114604942	0.7104931803661132	-0.4640273766511999	1.1745205570173132	49.34230301056118
5	2.0	wm	357	diff_vonmises	0.13259446285344828	7.597103108306757	1.73570407203117	0.969539725523513	1.3238250398508863e-22	2.4792035948346802	0.06433099030173522	-0.38031650732412864	0.44464749762586386	103.57384267101523
6	3.0	ltm	357	diff_vonmises	0.07046248209662627	4.037202838152809	4.746842977072091	0.4770768067224604	0.17818155578641487	1.248240878547149	0.16682464818087916	-0.19532997366914842	0.36215462185002756	59.36424166556128
7	3.0	perception	357	diff_vonmises	0.027794235608891712	1.592492395181721	2.815693079970499	3.5802221064794884	0.7293183815184622	4.433037542844643	0.9748381686133709	-0.4879795089607995	1.4628176775741704	69.21611877274279
8	3.0	wm	357	diff_vonmises	-0.10715914306399121	-6.139766633805285	1.0715668045589388	150.03270507642583	1.0536738179153304	150.90203192711417	0.19888921122363	-0.2638910892022448	0.4627803004258748	83.45533735607242
9	4.0	ltm	357	diff_vonmises	0.07297890452482161	4.1813832227604655	2.860330405620079	1.0744685529051572	0.3674241867551494	2.681826037935455	0.08872664620798565	-0.37612422520750294	0.4648508714154886	68.79941287606331
10	4.0	perception	357	diff_vonmises	-0.07384762129980275	-4.2311570275591	1.5423487720351035	8.953485506721007	0.8315047739565973	10.871862564740214	0.5776561925972228	-0.6258445896341112	1.203500782231334	80.19978875532391
11	4.0	wm	357	diff_vonmises	-0.11562861783026065	-6.625031792605074	1.0537849197748497	291.99334527272117	1.0397352958881585	293.8280044328947	0.13191638435009168	-0.4606880510992468	0.5926044354493385	80.64836173975354
12	5.0	ltm	357	diff_vonmises	-0.06200363843125133	-3.5525467965658537	1.4253422005343808	1.2010337459438094	9.407980055902488e-20	2.2259599105612105	0.15013053090929668	-0.3251130979305057	0.47524362883980237	112.8270103481565
13	5.0	perception	357	diff_vonmises	0.001260160506921993	0.07220187855569657	1.9246406724955227	2.2809628188981885	0.09581471431159183	3.3422766634005554	0.5655808914415077	-0.45774808021881447	1.0233289716603222	94.40212134973248
14	5.0	wm	357	diff_vonmises	0.14411165975522902	8.25698988259994	0.4652493677157814	142.3126212292506	0.4520769731874892	143.4382064697687	0.0802588024800599	-0.32745476625331094	0.40771356873337083	123.65546633167298
15	6.0	ltm	357	diff_vonmises	0.48339094590336357	27.696261055099423	0.7314636957546831	176.3391248803892	0.7210327655063168	177.28526330231063	0.07789994884074503	-0.24332468845217647	0.3212246372929215	98.1377480671681
16	6.0	perception	357	diff_vonmises	-0.07163397085455811	-4.1043241997293265	0.7298602860558715	258.4306537364875	0.7184684885390192	259.45928259712514	0.265316286630366	-0.34593321426430634	0.6112495008946723	102.3354572217758
17	6.0	wm	357	diff_vonmises	-0.1394122154210399	-7.9877315561942375	0.5608675727010931	181.54648099090858	0.5493716657268305	182.6967105582952	0.09861530378199745	-0.3221996849640263	0.42081498874602374	113.24534262766471
18	7.0	ltm	357	diff_vonmises	0.13172789588899178	7.547452478577936	2.292325024450529	0.6860023063237535	3.586705594047294e-18	1.889077175694302	0.08340693896830736	-0.2967351562434771	0.3801420952117845	90.80374755854851
19	7.0	perception	357	diff_vonmises	-0.07752987159014806	-4.442134428306709	0.8885257068600898	209.59435964209763	0.8666621862030716	210.16101828116402	0.6942806854253121	-0.40367930824201537	1.0979599936673274	97.55998769122559
20	7.0	wm	357	diff_vonmises	-0.12226497185434886	-7.005266869539988	0.9336262562570972	135.69972001848717	0.9138417215138245	136.7492037694358	0.16923323557315229	-0.2941867537273293	0.46341998930048156	88.54692696634186
0	1.0	ltm	358	diff_vonmises	0.013557232734737492	0.7767722175770614	5.263720129101209	0.46522392120121153	0.10903406326738217	3.7466996361227625	-0.24844988589778844	-0.6041428834885043	0.3556929975907159	55.02768079639483
1	1.0	perception	358	diff_vonmises	0.011866398192648162	0.6798945344604076	15.861657098557993	0.5672818858701281	1.6133886932605067e-16	3.2558959943164987	0.3756021023429654	-0.5181919416885573	0.8937940440315227	34.012992588633296
2	1.0	wm	358	diff_vonmises	0.035415284837995144	2.0291463514707773	3.4765852481647417	0.6898103645248965	0.14971638787201408	4.4788285923079085	-0.33241601955964817	-0.6999968072799605	0.36758078772031233	64.20791229470731
3	2.0	ltm	358	diff_vonmises	0.057264534964886156	3.2810161692673105	4.727597947958636	0.8100384565172538	0.3903525247889318	2.3198833878245817	0.15633777720758024	-0.3761193821900067	0.5324571593975869	56.00296091022133
4	2.0	perception	358	diff_vonmises	0.00590051054755968	0.33807435134759606	5.528172304836473	1.4070367290930348	0.3203439159974069	3.1772717217054076	0.6076923701335625	-0.5162222053204013	1.1239145754539637	54.204610452907275
5	2.0	wm	358	diff_vonmises	0.04389117794432487	2.5147792540675	3.1132698097944473	0.8907308728527972	0.20430023359568542	2.7921745705393675	0.05627345785734694	-0.41341000999117383	0.4696834678485208	69.57464827172396
6	3.0	ltm	358	diff_vonmises	-0.06600348196270146	-3.781720949630649	2.5458480413251627	0.8762406818485652	0.26483382593330335	1.6811189900113137	0.17929728850040783	-0.22480856450204292	0.4041058530024507	76.83352553048039
7	3.0	perception	358	diff_vonmises	-0.0702492583495099	-4.024986017351077	5.748000113978829	1.3158500493587006	1.6744286267665918e-19	2.2053735540353467	0.8775430304814711	-0.3509836073810896	1.2285266378625606	56.860693852129685
8	3.0	wm	358	diff_vonmises	-0.10671280613007364	-6.114193411250999	1.4345443043285118	213.79186441626814	1.416352662106874	215.0466592163149	0.16571941426356318	-0.36602912862406	0.5317485428876232	69.86805456277497
9	4.0	ltm	358	diff_vonmises	-0.31957718570560417	-18.31042396959966	1.8346360841039093	1.3354727439524587	0.18037130069718618	3.2312905787656163	0.04286029157354054	-0.4246288460377452	0.46748913761128574	88.21419655231097
10	4.0	perception	358	diff_vonmises	-0.03672615864456341	-2.1042538880613875	2.4441989687719228	2.4434402971296896	0.1376442291731337	4.736885628526505	0.5599922467761467	-0.664235326252845	1.2242275730289918	81.99082237548117
11	4.0	wm	358	diff_vonmises	-0.1623582125009383	-9.302440345591927	2.0337222864559155	1.3598215437825603	0.29490090257480805	3.960592994906867	-0.11982716154834827	-0.524208025988304	0.4043808644399557	77.11570940278176
12	5.0	ltm	358	diff_vonmises	-0.01590217142610465	-0.9111273078093299	2.369797766214431	1.125015450472059	0.04066293250886288	1.7634554658899404	0.3502547501553954	-0.26375126489575285	0.6140060150511483	87.62363153049847
13	5.0	perception	358	diff_vonmises	-0.042560259974943296	-2.4385232715438137	2.2877888377763593	1.758738630866408	1.3283921825180606e-13	2.746926539646274	0.5462987139052249	-0.4270553357262663	0.9733540496314912	90.90846062208698
14	5.0	wm	358	diff_vonmises	-0.11476678939060557	-6.575652660348492	0.45441789843741864	214.2915268912912	0.4422530471530354	215.2861099732407	0.24820030161220785	-0.40422272568338613	0.652423027295594	128.06783080705804
15	6.0	ltm	358	diff_vonmises	0.28668437549018766	16.425804767931496	0.714710986017913	87.49858675104359	0.6985908471574375	87.82658582928752	0.17565682202058852	-0.15463553801534413	0.33029236003593265	106.31880348474905
16	6.0	perception	358	diff_vonmises	-0.12375452834118698	-7.090612169582147	1.455625853308226	1.4905667565071452	0.07567139688102095	2.1532301511630316	0.26491102049369264	-0.2827718777363244	0.547682898230017	107.70702792835459
17	6.0	wm	358	diff_vonmises	0.38845175710002094	22.25664622627221	0.060350697636730226	154.71075140221103	0.051720576926074645	155.02370277988314	0.16586166989092277	-0.25364768214329203	0.4195093520342148	169.3974897272539
18	7.0	ltm	358	diff_vonmises	-0.05034745645855692	-2.88469676429399	0.7832661984118595	146.23574754514482	0.7687513489708329	147.4590300236915	0.041194907497867916	-0.28740601418329703	0.32860092168116495	92.79516375243901
19	7.0	perception	358	diff_vonmises	-0.11167771464262141	-6.398661714688561	0.8090373737946711	169.29754837784876	0.7886162530078548	170.13899371123284	0.40652245875878634	-0.35561586137585977	0.7621383201346461	99.59253630026902
20	7.0	wm	358	diff_vonmises	-0.1525892782837791	-8.742721644607768	0.931072204487937	133.80783517134273	0.9143793192926066	134.97913163652188	0.04368722516414891	-0.27687589402303026	0.32056311918717917	84.86217774874629
0	1.0	ltm	359	diff_vonmises	0.1950745939535668	11.176950923767626	0.5814060873734602	85.72584489029467	0.5617640482516556	87.94376047392608	-0.25521593083083616	-0.3967699665577715	0.14155403572693537	90.15928570971138
1	1.0	perception	359	diff_vonmises	-0.015430863100385144	-0.8841233298962251	12.924523235621146	0.5086022042394744	3.5647456532930606e-16	2.756255693153304	0.2834431817075258	-0.4386717179862358	0.7221148996937616	37.70237661757071
2	1.0	wm	359	diff_vonmises	-0.025964480864257424	-1.4876551707701384	6.55109468122053	0.3862971508190728	0.15528730414579373	3.028650526490372	-0.1734059292184974	-0.5034111043819379	0.3300051751634405	49.15343731475937
3	2.0	ltm	359	diff_vonmises	-0.015896566125121688	-0.9108061477201057	13.997262265983712	0.3409234687369633	0.18549556082181062	1.5585520165309903	0.20808609287829266	-0.2736815296290681	0.48176762250736077	35.32201402761794
4	2.0	perception	359	diff_vonmises	-0.005313075024714754	-0.30441677515252097	9.04598107033055	1.0792278951639316	0.23085111820456178	2.6278163044390994	0.7560161380266416	-0.4495145812541644	1.205530719280806	43.790196829108396
5	2.0	wm	359	diff_vonmises	-0.015062929897549105	-0.8630423102309892	1.4987186849516978	1.9909951412949747	0.46828469619191465	3.5434638663634157	0.008598970536812467	-0.3442361045880829	0.35283507512489537	83.25754252632157
6	3.0	ltm	359	diff_vonmises	-0.2067882986666401	-11.848096766289228	3.962459010678673	0.400045729948059	2.6243720337091952e-11	0.7355983848271936	0.18891951332156767	-0.11696346272823292	0.3058829760498006	68.79205471296697
7	3.0	perception	359	diff_vonmises	-0.0347304756016531	-1.989909672456801	4.293864651057865	2.082745010623732	0.4683167004715259	2.756244329181397	1.0004519235097862	-0.40288927707531075	1.403341200585097	60.866551883363655
8	3.0	wm	359	diff_vonmises	-0.2592924225360622	-14.856361471039198	1.5816751781928362	161.55390493804322	1.5645727507971388	162.2938349352586	0.14706159358594562	-0.23939484940159517	0.3864564429875408	67.34959271028731
9	4.0	ltm	359	diff_vonmises	-0.13843081289786313	-7.931501333612719	1.1958444150903758	109.76371268980306	1.1711508772870969	110.98656140662871	0.04479077574336543	-0.3025514994967615	0.34734227524012695	74.4468677832119
10	4.0	perception	359	diff_vonmises	-0.09272313626843819	-5.312644371397921	3.503629840831417	2.0734018267098744	0.2351662226189101	3.6480798701535697	0.7573874115447853	-0.5285512431736499	1.2859386547184353	68.28993740572011
11	4.0	wm	359	diff_vonmises	-0.13624082297987394	-7.806024154135737	0.9277431097431106	185.95286437624466	0.9142059744841903	187.69701446538346	-0.08868941199179403	-0.36434642832458053	0.2756570163327865	79.67993780663451
12	5.0	ltm	359	diff_vonmises	-0.037744268708397914	-2.1625872977988996	2.8747682572428914	0.8478145873690348	0.003537376553378925	1.6032868694148341	0.28582027364248436	-0.25254362557277604	0.5383638992152604	80.92139085389644
13	5.0	perception	359	diff_vonmises	-0.07340361981202252	-4.205717616211763	1.6296877604723943	2.678927738101737	0.24303350103273488	3.522932688158888	0.5158123917421722	-0.3900165359724464	0.9058289277146185	95.80643356411059
14	5.0	wm	359	diff_vonmises	-0.26025193953298986	-14.91133774533422	0.4159168376647372	123.89724781448993	0.400338421977481	124.97942468196592	0.10768127001958305	-0.3461102223974013	0.45379149241698435	130.08419461962615
15	6.0	ltm	359	diff_vonmises	0.3277133072461234	18.77658939547689	0.4752449450263395	107.59376686228053	0.46346818494639125	108.23273196729477	0.082325658439931	-0.20741486215875327	0.28974052059868427	123.57947387825593
16	6.0	perception	359	diff_vonmises	-0.12157877117462244	-6.965950466692656	0.9394388807647363	253.46322021975766	0.9280387087310187	254.23696388397224	0.29548297005625557	-0.28089796749319973	0.5763809375494553	91.16051611077671
17	6.0	wm	359	diff_vonmises	0.13302873304610197	7.6219849575141465	0.00029379757560164604	4122.910005088253	1.0120402569817765e-29	4123.742514431686	0.060296520301790224	-0.32526415730808367	0.3855606776098739	179.33709080871836
18	7.0	ltm	359	diff_vonmises	-0.0003804264968589282	-0.021796832684963456	1.2935931579210003	179.45389012578818	1.2803945823861165	180.3228314880207	0.08922422847230393	-0.23723978621127628	0.3264640146835802	73.1165762045676
19	7.0	perception	359	diff_vonmises	-0.16824786458792998	-9.639892552976967	0.8421467755143068	8.406474967206105	0.4424978691357403	9.096970764454532	0.47293043103411847	-0.399962751394851	0.8728931824289694	112.80468102120058
20	7.0	wm	359	diff_vonmises	-0.47038779210624065	-26.95123522216477	1.10438599325942	103.48895628250288	1.0883985001624699	104.28056081217382	0.026220585583487832	-0.19111586528203084	0.21733645086551867	77.35518664475458
0	1.0	ltm	360	diff_vonmises	-0.15236421148962606	-8.729826267194259	0.20087634425893253	91.41285105563998	0.1850714756194369	94.49747667060008	-0.3359497552526882	-0.6103899138739166	0.2744401586212284	150.84701288153067
1	1.0	perception	360	diff_vonmises	0.15612880005658694	8.94552130368432	4.301918254131285	1.056025840732756	0.278441497022095	4.134262287725658	-0.007956422572624189	-0.6602475404447083	0.6522911178720842	58.40950656752952
2	1.0	wm	360	diff_vonmises	-0.05858913093683041	-3.3569099280197454	3.9574002438820144	0.520859065965933	0.036543265008034495	3.6881118879113037	-0.2105243388202197	-0.5795284765138999	0.36900413769368023	66.06420624186694
3	2.0	ltm	360	diff_vonmises	0.02211675925657487	1.2671969619086363	9.491026656993592	0.39075056596261987	2.4963259795114157e-21	2.36359740643298	0.09736557473448076	-0.37617820801121993	0.4735437827457007	44.0729468208616
4	2.0	perception	360	diff_vonmises	0.06077388700931028	3.48208723023842	5.503196763043732	1.4775746160946945	0.3104755260323913	3.9119196780450336	0.5187595154889947	-0.6399508624599834	1.158710377948978	53.94035216858788
5	2.0	wm	360	diff_vonmises	0.13400523716130663	7.677934521992531	2.2007069458742876	1.0073113504111713	0.09940044661024525	2.835335451025461	0.053221234878084	-0.408062127599351	0.461283362477435	85.48395142184347
6	3.0	ltm	360	diff_vonmises	-0.05465314131028565	-3.1313943342114574	4.830529088984687	0.5148414537086736	0.06669603649962197	1.8868569838704228	0.11763060899638439	-0.2965268046663661	0.4141574136627505	60.23360334557515
7	3.0	perception	360	diff_vonmises	0.015478261127928728	0.8868390368317173	3.6758587493287003	2.6278926112497816	0.4273276439540716	4.126735556021816	0.966352360235227	-0.5849000407804698	1.5512524010156967	64.63086089049577
8	3.0	wm	360	diff_vonmises	-0.051357292171203925	-2.942556088630249	0.9483943101729896	249.60985537092193	0.9359004129825507	251.04206898010665	0.120558143526182	-0.36189799707071657	0.48245614059689856	85.639737372302
9	4.0	ltm	360	diff_vonmises	-0.06452659970432431	-3.6971018293878886	2.3279879030935158	0.9371604301314396	0.18924710713724302	3.2846867359366074	-0.09653547236224902	-0.4675085309598954	0.3709730585976464	77.12561344381135
10	4.0	perception	360	diff_vonmises	-0.015746313918295157	-0.9021973304064187	1.3519616857925856	14.57014774441649	0.9241269227422888	17.16437096424263	0.3099534165466409	-0.696023593149802	1.0059770096964429	78.69986124982833
11	4.0	wm	360	diff_vonmises	0.18618041338120736	10.667351914744179	0.7388272238617974	162.6018388552027	0.7202440123756156	165.02652885934026	-0.12278341107122515	-0.4929932211001784	0.37020981002895326	89.92924824588425
12	5.0	ltm	360	diff_vonmises	-0.042300062834432446	-2.4236150735511695	1.3624801028386748	1.4650307209960909	7.066941135170146e-17	3.0785404772099576	0.10885845175490166	-0.4507098498934228	0.5595683016483244	114.92051892106807
13	5.0	perception	360	diff_vonmises	-0.07752202419778728	-4.441684805844252	1.4609478790408204	3.242155109043635	0.25457093994722924	4.957560884359583	0.3805854999600917	-0.5343628296357277	0.9149483295958194	97.32410989082908
14	5.0	wm	360	diff_vonmises	0.05240539837360068	3.0026081505090674	0.39058630308933434	203.49745688157407	0.3795625901482103	205.10700379903423	0.04889015535930241	-0.4475461670306089	0.4964363223899113	131.39590849275817
15	6.0	ltm	360	diff_vonmises	0.4438648084446103	25.431580198258914	0.3915853288770476	218.02766644155344	0.38221235204705967	219.6719571547148	0.003916639974249847	-0.4254967599186834	0.42941339989293326	128.77135061096863
16	6.0	perception	360	diff_vonmises	-0.05855615590053575	-3.3550205976107708	0.8076242254372326	308.57438953467516	0.7957176216175844	310.1983107164692	0.20983686920484956	-0.44214512083515345	0.651981990040003	94.5748940613691
17	6.0	wm	360	diff_vonmises	0.10034043512304128	5.749083447056514	0.33803718600421356	170.6226735604564	0.326042809777835	172.32448247492934	0.0038940892581109665	-0.45501156395521036	0.45890565321332133	137.24921997509745
18	7.0	ltm	360	diff_vonmises	0.01771610197313828	1.0150578724842136	0.8635811000790499	185.29614793029063	0.8456156753292051	187.51971769639195	-0.059407499639235084	-0.47513392552775713	0.41572642588852204	84.74026135506321
19	7.0	perception	360	diff_vonmises	-0.061123489610562264	-3.5021179837969534	1.4296512766079184	4.1157943583422005	0.22432235402779563	5.4646032847557695	0.6568002219858995	-0.5874658221848776	1.2442660441707771	101.47740470258542
20	7.0	wm	360	diff_vonmises	-0.2333715350952021	-13.371204019444251	1.0997290340377535	245.44918671512184	1.0833744665453673	247.14727231255003	0.1453495242803342	-0.43663735794283554	0.5819868822231697	79.29819387690674
0	1.0	ltm	361	diff_vonmises	-0.011253529346594748	-0.6447797361864941	5.832508618167733	0.530311506848179	0.08016009365148918	3.074322270909514	-0.030387318277827702	-0.4921373193030627	0.461750001025235	54.13927616819217
1	1.0	perception	361	diff_vonmises	-0.01875547639658625	-1.0746096402816254	16.813988956816086	0.615477586740994	3.690343516752767e-19	2.9492987620725115	0.529730463715107	-0.46939547663864545	0.9991259403537525	33.02412951342296
2	1.0	wm	361	diff_vonmises	0.0010321205169243654	0.05913614956862699	4.501645006084492	0.4203202811037684	1.3909393349856938e-32	3.4411075700798706	-0.20312936742689258	-0.5476268993430156	0.344497531916123	64.43311344012687
3	2.0	ltm	361	diff_vonmises	0.09474288448520675	5.428367419897834	3.6788269318036235	1.1596524952219356	0.6249336135357173	2.3037160171215207	0.22884146945282702	-0.3373022475442254	0.5661437169970525	60.265260508880516
4	2.0	perception	361	diff_vonmises	-0.010846659685072032	-0.6214678217693261	4.614979165566264	1.3699295993950824	0.32073364850716907	2.655926858323113	0.5701045087107786	-0.41105928348472826	0.9811637921955068	59.12116813132678
5	2.0	wm	361	diff_vonmises	0.10230724140086588	5.8617731458956985	3.7743436475189207	0.5941237674652324	2.4197870619979523e-15	2.0729020299173455	0.1125724187733998	-0.3296794978410186	0.44225191661441837	70.53180078121241
6	3.0	ltm	361	diff_vonmises	0.009742233322054842	0.5581888523854578	1.2398798662282544	46.89449838242706	1.187462272847897	47.60096806457449	0.18687508406043918	-0.22535658135049985	0.41223166541093903	78.30044428900558
7	3.0	perception	361	diff_vonmises	-0.05052347612936224	-2.8947819485424167	3.8661308415317013	1.9978025893064433	0.28053642338097157	2.8592889152660557	0.9169147452280902	-0.4146819929531318	1.3315967381812222	65.45645834107148
8	3.0	wm	361	diff_vonmises	-0.13514266170133704	-7.7431041476508815	1.9574788914434385	2.6746381951673515	0.7658342152959088	3.9353062911308423	0.19270801519836356	-0.3530584822012234	0.5457664973995869	73.32056452553394
9	4.0	ltm	361	diff_vonmises	-0.07218149507536875	-4.135695026762965	2.83868783481377	1.0033225009988007	0.1554760091676864	2.3103344211373185	0.20968485854681485	-0.3332612919849945	0.5429461505318094	75.48922675029587
10	4.0	perception	361	diff_vonmises	-0.04600135520594831	-2.635683505182996	1.895122307315747	4.088753661211798	0.3691210832170137	5.934600771092413	0.7207113296436845	-0.6444111481346891	1.3651224777783737	85.35677726318141
11	4.0	wm	361	diff_vonmises	-0.21418881118267788	-12.272114899691934	1.0054420619812938	202.8756463574179	0.9822918623108527	205.09243616025336	0.13884826402559725	-0.5462966739769008	0.6851449380024981	82.56503703180749
12	5.0	ltm	361	diff_vonmises	0.03089297288102579	1.7700369626948853	1.3334121630523943	2.3270489984645604	0.3438892734987882	2.604876929489431	0.3711847937763514	-0.22090835432636557	0.592093148102717	101.45705665981637
13	5.0	perception	361	diff_vonmises	0.0015636777905227088	0.08959213791529284	2.2297694208445797	1.8998356155751983	4.2057735415308594e-17	2.6067740675470104	0.6314240815380938	-0.4027775729054891	1.0342016544435828	92.05822871937261
14	5.0	wm	361	diff_vonmises	0.06908204831047203	3.958109808308907	0.3497935069884501	106.02520320006765	0.3296568991334679	106.78817691067906	0.22176144927989938	-0.35946075088967433	0.5812222001695737	140.3754166319526
15	6.0	ltm	361	diff_vonmises	0.40297320427620653	23.088663861889813	0.888053400508061	83.34193100283679	0.8728669633077796	83.422952849489	0.2155348620773836	-0.10550815457680418	0.3210430166541878	98.68939967219302
16	6.0	perception	361	diff_vonmises	-0.07185391922230232	-4.116926312911861	0.6938040229657019	159.27867504487145	0.6784867629370238	159.8645333066232	0.30039882934336504	-0.27393067921574143	0.5743295085591065	107.75816318848794
17	6.0	wm	361	diff_vonmises	0.13819104749292938	7.917763787836769	0.3238295519768348	108.39510550300852	0.31220781245755796	108.62594973980988	0.17752095463342243	-0.1908402393701092	0.3683611940035316	143.69329979254456
18	7.0	ltm	361	diff_vonmises	0.03408882314929756	1.9531456950226094	0.4708048253506918	3.0616039956607652	3.81711974508353e-11	3.7993366268506876	0.13406478545415568	-0.31657171780385174	0.4506365032580074	153.6935472610819
19	7.0	perception	361	diff_vonmises	-0.07222010722347483	-4.137907339887378	0.9419575776392265	235.46188463191203	0.9262644393533064	236.12055161372766	0.4865869903609479	-0.3303514403264032	0.8169384306873511	93.29350505352267
20	7.0	wm	361	diff_vonmises	0.07387057284811667	4.232472054410779	0.9548526443502533	152.93885011988687	0.9377238398928531	153.93448102439274	0.16914505199870433	-0.2818824541413427	0.45102750614004705	87.61519088048041
0	1.0	ltm	362	diff_vonmises	0.008277898879644878	0.4742886690397241	9.480448274585996	0.40309754137659465	0.11327303958832678	4.136037308712159	-0.2467420141973939	-0.69163768111459	0.4448956669171961	41.99953432110553
1	1.0	perception	362	diff_vonmises	0.05120718598222295	2.933955637522846	13.403139963193478	0.6711238114573855	0.050820846777758	4.238769036318287	0.26139364678165167	-0.6909822696978559	0.9523759164795076	36.6116324606875
2	1.0	wm	362	diff_vonmises	0.13536421340546756	7.755798125241491	5.5414876911849	0.3785726840514078	1.0915355916052314e-27	5.01144850604101	-0.450923966623653	-0.7975914722622265	0.34666750563857346	57.93400523379486
3	2.0	ltm	362	diff_vonmises	0.09943771218139429	5.697361232430508	6.505037668694492	0.6366666342267367	0.2865258967340141	1.9593850839421656	0.2273592813172749	-0.3300480889451639	0.5574073702624388	50.00837657746959
4	2.0	perception	362	diff_vonmises	0.0033880471787000356	0.19412080413071786	6.270665997357818	1.3335517217891932	0.3044797842057627	3.1543337887028637	0.6381224448913996	-0.5240588095353279	1.1621812544267276	51.302560917192636
5	2.0	wm	362	diff_vonmises	0.0912360372524344	5.2274398740628465	3.2021124955630618	0.8618577757738106	0.08813204349059134	3.0153290184531634	0.06261988842407018	-0.45805331275234373	0.5206732011764139	72.22496054935269
6	3.0	ltm	362	diff_vonmises	0.02659983650150909	1.5240583672745038	2.4329982600676794	1.9209139108953093	1.0476619448847375	2.5444710585003776	0.22172374088768398	-0.22715537558525917	0.44887911647294315	66.31846357905863
7	3.0	perception	362	diff_vonmises	-0.015312630983233086	-0.8773491285805158	3.1131780520306593	2.918105679207375	0.6158278574813923	3.8783271502904824	0.9103306831892408	-0.479893941604052	1.3902246247932928	67.5657211187496
8	3.0	wm	362	diff_vonmises	-0.10203630883623319	-5.84624985340959	1.1580953240652125	216.7541841100638	1.1426469418033138	218.144231792092	0.11067292161158093	-0.358700431625234	0.46937335323681495	76.9612360738598
9	4.0	ltm	362	diff_vonmises	-0.08708978012592039	-4.989876839937554	1.0681410983591526	240.54862903154796	1.0519752895247647	242.25247966184253	0.13242632727386194	-0.43179256311285386	0.5642188903867158	80.29194207570717
10	4.0	perception	362	diff_vonmises	-0.09424276114565668	-5.399712463305627	1.2117426352879859	134.95973862699176	1.158646001605157	136.68629710107814	0.6850795666574498	-0.6246645205101391	1.309744087167589	80.66410484242482
11	4.0	wm	362	diff_vonmises	-0.1522567559676824	-8.723669519301511	0.8440803349917029	208.83586384675405	0.8263186194701221	211.1774972892771	-0.014763761195013103	-0.5153741994993943	0.5006104383043812	87.1388034537528
12	5.0	ltm	362	diff_vonmises	-0.10150490305297413	-5.815802544820003	2.5824029296995046	0.8980417308318492	3.253840813436587e-20	2.059100774210758	0.2117021030731734	-0.3246336560256375	0.5363357590988109	85.58648039971652
13	5.0	perception	362	diff_vonmises	-0.02699018351467528	-1.546423603674464	0.8743072548530106	130.82928257916248	0.8348085344087388	132.34444026541678	0.5157097127744805	-0.5363996667288671	1.0521093795033476	94.99298027622226
14	5.0	wm	362	diff_vonmises	0.021326656365654534	1.2219274008778158	0.2311877481108326	130.88404793751292	0.21687510370495566	132.7135721910713	-0.030118515005479907	-0.49321277793242757	0.46309426292694766	151.50284184852364
15	6.0	ltm	362	diff_vonmises	0.33384865288334414	19.12811880634364	0.5969047206182666	129.02084262600226	0.5844246123849868	130.09939551030848	0.021238901706041702	-0.2579517730100349	0.2791906747160766	106.48614537060993
16	6.0	perception	362	diff_vonmises	-0.05097963675131809	-2.9209180269605497	0.6431809433322776	350.863346029259	0.6331115900313531	352.4074601902818	0.2511623161077381	-0.4716698859276782	0.7228322020354163	107.42471415226339
17	6.0	wm	362	diff_vonmises	0.38180956604549654	21.876076712128413	0.00021504457172001964	6234.7191904437	3.643258832074559e-30	6236.252185204074	-0.03058692285287634	-0.45735752132827656	0.4267705984754002	175.48102451191016
18	7.0	ltm	362	diff_vonmises	-0.01431248853617879	-0.8200451874524184	0.9569766809522974	6.505648265414914	0.6519081539663871	7.889868181309911	-0.002891012972265017	-0.3058520063474287	0.3029609933751637	89.4882687814237
19	7.0	perception	362	diff_vonmises	-0.026402192967894905	-1.512734226950359	0.6710783334401981	77.85651203197817	0.6227477147526155	79.12109732432616	0.37367180136552847	-0.4693817000896692	0.8430535014551976	109.00175540310902
20	7.0	wm	362	diff_vonmises	-0.1548911155358493	-8.874607204277382	0.916555673743125	199.1126615908082	0.9026601027507933	200.5795836341462	0.05254939157471483	-0.3456774401629481	0.39822683173766293	85.43988244510086
0	1.0	ltm	363	diff_vonmises	-0.010005167492513647	-0.5732538706425206	6.165508656731468	0.21153066790888903	0.017337019797665696	1.6390963219507726	-0.06053052755453378	-0.26050774649611835	0.19997721894158457	54.10445407404643
1	1.0	perception	363	diff_vonmises	-0.03533177559281809	-2.0243616241718088	15.364290385852224	0.4824136490005761	2.1617414459387524e-19	1.8758344272299583	0.44949765591728524	-0.2985483215155683	0.7480459774328536	34.55674592270324
2	1.0	wm	363	diff_vonmises	-0.01963663534276953	-1.1250963289781228	5.690278455490961	0.4060761888323581	0.23291520743821353	2.2058854087603796	-0.060092709131082944	-0.3681630238337921	0.3080703147027092	51.7937507933778
3	2.0	ltm	363	diff_vonmises	0.06256434456789899	3.58467289174285	15.982341289832746	0.3573454468908899	0.6804005372846788	0.9433260055643837	0.30019628674508936	-0.21309496964950034	0.5132912563945897	32.25343073483887
4	2.0	perception	363	diff_vonmises	-0.011410475609778476	-0.6537720946772712	9.153958972246535	1.0504125634390242	0.3615496536001185	1.828926559571443	0.8448690729568802	-0.3247904760194661	1.1696595489763464	43.34047879315813
5	2.0	wm	363	diff_vonmises	-0.057204463864418235	-3.2775743487397926	1.0603081220487092	122.49765572331115	1.0422504583013696	123.58090168122905	0.03760549109298239	-0.2597004415639095	0.29730593265689187	79.14415917770452
6	3.0	ltm	363	diff_vonmises	0.06577105850742533	3.768404066583479	2.4402524457518524	46.979743344811254	2.411273201268189	47.01652663790911	0.17057299880483257	-0.07076198273583145	0.24133498154066402	59.00021606041793
7	3.0	perception	363	diff_vonmises	-0.07858579679778724	-4.502634486185909	5.423054134676042	1.3539680756356784	0.19973536061605537	1.5477817121486401	0.927779267056333	-0.23951413500928567	1.1672934020656187	57.038489758850915
8	3.0	wm	363	diff_vonmises	-0.08691985531692652	-4.980140865547638	1.9505058391566996	136.34958828069566	1.9318270470064827	136.86662006757257	0.14156678498490294	-0.1980861147904136	0.33965289977531654	60.936695528419335
9	4.0	ltm	363	diff_vonmises	-0.08491566306143673	-4.865309107975268	1.5136687598035565	117.9826145849688	1.495328428975874	118.78417815033653	0.03163128671735649	-0.2190208159341367	0.2506521026514932	65.74268592976776
10	4.0	perception	363	diff_vonmises	-0.08219622605916102	-4.709496845093161	3.833460412726899	1.718896526773343	4.2380202914157885e-16	2.8822554677496544	0.8323866347509477	-0.45812083166701617	1.2905074664179639	69.9740400268737
11	4.0	wm	363	diff_vonmises	0.04634909710023263	2.655607648085372	1.298319463628553	170.3925969922957	1.281836295399255	171.9216065839741	-0.09129015839373267	-0.35371281675588406	0.2624226583621514	66.72051039707617
12	5.0	ltm	363	diff_vonmises	-0.01724949140614572	-0.9883230563193335	2.8848530639188694	0.7508255795493246	0.13931523866494938	1.0949033388959046	0.28153344852218376	-0.1555641053305754	0.43709755385275917	77.12220525785486
13	5.0	perception	363	diff_vonmises	-0.07185196696660068	-4.116814456899627	2.0069401104107127	1.751698667783935	0.050779557320472686	2.2470552098757297	0.5295491156068945	-0.3233465199030591	0.8528956355099537	94.87662385096559
14	5.0	wm	363	diff_vonmises	-0.17945691482674808	-10.282123824011352	0.40943715093632227	20.769667419550615	0.3420492528225843	21.425167052018395	0.11266876551117466	-0.24697753634435404	0.3596463018555287	135.19606453030752
15	6.0	ltm	363	diff_vonmises	0.448583114746772	25.701919235822754	0.4771078511994471	79.54269572037275	0.46506422331550684	79.87981450518771	0.0972144551197438	-0.14272726979474992	0.23994172491449373	125.02796969129187
16	6.0	perception	363	diff_vonmises	-0.18950918029328567	-10.858076209789061	0.9894221888814448	231.03463875402323	0.9771604290357828	231.52984612138889	0.36957683369780625	-0.24600868525154596	0.6155855189493522	90.92659399424765
17	6.0	wm	363	diff_vonmises	0.04568172789009578	2.617370208967551	0.00022042719103157194	6670.157791308584	7.593085216291207e-31	6670.765562965967	0.13728080107193819	-0.3307147401487782	0.4679955412207164	179.8745191009208
18	7.0	ltm	363	diff_vonmises	0.03530499826149143	2.0228273961001677	1.4814428353034743	135.70193126025143	1.4656321824679326	136.35259911972207	0.09947321017215671	-0.1962422466387288	0.2957154568108855	69.02298916575913
19	7.0	perception	363	diff_vonmises	-0.13116350855272155	-7.515115466199021	0.7082040994664723	101.49119749857222	0.677673437507373	102.13399090314311	0.41018093971405634	-0.33840244916129425	0.7485833888753506	107.93884342477378
20	7.0	wm	363	diff_vonmises	-0.7927290865912889	-45.42003095894164	0.7439373481431671	41.75858515389539	0.721325001437635	42.64800591211051	-0.07652802507866241	-0.17053152687807405	0.09400350179941164	85.33008842767057
0	1.0	ltm	364	diff_vonmises	0.16378455972485365	9.384164021642478	0.6359263522154446	31.49491948521037	0.6043549860062554	32.16847026454858	0.009116337108082462	-0.1572687581171217	0.16638509522520417	103.38502402964409
1	1.0	perception	364	diff_vonmises	-0.05048839599915382	-2.892772005136705	14.418925509770933	0.5805393032970741	1.0583818950286698e-24	1.348005731889248	0.6570056387695924	-0.21454177554612125	0.8715474143157136	35.67874826109619
2	1.0	wm	364	diff_vonmises	-0.05411347708216714	-3.1004738515860817	13.864800603714476	0.22207616265704572	4.031536702507682e-18	0.9839327923665593	0.17020889499479044	-0.15659776757505325	0.3268066625698437	36.39132261070165
3	2.0	ltm	364	diff_vonmises	0.13494428322196844	7.731737898036838	2.1324887496992986	26.973631315268545	2.055519988614881	27.287800473168463	0.1516521308378973	-0.1460509415080553	0.2977030723459526	59.91634906259284
4	2.0	perception	364	diff_vonmises	-0.037524508731945544	-2.149995978642284	8.622998982454705	1.0174053268453502	0.3471123147399537	1.2825034852216535	0.8932461671748901	-0.2214093936717823	1.1146555608466724	44.99483218765124
5	2.0	wm	364	diff_vonmises	0.06811874065881293	3.9029163454961817	2.267808443277116	0.5358729725399648	4.304029794670915e-10	0.8575640533237912	0.16163174003640948	-0.13328963275511443	0.2949213727915239	91.29383567895732
6	3.0	ltm	364	diff_vonmises	0.09700390155677774	5.55791415550588	2.7950414805776624	42.505471751909454	2.757823398897321	42.455527129118416	0.23727216950472396	-0.06747897177836037	0.30475114128308434	56.71552604476739
7	3.0	perception	364	diff_vonmises	-0.04844363062963686	-2.775615579368875	5.367959639964256	1.3092683235195548	0.30617222318905357	1.20521189925961	0.9244070488026481	-0.1839567182652365	1.1083637670678845	56.97957856642691
8	3.0	wm	364	diff_vonmises	-0.17283270186542624	-9.902584378731753	2.029394710583654	78.59879542552977	2.0094364701674294	78.54968465908043	0.26884396542650535	-0.07607057177527832	0.34491453720178367	66.78471129716405
9	4.0	ltm	364	diff_vonmises	0.0629212933466093	3.6051245502653	2.196014166400302	120.99202909224836	2.174151786214601	121.40102626268542	0.17252593578531616	-0.18684257165744356	0.3593685074427597	58.204809077915485
10	4.0	perception	364	diff_vonmises	-0.057128894175511175	-3.273244524506301	3.785745241525711	1.6919949355693982	4.5160880484342814e-21	2.691418758177151	0.8338447336834895	-0.4277026071394659	1.2615473408229554	70.4245884660387
11	4.0	wm	364	diff_vonmises	-0.0857272211111712	-4.911807959054921	1.4299284678802435	199.29286698326584	1.4159005189347826	200.0959104952489	0.16082978642809564	-0.25010020671641797	0.4109299931445136	71.09261542344734
12	5.0	ltm	364	diff_vonmises	-0.004081898209517843	-0.23387553980737982	2.447731619831322	0.7402913442741916	2.2036313572483837e-13	0.7494516554855568	0.31162007337069986	-0.11605548856307615	0.427675561933776	87.91658557220029
13	5.0	perception	364	diff_vonmises	-0.04773300830072505	-2.7348999190944707	1.9992009908719601	1.7501826397464961	7.302931223424859e-19	1.8671429405966993	0.6054912948089615	-0.28060515175152045	0.8860964465604819	97.03697494789998
14	5.0	wm	364	diff_vonmises	0.04485127009606594	2.5697884823058965	1.0569708543321217	1.3652438026348728	0.20666903967063466	1.3801156280758964	0.2139621721620949	-0.11863826371553504	0.33260043587762994	117.36501981269194
15	6.0	ltm	364	diff_vonmises	0.13753614296219613	7.880240522241759	0.9807799668479905	45.829659610419995	0.9598178973518559	45.819669202371024	0.18551033566021857	-0.07008608039680242	0.255596416057021	95.66708105269043
16	6.0	perception	364	diff_vonmises	-0.24542172437704562	-14.061629007627667	0.9590436328732482	106.96792900716744	0.9399350234237971	107.21370782189206	0.3069956791921129	-0.17149454215149085	0.47849022134360375	93.8432134808198
17	6.0	wm	364	diff_vonmises	-0.12045321756417693	-6.901460995198416	0.47120730052368204	103.58253728110763	0.4598662343777839	103.51745659158236	0.2338829251939991	-0.1302804118466483	0.3641633370406474	131.17437569655107
18	7.0	ltm	364	diff_vonmises	-0.0985101184923265	-5.644214028943953	1.0728279104895182	103.27483596491395	1.0574820518211465	103.584721145331	0.18863964736104322	-0.13570715410475742	0.32434680146580064	86.6921799284865
19	7.0	perception	364	diff_vonmises	-0.13345724761112995	-7.646537033550135	1.9971045506992229	2.079190635250509	0.1603557690394728	2.4951750690034156	0.6084385477769587	-0.31768304370125383	0.9261215914782126	91.41401624809579
20	7.0	wm	364	diff_vonmises	0.18482662621984908	10.589785624039353	0.8020861243529587	18.985637053123884	0.7589673444647066	19.25703233322022	0.07604055804481025	-0.09167655560686616	0.1677171136516764	98.7796757146528
0	1.0	ltm	365	diff_vonmises	-0.02289517050736482	-1.3117966413043998	4.5077297341401845	0.2515900332349965	9.653457362715282e-15	2.570961325778355	-0.2028140623856851	-0.4091561231092892	0.20634206072360411	64.3916285214693
1	1.0	perception	365	diff_vonmises	0.03512596330049082	2.0125694484495438	14.598791711260969	0.6218405403457096	1.3976877856936734e-19	2.64705529552036	0.5181960562790748	-0.421291934919447	0.9394879911985219	35.45753168811419
2	1.0	wm	365	diff_vonmises	0.08110648841097529	4.647059477075607	7.063315122843675	0.3866577970870399	0.04235951362224282	2.8517043125737844	-0.07117729917133636	-0.4565973418637215	0.3854200426923851	49.99635269744019
3	2.0	ltm	365	diff_vonmises	0.1048735003363746	6.008808952038084	3.491186188827904	0.7992960235792497	0.46335076387770413	1.9618402114744191	0.09949980454018659	-0.2910007805523843	0.3905005850925709	62.33679260955532
4	2.0	perception	365	diff_vonmises	0.007735313063194699	0.44320079173346894	7.515460634716953	1.2654587589423854	0.29266142575821336	2.466903757964979	0.8440733607677758	-0.4172325524482193	1.2613059132159952	47.692773057990394
5	2.0	wm	365	diff_vonmises	0.07363612180892327	4.219038999362541	3.290254337843364	0.699479168846183	0.11140842151623286	1.8750062151120026	0.1501368797976872	-0.2816421087851838	0.431778988582871	71.4494500118636
6	3.0	ltm	365	diff_vonmises	0.15407628835011464	8.827921045502263	6.738566721998288	0.42800066759365	0.24332312790799365	0.9450497952768722	0.24532011509636165	-0.15595604543422412	0.4012761605305858	50.28368274538357
7	3.0	perception	365	diff_vonmises	-0.055937744357310394	-3.2049966671556214	6.4808006353894765	0.9907349851527966	1.7337762285018834e-13	1.2224104157540523	0.7905858361699525	-0.19455034605802998	0.9851361822279825	53.486838714395674
8	3.0	wm	365	diff_vonmises	-0.019188503858879165	-1.09942028628427	1.6422193386689459	131.22038764746733	1.6227092754424781	131.59587676701042	0.26459362987456814	-0.18207047586753156	0.4466641057420997	69.64059307989186
9	4.0	ltm	365	diff_vonmises	-0.15108984113423302	-8.65681022429365	1.063955817925017	105.2146070626951	1.037821211290272	106.70169526911887	-0.0011351129985257558	-0.34096143703033555	0.3398263240318098	77.57721325936197
10	4.0	perception	365	diff_vonmises	-0.007343844798854237	-0.4207713123734487	2.5373971436897444	1.8255487207800196	6.446846374481127e-23	3.8462107702498263	0.47310569052281737	-0.6053571457195119	1.0784628362423292	86.35410665599437
11	4.0	wm	365	diff_vonmises	-0.00661188283279588	-0.3788329809542069	1.2755322178545365	279.605630018244	1.2619002994597126	281.23092038368384	0.061776752541774727	-0.4120777867619765	0.4738545393037512	71.8352762813247
12	5.0	ltm	365	diff_vonmises	-0.07070213893128947	-4.050934163310475	2.4376387642973696	0.845812134135759	3.073703870877425e-17	1.5290633013885238	0.24777275727569834	-0.23960918656167943	0.48738194383737776	88.09184596949103
13	5.0	perception	365	diff_vonmises	-0.0648367864879316	-3.7148742229493243	1.5799717657465744	3.015298729829421	0.3179122758564171	3.8050424488647097	0.5362903164468069	-0.3809483691363268	0.9172386855831337	94.64465000495318
14	5.0	wm	365	diff_vonmises	0.009486960173819805	0.5435627783685727	0.6500750904898965	169.87399653424603	0.6385117746552189	170.31669624564157	0.2523727453829423	-0.22749591234287792	0.4798686577258202	111.58582569039096
15	6.0	ltm	365	diff_vonmises	0.1390344842031407	7.966089151618277	1.0359105300045004	72.02951550487235	1.0143302398575467	72.38708484031797	0.17022926488708023	-0.14023009237170747	0.3104593572587877	87.62067695726248
16	6.0	perception	365	diff_vonmises	-0.31716107362283785	-18.171990944426586	1.2476873873783372	1.5254004929804985	0.010974953251656793	2.0239131850294836	0.266060250557164	-0.2697932015625827	0.5358534521197467	117.85218574581319
17	6.0	wm	365	diff_vonmises	0.273125161728364	15.648919045863293	0.4021015424118512	129.55230249145058	0.3907907993471638	129.67526036682227	0.24075643611647735	-0.19298255102267348	0.4337389871391508	135.8124134556349
18	7.0	ltm	365	diff_vonmises	-0.04972638446124248	-2.849111960074112	0.9199889378398518	148.17374709247161	0.9049640095621585	149.36279236831803	0.03889091801274702	-0.2789999135629664	0.3178908315757134	85.16241071647872
19	7.0	perception	365	diff_vonmises	-0.10756850486554759	-6.163221337328338	2.659662793599687	1.538104541942623	1.1635997006864138e-10	2.3671976233896523	0.5631469772884241	-0.372149310882145	0.9352962881705691	84.32599555940376
20	7.0	wm	365	diff_vonmises	-0.025573717821911143	-1.4652660976540046	0.8365738477434596	93.95878772219025	0.8178587015600065	94.82613628193734	0.06936640318985354	-0.21840321188366651	0.28776961507352006	91.56663570247787
0	1.0	ltm	366	diff_vonmises	-0.01611659815755762	-0.9234130545363701	8.709857092125352	0.37007856615075646	0.060303498861973885	4.24343168552478	-0.28758736637111626	-0.6899392785275967	0.4023519121564805	44.44351271638155
1	1.0	perception	366	diff_vonmises	0.060341759152848826	3.4573281278531436	14.498000824026198	0.6397640078018423	2.774146837210678e-16	4.014235381678669	0.3238331372265314	-0.6388854037282952	0.9627185409548266	35.594101765532656
2	1.0	wm	366	diff_vonmises	-0.2752249018086942	-15.769225290540675	0.20000874443605426	5.054267802400084	1.4130807046191195e-31	9.752082022527922	-0.5793272365578315	-0.9000375865630614	0.32071035000522996	166.8533082667451
3	2.0	ltm	366	diff_vonmises	0.12877848976833817	7.378463955794431	9.174967861800368	0.5588905192351578	0.27935027214142094	1.9450986983433656	0.264065605367011	-0.34332388534833697	0.607389490715348	42.74516003886313
4	2.0	perception	366	diff_vonmises	0.015758170706241817	0.9028766743143439	6.743522021121877	1.3148142451661138	0.25959475712845087	3.0924594813964448	0.7074279826273548	-0.5137575724514158	1.2211855550787707	50.02733219865567
5	2.0	wm	366	diff_vonmises	0.07425240045292501	4.254349164667886	2.305145154125937	1.2260949120919256	0.2025067241058014	3.5286693225012167	0.0080820228591022	-0.4906591706925959	0.4987411935516981	78.60725094837198
6	3.0	ltm	366	diff_vonmises	0.10015746701082733	5.738600146441179	2.417036414488662	1.556356115471267	0.9659886640079693	2.1790580737019085	0.16861916771496122	-0.2074152164472878	0.376034384162249	66.75443108380634
7	3.0	perception	366	diff_vonmises	-0.022165512709539505	-1.2699903290001995	3.503879370345194	2.164904306282141	0.3865067738993794	3.0304325170191166	0.8632684765554439	-0.41850181154768046	1.2817702881031243	67.05288378011764
8	3.0	wm	366	diff_vonmises	-0.04080378470978451	-2.337884652031093	2.2152538152995214	1.7639421808776756	0.5854248696497593	3.2341949434809933	0.11770945032931135	-0.37005520317635143	0.4877646535056628	72.00060693085655
9	4.0	ltm	366	diff_vonmises	-0.06589851381424007	-3.775706717740509	0.9666773516737467	225.01078517324012	0.9504162964756879	226.96759225166383	0.04415661092967582	-0.4548760509190579	0.49903266184873374	82.54017345643334
10	4.0	perception	366	diff_vonmises	-0.0842078426825548	-4.824753987611982	1.1074037510876846	375.3931817977493	1.0882986123875906	377.2891622487826	0.6636786450897034	-0.654848938575789	1.3185275836654924	83.52113942696948
11	4.0	wm	366	diff_vonmises	-0.1820264243256927	-10.429345873719653	0.9390568760924493	240.53698866770358	0.9209045337946618	243.19162925648882	-0.03706605766068094	-0.5841678748127386	0.5471018171520576	81.91906330696378
12	5.0	ltm	366	diff_vonmises	-0.09153193534385938	-5.244393585867474	2.460328184702992	0.8208082852328615	1.5574013104487271e-15	1.836668182170478	0.1868966205896262	-0.28881913164042616	0.47571575223005236	87.6869729655659
13	5.0	perception	366	diff_vonmises	-0.009097807402554309	-0.5212659669892399	1.4323936709647622	4.539021868415778	0.41636096217409085	5.897247473498119	0.5484097121033003	-0.5075244420561574	1.0559341541594578	93.69595897896485
14	5.0	wm	366	diff_vonmises	0.05225204817514922	2.993821831350305	0.3551569338861746	111.42960079627578	0.3362025627313349	113.14162164285761	0.011741010306483446	-0.4595781349653194	0.47131914527180285	135.67432442503542
15	6.0	ltm	366	diff_vonmises	0.5146882772275461	29.48946604999767	0.6897436551349687	147.0048636895062	0.6785928273556374	147.93148188563947	0.05228857731497527	-0.2304178597414186	0.28270643705639387	100.25492857882324
16	6.0	perception	366	diff_vonmises	-0.08330995399834092	-4.773308755533972	0.570199479038516	325.9661459904213	0.5601123812612494	327.2647456443742	0.2849418187297488	-0.4590418357695647	0.7439836544993135	115.55099429716807
17	6.0	wm	366	diff_vonmises	0.2663059822151057	15.25820884001152	0.001226334688921746	1249.3908697881548	4.426469760112841e-28	1250.893061502368	0.004843660778504955	-0.4828566179826055	0.48770027876111044	177.64160934351065
18	7.0	ltm	366	diff_vonmises	0.1452014070173297	8.319427801454246	3.201904765288939	0.5257781498580939	0.1452721237326042	1.9728637677106724	-0.003876531921204407	-0.29780795413808375	0.29393142221687935	69.75850411382069
19	7.0	perception	366	diff_vonmises	-0.006369635196525367	-0.36495321379888623	0.7455205952232299	218.02104470080687	0.7290958427246218	219.00146100420116	0.398961066301716	-0.3943493590116205	0.7933104253133365	103.11096605001603
20	7.0	wm	366	diff_vonmises	-0.19676998932072623	-11.274089922911893	0.7233766620353312	155.60567811255618	0.707348563350934	157.33041177776343	-0.017544851375760118	-0.3772748061454081	0.359729954769648	94.29753601916143
0	1.0	ltm	367	diff_vonmises	0.04585142991389806	2.6270934187062505	4.150186717420848	0.3399139623266649	4.711434019579174e-13	1.684820950182262	-0.001526012843960145	-0.2680813355935732	0.2665553227496131	67.1803110843619
1	1.0	perception	367	diff_vonmises	-0.017039692670272645	-0.9763024742066264	17.21781146674033	0.5190411397744038	0.007720794138975204	2.0132275600560203	0.5299109196909368	-0.3214940972562299	0.8514050169471667	32.59774884460839
2	1.0	wm	367	diff_vonmises	0.01108721100928435	0.6352503974029751	5.175754652728722	0.47960988517386494	0.19872635819340476	1.9130295825048882	0.055798020533334824	-0.30873586986309753	0.36453389039643236	55.63103095240487
3	2.0	ltm	367	diff_vonmises	0.06111045620309055	3.5013712245561504	1.5552191049313786	7.118753857479428	1.2078966744386956	7.8721020576015635	0.15574598258553962	-0.2329168566961789	0.3886628392817185	72.42465431539938
4	2.0	perception	367	diff_vonmises	-0.007452916090854504	-0.4270206370711031	5.676917318590428	1.2258004979077113	0.4258327252148533	2.1153222458881875	0.6440106140145504	-0.345250569690221	0.9892611837047713	53.43082448137844
5	2.0	wm	367	diff_vonmises	0.11605012108810195	6.649182150330394	3.5740765273948525	0.5471268073740364	2.76019894450571e-11	1.1725753944777906	0.20875427905640573	-0.1863102388592636	0.3950645179156693	72.53567697190786
6	3.0	ltm	367	diff_vonmises	-0.015504152792884146	-0.8883225199582295	2.3677585622127215	2.0229477122244868	1.0896054901325256	2.5248382446130666	0.24924581619534125	-0.20497003724675253	0.4542158534420938	67.3134682954744
7	3.0	perception	367	diff_vonmises	-0.051342712889072384	-2.9417207572957813	5.8508456351794225	1.3113269160685108	0.13502013066466878	1.6894629922737832	0.9294509141742183	-0.2649162101343529	1.1943671243085712	55.27586208953571
8	3.0	wm	367	diff_vonmises	-0.09634754300476739	-5.520307580628369	1.4202215803946545	166.51027022662115	1.405903218124283	166.9023775170412	0.2610775578200304	-0.17933879591176094	0.44041635373179133	75.05448853514358
9	4.0	ltm	367	diff_vonmises	-0.10341235609869358	-5.925091553959101	1.480354448081072	161.77323845360894	1.4619995604893672	162.591370734822	0.1736201187365083	-0.2607776726261086	0.4343977913626169	70.00252359952646
10	4.0	perception	367	diff_vonmises	0.00034733908823984214	0.019901063816065042	3.856026618858628	1.4780747030948933	1.3252261259387401e-20	3.109431904219213	0.6189784445200534	-0.4943831144835036	1.113361559003557	69.75984194705245
11	4.0	wm	367	diff_vonmises	0.03548450595414364	2.033112429279271	1.190945367386128	232.1084490276317	1.1776729550574985	233.30259827809977	0.12255710342955695	-0.31857110662077304	0.44112821005033	76.4041767734646
12	5.0	ltm	367	diff_vonmises	-0.017764550210898945	-1.017833752032746	1.6330248301602515	1.2585159910263912	3.9496202151875135e-18	1.6092215804650678	0.31788824377598157	-0.2342133811432491	0.5521016249192306	106.47946879895589
13	5.0	perception	367	diff_vonmises	-0.07666893160031739	-4.392806200475375	2.112937923543009	1.6981956726538276	1.4426445816323562e-14	2.4248037588977813	0.5196090410702782	-0.3726861263810688	0.892295167451347	94.49641655389965
14	5.0	wm	367	diff_vonmises	0.0984883138790624	5.642964716630005	0.4574639035715721	85.45147406893953	0.43855110739084546	85.77666120446509	0.22285293786883997	-0.22239949013264493	0.4452524280014849	130.22989195371557
15	6.0	ltm	367	diff_vonmises	-0.002863840701915826	-0.1640859854175601	1.6528140812881926	0.8725968094374321	6.080452057292965e-17	1.0540162036565235	0.23316166283095843	-0.15304771761023014	0.3862093804411886	105.91468116284864
16	6.0	perception	367	diff_vonmises	-0.23490122477940137	-13.45884878231357	1.9161879742650518	1.281169592095041	0.1492593144765806	1.9545680337909654	0.2848354110782828	-0.2540941192729612	0.538929530351244	92.06122511117088
17	6.0	wm	367	diff_vonmises	0.1589348657189187	9.106297023172512	0.5464067039428783	89.50481496932073	0.5318719929318558	89.55979092706346	0.23062418693058007	-0.1464963223796767	0.37712050931025676	123.59446950307881
18	7.0	ltm	367	diff_vonmises	-0.16045765694650643	-9.193546533592835	0.7479300350661592	116.9972619159277	0.7286256450664148	117.83120332943113	0.18918826952121037	-0.26689309693693986	0.45608136645815023	100.82977524711181
19	7.0	perception	367	diff_vonmises	-0.08851623066344518	-5.0716064354218915	1.5341477639717616	4.308117981121235	0.445954140849601	5.491837638629399	0.591895301235569	-0.47647147128077616	1.0683667725163453	91.0450354998049
20	7.0	wm	367	diff_vonmises	0.09814998936444916	5.623580149836854	1.1514000141273446	138.034421979362	1.1350918163746881	138.65415135112042	0.19164169635572392	-0.20561748846320427	0.3972591848189282	81.34384823253265
0	1.0	ltm	368	diff_vonmises	-0.3548209851625449	-20.329744932487827	0.20966002265091588	47.86273485559882	0.18621821003716918	51.14947178461583	-0.4304358633827654	-0.5898462500913846	0.15941038670861918	143.13791755314887
1	1.0	perception	368	diff_vonmises	0.08286433955382926	4.747776928573387	11.007478831075343	0.7368992899481234	0.0641759783413016	3.779032298789498	0.32302915057833703	-0.6165104624954432	0.9395396130737802	40.299514380786775
2	1.0	wm	368	diff_vonmises	0.1476065646108656	8.457233180627696	10.714460560914103	0.34250996155476954	2.943864284278897e-29	3.827344102136844	-0.1674788374861469	-0.6091407325504558	0.44166189506430886	41.45826958710771
3	2.0	ltm	368	diff_vonmises	0.02601475759353482	1.4905358151654553	4.0161084029231695	0.6188293891618272	0.15269959689653181	2.3459384452997227	0.04432899347482527	-0.3641572169507329	0.40848621042555816	63.208574142680646
4	2.0	perception	368	diff_vonmises	0.023086912802946162	1.3227826655953607	7.694346744919035	1.3335324988369355	0.22906829297380366	3.3324640237278214	0.7917017552705417	-0.5596303605264856	1.3513321157970273	47.209330384461396
5	2.0	wm	368	diff_vonmises	0.0853305258688468	4.8890789959168135	3.564207650141578	0.6913682915902778	2.0191503177667027e-14	2.354225563075914	0.12418804521708549	-0.3742865380197035	0.498474583236789	72.63665310744375
6	3.0	ltm	368	diff_vonmises	0.07873223480639262	4.511024766039297	6.027534875671208	0.45686382203802356	0.018061861378347616	1.3031510565709095	0.22608687415061698	-0.20643550367744115	0.43252237782805814	55.14584165931015
7	3.0	perception	368	diff_vonmises	-0.009800326190356114	-0.56151732855893	5.8086885693206485	1.2323123586528306	0.02807449167348341	1.8650671857321495	0.8515102346691634	-0.29407597813955494	1.1455862128087184	56.235542914954266
8	3.0	wm	368	diff_vonmises	-0.039279004028855	-2.250521154330748	1.338737264265098	168.3013285707629	1.3226477282781	168.9285361578911	0.23768909121477577	-0.2263408056745888	0.4640298968893646	75.72820454246542
9	4.0	ltm	368	diff_vonmises	-0.13426521722842502	-7.692830282595942	0.914456998599566	82.41571854648366	0.8743414268213917	84.52611565672161	-0.04093413753518149	-0.45829130607100765	0.41735716853582616	83.25603081461307
10	4.0	perception	368	diff_vonmises	-0.035033339882929754	-2.0072625175392163	3.92202184909845	1.4039445907119465	1.082689920848772e-19	3.791010215977087	0.46452161390920654	-0.6029393205116708	1.0674609344208772	69.1565027874783
11	4.0	wm	368	diff_vonmises	-0.019695191694666228	-1.1284513608054865	1.032576119215034	241.11603566981074	1.0174196808207874	243.0432004610131	0.02487754518330121	-0.4471359750794264	0.4720135202627276	79.25514726015058
12	5.0	ltm	368	diff_vonmises	-0.11384630657481372	-6.522912879889301	2.2211283693561454	0.9709958389026981	4.397392565335768e-16	2.2630042116518863	0.17331386862842124	-0.3538886020518075	0.5272024706802287	92.22841416976827
13	5.0	perception	368	diff_vonmises	-0.06435252792389352	-3.6871282510368766	0.8578625363428084	143.45069291972095	0.8247363475802564	144.77990170379314	0.4970268008372045	-0.4909260331503926	0.9879528339875971	96.1018112335781
14	5.0	wm	368	diff_vonmises	-0.025901575065989255	-1.484050934022471	0.5784583432061388	201.56812000350456	0.5670810099646055	202.5401965569158	0.18069970731587404	-0.32331788220059465	0.5040175895164687	114.17378976127465
15	6.0	ltm	368	diff_vonmises	0.14346765261702896	8.22009099160478	0.8943109919547227	117.63513570476361	0.877260234517941	118.4963815731996	0.10804268924422189	-0.23061689531754226	0.33865958456176415	89.66136877681163
16	6.0	perception	368	diff_vonmises	-0.2489639841271638	-14.264585541248504	0.515390237932425	150.30110765189224	0.49966727145273776	151.25990904888457	0.2056742062304764	-0.3518333067166548	0.5575075129471312	121.22273613476402
17	6.0	wm	368	diff_vonmises	0.26618453811271414	15.251250605497727	0.3977957979122685	150.22060850528874	0.386810714486315	150.91902104812726	0.1445243220283814	-0.2763969745677617	0.4209212965961431	133.30112162602828
18	7.0	ltm	368	diff_vonmises	0.011702923214807998	0.6705281081741716	0.9280842086082735	182.41349494281644	0.9134073846500358	184.03305418824706	-0.017465202616300246	-0.3574614675717207	0.33999626495542046	82.53566637625684
19	7.0	perception	368	diff_vonmises	-0.10812115384775232	-6.1948857915608695	2.2166397535315006	1.9118855209999237	1.565135126775184e-14	2.9035184272638723	0.5871122494520415	-0.44964898084369803	1.0367612302957396	92.31505253727121
20	7.0	wm	368	diff_vonmises	-0.18064542837785136	-10.350220634383676	1.0020355923655317	98.3865763966679	0.9762303220710664	99.42135360057571	0.13177450371854604	-0.2773901152423157	0.40916461896086176	84.6638213569262
0	1.0	ltm	369	diff_vonmises	-0.35036292798516544	-20.074317071395978	0.5874535034428532	180.40280683125295	0.569282452192396	184.17108949562729	-0.3597529686787837	-0.7004597050623609	0.3407067363835772	94.62903888440572
1	1.0	perception	369	diff_vonmises	0.08239941272987698	4.7211385837785	9.374960523695448	0.6926574163714903	1.048550581890412e-16	4.205296351112506	0.16481717392528372	-0.6692936954433546	0.8341108693686383	44.34810327871929
2	1.0	wm	369	diff_vonmises	-0.29756052380547343	-17.04896216375569	0.0002039091569159661	6728.312236652632	1.3787528874177321e-30	6732.469790787631	-0.44332931307053514	-0.8800390081921705	0.4367096951216354	177.47066965536612
3	2.0	ltm	369	diff_vonmises	0.1047441517199239	6.0013978222296025	11.388445950604648	0.4437322537870474	0.02184400228222158	2.524965425477628	0.1798744738754781	-0.40471606381403147	0.5845905376895095	39.94426549750864
4	2.0	perception	369	diff_vonmises	0.030685336364144087	1.7581402666047667	5.576048690999955	1.3861320593782054	0.1702470856109009	3.6623681120083287	0.5874265629564277	-0.5844264251007204	1.171852988057148	55.25656089988243
5	2.0	wm	369	diff_vonmises	0.12392676220048839	7.100480442809367	1.6868307452945377	1.0855826242479811	1.2940362515347041e-24	3.3859600495946327	-0.03389585045614796	-0.5215890167328503	0.48769316627670234	104.91194160534454
6	3.0	ltm	369	diff_vonmises	0.17849316455795022	10.226905001104637	2.8093804807865514	0.5775059771041854	7.914876765971114e-18	1.7820018900128614	0.08065097008675404	-0.28229238292218534	0.3629433530089394	82.01659086585397
7	3.0	perception	369	diff_vonmises	0.03348860389890908	1.9187556651928435	1.9385364719984812	8.700122961011692	0.9760929687742338	10.215011572414596	0.9599355332609489	-0.6645270844761986	1.6244626177371475	74.21895978977179
8	3.0	wm	369	diff_vonmises	-0.10202241372378017	-5.845453722110173	0.9147740017648383	47.79243762746022	0.8447430932484926	49.5043130937052	0.10353911194276932	-0.4176561106906824	0.5211952226334517	87.96641587429997
9	4.0	ltm	369	diff_vonmises	0.06052935781032512	3.4680767391688554	3.34669340292847	0.8429426916226109	0.013721516630854387	3.275678400232298	0.05869342178245451	-0.5143505468331404	0.5730439686155949	74.02446808676038
10	4.0	perception	369	diff_vonmises	-0.07145917762916482	-4.094309285626812	1.1463608286462648	615.3057981077523	1.1336263972815523	617.7529330352223	0.5619832002700491	-0.7469430983722702	1.3089262986423194	80.43913942916595
11	4.0	wm	369	diff_vonmises	-0.2016564994008397	-11.55406632705053	1.5757879818107055	3.621221953773517	0.4564719662312334	6.408595149734048	0.08682002064797945	-0.64078673679948	0.7276067574474594	83.22327697023186
12	5.0	ltm	369	diff_vonmises	-0.004335016398139456	-0.24837814373339456	1.324035940156768	1.5971583454287672	0.05638263969936338	2.72121838765413	0.18391857640929843	-0.36359653231856226	0.5475151087278607	112.38595506564114
13	5.0	perception	369	diff_vonmises	0.041833062342736003	2.396857916346429	2.3626025448514967	1.9972602568478302	2.241885549727106e-15	3.2691089959268163	0.6181341242207209	-0.5101971048434448	1.1283312290641656	89.47580484639718
14	5.0	wm	369	diff_vonmises	0.10248037823136152	5.871693155561371	0.412007931295203	209.26200720151854	0.40069084700509044	210.85928113824906	0.07034614942668327	-0.4526378826052948	0.5229840320319781	129.13352674233232
15	6.0	ltm	369	diff_vonmises	0.6491108715411402	37.19131337536587	0.6460009170564327	240.31544894648997	0.6371649245910379	241.36509118177378	0.11720087966841675	-0.29320969947472975	0.4104105791431465	105.75302490680158
16	6.0	perception	369	diff_vonmises	0.03599099316173588	2.062132008651673	0.7123188362291819	234.51730007281714	0.6990804645229025	235.65879226418934	0.26727215125413295	-0.3748285488061107	0.6421007000602437	103.33128716282707
17	6.0	wm	369	diff_vonmises	-0.10428602160319907	-5.9751489000734335	0.4704090090978275	190.8606910825846	0.45975438576341243	192.16972760859417	0.06470787141834222	-0.3612283655972135	0.4259362370155557	122.15650021244362
18	7.0	ltm	369	diff_vonmises	0.2061262008264635	11.81016135442238	2.0477218467760925	0.7709955437592637	5.5090510787713724e-24	2.2331109854253444	0.048033856727834556	-0.3486938122503247	0.39672766897815925	95.87070823181173
19	7.0	perception	369	diff_vonmises	-0.08733875133760452	-5.004141839587312	0.8985677087996705	201.7822863969688	0.8770514053583438	202.1785063049099	0.7012147520573819	-0.368961979621357	1.070176731678739	97.70118597325695
20	7.0	wm	369	diff_vonmises	-0.13913320976218366	-7.971745709481508	2.1782768462216615	1.4521102898081457	0.20498965563334615	2.9036768026129804	0.22726660868617132	-0.3840258191433661	0.6112924278295374	83.3171238022488
0	1.0	ltm	370	diff_vonmises	-0.15879990748577502	-9.098564486002836	1.526416746520918	0.42747408177009283	1.3376450748855836e-21	2.952792546011421	-0.2828202962790282	-0.46111423159045956	0.17829393531143134	109.56389627766107
1	1.0	perception	370	diff_vonmises	0.044432116293296436	2.5457727384403452	11.570734039243519	0.648652787259232	2.1801538450908987e-14	3.1013878873861858	0.37641858556451063	-0.493601212645272	0.8700197982097826	39.880719409783865
2	1.0	wm	370	diff_vonmises	0.09137096889322596	5.235170887602978	9.877492981054312	0.3013821276754852	4.735084029040434e-32	3.121706236518119	-0.12400978694868803	-0.4968349774406907	0.3728251904920027	43.19090428837194
3	2.0	ltm	370	diff_vonmises	0.08809591393650104	5.0475240609092396	9.98365873541503	0.368003185511958	0.13390456932157657	1.6739149242939744	0.15456087244779476	-0.2805460704153671	0.43510694286316187	41.77045251305228
4	2.0	perception	370	diff_vonmises	0.008332566098292676	0.4774208699459618	8.842031648741072	1.1554200377923252	0.1755957903913129	2.6081537524403875	0.85876940683657	-0.43548528970333555	1.2942546965399055	44.63746089645679
5	2.0	wm	370	diff_vonmises	0.07322031201889617	4.195214853313766	2.518484796459352	0.7163663775775305	5.5765441363983254e-14	2.221764387721925	0.07041786606353634	-0.3508513571382527	0.42126922320178906	86.66995005987806
6	3.0	ltm	370	diff_vonmises	0.10955886020499858	6.277260298010208	4.40809778323766	0.5217998087838617	0.4436191423991066	1.0098238229575982	0.1843183343938061	-0.15564476048326323	0.3399630948770693	58.81531448736402
7	3.0	perception	370	diff_vonmises	-0.0012506744815750934	-0.07165836933896509	4.144484340342094	1.7994341120890318	0.36062031785032356	2.2723502675959106	0.9082727224744518	-0.3292753114308122	1.237548033905264	63.01007312491643
8	3.0	wm	370	diff_vonmises	-0.09711321487112223	-5.564177347062407	1.3814753793799537	205.9026971527908	1.3691785821255478	206.4848540866251	0.2153264630195082	-0.20982147776292592	0.4251479407824341	74.33818977069419
9	4.0	ltm	370	diff_vonmises	0.024889385180313976	1.4260567255074483	1.2291130933765664	84.89779503059977	1.1909009861640512	86.39476784889962	0.03327983912716803	-0.36700225530622	0.400282094433388	73.06494823596591
10	4.0	perception	370	diff_vonmises	-0.08127079301853707	-4.6564734376434505	2.792704362791901	2.3117160884360324	0.23509655997433643	4.068391487905755	0.6451826218088879	-0.5583972583736817	1.2035798801825695	75.26953982915433
11	4.0	wm	370	diff_vonmises	-0.12015439893159048	-6.884339948711342	1.1445862326803504	326.80579987705613	1.1329263956166846	328.5156048653464	0.08298421964306613	-0.42437908036369265	0.5073633000067588	76.39005177672928
12	5.0	ltm	370	diff_vonmises	-0.09098342970729724	-5.212966527853327	2.20165019319081	0.8182616092392	1.826421111378764e-17	1.7462366584650493	0.16931118083918656	-0.2724492853583354	0.44176046619752196	92.6249401398685
13	5.0	perception	370	diff_vonmises	-0.0256720621354646	-1.470900811759729	1.5008243476020178	3.54502923159557	0.34363255065541537	4.45830156499501	0.5643565301641013	-0.42207133405375086	0.9864278642178521	95.51474435120056
14	5.0	wm	370	diff_vonmises	0.023564671081889723	1.3501561986062607	0.5510332620123851	142.97330745273328	0.5379053878424227	143.92476388446025	0.11149780533941112	-0.28582109506478837	0.3973189004041995	115.44781609425198
15	6.0	ltm	370	diff_vonmises	0.35757308410665595	20.4874285867878	0.8059784531109375	138.89933595384744	0.7946327704447615	139.65003396296353	0.07375385206496787	-0.19505952095003565	0.2688133730150035	93.77447669005355
16	6.0	perception	370	diff_vonmises	-0.16605589778318242	-9.514302106232156	0.6731789392394748	258.02098181294946	0.6629930531377977	258.82620537229616	0.2766149395377653	-0.31368671664664305	0.5903016561844083	107.78286554337161
17	6.0	wm	370	diff_vonmises	-0.02772210701612223	-1.5883597312338118	0.43658527700326116	132.1996804033328	0.4230753645556486	133.1191249667219	0.11595454839380892	-0.3055077084821427	0.4214622568759516	128.480000917977
18	7.0	ltm	370	diff_vonmises	0.08951051720435599	5.128574857842743	1.3030510992072222	3.736681133106784	0.7663020148331718	4.834162283826666	0.0505123675504775	-0.26399875457494854	0.31451112212542603	80.79396687238915
19	7.0	perception	370	diff_vonmises	-0.0942091737872112	-5.397788049421708	1.5261737594862161	3.042418927914041	0.27904940777245285	3.6248541199539743	0.5837068542466117	-0.3673011436267174	0.9510079978733291	98.02148152658589
20	7.0	wm	370	diff_vonmises	-0.18988639236032887	-10.879688869212043	0.8239069537553861	111.68858323735728	0.8070601946393741	112.6383189534263	0.06961522863277025	-0.23695769323479077	0.306572921867561	92.01601315832939
0	1.0	ltm	371	diff_vonmises	0.035328954582242646	2.024199992171874	7.6225788163657064	0.28272756094437484	1.1045866505465772e-22	1.8245191489024952	0.015573523880013762	-0.2903811680700003	0.30595469195001407	49.250648322854005
1	1.0	perception	371	diff_vonmises	-0.008295562297043025	-0.47530070830841586	16.27807286681738	0.5217825573390567	1.88197107442686e-21	2.0768540960114805	0.5022056199028386	-0.33054159546087086	0.8327472153637094	33.579626659661784
2	1.0	wm	371	diff_vonmises	-0.0003325606647942208	-0.019054322524773754	5.5955084928941075	0.3511423312205416	0.023444652169022404	2.214173029298662	-0.0374834624351254	-0.3511770758150042	0.3136936133798788	56.663659822032116
3	2.0	ltm	371	diff_vonmises	0.1562074840075744	8.950029561991316	7.361989664499793	0.5530246007253992	0.7040174041617663	1.1498671212352682	0.25965275346734434	-0.21765375951855828	0.47730651298590265	45.484684884988184
4	2.0	perception	371	diff_vonmises	-0.00675599590212208	-0.3870900515992744	7.261769411610749	1.1258677467215494	0.3834183405070252	1.8952026094826093	0.7610948435605107	-0.32404854757404644	1.0851433911345572	48.17825029567413
5	2.0	wm	371	diff_vonmises	0.0691901696735681	3.964304706089513	0.9958500815422007	132.41989059056596	0.9784641326389308	133.38875891108995	0.1088728215897703	-0.25472338532402006	0.36359620691379035	84.36764818913622
6	3.0	ltm	371	diff_vonmises	0.09082838431496047	5.20408308123948	2.1760303964344296	101.77017218178555	2.1550754082558194	102.00682951270436	0.1917843390683771	-0.13702042465164155	0.32880476372001866	60.072529499127995
7	3.0	perception	371	diff_vonmises	-0.0577261977219368	-3.307467496804686	4.870325338744315	1.4442256666740925	0.22737700596792262	1.717159586010342	0.8961389340124586	-0.2608131174717764	1.156952051484235	59.769447057291615
8	3.0	wm	371	diff_vonmises	-0.07174585189309686	-4.110734511045138	1.5320634157990496	137.60618789414735	1.5132272566286191	138.21524026548974	0.18605708233637586	-0.21375371206869787	0.3998107944050737	69.81018222360649
9	4.0	ltm	371	diff_vonmises	-0.04446281572543832	-2.5475316863355237	1.5024536854158919	161.14914536963337	1.4861631110169857	162.0141464210619	0.0871668647338879	-0.24973304490319492	0.33689990963708283	67.51291687557196
10	4.0	perception	371	diff_vonmises	-0.05353324313881192	-3.0672288955015947	3.412725973124272	1.738693078222277	7.571320506473815e-14	3.026830219087872	0.742913507762762	-0.48040527990977155	1.2233187876725335	74.27207458976514
11	4.0	wm	371	diff_vonmises	-0.016054156505051684	-0.9198354113819576	1.2584875488587617	225.15601186040303	1.2432763756728806	226.68340437236745	0.03641911504007567	-0.3794659754442762	0.41588509048435185	71.86346993830207
12	5.0	ltm	371	diff_vonmises	-0.05194367542044925	-2.9761533739891743	2.338167079611806	0.7610866853659768	1.1014461301200972e-11	1.207955530436326	0.2389217325625235	-0.18823653069366117	0.42715826325618467	89.93206413491359
13	5.0	perception	371	diff_vonmises	-0.04927452161990831	-2.823222126346874	2.00597398790028	1.8694296259675853	0.05369049762778701	2.5546879047877153	0.5374333951518857	-0.36757367914485467	0.9050070742967404	94.64816150013934
14	5.0	wm	371	diff_vonmises	0.13958372922606105	7.997558573350179	0.894913499923149	1.3453306644417682	6.691910739832497e-17	2.0364409579393974	0.10875578795503882	-0.2518258545373153	0.36058164249235414	132.871688164683
15	6.0	ltm	371	diff_vonmises	0.33270875119752485	19.062807250686348	0.7297442388602228	104.7434652478676	0.7180472050193354	105.17826605921502	0.10851285918624498	-0.14457420136183963	0.2530870605480846	102.22709172978611
16	6.0	perception	371	diff_vonmises	-0.1821024858808378	-10.43370387981267	0.8266154120224808	217.7980032706981	0.8127874377228465	218.5248266934786	0.35253289086253403	-0.304757008397349	0.657289899259883	98.31053835111335
17	6.0	wm	371	diff_vonmises	0.06563599757195047	3.760665645003681	0.1511140655456737	9.769510439416461	6.953906131273458e-10	10.477869046697771	0.13062256188734467	-0.33840658183506234	0.469029143722407	171.19866507147063
18	7.0	ltm	371	diff_vonmises	-0.06314441648944143	-3.617908564661276	0.955463271118009	63.142608733933244	0.9246590985620381	63.99765889389735	0.0896420760469745	-0.22221897287716352	0.311861048924138	86.36127935354654
19	7.0	perception	371	diff_vonmises	-0.0420932545606709	-2.411765832296247	0.8464030729365686	149.06931739460384	0.8198058191609033	149.99081846573358	0.4735124665663477	-0.3952690369454359	0.8687815035117836	97.699771680347
20	7.0	wm	371	diff_vonmises	0.04393784293680428	2.5174529611875793	0.8716066636055617	85.93917250136795	0.8518474820398211	87.03591518218788	-0.019983287204972555	-0.23757714163997434	0.2175938544350018	84.96666055391904
0	1.0	ltm	372	diff_vonmises	-0.057533099142529416	-3.296403763174671	6.123271675082263	0.2466584768606133	0.020830819408986644	2.638946683540924	-0.1907295345668851	-0.4199685364281117	0.22923900186122662	53.89166704651072
1	1.0	perception	372	diff_vonmises	0.03427032301267248	1.9635448711761936	15.094725557142949	0.6611757863249098	3.1900388088300825e-16	2.576784922164618	0.6059383416805908	-0.41010805764708497	1.0160463993276758	34.867171868449844
2	1.0	wm	372	diff_vonmises	0.0979431406324831	5.611728590497567	7.678740471887794	0.367578610226979	0.017350689645324602	2.9159799472779957	-0.07295426811210065	-0.46483277056801287	0.3918785024559122	48.54234560191128
3	2.0	ltm	372	diff_vonmises	0.1346173240452261	7.71300451713643	3.4194694232766234	0.9021184209542955	0.5782118935218835	2.0117640960135517	0.1101367367443632	-0.29282184674878065	0.40295858349314384	61.452650251327015
4	2.0	perception	372	diff_vonmises	0.005388908001559203	0.3087616846736212	7.6665118961008245	1.2853871700596673	0.2892746548935053	2.3262767510061253	0.9107362516017947	-0.39313348028088024	1.303869731882675	47.37255617298226
5	2.0	wm	372	diff_vonmises	0.06961971776595066	3.9889159988809295	3.35755882443327	0.7087625292248823	0.13656410925053517	1.8860651629854708	0.15218867204482794	-0.2824204923411448	0.43460916438597275	70.1195086454442
6	3.0	ltm	372	diff_vonmises	0.21074725478472633	12.074928243133064	9.395031669206462	0.35702113484006176	0.19478286222615152	0.7949019105553301	0.27817865048308466	-0.13437610875216593	0.4125547592352506	43.268873382108325
7	3.0	perception	372	diff_vonmises	-0.07125724704926854	-4.082739515644127	6.698757481541555	0.8634417420346446	5.269837369607925e-16	0.9541249080886214	0.72172108354504	-0.15185236854592118	0.8735734520909613	52.59337519766049
8	3.0	wm	372	diff_vonmises	0.011977594842718363	0.6862656332054233	1.8378507396283725	100.15846220226287	1.8115748076902964	100.45192308335054	0.2853254991326608	-0.17296347611262952	0.45828897524529033	66.36221634949257
9	4.0	ltm	372	diff_vonmises	-1.2485244493596825	-71.53518156720489	0.00016437471921235036	6752.272953380993	9.376091169893684e-30	6753.769016665346	-0.06145787794912394	-0.41473933961447074	0.3532814616653468	140.04258024272505
10	4.0	perception	372	diff_vonmises	0.006575486429350947	0.37674762064735684	1.6218939568491109	2.518092221761334	4.012563450154731e-19	4.554674834986635	0.4187822441603968	-0.6802742156642777	1.0990564598246744	106.80173676835791
11	4.0	wm	372	diff_vonmises	-0.02190502627581038	-1.2550655557271062	1.377813339194453	271.70804192453113	1.3620926249432783	273.36989095620964	0.08752642614275885	-0.4407025636022013	0.5282289897449601	69.44703174895503
12	5.0	ltm	372	diff_vonmises	-0.06008961867069364	-3.4428815423812575	2.688651277679338	0.7610641528149762	2.5461248165736674e-17	1.3039411820101308	0.26044557632286663	-0.20536617072522792	0.4658117470480946	83.87551273737114
13	5.0	perception	372	diff_vonmises	-0.05452262666973754	-3.1239163961433842	1.7055058631792144	2.648040685786632	0.2731411477135327	3.278316725001584	0.5670865056594583	-0.35475400416898223	0.9218405098284406	93.67281150466766
14	5.0	wm	372	diff_vonmises	0.008214923457880219	0.4706804431595528	0.7303130550841346	133.1689713575197	0.7155318817441433	133.44739315065448	0.2954301920847229	-0.19908456844781242	0.4945147605325353	107.05005579095567
15	6.0	ltm	372	diff_vonmises	0.1562176824785203	8.950613891334003	1.1562524527135345	60.61581127538041	1.1344457075305752	60.8245242255047	0.16946891347028625	-0.10548280203438054	0.2749517155046668	84.33009855144698
16	6.0	perception	372	diff_vonmises	-0.36255122400139483	-20.772654992582037	0.9296543694135078	1.963969382526977	0.052685285608287044	2.267710767044246	0.2647186313750293	-0.2416935532185886	0.5064121845936179	127.79136412974464
17	6.0	wm	372	diff_vonmises	0.3073960773745967	17.612497872441285	0.41712033067766713	117.48477015022938	0.40527047560884416	117.38083825383346	0.2798270855780842	-0.15862515242818276	0.438452238006267	135.45370134860494
18	7.0	ltm	372	diff_vonmises	-0.027730059626009003	-1.588815382216438	0.8930773097219717	135.0424469011015	0.8781275331154221	136.15458876730335	0.030461582761851957	-0.25846381224796566	0.2889253950098176	86.27309529719398
19	7.0	perception	372	diff_vonmises	-0.11132161545702711	-6.3782587342659625	2.968627925589762	1.3138856616600605	2.572520575449782e-12	1.995206511224812	0.5377912504753559	-0.3152892247467662	0.8530804752221222	79.76224072539335
20	7.0	wm	372	diff_vonmises	0.06175010383160764	3.538020334045731	0.6853719880666644	63.732168487110236	0.6623656044418035	64.56183318243652	0.04894310570103855	-0.2079369325558149	0.25688003825685346	101.1731122469698
0	1.0	ltm	373	diff_vonmises	-0.0009521775018339813	-0.054555752202397334	2.1737601398074067	0.4761033549204693	4.0200977770077145e-18	2.814357460274256	-0.18967245460405274	-0.4445774808484121	0.25490502624435935	93.2092585199299
1	1.0	perception	373	diff_vonmises	0.038289367242655685	2.193819143230637	13.605082817396072	0.6146626211235153	3.39561166132294e-18	2.815232359756544	0.44774806646620763	-0.44805814600615024	0.8958062124723578	36.74243700293712
2	1.0	wm	373	diff_vonmises	0.0628837414249582	3.6029729836420863	6.734575135353897	0.3868758831469935	3.113173952904021e-21	2.7995036352190197	-0.0531075422391199	-0.4455542866834512	0.3924467444443313	52.456412974733496
3	2.0	ltm	373	diff_vonmises	0.07550149474253315	4.325916995676323	3.248369275374335	0.8356849375280357	0.3543376599921078	2.160293431787311	0.09752963162055872	-0.31534246300797436	0.4128720946285331	65.84820686933278
4	2.0	perception	373	diff_vonmises	0.01942719941819068	1.1130965344213344	6.063945623188794	1.32620520222637	0.2863498216733079	2.726428891206981	0.7074345382060785	-0.44538930503250035	1.152823843238579	52.55251153996531
5	2.0	wm	373	diff_vonmises	0.09972874305136616	5.714036072987916	3.316754458543048	0.6457018160334218	5.405709266411567e-13	1.8255839379591359	0.1570308800029469	-0.2899618481329848	0.4469927281359317	75.36688015024453
6	3.0	ltm	373	diff_vonmises	0.1156144064638433	6.624217541288245	6.789071061754966	0.42044689504759364	0.028151530041468253	1.2252750201248792	0.22777074454227206	-0.19457947257845348	0.4223502171207255	51.81068159196977
7	3.0	perception	373	diff_vonmises	-0.02274302891805894	-1.3030795703487603	5.6377403738944585	1.2457448852880997	2.962939304175487e-14	1.7811505324012382	0.8676895008828684	-0.2834643124477256	1.151153813330594	57.42720278025857
8	3.0	wm	373	diff_vonmises	-0.03465428541628927	-1.9855442963951342	1.304699966487478	138.66721060697145	1.2846795888306801	139.27388356265027	0.2656545361254814	-0.2294896218795106	0.495144158004992	77.30595069699388
9	4.0	ltm	373	diff_vonmises	-0.045592780221926164	-2.612273882983902	2.4715133292572555	1.1299025746796343	0.38669839509195303	2.7297940839056904	0.045098758871457756	-0.36374148415053315	0.4088402430219909	71.86804377807286
10	4.0	perception	373	diff_vonmises	0.011033810896116247	0.6321907962929217	2.990772017374926	1.6288145794280546	2.471634484887161e-18	3.8298261286162676	0.4553308888995723	-0.6068467200391252	1.0621776089386974	79.46260229103612
11	4.0	wm	373	diff_vonmises	-0.025862172698328127	-1.4817933446526657	1.158848049261396	292.5075245120738	1.1450300050008089	294.2540134022523	0.10732534711310393	-0.441395122565055	0.5487204696781589	76.36385019674796
12	5.0	ltm	373	diff_vonmises	-0.056566979264331706	-3.241049171650249	1.6372380007457341	1.1919883741716109	1.0445590581644508e-17	1.9513787015893809	0.23393462796869774	-0.28996865687516404	0.5239032848438618	106.35194883162443
13	5.0	perception	373	diff_vonmises	-0.039971126989177416	-2.2901768788613235	1.9710482939120633	2.043987762578833	0.0711219598369937	2.976514339173472	0.5371749509651054	-0.4203624930769255	0.9575374440420309	94.50213650537714
14	5.0	wm	373	diff_vonmises	0.08894741242160524	5.096311330367493	0.5838024967059873	168.19886566004683	0.5718143460370894	168.78909119144149	0.22717507750225963	-0.26092303293217967	0.4880981104344393	116.28640007917433
15	6.0	ltm	373	diff_vonmises	0.23100443216553596	13.235579011901331	0.898851431022127	106.36901625277497	0.8826902200788916	106.8408677637259	0.17681998799419318	-0.1717673425661932	0.3485873305603864	93.32952875324312
16	6.0	perception	373	diff_vonmises	-0.2429011206340118	-13.917209051326951	0.7632435372756072	5.414781579482216	0.3693612740205089	6.111924594593264	0.24558792513866212	-0.30096270137672265	0.5465506265153848	117.72128269267077
17	6.0	wm	373	diff_vonmises	0.15433984953009536	8.843021988758647	0.5464909895486645	144.91105186839172	0.5354667090913993	145.25223395589222	0.21388939784406347	-0.20334536114373591	0.4172347589877994	121.04378522501128
18	7.0	ltm	373	diff_vonmises	0.03560708535917148	2.040135711842591	0.5835494089822952	92.1135836543465	0.5610181084464538	93.40745120490915	0.05760809490711338	-0.3291801381621582	0.38678823306927157	109.66477738211427
19	7.0	perception	373	diff_vonmises	-0.07118520777905009	-4.078611969501407	0.9848144710084537	171.42605494938	0.9565945364207271	172.28010371748925	0.6325079221656011	-0.4239463831977677	1.0564543053633688	91.50161025789697
20	7.0	wm	373	diff_vonmises	-0.007574797238224318	-0.43400391241760544	0.9546960779063561	148.99862099891195	0.9375122882451471	149.97260033870634	0.1650486121156618	-0.2756126812697275	0.4406612933853893	87.61942925473872
0	1.0	ltm	374	diff_vonmises	-0.06715815867046919	-3.8478790516878005	2.8427666598725314	0.24547472580910246	1.0425231455278536e-25	2.5361261473176935	-0.24774365264376655	-0.4031077873804796	0.15536413473671304	81.5364526296099
1	1.0	perception	374	diff_vonmises	0.04192138906765481	2.4019186649024897	12.38346809811723	0.5613921419181668	0.04859511476444398	2.818156554968906	0.30904820746298095	-0.45770081395839113	0.7667490214213721	38.16261088350302
2	1.0	wm	374	diff_vonmises	0.032421437741844535	1.85761154835385	5.095862703329035	0.4835568938470579	0.14061651454334415	3.0750252150996826	-0.13695673527594654	-0.4961873667001071	0.35923063142416056	55.66690230772508
3	2.0	ltm	374	diff_vonmises	0.04758455591635549	2.7263942240114414	14.49206245330254	0.2989465151997851	0.11707028387461285	1.4275630885825719	0.195346253850828	-0.24165244970570698	0.436998703556535	35.01064189584778
4	2.0	perception	374	diff_vonmises	0.012683872556822197	0.7267323653877203	9.022235144608443	1.1582107832374389	0.2932454867943148	2.5975375072332683	0.8248918264249037	-0.45354073957479524	1.278432565999699	43.62136897135724
5	2.0	wm	374	diff_vonmises	0.05352980618085819	3.067031972316482	1.0269604970040886	16.361609234342033	0.8612681508541781	17.755016068192337	0.0754153698468425	-0.33762622569319567	0.41304159554003816	84.57588614177035
6	3.0	ltm	374	diff_vonmises	0.08255230777280255	4.7298988244466065	1.8502697602063611	40.8729116548524	1.7923819123466675	41.302771242753444	0.17752221204413487	-0.1771564103480392	0.35467862239217407	64.2139014642959
7	3.0	perception	374	diff_vonmises	-0.03615609317443162	-2.071591542576695	5.293938056815111	1.4196337137566961	0.22089225266539564	1.8787296946653604	0.9005683456450277	-0.29130944469862946	1.1918777903436573	57.33575136095703
8	3.0	wm	374	diff_vonmises	-0.07826767419424821	-4.484407403635409	1.4702374568087726	149.44337108779595	1.453762552671105	150.04803554377884	0.17703481257003517	-0.20699799685066367	0.38403280942069884	71.22523435707427
9	4.0	ltm	374	diff_vonmises	-0.0976019972093204	-5.592182512141698	1.2395916824362008	172.23925530343402	1.2229384917855788	173.64463850910772	-0.011482642985853886	-0.3354433396632288	0.3239606966773749	71.13307107770922
10	4.0	perception	374	diff_vonmises	-0.0612390465457645	-3.5087389084775085	4.431161914478086	1.3905976288429995	3.579816605417826e-14	3.090957053531298	0.6381079595199526	-0.4917809979713557	1.1298889574913082	64.9621860657304
11	4.0	wm	374	diff_vonmises	0.05581651663035907	3.1980508300413457	1.1032099880131352	200.7070639235782	1.0889088209881754	202.35576232849894	-0.05334240141495172	-0.3682311785049919	0.31488877709004015	74.17775760306944
12	5.0	ltm	374	diff_vonmises	-0.1035282343190207	-5.931730886921332	2.7600876859576196	0.725630238614129	1.9251027699593523e-18	1.7736025778234026	0.17077431040764024	-0.280463071345368	0.45123738175300826	82.76370014565393
13	5.0	perception	374	diff_vonmises	-0.09370313047415048	-5.368793903332511	0.8421623008325535	176.9515620450194	0.8184202465187402	178.06478616800277	0.46003682585185146	-0.43107264738715934	0.8911094732390108	97.11120305916378
14	5.0	wm	374	diff_vonmises	-0.05603805003549794	-3.2107437591769648	0.4647937710922992	131.33690333932788	0.4513826485057535	132.39331824141055	0.07579700347870855	-0.3077491029089945	0.38354610638770303	123.81351958050261
15	6.0	ltm	374	diff_vonmises	0.1059739575003548	6.071860503069086	0.7875358949840154	118.16026326185985	0.7730519852412437	119.09967543055141	0.04641541208764721	-0.2264369729692799	0.2728523850569271	93.23432020745258
16	6.0	perception	374	diff_vonmises	-0.2082758325107982	-11.933326177442357	0.8048764125910036	245.10360163092366	0.7920712603638084	246.14851903519187	0.2836748880628619	-0.34669607120883583	0.6303709592716977	97.50266290225039
17	6.0	wm	374	diff_vonmises	0.23996405856174316	13.74892779041801	0.0010165383810413187	1397.1745012436036	6.63458034836979e-23	1398.304292601219	0.046288196807637405	-0.4057970680724452	0.4520852648800826	178.0562092443675
18	7.0	ltm	374	diff_vonmises	0.006082631174980885	0.34850909466110563	1.259000137521631	242.0852632473088	1.2469754893854728	243.41308779372545	0.01838842380486483	-0.32657478219597635	0.3449632060008412	71.4219148204721
19	7.0	perception	374	diff_vonmises	-0.09436915054066422	-5.406954042214771	1.805220791385559	2.0768192928943887	7.717970194318792e-14	3.17379667214959	0.5016610277172859	-0.47789954039599264	0.9795605681132786	101.76853910870439
20	7.0	wm	374	diff_vonmises	-0.32030052276970816	-18.351868130538204	0.9344495527729133	156.42575713674998	0.9221519686483489	157.55951042142445	-0.004860589814676075	-0.2528195170615817	0.2479589272469056	82.5625520069901
0	1.0	ltm	375	diff_vonmises	-0.0005752732231022839	-0.03296072775064867	6.525295111959928	0.3486848535740204	0.08378329298538167	3.6682982680359886	-0.28576482675136	-0.5957704752112395	0.3100056484598795	50.184518936544606
1	1.0	perception	375	diff_vonmises	0.04930966004753786	2.8252354099487738	12.489303670665645	0.7050650569426224	0.08529446950370274	3.899892479498272	0.30893794759679705	-0.6458469667564676	0.9547849143532646	37.71773792271662
2	1.0	wm	375	diff_vonmises	0.08343993914120582	4.780756355619536	5.10705743266356	0.5344782079617094	0.08804946833418668	4.361662545830894	-0.28789925339913475	-0.6982783393611757	0.4103790859620409	56.40133125300841
3	2.0	ltm	375	diff_vonmises	0.0397695083483981	2.278624981673504	3.519387270758295	0.8787772746482219	0.32846013616682573	2.3329448818774865	0.12760616306694683	-0.3483685185911338	0.47597468165808066	64.31227443942592
4	2.0	perception	375	diff_vonmises	0.007808506395151732	0.4473944607431069	6.054646082730999	1.3949515414157105	0.3234888309466148	3.267004618668434	0.6381609851145534	-0.541518041966246	1.1796790270807995	51.964372412208206
5	2.0	wm	375	diff_vonmises	0.09040984161502799	5.1801023509873385	3.870448376185744	0.71778547902211	0.04394800108513559	2.4254920419610078	0.13883524826320692	-0.3773324916655904	0.5161677399287974	67.7626065542303
6	3.0	ltm	375	diff_vonmises	-0.0030736935816198787	-0.1761096697432689	3.7580671223195625	0.8362528067999647	0.37010779139608135	1.6345301736088558	0.2572480390345552	-0.2403530285203439	0.4976010675548991	63.71018619577865
7	3.0	perception	375	diff_vonmises	-0.028619357113033247	-1.639768374954517	4.95433242202901	1.5696310967265172	0.220386150964272	2.3846191742129226	0.8869041207797832	-0.36769502705768703	1.2545991478374703	58.913038888662896
8	3.0	wm	375	diff_vonmises	-0.07935484349256448	-4.5466976160451305	1.2793769312718493	219.0933299199823	1.2652990840942453	220.02322560338618	0.199525702029689	-0.2844575793455384	0.4839832813752274	75.68334808669582
9	4.0	ltm	375	diff_vonmises	-0.15405047576255296	-8.826442093176667	1.0439731012114148	196.19603768488753	1.024399381912874	197.9714456986241	0.10931823725820777	-0.43919199947542253	0.5485102367336303	80.81877693487465
10	4.0	perception	375	diff_vonmises	-0.0554988334167151	-3.1798489226773934	4.007435162170264	1.5153623553087332	1.3490022196158512e-12	3.5908555582016226	0.5947536306553209	-0.5711169362321915	1.1658705668875124	68.3951762068053
11	4.0	wm	375	diff_vonmises	-0.0355130537294622	-2.0347480963195124	0.881471683885952	232.85221876788927	0.8671053074254639	234.86989129927355	-0.0006692209386898185	-0.44954563950811277	0.44887641856942295	85.42080508601236
12	5.0	ltm	375	diff_vonmises	-0.08976175061620885	-5.142969472014584	2.4451834413693265	1.0369119317710074	7.11615235228141e-15	2.1914099404830387	0.25441552173953635	-0.3442384783518007	0.5986540000913371	87.95583856810646
13	5.0	perception	375	diff_vonmises	-0.06540493687383897	-3.7474268421905457	0.874142140458509	85.46664174339388	0.8173721853991925	86.89136333476063	0.4885295587948839	-0.5072517898132833	0.9957813486081672	95.52797636927167
14	5.0	wm	375	diff_vonmises	-0.05283779906513716	-3.0273828851926456	0.41358723818436527	206.76044583007462	0.4025789612131248	207.9788373576732	0.13966254506330955	-0.4019026663302512	0.5415652113935607	130.78025810285254
15	6.0	ltm	375	diff_vonmises	0.07826205662989645	4.48408554090691	0.7400535999108595	25.24749285596592	0.6697457662048396	26.060939372901135	0.11156831585749316	-0.2306656106264322	0.34223392648392537	101.39547534583849
16	6.0	perception	375	diff_vonmises	-0.159321755823025	-9.12846419327318	0.6167627126025889	132.53361846207025	0.5955912766741797	133.73652240356668	0.21295330834406911	-0.3842799089654747	0.5972332173095438	110.67617969672597
17	6.0	wm	375	diff_vonmises	0.5249383477401574	30.076751830081793	0.01948128722876395	103.57325699876559	0.00695068749858619	104.31503512769159	0.08903215665382191	-0.32242064747887866	0.4114528041327006	170.45746364057754
18	7.0	ltm	375	diff_vonmises	-0.0916339563471444	-5.250238958777396	0.8292438759214495	171.75662428446984	0.8149382301284205	173.2204475229485	0.020462279228503633	-0.3324957717607049	0.3529580509892085	89.03620881014504
19	7.0	perception	375	diff_vonmises	-0.08673782991287869	-4.969711578131534	1.6849219418090042	2.379324167110251	0.10180741513719808	3.72723617329252	0.45098129332370684	-0.49635882644487134	0.9473401197685782	99.51212349743682
20	7.0	wm	375	diff_vonmises	-0.1253254900703449	-7.180621646439469	1.0631179859580497	163.5536985076385	1.0462859983083856	164.65085990898584	0.13355064683819506	-0.2934202262666332	0.4269708731048283	81.7130485815442
0	1.0	ltm	376	diff_vonmises	-0.08286158587916273	-4.747619154636843	2.8500247884186076	0.3232702402643051	2.491907435069318e-22	2.6292016673761975	-0.2128539107984202	-0.4177625189214054	0.20490860812298523	81.4312088939867
1	1.0	perception	376	diff_vonmises	-0.01206148246524295	-0.6910720399294686	12.674949434623338	0.5371823985939448	4.849005833611655e-18	2.851498982152691	0.3011873796317879	-0.4538301582237165	0.7550175378555044	38.08173187596441
2	1.0	wm	376	diff_vonmises	-0.03178629434677696	-1.8212205124308678	9.441053185496845	0.26114297956342625	2.0848911664965973e-13	2.9339990851332076	-0.15132687866295635	-0.4669604554360638	0.31563357677310744	44.18799493671008
3	2.0	ltm	376	diff_vonmises	0.019580997996537345	1.1219085438557104	10.747901773289938	0.3925774645937093	0.17037348817901427	1.7168485534686713	0.18553279325725364	-0.29395096289267914	0.47948375614993277	40.13371622778493
4	2.0	perception	376	diff_vonmises	-0.004368420789088085	-0.25029207435195605	7.434837890381345	1.1268564110137063	0.20881510480803525	2.7124217367372716	0.6774623955094554	-0.450345689599339	1.1278080851087944	48.16374880845541
5	2.0	wm	376	diff_vonmises	0.07726483393773442	4.426948889411352	2.7859020249174233	0.5824035507252947	5.531586015489943e-12	2.143269243076997	0.024448573232784987	-0.33972122899801405	0.36416980223079903	82.37953270439314
6	3.0	ltm	376	diff_vonmises	-0.09853387702974538	-5.645575292865458	3.140153540696938	0.5798062810147123	0.25586586657848936	1.1090183097091133	0.16541632046503524	-0.15703662526215392	0.3224529457271892	70.79413114735533
7	3.0	perception	376	diff_vonmises	-0.024154323895977475	-1.383940816231501	3.739072727375674	2.4586442925889758	0.5091773909014504	3.3032090228625712	1.0008609887873097	-0.4565705620756656	1.4574315508629754	64.0252978672026
8	3.0	wm	376	diff_vonmises	-0.25316379540602724	-14.50521700227882	1.4292050274390438	194.49304125069483	1.413729091258986	195.4028167907983	0.15470892749587506	-0.2751168575126215	0.42982578500849655	70.66237805955433
9	4.0	ltm	376	diff_vonmises	-0.08221136029629479	-4.710363973007077	2.0265089802505343	1.4530680101543756	0.5168767022035735	2.779511157858696	0.06099738590091086	-0.31490072909706956	0.3758981149979804	74.94539997898306
10	4.0	perception	376	diff_vonmises	-0.08143066311555004	-4.66563331947264	2.6854388730335104	2.8328270312989776	0.3825792840854836	4.57886019624117	0.7104070719055726	-0.5858621957610575	1.29626926766663	73.79768291184578
11	4.0	wm	376	diff_vonmises	-0.1697524550749026	-9.726099237776033	0.9444537630027531	227.98819097453	0.9306049207110171	229.90145322669363	-0.028514346928133705	-0.4210095734128423	0.3924952264847086	81.5136313406062
12	5.0	ltm	376	diff_vonmises	-0.0010555475640001493	-0.06047842049252371	2.074072017700004	1.11866295715974	0.05778499809690941	1.7916473042614534	0.28804551576023424	-0.2595978546207858	0.54764337038102	92.59225082497301
13	5.0	perception	376	diff_vonmises	-0.03387633989412075	-1.940971301283777	2.1659378219467254	1.8031880575745833	3.041312880278218e-15	2.624059638947682	0.5583362267947457	-0.40480500573221784	0.9631412325269635	93.3715663036536
14	5.0	wm	376	diff_vonmises	-0.12167622826709422	-6.971534346774905	0.38907339994937806	156.3466158388838	0.37662158823074615	157.3867784536274	0.12286272916978902	-0.3517280771789757	0.4745908063487647	133.7364483875246
15	6.0	ltm	376	diff_vonmises	0.42493998749716927	24.34726782992977	0.5156505631351307	140.27517056734496	0.5057862181958376	140.8395415824705	0.11917500588270968	-0.20545504338124054	0.3246300492639502	120.42195847495393
16	6.0	perception	376	diff_vonmises	-0.08027334322608816	-4.599323774259927	0.9004953264184302	249.9922975390471	0.8893507257141932	250.7240340477115	0.2960646225357664	-0.2747159503891474	0.5707805729249138	93.38354583616874
17	6.0	wm	376	diff_vonmises	0.025064708295149316	1.4361020000386007	0.12058498007163443	101.08034469837601	0.1078799602576532	101.83090252635503	0.08267253824563525	-0.29901979954692415	0.3816923377925594	166.4859028710651
18	7.0	ltm	376	diff_vonmises	0.025033749400555683	1.4343281860399952	1.005474168991092	146.86837898250573	0.991146617221737	147.72789230726772	0.10584122252554096	-0.2292725094173047	0.33511373194284566	84.15175278771918
19	7.0	perception	376	diff_vonmises	-0.14552418947348247	-8.337921873892668	0.7582555047137616	198.17955198886085	0.7395824656759511	198.74930487740144	0.5399797742426955	-0.36905517119669184	0.9090349454393873	104.91968141327676
20	7.0	wm	376	diff_vonmises	-0.28491799289307956	-16.324598500111843	1.0096753776102003	115.6945715407958	0.9933290719869121	116.55483232702862	0.06482887220737155	-0.21575962518428327	0.2805884973916548	82.65735994402385
0	1.0	ltm	377	diff_vonmises	0.5956155756098034	34.12625869469691	0.7513409923864286	148.04850758131988	0.7383989800570782	150.27769741405123	-0.284924220788767	-0.4066419019835692	0.1217176811948022	76.03769737225267
1	1.0	perception	377	diff_vonmises	-0.033259788083396156	-1.905645484678109	13.137523136486987	0.5063676924843538	1.164104571035518e-17	2.691409683449862	0.2966210561162939	-0.42835115500362553	0.7249722111199195	37.39445138054333
2	1.0	wm	377	diff_vonmises	-0.027513607842682145	-1.5764136085637288	7.072603915785188	0.3795951033477631	0.20532153986103222	3.156650450927324	-0.21543530020596452	-0.5401888525777989	0.3247535523718344	46.48461157243153
3	2.0	ltm	377	diff_vonmises	-0.027771597982244347	-1.591195354716634	15.802750449078443	0.3598050269962291	0.32037379939972976	1.5026767640108196	0.24456235821806105	-0.2868982344926498	0.5314605927107108	32.95135237387615
4	2.0	perception	377	diff_vonmises	-0.008431282678713006	-0.4830769133720105	10.381013906610251	1.0407418184781778	0.2222930488856406	2.5312642504743863	0.8233988277348108	-0.43765139977647627	1.2610502275112871	41.0731429066978
5	2.0	wm	377	diff_vonmises	-0.13323736531257604	-7.63393870585336	0.9688401581330499	115.65208100557145	0.945113304749195	117.3428911994416	-0.03933203780064076	-0.3691810021009694	0.3298489643003286	80.13166568702127
6	3.0	ltm	377	diff_vonmises	-1.1704514074863994	-67.06192577411761	0.00016093781138969338	7241.757892319557	4.185578208442568e-34	7241.8891785553515	0.16460323677483757	-0.2063780173464238	0.3709812541212614	144.4621865515336
7	3.0	perception	377	diff_vonmises	-0.04665886112776615	-2.673355819508017	4.360007152317894	2.0411856736843528	0.487439633478466	2.618123599084652	1.0046117317880396	-0.38300226967162987	1.3876140014596694	60.422367669955435
8	3.0	wm	377	diff_vonmises	-0.27619295415908285	-15.824690604565664	1.7449042229742326	129.66415640297504	1.72343891103953	130.3849034715101	0.12257984910779385	-0.2384469993285201	0.36102684843631394	63.51546387021429
9	4.0	ltm	377	diff_vonmises	-0.16786897103410095	-9.618183551457852	1.2237332651948796	93.25549094731923	1.1965905258103455	94.37572555178546	0.04281651852110713	-0.27958379189589877	0.3224003104170059	73.64503284313571
10	4.0	perception	377	diff_vonmises	-0.11069113929300636	-6.342135110983976	3.5033290631739646	2.2155941247355195	0.26338822648510674	3.6157489288265885	0.8473625840165505	-0.5182551089179148	1.3656176929344652	68.12948483598208
11	4.0	wm	377	diff_vonmises	-0.23455988290152974	-13.439291333340456	0.9279101685640375	132.62935782994046	0.9103045142787362	134.39551613158807	-0.12918060522147812	-0.35843489364988557	0.22925428842840745	77.67220266765203
12	5.0	ltm	377	diff_vonmises	-0.03139259113868014	-1.7986629802261593	2.9479752019608725	0.9280291619286486	0.1536519330133083	1.5808544418367156	0.31010526304178665	-0.22583415268439153	0.5359394157261782	75.52483952670752
13	5.0	perception	377	diff_vonmises	-0.07913966467951494	-4.5343687782167565	1.4900780419437418	3.1923534481998943	0.3416108179190023	3.9063748126414324	0.5272590051974668	-0.36614869038325615	0.893407695580723	96.24202355740225
14	5.0	wm	377	diff_vonmises	-0.4147078826637155	-23.761011407437458	0.491977372327623	116.50423079639324	0.4738695060959365	117.61875971531195	0.12364948332879777	-0.34597446416981725	0.469623947498615	121.53070386929097
15	6.0	ltm	377	diff_vonmises	0.5078212246783259	29.096012921232802	0.2617970339089941	42.78132631964538	0.23873879497954126	43.32581758674652	0.06539871155578325	-0.20258100579297889	0.26797971734876214	145.9858797928993
16	6.0	perception	377	diff_vonmises	-0.12321230753889816	-7.059545206046799	0.9762647634301811	239.94197371554617	0.9647491996867419	240.59127975964864	0.3064128158799093	-0.25604298318108576	0.5624557990609951	90.09488412780301
17	6.0	wm	377	diff_vonmises	0.12408488247285578	7.109540067071478	0.00017261004264805112	7052.171440788409	1.9343622072266875e-29	7052.974610032987	0.06591508109090682	-0.32155507170023157	0.3874701527911384	179.4173398452257
18	7.0	ltm	377	diff_vonmises	0.05306951892630477	3.0406594552669075	1.5033069592440786	159.0438253863075	1.4890606706105227	159.76159755383824	0.08715149608877937	-0.21145895979438833	0.2986104558831677	67.88514763707795
19	7.0	perception	377	diff_vonmises	-0.19977244286845808	-11.446117839381008	0.585036475463286	125.90708458727882	0.5619957260460977	126.45418398049729	0.4061614227723567	-0.35213187394490575	0.7582932967172624	118.45396559499017
20	7.0	wm	377	diff_vonmises	-0.7084065763030497	-40.58870700147706	1.1852590670599799	74.78673298668906	1.1656346085738523	75.4930538996981	0.008762857680981284	-0.1696726869408458	0.1784355446218271	73.77735889447565
0	1.0	ltm	378	diff_vonmises	0.00435164554319236	0.24933092356183684	8.451690155959971	0.351927734155428	0.09925697331724954	3.912731446458732	-0.28428703736173877	-0.6471883255432009	0.36290128818146217	44.30951207809295
1	1.0	perception	378	diff_vonmises	0.06404407140487378	3.6694549943337487	14.160474054744007	0.7029395484640439	0.054475239789822216	3.8418379684473467	0.4002034701901743	-0.6278912788231377	1.028094749013312	35.66402606221922
2	1.0	wm	378	diff_vonmises	0.16990248921934042	9.734695561035176	6.467726515484468	0.44148517590515357	0.02518067943554922	4.596964168516595	-0.31165198949680983	-0.7327519894467078	0.421099999949898	52.33319055050438
3	2.0	ltm	378	diff_vonmises	0.11044727841781889	6.328162912047366	4.633498539644315	0.7286031320523925	0.36263829767321704	2.0339186193080296	0.15626257020109385	-0.32595015838168534	0.4822127285827792	56.9833005558086
4	2.0	perception	378	diff_vonmises	0.013458906630794439	0.7711385468051598	6.823465530758529	1.3702759522048948	0.3163465187552569	3.064676898156969	0.7468897128184859	-0.5166872009573693	1.2635769137758552	49.42816749290736
5	2.0	wm	378	diff_vonmises	0.08126845420050872	4.656339433241377	3.1509234171951013	0.9509130601988485	0.16970749227830412	2.7807263696584625	0.11970520053401945	-0.4122622615739558	0.5319674621079753	70.67778948231987
6	3.0	ltm	378	diff_vonmises	0.08464409584641033	4.8497494527001335	3.9131367341180017	0.7814019057712813	0.5889678516942034	1.394574510106733	0.22618430214526486	-0.20497116995342318	0.43115547209868804	60.24631918811417
7	3.0	perception	378	diff_vonmises	-0.039747443092884784	-2.2773607356587133	5.566030401100657	1.1928425717237232	0.035633661346442275	1.7586187281080514	0.8049138264438332	-0.27649510838530006	1.0814089348291334	57.37937854200521
8	3.0	wm	378	diff_vonmises	-0.012668997207296282	-0.7258800706411035	1.3648002435665945	144.20296657482513	1.3431393595527215	145.08528748673476	0.2047412498460801	-0.2789575089281584	0.4836987587742385	73.45947403584003
9	4.0	ltm	378	diff_vonmises	-0.15160121333132892	-8.686109692947579	1.0221285318291882	213.42910177646652	1.004957103214501	215.2992074536355	0.05165710978741345	-0.44133312401793745	0.4929902338053509	80.38231393464795
10	4.0	perception	378	diff_vonmises	-0.05388774519836067	-3.0875403673424335	3.206543732664945	1.714395490121379	0.0058950570957617306	3.737205921600452	0.5677386878737263	-0.5893813544941555	1.1571200423678818	76.4106169328227
11	4.0	wm	378	diff_vonmises	-0.05424045566277211	-3.107749188343308	1.0171918932046604	258.55161507812244	1.0022967657112851	260.70176471149534	-0.0077527351513140275	-0.48689543961262416	0.47914270446131013	79.05565877126935
12	5.0	ltm	378	diff_vonmises	-0.11077773969854256	-6.347096948725321	2.6907790629681454	0.8332862744322379	1.113768426289387e-15	1.927417594303353	0.2058764666708881	-0.3043993537466193	0.5102758204175074	83.8363584861464
13	5.0	perception	378	diff_vonmises	-0.05511103442896164	-3.157629677379675	0.873992923331482	215.72086392322205	0.8510853683679547	217.11460703795333	0.5057892761094536	-0.5048984784816248	1.0106877545910784	94.76970560362503
14	5.0	wm	378	diff_vonmises	-0.010410811537841584	-0.5964955624244249	0.48559176995659786	188.09881070063201	0.4734405742416783	189.320062352306	0.13048580838670176	-0.37695333113342144	0.5074391395201232	122.35546074649002
15	6.0	ltm	378	diff_vonmises	0.1654984020707593	9.482359954813672	0.8448292808846781	107.32980740421532	0.8285489718362533	108.12962838172062	0.08628972371302979	-0.20981784860747865	0.29610757232050844	91.8995172000462
16	6.0	perception	378	diff_vonmises	-0.21802058527147192	-12.491659383027418	0.4815533561197343	196.87114658755425	0.4674930788565746	198.0376537259816	0.2344346278482945	-0.42937115844775064	0.6638057862960451	124.53791782510837
17	6.0	wm	378	diff_vonmises	0.4856572534933122	27.826110915081944	0.10436327438531924	120.77275620672137	0.09116241992018544	121.64671340748096	0.11344823287816652	-0.3674780001365754	0.4809262330147419	162.78322453375853
18	7.0	ltm	378	diff_vonmises	-0.021258316325366487	-1.2180118049975566	0.8698128285460566	144.41751876218203	0.8534470478803952	145.96723494415573	-0.03553842454842027	-0.3333280849850304	0.29778966043661015	84.64750138484203
19	7.0	perception	378	diff_vonmises	-0.048304644341835554	-2.7676522516676694	1.8757495779351812	1.9845199197681251	0.09673291537284433	3.253776888879446	0.41562581286970957	-0.4459105802202563	0.8615363930899659	94.91571742487503
20	7.0	wm	378	diff_vonmises	-0.10636580822648993	-6.094311895875765	0.8723307411053703	157.8976355454027	0.8565898209020831	159.25783459880614	0.046347891371304684	-0.3189892171675801	0.3653371085388848	87.67954229499276
0	1.0	ltm	379	diff_vonmises	-0.2537699548916989	-14.539947382519626	0.5152722135382184	125.47552471176594	0.4951336831679644	129.02343599100865	-0.39953345110156846	-0.6352580158337222	0.23572456473215375	96.94312735119246
1	1.0	perception	379	diff_vonmises	0.08466252345107658	4.850805276674046	10.893640758598151	0.7567349434051265	0.048356979533656724	4.161334064037885	0.2897294307938093	-0.674065942134343	0.9637953729281523	40.60288210808878
2	1.0	wm	379	diff_vonmises	0.149418907891199	8.561072801619694	8.65209448033601	0.3929190222529162	2.719867554511252e-35	4.27777843181304	-0.2269170718158512	-0.680829569004864	0.45391249718901283	46.19377749438743
3	2.0	ltm	379	diff_vonmises	0.04721975725322355	2.705492800241966	3.864455297355704	0.7493961104492719	0.18857300004654579	2.4987434849302015	0.0894086019688985	-0.3843582218512009	0.4737668238200994	63.85661644938284
4	2.0	perception	379	diff_vonmises	0.022874641572444003	1.3106204199755382	6.284580349965325	1.39262785853335	0.2333947741021202	3.4346953778504252	0.6815236081460068	-0.5622818469850539	1.2438054551310607	51.801096160757226
5	2.0	wm	379	diff_vonmises	0.10040813925617656	5.752962608140757	3.1218341685156554	0.793414027870404	6.370175523076815e-20	2.610700421088922	0.1160184773421824	-0.41447321620602995	0.5304916935482124	77.73807532283678
6	3.0	ltm	379	diff_vonmises	0.0710974391270076	4.07358319616582	5.571420690791836	0.5197861935233719	0.055635812599957035	1.4837656502163354	0.22790019711534704	-0.23422313752432186	0.4621233346396689	56.7145607562166
7	3.0	perception	379	diff_vonmises	0.016721327610285736	0.9580614999249473	3.9386596977212553	1.9821983634190516	0.3241636949612998	2.892710472128177	0.8909521164482156	-0.42005361468899177	1.3110057311372074	64.33381073785972
8	3.0	wm	379	diff_vonmises	-0.04101699464180376	-2.350100681286067	1.1154484749952502	166.57097426468454	1.0971454419306443	167.53364649136284	0.22377852411706556	-0.2939945136426303	0.5177730377596959	81.76489266459626
9	4.0	ltm	379	diff_vonmises	-0.03346754973099523	-1.9175493502302203	2.047186298177062	1.7767608829949	0.35997579985926353	3.8945452262113194	0.06928987878309445	-0.48131240496076233	0.5506022837438568	78.21450993686798
10	4.0	perception	379	diff_vonmises	-0.06204493992459124	-3.554913197821818	2.085863936207353	3.2847200746912546	0.38691545327668825	5.591505916218863	0.4753249015180616	-0.6515352020159945	1.1268601035340562	80.16736503624043
11	4.0	wm	379	diff_vonmises	-0.08098833433402478	-4.640289747134078	0.969539323577344	274.4082751944535	0.9540956618185507	276.53343616020277	0.09639916063649423	-0.509906871460224	0.6063060320967182	83.35818996918812
12	5.0	ltm	379	diff_vonmises	-0.10452790644206207	-5.989007880468486	1.78980285706879	1.157710390855476	3.3383786336663537e-14	2.44872303757654	0.16860514472052385	-0.37415635584997603	0.5427615005704999	102.15988783841932
13	5.0	perception	379	diff_vonmises	-0.020979703780785737	-1.2020484820736792	1.2594513977715986	6.067538225527493	0.49117754326221663	7.501365173691621	0.5282324203089159	-0.5226696289023822	1.0509020492112982	95.31478754978912
14	5.0	wm	379	diff_vonmises	0.056880025733853354	3.2589854131453104	0.49571718321601527	218.40364051477562	0.48516688388858	219.6361246878603	0.12932324822487828	-0.3759963731483751	0.5053196213732534	121.05068494954132
15	6.0	ltm	379	diff_vonmises	0.28748912100764495	16.471913289663867	0.7993600376444112	157.33328846818654	0.7867258364275258	158.30018090785342	0.08844903210398769	-0.24889318958124385	0.33734222168523154	94.00746127312777
16	6.0	perception	379	diff_vonmises	-0.15122956898363543	-8.66481604034485	0.5165482380873399	220.56238342434875	0.5044142874479484	221.75338699144032	0.20614486328746295	-0.4065834087061795	0.6127282719936424	120.3485848438707
17	6.0	wm	379	diff_vonmises	0.11249803658290017	6.445662699708517	0.55616681947236	160.18765472551416	0.5441154620178564	161.1527862890603	0.11722597648331146	-0.2910806814388458	0.40830665792215726	114.95563633550344
18	7.0	ltm	379	diff_vonmises	0.08572462745836236	4.911659353695453	1.7502409354397093	0.8617874274945332	0.04027895927461381	2.446249782958184	0.004829267539487536	-0.3614358361580337	0.36626510369752124	99.3180409070082
19	7.0	perception	379	diff_vonmises	-0.05948157972806187	-3.40804347718886	0.8713896036634906	87.87386568374497	0.8184274013458752	88.8599547496199	0.5851959256957002	-0.4535533930565805	1.0387493187522807	97.47777702175541
20	7.0	wm	379	diff_vonmises	-0.10449721945250941	-5.987249645481156	0.9807329821268278	94.28846980193394	0.9477692272748723	95.46706206252766	0.19857821082254645	-0.33287468685451316	0.5314528976770596	86.72892830361297
0	1.0	ltm	380	diff_vonmises	0.05901488169783891	3.3813036497500155	10.12785327202241	0.3361926328920073	0.0198235013101926	2.931489648026395	-0.0546418460945437	-0.46926293207075565	0.41462108597621194	42.2595718242126
1	1.0	perception	380	diff_vonmises	0.014428328063950833	0.8266823034945449	15.855150521884156	0.5181350748801316	8.445139579370349e-19	3.0472523526731394	0.3313469494609905	-0.48498527477632386	0.8163322242373143	34.013923692484354
2	1.0	wm	380	diff_vonmises	-0.019644128393348115	-1.1255256491519536	3.7284264446375817	0.422846550037018	1.843740475360643e-18	3.6577125626857723	-0.2693345717300812	-0.5819623938126033	0.3126278220825221	70.97780129081963
3	2.0	ltm	380	diff_vonmises	0.13010683139766419	7.454572324906343	9.735448888145163	0.5320100253908184	0.4009713434802051	1.4929957536668579	0.3121132310314863	-0.27720934171955414	0.5893225727510405	41.27673449003734
4	2.0	perception	380	diff_vonmises	0.005292334312047715	0.3032284198526061	6.177510990749298	1.2332386025815218	0.34536868896566586	2.582233040661719	0.632223879613311	-0.4289835442339506	1.0612074238472615	51.59638448401657
5	2.0	wm	380	diff_vonmises	0.08826241856242123	5.057064073243871	0.9074977896118249	146.73448198942316	0.8868612415892859	148.42262124015036	0.036224791843899595	-0.38922274684641067	0.42544753869031027	85.4038635373546
6	3.0	ltm	380	diff_vonmises	0.037919401338906894	2.172621658382088	1.7993610928740502	174.7062853689399	1.78481794653478	175.1985409469538	0.1793220141296814	-0.19404242873906696	0.37336444286874837	64.42551253295622
7	3.0	perception	380	diff_vonmises	-0.036657584998698534	-2.1003249075675052	3.2510206677052924	2.681791004466848	0.561332500723327	3.5001843377485686	0.9342929680479339	-0.4469776015291237	1.3812705695770577	67.28166740620239
8	3.0	wm	380	diff_vonmises	-0.11657107873583147	-6.67903082485036	1.1613291470178086	156.91560298612362	1.1414879243098142	158.30464945838966	0.06750959862551298	-0.345780518885487	0.413290117511	75.95345777279044
9	4.0	ltm	380	diff_vonmises	-0.0598770213458606	-3.4307006129325526	1.1592077429946903	235.0389391837625	1.1464288196052095	236.31677963332245	0.08673663679942933	-0.32543525833693465	0.412171895136364	76.53060083059603
10	4.0	perception	380	diff_vonmises	-0.06848876236322897	-3.924117027487458	1.196307423965012	228.9696775437118	1.1663082136902183	230.4795624965547	0.7092600891401872	-0.5833368923206734	1.2925969814608607	81.35590451783258
11	4.0	wm	380	diff_vonmises	-0.12331431045808736	-7.065389542814355	0.9428349446111023	265.79361808942934	0.9294576279574376	267.998036766329	-0.04793367561869388	-0.4804077188000093	0.43247404318131544	81.14531188438235
12	5.0	ltm	380	diff_vonmises	-0.06243069891702964	-3.5770155599977578	2.216928169421885	0.8861024999955279	0.007136569639610252	1.675370817337558	0.2177480952472573	-0.25897169335622133	0.47671978860347863	91.93780314561442
13	5.0	perception	380	diff_vonmises	-0.0287352644660359	-1.6464093770961021	1.9163328583205592	2.2494962901716034	0.12659625340071237	3.404139867485069	0.5183524737952278	-0.4519373078089721	0.9702897816041999	93.05556971747419
14	5.0	wm	380	diff_vonmises	0.22370250368560265	12.817209327694776	0.000346092725397814	3635.0089963040377	8.618690147653e-30	3636.520681245319	-0.040350924729864346	-0.4407986893896805	0.40044776465981613	178.32295219205596
15	6.0	ltm	380	diff_vonmises	0.5454876789577686	31.254141780667346	0.5218244533296899	143.53406375706288	0.5115655698161066	144.4239715245198	0.05440346257392292	-0.24326714435008512	0.29767060692400804	116.0866289118566
16	6.0	perception	380	diff_vonmises	-0.05202220989305356	-2.9806530678156866	0.782918722626038	376.02370486320285	0.7729667753287862	377.3153951021424	0.32908491428382547	-0.4225394268147582	0.7516243410985837	98.5781162099167
17	6.0	wm	380	diff_vonmises	0.10992334567903272	6.29814377736619	0.0002876501530069111	5231.802629185432	1.009463790193262e-30	5233.305290830638	0.00037481210233636375	-0.478652422695518	0.47902723479785436	179.52024133577913
18	7.0	ltm	380	diff_vonmises	-0.017937467229483063	-1.0277411674036012	2.1960706407815125	0.7719396237262335	0.1880069402101105	1.9787932084856048	0.04454163136845929	-0.2708225169792882	0.3153641483477475	81.70756082657181
19	7.0	perception	380	diff_vonmises	0.003281863891913681	0.1880369499430325	0.7192182669339782	183.82472591967527	0.698248273893756	184.98971272754127	0.40387428847207474	-0.4435969196086962	0.8474712080807709	104.61112470487026
20	7.0	wm	380	diff_vonmises	-0.10966403365250305	-6.283286292669055	0.8283626724803331	165.35553043768766	0.8141821356884124	166.97726293161367	-0.04913137942206447	-0.3433616453413961	0.29423026591933166	86.25308404435367
0	1.0	ltm	381	diff_vonmises	-0.3874894740601404	-22.201511469390034	0.40566813045218	55.25692626404972	0.3701523709550126	58.867185196945634	-0.4451394212692268	-0.6332368235001908	0.18809740223096405	107.2089397000121
1	1.0	perception	381	diff_vonmises	0.0980832701649533	5.61975742129325	10.42862629052374	0.702293132257194	0.06843426472753465	4.251057538037701	0.16956776083116964	-0.6944580406487618	0.8640258014799315	41.24195388291395
2	1.0	wm	381	diff_vonmises	0.21962017299134629	12.583309008337174	26.67011987620676	0.2611804118910197	1.081964793609058e-37	4.422019566765847	-0.16862878600273923	-0.7037862724998661	0.5351574864971269	26.20289067206258
3	2.0	ltm	381	diff_vonmises	0.06763351375922738	3.8751148920437117	10.266392101767682	0.4104443484452504	0.05106923402640628	2.058730163166655	0.17334781400993116	-0.33323478236640874	0.50658259637634	41.81305028625164
4	2.0	perception	381	diff_vonmises	0.023261444165761327	1.3327825760773362	7.945177781224168	1.2532268968731057	0.21095045272579172	3.3722303612676647	0.7300361511150227	-0.5662340150727863	1.296270166187809	46.534564140889614
5	2.0	wm	381	diff_vonmises	0.10021393524036931	5.741835537670511	2.8874644442882054	0.7884144001206782	6.508746488637294e-10	2.8941030546172537	0.04458446236635338	-0.4590423772216163	0.5036268395879697	80.89185213629415
6	3.0	ltm	381	diff_vonmises	0.043665902666441325	2.5018719314161357	3.8247072486873877	0.7154402415432759	0.452484252113715	1.479427135289586	0.18472415211628201	-0.22018498862834385	0.40490914074462586	61.71017161683861
7	3.0	perception	381	diff_vonmises	0.02111309134912719	1.2096910267791572	2.988964061011153	3.2455874520602395	0.6770823345371262	4.241201267791747	0.9328706256299937	-0.5021376875638202	1.4350083131938138	67.91514613281234
8	3.0	wm	381	diff_vonmises	-0.08432552680563074	-4.831496791179932	1.0968543141046978	191.96533118512417	1.0815159867421553	193.11521058784837	0.14138021243131504	-0.30919471976564594	0.450574932196961	80.36828048552675
9	4.0	ltm	381	diff_vonmises	-0.028271707187268572	-1.6198495014601648	1.017375696193529	210.13265459447393	0.9997006153076967	212.1238110641029	0.021768953945610292	-0.4593758723990007	0.481144826344611	79.83974124454369
10	4.0	perception	381	diff_vonmises	-0.09445323271411475	-5.411771595885773	1.2107839571392123	270.33269421060487	1.184566966714806	272.31440466548423	0.5638548385420421	-0.6439354577263146	1.2077902962683567	79.0953458005722
11	4.0	wm	381	diff_vonmises	-0.07684592898805837	-4.402947403777773	0.8879895391371141	257.7180693865808	0.8740500566427616	259.91493752666645	-0.013356574207620042	-0.4856410873749404	0.47228451316732034	84.74569006023191
12	5.0	ltm	381	diff_vonmises	-0.1372278749236049	-7.8625780646717045	2.1877792974373227	0.9024354611928012	8.854826950461861e-16	2.4038869811100603	0.10879151334773418	-0.37640828551939826	0.48519979886713244	92.90004656187583
13	5.0	perception	381	diff_vonmises	-0.03307209604851163	-1.8948915232310033	0.8463325580747973	189.6603647750553	0.8193659936630572	191.26667119888472	0.48262097041133245	-0.5461957895209117	1.0288167599322442	95.78691043545393
14	5.0	wm	381	diff_vonmises	0.018359278582654223	1.051909177691011	0.3940841095767888	170.9165086859073	0.38212542197038657	172.691344949638	-0.02524019861556326	-0.4389941238089037	0.4137539251933404	128.9337200672606
15	6.0	ltm	381	diff_vonmises	0.3881375246855418	22.23864203513635	0.6020195965585927	161.05356403475872	0.590494945186145	162.5119628903738	-0.0334939647496455	-0.31724076666706935	0.28374680191742385	102.89689752614368
16	6.0	perception	381	diff_vonmises	-0.07789906840337806	-4.463287847514467	0.6677913737206668	341.61311354194436	0.6576316728631934	343.1778152776405	0.22754360523266826	-0.45827005503906904	0.6858136602717373	104.9134248816498
17	6.0	wm	381	diff_vonmises	0.09829359184072468	5.631807965655069	0.30024938270122337	100.54805434976383	0.28146739831987444	102.40356115233322	-0.046681910674298166	-0.4702075337203304	0.42352562304603225	141.80519728871337
18	7.0	ltm	381	diff_vonmises	0.12026179200588516	6.890493118617362	2.67769469524893	0.8435363807763102	0.3016805826248675	2.4880011825711112	-0.005938890977358002	-0.3525218979749804	0.3465830069976224	70.69660267018872
19	7.0	perception	381	diff_vonmises	-0.05584968829306082	-3.199951426313588	1.6293217185098599	2.3991297752451586	0.01917118258440876	3.501576156771938	0.5246835657797805	-0.5046555591266044	1.029339124906385	105.59363185119093
20	7.0	wm	381	diff_vonmises	-0.2563743785305864	-14.689169865091985	0.9470993265971517	167.42617672557532	0.9294486569231222	168.86949947366105	0.08774060539457906	-0.35304492834890766	0.4407855337434867	85.0372941927765
0	1.0	ltm	382	diff_vonmises	-0.6344124817383426	-36.349157674027445	0.00029098789835240737	1640.3653918586185	5.087547035428707e-29	1643.8556101196789	-0.47951250532577205	-0.6314474199194251	0.15193491459365305	168.82093928717978
1	1.0	perception	382	diff_vonmises	0.07774675275328348	4.454560803610256	11.47179249869639	0.6475253107274915	0.0263961022562158	3.833366710137594	0.23839144465562667	-0.6157142801754443	0.854105724831071	39.7630245903747
2	1.0	wm	382	diff_vonmises	0.18256841139465324	10.460399445321759	120.71784541025654	0.46340041941271004	9.95717186951391e-44	4.201014102211729	1.3525821769084163	-0.6686121603657574	2.021194337274174	12.33305565418874
3	2.0	ltm	382	diff_vonmises	0.03991451434073987	2.286933213038794	14.233771348236193	0.34324331065883784	0.05880161012005227	2.028634384626917	0.16971613415984327	-0.3324854485574585	0.5022015827173018	35.52294027696075
4	2.0	perception	382	diff_vonmises	0.022501512761821385	1.2892417139121262	9.408620591279186	1.2073425494690575	0.1822333575944759	3.261491737372446	0.8388738982150804	-0.550928454676762	1.3898023528918424	43.13855644240482
5	2.0	wm	382	diff_vonmises	0.05783809040646294	3.3138784753864226	2.6634668903415117	0.8541886682006621	0.07833411295286057	2.9655361876047643	0.012736929077459935	-0.4442012886122436	0.45693821768970355	78.86529930276768
6	3.0	ltm	382	diff_vonmises	0.06276942434009092	3.596423097152952	4.311006005247684	0.5183287599470767	0.2919119637878849	1.1764330338231117	0.16958001359585684	-0.18113711726892795	0.3507171308647848	60.66600425529339
7	3.0	perception	382	diff_vonmises	-0.003749056499351172	-0.21480511456891302	4.239770617318902	1.848189377275066	0.3303622171987703	2.6226096520695674	0.9013958703850793	-0.38758998486115587	1.2889858552462352	62.302611230685955
8	3.0	wm	382	diff_vonmises	-0.09149421713350808	-5.242232491603558	1.3282168675822512	162.75171462245024	1.3101705022116885	163.6830938685918	0.16017191399151898	-0.2753760450219396	0.43554795901345855	73.56022778895431
9	4.0	ltm	382	diff_vonmises	-0.07545516490834688	-4.323262491711909	0.9666417649644976	128.06963510756358	0.941104625158897	130.1038244552694	-0.05147911790263038	-0.4426684381520616	0.3911893202494312	80.13403366986282
10	4.0	perception	382	diff_vonmises	-0.09321596763283115	-5.340881528589311	1.9265455653408525	4.558766678518136	0.5849309790989037	6.6260675086390215	0.5583588296896396	-0.6385392392275088	1.1968980689171484	78.79964746382663
11	4.0	wm	382	diff_vonmises	-0.10580581470833057	-6.062226630730551	0.9584165596961604	239.42422589140637	0.9438396751938858	241.63365785304612	-0.06872848702965939	-0.4768309455476505	0.4081024585179911	79.85908890741055
12	5.0	ltm	382	diff_vonmises	-0.10384836916482	-5.950073262460704	2.6958677839090974	0.7894998892071539	1.1034564556039013e-18	2.071153873844579	0.15661937474065513	-0.32741994237437994	0.48403931711503506	83.752589373609
13	5.0	perception	382	diff_vonmises	-0.04991125526315578	-2.859704276778943	0.8639015838524041	116.12392149997602	0.8227965288510714	117.43810488316115	0.5061818642965505	-0.4911079647477923	0.9972898290443428	96.08787847201322
14	5.0	wm	382	diff_vonmises	-0.10981554045898242	-6.291966993247828	0.5149379144958028	189.9715476709344	0.5028674193955834	191.43493812442995	0.06729546426853972	-0.38895840827228056	0.4562538725408203	116.80279244949791
15	6.0	ltm	382	diff_vonmises	0.3515620319324165	20.14302066677094	0.6742086697038324	142.8074379469216	0.6622501718470796	143.89253406543892	0.02399273178089345	-0.25415868273625364	0.2781514145171471	99.82751178732616
16	6.0	perception	382	diff_vonmises	-0.1375782371144709	-7.882652339509284	0.6571478739222141	314.9504974878392	0.6478458109884003	316.058635514846	0.25259018416976176	-0.3718221149929839	0.6244122991627457	107.49435810107657
17	6.0	wm	382	diff_vonmises	0.26063365389907106	14.933208367490185	0.0008303873129386866	1667.4880357059706	1.52690921881318e-26	1668.8577312854648	0.0024273929691958074	-0.4383235386792421	0.4407509316484379	177.75291777256652
18	7.0	ltm	382	diff_vonmises	0.12760750256427453	7.31137133113776	1.2009316094844165	152.11511302337777	1.1815091596085656	153.6033348738308	-0.012709536618693562	-0.3508252985572433	0.33811576193854975	72.33416712585176
19	7.0	perception	382	diff_vonmises	-0.10678837703140495	-6.118523304951283	1.6718282668665632	2.1041191015692897	1.7762937730956328e-12	2.90778893053275	0.51070450801258	-0.4284169996951715	0.9391215077077515	105.35082709579626
20	7.0	wm	382	diff_vonmises	-0.3709692507111759	-21.254972394880895	0.9063135703113455	138.35538207481022	0.8895819068243416	139.6107163876794	0.038296221179798806	-0.29330747443357374	0.33160369561337255	85.78749954691988
0	1.0	ltm	383	diff_vonmises	-0.0099408872867166	-0.5695708861441175	5.0940326332601495	0.459563287107668	0.07519630757314148	3.780969582613408	-0.24541656307852233	-0.6034942557222429	0.3580776926437206	56.90685884522051
1	1.0	perception	383	diff_vonmises	-0.0030799146301594116	-0.17646610956873013	15.392679761444972	0.5487154070594864	6.355617184479589e-17	3.3741129056549264	0.3145872875010899	-0.537006747485103	0.8515940349861929	34.52543097199302
2	1.0	wm	383	diff_vonmises	-0.028500007886959028	-1.6329301680123116	4.679763481190316	0.4459130939479093	0.05472871900151919	4.341641858917296	-0.3561316476242461	-0.6892701087780161	0.33313846115377	59.51239520313274
3	2.0	ltm	383	diff_vonmises	0.043003104227030464	2.463896378170036	5.932136564909134	0.7205799557169758	0.3158120097863985	2.3444609741746048	0.18472894946030083	-0.3936961700655773	0.578425119525878	51.5332393089314
4	2.0	perception	383	diff_vonmises	0.0019141228978793881	0.1096711635178396	5.042520702328817	1.4214656270352934	0.3071108610262402	3.3193570113427566	0.5366001003237475	-0.5296124430336521	1.0662125433573997	56.44509240387379
5	2.0	wm	383	diff_vonmises	0.05138336487793979	2.9440499446866966	3.4233796804973657	0.7235727039977713	0.10571665369215592	2.794753917195307	0.017517651498286768	-0.42719798616831883	0.4447156376666056	69.11602951025901
6	3.0	ltm	383	diff_vonmises	-0.12258149176196165	-7.023402124378071	1.3212131358070738	3.172591307853426	0.652043882222958	4.068964001089697	0.15249482407584058	-0.251895149831707	0.4043899739075476	86.55446898837943
7	3.0	perception	383	diff_vonmises	-0.0601993529320921	-3.449168852427375	4.40911081990233	1.8789752333196375	0.20033444668754644	3.101552214734296	0.9257496916407392	-0.4705419264816222	1.3962916181223615	62.22724909675583
8	3.0	wm	383	diff_vonmises	-0.186121193789523	-10.663958882076177	1.3349350005780338	255.40141853931843	1.3187989488694747	257.00613028125065	0.10227349319782775	-0.42501493902452125	0.527288432222349	70.94785235739374
9	4.0	ltm	383	diff_vonmises	-0.2350357036542503	-13.466553854276082	2.820739281996389	0.800675006176876	3.1867675309375783e-13	2.674210516903275	0.08055607589706937	-0.42381778872425646	0.5043738646213258	81.84888132713847
10	4.0	perception	383	diff_vonmises	-0.05406961394563033	-3.0979606789863166	1.5549123903652662	7.376241457060421	0.6497058285433079	9.624290332727895	0.6189536392333244	-0.7082547133880922	1.3272083526214167	83.57518086237067
11	4.0	wm	383	diff_vonmises	-0.2803826546066118	-16.064742757633148	3.773836552734206	0.5849786202276217	3.257614132463181e-13	3.379508617817834	-0.10221996803462252	-0.537635769173646	0.43541580113902345	70.53278792054581
12	5.0	ltm	383	diff_vonmises	0.016787974246764436	0.9618800709139194	1.6624999044962148	1.941898147587421	0.2871863168376411	2.5543625625526243	0.36460462692009143	-0.27283150470617706	0.6374361316262684	93.44694550974626
13	5.0	perception	383	diff_vonmises	-0.02549548374197617	-1.4607836150596418	2.3256847311525894	1.7773049798314455	4.150297772917083e-15	2.7654594663963894	0.5634792941265434	-0.4305520599055479	0.9940313540320913	90.17915264214184
14	5.0	wm	383	diff_vonmises	-0.12162030581169392	-6.968330226100459	0.3925230615946351	238.10510255036243	0.38142544786920446	239.31995968048062	0.2102562292751955	-0.45483705584837963	0.6650932851235751	134.02467786004507
15	6.0	ltm	383	diff_vonmises	0.40391583318122176	23.142672519794225	0.5875746577950198	121.68920744393846	0.5756982653738935	122.05365106214086	0.17791880966754903	-0.18146431243552996	0.359383122103079	116.35291533084441
16	6.0	perception	383	diff_vonmises	-0.053773276054165105	-3.0809817684955534	0.789413174081548	154.6092737276679	0.7724854307014144	155.32870329080282	0.2851305467890555	-0.2793681298673292	0.5644986766563846	100.03866529951651
17	6.0	wm	383	diff_vonmises	0.28988985910008647	16.609465450077057	0.0007326989843447771	1692.4600468691913	3.2485822089420745e-26	1692.9480682561657	0.11972281560889542	-0.27499255090611996	0.3947153665150154	177.2761620788774
18	7.0	ltm	383	diff_vonmises	-0.016495496509755774	-0.9451223309817859	0.7113101246872573	143.32386517610138	0.697226090440795	144.43433066420724	0.06941148734883029	-0.27757957406788236	0.34699106141671265	98.97935236049196
19	7.0	perception	383	diff_vonmises	-0.11722024395967995	-6.716225252383542	0.7814138387474806	201.31040656790094	0.7647228702672972	202.04768517397034	0.42271865566613087	-0.3454042930831491	0.76812294874928	101.829995870818
20	7.0	wm	383	diff_vonmises	-0.1844338700103848	-10.567282350859493	0.9608287116074696	144.03699472139738	0.9440586739418436	145.24100714053986	0.05996384114509823	-0.29038646016448766	0.3503503013095859	83.96387515446764
0	1.0	ltm	384	diff_vonmises	-0.009287302473832278	-0.5321232348119982	6.171677380331967	0.2399643361450455	0.03706984050898163	3.4871232088669895	-0.34321822645957323	-0.5579254603752465	0.21470723391567326	52.532961939485745
1	1.0	perception	384	diff_vonmises	0.06185043323666671	3.5437687855166744	11.731828208989802	0.6553343559066878	0.0948997646216042	3.7081838223374612	0.23774991385108113	-0.6159009808850673	0.8536508947361484	38.80134889913964
2	1.0	wm	384	diff_vonmises	0.04251410122306564	2.4358785698736325	4.081027605667904	0.6622543251379186	0.15972592992266	4.404500543438638	-0.3024629368186056	-0.7011683042520899	0.3987053674334843	59.98058433316629
3	2.0	ltm	384	diff_vonmises	0.03821302812152998	2.189445233778396	7.149762818747573	0.4744854864483915	0.14647898650267513	1.9362809313384237	0.14175679481923648	-0.31821104300636743	0.4599678378256039	48.83506057374623
4	2.0	perception	384	diff_vonmises	0.016362079044650084	0.9374780733178959	7.498845628727666	1.2952837144410776	0.29692525373899925	3.241622866873398	0.710599605134676	-0.5544116260859951	1.2650112312206712	47.29053147478936
5	2.0	wm	384	diff_vonmises	0.06048296690587685	3.4654187361361752	2.6622003300944366	1.077759056783071	0.23447145871602917	2.9137931251575786	0.08060250238627531	-0.4118425254144624	0.49244502780073773	73.89632278174278
6	3.0	ltm	384	diff_vonmises	0.009087064878912591	0.5206504657232499	3.4580709151895084	0.8464301634422963	0.5271235547286268	1.5422253040333735	0.2121636567013115	-0.21697885414815324	0.42914251084946475	63.806210724802355
7	3.0	perception	384	diff_vonmises	-0.03331097309824836	-1.9085781700034548	5.182321213327802	1.5145722824502272	0.2105322194927347	2.293396924462137	0.8930211896988679	-0.35626956166154633	1.2492907513604141	57.77562491127756
8	3.0	wm	384	diff_vonmises	-0.08012254449699527	-4.590683643526968	1.3382516241178506	205.32213498458242	1.323760188778371	206.25464533898537	0.16321358540987774	-0.27729931116013873	0.44051289657001647	73.26795979912882
9	4.0	ltm	384	diff_vonmises	-0.1810425698553019	-10.372975164911182	1.0325231470576763	198.34295850394892	1.0152995857617588	200.18154071355622	0.011243412568546773	-0.4227955848655185	0.43403899743406527	78.97797890181991
10	4.0	perception	384	diff_vonmises	-0.06501061022005623	-3.724833589179278	3.8647764232855573	1.593804665263305	0.08092039997344226	3.626675456036144	0.5776844799234736	-0.555370308834449	1.1330547887579225	67.45222830693947
11	4.0	wm	384	diff_vonmises	0.029212965427965254	1.6737796260839937	0.8738443478673272	197.86577515116971	0.8592150267455997	199.93377759166944	-0.09925930505134062	-0.4290525907791327	0.3297932857277921	82.46180362120461
12	5.0	ltm	384	diff_vonmises	-0.10395878168550352	-5.95639943390127	2.8179042332060744	0.8691531717010361	4.082656058312442e-14	2.156416115239037	0.2059888023233118	-0.3412448744104707	0.5472336767337824	81.8968088690421
13	5.0	perception	384	diff_vonmises	-0.08856597443799429	-5.074456543760606	0.8466514179480747	212.78808833827952	0.8244718731638132	214.2517954180619	0.4495860187616785	-0.5013160951781082	0.9509021139397866	95.7088741744105
14	5.0	wm	384	diff_vonmises	-0.11571784758860802	-6.63014428116535	0.4323943324944471	188.95927633639124	0.4205580674816167	190.35914539625472	0.08782571541802042	-0.4085269927516144	0.49635270816963484	127.27433414470545
15	6.0	ltm	384	diff_vonmises	0.08296853531595177	4.753746905986157	0.7389216913166546	115.38321274105397	0.7224720064901773	116.43561558659182	0.05818276967761449	-0.25817256451374604	0.3163553341913605	96.77672456545488
16	6.0	perception	384	diff_vonmises	-0.16892700891059345	-9.678804656345855	0.6967466367387545	265.73162911303143	0.6849918193460101	267.02305891418433	0.2313112434540443	-0.39368858162255904	0.6249998250766033	103.43641214502145
17	6.0	wm	384	diff_vonmises	0.4696880737608904	26.91114431412832	0.0002443308740776478	5797.87841247462	4.878487315306609e-32	5799.034018449859	0.04155209995678888	-0.4093653632439782	0.4509174632007671	173.31868545635075
18	7.0	ltm	384	diff_vonmises	-0.03297468741153455	-1.889310419444095	1.0963889473223885	227.57001053595457	1.0835070190980525	229.1713673674238	-0.022888337900440092	-0.3646353476557813	0.3417470097553412	75.42658917510869
19	7.0	perception	384	diff_vonmises	-0.09748110737634642	-5.585256034926248	1.678992263960793	2.1278638931007103	1.02159657769051e-16	3.4616544368916258	0.4360663034210325	-0.5165833254192495	0.9526496288402819	105.15727075693377
20	7.0	wm	384	diff_vonmises	-0.2722179052755431	-15.596937080180648	1.0329569193432038	168.33291117461198	1.0177742266131835	169.60626096871007	0.042947825067116696	-0.3035018630953452	0.3464496881624619	80.1498302215339
0	1.0	ltm	385	diff_vonmises	0.07739174949442378	4.434220615164205	4.763200467633407	0.5490211430470959	0.2065299088107461	3.7466135173535635	-0.26149344188825463	-0.6141921123132144	0.3526986704249597	55.01449314492538
1	1.0	perception	385	diff_vonmises	0.03572413783023057	2.0468423244158536	16.49796903278266	0.6154813513062206	0.02662635428684075	3.0399613814581325	0.4927641380311584	-0.4903132199307544	0.9830773579619128	33.2089052336064
2	1.0	wm	385	diff_vonmises	0.10307103049055515	5.905535037173033	3.04895555541112	1.0552839333347628	0.2849689366836122	4.631395896791336	-0.262987607068469	-0.7048582373575886	0.44187063028911955	64.603146592792
3	2.0	ltm	385	diff_vonmises	0.09182777762803114	5.261344100152026	3.0848692526448263	1.160733979011962	0.6107840897400947	2.4426511036084255	0.11871969003720251	-0.33727707183417094	0.45599676187137345	63.40822271109633
4	2.0	perception	385	diff_vonmises	0.01043286288593451	0.5977590116027235	6.463124434821851	1.4113518419684747	0.361814812099034	2.924339142994958	0.7542463961597449	-0.491716181785902	1.245962577945647	50.47420303921612
5	2.0	wm	385	diff_vonmises	0.04682661684835796	2.6829675142871037	2.8051699559893084	1.171040353540931	0.3807600983720751	2.748876798065844	0.12034837420669109	-0.3793346649999369	0.499683039206628	69.47992321552411
6	3.0	ltm	385	diff_vonmises	0.10990984992741883	6.297370527757356	5.606689325809754	0.5169727384278205	0.20784487834667606	1.1464246335903505	0.25413011542648933	-0.1830239585116642	0.43715407393815353	55.04259493748961
7	3.0	perception	385	diff_vonmises	-0.09870885976164719	-5.655601064891101	7.427612876120662	0.878274434472288	1.965041469378644e-17	1.249827397932413	0.7386796955631141	-0.1989158768115925	0.9375955723747066	49.90781973253809
8	3.0	wm	385	diff_vonmises	0.0006557021708724514	0.037568967008557407	1.6909547315226217	161.8717145889429	1.6703652840074175	162.55549146967508	0.24422664722990817	-0.26037758450011594	0.5046042317300241	66.64713118088332
9	4.0	ltm	385	diff_vonmises	-0.6772443596815095	-38.80324350879039	0.49694860983813643	93.06726440870275	0.4721340378576752	94.96377933150222	-0.02752156014911833	-0.4421660231621587	0.41464446301304037	115.3772220417513
10	4.0	perception	385	diff_vonmises	0.01193122699889341	0.6836089514491317	1.8383153056573338	2.2964998990383734	6.813366975622233e-16	4.656234428169408	0.38460468495917133	-0.7125726203499108	1.097177305309082	100.93356336510223
11	4.0	wm	385	diff_vonmises	0.03016881697135841	1.7285458853614875	1.150423328176375	159.207840323169	1.1260317838822327	161.44132020482456	-0.09256587830391538	-0.5000217812589476	0.4074559029550322	72.20940382558686
12	5.0	ltm	385	diff_vonmises	-0.054621303253391845	-3.129570147923545	3.0344756073740258	0.848297872244622	6.9933479350048395e-12	1.523580365830587	0.31673674604489077	-0.24119151099782993	0.5579282570427206	78.87417109593196
13	5.0	perception	385	diff_vonmises	-0.08669930677862323	-4.96750436512508	1.4217247307097969	4.048279078269455	0.4464287026485704	5.033339257672945	0.5059000017936435	-0.4091588201441122	0.9150588219377557	93.67922111993875
14	5.0	wm	385	diff_vonmises	-0.09324373814021222	-5.342472661457184	0.5818173236464331	168.9319883514145	0.5671563010650394	169.53877023315405	0.3101393524640912	-0.3117930057116425	0.6219323581757337	117.47131708195738
15	6.0	ltm	385	diff_vonmises	0.08684789718348451	4.976017968199772	1.4164834847338577	1.9442592020523184	0.6981204724825424	2.2125261709190966	0.18471253659549502	-0.12483094755283324	0.3095434841483283	87.91856462192604
16	6.0	perception	385	diff_vonmises	-0.29357934118747886	-16.820857202273757	1.0054645133172173	1.746132150136128	7.57209349300031e-12	2.2692268812410776	0.23731468101567205	-0.2810436986603881	0.5183583796760601	127.70218553622232
17	6.0	wm	385	diff_vonmises	0.5507125575737155	31.55350527382926	0.18822087201897084	121.07640995642211	0.1756068789288027	121.01919972907667	0.2737334827254365	-0.21159433441737185	0.48532781714280837	153.50244886049944
18	7.0	ltm	385	diff_vonmises	-0.12523707869555314	-7.175556047802952	0.9520895579230743	162.50983934567074	0.9373582097213072	163.92133189697213	-0.010764248334332649	-0.31410249291051073	0.3033382445761781	81.61827428665967
19	7.0	perception	385	diff_vonmises	-0.12089518657454598	-6.926783954168137	2.5707179869956867	1.2895255102779668	4.381030410236189e-11	2.3406049241175975	0.40000571171572546	-0.36800010879237677	0.7680058205081022	85.77815749386767
20	7.0	wm	385	diff_vonmises	-0.07360470758991575	-4.2172390971967095	0.8599530397091505	111.0624448005435	0.8430267701125971	112.1611359778918	0.01605507673085782	-0.25001481407464965	0.26606989080550747	87.43675266265339
0	1.0	ltm	386	diff_vonmises	0.04740780552613739	2.7162671726246534	6.363625578483812	0.3595168572192012	0.19517083215259673	2.647864315718111	-0.1533265038665571	-0.44553736650094605	0.29221086263438895	49.12594093934936
1	1.0	perception	386	diff_vonmises	0.0018858104339062752	0.10804897882456405	16.215512673033718	0.5301702191014275	0.006248978417722205	2.5208921028596945	0.44120465291747	-0.402232101517825	0.843436754435295	33.593150258195806
2	1.0	wm	386	diff_vonmises	0.0665336738659925	3.812098708021234	2.8945207068389167	1.0443036132902839	0.40165906539830926	3.8530358275966	-0.210367670581328	-0.5764196146080481	0.36605194402672014	63.22423247809715
3	2.0	ltm	386	diff_vonmises	0.08464385911589936	4.849735889040973	7.010862961215044	0.5407287661105349	0.5396776643008777	1.42295451025694	0.19854113247976563	-0.2598973537639366	0.4584384862437022	46.721635977949234
4	2.0	perception	386	diff_vonmises	-0.006111699859015837	-0.3501746075723077	8.134734505415452	1.1924987170722432	0.3789317936062826	2.3365022942930347	0.8103127467743595	-0.41102883495111664	1.221341581725476	45.51297899637751
5	2.0	wm	386	diff_vonmises	-0.009091336685100588	-0.52089522218872	1.1358544034310039	135.47106824445646	1.1127343877872824	136.91436293094134	0.06080460004167776	-0.3544016564466297	0.41520625648830745	76.68558757146937
6	3.0	ltm	386	diff_vonmises	0.0782850386590816	4.485402314183865	2.0800416871977716	56.581998300628264	2.0430538170314207	56.79039986769185	0.2125370730324363	-0.13205063089592972	0.344587703928366	62.2257214269583
7	3.0	perception	386	diff_vonmises	-0.08956198407947205	-5.13152369257162	6.639374885352815	1.0475990625060791	7.326349559669507e-23	1.324363560894709	0.8441827068691341	-0.2107772026370346	1.0549599095061688	52.83300488524287
8	3.0	wm	386	diff_vonmises	-0.04203734418496792	-2.4085624037374753	1.844130883537362	144.05644518195643	1.8235971332144256	144.68237277605832	0.1745665873906006	-0.23342571955272717	0.4079923069433278	62.89852943136711
9	4.0	ltm	386	diff_vonmises	-0.24413625009499565	-13.987976756593595	1.2262976605758054	139.02736951103657	1.2068496509895197	140.21096346294797	0.04796445595003007	-0.29663999868102664	0.3446044546310567	73.51470117673577
10	4.0	perception	386	diff_vonmises	-0.06695077921318153	-3.835997084027504	3.5124146439859194	1.733064716513303	3.236013204135427e-20	3.247365362010571	0.7235712630813745	-0.5157308529206144	1.2393021160019888	73.18519448628302
11	4.0	wm	386	diff_vonmises	0.039374580540241955	2.255997285053805	1.1668621479104178	196.61722371731474	1.1519505201678548	198.4031430881539	-0.1164747145989935	-0.39287449752401216	0.27639978292501866	69.91385458390579
12	5.0	ltm	386	diff_vonmises	-0.053593906183736585	-3.0707046319481908	3.5790384758457603	0.6954439772046838	2.5475654089195956e-17	1.278820245356879	0.29944371239063944	-0.20313897046475934	0.5025826828553988	72.4820951278285
13	5.0	perception	386	diff_vonmises	-0.09526967306881012	-5.4585501824339815	1.2805758097725282	5.000638002106069	0.5348818782422334	5.794375445989567	0.5022685269659517	-0.36990646008955314	0.8721749870555049	95.04248919766407
14	5.0	wm	386	diff_vonmises	-0.19631648298775642	-11.248105924050268	0.4647889869282421	97.99398557689858	0.4449761945345779	98.78378252266569	0.17332839521797538	-0.3043306867223823	0.47765908194035767	126.9095849551618
15	6.0	ltm	386	diff_vonmises	0.08218863764898186	4.709062061216682	0.8931353662914574	78.92733797449787	0.8760089495955999	79.32302534401065	0.13173313657233976	-0.13772686509095955	0.2694600016632993	93.23500980942418
16	6.0	perception	386	diff_vonmises	-0.234512142028306	-13.436555982794467	0.8067068487090413	167.71611688842358	0.7909022539467652	168.34892821038514	0.3151194538958535	-0.27151380715467255	0.586633261050526	99.69735245168688
17	6.0	wm	386	diff_vonmises	0.3813674769213824	21.850746871148036	0.00019654387011862627	7553.845507775543	1.2877381511442851e-29	7554.260037220634	0.17032769848219687	-0.3022532984805366	0.4725809969627335	175.49191910187267
18	7.0	ltm	386	diff_vonmises	-0.04702460601074746	-2.6943114576813523	1.2958407767541509	146.0105978674812	1.2798013649215945	146.9964404251885	0.03836193849845415	-0.2515590168425277	0.28992095534098183	71.30488172773804
19	7.0	perception	386	diff_vonmises	-0.12647944744499942	-7.24673853374517	1.7438148265105473	1.6041482580811406	4.669042491065178e-12	2.5397889035220786	0.35724381283429846	-0.3809387790337504	0.7381825918680489	103.36778810919081
20	7.0	wm	386	diff_vonmises	-0.379275003967526	-21.73085700214679	0.811923904656663	120.45271618223164	0.8018175391347483	121.43489494038545	-0.06611326451557886	-0.19609393857257196	0.1299806740569931	83.60732534920652
0	1.0	ltm	387	diff_vonmises	-0.3043394876648448	-17.437368182369386	7.810257783144238	0.18932535874127035	1.968558324803449e-30	3.813379849615778	-0.3994838292392827	-0.6069182188203557	0.20743438958107296	48.65263441875257
1	1.0	perception	387	diff_vonmises	0.06060947535455393	3.472667136318119	11.645773049023047	0.6474404707571184	1.1371630088422046e-16	3.8430516364471385	0.25960268016129084	-0.6116406644311106	0.8712433445924015	39.75153089120667
2	1.0	wm	387	diff_vonmises	0.17973945577200148	10.298312227714009	121.84409106378251	0.45352068880401797	4.146212869310779e-66	4.405890133211562	1.2905765253166739	-0.7012191934204294	1.9917957187371034	12.255179652722319
3	2.0	ltm	387	diff_vonmises	0.05542207809106065	3.1754511664622416	14.291648670690359	0.3820737788535427	0.11135443539024206	2.1234479783923343	0.19439104481132918	-0.3585116180723342	0.5529026628836634	35.196671121785926
4	2.0	perception	387	diff_vonmises	0.01886295960956579	1.0807679747538588	9.059241914049451	1.196387958582001	0.14864719153956601	3.226336536807969	0.8231413896367832	-0.5363129723192377	1.3594543619560209	44.11316854254201
5	2.0	wm	387	diff_vonmises	0.048287675521202854	2.7666800098621014	2.7667260132155933	0.7349191486751626	0.02194700453573063	3.0210345471900344	-0.03194296592184287	-0.4692813579635039	0.43733839204166103	80.61049839938687
6	3.0	ltm	387	diff_vonmises	0.06939730834420152	3.9761728776907583	4.561979368989907	0.42976561086828863	0.14651392583166975	1.0843027116066026	0.15608144150940478	-0.16834216220435635	0.3244236037137611	61.035890535018865
7	3.0	perception	387	diff_vonmises	-0.005081042701141551	-0.29112230230116254	3.8030473447336632	2.101843552455015	0.3792573004850081	2.949092463721915	0.9100468634600304	-0.4193669493324151	1.3294138127924455	64.82793822044579
8	3.0	wm	387	diff_vonmises	-0.11894145880346069	-6.814843598567448	1.3279755879847126	155.7367897289506	1.3075461991622797	156.829638323116	0.1406663237866539	-0.30895730871846183	0.4496236325051157	72.78261850950258
9	4.0	ltm	387	diff_vonmises	-0.06574124004761508	-3.7666955946847716	1.31537476667431	3.716519198306463	0.5926277727695773	5.78059469604753	-0.039457739947089676	-0.4458319277033199	0.40637418775623024	81.87985027156293
10	4.0	perception	387	diff_vonmises	-0.1000735003886613	-5.733789213371096	1.1428947549709754	310.02128499165616	1.1191855495136387	312.08570211324013	0.6191107481271132	-0.6780737475524674	1.2971844956795806	81.69690536394756
11	4.0	wm	387	diff_vonmises	-0.19884231168827646	-11.39282524836308	0.9748958891726175	198.41922280816118	0.9547334470284682	200.8507668526873	-0.05111094538597172	-0.5333365595302695	0.48222561414429777	79.93595948342363
12	5.0	ltm	387	diff_vonmises	-0.07205542046260092	-4.128471483547623	2.5949513194417295	0.8164399032352605	1.4349832651874378e-16	1.8970336623714195	0.18987507416823673	-0.29918168377687365	0.4890567579451104	85.38116446511259
13	5.0	perception	387	diff_vonmises	-0.015258760007623525	-0.8742625490398358	1.7370218144910106	2.910984000989256	0.2431553150994336	4.051131712215995	0.5683177823805662	-0.46402996788322065	1.0323477502637868	92.87621207373164
14	5.0	wm	387	diff_vonmises	-0.1181407036812542	-6.768963709641534	0.5186601791356256	206.05368658255952	0.507054098303229	207.51490912243534	0.08537436638383866	-0.39815643617094665	0.4835308025547853	116.8949776216498
15	6.0	ltm	387	diff_vonmises	0.5165045853036863	29.593532837056028	0.6259301894562586	152.15266230371904	0.6157850387728584	153.03207735861545	0.05654424083176224	-0.22726141012069334	0.2838056509524556	105.88844573354078
16	6.0	perception	387	diff_vonmises	-0.09871518032117807	-5.655963206276382	0.6659069656988272	263.55281564747014	0.6553639591934921	264.4711652691462	0.2749557906254694	-0.33932156201528585	0.6142773526407552	107.87412420420779
17	6.0	wm	387	diff_vonmises	0.16226489259047752	9.297093508577985	0.046010589078327	94.59482413299888	0.031132850648225546	95.81902511065584	0.027268011956024907	-0.40840244647204926	0.43567045842807417	174.6594574748471
18	7.0	ltm	387	diff_vonmises	0.1835904662383905	10.518958874298807	1.2083338311931462	36.996366600655605	1.1379101911493956	38.27618713055832	0.01261277586661258	-0.30630973262761785	0.31892250849423043	73.75368729614428
19	7.0	perception	387	diff_vonmises	-0.11080508609844528	-6.348663782024624	0.7438442556320867	102.49364843453083	0.7107876622439037	103.03231100527887	0.4920058321391423	-0.3461302271441262	0.8381360592832685	106.36278551542141
20	7.0	wm	387	diff_vonmises	-0.37688625640470697	-21.5939918484751	0.8245296195528043	124.16639876933984	0.8072325368106845	125.40467353926984	0.032369464741378806	-0.2867818773407649	0.3191513420821437	90.01844551505668
0	1.0	ltm	388	diff_vonmises	0.05963321308108392	3.416731428350441	5.208006590046459	0.24759704120298565	0.008484118960551916	2.4650227552042026	-0.1762779937456451	-0.39127118850519726	0.21499319475955217	59.09987861723795
1	1.0	perception	388	diff_vonmises	0.040350134410175445	2.311892404488648	14.757383256938088	0.5160880572334995	0.05662296867685938	2.5251052910508998	0.3588911315716739	-0.4133730528801594	0.7722641844518333	34.963949180240604
2	1.0	wm	388	diff_vonmises	0.03752545604492355	2.150050255677802	3.3488662379003498	0.8421839230699354	0.30520575877068773	3.3135365117675413	-0.11225099977380126	-0.5086341797169194	0.3963831799431181	63.071189731510515
3	2.0	ltm	388	diff_vonmises	0.09240942164759874	5.294669847652274	9.188670556688843	0.39592724264148316	0.2805240701349639	1.4050327227960278	0.18158237367117191	-0.24831610148323235	0.42989847515440427	42.67480694493696
4	2.0	perception	388	diff_vonmises	0.019030340407263594	1.090358188033476	7.882498750555515	1.2237881607077634	0.3797170699452997	2.5275393743709658	0.7801258539667408	-0.44339300216958677	1.2235188561363275	46.06571919107202
5	2.0	wm	388	diff_vonmises	0.04686991782420775	2.6854484774520944	1.1077607561667924	126.29604029700117	1.0837913156281702	127.59245688997224	0.10357330811982735	-0.3312854699770451	0.43485877809687246	78.9705864454412
6	3.0	ltm	388	diff_vonmises	0.10041073255573704	5.753111193260587	1.8675931161908548	68.93994038050086	1.8313570892688402	69.41216898541555	0.17285472705160032	-0.1892776924559314	0.3621324195075317	63.347574076106866
7	3.0	perception	388	diff_vonmises	-0.07192906168008656	-4.121231658605138	6.718631116109012	1.067806255170428	2.0989137057134408e-13	1.4656492537067574	0.8487368359071497	-0.23326374409280107	1.0820005799999508	52.51403385888776
8	3.0	wm	388	diff_vonmises	-0.009823049011628384	-0.5628192503164612	1.5419423716167386	161.11777928351046	1.5249233147483068	161.78101171348501	0.18611430995339617	-0.22838224935616935	0.4144965593095655	69.2946214557569
9	4.0	ltm	388	diff_vonmises	-0.18227270026615963	-10.443456445704024	1.1662898895873666	165.6961448492136	1.150276855955008	167.1536335938796	-0.04612899539832682	-0.33178636985275745	0.2856573744544306	72.16697949993016
10	4.0	perception	388	diff_vonmises	-0.019879414452676727	-1.139006547329748	3.74773804260633	1.4241576041542419	2.133837329078145e-20	3.271458386507429	0.5358781167490154	-0.5200817512300047	1.05595986797902	70.7897361395797
11	4.0	wm	388	diff_vonmises	0.19073326758788406	10.928211245525135	1.2493208516301881	137.20148448181865	1.2257224292938846	138.98807318744662	-0.09118721397082652	-0.4090661910529434	0.3178789770821169	68.65324296311042
12	5.0	ltm	388	diff_vonmises	-0.09175604915817007	-5.257234361558055	2.725836494648794	0.7462098654622225	3.358168510655513e-20	1.6593283229768228	0.19844432547409352	-0.26210632787759114	0.46055065335168466	83.28955694361889
13	5.0	perception	388	diff_vonmises	-0.11542946986693649	-6.613621454807973	0.8549168710278369	92.18034255569125	0.8112447011217166	93.28796694045367	0.42971416943481344	-0.4167682178374097	0.8464823872722231	96.7215481049847
14	5.0	wm	388	diff_vonmises	-0.013562924954457593	-0.7770983577430843	0.49989679786385727	53.53375753746688	0.4651470424619956	54.435014731546055	0.13018667545385476	-0.29842076769339343	0.4286074431472482	122.8921460128251
15	6.0	ltm	388	diff_vonmises	0.06701816038207956	3.8398577406240193	0.8751563367279744	101.27070984698832	0.8572351064341018	102.05436989676443	0.09962238835917248	-0.21069185367545096	0.31031424203462343	90.76301627090197
16	6.0	perception	388	diff_vonmises	-0.26571317277160805	-15.224243360843605	0.8025350281150051	53.921827396770205	0.7456958422712722	54.89549385421918	0.29967831150322155	-0.3414845835847329	0.6411628950879544	99.55847795024212
17	6.0	wm	388	diff_vonmises	0.3305120708488881	18.936946737770135	0.14293209628774017	11.392000506444516	9.047543902601617e-10	12.269123676531574	0.12834349858780003	-0.38907513795005677	0.5174186365378568	168.86750992206046
18	7.0	ltm	388	diff_vonmises	-0.04395150469410549	-2.518235722221671	1.2034593817763453	219.75068620713432	1.1898626403876593	221.25170930975568	-0.014117821638052419	-0.35408271880531217	0.33996489716725975	72.12807668544883
19	7.0	perception	388	diff_vonmises	-0.06957183289418653	-3.9861723978263193	2.1401203310711403	1.794376998150839	3.4456222981989577e-16	3.132354474623357	0.46570931744320626	-0.48518527350937013	0.9508945909525763	93.91038481301467
20	7.0	wm	388	diff_vonmises	-0.20942396673380093	-11.999109422734945	0.8845495205738776	156.08430326399957	0.8718332847413574	157.459775224678	-0.05813052608667846	-0.2883015257738215	0.23017099968714305	82.37014591044903
0	1.0	ltm	389	diff_vonmises	-0.008501446183878143	-0.4870969860938172	1.7876928361899143	0.3873513393056818	1.2546693282206434e-15	1.8607011210363757	-0.10947708696743225	-0.29091168719205385	0.1814346002246216	102.24361528108841
1	1.0	perception	389	diff_vonmises	0.009910967366077694	0.5678566009681418	13.409999066853507	0.5471202905373841	4.9243881584816114e-18	2.1154524411874847	0.4545932758409777	-0.3366847128890233	0.791277988730001	37.01618861011096
2	1.0	wm	389	diff_vonmises	0.02222422977807063	1.2733545692124133	7.016531890132585	0.32737268938063036	0.03314306890895019	1.9531470113772793	0.018058156884909027	-0.31161737974842396	0.329675536633333	50.52925258266828
3	2.0	ltm	389	diff_vonmises	0.12214458411531637	6.998369160188304	7.0623428925054945	0.40493040181712253	0.36894487993876485	1.1595966720439665	0.16309111162858375	-0.20230674044020086	0.3653978520687846	47.69772926487059
4	2.0	perception	389	diff_vonmises	-0.002261416981741147	-0.12956964877298088	8.59437982356542	1.1030959247693928	0.3199981577199548	1.964813591899004	0.8504036498527989	-0.3409776608789006	1.1913813107316995	44.78293700254724
5	2.0	wm	389	diff_vonmises	0.08087890728435163	4.6340200390232384	1.4223185097021362	1.9772042506051977	0.5053412048480463	2.818593386651303	0.13106162716402736	-0.2314952505007987	0.362556877664826	88.22565027300283
6	3.0	ltm	389	diff_vonmises	0.1012550226283174	5.801485451104235	2.1322607726721023	75.0793293077997	2.102610794384234	75.3460880869571	0.1955469133259271	-0.14610423157285446	0.34165114489878157	60.57876455419688
7	3.0	perception	389	diff_vonmises	-0.03379123864449698	-1.9360953588490457	5.16247628400251	1.3782933268303097	0.2492776542337921	1.5712469098939708	0.8997457213506134	-0.24078940466777615	1.1405351260183896	58.05098574400134
8	3.0	wm	389	diff_vonmises	-0.0835249185606213	-4.785625317697516	1.5622850683327445	120.66020055300555	1.545185938463652	120.95946285368258	0.2248507175564569	-0.14768012278490517	0.3725308403413621	71.67947388896027
9	4.0	ltm	389	diff_vonmises	0.006219164733964254	0.35633189135275317	1.586756300109056	153.75201586283137	1.5684161648757142	154.70074615616727	0.06294867089972911	-0.27229931717557676	0.33524798807530587	64.82790207147764
10	4.0	perception	389	diff_vonmises	-0.04869307464368463	-2.789907668598614	4.063471843796433	1.4790898964677655	5.966070113263298e-16	2.8852819766812896	0.6877769357152101	-0.45886797112444894	1.1466449068396591	67.91023396660938
11	4.0	wm	389	diff_vonmises	0.016629040362350814	0.9527738301153988	1.2926647877781205	211.06292840424962	1.2782748098080317	212.2899226844258	0.07062033937508261	-0.319136750009946	0.3897570893850286	71.95575328212561
12	5.0	ltm	389	diff_vonmises	-0.09467633037127884	-5.4245541500605325	2.1563882516872703	0.7588316657740563	3.3912097279149525e-17	1.4255711611440613	0.1827173205666832	-0.22139886777154422	0.4041161883382274	93.56801214825563
13	5.0	perception	389	diff_vonmises	-0.06898280273860587	-3.9524234559056133	1.4315333338774912	3.359478085566907	0.3581067369844493	4.084871118264463	0.5136794221680309	-0.3660559973069471	0.879735419474978	97.08423414381153
14	5.0	wm	389	diff_vonmises	0.1032152828041271	5.913800085925704	1.3857381247840435	0.8816622935147553	2.7486146488995495e-13	1.464149320839637	0.13103885983903218	-0.2102471116428425	0.3412859714818747	114.08461813316148
15	6.0	ltm	389	diff_vonmises	0.15717508099904576	9.00546878587218	0.8394787282465684	119.02653314065856	0.8274046586020025	119.61629850113552	0.09217090921352877	-0.1660014088115478	0.25817231802507656	93.3259973185612
16	6.0	perception	389	diff_vonmises	-0.2357546524715599	-13.507746587193845	0.8389513370902452	182.5588956078463	0.823483507798171	183.29582273736978	0.3119478570907006	-0.28835888934912646	0.6003067464398271	97.14280413226507
17	6.0	wm	389	diff_vonmises	0.009872537199621828	0.5656547146242354	0.3562471845748762	109.96727793507108	0.34133529274998786	110.64758622524407	0.1492553735661737	-0.28412111544083807	0.43337648900701176	138.96411072032174
18	7.0	ltm	389	diff_vonmises	-0.04208313721396594	-2.411186151030182	1.1010509067157874	139.4861812395376	1.0847754324053722	140.42512113220437	0.08952965554717451	-0.24436363279275142	0.33389328833992593	79.52244193069203
19	7.0	perception	389	diff_vonmises	-0.08106295412954705	-4.6445651464856335	2.210342377309253	1.8816273803263253	1.217163517074348e-17	2.748764367365323	0.5933512296288868	-0.42508161789565635	1.0184328475245432	92.4507572797612
20	7.0	wm	389	diff_vonmises	-0.0855540323202967	-4.901884972278838	0.8950513380920901	103.09928608976743	0.8797381625256445	103.92395569924399	0.037906981598609946	-0.19699196136537367	0.23489894296398361	86.98672476249732
0	1.0	ltm	390	diff_vonmises	0.11609643323028515	6.651835640617702	0.6682201804810686	1.6156757111315616	1.954421870254172e-22	3.9024901552088513	-0.17113151365203688	-0.5028550723545815	0.3317235587025446	143.43629009241874
1	1.0	perception	390	diff_vonmises	0.0020182946336913476	0.11563976432441671	12.455720683218583	0.4620382411173541	7.71358304812222e-24	2.669895265015242	0.21881402938020378	-0.42492702895505313	0.643741058335257	38.41287218736127
2	1.0	wm	390	diff_vonmises	-0.6164706512476896	-35.321166510173896	0.07088127880184941	24.62681761150741	0.029332138609136162	27.0913846827033	-0.2370201741989133	-0.5394921786767979	0.3024720044778846	164.43594091768549
3	2.0	ltm	390	diff_vonmises	0.08280841797327101	4.744572858023699	14.874277706822413	0.3690471543754328	0.1061039025294403	1.8481124259161197	0.23667022065225363	-0.3112934709178417	0.5479636915700954	34.597082231702444
4	2.0	perception	390	diff_vonmises	0.03728979826648022	2.13654805956357	4.822406515694476	1.370025177186324	0.31249629334737944	3.105518429913593	0.5058903736926228	-0.4903900514795153	0.9962804251721381	57.57188817916821
5	2.0	wm	390	diff_vonmises	0.14979114223939452	8.582400258761101	0.9682285482350418	3.5538688009315775	0.4199953633663777	5.137733088876064	0.0016138475895020044	-0.3553809964193056	0.3569948440088076	98.32957648433026
6	3.0	ltm	390	diff_vonmises	0.02325075952820341	1.3321703914396406	0.9580478222872263	88.85081755000705	0.9361355966732412	89.88050285518405	0.03040834365595657	-0.2413321270416109	0.27174047069756746	83.3769338852963
7	3.0	perception	390	diff_vonmises	-0.021555982517290403	-1.235066821498528	3.3174625715434947	2.8843037903371838	0.4574085877982726	4.2431797921632555	0.9862900425634347	-0.5707753612278778	1.5570654037913125	67.34040790809152
8	3.0	wm	390	diff_vonmises	-0.19671313541615615	-11.270832434131188	1.0608041987022125	188.56202192911198	1.0435971375203137	190.1375554271601	0.0593789979596977	-0.3792097261127445	0.4385887240724422	79.223804792782
9	4.0	ltm	390	diff_vonmises	-0.016216138048908913	-0.92911627020399	3.711371828478317	0.42353793843556986	2.925471043977198e-17	2.077372610368439	-0.018093112268242173	-0.33043737889009606	0.3123442666218539	71.14479068587943
10	4.0	perception	390	diff_vonmises	-0.008255442042530533	-0.4730019870518594	1.1186916376870537	348.81054715475767	1.0986166518580962	351.05683882814816	0.5002461890255603	-0.6788038466868613	1.1790500357124216	81.52962824091753
11	4.0	wm	390	diff_vonmises	-0.07089498005898404	-4.061983146043917	0.8616315835015355	211.97628703580193	0.8454074560479201	214.44260474208855	-0.11408566299681411	-0.5118508577866692	0.39776519478985506	83.2572104691024
12	5.0	ltm	390	diff_vonmises	0.08312266576456213	4.762577930185988	0.613168532731377	108.96314970084158	0.5916262994106083	109.64618830779145	0.26406763884259377	-0.29635575371690237	0.5604233925594961	114.0163004668543
13	5.0	perception	390	diff_vonmises	-0.027612361044765915	-1.5820717502565314	2.125526024444468	1.7619461876223406	5.311773071565608e-22	2.7505221228260295	0.5051164487727585	-0.4243224157560759	0.9294388645288344	94.23243918683869
14	5.0	wm	390	diff_vonmises	0.09352419735960808	5.3585417910541	0.3063929554490897	135.70347616980584	0.2917739234586823	136.8977828362833	0.10569985060508813	-0.40183575334292954	0.5075356039480177	143.44870643980101
15	6.0	ltm	390	diff_vonmises	0.6533451435098887	37.43391928848571	0.3764960102377707	164.4669127400647	0.36545715455539046	165.2543949151854	0.15612989930278331	-0.3119788874810716	0.4681087867838549	132.20289105723987
16	6.0	perception	390	diff_vonmises	-0.02094603800820834	-1.200119575390947	0.9734645420281983	253.9428266461217	0.9600870225407357	254.84849364838703	0.341730667634053	-0.3251942995829751	0.6669249672170281	89.49830708090582
17	6.0	wm	390	diff_vonmises	-0.0586367918140282	-3.35964069513107	0.1523842271232321	150.27226646293596	0.14172446957864737	151.3257049596209	0.07997437520768713	-0.37972067949097266	0.4596950546986598	162.3588704428583
18	7.0	ltm	390	diff_vonmises	0.021014847211229284	1.204062052315706	0.8018762280803482	21.837697501176855	0.6936344549930892	23.101689656624906	0.09296743196584778	-0.3187339702140366	0.4117014021798844	96.36970326204528
19	7.0	perception	390	diff_vonmises	-0.0789421419630088	-4.523051560202997	0.8541998471420407	256.3035226653534	0.8364220971408387	257.0083121392104	0.6505864475522287	-0.4215480092516515	1.0721344568038802	98.72242329606084
20	7.0	wm	390	diff_vonmises	-0.18827327853582293	-10.787264255193644	0.9254338821769645	175.14199098218666	0.909371837751016	176.65870768440146	0.04311198988746412	-0.3538539360207906	0.39696592590825475	84.73224479745063
0	1.0	ltm	391	diff_vonmises	0.1626226137246567	9.317589419809085	0.7847450725193937	15.683345207182892	0.7142045354933245	16.29479633481564	0.03551897812250804	-0.1501885469161044	0.18570752503861243	95.62528502095162
1	1.0	perception	391	diff_vonmises	-0.08326283355894958	-4.770608953228046	17.452351743611683	0.4698660358301936	1.1894828559995503e-23	1.2598966137464165	0.5767027200734753	-0.20051877386248204	0.7772214939359574	32.410880030306686
2	1.0	wm	391	diff_vonmises	-0.09525335672065202	-5.457615324547456	11.015086617395077	0.2687266603063313	0.2353688422802683	1.0562524879612933	0.14166538084328387	-0.18666724358904258	0.32833262443232647	39.4181795955449
3	2.0	ltm	391	diff_vonmises	0.0575198644296788	3.2956454699852635	6.923493598544669	0.5096344876371414	1.3133170510602863	0.7491085008422139	0.22497882397558766	-0.1442615353002009	0.3692403592757886	44.71106668367173
4	2.0	perception	391	diff_vonmises	-0.04191041107087537	-2.4012896720195194	8.08955540226795	0.9710168908553583	0.3953279139308739	1.3822758253850058	0.7692135023680959	-0.24019197190582722	1.0094054742739231	46.04357138313361
5	2.0	wm	391	diff_vonmises	0.01218863422560114	0.6983572991556518	0.9653858913082647	44.25706923014193	0.9364880893386712	44.668785881352484	0.10712291760887638	-0.13016481907542232	0.2372877366842987	88.91950704425227
6	3.0	ltm	391	diff_vonmises	-0.13779771249053466	-7.895227352264784	2.5709256216803684	8.77860111525852	2.4695247894865737	8.637162917352297	0.2054855173726029	-0.028341200246722376	0.23382671761932527	63.01078825620485
7	3.0	perception	391	diff_vonmises	-0.06382193957354734	-3.6567277779032317	4.608041860846972	1.7983164355779777	0.5085261834726083	1.914339886839579	1.0172224382009283	-0.27918345697826974	1.296405895179198	59.47817375571407
8	3.0	wm	391	diff_vonmises	-0.30150397584027244	-17.27490532206195	1.9387099002623949	107.98596716799148	1.9205275295099984	108.18454309473405	0.21138474221087478	-0.1253741464454059	0.3367588886562807	64.58431690844543
9	4.0	ltm	391	diff_vonmises	-0.050028955054986904	-2.866447978100435	1.9759789289406775	111.74783703197889	1.9574561103403592	112.11621564643757	0.13773394131117556	-0.15333850336468302	0.2910724446758586	61.32034498491137
10	4.0	perception	391	diff_vonmises	-0.07153654970813637	-4.098742379204035	4.128025856008684	1.670269914903562	5.915534174197449e-18	2.611908268114161	0.8907267536326339	-0.4153588522386649	1.3060856058712988	67.36243634466166
11	4.0	wm	391	diff_vonmises	-0.08132219434671101	-4.6594185168091835	1.2931073984928814	161.56473371522318	1.2778957875246297	162.57147395467422	0.051736064444313	-0.2601498625411338	0.3118859269854468	71.77190749112916
12	5.0	ltm	391	diff_vonmises	0.04517085817878025	2.5880995306281043	2.1153910857692027	1.0092441166432382	0.23293813383904624	0.8931550167204795	0.3615059892375738	-0.1044763009339057	0.4659822901714795	88.8672793939376
13	5.0	perception	391	diff_vonmises	-0.06729265324452365	-3.8555850231485307	1.980717014154539	1.6760248658671222	9.21724544976594e-13	1.8632459356086974	0.5630359012878192	-0.280181791333616	0.8432176926214352	97.46130228538345
14	5.0	wm	391	diff_vonmises	-0.08561483816008503	-4.905368890268458	0.35863545554704307	4.9584624906579355	0.13343682234737989	5.160111850921112	0.15979632206097594	-0.18145681532721136	0.3412531373881873	151.92717113739218
15	6.0	ltm	391	diff_vonmises	0.24987721255300846	14.31690967578078	0.5719450722059077	61.5359639247921	0.5574278421393137	61.49230262685617	0.17968135708416355	-0.09137454705328896	0.2710559041374525	122.4685281304337
16	6.0	perception	391	diff_vonmises	-0.17153078351142478	-9.827989951776852	1.1363834238386514	173.11070288147596	1.1218761393426024	173.44948533371033	0.3449551752588107	-0.19628289905534757	0.5412380743141583	85.53261730939093
17	6.0	wm	391	diff_vonmises	-0.14011961289156447	-8.028262445693525	0.06993865798470246	99.65701647914196	0.05772130672174427	99.79988090457616	0.1756889212224877	-0.20884789950487992	0.3845368207273676	172.18081740318104
18	7.0	ltm	391	diff_vonmises	-0.12496751703530441	-7.160111302352161	1.2410826906491719	91.85139866994811	1.2238902305961397	92.03407438613932	0.2201928885200033	-0.11635000918212057	0.33654289770212387	82.15695440065048
19	7.0	perception	391	diff_vonmises	-0.1539085268631714	-8.818309020335578	0.8113101479744342	179.19619585906375	0.7913996410127487	179.6842136662344	0.5339580497422816	-0.3360964418880865	0.8700544916303681	101.79655067936073
20	7.0	wm	391	diff_vonmises	-0.026282386125696815	-1.5058698005356186	0.994252884171837	40.20972004235282	0.9745543052262777	40.614207122967805	0.013755987161456318	-0.0958360258874782	0.10959201304893451	81.89652465802183
0	1.0	ltm	392	diff_vonmises	-0.06525782982837605	-3.7389982293488813	8.969477378409351	0.19750348533721374	1.914606095310832e-12	0.9468092461194783	0.08179293768677104	-0.15068936792045945	0.2324823056072305	45.35137571544476
1	1.0	perception	392	diff_vonmises	-0.037399612168529106	-2.1428399326828345	14.47848699893574	0.61558237713706	1.9394369404367722e-24	1.460437901061975	0.6936447893266635	-0.23243591103251976	0.9260807003591833	35.60556764311298
2	1.0	wm	392	diff_vonmises	-0.030420614881704933	-1.7429728429145568	10.198097741282233	0.23288194907246307	5.650207322896309e-14	1.1894109619542441	0.10354909347261843	-0.18930063355645713	0.2928497270290755	42.49817104063777
3	2.0	ltm	392	diff_vonmises	0.20905731449412346	11.978101796852407	3.139674450166394	50.817459984671366	3.0800357133279053	51.008564047310955	0.24210305238889873	-0.16569407247267343	0.40779712486157216	50.10031727908856
4	2.0	perception	392	diff_vonmises	-0.03270044984794916	-1.8735977644667015	8.911778527464557	1.0595537165853708	0.45567317499517185	1.2015678122909428	0.9565950472427014	-0.2140298392513449	1.1706248864940463	44.06672630672705
5	2.0	wm	392	diff_vonmises	0.007262308501938467	0.41609962668304956	0.8687022568388285	85.38950746988412	0.851948267431129	85.82985862678623	0.13481062196083826	-0.14954480715348417	0.28435542911432243	94.27119835336327
6	3.0	ltm	392	diff_vonmises	0.14364065086256975	8.230003060937435	3.1627832473707223	13.554086625298504	3.04911026360038	13.503993808019182	0.22091890455575758	-0.062381670090770225	0.2833005746465278	53.58763940899789
7	3.0	perception	392	diff_vonmises	-0.050792240496472234	-2.910181012461324	4.715187623380461	1.3577370981307797	0.4277870477817261	1.1773716926067996	0.8662928882889492	-0.1705558239343982	1.0368487122233474	59.948682035825726
8	3.0	wm	392	diff_vonmises	-0.07996570926636509	-4.5816976467328985	2.164456016397086	80.09655227584587	2.1425394086998213	80.13307094175792	0.24408148041798938	-0.09286251497553089	0.33694399539352027	63.13332628693806
9	4.0	ltm	392	diff_vonmises	0.06840316809732346	3.9192128373005515	2.1641975024083018	130.32489472654893	2.1444505220066614	130.74144320419802	0.16248560960640646	-0.18462169604093148	0.34710730564733794	58.45576191660649
10	4.0	perception	392	diff_vonmises	-0.08371663615645383	-4.796609926797115	3.4662439756661927	1.8602603103746842	2.490304818630338e-18	2.5819196959017097	0.9107415226340545	-0.40963584657310836	1.3203773692071628	73.68276086588799
11	4.0	wm	392	diff_vonmises	-0.11332163625482694	-6.492851484918281	1.456074943896645	194.61188816000248	1.440237890139879	195.51215242740767	0.16437127064980928	-0.2774526320627473	0.44182390271255656	70.16727385929335
12	5.0	ltm	392	diff_vonmises	-0.03657803670987844	-2.0957671263506263	3.0770939776314017	0.5410232212394314	1.7209622361656637e-11	0.6919357450905763	0.24937227706162696	-0.10936121205578489	0.3587334891174119	78.31360351005753
13	5.0	perception	392	diff_vonmises	-0.030209698224053685	-1.7308882086021347	1.7510552577876413	2.2878467701368583	0.189224868165566	2.4516096685871878	0.6214707286428922	-0.2872911247264941	0.9087618533693863	96.62451272859656
14	5.0	wm	392	diff_vonmises	0.24371545457540575	13.963866949283078	7.724139681573256	0.30119668549519363	2.6052502422148275e-40	0.506635611829138	0.24755422556116363	-0.08063349784489621	0.32818772340605984	48.9211546558798
15	6.0	ltm	392	diff_vonmises	0.27257691843620674	15.617507019076326	1.011549849456489	54.54247018132379	0.9953176023262482	54.70018109177109	0.1136731612415609	-0.07642369414285355	0.19009685538441445	89.89700090367174
16	6.0	perception	392	diff_vonmises	-0.23796461026987464	-13.634367841939303	0.8666916759865642	163.01557417165452	0.8515653872359246	163.35204086938808	0.3648951445053825	-0.22239328601221864	0.5872884305176012	98.31965989591865
17	6.0	wm	392	diff_vonmises	-0.13409619282719062	-7.683145897770485	0.2759106822173457	76.83390638459049	0.257460632283299	77.10601658582421	0.19603719993684443	-0.2251364738860584	0.4211736738229028	149.29025394508022
18	7.0	ltm	392	diff_vonmises	-0.03043831061718483	-1.7439867338729347	1.1542960114633471	62.316112975395306	1.130682052006421	62.698679962072845	0.13390147747197645	-0.13218422215640402	0.26608569962838047	81.79805755561395
19	7.0	perception	392	diff_vonmises	-0.0818464065065657	-4.689453661138295	1.950216050090627	1.8224841197048114	0.12585364485955391	2.3083802641395867	0.5109178151580908	-0.30405013576563883	0.8149679509237295	93.29822988942536
20	7.0	wm	392	diff_vonmises	0.5415696252785048	31.029653840939826	134.59662772515347	0.32469642448484853	2.300555181724648e-41	0.6451692728474065	1.3987028454837909	-0.10268187890466848	1.5013847243884593	11.642307206796488
0	1.0	ltm	393	diff_vonmises	-0.015336987685904396	-0.878744664846437	5.297183943553005	0.5919452929371551	0.12495052078489279	3.9845152522283436	-0.18646414248397136	-0.6430561891726737	0.45659204668870235	54.99422858106706
1	1.0	perception	393	diff_vonmises	-0.01097628933170734	-0.6288950534213015	16.35903019525695	0.603281375428012	2.7830298645714764e-16	3.5687199533523257	0.39747701399266044	-0.5679794210866946	0.9654564350793551	33.48963702299946
2	1.0	wm	393	diff_vonmises	-0.004987466663763925	-0.28576079029586615	6.536887394265063	0.3544585844469289	1.8550940134202193e-15	4.336528210403019	-0.3361448018386387	-0.6901791570983565	0.3540343552597178	53.25432382156254
3	2.0	ltm	393	diff_vonmises	0.02810965231388553	1.6105644411657898	3.1619505306304427	1.3819188872474326	0.5318642705434848	2.997700350973165	0.1749121177483972	-0.4213178889909007	0.5962300067392979	64.18414907852215
4	2.0	perception	393	diff_vonmises	-0.007432807126878728	-0.4258684783049105	4.248878726733922	1.5411839180811429	0.3366636309624219	3.363145460462344	0.4956465517665163	-0.515887729506497	1.0115342812730133	60.55652748406621
5	2.0	wm	393	diff_vonmises	0.09338793052094609	5.3507342763111785	4.548494407768055	0.5882216167224334	2.650478036152772e-17	2.523159821106283	0.08325070438894505	-0.4015190469469761	0.48476975133592115	64.09654962319127
6	3.0	ltm	393	diff_vonmises	-0.10797209988374408	-6.186345628503502	0.9926476074117757	43.98887684923616	0.9290781466706464	45.00793067931435	0.1960912654917113	-0.29660539345644477	0.49269665894815606	87.35792652625318
7	3.0	perception	393	diff_vonmises	-0.05675409456510106	-3.251770088666654	4.173310520782723	1.9787809778622911	0.22513378185685654	3.2453126184691587	0.9180824111471075	-0.48630484051531964	1.4043872516624272	63.517191943668195
8	3.0	wm	393	diff_vonmises	-0.17766581513219387	-10.179501370826225	1.2920883434648571	196.84232374450272	1.270252969719404	198.44598724889332	0.15507902217872527	-0.4344348189995202	0.5895138411782455	73.14797017759952
9	4.0	ltm	393	diff_vonmises	-0.17284726197340633	-9.903418611468268	2.796605242587664	1.0268321766160042	2.796914301005023e-15	2.838952870003122	0.19415905000919276	-0.4494282974549109	0.6435873474641036	82.20671454520459
10	4.0	perception	393	diff_vonmises	-0.04985302690837559	-2.856368037802048	1.8351399174765803	4.592033327397278	0.42681569235936906	6.877287776531083	0.6451459722039234	-0.7138311745689669	1.3589771467728904	84.07640005435252
11	4.0	wm	393	diff_vonmises	-0.2659708471029315	-15.239007012517295	3.6357296511051507	0.8499966765642535	1.0058683640167971e-16	3.5706376789164396	0.051823076141029545	-0.5678535743723944	0.6196766505134239	71.89648009892358
12	5.0	ltm	393	diff_vonmises	0.029645901784841482	1.6985850521307713	1.4525359345886573	2.5048452170510616	0.33830151881375425	2.983643771349772	0.4166943765433223	-0.2743697015438403	0.6910640780871626	97.64221811604602
13	5.0	perception	393	diff_vonmises	-0.012284437047738685	-0.7038463965295756	2.343890710124063	1.8549328036736428	1.056790936690922e-18	2.8044069696800022	0.6060214714957428	-0.4366454818307244	1.0426669533264672	89.82944730600568
14	5.0	wm	393	diff_vonmises	-0.06902479421880851	-3.954829390496732	0.37005961587914615	248.6925323297767	0.35932945650498743	249.73220535513545	0.2560711915457219	-0.44842002492806543	0.7044912164737873	137.31361341669592
15	6.0	ltm	393	diff_vonmises	0.32571257571553824	18.66195592283561	0.7011183546755728	84.97168781663949	0.684793441131417	85.13859636835467	0.21728917017904337	-0.14235609993974663	0.35964527011879	109.73763596412107
16	6.0	perception	393	diff_vonmises	-0.04310381250415536	-2.4696665374113262	0.717539951253248	70.45643136817897	0.6843557716166467	71.11997385261066	0.25877933308665035	-0.2676527891796949	0.5264321222663453	105.64641597056462
17	6.0	wm	393	diff_vonmises	0.3121143156964181	17.88283301501854	0.16527630356287745	109.97646181625511	0.1551872084168342	110.19297669263936	0.14950532745397993	-0.19075288362604326	0.3402582110800232	159.42484880377958
18	7.0	ltm	393	diff_vonmises	0.013078119655043121	0.7493210602010589	0.3880657778678267	127.26221079744795	0.3738582747845137	128.22287752317274	0.11564925326389286	-0.32676428712618844	0.4424135403900813	134.09884108759837
19	7.0	perception	393	diff_vonmises	-0.11280628940236505	-6.463324285286863	0.8605119832919873	211.94816505686742	0.8439011219365645	212.6961081838701	0.43833037067997793	-0.3406017861723001	0.778932156852278	97.01058283627891
20	7.0	wm	393	diff_vonmises	-0.048747612422318745	-2.793032453138368	1.0168910689494501	149.56694414097436	0.9987493418451568	150.58973390303285	0.16368806571590255	-0.2858699681744774	0.44955803389037996	84.56693768115198
0	1.0	ltm	394	diff_vonmises	1.368887820115234	78.43149471946634	6.7041691029501935	0.2815819787836094	0.31496925459948993	3.570978613547779	-0.40468427979126037	-0.6536047960003589	0.24892051620909855	109.73761886315438
1	1.0	perception	394	diff_vonmises	0.06194699672937012	3.549301466103622	10.761217110516462	0.592787394728469	0.06324142739759546	3.7421096208000417	0.13228503282395998	-0.6105616107717614	0.7428466435957214	40.648583698628414
2	1.0	wm	394	diff_vonmises	0.02780088140698921	1.5928731713642037	5.592313662804876	0.452954549556226	0.1533595206482075	4.447532871366381	-0.4035789464798886	-0.734798306517943	0.33121936003805436	51.60028861070583
3	2.0	ltm	394	diff_vonmises	-0.027493280692499237	-1.5752489486487196	18.817492154613156	0.31571463048516013	0.11547689394748022	1.8687006914124844	0.209661312945714	-0.31946292739823967	0.5291242403439537	30.775861310720217
4	2.0	perception	394	diff_vonmises	0.01818857399602584	1.0421285253336792	12.645498289156	1.1133544049904056	0.20364506307787314	3.235704485468226	0.9384616919764563	-0.5659803359468646	1.504442027923321	37.316307156958686
5	2.0	wm	394	diff_vonmises	-0.02650181159103732	-1.5184419536173237	0.8921010484217554	65.94223208728532	0.8411282889493975	68.21325204810988	-0.06641982578174321	-0.4842017919939705	0.4177819662122273	83.95783719807471
6	3.0	ltm	394	diff_vonmises	0.024895981562406088	1.426434670361382	2.6365809560979168	1.174391336565799	1.028027938589545	1.5562499008465744	0.1739530045784522	-0.1509574787684674	0.32491048334691963	65.34800473007977
7	3.0	perception	394	diff_vonmises	-0.011956942393686169	-0.6850823350392695	4.077595092043723	2.195638617208604	0.5450328721084856	2.9298476541290244	0.9581643483631335	-0.4180825045038717	1.376246852867005	61.43998160630005
8	3.0	wm	394	diff_vonmises	-0.17518007169342234	-10.03707876283228	1.5112615226821469	133.30821088396772	1.4913571142422413	134.16115915554684	0.09588519391690653	-0.2495020788132365	0.345387272730143	67.58035993146714
9	4.0	ltm	394	diff_vonmises	-0.1427942619142243	-8.181508546370726	1.1073232313830523	174.6320919385385	1.0899537409459197	176.32673183717037	-0.039799026061871245	-0.3826389794210563	0.34283995335918505	74.61074458453305
10	4.0	perception	394	diff_vonmises	-0.11834706129542082	-6.78078713000367	2.9790058801514494	2.6628763104436315	0.4589040590819743	4.3306287890198965	0.7016846380593602	-0.5670141554754993	1.2686987935348595	69.48374697049425
11	4.0	wm	394	diff_vonmises	-0.09764255673388057	-5.594506401718053	0.808932897012953	169.8110007696661	0.7960736315920056	171.7947572620871	-0.18387942554766568	-0.3818992024257959	0.19801977687813022	80.53080596380892
12	5.0	ltm	394	diff_vonmises	-0.11948725249772053	-6.846115273733391	4.114314145471654	0.6385460250763973	3.119971284440879e-16	2.067619603924934	0.16946845346127104	-0.32893881494160737	0.4984072684028784	67.477236887544
13	5.0	perception	394	diff_vonmises	-0.09533322963905225	-5.462191705669182	0.8501992753992927	236.36012740385138	0.8306252887083652	237.71146927838402	0.4647349732491506	-0.482541341058095	0.9472763143072456	95.84849273259277
14	5.0	wm	394	diff_vonmises	-0.4491589405030161	-25.73491162139047	0.5563951068607695	111.51397328411295	0.5345545122013327	113.34461668971296	-0.005400686034658264	-0.42472665493148654	0.41932596889682827	109.62599206056748
15	6.0	ltm	394	diff_vonmises	-0.10147109596762707	-5.813865541511977	0.912296095994462	99.1473113058773	0.8915057545230117	100.49343312556059	-0.03969403861854204	-0.2884844497051109	0.24879041108656885	82.20388412573809
16	6.0	perception	394	diff_vonmises	-0.13457696729552293	-7.710692245703573	0.8390258204193594	312.31066174926116	0.8279349626258858	313.5760895411475	0.2702000255039252	-0.38526277076716653	0.6554627962710917	94.46549218702104
17	6.0	wm	394	diff_vonmises	0.29855442792307113	17.10590867493471	0.00017397779774207893	7539.041683899544	3.9130942922747094e-29	7540.9200685059695	-0.0901937322385038	-0.5076964990823853	0.41750276684388155	177.1531450937025
18	7.0	ltm	394	diff_vonmises	0.133669887017062	7.65872037406821	1.6451893848423373	224.82365837033285	1.6290083547305523	226.17848399814295	0.0007289902372065171	-0.3742537325427904	0.3749827227799969	61.76480984104629
19	7.0	perception	394	diff_vonmises	-0.17679778311037594	-10.12976679949385	0.9651659055053726	3.075689687949881	2.2873818301353337e-14	3.9778952338390052	0.3975942016487073	-0.4835469292488761	0.8811411308975834	129.80010004598736
20	7.0	wm	394	diff_vonmises	-0.7036494787847055	-40.31614539094379	1.0922371002500768	150.95589802782374	1.0782060524648085	152.050697899932	0.0069913713518445775	-0.2552400122895939	0.2622313836414385	76.63282678808456
0	1.0	ltm	395	diff_vonmises	0.107630452567551	6.166770679203667	0.0002426073903600553	1849.4227431515405	1.651684483800419e-29	1852.066256801271	-0.3493140193817226	-0.4921338474128447	0.14281982803112214	179.5387953573619
1	1.0	perception	395	diff_vonmises	0.05612559369543569	3.2157596414145266	9.122874285064933	0.8152567868614392	6.168079032654789e-20	3.410609105571676	0.4252837332053382	-0.5428152865728073	0.9680990197781455	44.9635579726571
2	1.0	wm	395	diff_vonmises	-0.21806666852971554	-12.494299759230989	0.00018697211268250475	5116.166145465255	1.9253320874369893e-29	5119.0174435343915	-0.30155223462759295	-0.606029898616498	0.3044776639889051	178.63469433573948
3	2.0	ltm	395	diff_vonmises	0.01897792409292264	1.0873549544441083	13.936416540340453	0.24274226926498044	1.430273333731461e-21	1.871419500651752	0.060314346857660406	-0.2978456641270116	0.358160010984672	36.29613190071501
4	2.0	perception	395	diff_vonmises	0.0036176750885784314	0.20727751422516036	11.497638685558556	1.1190944198756685	0.010090295551504208	2.6552458777460335	1.0697093517592726	-0.4234003109302082	1.4931096626894809	39.94090507628681
5	2.0	wm	395	diff_vonmises	0.02634059150746818	1.5092047232560655	0.8869279713069117	1.621840599678138	4.691148481952039e-22	3.2129027586232017	0.00799962177676905	-0.4232218056745555	0.4312214274513245	133.43152526742944
6	3.0	ltm	395	diff_vonmises	0.17142734811128613	9.822063539896659	8.20302619339964	0.2981482067864476	3.2118329738846806e-22	0.7145698319034596	0.22141255670675442	-0.11372729580120423	0.33513985250795864	47.45034812921304
7	3.0	perception	395	diff_vonmises	0.042326912297165495	2.425153434447967	3.5765827601752718	2.208384391896805	0.5739603179649239	2.5093339277735547	0.9424285007335038	-0.3263187249416539	1.2687472256751577	65.44243693872133
8	3.0	wm	395	diff_vonmises	-0.16175670707008427	-9.267976623049792	1.5297980290698727	93.08472173188714	1.507512078072198	93.29789323293988	0.2688552276155747	-0.13992206547822583	0.4087772930938005	73.78723383647096
9	4.0	ltm	395	diff_vonmises	0.1883619029799811	10.7923420618056	3.743001219820014	1.0200726367380761	0.5387372793192443	2.5795029056504917	0.10103972769098124	-0.3952328111377034	0.49627253882868466	59.265688892594426
10	4.0	perception	395	diff_vonmises	-0.12668158872564822	-7.258320375991715	2.4443600477694183	3.1213167913839324	0.39278088068757205	4.857438062910041	0.713242173168912	-0.5924175130124552	1.3056596861813672	76.56405155911034
11	4.0	wm	395	diff_vonmises	-0.21483667008551435	-12.30923448054444	1.2814078319907871	298.0217769501558	1.2666444920532305	299.4670991026097	0.237591867573002	-0.4199516329110935	0.6575435004840955	74.80114485727671
12	5.0	ltm	395	diff_vonmises	-0.09191542791091703	-5.266366091434515	2.2839676417728034	0.747691376383914	7.269242185824884e-16	1.6967282016272431	0.14766769900925053	-0.26570689657978985	0.4133745955890404	90.9761726758353
13	5.0	perception	395	diff_vonmises	0.016777672412200125	0.9612898192721424	1.7202436063005193	3.0144387643947734	0.2620203765770311	3.613645103730602	0.6843755104820601	-0.39459756462947115	1.0789730751115312	94.03759616722334
14	5.0	wm	395	diff_vonmises	-0.034201107593387084	-1.9595791197739119	0.6858981435790761	145.8231010492336	0.673078971685618	146.57907371846898	0.14469946576689807	-0.23622040226923602	0.3809198680361341	104.58729803644346
15	6.0	ltm	395	diff_vonmises	0.4099714877023718	23.489635966045434	0.9728810486535086	125.90899348923121	0.9607727857231676	126.53143849415	0.08108227368182952	-0.16738768391550352	0.24846995759733304	85.75874088112147
16	6.0	perception	395	diff_vonmises	-0.17354766210236652	-9.943548582828106	0.6162961123145765	182.52248604006292	0.6057637682231204	182.99788028179685	0.23746807854428198	-0.2336088159290508	0.4710768944733328	114.06053637888678
17	6.0	wm	395	diff_vonmises	-0.29252909159822044	-16.7606823333739	0.8266430058788362	131.97483625768217	0.8115965554785243	132.65154746265284	0.17216671171345155	-0.21818939911733892	0.39035611083079047	95.98293509794905
18	7.0	ltm	395	diff_vonmises	0.25126765754567104	14.396576305505445	3.498882950584397	0.4806369218371481	0.21378643013807785	1.2467438956968282	0.10030794119119515	-0.1859266752149706	0.28623461640616576	67.10529950036829
19	7.0	perception	395	diff_vonmises	-0.15951602211100704	-9.139594831676224	2.0928412326575394	1.8331580232492612	3.0616476356847734e-14	1.7981597838161238	0.685747837455696	-0.27140095069192033	0.9571487881476164	94.9069832547549
20	7.0	wm	395	diff_vonmises	-0.15066419891599853	-8.632422721606229	1.8878527819331705	0.5848789340148709	7.571513008317974e-22	1.0798270522532951	0.11949331989529044	-0.16518121440150557	0.284674534296796	99.65894949893676
0	1.0	ltm	396	diff_vonmises	0.19197790526621486	10.999523731516453	0.22285458770503422	17.59848205486372	0.16592387662050156	19.07661517800334	-0.10252891795957675	-0.34054972348312607	0.23802080552354932	153.45651935737212
1	1.0	perception	396	diff_vonmises	-0.014578798972200912	-0.8353036514767747	12.020908093897004	0.5660624423491583	5.531227120173721e-28	2.0548327495641434	0.4474227715413242	-0.3270367892922018	0.7744595608335261	39.109995600384735
2	1.0	wm	396	diff_vonmises	-0.5940542978727396	-34.036804069715416	0.00025719598757723857	3120.3666963768155	3.958160555754255e-34	3121.9683867503336	-0.12717962427052498	-0.3826378305294611	0.2554582062589361	170.15948426193864
3	2.0	ltm	396	diff_vonmises	0.09090008592934495	5.208191281127985	14.06136752738666	0.2940106777542146	0.22253892501104575	1.21031080686605	0.1980638422988244	-0.21671227415615626	0.4147761164549807	35.172900176404255
4	2.0	perception	396	diff_vonmises	-0.002480769553070559	-0.1421376253354985	8.094517567301116	1.0525191526962732	0.18062971952508508	2.000318546005422	0.7967007316425989	-0.3304475616738082	1.1271482933164072	46.68339702322288
5	2.0	wm	396	diff_vonmises	0.07681682651512373	4.401279954905225	1.8437261303012626	0.7488095231379911	0.06103468580645263	1.7119408216222278	0.07834968828105499	-0.24688700822474072	0.3252366965057957	96.22009460702253
6	3.0	ltm	396	diff_vonmises	0.12228783616950455	7.006576898299866	2.4482146114641155	0.9309814163829767	0.8839786389314729	1.287546857222991	0.13037696488469597	-0.12658113648703892	0.2569581013717349	68.31410006774803
7	3.0	perception	396	diff_vonmises	-0.027159328832756253	-1.5561149165249017	4.58364441518722	1.6438607834781542	0.25712740952404106	2.008171119733553	0.9538795683569792	-0.30097684074784825	1.2548564091048275	61.196929738020515
8	3.0	wm	396	diff_vonmises	-0.1508931198062993	-8.64553892246284	1.515878486756914	185.20506964859857	1.5030198596743307	185.6462036322387	0.22444776328087812	-0.18221651503020553	0.40666427831108365	71.69481602379417
9	4.0	ltm	396	diff_vonmises	0.11131631454271886	6.377955014248539	3.18061178443743	0.8749436385194593	0.6969737325448672	1.8991611208478723	0.05301534682834952	-0.2679041026354772	0.3209194494638267	60.78629196823189
10	4.0	perception	396	diff_vonmises	-0.047970041080106544	-2.7484808969592858	3.3297894326181345	1.795972297593509	0.04441967262996921	3.4066785373947255	0.6811305294326737	-0.5216882937768897	1.2028188232095633	73.72376577761207
11	4.0	wm	396	diff_vonmises	-0.0941252541447546	-5.392979808090698	1.2531162545892047	286.0478139722187	1.240484291449522	287.54369414848566	0.08432422154024266	-0.384569732727293	0.46889395426753566	73.08948809202539
12	5.0	ltm	396	diff_vonmises	0.0056309070181283435	0.32262720696934943	1.8379290766086127	0.9442782573557659	1.0631218784068126e-11	1.333009644426067	0.25063890718451776	-0.20043290185021423	0.451071809034732	100.94402507178049
13	5.0	perception	396	diff_vonmises	-0.026910704161272628	-1.5418697721660635	2.0420680480461773	1.7945125922724192	4.873934717982795e-15	2.2671158465481156	0.5765896377769268	-0.34503678462598253	0.9216264224029094	96.06636639631438
14	5.0	wm	396	diff_vonmises	0.06722123900173982	3.8514932884398947	0.556600264166346	90.35568322527429	0.5387350139201424	90.85118166201222	0.17788161258741653	-0.21732113866128433	0.39520275124870086	118.9543280381351
15	6.0	ltm	396	diff_vonmises	0.43731052927255165	25.056047663949453	0.7577185381749827	114.04094046723564	0.7462769346280003	114.3705647867414	0.15239228301863506	-0.13975679165389288	0.29214907467252793	102.53159652769082
16	6.0	perception	396	diff_vonmises	-0.15684071394059562	-8.986310964614784	0.8667479536155078	184.0050071596975	0.8538804939144696	184.44266604110737	0.31426268824857573	-0.2224548480564188	0.5367175363049945	97.16438328960923
17	6.0	wm	396	diff_vonmises	-0.10593297608629795	-6.06951244100515	0.3298088418283562	146.82756420429078	0.3194968360295536	147.29630304111438	0.17263215545283117	-0.24969826487216196	0.4223304203249931	142.3497318630349
18	7.0	ltm	396	diff_vonmises	0.05311042308222446	3.0430030907656507	0.9338827750763044	62.39835018315403	0.9037848041299752	63.09976600179933	0.1304707440997035	-0.20311388725819768	0.3335846313579012	89.29627718590643
19	7.0	perception	396	diff_vonmises	-0.1174243446785598	-6.727919362170944	0.9510303939631046	195.41324899633074	0.9306442394848924	195.73983401054372	0.6496666707122642	-0.3239964120465082	0.9736630827587724	95.1298011042619
20	7.0	wm	396	diff_vonmises	-0.107796294517429	-6.176272722997897	0.8115726215167032	94.3232170231882	0.7953813052684924	95.10330288614475	0.055461842358425884	-0.1942060012468545	0.24966784360528038	92.65732073863951
0	1.0	ltm	397	diff_vonmises	-0.24777967099392487	-14.196729397091998	0.27385009972897095	41.202632062037445	0.249314630804177	43.6687254212324	-0.31706826932481036	-0.4387434308275413	0.12167516150273094	130.12206718707432
1	1.0	perception	397	diff_vonmises	0.04043506628390147	2.3167586423992876	10.78652457555934	0.7296802398504637	1.9246507620638827e-19	3.2364702785913084	0.4292195177924265	-0.5151002426039734	0.9443197603963999	41.31163536816143
2	1.0	wm	397	diff_vonmises	0.09562466632175526	5.478889797583358	14.481266039959015	0.2664272115449042	4.1446160612479803e-26	2.9633802604718196	-0.07096963957092584	-0.4716366167149325	0.4006669771440067	35.61609199817343
3	2.0	ltm	397	diff_vonmises	0.0015068705984583248	0.08633732556401458	4.551341137424038	0.47481432788020983	0.13055146825374894	1.8995748751949073	0.04848959408164316	-0.29884010443923914	0.3473296985208823	60.218646166500065
4	2.0	perception	397	diff_vonmises	-0.004192863351542183	-0.2402333741184443	9.587144123369711	1.1543751872228987	0.12824196905508065	2.6292243680006164	0.9325091182272778	-0.4344094674023714	1.3669185856296493	43.14690320201663
5	2.0	wm	397	diff_vonmises	0.06304577206955941	3.61225665572952	2.1782503351095643	0.8090979987769842	1.7460009124402398e-20	2.1765278245042974	0.09298460388932533	-0.34077022510561955	0.4337548289949449	93.1115100757126
6	3.0	ltm	397	diff_vonmises	0.09353798588160936	5.359331815170497	6.307136962119389	0.38319756896925605	0.027647387176405053	0.8277334367545315	0.2402139858390055	-0.13103670777244245	0.3712506936114479	53.85957568751306
7	3.0	perception	397	diff_vonmises	0.012106859292546396	0.6936719406216502	4.383594541020937	1.711542126405919	0.3946615852560986	2.043265530529531	0.9186270216779172	-0.2988564888501573	1.2174835105280746	61.32893394225519
8	3.0	wm	397	diff_vonmises	-0.14077555519355117	-8.06584517120146	1.5331477507842266	105.24230596922143	1.5128447448533484	105.50275657208073	0.25859214301993205	-0.1482705697934712	0.40686271281340325	73.14536137744903
9	4.0	ltm	397	diff_vonmises	0.02614197114383516	1.4978246146945398	1.493148123808155	9.141553820422688	1.1277331398345594	10.525137131625275	0.09942369086537273	-0.3661527538602203	0.465576444725593	71.78586238463646
10	4.0	perception	397	diff_vonmises	-0.08664294996467604	-4.964275357539102	4.136272968241525	1.5933864166708658	5.800370419384205e-13	3.312883293218594	0.7203874337463321	-0.526943059288225	1.247330493034557	67.29340911327455
11	4.0	wm	397	diff_vonmises	-0.1511339588875342	-8.659337985359407	1.1925757912400348	276.3283433681119	1.1793663127324532	277.6824537511915	0.16739961631412825	-0.3700146366751582	0.5374142529892865	76.85111289659363
12	5.0	ltm	397	diff_vonmises	-0.09000229798726377	-5.1567518211489975	2.4337631854934245	0.8193773935317028	5.564468494997931e-17	1.7524446556331366	0.19642063931578274	-0.2752537419923273	0.47167438130811007	88.16111751048015
13	5.0	perception	397	diff_vonmises	-0.027603756115610223	-1.5815787241329011	1.1452654267128375	8.257583979052347	0.6253033495791664	9.022043305244939	0.607767972152224	-0.4092885189857024	1.0170564911379265	96.45866221437578
14	5.0	wm	397	diff_vonmises	-0.049617631129241564	-2.8428808531424745	0.602154744449949	142.46975347463174	0.589282309914607	143.1705958937378	0.1622697342353021	-0.24642149920890688	0.408691233444209	112.74100577505548
15	6.0	ltm	397	diff_vonmises	0.21621318217371865	12.388102813647285	0.935689737525646	111.33313198113711	0.9217025898130389	111.9278283869482	0.10173718289122036	-0.1687966313613387	0.27053381425255907	88.50641481540751
16	6.0	perception	397	diff_vonmises	-0.20033236086811393	-11.478198777634697	0.6461903908672724	184.84913175963885	0.6348067246934864	185.45379915457752	0.23507792913595438	-0.25466958809126616	0.48974751722722054	110.59158988095179
17	6.0	wm	397	diff_vonmises	-0.15830442826340507	-9.070175617724615	0.7937211591193373	107.94164584331075	0.7779235832408595	108.44749242988901	0.1741836868349509	-0.18453544838899028	0.35871913522394117	99.2061011419824
18	7.0	ltm	397	diff_vonmises	0.05319674975494995	3.0479492447722283	1.0139792633518212	111.72046641042446	0.9958933370261135	112.60811637859163	0.07944323810502851	-0.22683770838530748	0.306280946490336	82.94196576008963
19	7.0	perception	397	diff_vonmises	-0.14368876528734997	-8.232759814411041	2.0693222575661228	1.894487276193014	9.00107553633401e-15	2.3076632837686826	0.630351192459143	-0.3513688588635059	0.9817200513226488	95.4289174614561
20	7.0	wm	397	diff_vonmises	-0.150682728964628	-8.633484415186869	0.9276815401279014	30.829571474471503	0.8788050132317905	31.325815777680493	0.1287771741718391	-0.1578420610225999	0.286619235194439	91.32299511020959
0	1.0	ltm	398	diff_vonmises	-0.03852202019680591	-2.2071491755946955	3.139762152518346	0.3513955767552619	1.3052078311138662e-32	1.8636263827064576	-0.060431980209596586	-0.29616267486373155	0.23573069465413496	77.51228532165698
1	1.0	perception	398	diff_vonmises	-0.035249137558393685	-2.0196268135720334	13.718620950494845	0.609188837456084	7.636878676183654e-21	2.1097560838995206	0.5558896495434078	-0.3357781094697258	0.8916677590131337	36.58712214286041
2	1.0	wm	398	diff_vonmises	-0.0355568899612489	-2.0372597273906474	13.232618821901507	0.24493313238355935	2.336239734092976e-20	1.9886566484481147	0.035467249945416	-0.31650453571194975	0.35197178565736575	37.25894295106707
3	2.0	ltm	398	diff_vonmises	0.09913810479445807	5.6801949936481195	6.034183756827959	0.5336525257275722	0.49698008328069515	1.3684262564175365	0.1742368415839018	-0.23799348133540318	0.41223032291930495	50.12887738026964
4	2.0	perception	398	diff_vonmises	-0.023941553245944644	-1.3717499559803648	7.446313649168982	1.0687532103090591	0.17591398849018713	1.9239911676685806	0.7801080269353371	-0.3142324116460993	1.0943404385814364	48.670880229685736
5	2.0	wm	398	diff_vonmises	0.05625638011298905	3.22325315115797	2.224110626769337	0.6050917710034148	3.200700055513709e-13	1.5800937319323738	0.08125498630812217	-0.24758681376843397	0.32884180007655617	92.16996847897849
6	3.0	ltm	398	diff_vonmises	0.07099937030170043	4.067964266373913	3.382584005564491	0.5347606832287571	0.5299646483550288	0.7690234215314621	0.18073243586824977	-0.10263120133797776	0.28336363720622754	65.98623240528187
7	3.0	perception	398	diff_vonmises	-0.03842658086633774	-2.201680904759315	4.435780562600366	1.6875043255366309	0.2995724443376538	1.997246471512165	0.9528482070056222	-0.2952796314910777	1.2481278384966998	61.83212236148569
8	3.0	wm	398	diff_vonmises	-0.18487005315112523	-10.592273803918681	1.652961379380037	143.75519230405556	1.6351629226995896	144.1696254403053	0.24459966404076283	-0.18637916836886959	0.4309788324096324	68.90052073748643
9	4.0	ltm	398	diff_vonmises	0.031034931141728225	1.7781705719001526	2.532119329209715	1.35712982545432	0.807954425538091	2.197996180720194	0.13509574698765625	-0.24537525973621482	0.3804710067238711	66.47032330930483
10	4.0	perception	398	diff_vonmises	-0.06995689360168111	-4.008234751222081	3.3491761662416577	1.9252781122714833	4.2141344963779535e-17	3.3585369554887716	0.8073682897038366	-0.5328732783033475	1.3402415680071842	74.9924626540543
11	4.0	wm	398	diff_vonmises	-0.18588830859743397	-10.650615543458382	1.2435639944579255	284.6294719789896	1.2299654475690258	286.0771645591874	0.15405773186850524	-0.39219311447134686	0.5462508463398521	74.76663432733184
12	5.0	ltm	398	diff_vonmises	0.024078804136847855	1.379613852763529	2.108796368480116	0.9487701340985933	4.122404418159465e-10	1.1144058474479706	0.3279545652248733	-0.16991712227080907	0.4978716874956824	94.59007354838042
13	5.0	perception	398	diff_vonmises	-0.011734458999404614	-0.6723349755351914	2.0994285610099768	1.8334137138697488	1.0628427746242285e-15	2.1377623921981566	0.6336464266280775	-0.3256138273989527	0.9592602540270302	94.79415950533425
14	5.0	wm	398	diff_vonmises	0.0029812971534701996	0.1708157443682085	0.5087886553632209	110.08421651201782	0.493892812085672	110.45496142902395	0.21549103577605067	-0.21863045508209922	0.4341214908581499	124.73976688627917
15	6.0	ltm	398	diff_vonmises	0.39023004619135643	22.35853468595989	0.8608664571287329	86.69827559429844	0.8483403761812942	86.77662923974584	0.18267423529414728	-0.0929571264061817	0.275631361700329	99.97098279532204
16	6.0	perception	398	diff_vonmises	-0.14026898188486947	-8.03682065860002	0.8368151225062919	164.8123748294986	0.8245829899757419	165.11004391521467	0.2930746258515313	-0.18728991616646518	0.4803645420179965	99.74253076877818
17	6.0	wm	398	diff_vonmises	-0.0808019402985968	-4.629610155577644	0.3579506890511534	105.89703066959025	0.34625972579151226	106.05693968870554	0.18967126108307042	-0.17513090209495097	0.3648021631780214	140.64107485500756
18	7.0	ltm	398	diff_vonmises	0.047505782880542316	2.7218808615199133	0.7713346240742046	65.19306087816966	0.7487320332346108	65.63538951684086	0.15135730052147167	-0.16287540233373754	0.3142327028552092	100.89336383721633
19	7.0	perception	398	diff_vonmises	-0.1391702398274741	-7.973867375937743	0.9595936126979101	204.34581198178995	0.9427184188847013	204.59327395513876	0.5729421612599168	-0.27588755587732905	0.8488297171372459	94.8384038085621
20	7.0	wm	398	diff_vonmises	0.009145427965834965	0.5239944242832572	0.780733518429114	48.19204183672995	0.7541962770286504	48.74560728873033	0.08094051875193209	-0.15588683575435613	0.23682735450628822	97.1955858828602
0	1.0	ltm	399	diff_vonmises	-0.026038295219272166	-1.4918844217799636	3.3946745907061127	0.31727618810548264	1.2476899862422346e-16	2.6630050779803724	-0.20104523891874934	-0.4235795693462819	0.22253433042753254	74.48228934307213
1	1.0	perception	399	diff_vonmises	0.022612253187379607	1.295586672918095	13.73003743162329	0.6072902644247328	3.719728069716962e-20	2.7476560230417895	0.4518011167650262	-0.4373030379822642	0.8891041547472904	36.57457711736424
2	1.0	wm	399	diff_vonmises	0.04603450705835386	2.637582966408875	7.967647905801449	0.3292378003288446	4.379448369939541e-17	2.8734093264503855	-0.09281243953244167	-0.45731725405547125	0.3645048145230296	48.161644773269444
3	2.0	ltm	399	diff_vonmises	0.0848737562745373	4.862908025952977	4.463308679442983	0.6450154645709185	0.34180803723272885	1.8983991588733673	0.11318470313904239	-0.30212256359127676	0.41530726673031915	57.89052177241766
4	2.0	perception	399	diff_vonmises	0.005790122018848992	0.3317495545458149	7.08637455790453	1.2340450322958707	0.254020402915641	2.5765001282197453	0.7653425761392467	-0.4285330461691768	1.1938756223084235	49.14376531182859
5	2.0	wm	399	diff_vonmises	0.082721953537676	4.739618810786125	3.522822679194648	0.5886756421281458	2.214704135957558e-11	1.8901223479811193	0.12119427515393644	-0.30045462946258544	0.4216489046165219	73.07449629044353
6	3.0	ltm	399	diff_vonmises	0.09569670732959054	5.483017443284188	5.432706660516591	0.44267438733451125	0.1560165050127263	1.0335640958719432	0.20998023786319323	-0.16349640203885626	0.3734766399020495	56.33022221075865
7	3.0	perception	399	diff_vonmises	-0.038548648013743574	-2.208674837122871	5.8193766790395856	1.211077322971172	5.575061694251403e-17	1.6598704822989934	0.8738781321747394	-0.26416655638920916	1.1380446885639486	56.503745853699655
8	3.0	wm	399	diff_vonmises	-0.07302335016066895	-4.183929770112293	1.4885350985902548	163.02537848767972	1.4713749924583797	163.6012405812571	0.24486938108819345	-0.22150219453762077	0.4663715756258142	71.90938699711435
9	4.0	ltm	399	diff_vonmises	-0.11142021919962244	-6.3839083125608695	1.1263743900832976	18.694792659886666	0.9770068345803953	20.178740297776113	0.02484759572248052	-0.34758635708531793	0.37243395280779845	78.41596577995625
10	4.0	perception	399	diff_vonmises	-0.02825423232047551	-1.6188482653453693	3.1370315726844598	1.7153400545340132	1.7405098407058573e-16	3.711195787720153	0.5616031333456438	-0.5884833579003516	1.1500864912459954	77.55031746671054
11	4.0	wm	399	diff_vonmises	-0.06789331553622216	-3.8900004373755115	1.1604223462340943	287.3054964407468	1.147171851985429	289.0760307549859	0.05392842161859335	-0.43176976528358324	0.4856981869021766	75.21477353800364
12	5.0	ltm	399	diff_vonmises	-0.043766458818778484	-2.5076333745491293	2.1839753069006975	0.9566972385003161	5.726037672528905e-16	1.6136765773630894	0.26352204138549384	-0.2502270042792207	0.5137490456647145	92.99843283132253
13	5.0	perception	399	diff_vonmises	-0.04267844982528195	-2.4452950511495013	1.9796448053234568	2.034534062035643	0.08228537921855542	2.829270154398303	0.554967129122907	-0.3941229191969793	0.9490900483198863	93.98929556348119
14	5.0	wm	399	diff_vonmises	0.0010556219857602962	0.060482684545284056	0.5621025349528577	156.14322468184952	0.5492607664062911	156.7536728214901	0.22141465048456865	-0.2672389237948565	0.48865357427942513	118.22232135172831
15	6.0	ltm	399	diff_vonmises	0.23837427788806406	13.657840067464733	0.8782359757608809	102.19006910702659	0.8635652188295483	102.58255217450288	0.16193713234567753	-0.1496797287589242	0.31161686110460174	94.76300893693886
16	6.0	perception	399	diff_vonmises	-0.21999735712269625	-12.604920067162835	0.6446212405890837	144.62978810067546	0.6294024702501447	145.2012765296918	0.2629798012745965	-0.26272364377208923	0.5257034450466858	111.49705110952885
17	6.0	wm	399	diff_vonmises	0.17132019950098587	9.815924376745762	0.36485947003749114	127.92492165560647	0.3536209608620935	128.2369294915575	0.192718843356122	-0.2158818888015812	0.4086007321577032	138.99355281064106
18	7.0	ltm	399	diff_vonmises	-0.004911780308161976	-0.28142428155314814	0.829608111569618	137.488819058696	0.8144135181266312	138.57704864545303	0.06542688070887692	-0.2658590696479397	0.3312859503568166	91.14169119440373
19	7.0	perception	399	diff_vonmises	-0.1009237806272563	-5.782506682445966	0.9515409300321085	41.62407141420837	0.8538340670312521	42.325054547789605	0.5542956911788668	-0.37034525274311614	0.9246409439219829	95.12598392679575
20	7.0	wm	399	diff_vonmises	-0.07456314973330863	-4.272153786920595	0.8854881435605505	117.73696661232724	0.8690934618696995	118.62634168106476	0.08620535564087817	-0.22884059875050156	0.3150459543913797	89.31491613127102
0	1.0	ltm	400	diff_vonmises	-0.01954556469377103	-1.1198783651529913	8.20065323922723	0.5065200583186983	0.2288099410593537	3.0694427002605393	-0.03686445915670644	-0.5326747537949121	0.4958102946382057	44.24832508017741
1	1.0	perception	400	diff_vonmises	-0.009552048682691647	-0.5472920752217291	15.766245283120588	0.6911778597510826	0.013137544585800357	3.4118839387070854	0.5352247935567431	-0.5461663508629109	1.081391144419654	34.04613934707362
2	1.0	wm	400	diff_vonmises	0.08520203936211326	4.881717261356603	6.797386847706713	0.33288531971952706	1.5490169621562068e-15	3.5466295451285195	-0.2250935012204473	-0.564463200217771	0.33936969899732367	52.2021580390487
3	2.0	ltm	400	diff_vonmises	0.052181362078178875	2.989771816323652	1.646855841692699	7.92560344448597	1.235813539037271	8.88156604083055	0.20750931073529388	-0.30220356172337226	0.5097128724586661	70.97225487591766
4	2.0	perception	400	diff_vonmises	-0.035832144607116076	-2.0530306568902046	5.67080510994265	1.2801392977779333	0.3429506000672918	2.515886581953225	0.6387065590934774	-0.4089336455221929	1.0476402046156703	53.76916367316599
5	2.0	wm	400	diff_vonmises	0.10650622026167748	6.102356912884854	4.106847356896787	0.641577707406618	3.629972052953025e-17	1.9547331738349507	0.18931120659105627	-0.31096987343280946	0.5002810800238657	67.53968028810533
6	3.0	ltm	400	diff_vonmises	-0.011893185411751018	-0.6814293290598935	2.6707330264765816	1.7348854944903214	1.0164913123685224	2.1580446633967987	0.3185349279055131	-0.20452494796894458	0.5230598758744577	66.36922833410537
7	3.0	perception	400	diff_vonmises	-0.0287589360611733	-1.6477656595918178	3.5814058261144286	2.3386626674335003	0.5874610296996023	2.914210484626821	0.9249634168547471	-0.38503476898839323	1.3099981858431404	64.7306576435937
8	3.0	wm	400	diff_vonmises	-0.1506046411753633	-8.629010314430495	1.3628144295600066	157.24440878724877	1.3440954003144916	157.98185429923956	0.23094128803550973	-0.25167232868027156	0.4826136167157813	74.43571719051391
9	4.0	ltm	400	diff_vonmises	-0.08689626750214631	-4.978789383312796	1.3345502810412093	226.31279838879328	1.317195773800431	227.28157958853967	0.32261106423850094	-0.33517301334158134	0.6577840775800823	75.45243602853841
10	4.0	perception	400	diff_vonmises	-0.08586628691051157	-4.919775842431737	3.6232084905374924	1.895927961025192	0.029213972181716005	3.267845765551246	0.8451618924512228	-0.5067566107517095	1.3519185032029322	71.18042789871296
11	4.0	wm	400	diff_vonmises	-0.16928477454639834	-9.69930311733229	1.0128983955083029	242.19290702584414	0.9971747496742367	243.71515812633132	0.20070960110406588	-0.41070582963627444	0.6114154307403403	84.06404200147026
12	5.0	ltm	400	diff_vonmises	-0.05815193826002486	-3.331860632804761	2.4050616762049217	1.0537172559771057	1.8365477550208597e-20	1.6398483297004378	0.34599834313803646	-0.2560445230141196	0.6020428661521561	88.68750123756166
13	5.0	perception	400	diff_vonmises	-0.019312790094853927	-1.1065413630571908	1.438650815789051	4.355170705513975	0.421485293557995	5.2917160673404116	0.6108808020308432	-0.4418294784323118	1.052710280463155	94.6632750550508
14	5.0	wm	400	diff_vonmises	0.009342726026258692	0.5352987704516537	0.2773262856708704	137.2229097736479	0.26418907764674754	138.11324352876258	0.1383995071196651	-0.3506540807529035	0.4890535878725686	147.68792230073012
15	6.0	ltm	400	diff_vonmises	-0.05108689227344859	-2.9270633157080996	0.8941270032852349	1.1434827515717312	1.041601829205433e-22	1.473308063141963	0.13326421330560384	-0.17297752767191424	0.3062417409775181	133.10413946191724
16	6.0	perception	400	diff_vonmises	-0.0991499878292066	-5.680875841387017	0.6491560149313693	180.23488133673655	0.6344126314938662	181.16537230584535	0.2515666308333664	-0.33462250103458757	0.586189131867954	109.09059018594724
17	6.0	wm	400	diff_vonmises	0.3006978430737154	17.228717316811025	0.25265437696074994	78.06648625472899	0.23862663632390718	78.38291036297822	0.1297032577621522	-0.18977750714818598	0.31948076491033817	150.0218394092498
18	7.0	ltm	400	diff_vonmises	-0.11589344254701076	-6.640205131185602	0.5838289472013831	131.5627888295039	0.570785588863991	132.3074557540391	0.13038055401342774	-0.24231775527857025	0.372698309291998	113.48008663383189
19	7.0	perception	400	diff_vonmises	-0.08186131893017094	-4.690308080073186	0.7750975049748755	244.50041416218968	0.7593063532244531	245.5524812292346	0.4259460919934668	-0.4153248492506343	0.8412709412441011	101.0275728988082
20	7.0	wm	400	diff_vonmises	0.08638059478420747	4.94924351296486	0.9904714875239882	107.73096346056765	0.9711260734952154	108.32962518122075	0.19358932222007041	-0.20255728024071473	0.39614660246078515	88.28298256959204
0	1.0	ltm	401	diff_vonmises	-0.09988476474105683	-5.722975457319691	8.603061610012004	0.297671939733014	0.05404372424892143	3.8942674180878583	-0.3108070536652584	-0.631704548783555	0.32089749511829657	44.67790450039635
1	1.0	perception	401	diff_vonmises	0.061397560264092356	3.5178210755326202	13.181676520270255	0.79308197151844	0.023222636991932808	4.105822943518604	0.4681755402406228	-0.6594985885479351	1.1276741287885579	37.15925372435959
2	1.0	wm	401	diff_vonmises	0.1688389574728583	9.673759680583572	8.704155213230422	0.3954546527202367	1.202298813919814e-21	4.433533408721785	-0.2473076683039762	-0.7056187447443165	0.4583110764403403	46.04948015282736
3	2.0	ltm	401	diff_vonmises	0.030786399989118616	1.7639307857781001	2.126978822130887	1.8047486531969346	0.5611768566495613	3.3515472518360543	0.10077264458620372	-0.37990229449876894	0.48067493908497266	73.20412766689682
4	2.0	perception	401	diff_vonmises	0.00493726718142879	0.28288457182432136	6.3876949319089595	1.406857747269569	0.25085795701801183	3.178473037567492	0.7483036239581539	-0.521867926660695	1.270171550618849	51.431695750480685
5	2.0	wm	401	diff_vonmises	0.09522836553733889	5.456183435218576	3.883525376546948	0.723302037981284	7.302342485074154e-15	2.4062512990974527	0.1641657292092928	-0.3827350426189423	0.546900771828235	69.51282774233303
6	3.0	ltm	401	diff_vonmises	0.10260776409251933	5.878991827775353	6.249168921749603	0.512921713400546	0.054559003401929596	1.2691170382895762	0.2872501997033042	-0.2011333857236507	0.48838358542695487	53.72614368227835
7	3.0	perception	401	diff_vonmises	-0.007309873188737576	-0.41882488249050015	5.163225929366243	1.2915491305489093	0.07150188785271212	1.863126119993541	0.8210122799846155	-0.2901500403833986	1.111162320368014	59.214606752098604
8	3.0	wm	401	diff_vonmises	-0.03920730710631941	-2.2464132232653826	1.3215811815979168	130.31528990661934	1.2993325925949455	130.9857100512346	0.25966264329403543	-0.24308078543122313	0.5027434287252586	76.41702649144207
9	4.0	ltm	401	diff_vonmises	-0.09656029712726087	-5.532497493921255	1.0233287454833064	60.318194572447574	0.9564712579333285	62.21028791894844	0.13249860264368607	-0.47062228982567333	0.6031208924693594	83.00131103213465
10	4.0	perception	401	diff_vonmises	-0.05384919944656954	-3.085331858446643	3.0868207069643794	1.7821790270204934	1.7536727114145602e-13	3.961099078583496	0.555911659088144	-0.6279565818804584	1.1838682409686023	78.18657756410553
11	4.0	wm	401	diff_vonmises	-0.1166322824401463	-6.682537538798165	1.0628822033593495	274.2739954034387	1.0466785887640564	276.19747610698965	0.16207110407022185	-0.4910866043814366	0.6531577084516584	80.70274900254898
12	5.0	ltm	401	diff_vonmises	-0.10144117336319933	-5.8121511025662285	2.2491893107782865	1.0186506437682206	3.0387624906958314e-17	2.0622339153034845	0.23569780959233283	-0.3219399020066589	0.5576377115989917	91.66052736710984
13	5.0	perception	401	diff_vonmises	-0.02464987920624113	-1.4123340440249046	0.8935961327853759	113.80423513543069	0.8491351425520133	115.03384436411169	0.5798704351707258	-0.4982160655396086	1.0780865007103344	95.2078819902001
14	5.0	wm	401	diff_vonmises	0.009271698138053208	0.5312291722297525	0.5487718758909206	217.2476941380736	0.5381053437287349	218.1495726836856	0.2068012600525364	-0.3294767130497398	0.5362779731022762	117.91039466942048
15	6.0	ltm	401	diff_vonmises	0.1867821714618696	10.701830113054017	0.945428728206734	57.66956238212872	0.915670198578415	58.24741977974949	0.13809143973153581	-0.17855589299009278	0.3166473327216286	89.61546521518594
16	6.0	perception	401	diff_vonmises	-0.23165928157428062	-13.273099119239037	0.38243555851148464	128.43494549868825	0.3653229003670084	129.31319516731006	0.20597112419159913	-0.3690502133953828	0.5750213375869819	135.78410453112204
17	6.0	wm	401	diff_vonmises	0.2915458501093354	16.70434674581863	0.46433262716032014	116.37641465914444	0.45178042112446715	116.77204321293713	0.17703677684154684	-0.20890891434355296	0.3859456911850998	127.95973383014802
18	7.0	ltm	401	diff_vonmises	0.023062860677644206	1.3214045803272387	0.6161485184575929	116.70924730592291	0.5994616321550014	118.02376093348956	0.019928890561153878	-0.30928816782322777	0.32921705838438164	104.59696934071627
19	7.0	perception	401	diff_vonmises	-0.08250378185885009	-4.727118494380115	1.746607440368272	2.608077697948961	0.26544550868892797	3.5610092096255803	0.513014609472469	-0.39923922403627204	0.9122538335087411	92.0681610173159
20	7.0	wm	401	diff_vonmises	-0.0067303649975717994	-0.38562150894344066	0.8835634055470499	70.57435698206781	0.8494231335026782	71.4676444573712	0.1798290626514536	-0.26576088986486823	0.44558995251632183	92.36481364528817
0	1.0	ltm	402	diff_vonmises	-0.15990653942686542	-9.161969825701686	11.550309029842126	0.15307626738167884	0.03233571367383163	2.7553167325002974	-0.24761910123554423	-0.4451450677099268	0.19752596647438256	39.06122456289526
1	1.0	perception	402	diff_vonmises	0.033757193489526986	1.9341447151563962	12.76420806228518	0.6523088945671017	4.412879083971087e-14	3.1454984641030705	0.4196613574448326	-0.5006216290424115	0.920282986487244	37.9389889155016
2	1.0	wm	402	diff_vonmises	0.18196444516742954	10.4257947295334	113.40931429677427	0.35046663067385136	2.497719152751521e-46	3.3402834749261845	0.9510328173378992	-0.5316226263626753	1.4826554437005746	12.710375915943729
3	2.0	ltm	402	diff_vonmises	0.08215948236406348	4.707391586440357	11.416693832095708	0.3797731112623854	0.27512236594315187	1.433785482466862	0.21115025476430815	-0.258978052467539	0.4701283072318472	38.60232331220371
4	2.0	perception	402	diff_vonmises	-0.0006256675103161925	-0.03584810771957572	10.042143202361327	1.156616035137191	0.23236744194197634	2.4323671301267877	0.961260399975836	-0.4194882218406039	1.38074862181644	41.797082656710074
5	2.0	wm	402	diff_vonmises	0.02214166197715119	1.268623782696053	1.5860566299955818	1.6632657657313372	0.3368876878258054	3.288084265014205	0.03266748847961487	-0.3651138966001445	0.39778138507975935	86.60890838571834
6	3.0	ltm	402	diff_vonmises	0.12803380595969732	7.335796716487583	2.1798862655831184	47.358358143055106	2.136981596438214	47.56341967599533	0.19481212868780418	-0.1278809677887942	0.3226930964765984	60.53494594989729
7	3.0	perception	402	diff_vonmises	-0.02228506463805789	-1.2768401499369526	4.345063422535022	1.6130753614172626	0.4055642238166669	1.8691082456961718	0.8687143162577913	-0.27151651189559184	1.140230828153383	61.57233694766174
8	3.0	wm	402	diff_vonmises	-0.08103432831190127	-4.64292500794942	1.6503511889739204	109.4410900563146	1.6281789402154423	109.92933657778589	0.18955079496367944	-0.18865906618301942	0.37820986114669886	67.80077780406606
9	4.0	ltm	402	diff_vonmises	-0.02410149530786658	-1.3809139610951118	1.3465319059674665	184.09868016990657	1.3293523089095831	185.3601963311831	0.06290982277521096	-0.33041231864459775	0.3933221414198087	70.23524562257919
10	4.0	perception	402	diff_vonmises	-0.11031817334491299	-6.3207657362561305	3.1873555740588713	2.14331093806859	0.1825055589369337	3.504370437881815	0.7889100711407735	-0.5016154181992875	1.290525489340061	72.4592175123289
11	4.0	wm	402	diff_vonmises	-0.15705384579897702	-8.998522520579819	1.1675409705868067	267.2100160162247	1.154722927035207	268.8094136301315	0.0432558787349393	-0.3892166352428248	0.4324725139777641	74.83673714568098
12	5.0	ltm	402	diff_vonmises	-0.09574336259850282	-5.48569059328491	3.4665920297796626	0.5930188940485895	1.5913336685353065e-11	1.4897464846100228	0.18420434638270644	-0.2366896879909573	0.42089403437366374	73.68561340737395
13	5.0	perception	402	diff_vonmises	-0.041568673910329174	-2.381709575017438	0.8963015807765743	169.70167343923146	0.8699857368086554	170.5823761382582	0.5719613750504209	-0.41862670034781146	0.9905880753982323	95.59414275517051
14	5.0	wm	402	diff_vonmises	-0.12274712107288095	-7.032891984857408	0.5239035500789221	116.62370491158642	0.5090594511214298	117.70233858984295	0.05639684640196663	-0.2892391752784924	0.34563602168045904	116.2060579014633
15	6.0	ltm	402	diff_vonmises	0.25667030451028844	14.706125174777185	0.827276107442934	103.91260976127889	0.8142236367945977	104.65368176866744	0.031922805105182306	-0.1762839493362396	0.2082067544414219	90.51412707509064
16	6.0	perception	402	diff_vonmises	-0.18323895994361605	-10.49881904713595	0.6874597145336153	264.05348138668194	0.6768755158566296	264.8850790873856	0.2992246299814383	-0.3274535851703959	0.6266782151518342	106.81416733093978
17	6.0	wm	402	diff_vonmises	0.19034507268961856	10.905969316226013	0.0003652630883833443	3595.2771880691203	9.513690248615918e-26	3596.331922718094	0.041158349123861626	-0.37685264435094723	0.41801099347480886	178.74696011929365
18	7.0	ltm	402	diff_vonmises	0.11298730719773224	6.4736958409781655	1.3542276082681848	113.44076743695663	1.3334427753881155	114.38444508218366	0.044442901941266655	-0.2468865292116984	0.29132943115296506	69.9913546061737
19	7.0	perception	402	diff_vonmises	-0.10254358581799729	-5.875314683508808	1.680859636768294	1.812822646507085	1.328232500919173e-15	2.485510576777387	0.44589608353458826	-0.3664023368766927	0.812298420411281	105.10098132389251
20	7.0	wm	402	diff_vonmises	-0.38160934063702884	-21.86460464127193	0.7792707540005583	96.04148860956542	0.7650224693101563	96.93481391031281	-0.003974057893206151	-0.1968679994084397	0.19289394151523354	90.934160672899
0	1.0	ltm	403	diff_vonmises	-0.0017425091580287313	-0.09983842051794091	5.735744564423724	0.4889407666207342	0.22443484037647732	2.7516129849382973	-0.08530471953762597	-0.4589914223808879	0.37368670284326194	51.65076390575473
1	1.0	perception	403	diff_vonmises	-0.03766174486115136	-2.1578590296424895	17.39916624026759	0.571025131767768	4.3611029845327e-21	2.712593621799242	0.5114368696208613	-0.4317226835088959	0.9431595531297572	32.459508795644155
2	1.0	wm	403	diff_vonmises	-0.00015086306557142892	-0.008643816941648272	5.510361265641723	0.4799683685720961	0.18581242265152173	3.272149198369493	-0.18350233082975637	-0.5402966161838326	0.35679428535407626	52.5483145554457
3	2.0	ltm	403	diff_vonmises	0.04175350911382039	2.3922998520829264	3.08341103379433	1.325005784927174	0.7713897249346344	2.341374747728382	0.18326043691642246	-0.30503914590022596	0.4882995828166484	62.53405193295413
4	2.0	perception	403	diff_vonmises	-0.03375509780093508	-1.9340246410449062	5.920863400773333	1.239697994432672	0.3441458315164085	2.48377708637623	0.634107987473803	-0.40792003546177513	1.042028022935578	52.69400128051694
5	2.0	wm	403	diff_vonmises	0.07458062161942161	4.273154852255002	4.4188822117686115	0.5337368251255327	0.05929452457539322	1.8929243279241263	0.11374241799011553	-0.2959314677136567	0.4096738857037722	63.07937942752454
6	3.0	ltm	403	diff_vonmises	-0.15370874932979883	-8.806862610831795	1.2878250974063636	47.60367438001698	1.2427988464473791	47.94968019034366	0.2579793630917635	-0.16596125819765906	0.42394062128942256	79.86171270277359
7	3.0	perception	403	diff_vonmises	-0.07428255295157764	-4.2560767755824545	5.246557284879884	1.5041713947968027	0.20068565082807308	2.0831344001120233	0.9369103083106292	-0.3230076032956933	1.2599179116063224	57.66915232698804
8	3.0	wm	403	diff_vonmises	-0.19403512827900735	-11.11739392766665	1.6420199776421875	194.24843448183654	1.624907226057196	195.03757427060123	0.20610623226014013	-0.27418030569823415	0.4802865379583743	66.76370628405348
9	4.0	ltm	403	diff_vonmises	-0.20713837881846828	-11.86815488148028	1.1799355044324413	128.3516565307572	1.1557337216387462	129.37751064370636	0.19594614092665807	-0.3011751255383608	0.49712126646501886	78.81023730954905
10	4.0	perception	403	diff_vonmises	-0.07212032827035557	-4.1321904269894105	3.5357550908854427	1.9023975416710825	1.1994279949881578e-16	3.4889662251642815	0.8113419633721488	-0.5541260000844602	1.365467963456609	72.93686224263152
11	4.0	wm	403	diff_vonmises	-0.2025963590746351	-11.607916319693548	0.9629514951134066	161.25665749818765	0.9431037744942271	163.0537202826721	0.012966847584230834	-0.40870240902795274	0.4216692566121836	82.05223690972076
12	5.0	ltm	403	diff_vonmises	-0.002404324549565845	-0.13775764926981562	2.5489011813255593	1.1213151840578834	0.06344942683255751	1.3885221652860418	0.43317807999492774	-0.20324507747574067	0.6364231574706685	84.18088172938721
13	5.0	perception	403	diff_vonmises	-0.048991424782782275	-2.80700187238605	2.255357011156165	1.742842623937332	1.0648813655250906e-14	2.380424087280055	0.5875367765245261	-0.3682347395297263	0.9557715160542524	91.54475793700132
14	5.0	wm	403	diff_vonmises	-0.16321002519295374	-9.351245617780089	0.3760110101296849	161.1883806764832	0.36275508235068893	161.8130998504227	0.25094390173761383	-0.3354438853724666	0.5863877871100804	137.41997903077265
15	6.0	ltm	403	diff_vonmises	0.14524618529082664	8.321993407539503	0.7087186506587736	19.263269407865653	0.6484521233761673	19.314832712579143	0.20685229583680087	-0.11460349313879181	0.3214557889755927	112.33252828696459
16	6.0	perception	403	diff_vonmises	-0.13275482739848368	-7.606291319920821	0.8167934954393973	100.7287058571198	0.7952132254463881	101.21586760136151	0.2676024845188145	-0.21906455316697304	0.48666703768578756	99.57177871700956
17	6.0	wm	403	diff_vonmises	0.3556491940616716	20.377197806962965	0.0004990685744381134	2154.305899670268	6.0298223456844504e-24	2154.2978842906373	0.1724081833266382	-0.16981411342669617	0.3422222967533344	176.03175262061097
18	7.0	ltm	403	diff_vonmises	-0.14595464403940245	-8.362585103792018	0.876941772848844	112.38941145804215	0.8610684594688383	112.99906783814775	0.14797508538432425	-0.19120789580829722	0.33918298119262147	92.91669160008287
19	7.0	perception	403	diff_vonmises	-0.1541667890214186	-8.83310635201108	0.7839040286961545	176.18700632741144	0.7655596804701018	176.9313663492949	0.39606655176200434	-0.33470398329759554	0.7307705350595999	101.47380188713942
20	7.0	wm	403	diff_vonmises	-0.05881717577129927	-3.3699759345745703	1.0223870412163434	77.85839772656584	1.0031902165591482	78.46800711337035	0.07373415658759441	-0.1622981809246138	0.2360323375122082	83.46081126867017
0	1.0	ltm	404	diff_vonmises	-0.05037598131294391	-2.8863311180615896	6.9689770463442855	0.3226509916658044	0.09139987133957093	1.8726112353425506	0.0073645742944076775	-0.30351055628972984	0.3108751305841375	49.642104765156404
1	1.0	perception	404	diff_vonmises	-0.019744771523833467	-1.1312920757657488	15.542386797369447	0.6531563086827779	1.3546774500468369e-16	2.287954876940122	0.6545804338177681	-0.36413932823619727	1.0187197620539654	34.355963349127734
2	1.0	wm	404	diff_vonmises	0.024869622489823846	1.4249244067505404	8.46799373591777	0.30299548560596395	2.911138607263857e-17	2.1209760682491527	0.00860479001302411	-0.3375638101558106	0.3461686001688347	46.69729410885503
3	2.0	ltm	404	diff_vonmises	0.09027985384926054	5.172654600620529	1.589447203867399	55.25331888752005	1.5387917881535123	55.93258871429328	0.18417058179281298	-0.23373472555767272	0.4179053073504857	68.45396013007468
4	2.0	perception	404	diff_vonmises	-0.032728017196885804	-1.8751772572131356	6.740534104834433	1.1525377616998906	0.3178814918321926	1.891815268174329	0.7663401193040194	-0.313573157256752	1.0799132765607713	50.271958748742065
5	2.0	wm	404	diff_vonmises	0.09902348207465056	5.673627595566838	3.3613399528104835	0.5878474891207587	1.2997057786025336e-17	1.3582386608870687	0.19436225600891133	-0.21567634520600024	0.41003860121491154	74.85389567127103
6	3.0	ltm	404	diff_vonmises	0.05925648715843027	3.395146622949215	3.2824666388618238	1.0955732570139671	1.0921427871889167	1.3260808184114452	0.27884018366872954	-0.14585119194875645	0.424691375617486	61.71464808678971
7	3.0	perception	404	diff_vonmises	-0.03791005691750145	-2.1720862624735644	4.813189557513132	1.4532650931601307	0.29830009025787696	1.6305138528306742	0.8927402101813579	-0.24528233892282444	1.1380225491041822	59.66639857444167
8	3.0	wm	404	diff_vonmises	-0.12032672792243973	-6.894213672574753	1.5901376385391581	134.19354731300822	1.5728922245528731	134.4751830063706	0.2722971671643606	-0.15906974018310294	0.4313669073474635	71.63349730868734
9	4.0	ltm	404	diff_vonmises	-0.042526494928372315	-2.4365886768802336	1.5822630082473075	158.01952136879416	1.561849477726897	158.70922565048903	0.2494891106771462	-0.2567626633088764	0.5062517739860226	69.13488747424967
10	4.0	perception	404	diff_vonmises	-0.058019538686349216	-3.3242746960238145	3.381552664174617	1.8313502091961904	1.4542128375189393e-16	3.1033785408454273	0.7893310303207364	-0.49243490692646846	1.2817659372472048	74.6251721161176
11	4.0	wm	404	diff_vonmises	-0.12807077045457116	-7.337914626035687	1.2407353929186933	289.6428673100504	1.2284311242558663	290.77804263322196	0.21848232842731363	-0.3371905443043133	0.5556728727316269	76.55013112064378
12	5.0	ltm	404	diff_vonmises	-0.041202368551081434	-2.360721823919519	2.205135527499092	0.9416066242038248	9.199990506542017e-18	1.2224337220757737	0.32056565612581484	-0.1882961191919179	0.5088617753177327	92.56163013320997
13	5.0	perception	404	diff_vonmises	-0.02759236433814409	-1.5809260233629394	1.874300876687632	2.2509666087047377	0.13165599581452872	2.7413794769029107	0.6208484706840567	-0.3545417156185207	0.9753901863025773	94.9763338142696
14	5.0	wm	404	diff_vonmises	0.06920285666263337	3.9650316170176816	0.4904194851151996	75.243580339245	0.46989240044652575	75.56692384333036	0.2097881555824337	-0.2076841072930815	0.4174722628755152	126.9950508675536
15	6.0	ltm	404	diff_vonmises	0.11409021165896832	6.536887611813143	2.164608732145566	0.5471215860541233	4.231305179914024e-12	0.6613163350529713	0.190746055732412	-0.10135059549271362	0.2920966512251256	93.38713926262633
16	6.0	perception	404	diff_vonmises	-0.20459176319420497	-11.722244554167919	0.712011078813037	119.74340022138786	0.6935454749993504	120.24402551898274	0.2796464714804472	-0.2422515333240174	0.5218980048044646	106.75027018705316
17	6.0	wm	404	diff_vonmises	0.050009702994560534	2.865344916291073	0.6006494901950967	77.82083438441435	0.5852970823376061	77.83783755059824	0.22150187988415482	-0.12521528276855065	0.34671716265270547	119.57210410463775
18	7.0	ltm	404	diff_vonmises	-0.08896315005828395	-5.097213030528694	0.6749336365559698	117.21787208181102	0.6608387161423925	117.79624199906674	0.15411501074544987	-0.20320380069677313	0.357318811442223	106.8179167935548
19	7.0	perception	404	diff_vonmises	-0.09577887334850453	-5.487725209387352	1.0737834010200284	12.202386315137469	0.752091807476255	12.939899368596304	0.5285925810538266	-0.3665010179040402	0.8950935989578668	94.43992171933358
20	7.0	wm	404	diff_vonmises	0.171390850941894	9.819972406126316	0.8967923255130028	71.71961354544355	0.8750043224271249	72.16006963899925	0.15775321050919544	-0.15765486494246872	0.31540807545166416	93.42903999873829
0	1.0	ltm	405	diff_vonmises	0.07044917592968968	4.036440450945846	11.473181176461148	0.4650842528180369	0.13230389496902487	4.2433276381009515	-0.1461845579682607	-0.7219475541194686	0.575762996151208	38.4408991797159
1	1.0	perception	405	diff_vonmises	0.0676258529687026	3.874675961078908	15.66908897083344	0.6304077883576397	0.06801006398027042	3.9531278184494885	0.31465134726148036	-0.6529511421635891	0.9676024894250694	33.818561074144895
2	1.0	wm	405	diff_vonmises	0.1472849218147583	8.43880440589996	3.0160313659377684	0.7924881534034088	0.09662770370039343	5.482915904105142	-0.4383408997094639	-0.8452020507127088	0.40686115100324494	70.29624106113218
3	2.0	ltm	405	diff_vonmises	0.14317205672869374	8.20315459476175	7.899247606444754	0.5879689611058105	0.3751714480126484	1.6911221485753376	0.2698690879959507	-0.30129429905630156	0.5711633870522523	45.37995101086503
4	2.0	perception	405	diff_vonmises	0.0200300475965666	1.1476371907294245	6.1025134255071425	1.3784436356430858	0.38134144598530006	3.0268082439019808	0.647724848614144	-0.5071158606357264	1.1548407092498705	51.4467556734256
5	2.0	wm	405	diff_vonmises	0.09036172754567683	5.177345617878317	1.0243101782390698	107.36594015360699	0.9859409593518668	109.51529235021918	0.05020370786345296	-0.5036757223191497	0.5538794301826027	80.54905527521831
6	3.0	ltm	405	diff_vonmises	0.07328545505260531	4.198947274209979	1.7951709574626	108.78554402482355	1.7688083458677883	109.37277543371866	0.18985216277862804	-0.22357010645765918	0.4134222692362872	64.28893036952522
7	3.0	perception	405	diff_vonmises	-0.04463912896075999	-2.5576336905917523	4.146641342978086	1.7255032668968509	0.26819308068743186	2.5407088233505664	0.8334089015829899	-0.3762240547681964	1.2096329563511863	63.49360862074229
8	3.0	wm	405	diff_vonmises	0.01963051705522698	1.1247457769240872	2.864194942913958	1.1477210044973662	0.4054673503410578	2.700006026178799	0.11315696221602778	-0.37434550768572555	0.48750246990175333	68.34738141904035
9	4.0	ltm	405	diff_vonmises	-0.12845114841447894	-7.359708677758199	1.0556442049841954	268.9873089624921	1.042022853046326	270.795521278474	0.05766001818665245	-0.4317681115867913	0.48942812977344374	79.12758661039504
10	4.0	perception	405	diff_vonmises	-0.061689829434909305	-3.5345668655022195	1.0901124700053213	259.9202817720248	1.0647724338816662	261.7148478112921	0.60112413069686	-0.6106673470379604	1.2117914777348204	84.19613065610008
11	4.0	wm	405	diff_vonmises	-0.05146614195642545	-2.948792721924348	0.8955351689102763	222.74938740164382	0.8787580387218075	225.35720232279618	-0.11887057109323962	-0.5449191149476356	0.42604854385439594	81.66834540748056
12	5.0	ltm	405	diff_vonmises	-0.12287490052696433	-7.040213208284871	2.6146549481246733	0.7898349759148587	1.2411975287911555e-13	1.92500898572061	0.17150467703674432	-0.3038145868345846	0.47531926387132895	85.05284160239586
13	5.0	perception	405	diff_vonmises	-0.045276859192079015	-2.594172941314234	0.8556258109351893	259.3713296388241	0.8359477405496065	261.0325180740837	0.45815721021205036	-0.5460036381339748	1.0041608483460251	94.71100160813589
14	5.0	wm	405	diff_vonmises	0.20518069913525644	11.755988097993734	0.0825969077130337	17.034300605929086	5.787219693886636e-11	18.952509245124777	-0.07687450221436132	-0.5244719204311559	0.44759741821679455	173.97251281708049
15	6.0	ltm	405	diff_vonmises	0.3782901512310605	21.67442909690541	0.5886452485007995	135.98804014414227	0.5763940123706247	137.1875954932164	0.0015641161785353574	-0.2765646918519007	0.27812880803043605	106.09854375533169
16	6.0	perception	405	diff_vonmises	-0.1049002357265724	-6.010340777060053	0.5711427898429616	338.09998071880784	0.56005340204413	339.872881703098	0.24960541332877995	-0.5478757641911614	0.7974811775199413	113.85693839438389
17	6.0	wm	405	diff_vonmises	0.42934746458255907	24.599797665223225	0.0004162235614456337	4113.4003220034	2.9788551063008084e-31	4115.2811714225645	-0.026836537937356297	-0.5717997241270041	0.5449631861896478	174.35286914581275
18	7.0	ltm	405	diff_vonmises	0.03744547143599864	2.1454674751604004	3.4937429925854917	0.5099042595046002	0.13547865349041255	2.2932339332730396	-0.0521465648895002	-0.352652068444668	0.3005055035551678	66.77980889395315
19	7.0	perception	405	diff_vonmises	0.05663500185212084	3.244946578842125	1.233586811146317	3.9012768524635795	0.32216473510865434	5.535013501241456	0.31841668872429674	-0.5006758770713622	0.8190925657956589	100.46034876921607
20	7.0	wm	405	diff_vonmises	-0.11431507551826237	-6.549771361915716	0.8139392121777648	210.231529132159	0.7999705605055781	212.3643860772187	-0.08685937103655306	-0.44357627182544945	0.3567169007888964	86.20523410374074
0	1.0	ltm	406	diff_vonmises	0.005640154677125142	0.32315705880024215	9.679865456640927	0.42788675968715195	0.09184674569422059	4.243927753378574	-0.21505057101329939	-0.7022212702448131	0.4871706992315137	41.96684402331641
1	1.0	perception	406	diff_vonmises	0.06265218457194945	3.5897057532473533	14.338417100812205	0.7146903397194561	0.037224248065446136	4.219879982967911	0.37267842999757883	-0.6835845326187057	1.0562629626162845	35.52804721036574
2	1.0	wm	406	diff_vonmises	0.18196137857008465	10.425619026448073	4.992030275173244	0.4854362576769659	2.2765508357856918e-33	5.052382088440615	-0.38358783044812317	-0.8040921799208112	0.420504349472688	61.11318430514325
3	2.0	ltm	406	diff_vonmises	0.1269891854749362	7.275944371517861	5.171880918204529	0.7525740743451909	0.3388231387045652	2.078625330901035	0.2131933038248437	-0.33898128766759433	0.5521745914924381	54.86549747233218
4	2.0	perception	406	diff_vonmises	0.01194554415535539	0.6844292640890317	5.718400491082585	1.422104777546987	0.31905773471447013	3.150997646068723	0.6512774585165867	-0.5145983687963933	1.1658758273129801	53.47112821087899
5	2.0	wm	406	diff_vonmises	0.10343604442325947	5.926448794980463	3.634454164708164	0.8005781095790903	0.04081343173203221	2.7905439780883374	0.12152055680436596	-0.4333662693228538	0.5548868261272197	69.91338816785228
6	3.0	ltm	406	diff_vonmises	0.06556364577503195	3.7565201924000617	3.5258759469909333	0.9386019561770145	0.6168111335893753	1.6540501285963318	0.2286951739548636	-0.2320634293772575	0.4607586033321211	62.28696240482958
7	3.0	perception	406	diff_vonmises	-0.015144861443512896	-0.8677366420236965	3.7542012311675537	1.9606253789862815	0.3441974750270244	2.788046089817096	0.8480186278026163	-0.39722020020557297	1.2452388280081892	65.55298748378547
8	3.0	wm	406	diff_vonmises	-0.019711679982175878	-1.1293960700911876	2.310612680330954	1.515362142649871	0.45601581566345195	2.7890985265369412	0.18712988681094778	-0.33713070797585015	0.524260594786798	74.66827610942843
9	4.0	ltm	406	diff_vonmises	-0.07472176282877703	-4.281241647866439	1.0209779748302432	248.8761519136283	1.0044343419381008	250.7580786077128	0.13333871314117118	-0.4698187239397704	0.6031574370809416	82.02883710805392
10	4.0	perception	406	diff_vonmises	-0.0711699624256286	-4.07773847509317	1.0576758657132987	153.33569638930214	1.0140156055151928	155.2763927612216	0.5939215216005849	-0.6415397765261517	1.2354612981267366	85.61676844913904
11	4.0	wm	406	diff_vonmises	-0.12406288114623988	-7.108279483912698	0.9482589224081204	268.0676567042607	0.9317412727701475	270.42719112163024	0.06569820032785856	-0.5512733814955908	0.6169715818234494	83.62918951178679
12	5.0	ltm	406	diff_vonmises	-0.11089087723292972	-6.353579251950221	2.203774832175265	0.9663653346474669	1.4656634314735405e-17	2.061402117519067	0.20039012258215105	-0.32164235979754424	0.5220324823796954	92.57912593458124
13	5.0	perception	406	diff_vonmises	-0.014477379836657724	-0.8294927630482848	0.8721087158774953	153.77447770857125	0.8380637529502732	155.27383099178664	0.5326377007941545	-0.5397614550406598	1.0723991558348143	95.11623908454456
14	5.0	wm	406	diff_vonmises	0.11098224084421124	6.358814001277726	0.3478849394100935	148.57781149199783	0.3334724399300243	150.0926027646293	0.060011330491050785	-0.4430960867114706	0.5031074172025214	137.2697699063175
15	6.0	ltm	406	diff_vonmises	0.3249684378675369	18.619319964769186	0.7827932860683572	130.13134679885195	0.7692333587513094	131.02424559756165	0.0710802025188002	-0.22619017513548734	0.29727037765428754	94.67963019586355
16	6.0	perception	406	diff_vonmises	-0.12022476241965138	-6.888371479609051	0.4830037057696119	281.643504987364	0.47202801733619626	283.0666880814124	0.23192973054089805	-0.4892255601804365	0.7211552907213346	123.73806707226983
17	6.0	wm	406	diff_vonmises	0.34544934217651907	19.792789342285168	0.2524697456561185	133.91221172878505	0.23951959567202727	135.09216367880515	0.07001590411499947	-0.38423564657651355	0.454251550691513	148.02872606097958
18	7.0	ltm	406	diff_vonmises	-0.02142050723656867	-1.2273046596848227	1.8055362224150635	0.7105542626751925	1.3402570181003065e-14	2.222011921401602	-0.009139074361924127	-0.34433440625353934	0.3351953318916152	101.77367473692694
19	7.0	perception	406	diff_vonmises	0.005620264253139932	0.3220174214531638	0.7994887221632775	232.47321261461025	0.781401594391335	233.7640071805414	0.41561374279280017	-0.45751767212543726	0.8731314149182374	98.65947060013133
20	7.0	wm	406	diff_vonmises	-0.03438771069081668	-1.970270689700696	0.8918298225203848	202.5085937501093	0.8763157492966867	204.04307343728897	0.11050962063990255	-0.3807734636608693	0.49128308430077183	88.14426414570363
0	1.0	ltm	407	diff_vonmises	-0.06251622325857016	-3.581915743813665	2.0722678952352753	0.4641624364767251	2.0877202461635196e-19	3.7772338562323333	-0.3565396574111065	-0.5972874991016209	0.24074784169051444	95.38714421411404
1	1.0	perception	407	diff_vonmises	0.10790497517752799	6.182499666136265	11.617488569905202	0.735811571531079	0.10883396748678906	3.6218182333406284	0.34845676059264374	-0.6048878587612604	0.9533446193539041	38.9735424773952
2	1.0	wm	407	diff_vonmises	0.17103087737795067	9.799347440176081	7.082939455566891	0.46622920129492557	6.581946986751489e-33	3.830049210750853	-0.12396304769644112	-0.6095709220701957	0.4856078743737546	51.12384870605257
3	2.0	ltm	407	diff_vonmises	0.12175166687272639	6.97585666048998	4.562991819517789	0.6014385402862008	0.18544543696679583	2.135536852841446	0.09097036883207338	-0.3368747111470859	0.42784507997915927	59.357976104499556
4	2.0	perception	407	diff_vonmises	0.05299853904622763	3.0365926077081427	6.1055060116254	1.544400314940143	0.35601905088750296	3.4196389322793967	0.7355021465596273	-0.5700494457568694	1.3055515923164966	51.627530909298656
5	2.0	wm	407	diff_vonmises	0.09562406481787064	5.478855333949409	2.7191715374670835	1.0612973573305948	0.21480921834485991	2.566352670545459	0.15633560641289845	-0.36224245386137394	0.5185780602742724	74.72989998141148
6	3.0	ltm	407	diff_vonmises	0.12730953048176852	7.294298788397442	5.660133857443887	0.5421264867883406	0.2314100201542454	1.5139455507712085	0.20235637713767873	-0.2453390922377797	0.44769546937545845	54.03736702033754
7	3.0	perception	407	diff_vonmises	-0.026702711750383797	-1.5299526848513827	5.932230579853118	1.079319261381762	5.561111752801435e-21	1.677528727533227	0.7573989703885491	-0.26697977863868716	1.0243787490272362	55.961024923735124
8	3.0	wm	407	diff_vonmises	0.07284714155753445	4.17383376083879	2.030413875942277	1.8650396973580676	0.6366954117804133	2.632046572738983	0.2536845602162592	-0.25240844162347625	0.5060930018397354	76.84649206306267
9	4.0	ltm	407	diff_vonmises	-0.16135358414215628	-9.244879380654563	0.825175643850618	143.93688969944904	0.8037094623891493	146.32205223669754	-0.1359585316412364	-0.4841875608941848	0.3482290292529484	84.29268762136473
10	4.0	perception	407	diff_vonmises	0.06272127982544291	3.5936646196569155	2.684789992317453	1.4391546639166448	5.0397061084259266e-17	4.106691258175218	0.2306013783264077	-0.6494827384235862	0.8800841167499939	83.93438804773285
11	4.0	wm	407	diff_vonmises	0.11595220507831196	6.643571976222666	1.1439436838286594	183.55753179347056	1.1208768337837138	185.69897502794552	0.009067120797269013	-0.5038432145686755	0.5129103353659445	74.85921010399696
12	5.0	ltm	407	diff_vonmises	-0.1933210325882742	-11.076479258419162	1.4806572789002659	1.1747296825022573	1.298433577432957e-19	2.580468363595501	0.09415967874469366	-0.3845676078887538	0.4787272866334475	110.93776127033287
13	5.0	perception	407	diff_vonmises	-0.07942142106030069	-4.550512229686661	0.8320981723793356	191.3127213562939	0.8069707297549849	192.951115763276	0.41812822076496303	-0.5287449472766532	0.9468731680416163	95.97414429828883
14	5.0	wm	407	diff_vonmises	0.12140348604106002	6.955907368328143	0.6249250500051773	211.3932445599573	0.6137121361864595	212.38848508470764	0.18255561891289318	-0.3183894529020854	0.5009450718149786	109.58146090296253
15	6.0	ltm	407	diff_vonmises	0.15292997439863487	8.762242094085508	0.9271507068111272	124.80409344525475	0.9082856471240498	125.88399728730826	0.09778988332157468	-0.27513507500597534	0.37292495832755	87.03340662096281
16	6.0	perception	407	diff_vonmises	-0.3687291365740738	-21.126623309197353	0.6866698663943193	3.2433073330146662	1.8456346584453203e-11	4.571314621034499	0.18712269912375423	-0.4958974636631726	0.6830201627869268	141.08008873697443
17	6.0	wm	407	diff_vonmises	0.34381817791264224	19.69933051427246	0.5335496165552237	238.1751347957715	0.5234996058231307	239.14173275447553	0.2065017472413615	-0.3484292487821108	0.5549309960234723	118.89655988760856
18	7.0	ltm	407	diff_vonmises	0.010365049687633292	0.5938736015447799	2.188241178307984	0.8887512237697595	0.17248959136855166	3.1819132817764304	-0.11333289407812674	-0.45075220630096935	0.3374193122228426	79.4803962134049
19	7.0	perception	407	diff_vonmises	-0.0016344737830751544	-0.09364844949498759	1.5721282460140167	4.637620906686247	0.4798260469887897	6.217070172291701	0.5562832474138828	-0.542972160902643	1.0992554083165258	88.29345378216127
20	7.0	wm	407	diff_vonmises	-0.07581428361148639	-4.343838477746014	0.9350657123689471	208.50396721032112	0.9181399883126664	210.23559869976137	0.10634741695520233	-0.42364974681545675	0.5299971637706591	85.62180353558566
0	1.0	ltm	408	diff_vonmises	-0.13765313102172785	-7.886943444306351	6.366164740829525	0.4022735477396347	0.061925048084685054	4.172111071513556	-0.3094623995865891	-0.6715938219147691	0.36213142232818	51.44275063465443
1	1.0	perception	408	diff_vonmises	0.038796961232720736	2.22290213656757	12.664854659278888	0.7730182905771353	5.88341689658746e-18	4.240159689139317	0.4112998334316691	-0.6748423740146671	1.0861422074463363	38.09373134657048
2	1.0	wm	408	diff_vonmises	-0.13105054505896913	-7.508643134767955	0.00029529911656132066	3621.8319120012984	9.778210890130458e-33	3626.1907724055873	-0.5235078817491967	-0.8639353482210481	0.3404274664718514	179.49402526394675
3	2.0	ltm	408	diff_vonmises	0.035844121898451785	2.053716905133739	2.9603722493996223	1.2601955442894834	0.4206205405525749	2.985898216319493	0.12639839086632398	-0.41840132175242767	0.5447997126187516	67.16552580947135
4	2.0	perception	408	diff_vonmises	-0.004347679622665529	-0.2491036930537651	5.70329370958048	1.3909049087425487	0.20039322505895518	3.2755613470275216	0.6625614032736239	-0.524729379667179	1.1872907829408028	54.57117234684296
5	2.0	wm	408	diff_vonmises	0.08578694802467272	4.915230059121901	3.218065223919604	0.7762016870519117	2.955037575146948e-18	2.7833125973732438	0.08602360821068217	-0.442130176261697	0.5281537844723792	76.54025881143835
6	3.0	ltm	408	diff_vonmises	0.07910002263387998	4.532097456310609	5.289847720447124	0.5384075395994385	5.622246972696696e-21	1.3988957228870398	0.2583500820971123	-0.22262893464468445	0.48097901674179677	59.331189514998954
7	3.0	perception	408	diff_vonmises	0.002112107659777209	0.12101485478248727	3.470973672701077	2.3087213002793496	0.4032959042337699	3.235897871056573	0.9011313355617618	-0.4441016505438869	1.3452329861056487	67.09438709665739
8	3.0	wm	408	diff_vonmises	-0.1108084060369377	-6.348854000488482	1.21832500912612	115.13239380338135	1.1880973137862287	116.22924596391191	0.2290814765430369	-0.32985786887281954	0.5589393454158564	77.86831727028104
9	4.0	ltm	408	diff_vonmises	-0.04414353925840038	-2.5292384922764017	2.4915189931444552	1.4520364882229255	0.19903382851522633	3.3996318810015316	0.2002658901368487	-0.47192758203490953	0.6721934721717582	78.10773851008068
10	4.0	perception	408	diff_vonmises	-0.09075906856145638	-5.200111581109926	1.0658539733855898	105.8701707339269	0.9970544478508306	108.00382220861997	0.6459170396794178	-0.7029580685124355	1.3488751081918533	85.77321492972061
11	4.0	wm	408	diff_vonmises	-0.2208425367140015	-12.653345290675219	1.8430118271457059	3.0852867532261037	0.4681605066343474	5.377311900415795	0.21978265589364887	-0.5742651026528889	0.7940477585465378	80.12197163033173
12	5.0	ltm	408	diff_vonmises	-0.041938918281576934	-2.4029230148784095	2.047970311332439	1.1487327707314008	6.346434061972248e-18	1.9876701912239154	0.28477861413333017	-0.3063437316778248	0.591122345811155	95.93131819264045
13	5.0	perception	408	diff_vonmises	0.018919298898584874	1.0839959782354203	1.9333337656297858	2.678027274769591	0.16167567504570987	3.7264774710078825	0.6608637807659246	-0.476077356104417	1.1369411368703415	91.80801032000466
14	5.0	wm	408	diff_vonmises	-0.002204888631620256	-0.126330812888216	0.47117945314862053	236.34608966897153	0.4609124536638704	237.44780465565384	0.18717800020827724	-0.38675258686800973	0.573930587076287	125.17007114162054
15	6.0	ltm	408	diff_vonmises	0.37860046892351623	21.69220899099136	0.9046885595771365	119.04585360545785	0.8915443381767193	119.50331482821284	0.15114392316434078	-0.15825053203552386	0.30939445519986464	92.48002924529519
16	6.0	perception	408	diff_vonmises	-0.09674395729765432	-5.543020446549454	0.5081896260376381	188.30758861070672	0.4960752540685884	189.0930827456241	0.23325348201643692	-0.32844676589153465	0.5617002479079716	122.9163229381461
17	6.0	wm	408	diff_vonmises	0.08973057230187204	5.141183086190752	0.5260097250212065	102.41499251044112	0.512168680607908	102.90403921342879	0.1439176305012495	-0.20092476162894712	0.34484239213019663	121.15992263756944
18	7.0	ltm	408	diff_vonmises	0.12234324663430217	7.0097516840736285	0.9537673878622738	1.2654335239758019	3.413811879838362e-14	2.277226223486431	0.058891872996886585	-0.2998880398948192	0.3587799128917058	130.37757362065219
19	7.0	perception	408	diff_vonmises	-0.09767168245957868	-5.59617518287581	0.8991119658237714	208.19294636923973	0.8813534540158978	208.75366466900178	0.5254719466474569	-0.3310824184321497	0.8565543650796066	96.23719521895634
20	7.0	wm	408	diff_vonmises	-0.023627421879061555	-1.353751554445288	1.6056227871082962	1.706288378766655	0.3338997979698533	2.599247650306756	0.20834199450153046	-0.2712493033177535	0.47959129781928395	90.85893174514638
0	1.0	ltm	409	diff_vonmises	-0.16903920893221602	-9.685233244046104	5.538163098484768	0.3104512469587989	1.1469105802688091e-09	2.9853583560932675	-0.19094263134463862	-0.47513014030542805	0.2841875089607894	57.95366400147722
1	1.0	perception	409	diff_vonmises	0.02002386569340308	1.147282993768796	12.061569694182076	0.7382234419614693	2.299293267744309e-16	3.2851812686127877	0.48890473649405886	-0.5228528378188559	1.0117575743129148	39.04329353438905
2	1.0	wm	409	diff_vonmises	-0.2576126842744531	-14.760119557962355	0.00016063956342307197	6599.067286861911	1.850020561466968e-29	6602.118227801164	-0.3168514497178876	-0.6542796626852123	0.3374282129673247	178.1007546275044
3	2.0	ltm	409	diff_vonmises	0.10721227582779373	6.142810916925035	5.116136449417864	0.6531387436704871	0.29634914864390627	1.9876296658606907	0.15705002728028922	-0.322734018629343	0.4797840459096322	55.31240328087833
4	2.0	perception	409	diff_vonmises	-0.008467870345776231	-0.48517323227696313	6.844356497978934	1.212757187939409	0.14758211441462316	2.5911586090075396	0.7651641573514534	-0.41848084938472047	1.183645006736174	50.69730667691721
5	2.0	wm	409	diff_vonmises	0.0696933389817366	3.9931341838280856	2.2277320549147226	0.8167006718235511	2.5651162612020487e-21	2.3492105276824407	0.07565246469704606	-0.36866708210307697	0.44431954680012303	92.0921688314674
6	3.0	ltm	409	diff_vonmises	0.1293371759407338	7.410474315545019	6.736743809105541	0.38296579023939026	1.665213018721645e-14	0.9509856020107266	0.23718782407384922	-0.1513535121936827	0.38854133626753196	52.44831731410997
7	3.0	perception	409	diff_vonmises	0.0015013598816862993	0.08602158475088557	3.5504191118834343	2.1557179178363604	0.4276068540972313	2.722203803766253	0.9171123212212392	-0.36988554046881994	1.2869978616900593	66.66744441113883
8	3.0	wm	409	diff_vonmises	-0.12034289621698037	-6.895140047613856	1.3203793642255737	104.01964298431277	1.2923709519116853	104.7318541377117	0.24690297183117593	-0.24880914973875612	0.49571212156993205	76.18059973423237
9	4.0	ltm	409	diff_vonmises	0.03330211216822809	1.9080704761107328	2.8115455618042207	1.222986997253771	0.38274233650753003	2.655835211074206	0.1740648096842452	-0.3622107088094962	0.5362755184937413	70.09207724970344
10	4.0	perception	409	diff_vonmises	-0.08668159003181701	-4.966489270306382	1.9934301759347475	3.9819252379890195	0.4242284404739548	5.746396536994487	0.7131347993555532	-0.6170858618807383	1.3302206612362917	82.38413481113807
11	4.0	wm	409	diff_vonmises	-0.20501902298852376	-11.746724737138013	1.1574641878479468	349.12894410438764	1.143409828539908	350.94610678950033	0.24288137532906262	-0.49914185552002976	0.7420232308490924	78.32228743123781
12	5.0	ltm	409	diff_vonmises	-0.03643470194861875	-2.087554649472931	1.9404755222231962	1.0157377103671128	1.7988255970231614e-14	1.6314814391326358	0.25485010053281826	-0.24904336379846728	0.5038934643312856	98.41519616938587
13	5.0	perception	409	diff_vonmises	0.02129744325867056	1.2202536131411699	2.0960864707465827	2.1619702115958046	0.04687591039026349	2.8563088803770715	0.6711766761919329	-0.4161992217153718	1.0873758979073047	93.0395551821941
14	5.0	wm	409	diff_vonmises	0.05965168095164252	3.4177895593900427	0.5253942621720942	169.64347221770944	0.5136416353476215	170.42917171917543	0.17784554448227397	-0.29113544154897575	0.4689809860312497	120.30831287091625
15	6.0	ltm	409	diff_vonmises	0.4351160785066025	24.930314896711316	0.9678966826806247	111.15107453880167	0.954954810102128	111.52389830527066	0.1487465514860915	-0.13702254568244499	0.2857690971685365	89.95045245812722
16	6.0	perception	409	diff_vonmises	-0.1235031984956551	-7.076212030167495	0.5980465386863435	209.4117762333412	0.5873728483802593	209.99657723651106	0.26885090000372003	-0.2792654309409386	0.5481163309446586	115.46917935808119
17	6.0	wm	409	diff_vonmises	-0.057592169406905834	-3.2997882400181617	0.5864126541733493	109.2604731234471	0.5722960747832959	109.72904136565235	0.16932360712059946	-0.2007459149921651	0.37006952211276456	115.94417342860164
18	7.0	ltm	409	diff_vonmises	0.13408459355168095	7.682481308238372	1.335102402474043	0.8805154503310899	1.1397923492437631e-17	1.6669846626610927	0.09025912645071815	-0.24068900869249468	0.33094813514321286	115.76036686591198
19	7.0	perception	409	diff_vonmises	-0.10097641262509034	-5.785522273789199	0.9576339993247215	215.56805507053102	0.9405975932219589	215.91043545364587	0.5843209560108988	-0.30030693311822887	0.8846278891291277	94.46698000387461
20	7.0	wm	409	diff_vonmises	0.016935106252782467	0.9703101138900461	1.4818000734452534	1.3261574892515864	0.23015113984567628	2.0932737329984348	0.1563254171756498	-0.23402134629918475	0.39034676347483455	97.63735425917326
0	1.0	ltm	410	diff_vonmises	-0.2054993927682783	-11.774247898123578	4.539088168473031	0.2773459058794033	5.869953052670483e-27	3.983399679271236	-0.40562670718467786	-0.6339516858280891	0.22832497864341128	64.16104048365256
1	1.0	perception	410	diff_vonmises	0.07260352677477007	4.159875661959394	12.095141995343328	0.7062484039622079	6.216969782222061e-16	3.8447959462614016	0.35738622262107067	-0.611918279996928	0.9693045026179987	38.98870462502674
2	1.0	wm	410	diff_vonmises	0.1726833501064562	9.894027153279914	14.739992991537427	0.30825319472577994	1.5433249485864247e-43	4.430568970619641	-0.23715592471656194	-0.7051469523836126	0.46799102766705064	35.287166368172876
3	2.0	ltm	410	diff_vonmises	0.10441940080164754	5.982790965219369	9.329381623861018	0.458736847690949	0.13667812239358187	2.2075996576796606	0.15016106504309623	-0.36925818708531744	0.5194192521284137	43.045386155445016
4	2.0	perception	410	diff_vonmises	0.023353326117216217	1.3380470241091273	7.898899055432797	1.2884880669675447	0.1636549677637293	3.2118623593487348	0.822082324038626	-0.5297692554147944	1.3518515794534203	47.078381707039085
5	2.0	wm	410	diff_vonmises	0.06569967918213997	3.7643143325001365	3.0650268722609906	0.7293600255763831	1.6505767938920155e-20	2.846898366848528	0.030454153136601103	-0.4520454592489318	0.4824996123855329	78.47102033089234
6	3.0	ltm	410	diff_vonmises	0.14338382600862354	8.215288080732252	6.965649390665939	0.3533598899488119	7.131012085568346e-15	1.1077882735697144	0.18854620955136317	-0.17630965464168616	0.36485586419304933	51.558637217727664
7	3.0	perception	410	diff_vonmises	-0.0023883908782367036	-0.13684471715050722	4.519881809155923	1.5168130259241763	0.11156076362500847	2.236871128132986	0.8492497843141047	-0.3423305881383115	1.191580372452416	62.72288788981342
8	3.0	wm	410	diff_vonmises	-0.04294277682001863	-2.4604398723592897	1.305621979497537	137.58294668044428	1.2818347211285264	138.57358346821198	0.2050155986184663	-0.3018851725843774	0.5069007712028437	74.90038936407211
9	4.0	ltm	410	diff_vonmises	-0.06324664885961188	-3.623766048001662	1.9201647293541364	1.498517933867496	0.31433176242315025	3.7645488234369053	-0.046336437382350826	-0.4752963326580635	0.42895989527571265	79.56724060207182
10	4.0	perception	410	diff_vonmises	-0.07214177283249493	-4.133419109893501	0.9826812074731118	294.45375494080605	0.9598625596060116	296.7576786408446	0.504268843915554	-0.6922540579894481	1.196522901905002	87.31788024638035
11	4.0	wm	410	diff_vonmises	-0.15734706465731246	-9.015322723636084	1.0722345560410191	265.58492794047277	1.0543579034592123	268.0303789682779	0.031907905276199244	-0.5719526460725533	0.6038605513487525	77.75723768363935
12	5.0	ltm	410	diff_vonmises	-0.0800181243149996	-4.584700807802629	2.2340906432359215	0.8721835098117717	2.3620645868243974e-15	1.8886704934883902	0.18027915733869998	-0.2950759016700145	0.4753550590087145	91.97134209301291
13	5.0	perception	410	diff_vonmises	-0.005091400904997483	-0.29171578366544354	1.7220696655310372	3.0031553921470504	0.25004736625984836	4.125451027409627	0.5846077656005175	-0.46698408995315416	1.0515918555536716	93.06575896552741
14	5.0	wm	410	diff_vonmises	-0.005602065368497949	-0.3209747021713328	0.5803468150454247	220.19444602346329	0.5692643969735658	221.37544351026972	0.15389093418585276	-0.35553271725879654	0.5094236514446493	112.616205866982
15	6.0	ltm	410	diff_vonmises	0.4340622888460448	24.869937196666836	0.8277007087627024	142.20857708704204	0.8161717594520714	142.9212732253431	0.09442193096708706	-0.1942526585104325	0.28867458947751956	93.4297021030876
16	6.0	perception	410	diff_vonmises	-0.17624438808358847	-10.098059600055398	0.48361235657746215	214.25634040814035	0.4722169601247587	215.0896026690268	0.2534215349771429	-0.35896382628220636	0.6123853612593493	125.37858745998454
17	6.0	wm	410	diff_vonmises	0.1376080680821677	7.884361528057101	0.3336965408227712	140.1320221193697	0.321210905572276	141.04882772163484	0.11931690213069146	-0.3301550853801505	0.44947198751084194	140.39685950601796
18	7.0	ltm	410	diff_vonmises	0.2093586240790656	11.995365564396431	3.0412139752786627	0.5701634348588269	0.159819309545322	1.9762968733493256	0.009644384281127127	-0.29463018676613334	0.30427457104726047	71.12134400677556
19	7.0	perception	410	diff_vonmises	-0.0769497926666823	-4.408898354207627	0.8765452284222345	192.1233582505579	0.857222401194572	192.66361283135177	0.5380256079575361	-0.3357691595779997	0.8737947675355358	97.67750423247705
20	7.0	wm	410	diff_vonmises	-0.1758625916111397	-10.076184273551101	1.977292711377903	0.8890684837726107	0.0988945983248272	2.191021180327991	0.07147952293846749	-0.3088005149340148	0.38028003787248227	90.29856488933122
0	1.0	ltm	411	diff_vonmises	-0.0387787148949779	-2.2218566984233354	5.681669283782178	0.38980127650396257	0.12036696195611647	3.6255429822064547	-0.2867791439599248	-0.5913613568360788	0.304582212876154	52.479904698301226
1	1.0	perception	411	diff_vonmises	0.00044558368062678566	0.025530064319820002	13.537763090629873	0.6250462340142519	0.033372987602000886	3.806321586402347	0.28252838597316166	-0.6148667651637094	0.8973951511368711	36.561450724995865
2	1.0	wm	411	diff_vonmises	0.007762974096262792	0.4447856521852424	5.898161066289544	0.4477697671386575	0.10868364033867786	4.337098163792678	-0.3435475257318109	-0.7065429908498713	0.36299546511806036	51.89676328304188
3	2.0	ltm	411	diff_vonmises	-0.020791837740260347	-1.1912845508377405	4.618608623040626	0.7489850720528373	0.25017080804322483	2.3424962220961127	0.1510753068463609	-0.371328565057666	0.5224038719040269	58.33900095326766
4	2.0	perception	411	diff_vonmises	-0.017004564578310764	-0.9742897827948632	5.851223813238967	1.3342658513848995	0.28276188308451816	3.3025300707887215	0.5738279801027435	-0.5408259609101168	1.1146539410128602	52.994135519812005
5	2.0	wm	411	diff_vonmises	0.07957915387782066	4.559549654421263	4.335949284809316	0.5939506581621771	1.5062941377147374e-13	2.492825668347821	0.08030777785463866	-0.3966637712224769	0.4769715490771156	65.69118355743836
6	3.0	ltm	411	diff_vonmises	-0.1744917776141394	-9.997642417025524	2.8972628266680673	0.8778507053371102	0.14584949564364372	1.6281372721455014	0.26538771879967255	-0.2336926334223368	0.4990803522220093	75.99247271749917
7	3.0	perception	411	diff_vonmises	-0.03078596282767598	-1.7639057382724714	4.0051463840971255	2.3208193999148192	0.44824948761997696	3.4050827493820597	0.9782041080596006	-0.49229224298710567	1.4704963510467062	62.4512176543858
8	3.0	wm	411	diff_vonmises	-0.2312782309568819	-13.251266527081237	1.4125636061615614	211.984504308724	1.3956850801059284	213.10098050689572	0.17506317699731255	-0.3318117653304924	0.506874942327805	70.89412178378689
9	4.0	ltm	411	diff_vonmises	-0.16400494030134546	-9.396790898562118	1.7839659631240865	2.481129621916393	0.5201189147147388	4.062281058364106	0.17654626339436819	-0.40644520358904124	0.5829914669834094	80.122144877935
10	4.0	perception	411	diff_vonmises	-0.09032860691923185	-5.17544794576819	3.218276306435265	2.292348562117053	0.22734846165498032	4.233318340988233	0.7274183558348383	-0.6048534373941383	1.3322717932289767	70.79668122468286
11	4.0	wm	411	diff_vonmises	-0.2175363996839176	-12.463917592359495	3.196609555524118	0.6598904969856857	5.618321900592732e-08	2.788266732732351	0.004227653444146329	-0.4430168186663737	0.44724447211052004	76.80119744929422
12	5.0	ltm	411	diff_vonmises	-0.03202928434241284	-1.8351428136447059	2.556287014602933	1.1633646581269224	8.6082139332262e-17	2.020890792884446	0.3730118299477762	-0.3174525050963688	0.6904643350441451	86.02857801216038
13	5.0	perception	411	diff_vonmises	-0.043716465641703846	-2.5047689764983025	2.012060744810726	2.2401520801375208	0.11610355467420555	3.367571636963925	0.5598574401495393	-0.45592309143658627	1.0157805315861257	91.53224314705778
14	5.0	wm	411	diff_vonmises	-0.19976069238920616	-11.445444586512618	0.3851566398366765	204.24482623361342	0.3729866611095157	205.49812840793294	0.17403111951313832	-0.4426880643977711	0.6167191839109094	134.31088338980436
15	6.0	ltm	411	diff_vonmises	0.14682456506081154	8.41242790682847	0.564527759367401	84.06644372364356	0.5466014663467325	84.59073051563581	0.1498865012859767	-0.2066036676570997	0.3564901689430764	117.41093484583374
16	6.0	perception	411	diff_vonmises	-0.07110770717200267	-4.074171511807887	0.7716750491072332	180.37817877120114	0.7570435266958812	181.27794494576275	0.2381111799858786	-0.2998039127335286	0.5379150927194072	99.62376443779758
17	6.0	wm	411	diff_vonmises	0.4364257295323202	25.005352373119916	0.0002682756602359835	3901.9584450089997	7.277095694559086e-29	3902.4615775354614	0.08653861408311059	-0.24666832348918888	0.33320693757229947	174.18256080559132
18	7.0	ltm	411	diff_vonmises	-0.07920786571504147	-4.538276409710849	0.8596778864190053	150.9874584754293	0.8456105306164893	151.97715336061106	0.09610671301718554	-0.25513200709885275	0.3512387201160383	90.6714400542599
19	7.0	perception	411	diff_vonmises	-0.15328000432434144	-8.782297331531772	0.6901377461899888	176.05139427853493	0.6696004517424763	176.96063101974315	0.43498830972190206	-0.4117624809039775	0.8467507906258795	108.02376891907738
20	7.0	wm	411	diff_vonmises	-0.2155451750733588	-12.349828826111894	1.178063688515632	119.672579958319	1.1592735694630882	120.42931571401581	0.13604326433293323	-0.21947916801853928	0.3555224323514725	78.58699570252307
0	1.0	ltm	412	diff_vonmises	0.051566387123441755	2.9545363469109662	8.297302146348592	0.3670891209621833	0.16700681930913341	2.746226610915418	-0.09783954421713859	-0.46588511485776857	0.36804557064063	44.34050325376032
1	1.0	perception	412	diff_vonmises	0.009524945837881375	0.5457391966013024	15.721369519274095	0.5583844586397175	0.04359661265217983	2.8282062680587883	0.40563752067858583	-0.46024416784457267	0.8658816885231585	33.947691782829196
2	1.0	wm	412	diff_vonmises	0.061178766486207334	3.5052851154760853	3.160182691223368	0.8746422230057445	0.29795197582786337	3.830977570504057	-0.21346212428502132	-0.5876693932978545	0.3742072690128332	63.47130130200185
3	2.0	ltm	412	diff_vonmises	0.10741610404899428	6.154489413745486	5.806131001178925	0.6308737665695892	0.5415993561971305	1.4900215709378526	0.21286852361626446	-0.2573494458820633	0.4702179694983278	50.8217928122063
4	2.0	perception	412	diff_vonmises	-0.006558441355603392	-0.3757710098601327	7.131994795954606	1.2212587352945636	0.4000259388813	2.436309548725418	0.72046201799515	-0.4209342325056009	1.1413962505007509	48.13753226142089
5	2.0	wm	412	diff_vonmises	0.04259645247228573	2.4405969488915735	1.1008807737137722	69.54910347071092	1.0556139024333056	70.98123499761188	0.08647615210673365	-0.35624384296909284	0.4427199950758265	79.0312826024919
6	3.0	ltm	412	diff_vonmises	0.04287134070584851	2.4563468845125276	2.0007563158989523	93.7246180644437	1.9741237728830787	94.03843795621158	0.2296805542478353	-0.16671694032376294	0.39639749457159823	62.71034604051201
7	3.0	perception	412	diff_vonmises	-0.0678095375372735	-3.8852003116197023	5.373879159214438	1.357488630279587	0.19593678530441042	1.7991314667546858	0.8781049331970736	-0.27955316262895213	1.1576580958260259	57.11463371811186
8	3.0	wm	412	diff_vonmises	-0.0801080282088247	-4.5898519214806	1.5325638555383925	194.7999507518483	1.5176374195140065	195.59971312374145	0.15706107933941382	-0.25481331093898874	0.41187439027840256	68.44978801801426
9	4.0	ltm	412	diff_vonmises	-0.17970997968085545	-10.296623372094798	1.3087942859488424	209.83937784432464	1.2941756007818783	210.991424624116	0.100764459600029	-0.31065583336415514	0.41142029296418414	72.31402932293716
10	4.0	perception	412	diff_vonmises	-0.07023557116818845	-4.024201799627927	3.824193425486217	1.636897736774995	1.7400776120221007e-16	3.0904775202397454	0.7360827566564112	-0.4912792725094974	1.2273620291659086	70.05618573895558
11	4.0	wm	412	diff_vonmises	-0.015700536104129324	-0.8995744548593823	1.0416873617908955	216.66941796156476	1.028155897801002	218.44293275506448	-0.06262529613368883	-0.38825294278755607	0.32562764665386723	76.19111937412848
12	5.0	ltm	412	diff_vonmises	-0.07430928922554769	-4.257608651240845	3.1270011311762014	0.7564054568611723	3.4669059992415783e-13	1.4997094419626271	0.2685187767767039	-0.23771088427957596	0.5062296610562799	77.67402053085243
13	5.0	perception	412	diff_vonmises	-0.082456022493175	-4.724382084294712	1.2490621115154006	5.5749729002482455	0.5328538698515918	6.613173147885675	0.491563041707181	-0.4200318937942339	0.9115949355014149	95.05169208527509
14	5.0	wm	412	diff_vonmises	-0.08368198839867791	-4.794624756506963	0.3193587576730019	63.98968533113146	0.2927159397055402	65.05999753336611	0.0820849565679147	-0.3491659080935845	0.4312508646614992	142.47898010863946
15	6.0	ltm	412	diff_vonmises	0.09872467446163892	5.656507180454893	0.7173347307263975	101.36366472252134	0.7033773371504519	101.98758649060856	0.09182243846827376	-0.179371161067591	0.27119359953586475	101.21963052446876
16	6.0	perception	412	diff_vonmises	-0.18229530047842255	-10.444751342482789	0.7833402894121687	224.25632703439402	0.7691849823190222	225.27350493641367	0.30329165022897087	-0.35214562480014067	0.6554372750291115	99.2918518423662
17	6.0	wm	412	diff_vonmises	0.3736718990766489	21.409822739730423	0.00021332593987683776	6730.50550355268	8.233074001706081e-30	6731.319548996118	0.09896028358161857	-0.3580546246173526	0.45701490819897117	175.66204179026266
18	7.0	ltm	412	diff_vonmises	-0.09102441979989125	-5.215315087160814	1.0937691609697944	192.0081505582658	1.081712624834508	193.10732394754785	0.04151402516890812	-0.2664095465881253	0.30792357175703344	77.85692334811986
19	7.0	perception	412	diff_vonmises	-0.07450843700512204	-4.269018978509856	1.6619419414873964	1.935938534025703	0.03662024721670319	3.172703039831715	0.36883162311631323	-0.4544910530270089	0.8233226761433221	103.55734776429902
20	7.0	wm	412	diff_vonmises	-0.1501671516384341	-8.60394401038332	0.9074660063328656	135.97304369038412	0.8945393947922617	137.12599780287192	-0.03615112868009618	-0.246403553468987	0.21025242478889083	82.11623706492756
0	1.0	ltm	413	diff_vonmises	-0.16051943254418702	-9.197086014616831	5.192345573501228	0.28120016093144046	1.0113744135311612e-18	2.756024012787496	-0.18985524846693586	-0.43862715666717284	0.24877190820023698	59.89198522841298
1	1.0	perception	413	diff_vonmises	0.015385374200966393	0.8815170079448356	12.422160692321636	0.717927454415166	1.225828939147167e-16	3.195512839797436	0.490301302662717	-0.5085816641511716	0.9988829668138886	38.46554484467259
2	1.0	wm	413	diff_vonmises	0.05799527210064824	3.3228843230799563	10.615464235435502	0.312622042397438	6.691484280545499e-15	3.039924155896473	-0.08254301434473132	-0.48381895579376816	0.40127594144903683	41.6481761200898
3	2.0	ltm	413	diff_vonmises	0.00021882113738899627	0.012537527640641824	2.0324231343135457	1.7771173383604841	0.5890888696079514	3.1549167476373925	0.09444232780045536	-0.3408156846264827	0.43525801242693807	73.92981198437292
4	2.0	perception	413	diff_vonmises	-0.012970476575538802	-0.7431535660516703	6.564292821244705	1.234109011007663	0.18125440515367194	2.6605279330304685	0.7319169264864345	-0.4309706165049301	1.1628875429913645	51.427150824243995
5	2.0	wm	413	diff_vonmises	0.08771831122501314	5.025889019208287	2.6999470915133164	0.7422238294911371	9.214709813095103e-25	2.035356458161095	0.13360095207759143	-0.3218703140666841	0.4554712661442755	83.68883063112565
6	3.0	ltm	413	diff_vonmises	0.0759157773426384	4.34965364018806	5.663464930347116	0.48411754359845255	1.852638179599757e-23	1.132607603916128	0.268168086119387	-0.18025469666230845	0.44842278278169545	57.29465009106798
7	3.0	perception	413	diff_vonmises	-0.0012230921080637147	-0.07007801574780965	4.271427475556842	1.7888636059675878	0.3155405810950697	2.3387364349736295	0.9275138924277129	-0.34440216533611034	1.271916057763823	62.49115040813908
8	3.0	wm	413	diff_vonmises	-0.13005593712818853	-7.451656298063987	1.379081237777416	141.52479905669102	1.3598405514238228	142.03896240525805	0.27885860550502883	-0.21353931366105883	0.49239791916608766	75.7059760765633
9	4.0	ltm	413	diff_vonmises	-0.011492643005122784	-0.6584799396440829	2.692657680290638	1.332988237485879	0.41491657875669946	2.675049562609303	0.20257907605139291	-0.35300326325498943	0.5555823393063823	71.10996055514073
10	4.0	perception	413	diff_vonmises	-0.06292613222644444	-3.6054017976574246	3.4893413434224034	1.7738384487194887	1.0706384783474807e-13	3.644804546197884	0.6847685395817286	-0.5789102133012046	1.2636787528829332	73.43616794382615
11	4.0	wm	413	diff_vonmises	-0.15944665167701852	-9.135620198585691	1.129893314630444	304.28226424727575	1.1158838141313872	305.8438241124561	0.2282162775293557	-0.43337923802475586	0.6615955155541116	79.60205261885466
12	5.0	ltm	413	diff_vonmises	-0.03309102906317789	-1.8959763050648393	1.8918515750911924	1.1532799850761148	1.655527563219518e-17	1.7870366901293673	0.2908410587827753	-0.27133526154535714	0.5621763203281325	99.5937964765161
13	5.0	perception	413	diff_vonmises	-0.004292650357414341	-0.2459507484051661	1.9882277006499884	2.241777121287609	0.08490205057538158	2.9725294880266238	0.6382719962281173	-0.4121925093447355	1.0504645055728528	93.859147309837
14	5.0	wm	413	diff_vonmises	0.017751835543278076	1.0171052552401585	0.5274718344327641	169.65738230369965	0.5158885847650218	170.262048584936	0.21749465108631227	-0.2712429934172178	0.4887376445035301	121.52489932626082
15	6.0	ltm	413	diff_vonmises	0.25772567623973536	14.766593520691917	0.9132410180106213	109.87769100371646	0.8998756399274074	110.19784359089572	0.1762901874129028	-0.13824882445499576	0.31453901186789857	93.81336319780308
16	6.0	perception	413	diff_vonmises	-0.15767322843849418	-9.034010531727825	0.6108714336434625	149.90297089370878	0.5974448221744	150.4674641273951	0.23146383957977434	-0.25171135648410115	0.4831751960638755	114.04142916056459
17	6.0	wm	413	diff_vonmises	-0.02789951512269435	-1.5985244669918015	0.726286846969809	92.213232829521	0.7118920408421123	92.43208190817658	0.19040861025340305	-0.1370446623751187	0.32745327262852175	106.83667534791246
18	7.0	ltm	413	diff_vonmises	0.08905951963025603	5.102734600276176	0.512799901882117	83.00382228905727	0.49268689820765027	83.82380467051213	0.11095618520525363	-0.26294027730764924	0.37389646251290287	120.43274783176713
19	7.0	perception	413	diff_vonmises	-0.1238121003856211	-7.093910804746161	0.957371834485676	133.30958549927433	0.9265773289665515	133.80629804646532	0.6171931877720738	-0.34642762812746497	0.9636208158995387	94.20631502696392
20	7.0	wm	413	diff_vonmises	0.020089713929472505	1.1510558197839553	0.8973397995189695	65.47814347678442	0.8677657346796885	66.01141830134814	0.2002694525540889	-0.1947406767203752	0.3950101292744641	93.78345228899295
0	1.0	ltm	414	diff_vonmises	0.06185231220022168	3.543876442198233	9.478917174172002	0.3983245953052329	0.05052950420018979	4.081495422484846	-0.2005097378813125	-0.6616217449605623	0.46111200707924976	43.01496122593065
1	1.0	perception	414	diff_vonmises	0.060664027456112574	3.475792741500998	15.26471925431536	0.5864693267256681	0.038989421848461235	3.775791441205653	0.2813286540297799	-0.6129584436262661	0.894287097656046	34.42034301105164
2	1.0	wm	414	diff_vonmises	0.05780498139091757	3.31198146853184	2.873010518561429	0.6950906904344579	0.05319750827003239	5.118499885988875	-0.41442734698118344	-0.791331805581885	0.37690445860070154	74.71942271831082
3	2.0	ltm	414	diff_vonmises	0.1298942137953514	7.44239023364363	8.998201922584782	0.5594663650850314	0.28766687106058153	1.861802306964722	0.27249312258060104	-0.3285415971500536	0.6010347197306547	43.14139602290936
4	2.0	perception	414	diff_vonmises	0.02731956814202124	1.5652959526578771	5.681011493477821	1.4142560230488737	0.3557830888574498	3.18972894577069	0.6098818805209915	-0.5245984941938197	1.1344803747148111	53.22566868466487
5	2.0	wm	414	diff_vonmises	0.0810757002395709	4.64529544479521	1.21259422483031	7.1614860107306235	0.7295465334937926	9.32243336911712	0.026498739590973486	-0.4929715859284717	0.5194703255194452	82.03964095601401
6	3.0	ltm	414	diff_vonmises	0.06839686115177786	3.91885147593917	1.5554063825835536	103.35693670279228	1.527919508583781	104.1162489673124	0.16003679750129862	-0.24620345040360903	0.40624024790490765	68.25043579665328
7	3.0	perception	414	diff_vonmises	-0.04027489773911247	-2.307581660772126	4.004438165170418	1.882847239317608	0.25964460230290676	2.8873611568709197	0.8625751266449582	-0.4256390924550979	1.288214219100056	64.47517214257002
8	3.0	wm	414	diff_vonmises	-0.00904823023270886	-0.5184254043968924	2.6017048660589093	1.283678176060066	0.40024981142980504	2.9891355096553522	0.09207371471114523	-0.40143751204293543	0.49351122675408066	70.7579110974757
9	4.0	ltm	414	diff_vonmises	-0.11478894548167885	-6.576922110857499	0.9414382957820422	247.69889721130673	0.9272636454488951	249.6805344844155	0.01761171541352269	-0.4505320912944164	0.4681438067079391	82.9903383497172
10	4.0	perception	414	diff_vonmises	-0.047240022177266125	-2.706653894861759	1.0705827896811124	348.85770806101965	1.0511140906258714	350.8864347708255	0.5644157265406164	-0.6504333971199117	1.214849123660528	84.21974412500484
11	4.0	wm	414	diff_vonmises	-0.07401970678570523	-4.24101679961677	0.8627696156805095	181.43680766689354	0.8417740732927649	184.22632416409544	-0.14243652496463	-0.5747706031756934	0.4323340782110634	82.89755079772664
12	5.0	ltm	414	diff_vonmises	-0.08905367844793506	-5.102399925181818	2.2829042942325533	0.9067032431441121	3.4895832797311613e-17	1.97324104292633	0.19236418897237562	-0.3087835667823026	0.5011477557546782	90.99664402151151
13	5.0	perception	414	diff_vonmises	-0.03599572030082059	-2.062402853770398	1.5628216649379565	3.446950614159684	0.30965061517835457	4.979609507985895	0.47594462452091624	-0.5170899345105184	0.9930345590314347	93.45569126766705
14	5.0	wm	414	diff_vonmises	0.12796163823547885	7.3316618104728	0.48862506103143805	3.2662710444643137	6.099434438137647e-13	5.058601946292691	-0.006131652092523199	-0.5044086089834715	0.4982769568909483	152.45804370984
15	6.0	ltm	414	diff_vonmises	0.4881099648004609	27.966640921345583	0.5500664282597537	153.30539472430956	0.5388168537588195	154.39973469520058	0.046400997254863796	-0.2817129282125297	0.3281139254673935	112.47905441258231
16	6.0	perception	414	diff_vonmises	-0.07909877682894292	-4.532026076945619	0.6115626173490621	349.4201337143093	0.6012296194589848	350.97648861539915	0.2700924493162802	-0.49422757157344677	0.764320020889727	110.5796417071251
17	6.0	wm	414	diff_vonmises	0.31943014188558483	18.301998979309072	0.04638029698598323	36.03830241287703	5.4056691501830595e-08	37.688057819939004	0.006487251126588767	-0.5254538885186122	0.531941139645201	174.26852356151693
18	7.0	ltm	414	diff_vonmises	0.01754194255123778	1.0050792726468767	2.3335280213999647	0.7604835538600526	0.1774847175208336	2.565134288218563	-0.05339910505853529	-0.3650229257791064	0.3116238207205711	78.02637725076136
19	7.0	perception	414	diff_vonmises	0.03752740659112127	2.1501620137426767	0.7468336786417862	208.78555102644467	0.7271143201066151	210.2116041773312	0.3725591751527162	-0.47879153841037336	0.8513507135630896	101.4655512413548
20	7.0	wm	414	diff_vonmises	-0.14570214887326294	-8.34811819642477	0.8147126478969715	227.74943884452833	0.8014400167407442	229.83958143803338	-0.05801418736795938	-0.4437903353330377	0.3857761479650783	87.18209734541372
0	1.0	ltm	415	diff_vonmises	0.5089839825654117	29.162634040758363	0.0003886653775237527	1655.9285286413713	3.156532510994966e-29	1655.9512999588178	0.09881782464015032	-0.10604625445188276	0.20486407909203308	172.21705275603765
1	1.0	perception	415	diff_vonmises	-0.054632725506712825	-3.1302245948313665	11.32309909718864	0.7232010507170034	1.8317801773772892e-35	0.6765482631777477	0.8519681373846529	-0.1076760001846883	0.9596441375693412	40.306364007626655
2	1.0	wm	415	diff_vonmises	-0.48037410448117973	-27.523408774148045	0.0001808756689667515	4020.6112543497256	4.276300280870311e-31	4020.5835018424314	0.12016054598393566	-0.11131618250510655	0.23147672848904222	173.5044893523684
3	2.0	ltm	415	diff_vonmises	0.34446955231091636	19.73665151817644	3.9899925140734567	11.913079672646667	3.8277459531224083	11.936444520422562	0.1880134850393027	-0.08380267252305584	0.27181615756235855	46.03177347893194
4	2.0	perception	415	diff_vonmises	-0.04376706753652999	-2.507668251507205	10.050931427452468	0.9735327618946666	0.21199612844565743	0.46982572489342733	1.123382763407146	-0.07786942116248315	1.2012521845696291	42.54062009818719
5	2.0	wm	415	diff_vonmises	-0.09200533751811682	-5.271517532464742	0.4454579899470048	57.76409139441401	0.4307614433109244	57.60088575413371	0.19513320893914887	-0.08480560370524604	0.2799388126443949	134.79329997499826
6	3.0	ltm	415	diff_vonmises	0.2713691421635942	15.548306536059584	5.6988170581869655	18.109350969667783	5.609841417016101	17.966068210152898	0.27122779475213576	-0.03440069170552684	0.3056284864576626	42.03718614506269
7	3.0	perception	415	diff_vonmises	-0.02899240936471154	-1.6611426945135355	5.717375291621441	0.9911772877123717	4.345229924185526e-13	0.49927052978224695	0.8432525085776528	-0.07945139334588855	0.9227039019235413	57.01840165362668
8	3.0	wm	415	diff_vonmises	-0.11754756953718594	-6.7349796265013175	2.9639172843559853	4.4690148442149615	2.8210148933821766	4.102761665611706	0.3127925945594132	-0.004982125368902662	0.31777471992831585	66.75733304391065
9	4.0	ltm	415	diff_vonmises	0.2991290247514385	17.138830648121765	4.190899854366111	84.50608335265049	4.13863202518213	84.71740052128085	0.28725244196623123	-0.21759402679621687	0.5048464687624481	42.90259395033377
10	4.0	perception	415	diff_vonmises	-0.06021716050918302	-3.4501891514380385	2.7935377200990446	2.035192427181166	1.3197206619304466e-25	2.719130673027736	0.8466852858519289	-0.4279694892792058	1.2746547751311348	82.26795131584228
11	4.0	wm	415	diff_vonmises	-0.12115515225526471	-6.941678890491565	1.701687585207154	197.92026686406547	1.6862708840194096	198.37015952859414	0.30226838913384313	-0.21597708866700316	0.5182454778008463	68.14283497445481
12	5.0	ltm	415	diff_vonmises	-0.005442799241047413	-0.31184942524902437	2.236274662607978	0.5725555030996441	2.4646240564704655e-28	0.33015242918445614	0.2633201600233276	-0.04893854555545387	0.31225870557878144	91.93091091077991
13	5.0	perception	415	diff_vonmises	-0.0011411410354884091	-0.06538256516267434	1.8840364223827675	1.846281428078647	1.041480762092877e-12	1.4302123097554398	0.690991626884005	-0.2064084410046047	0.8974000678886096	99.78700394676727
14	5.0	wm	415	diff_vonmises	0.24814031839895756	14.217392971292718	5.350717406072966	0.3614171710892611	4.122229749758627e-27	2.8387467655083437e-09	0.3248851933149603	7.314126369168566e-06	0.3248778791885911	58.97994279045264
15	6.0	ltm	415	diff_vonmises	0.27255034884840007	15.615984693831601	1.5964585698026297	31.72105812194492	1.5740466870348366	31.578410228566053	0.18572890462173675	-0.029187052447405826	0.21491595706914257	79.2779118566643
16	6.0	perception	415	diff_vonmises	-0.318660742058448	-18.257915616456035	0.8652634678983473	59.272417627323556	0.8410039939622862	59.21736074171286	0.2914950788638855	-0.1120395243300174	0.4035346031939029	102.32631979031234
17	6.0	wm	415	diff_vonmises	-0.2296495140829791	-13.157947924184864	0.661362531479302	80.51041723799644	0.6476192087128275	80.21015934721895	0.2928106069063503	-0.08550916216199322	0.3783197690683435	118.7321484277783
18	7.0	ltm	415	diff_vonmises	0.015263352739677726	0.874525693202976	0.9706365939157992	54.21520715769669	0.9491329422290518	54.3266042056722	0.18425095070955777	-0.09494198612180593	0.2791929368313637	93.88412940703881
19	7.0	perception	415	diff_vonmises	-0.12125567048301085	-6.947438160705554	2.6749041087504577	1.6347978868497588	0.1433499007363649	1.5465126450273246	0.7197000709325801	-0.21095115732294867	0.9306512282555288	81.07891482169563
20	7.0	wm	415	diff_vonmises	0.6047506586191037	34.64966039663148	0.0006356233067551511	964.3234851587783	3.62439701546725e-23	964.3950454085441	0.08617796875466865	-0.1089253024057939	0.19510327116046255	169.21760613348908
0	1.0	ltm	416	diff_vonmises	-0.4082048878309251	-23.388417249323187	0.6544126690133565	190.67156207707473	0.6381951212894471	194.4071313168783	-0.4315073368257316	-0.6752083615632749	0.2437010247375433	84.69737128310702
1	1.0	perception	416	diff_vonmises	0.060254180309462606	3.452310229752476	11.213824315184565	0.7899079589821854	1.2034268920243929e-13	4.5716513119249	0.3150315639152548	-0.7276009041955372	1.0426324681107921	40.51491785253194
2	1.0	wm	416	diff_vonmises	0.14421169324276048	8.262721379245468	13.764841654070462	0.3079118182263745	1.840782565499596e-28	4.61053419526513	-0.28239117646317435	-0.7337893074701595	0.4513981310069851	36.52692069784058
3	2.0	ltm	416	diff_vonmises	-0.017146447598449598	-0.982419081033388	2.869574657569141	1.0690400349691431	0.273507923665465	2.9004446852161734	0.08695403547326352	-0.4146558553153242	0.5016098907885878	70.63438676222052
4	2.0	perception	416	diff_vonmises	-0.006207788797153254	-0.35568009818547536	6.654686655199391	1.3184494089103935	0.1570976639616566	3.3869402225896277	0.7022979039378978	-0.5489961437679672	1.2512940477058652	51.0708123371129
5	2.0	wm	416	diff_vonmises	0.09284040965141822	5.319363641291899	2.431223300661446	0.9351000334690664	1.4610191260892176e-26	2.909579454671859	0.0790394194974336	-0.45888226213971356	0.5379216816371472	88.20716393181829
6	3.0	ltm	416	diff_vonmises	0.04204395814658462	2.408941355823974	5.225633609603209	0.5536274211553214	3.808283104668966e-16	1.3739763611064397	0.27273795932000827	-0.21866091823398873	0.491398877553997	59.70218014795918
7	3.0	perception	416	diff_vonmises	0.03293512122256463	1.8870434438047015	2.6895786890221114	3.9947648487724567	0.7987863887800596	4.9386566994205445	0.9585868422257293	-0.5118085253617193	1.4703953675874486	69.36789024709637
8	3.0	wm	416	diff_vonmises	-0.1411418806972924	-8.086834076493835	1.1882579029031437	147.08208475337864	1.1675992858884117	147.9505360848817	0.2390308935460439	-0.2790126652788949	0.5180435588249388	79.6736666492159
9	4.0	ltm	416	diff_vonmises	-0.0008770422075067132	-0.05025081694497163	2.3168935051119655	1.832476104190722	0.3519415791846766	3.677885660704263	0.22543677511646965	-0.46731914507258454	0.6927559201890542	76.57571272273339
10	4.0	perception	416	diff_vonmises	-0.1165881623399195	-6.680009643263476	1.8967602501036804	5.429362113316304	0.6440535750586779	7.414851038923974	0.6813745585450586	-0.6633990271803221	1.3447735857253806	78.72981216414505
11	4.0	wm	416	diff_vonmises	-0.18634912813801596	-10.677018558250888	0.996006446651287	186.45963881280386	0.9710818062949749	188.38977549089523	0.23137166829159383	-0.5123303018070153	0.7437019700986092	84.72872265524812
12	5.0	ltm	416	diff_vonmises	-0.08034716248897045	-4.603553306469849	2.052830497113973	1.1289136827073705	2.607585317718362e-18	2.3010989780972126	0.2253696044503088	-0.35648125522608226	0.581850859676391	95.81640344252385
13	5.0	perception	416	diff_vonmises	0.013770816060464782	0.7890096407156031	1.384844996791348	5.381577149174375	0.4637016363051963	6.595710244910085	0.6385468866361212	-0.5117514546054425	1.1502983412415637	94.10508966065083
14	5.0	wm	416	diff_vonmises	-0.02414872179894585	-1.383619839715166	0.46172420656723134	198.25987523125252	0.45033147619726926	199.52157511871513	0.11938599455672971	-0.3862978560639796	0.5056838506207093	124.73202320841688
15	6.0	ltm	416	diff_vonmises	0.32441540027897614	18.587633245032563	0.8346534321268323	148.06387406513574	0.8227636165423284	148.83603446237072	0.0982492862206712	-0.20862875676600012	0.3068780429866713	92.89609783224415
16	6.0	perception	416	diff_vonmises	-0.07406337482202678	-4.2435187937976195	0.5690129897689038	227.9239297301436	0.5580964890726252	228.91290841742656	0.21428080548128037	-0.3485002391101908	0.5627810445914712	115.66711543983025
17	6.0	wm	416	diff_vonmises	-0.20934519951968766	-11.994596393802253	0.9748255332842627	86.22365063348262	0.950744583558056	86.98730692944466	0.14013473383401376	-0.21980468636141204	0.3599394201954258	87.09350387721216
18	7.0	ltm	416	diff_vonmises	0.12601210442911515	7.219961751350086	1.3463532729048058	0.9927049821571422	0.048199777824123866	2.0357553314636303	0.06308971237067484	-0.2812997140261795	0.3443894263968543	111.4622126387321
19	7.0	perception	416	diff_vonmises	-0.11099213186116214	-6.3593807148041055	0.830231608568483	107.55191039834449	0.7931934156940236	108.1605867673008	0.5765844634699775	-0.37756864701223414	0.9541531104822116	100.80487858723805
20	7.0	wm	416	diff_vonmises	-0.08362746901491357	-4.791501025915611	1.6971153446617306	1.7177241272427108	0.4192665464627312	2.4188618556232373	0.24143793321430096	-0.2372110265642245	0.47864895977852545	87.39307190060643
0	1.0	ltm	417	diff_vonmises	0.03444944792318061	1.973807972553968	6.157776888298586	0.3882154689839826	0.027629022083769928	2.8257501104118727	-0.08641330607426367	-0.44950932635273544	0.36309602027847176	53.82885905304795
1	1.0	perception	417	diff_vonmises	0.031041053626023333	1.7785213644103974	17.10920053954028	0.6007048046305173	1.472094645179251e-16	2.6631398930952996	0.5598388893980663	-0.42385187813133723	0.9836907675294035	32.73738271482645
2	1.0	wm	417	diff_vonmises	0.09000382339046527	5.1568392203145	5.230767690578891	0.45706520181274346	0.0080277199820772	3.110568515194476	-0.09308467466928733	-0.4934971357734232	0.40041246110413586	59.18062328947721
3	2.0	ltm	417	diff_vonmises	0.1521847138796698	8.71954181171108	4.1034792568503455	0.8520450283064145	0.5317011644348025	1.9021732711074266	0.18361841263828244	-0.2941139425887552	0.4777323552270376	58.46261919982484
4	2.0	perception	417	diff_vonmises	0.018357382961404958	1.0518005665938728	5.542633703329474	1.3985310035090248	0.38777285537885114	2.534520553767665	0.7081594926140381	-0.4104474042141527	1.1186068968281908	54.152336713226305
5	2.0	wm	417	diff_vonmises	0.09084071545360814	5.204789603440582	3.1166008646181034	0.8262847216374781	0.19148283761377394	2.025003420335744	0.16627160418607223	-0.2954049758982686	0.4616765800843408	71.2639246468921
6	3.0	ltm	417	diff_vonmises	0.13896546217227965	7.962134480556517	5.564910726445133	0.5321073308109956	0.32133033888932055	1.189784669762118	0.23387381273892072	-0.19347120095630366	0.4273450136952244	54.060153533579694
7	3.0	perception	417	diff_vonmises	-0.06456242554611577	-3.6991544989200427	5.853476502716053	1.0759457439621476	5.498105413857245e-14	1.4592960170117164	0.7818908451197081	-0.23224582033803803	1.0141366654577462	56.337823776137924
8	3.0	wm	417	diff_vonmises	0.015481759139035526	0.8870394581048267	2.669535430820389	1.4255216206428927	0.6649233137579026	2.1405486660645416	0.2781740284593177	-0.24800581411415798	0.5261798425734757	69.3012730044031
9	4.0	ltm	417	diff_vonmises	-0.16779258997063332	-9.613807238886436	1.0120543310609118	113.99037074855592	0.9861082207856915	115.51764639341224	0.04164802612151419	-0.3594098753903996	0.4010579015119138	80.97692562414508
10	4.0	perception	417	diff_vonmises	0.04043730681075965	2.316887015132147	2.012395867940062	2.157068019654338	5.843405334421377e-15	4.2590449271144735	0.43908020060676634	-0.6578905056206347	1.096970706227401	96.73249188387294
11	4.0	wm	417	diff_vonmises	-0.004377691817649293	-0.2508232651602585	1.2420937551438964	266.12956059415484	1.225204349517583	268.0741430950933	0.07970527915701098	-0.48985778675422154	0.5695630659112325	72.99648765757416
12	5.0	ltm	417	diff_vonmises	-0.060222525854473796	-3.4504965630788305	1.9740224578262335	1.0031640949801277	6.916243591164245e-18	1.5646848884842712	0.2643832414190247	-0.2391212120056905	0.5035044534247152	97.62356323743013
13	5.0	perception	417	diff_vonmises	-0.044478303461024195	-2.548419068218809	2.0281462360442575	1.98010227508323	0.07358959296584541	2.864194762187868	0.54010395238854	-0.4051011674850905	0.9452051198736305	93.16761114404125
14	5.0	wm	417	diff_vonmises	0.10492333762981086	6.011664418614337	0.5925759166077977	72.48702558605919	0.5637938387572342	73.00886301526629	0.25897814445395895	-0.2629722373755241	0.5219503818294831	117.03565822852595
15	6.0	ltm	417	diff_vonmises	0.23026774863373192	13.193370154692168	0.9786422351317063	78.92309310493026	0.9595457705251758	79.21980243055638	0.18670788785257741	-0.1347436928182688	0.3214515806708462	91.09481837516711
16	6.0	perception	417	diff_vonmises	-0.29639149192297226	-16.981981570772138	0.995723328795777	2.0950395386081726	1.3541078976391072e-17	2.716309546109266	0.28188758300763106	-0.33482711224178535	0.6167146952494165	128.08396203382205
17	6.0	wm	417	diff_vonmises	0.3005808446145464	17.222013798891112	0.4736901870601886	140.9012128229001	0.46195094360117334	141.0692511181117	0.26724099440289706	-0.2077920545737122	0.47503304897660925	128.85603244165952
18	7.0	ltm	417	diff_vonmises	-0.05600140552238391	-3.2086441832332193	0.5568405662999406	33.93266758593823	0.500375876417818	35.248622027848576	0.03479489095371058	-0.33013689525618695	0.3649317862098975	113.48659944015164
19	7.0	perception	417	diff_vonmises	-0.03006830192649427	-1.722786797513204	1.0068743366693849	213.51802942506202	0.9854686207626646	214.5737126451944	0.5070422882668595	-0.4175662842881245	0.924608572554984	88.95477290431265
20	7.0	wm	417	diff_vonmises	0.09449827014433537	5.41435205055753	0.9135193421588076	166.0052440618239	0.8975966471714901	167.24426313741793	0.10397365610817388	-0.31273279328331327	0.41670644939148715	87.43808219728629
0	1.0	ltm	418	diff_vonmises	-0.14832182183707793	-8.498214400955895	7.8924865147976435	0.24715796232747936	0.04751386385674173	1.8430390388244304	-0.0351742111246508	-0.2964779220030681	0.2613037108784173	47.29577032660302
1	1.0	perception	418	diff_vonmises	-0.023943926454850713	-1.3718859308345854	13.38996626653176	0.6978284432406392	2.0931887309912312e-17	2.515641405919402	0.6081951844675333	-0.4003767647963544	1.0085719492638878	37.04250056871953
2	1.0	wm	418	diff_vonmises	0.013897204293970558	0.796251153075598	11.92229732340427	0.2592331496752631	2.0588707859611356e-17	2.145238628162613	0.011744936219148128	-0.34142533176817963	0.35317026798732776	39.273051822529084
3	2.0	ltm	418	diff_vonmises	0.04054456825417498	2.323032643144327	1.715230024300481	4.130921527995612	1.118308651139454	4.90082767263622	0.15755691471790634	-0.23769412583202965	0.395251040549936	71.60561902248952
4	2.0	perception	418	diff_vonmises	-0.0404392425955647	-2.316997927431522	7.467432347610491	1.1048347464906463	0.21600189184051743	1.9566027856474224	0.8007508659646464	-0.3227561895508305	1.123507055515477	48.39347226755976
5	2.0	wm	418	diff_vonmises	0.09540532318184464	5.466322361401332	2.065804071809873	0.7806691393546858	2.1827271603440732e-27	1.61128206222351	0.15421045222746815	-0.2498487171621248	0.40405916938959296	95.52083512905071
6	3.0	ltm	418	diff_vonmises	0.04288856812604935	2.457333942981934	3.6452789689629586	0.8483848904877568	0.8886748871793464	1.0416867222575517	0.2858586604928208	-0.13124234715207683	0.41710100764489766	61.35136227509082
7	3.0	perception	418	diff_vonmises	-0.007413898631835777	-0.42478510134200537	3.500489061140617	2.408851798472798	0.7284965846756833	2.6312312219582923	0.957665825600867	-0.3230058589982347	1.2806716845991017	64.7528921480201
8	3.0	wm	418	diff_vonmises	-0.19026794920285775	-10.901550465933285	1.5691756963988799	111.14029940377328	1.549874681564265	111.35570700897928	0.2753726750644745	-0.14309351254954095	0.41846618761401544	72.78707185609312
9	4.0	ltm	418	diff_vonmises	-0.0016307792783006403	-0.09343676996401701	1.635604009582977	171.59459988917914	1.615541590688983	172.2534532011628	0.2875705464316525	-0.2635343158119099	0.5511048622435624	68.44864711850641
10	4.0	perception	418	diff_vonmises	-0.08864307182617398	-5.078873898714784	3.925901565742545	1.7719884386012714	3.647102851938622e-13	2.921345670135392	0.8836020133758618	-0.46442194737184694	1.3480239607477087	69.12128915291532
11	4.0	wm	418	diff_vonmises	-0.17629041715728896	-10.100696871713334	1.223792488091355	268.41641279290627	1.2105462598153918	269.43260365712166	0.26782581707692543	-0.3239853757691016	0.591811192846027	78.16128031732919
12	5.0	ltm	418	diff_vonmises	-0.0479774275878875	-2.748904112680475	2.182030888891578	0.9275292503754766	2.1634514397870555e-15	1.3115367509073377	0.29550569953978234	-0.20231999085563773	0.4978256903954201	93.03609327823875
13	5.0	perception	418	diff_vonmises	-0.007368098777044464	-0.42216096296015115	1.6049622713013287	3.09560518479274	0.28876678984798504	3.556638037508453	0.6569728348721315	-0.36236191507540105	1.0193347499475327	96.21536477989471
14	5.0	wm	418	diff_vonmises	0.04093405994943334	2.3453488734380263	0.4524208875759507	113.44384969588192	0.43965556367081315	113.89817861127567	0.16115782346052043	-0.21545551193882773	0.37661333539934816	129.20291495199302
15	6.0	ltm	418	diff_vonmises	0.16133214851622057	9.243651209757225	0.8400825847041791	34.392112068036035	0.8073473859626429	34.61362058566663	0.14736940987390668	-0.10967863492111629	0.25704804479502297	99.08650122154262
16	6.0	perception	418	diff_vonmises	-0.145566029255218	-8.340319116801862	0.7394072819359212	165.8316288085441	0.7258833182715014	166.39260256101443	0.26554865871439404	-0.24352122488398464	0.5090698835983787	103.98016312741406
17	6.0	wm	418	diff_vonmises	-0.20261500512047742	-11.60898465942492	0.9276696590463778	83.5120022559078	0.9105841471488427	83.71490694521958	0.20557819819993028	-0.12442557301918811	0.3300037712191184	94.90135575450003
18	7.0	ltm	418	diff_vonmises	-0.035047025237354236	-2.00804663058888	0.7072959835216739	84.83250334447824	0.6893644603287674	85.3074128408749	0.1557411989245452	-0.17774082161910965	0.33348202054365483	105.19351664848651
19	7.0	perception	418	diff_vonmises	-0.11822874485154425	-6.774008097122546	1.20781927167195	5.782202979901093	0.5603363104799469	6.314164242227029	0.5711200167174577	-0.3464795589739921	0.9175995756914498	97.4524202863425
20	7.0	wm	418	diff_vonmises	0.16165700597492494	9.26226417108433	0.773094842965867	36.90351474251099	0.7381117669691041	37.17753469023489	0.1665006535283169	-0.13401563195640165	0.30051628548471854	103.19628358862451
0	1.0	ltm	419	diff_vonmises	0.0032831366081559313	0.1881098712122312	2.8153193628564464	0.4498287766936459	3.210101493992241e-17	2.784163844864559	-0.15903378919264716	-0.4420946170866594	0.28306082789401227	81.94036035187477
1	1.0	perception	419	diff_vonmises	0.027612407122254854	1.5820743903021781	14.881134904345378	0.48810655764383054	3.855764702283485e-16	2.6804756496319793	0.3177619900037228	-0.4266109494763003	0.7443729394800231	35.12442884532851
2	1.0	wm	419	diff_vonmises	-0.02445788891458372	-1.4013338106054491	4.432983220500889	0.44943265738787497	0.0280169744034161	3.0321195277052957	-0.1308649310115993	-0.4783576057857059	0.3474926747741066	63.155743542769414
3	2.0	ltm	419	diff_vonmises	0.10710727626565494	6.136794885163761	10.276080553568747	0.4233742190783419	0.20537420770779508	1.6188885297511044	0.22143571149756613	-0.28022240098797896	0.501658112485545	40.90975383631741
4	2.0	perception	419	diff_vonmises	0.027397934017905745	1.5697859866039052	5.992974641349195	1.2916375389428447	0.3405250161576498	2.7659645538698596	0.6312791970654209	-0.45691058171358284	1.0881897787790038	52.280843251861626
5	2.0	wm	419	diff_vonmises	0.08102999508231438	4.64267673218243	0.9820837412482964	21.012411146635618	0.8518686650222859	22.445419113911772	0.071185395151522	-0.34451002469052083	0.41569541984204283	85.69139827115256
6	3.0	ltm	419	diff_vonmises	0.056039805055592216	3.210844314421328	1.4340632660595545	110.46782382351141	1.412005413472902	111.20629921281855	0.12454663752257744	-0.22310422596855162	0.34765086349112906	70.59308666935829
7	3.0	perception	419	diff_vonmises	-0.040089320942283506	-2.2969488935382696	4.762737184032222	1.6305221620638848	0.17165326427184785	2.440307882365745	0.9198075675860526	-0.3739603023390981	1.2937678699251507	60.513037790718954
8	3.0	wm	419	diff_vonmises	-0.06842348073680127	-3.920376665813401	1.2025348202102017	189.42615799213738	1.1864195344399862	190.5425378950514	0.14389361981137938	-0.3073431270524587	0.4512367468638381	76.6767957016387
9	4.0	ltm	419	diff_vonmises	-0.09638688312794046	-5.522561603651711	1.0265987225958335	72.7740080488521	0.9894029206495988	74.34203509724944	-0.020994773064352046	-0.3505013763204996	0.32950660325614756	78.59748346661189
10	4.0	perception	419	diff_vonmises	-0.014549176184348022	-0.8336063907553927	2.2239328707460193	2.8155707451692673	0.3316922879329871	4.829151446794229	0.5061700173044659	-0.5925591432032322	1.098729160507698	79.91164708121445
11	4.0	wm	419	diff_vonmises	0.035014074296823974	2.0061586807655094	1.0393044553952175	239.31141126292832	1.0245132025892683	241.44613642971964	-0.07168996895254054	-0.46794872231085094	0.3962587533583104	76.42072861259442
12	5.0	ltm	419	diff_vonmises	-0.03718065137624056	-2.13029440340586	1.8205131531132712	1.0558235417782635	1.657186046897924e-19	1.8707257213862039	0.21675338418050655	-0.28424244094836526	0.5009958251288718	101.3855066705727
13	5.0	perception	419	diff_vonmises	-0.05362054717727553	-3.0722310484400075	2.135392292975885	1.7362004708431695	1.3882956307292875e-12	2.83176359733956	0.4810481107794481	-0.4376719983985524	0.9187201091780005	94.01351309686777
14	5.0	wm	419	diff_vonmises	0.09624652679545075	5.514519778172116	0.39785841976555203	42.293128517333386	0.35306000136101207	43.364978387946906	0.11021144058925358	-0.35313974667984027	0.46335118726909386	134.38607166252157
15	6.0	ltm	419	diff_vonmises	0.41795865485203537	23.947266933986693	0.574832608257062	156.43691638611662	0.5643250132808673	157.22186038899795	0.10696346372195364	-0.23984593925965214	0.3468094029816058	113.2319930307697
16	6.0	perception	419	diff_vonmises	-0.12716766191604023	-7.286170318335637	0.7878738501919932	247.20533984862712	0.7749679782954305	248.23298156320266	0.302130977212002	-0.35314325648015554	0.6552742336921575	98.89874906202975
17	6.0	wm	419	diff_vonmises	0.13058314434955146	7.481863046776902	0.19018162705527847	131.111190435097	0.17703555939087373	132.13634142329184	0.10371237660680421	-0.3827043359659328	0.486416712572737	157.6327065842246
18	7.0	ltm	419	diff_vonmises	-0.033226094390847644	-1.9037149782988678	0.850699825113192	89.23296495394543	0.8228937757326591	90.6802262615653	0.027822937441051465	-0.3315361813229032	0.35935911876395465	88.48034776513828
19	7.0	perception	419	diff_vonmises	-0.0363338651744551	-2.08177712789364	0.8366125484006829	233.86752829734488	0.8170609049527809	234.97327211904715	0.5335920635555169	-0.4610001741409313	0.9945922376964482	97.8572208995898
20	7.0	wm	419	diff_vonmises	-0.11896743448054896	-6.8163318952346	0.9164421546857884	185.4861243845109	0.9022989327410964	187.00389080601298	0.008922292514604635	-0.34252560569874646	0.3514478982133511	84.01549441301574
0	1.0	ltm	420	diff_vonmises	-0.061040910213078725	-3.4973865328464138	7.344664453410076	0.36578236288893684	0.15920555904951092	1.9625877611903373	0.024210230760455753	-0.3266111620693375	0.35082139282979324	47.6131843229723
1	1.0	perception	420	diff_vonmises	-0.015251087210148789	-0.8738229301274748	15.837833683006666	0.7037444521921173	9.292613249479906e-18	2.229376998601442	0.7533691080603283	-0.3548163693427735	1.1081854774031017	34.031023697238766
2	1.0	wm	420	diff_vonmises	0.04067695002441402	2.3306175598634944	8.602520920100444	0.307424408655379	4.411767647006993e-22	2.185296280657184	0.006332266857395574	-0.34780069324055274	0.3541329600979483	46.323989937921425
3	2.0	ltm	420	diff_vonmises	0.12431424339673448	7.122681479994949	1.7152198860319618	74.21545443368889	1.6755917778552043	74.85640938011824	0.19590929466714613	-0.23500130815414622	0.43091060282129234	65.8835719979933
4	2.0	perception	420	diff_vonmises	-0.033967832136352884	-1.9462134206218669	6.896657444703596	1.1702928566528514	0.31492497605473124	1.761851020061964	0.8273162448018011	-0.2918766284315672	1.1191928732333682	49.89344759328105
5	2.0	wm	420	diff_vonmises	0.09522413664517151	5.45594113754537	3.7729503303012244	0.5552518913239263	1.4984660206570533e-16	1.3328103624505665	0.20128225757991489	-0.21190491490008861	0.4131871724800035	70.55082396486111
6	3.0	ltm	420	diff_vonmises	0.13345392406647216	7.64634660846822	5.155320976041498	0.5942613649254836	0.7661950090697338	0.7660073773273246	0.2960699712778426	-0.12013589469812916	0.41620586597597176	54.228217626203985
7	3.0	perception	420	diff_vonmises	-0.04951533009211847	-2.83701943547551	5.699245035598595	1.0818166982207447	0.010918256402199004	1.1135625812769823	0.8263144733351414	-0.17610697500500694	1.0024214483401483	57.001235862457236
8	3.0	wm	420	diff_vonmises	-0.07809690756462744	-4.474623196476465	1.7690822031028794	115.04672429382993	1.748658859978579	115.24941887830138	0.2915822834229189	-0.14859189893104308	0.440174182353962	68.50835885000816
9	4.0	ltm	420	diff_vonmises	-0.036929762842013505	-2.1159195492664264	1.585926558991674	141.64387840647092	1.5634550652975197	142.32359667446258	0.2460977501984729	-0.2532676734785859	0.49936542367705883	69.0725809311065
10	4.0	perception	420	diff_vonmises	-0.05348428216742715	-3.064423638480387	2.654671661269869	2.144373635869491	1.5997520691273207e-17	3.40697549179877	0.7667182630513991	-0.5357639585631605	1.3024822216145595	84.40952986311595
11	4.0	wm	420	diff_vonmises	-0.14461216090238468	-8.285666485973417	1.329576309994216	280.26881063373133	1.3154812708924346	281.426268305198	0.25192657856217693	-0.3585371739080827	0.6104637524702596	74.18328675097672
12	5.0	ltm	420	diff_vonmises	-0.03599273975944926	-2.0622320813291566	2.4625985513826807	0.8488152674885076	1.4444510702675751e-19	1.024901350897381	0.33272425020904334	-0.15951764806189847	0.4922418982709418	87.64926829647013
13	5.0	perception	420	diff_vonmises	-0.01948863118476337	-1.1166163153739823	1.9339137088055205	2.1710288240692983	0.1137903202182238	2.5080265310814447	0.6516223254956786	-0.3321414385812576	0.9837637640769361	94.51756395268325
14	5.0	wm	420	diff_vonmises	0.06116576004050149	3.504539901030675	0.6038217788230876	62.11740024063243	0.5782983256716672	62.27104337700835	0.2596171184158109	-0.1772567438922179	0.4368738623080288	118.47846662438263
15	6.0	ltm	420	diff_vonmises	0.17716386669303189	10.150741843729064	1.1374951539056335	14.928083730739319	1.0679029274259104	14.933240874311487	0.19259915334933098	-0.07104344923136519	0.26364260258069616	89.58024431373593
16	6.0	perception	420	diff_vonmises	-0.25636232597867237	-14.688479304734948	0.6196519034194234	53.64126938255762	0.5842768678110564	53.943371356221625	0.27987596313423957	-0.21966820540482423	0.4995441685390638	116.41061079623944
17	6.0	wm	420	diff_vonmises	0.12355019690646507	7.078904840750728	0.5590962453043788	86.88058496304204	0.5466880154879783	86.68625010465738	0.25263212653208456	-0.09932772763640507	0.3519598541684896	125.15736535987809
18	7.0	ltm	420	diff_vonmises	-0.07650815602115073	-4.383594438340354	0.6440280967212801	85.76621849694813	0.626724025341906	86.30177270444351	0.13682446916239144	-0.18937728176096513	0.32620175092335657	109.43495013906266
19	7.0	perception	420	diff_vonmises	-0.0967717438279973	-5.544612497465419	1.2878530427947876	6.0221534270309975	0.6982779697979468	6.622293229012369	0.49797600128479247	-0.3160428364181092	0.8140188377029016	91.1449307594323
20	7.0	wm	420	diff_vonmises	0.25840902796917703	14.80574669071189	0.761358498441518	32.355506180060274	0.7191423209960041	32.7864538130216	0.13648880284203813	-0.15529840723567023	0.29178721007770836	101.97475650462528
0	1.0	ltm	421	diff_vonmises	-0.018561928975960634	-1.0635201899441344	4.4673639372150635	0.338901879956815	1.7447655527226455e-16	2.8228588888917727	-0.1726130970503763	-0.44923550031599857	0.27662240326562226	64.68696232862013
1	1.0	perception	421	diff_vonmises	0.03525732137187227	2.0200957115446787	14.840663499398325	0.6962280032872461	1.7077165026232377e-19	2.6700574621015654	0.6357576926014317	-0.42495284343272866	1.0607105360341604	35.16634250300649
2	1.0	wm	421	diff_vonmises	0.10043449878959543	5.754472898155593	6.971976542785328	0.40344759593882573	6.858537904019686e-14	2.982142065792177	-0.05785812928784956	-0.4746222841967019	0.4167641549088523	51.53549934565993
3	2.0	ltm	421	diff_vonmises	0.13933036821779282	7.983042056883231	3.4832967301298896	0.9221620314125645	0.5125840514565017	2.1353483306050136	0.12507954004115107	-0.3142334438295562	0.4393129838707073	61.93990691196356
4	2.0	perception	421	diff_vonmises	0.011228698347427391	0.6433570247331116	6.576054480355406	1.3301708566455277	0.2592614220161102	2.408361472041349	0.8441744405339471	-0.39434321356339436	1.2385176540973415	51.068662018644744
5	2.0	wm	421	diff_vonmises	0.09116881653310843	5.223588410549635	3.885673051422211	0.5936913098782389	1.0005985972122588e-13	1.777079236528921	0.16643729146972847	-0.2826415017068095	0.449078793176538	69.4875938298097
6	3.0	ltm	421	diff_vonmises	0.21452102038309437	12.291149084791213	11.819358806473675	0.3365270825872829	3.133393948280068e-14	0.9492084323076748	0.3053370840009818	-0.1510712140015349	0.4564082980025167	39.44641617533779
7	3.0	perception	421	diff_vonmises	-0.05341392167673576	-3.060392279319301	5.8125597954249075	0.9767890952525102	8.075009706795299e-16	1.166172899491539	0.7317565835421912	-0.18559398139956004	0.9173505649417513	56.53687791078303
8	3.0	wm	421	diff_vonmises	0.013436987242345561	0.7698826583575313	2.36154545530855	2.166595021009092	1.073336020604328	2.573624913699524	0.31966071937703144	-0.20158190597725958	0.521242625354291	68.70878924799806
9	4.0	ltm	421	diff_vonmises	-1.0567510770969988	-60.5473767135619	0.00018959625489301676	6363.038355262106	8.16767426123438e-30	6364.666308312195	-0.06708783192914325	-0.4510875186347221	0.3839996867055788	150.54857126089667
10	4.0	perception	421	diff_vonmises	0.05190043386100381	2.973675815133386	1.3740609997057522	2.8835994107582112	3.0210293155021362e-15	5.127251696089246	0.36866818374535604	-0.7401500076105523	1.1088181913559083	114.51546272946021
11	4.0	wm	421	diff_vonmises	-0.0629110738287636	-3.604539015024083	1.3519033320613254	332.42047905096314	1.3368748020611547	334.23206688854344	0.16878324505509568	-0.49706511986965296	0.6658483649247486	71.2242789604935
12	5.0	ltm	421	diff_vonmises	-0.05459387981956792	-3.127998900905678	2.0556325762663006	0.9256441708399409	5.379455365925792e-17	1.4029182816261112	0.2622177436170928	-0.2153254092945076	0.47754315291160043	95.75344426087676
13	5.0	perception	421	diff_vonmises	-0.022036124391937695	-1.2625769244833174	2.0944742925267597	1.9199737253179248	0.03690421820967615	2.5273541708110177	0.601204713812514	-0.37209302261186394	0.9732977364243779	93.46594882479832
14	5.0	wm	421	diff_vonmises	0.07012870710373052	4.018078939752874	0.7348621038268567	147.0448964486802	0.7210987393235433	147.30401958062723	0.3113670118208347	-0.2017166154716854	0.5130836272925201	106.95907143793039
15	6.0	ltm	421	diff_vonmises	0.24689723176999762	14.146169353884167	1.1543774557363615	70.70755105040186	1.1363528467268107	70.86119728506607	0.18080445458236127	-0.0974004315385022	0.27820488612086347	85.24643197183019
16	6.0	perception	421	diff_vonmises	-0.35555101866071637	-20.371572770836224	0.38047749872202774	17.22499450160676	0.280893908787547	17.513209436144077	0.2498401033155333	-0.25596107865497175	0.505801181970505	141.32866416293123
17	6.0	wm	421	diff_vonmises	0.23952063965976086	13.7235217587781	0.5532320643542022	116.95571698835853	0.5416690088378946	116.8587544588372	0.27913659776621813	-0.13784400104840522	0.41698059881462335	124.1446141326721
18	7.0	ltm	421	diff_vonmises	0.06705511116052962	3.8419748642789306	0.5383015916530359	71.97701147401105	0.5144623702358786	73.10418274709251	0.040781311754543026	-0.28954243449036454	0.33032374624490757	114.26361676566499
19	7.0	perception	421	diff_vonmises	-0.07194612231940065	-4.122209161233631	1.1064094712077437	163.00899621308835	1.0813484102530864	163.57056567329386	0.5648916322644624	-0.32491937489069933	0.8898110071551617	86.89815177683349
20	7.0	wm	421	diff_vonmises	0.11125505791640518	6.374445268093555	0.7326819558561342	80.94306502459307	0.7084515098979765	81.85092888846239	0.11430396544849941	-0.25132512750782876	0.36562909295632817	99.9145995985728
0	1.0	ltm	422	diff_vonmises	-0.009148318180992925	-0.524160021413693	4.535906075480992	0.3232273712532308	4.1857208062637255e-18	3.6304251017259874	-0.3118054721506069	-0.5777695392382081	0.2659640670876012	64.1914120855447
1	1.0	perception	422	diff_vonmises	0.08844197689646878	5.067352007961196	11.295623843035228	0.7528603489253357	0.11282560959323268	3.831213619307127	0.31736253998739816	-0.640544036614089	0.9579065766014871	39.449369748306964
2	1.0	wm	422	diff_vonmises	0.14743487157194718	8.447395894125895	6.717773105630315	0.45182550976851943	6.962456691013251e-18	3.960038286672633	-0.17254479200109996	-0.6302589985973659	0.45771420659626594	52.52463027120629
3	2.0	ltm	422	diff_vonmises	0.06896612530366811	3.9514679092705753	3.323343312376866	0.8465275923158914	0.27786284030464137	2.3738403195256956	0.0981333869071001	-0.3516489633398247	0.4497823502469248	66.53050664334495
4	2.0	perception	422	diff_vonmises	0.03892716369820598	2.230362188322072	5.619994388404863	1.5337518309115343	0.35684987538076784	3.439796026806165	0.6570992517351929	-0.5643623953008838	1.2214616470360768	53.476637819509136
5	2.0	wm	422	diff_vonmises	0.10051412370962683	5.759035070017459	3.3195509488136055	0.8323740752152511	0.09222207967549235	2.3648499362390916	0.16539471484503088	-0.35797724530914576	0.5233719601541766	71.5738303735333
6	3.0	ltm	422	diff_vonmises	0.0718818411669297	4.118526122494808	4.881014210505974	0.6559526552593786	0.24517394577700172	1.653457790061376	0.23025561683906198	-0.26120673236549846	0.49146234920456044	57.78878054116598
7	3.0	perception	422	diff_vonmises	-0.019809026051273725	-1.134973589002683	5.792278460506258	1.2127719149579597	2.122587204501086e-13	1.9592985598319508	0.8250410055907784	-0.3118214675952741	1.1368624731860526	56.638420520403685
8	3.0	wm	422	diff_vonmises	0.024980511165437307	1.431277859858987	1.1634594480085596	150.92236692279727	1.143873786457971	151.78016044234946	0.23330069715579071	-0.27412972864016183	0.5074304257959525	80.51744441457348
9	4.0	ltm	422	diff_vonmises	-0.1360412713089051	-7.7945906855944385	0.9347625842078036	155.2811055068287	0.9114873514897525	157.41692505149308	-0.006444518672552135	-0.47676219268367603	0.4703176740111239	82.87525742051531
10	4.0	perception	422	diff_vonmises	0.01066303610142587	0.6109469654073336	3.4594776163586904	1.3914683028253885	1.194482612603839e-16	3.853777460124716	0.37412184965513196	-0.61237110491658	0.9864929545717119	73.76157462260716
11	4.0	wm	422	diff_vonmises	0.06332851583916936	3.628456680411789	1.0072770397101314	219.87657712928637	0.9897190248462868	221.94388255994602	0.027991116400144733	-0.4777117698830544	0.5057028862831991	80.38139812153196
12	5.0	ltm	422	diff_vonmises	-0.13811107747690743	-7.9131818434311185	1.7607234760286827	1.166898130773166	8.053029925538521e-17	2.5203189272530664	0.15605801475887537	-0.3846528045158981	0.5407108192747735	102.90995947922214
13	5.0	perception	422	diff_vonmises	-0.06984191506788295	-4.001646966500844	0.8409243775649867	145.92635898523062	0.8074136583953729	147.5424656069654	0.44060145747068447	-0.5324368252045133	0.9730382826751978	95.93986916332113
14	5.0	wm	422	diff_vonmises	0.08613943809443693	4.935426252439663	0.5229900338660408	211.03070521490773	0.51200536084014	212.11364643408575	0.1647654480288594	-0.35427730309476857	0.519042751123628	119.20852382166075
15	6.0	ltm	422	diff_vonmises	0.12572049894059265	7.203253987574896	0.8345792435005113	73.8041370637672	0.8051865911218213	74.8125690498486	0.10697948316066785	-0.2643945373560026	0.37137402051667046	92.82620364542072
16	6.0	perception	422	diff_vonmises	-0.2628795294101268	-15.061887555585466	1.0492208427609075	2.0867007247780793	2.0643767674080371e-10	3.428717841976874	0.18673558313596084	-0.4558662807943801	0.6426018639303409	126.07050859349468
17	6.0	wm	422	diff_vonmises	0.3478052211335265	19.927771263565376	0.4738231973138492	159.34635107103787	0.4611854133607741	160.2129790603143	0.16680582260034527	-0.3161035871509057	0.48290940975125096	124.78149400710026
18	7.0	ltm	422	diff_vonmises	-0.03141398941199533	-1.799889010975987	0.697672357362822	63.336096060266414	0.6569530587375746	65.31903831526486	-0.05701900427688855	-0.4202076772888077	0.36318867301191915	95.62657604091908
19	7.0	perception	422	diff_vonmises	-0.032995219843667746	-1.8904868411484657	1.7263536155031285	3.2791174904693423	0.29336407843154405	4.861898428986749	0.5314220109574517	-0.5380904892146298	1.0695125001720815	90.53366428882867
20	7.0	wm	422	diff_vonmises	-0.06734700935548237	-3.85869939889721	1.0129123327946796	229.0641690845255	0.997648280457461	230.52031484756606	0.16419422379243542	-0.38344533733797803	0.5476395611304135	83.57388770195561
0	1.0	ltm	423	diff_vonmises	-0.11068056168265504	-6.341529058553511	1.8986008019954237	0.3665109429796971	1.93036480035876e-21	2.7846701888562806	-0.25998822782353054	-0.4390838079096289	0.17909558008609838	99.41199266338901
1	1.0	perception	423	diff_vonmises	0.0243116723014001	1.3929562157753308	11.611426038495805	0.66003704787421	1.0341370809498292e-16	3.0437659428586343	0.4025313599937766	-0.4844303953478389	0.8869617553416155	39.807161245191736
2	1.0	wm	423	diff_vonmises	0.056716769367515955	3.2496315123755357	11.094960328981673	0.28506021434331347	2.1933183970432624e-25	2.9462863663569587	-0.09461066924554334	-0.46891603888359995	0.3743053696380566	40.72630245120263
3	2.0	ltm	423	diff_vonmises	0.041202035331367244	2.3607027318362452	5.203485798954329	0.5103071770056468	0.19239942526852816	1.8948926789243952	0.08975141880710058	-0.30472811234635205	0.39447953115345263	55.83531316045932
4	2.0	perception	423	diff_vonmises	-0.0018167100866062454	-0.10408982056138413	8.060336321625362	1.166032190342948	0.1674090223770303	2.6473763925438254	0.804227087405063	-0.43712574760277134	1.2413528350078344	46.691249899738835
5	2.0	wm	423	diff_vonmises	0.07403305247860623	4.241781451494675	2.5821192565241935	0.7021252514433471	1.057250446722389e-17	2.1022437229494466	0.08712525904840185	-0.3321712911064518	0.4192965501548537	85.59291044754946
6	3.0	ltm	423	diff_vonmises	0.06344466582336705	3.635111584296828	5.510926543647499	0.40551632214893757	0.03255966289506344	0.9558053306277212	0.21312502874361414	-0.15072445406300522	0.36384948280661933	57.50886431657287
7	3.0	perception	423	diff_vonmises	-0.005866163894810333	-0.3361064331046571	4.4442691672986845	1.7303383155364092	0.31334419241045325	2.2438896355938946	0.9317294112545227	-0.3338111187527749	1.2655405300072977	61.42583892315693
8	3.0	wm	423	diff_vonmises	-0.1402487823562506	-8.035663310862004	1.4440236600621026	155.08178379394607	1.4274271484460204	155.59080639119264	0.24220551965923676	-0.20238468982369184	0.4445902094829286	73.43012514102469
9	4.0	ltm	423	diff_vonmises	-0.01274659122014278	-0.7303258800926917	2.0804402531644057	1.8110312079273543	0.6242912249706767	3.2414713859701902	0.08105096106454168	-0.3522078497919277	0.4332588108564694	72.31099764170128
10	4.0	perception	423	diff_vonmises	-0.07231663981892474	-4.143438250192101	3.540624249609536	1.778508816509197	0.055501192806921444	3.618152114484635	0.670362578824232	-0.5537768120547962	1.2241393908790283	71.15553022373419
11	4.0	wm	423	diff_vonmises	-0.14115602467757765	-8.087644466869696	1.126928563956848	286.6715550245495	1.1137623623632067	288.2968292096487	0.11473507656678805	-0.4125181710432031	0.5272532476099911	77.76944628720409
12	5.0	ltm	423	diff_vonmises	-0.05010919780255165	-2.8710455488724285	2.165524167010278	0.9482532796379841	2.466964433724061e-18	1.7259331975739682	0.23848648900822167	-0.26794051965246946	0.5064270086606911	93.37898955816334
13	5.0	perception	423	diff_vonmises	-0.023264362399057378	-1.3329497785288345	1.8566304148533819	2.37117568664913	0.14517079015105852	3.1535720461143955	0.5920142473283367	-0.40377319900502134	0.995787446333358	94.36046793248534
14	5.0	wm	423	diff_vonmises	-0.028990664595676213	-1.6610427266115861	0.5400964513888408	159.5050934676969	0.5279984199480277	160.2525913833995	0.17408726810712238	-0.2766744905914038	0.4507617586985262	118.91771426836563
15	6.0	ltm	423	diff_vonmises	0.2848626456980847	16.321427339430752	0.8327457175492803	138.61320602557495	0.8218830469568033	139.1289471435049	0.1286928235740632	-0.16485086783312575	0.29354369140718894	95.41761153778094
16	6.0	perception	423	diff_vonmises	-0.1618718583591186	-9.274574305916952	0.6942187051006479	219.94408719675977	0.6840009875679272	220.56627043176542	0.25296997343060923	-0.25798639371588195	0.5109563671464912	106.71115162053658
17	6.0	wm	423	diff_vonmises	-0.02692745937998009	-1.5428297754828197	0.5244913498035182	125.70980989132916	0.512544028480435	126.20912194425858	0.15710339799127127	-0.21126147450102195	0.3683648724922932	121.45271732165538
18	7.0	ltm	423	diff_vonmises	0.051993285720694525	2.978995834813605	0.8779797946140867	116.14125944299418	0.8609003645461053	117.07269501784879	0.08462627472408002	-0.23765127870282576	0.3222775534269058	89.54795646943316
19	7.0	perception	423	diff_vonmises	-0.13057482170309082	-7.4813861942603275	1.485102297995372	3.4001430203745384	0.36014560410920715	3.8844439189249127	0.6056416082165373	-0.34813000448163334	0.9537716126981707	96.7389633009616
20	7.0	wm	423	diff_vonmises	-0.13812722727755702	-7.914107158848317	0.9211965765117249	88.41931931198002	0.9008622649718633	89.10608082133729	0.12049549369244872	-0.1963152879879395	0.31681078168038823	89.48624774879056
0	1.0	ltm	424	diff_vonmises	0.11880788657669131	6.807190473713398	0.9566297518277079	0.9376857075659365	2.709189740706285e-33	2.526091167644534	-0.08933138753576858	-0.35588408803820143	0.26655270050243285	130.2645129754687
1	1.0	perception	424	diff_vonmises	-0.002338946305262268	-0.13401175179924543	12.85977999784089	0.6068604855569834	9.495085794117025e-25	2.2091576943596216	0.5078100604445805	-0.3515983671210157	0.8594084275655962	37.7981433444088
2	1.0	wm	424	diff_vonmises	-0.4228611474567363	-24.228159069330154	0.0002855752733823803	3376.4342623632433	1.8272782433978214e-29	3378.1903430588054	-0.12601782906119752	-0.4329381055835029	0.30692027652230536	174.93700844411177
3	2.0	ltm	424	diff_vonmises	0.16230805283370597	9.299566408357734	8.439146716735367	0.4371376749832607	0.3431690486776608	1.2890911017756257	0.21777185610490313	-0.2295595069662216	0.44733136307112475	44.24330783923088
4	2.0	perception	424	diff_vonmises	-0.002492361046067813	-0.14280176896249663	7.115591231908307	1.106625610162472	0.2060498187393022	1.9884605499865877	0.7706207749495548	-0.325350927283546	1.0959717022331008	49.55435532473919
5	2.0	wm	424	diff_vonmises	0.0923277033821439	5.2899877359325815	2.1274223606834894	0.7015627069580317	1.8433955453982204e-12	1.6587662760587407	0.11164073084511872	-0.2586682186560583	0.37030894950117704	94.17691513982942
6	3.0	ltm	424	diff_vonmises	0.13149502357456944	7.534109877796093	3.1900945014083324	0.7461969454290234	0.770090797349668	1.1519012529717765	0.162823338159013	-0.14636868308927375	0.30919202124828676	63.472257685458885
7	3.0	perception	424	diff_vonmises	-0.017594099635270814	-1.0080676534336785	4.104213391723577	1.7687460658452858	0.3126023374058235	2.1310898944528174	0.9265910464185778	-0.30840399290412196	1.2349950393226998	63.89360040018565
8	3.0	wm	424	diff_vonmises	-0.09806256883490774	-5.6185713224513325	1.358971441562113	101.17088231890199	1.3343012830024685	101.69886132396834	0.23678198530231498	-0.2027147128046547	0.4394966981069697	75.79213804064946
9	4.0	ltm	424	diff_vonmises	0.09347027053179946	5.355452011418138	2.9701854574855884	1.1033008872934549	0.704529339384432	2.1146219776968853	0.11491785655124298	-0.27878586633585345	0.39370372288709643	63.377505527915474
10	4.0	perception	424	diff_vonmises	-0.045312050294282265	-2.5961892429468936	2.817472268524095	2.1080004418861296	0.10985644663056597	3.6630211593103836	0.6830528860047808	-0.5308155371281102	1.2138684231328911	78.16167950874222
11	4.0	wm	424	diff_vonmises	-0.11113339870653785	-6.367474708829261	1.2567420316064108	305.17596011063944	1.2432820975669476	306.68731563401417	0.16782572822798159	-0.4127440237731932	0.5805697520011748	74.4572930468893
12	5.0	ltm	424	diff_vonmises	-0.02414586240450749	-1.383456008481885	1.6173240520478502	1.0125929388956365	1.3342361447803106e-11	1.4249930459626152	0.23232106960783316	-0.2087161270934833	0.44103719670131647	106.93422147954594
13	5.0	perception	424	diff_vonmises	-0.006260207456308881	-0.3586834661228276	2.0597109083030256	1.8734079931779146	4.895792094945276e-21	2.4104137159919716	0.6001108313454147	-0.3676383447116128	0.9677491760570274	95.66985364967044
14	5.0	wm	424	diff_vonmises	0.18167182667470635	10.409028924892883	1.3337593017770584	1.0705583442240596	1.0786157123084896e-15	1.6106755330163665	0.17569813506664	-0.22635051297083306	0.4020486480374731	115.73347792841025
15	6.0	ltm	424	diff_vonmises	0.45135076995910084	25.860494198636584	0.8972119211193131	116.38968650211886	0.8852804416896755	116.73467086577138	0.15422856193757895	-0.13546963208551865	0.2896981940230976	93.92772716749923
16	6.0	perception	424	diff_vonmises	-0.15413609202538606	-8.831347543694687	0.7506412992924378	204.05666910682368	0.7384088890637945	204.59529480300557	0.31923657753688417	-0.2616233691890315	0.5808599467259157	103.88277074116014
17	6.0	wm	424	diff_vonmises	-0.08054878307315695	-4.615105315006698	0.4239687814821938	130.45096862773002	0.4114014772893216	130.97522837755355	0.18114255764588094	-0.2512479593595369	0.43239051700541786	132.1287381469994
18	7.0	ltm	424	diff_vonmises	0.06471798910586526	3.70806763433972	1.7223445013324337	0.7925089516174829	8.996178621875133e-14	1.5561235321123763	0.12569759234001282	-0.23574847744533403	0.3614460697853469	103.9690791939116
19	7.0	perception	424	diff_vonmises	-0.0729745983438533	-4.181136496765161	0.9920837656714687	250.11134091330592	0.975351483075672	250.552803621302	0.643953924285583	-0.33936149538983074	0.9833154196754137	92.5129160181981
20	7.0	wm	424	diff_vonmises	0.03307829524229618	1.8952467108712419	0.8236946321800946	122.04227520575675	0.8078787830914234	122.91919890948938	0.10096658014528259	-0.2331969164375387	0.3341634965828213	93.33006468874811
0	1.0	ltm	425	diff_vonmises	-0.07562623176919897	-4.333063900853286	5.510355558886904	0.2608212432447632	8.21496061562931e-15	1.8472458977933566	-0.055875487636953325	-0.29399441948053806	0.23811893184358474	58.103361855384435
1	1.0	perception	425	diff_vonmises	-0.013954405871529879	-0.7995285620512373	13.447564145998482	0.5653638343194499	2.711284456228972e-21	2.3069445627056706	0.45191379288351	-0.3671616305918684	0.8190754234753784	36.95919612100411
2	1.0	wm	425	diff_vonmises	-0.010399479943447086	-0.595846309890466	7.2186859800722765	0.28421151759620633	1.444466335065642e-28	2.2158475157092608	-0.05373803686626216	-0.3526629246993427	0.2989248878330805	50.63675210006329
3	2.0	ltm	425	diff_vonmises	0.12447237397424966	7.131741694698535	9.371332528485464	0.43549610777456205	0.4786891555778523	1.117775619167231	0.25302002373451615	-0.2117511232886449	0.464771147023161	41.73438992003855
4	2.0	perception	425	diff_vonmises	-0.013636923744529959	-0.7813381761033055	8.226331818572126	1.067095344556565	0.2739618798109166	1.9494174839202798	0.8007381363090671	-0.33154940313788106	1.1322875394469483	45.89721144089873
5	2.0	wm	425	diff_vonmises	0.07789914223006938	4.463292077472295	0.7788917295675339	65.78569520650875	0.7484568535672981	66.82159575344832	0.07792373878923087	-0.26112359890171355	0.3390473376909444	95.32834429054515
6	3.0	ltm	425	diff_vonmises	0.07055813261410172	4.042683209112395	2.1801005716439947	91.91923211268531	2.1581661170550612	92.11254144420278	0.19739822548909558	-0.12534492042780876	0.32274314591690434	60.52324181081815
7	3.0	perception	425	diff_vonmises	-0.023254398566971136	-1.3323788930025158	3.49140980823032	2.395533453866426	0.6603451440659494	2.7206044154722115	0.9551496332318329	-0.34234762477977065	1.2974972580116035	65.22264004618626
8	3.0	wm	425	diff_vonmises	-0.16375260183870827	-9.382332969644187	1.4550396779873147	143.72451197207158	1.4390437237990228	144.26115420325527	0.17983804902921463	-0.1900981028713602	0.36993615190057483	72.0379392995228
9	4.0	ltm	425	diff_vonmises	0.001043710140614456	0.05980018609221402	1.5471799416759608	204.9153936047596	1.533491898630817	205.74217903485018	0.1235664078403289	-0.2533188664186419	0.3768852742589708	67.3473174064545
10	4.0	perception	425	diff_vonmises	-0.08732081226824838	-5.003114006624813	3.0567582378348988	2.2640117091028036	0.25124925774515955	3.427446716754539	0.8083675139035231	-0.4725990882289535	1.2809666021324766	72.82457661794058
11	4.0	wm	425	diff_vonmises	-0.12704772988741556	-7.279298719267001	1.1810714629579746	247.6535221789453	1.1677617078784894	249.04585379711807	0.09155660367326846	-0.35539637407350355	0.446952977746772	75.71849936200095
12	5.0	ltm	425	diff_vonmises	-0.06086268525160153	-3.4871749947498887	2.325514914204893	0.7442151567459959	3.101604502264058e-13	1.2988345857598862	0.21350856473524818	-0.2027013859386646	0.41620995067391275	90.18068311083042
13	5.0	perception	425	diff_vonmises	-0.028853762860149425	-1.653198834957885	1.7530452825231293	2.4177962857678086	0.17724287021747798	3.086019921178088	0.5695453439114	-0.374296337837824	0.943841681749224	95.75452809300867
14	5.0	wm	425	diff_vonmises	0.11987615257982188	6.868397607090089	0.7248620319495123	1.3903079143819217	8.541501838035448e-16	2.2365305573095644	0.0462594037059873	-0.2615809716025395	0.3078403753085268	140.6949311210769
15	6.0	ltm	425	diff_vonmises	0.41250033649380424	23.634528328821272	0.6937395043501176	100.07783205711125	0.6816306952562893	100.65183564088814	0.0695069750463091	-0.15960208335510195	0.22910905840141105	102.24948680947571
16	6.0	perception	425	diff_vonmises	-0.12381467395360186	-7.094058259329749	0.8475111652977674	245.87025492502272	0.835081341880694	246.67337893405247	0.3340427231951679	-0.31056033087115154	0.6446030540663195	96.48020726090242
17	6.0	wm	425	diff_vonmises	-0.12126613665482198	-6.94803782817799	0.2495480811891054	92.58050210838546	0.23252045507062458	93.52812118042783	0.08928611480716242	-0.3355044523491628	0.42479056715632524	150.65074180431526
18	7.0	ltm	425	diff_vonmises	0.0056978402241137475	0.32646219718159286	1.0415523682968828	46.28994389769734	1.0010456716111076	47.00937239342935	0.10803161049490839	-0.19874510713862303	0.3067767176335314	83.77381655293752
19	7.0	perception	425	diff_vonmises	-0.07366923233037054	-4.220936092498946	0.7908620728326557	119.15872585367396	0.7591740991454535	119.85399494810966	0.5153409151891992	-0.3774910913801399	0.8928320065693391	102.48627017199267
20	7.0	wm	425	diff_vonmises	-0.10170547677602162	-5.82729457263185	0.8031213959120936	98.52224704375064	0.7882804147623803	99.3879158842918	0.018312321773368723	-0.19898070246963329	0.217293024243002	90.95944975359146
0	1.0	ltm	426	diff_vonmises	0.023105834549894493	1.3238668018365147	7.607912787907334	0.42122552483023556	0.17583969339208297	2.8932594167111123	-0.08946065836564815	-0.48887395203399636	0.3994132936683482	46.11078870272186
1	1.0	perception	426	diff_vonmises	-0.0041194686965174265	-0.2360281701467071	16.468240267556748	0.5531862239679205	3.3360515432948282e-21	2.826370548074342	0.4386350771398013	-0.4498308437353766	0.888465920875178	33.37228787655104
2	1.0	wm	426	diff_vonmises	0.06521357343284172	3.736462524668302	3.601972095606527	0.6127084669155068	0.17818799968880714	3.7387469358021743	-0.26079844356498627	-0.5874020407528204	0.32660359718783416	62.58434873197987
3	2.0	ltm	426	diff_vonmises	0.11129816033140758	6.376914854560014	6.662862696220577	0.6361455113608561	0.5656917308118643	1.5239746287284828	0.2469013175499587	-0.2747251196118856	0.5216264371618443	47.8365941897587
4	2.0	perception	426	diff_vonmises	-0.011357267133482096	-0.6507234735511667	6.894241932955385	1.206916603206601	0.3578425306868213	2.4030610778342956	0.7095010203872772	-0.4078590660279445	1.1173600864152218	49.15113550367869
5	2.0	wm	426	diff_vonmises	0.024439174020201206	1.400261526143298	1.033954914547272	78.65190096069811	0.994769478134923	80.22402345795439	0.04659726091311711	-0.3720290283986021	0.4186262893117192	80.43752905721388
6	3.0	ltm	426	diff_vonmises	0.0447188795343127	2.56220306187007	1.911503904921141	87.15457422788502	1.885574307720622	87.4469617655674	0.2154555601764443	-0.15272949206914	0.3681850522455843	64.30615134247253
7	3.0	perception	426	diff_vonmises	-0.06935286006182612	-3.973626178704042	4.824026950129167	1.516473465556258	0.23124996730355155	2.0126320700276548	0.891755211147877	-0.3067343362241671	1.198489547372044	59.80599462398786
8	3.0	wm	426	diff_vonmises	-0.10057137787211197	-5.7623154918874135	1.5423774124806466	197.26162794660843	1.5261546176122822	198.21001459900663	0.14065624991631864	-0.28977293987198394	0.4304291897883026	67.47208618993989
9	4.0	ltm	426	diff_vonmises	-0.1556677364187591	-8.919104303149837	1.2318250018295043	171.85875312868163	1.2145396120733905	173.0107993575757	0.10694324773253072	-0.3065257405758395	0.4134689883083702	74.86386428352981
10	4.0	perception	426	diff_vonmises	-0.07993879302884092	-4.580155459922392	2.9923395227929404	2.215389753819783	0.1434061591512931	3.6500469042983408	0.7816925497537751	-0.5241629277981681	1.305855477551943	75.36609361273702
11	4.0	wm	426	diff_vonmises	-0.13496265387759845	-7.732790459071326	1.0187762492799322	227.2462398128185	1.0043206480028837	229.21859502663239	-0.054800622362577656	-0.4332769130503529	0.3784762906877752	77.58317398206563
12	5.0	ltm	426	diff_vonmises	-0.04910661750855662	-2.813601929403528	2.9495646639276853	0.7882415764879933	0.004552406973018303	1.3619272927676453	0.293538883114965	-0.21436992382390097	0.507908806938866	79.8448611914761
13	5.0	perception	426	diff_vonmises	-0.05132395292024151	-2.940645890257975	1.8457387661471292	2.357646786904124	0.18533493270534435	3.235504518198039	0.5439926149897099	-0.398489199832874	0.9424818148225839	92.85508627274538
14	5.0	wm	426	diff_vonmises	-0.08731355724652066	-5.002698324499539	0.32839501061802995	53.437538557818606	0.2948399147607247	54.49662795332264	0.10033802643594569	-0.3582266600241484	0.4585646864600941	142.04606748714036
15	6.0	ltm	426	diff_vonmises	0.293165911800618	16.797169443279948	0.6535628577459571	116.25826304265232	0.6430552799266566	116.71519847276043	0.10707632913971565	-0.15521400922970408	0.26229033836941973	107.96210198789609
16	6.0	perception	426	diff_vonmises	-0.13764018043814527	-7.886201430524838	0.7642698908237101	243.54134108726808	0.7520272670841894	244.3708251158398	0.32499608441536054	-0.3241388385376851	0.6491349229530456	101.51893284958454
17	6.0	wm	426	diff_vonmises	0.2799735995776673	16.041305630886026	0.00019434986025806156	7276.760491580177	3.879720681126015e-30	7277.469297434887	0.11228379200179006	-0.33788183055162335	0.4501656225534134	177.47343200429071
18	7.0	ltm	426	diff_vonmises	-0.05234900211607389	-2.9993768829724496	1.0099034320693214	121.2009708549747	0.9935866978921385	122.13097041290793	0.057391882662948035	-0.22911233764569516	0.2865042203086432	82.18896739262024
19	7.0	perception	426	diff_vonmises	-0.0781598588425168	-4.4782300390144805	0.7093340049849953	176.36726301443386	0.6908174478705945	177.31109952575116	0.35548828114716713	-0.3748760849878465	0.7303643661350137	105.58254852261366
20	7.0	wm	426	diff_vonmises	-0.155691773587782	-8.920481531486292	0.8056323735148915	110.7300497897773	0.7913995887663227	111.86995735319118	-0.04328669211522396	-0.2379018035118552	0.19461511139663124	86.90789540168147
0	1.0	ltm	427	diff_vonmises	-0.019806126057711457	-1.13480743161095	5.838657386486585	0.216170373082408	0.023467474794761044	2.497176818407426	-0.20332403789457534	-0.3973725109059162	0.19404847301134084	54.9275487620188
1	1.0	perception	427	diff_vonmises	-0.028768348684887902	-1.648304963204809	14.29735661162985	0.4411668283029646	2.0973021880001745e-17	2.55795313167642	0.25218919561128006	-0.40711088510344445	0.6593000807147245	35.84015520165687
2	1.0	wm	427	diff_vonmises	-0.028322419373171752	-1.6227550956823	2.8370510566980816	0.808979873664206	0.3137096636367779	3.7130813438413326	-0.2760390449860588	-0.5631558457652444	0.28711680077918555	64.18579789740505
3	2.0	ltm	427	diff_vonmises	0.028499206636014917	1.6328842597148832	16.493702740630678	0.4142027711745099	0.48463359695362934	1.4482950942648802	0.31244435067873794	-0.3022385536012506	0.6146829042799886	31.98541093390139
4	2.0	perception	427	diff_vonmises	0.0026739112012871906	0.15320382662651197	9.553117712373867	1.03722444324383	0.26396209442074986	2.4976339283915086	0.7526176312406198	-0.4352988819885452	1.187916513229165	42.52780586892601
5	2.0	wm	427	diff_vonmises	-0.12835882376775673	-7.3544188651559805	1.0226757447674113	155.42211118005113	1.0035878924856334	157.26978158956794	-0.07207876052518003	-0.40044701452240616	0.32836825399722613	76.77663625518693
6	3.0	ltm	427	diff_vonmises	-0.053688555791231225	-3.0761276549902035	1.8026964063053375	40.383322347445315	1.7662634761381746	40.581541091107276	0.14668457202902374	-0.10122919220583793	0.24791376423486167	66.5038910317518
7	3.0	perception	427	diff_vonmises	-0.06384459940404122	-3.658026090555013	4.191596815874532	2.0934019408730062	0.42251917264125355	2.8313301904948593	0.9930603172248799	-0.4125539458539804	1.4056142630788604	61.85803036580444
8	3.0	wm	427	diff_vonmises	-0.1944668899975388	-11.142132051893817	1.6118732811968435	176.16832397507645	1.594180507240195	177.3315441610962	0.010492678894081564	-0.3198041687800419	0.3302968476741235	62.70624011942297
9	4.0	ltm	427	diff_vonmises	-0.17090961744939068	-9.792399758045535	1.1321194143895013	68.91293517216623	1.1002572790862288	70.07875113412938	-0.010105307474876923	-0.2690573169096808	0.2589520094348039	74.79668246813702
10	4.0	perception	427	diff_vonmises	-0.09338527411348807	-5.350582075375167	2.420231751350105	3.643097551101643	0.5701402612359323	5.071108223181187	0.7883530176032405	-0.5584872178346374	1.346840235437878	74.30253611408008
11	4.0	wm	427	diff_vonmises	-0.05531789414060049	-3.169481865807874	0.8613728261226455	129.7221676666799	0.8445302681083655	131.8932474417186	-0.2608240275573337	-0.41131675197743434	0.15049272442010064	73.47536358943313
12	5.0	ltm	427	diff_vonmises	-0.01685012267461242	-0.9654409135329822	2.3427687575264127	1.1444953542072236	0.29339534680045853	1.8025206835705585	0.27258954645205985	-0.22629807957823983	0.4988876260302997	80.11889822349295
13	5.0	perception	427	diff_vonmises	-0.07178237275850814	-4.11282700249737	1.9620928955679742	1.8971589599047805	0.08233425499343519	2.73652066759746	0.4953419490650749	-0.38131415441418026	0.8766561034792552	94.23437396733456
14	5.0	wm	427	diff_vonmises	-0.38313763405250123	-21.952169403836134	0.43999151603136455	149.31028839700693	0.4263228072456897	150.73807559922932	0.04424174752224275	-0.3854937609540947	0.42973550847633746	124.7572658871935
15	6.0	ltm	427	diff_vonmises	0.8831985742640681	50.60355077730271	0.0002465333499122872	4230.116940841481	1.5265280476846525e-31	4230.853034126425	0.048830473576458644	-0.28311578584123254	0.3319462594176912	158.149733131228
16	6.0	perception	427	diff_vonmises	-0.10191716369673623	-5.839423339766917	1.02358113720167	299.1678917839059	1.0118888589732815	299.99587731355444	0.3758723370493726	-0.3183676170731786	0.6942399541225512	87.78786203994815
17	6.0	wm	427	diff_vonmises	0.0628303926711318	3.5999163252055513	0.00017583748703419463	8519.491655830583	1.8996813915057238e-29	8520.791614479269	0.0315312483201069	-0.44529997815925526	0.47683122647936216	179.8068027688778
18	7.0	ltm	427	diff_vonmises	0.15483190681394166	8.871214794401709	1.6176431682238614	176.27538398947215	1.6017207531933682	177.20014357285865	0.06269925026042245	-0.26859501142850917	0.3312942616889316	64.17240551574167
19	7.0	perception	427	diff_vonmises	-0.15056699938489568	-8.626853598703384	0.5396922685165227	201.72122785202123	0.5253573993429229	202.43550010690996	0.3633736666879841	-0.3796636782180549	0.743037344906039	121.35274885856518
20	7.0	wm	427	diff_vonmises	1.3765269774977376	78.86918619652	0.3678461045876078	1.3300736709724703	0.367800900135353	2.5407488241916036	-0.1289954886768865	-0.26915246195011694	0.14015697327323043	110.95521196598958
0	1.0	ltm	428	diff_vonmises	0.005590712938835738	0.32032425586446894	4.698772671889098	0.46340878076502917	1.0023882677396284e-19	2.948351104018522	-0.08056339022189485	-0.46921241512443	0.38864902490253517	63.03605493857242
1	1.0	perception	428	diff_vonmises	0.003220763798945407	0.18453617248809345	15.701163506219766	0.5634745477062579	3.3582126633261027e-22	2.861387147745424	0.42795901888741317	-0.4554039086632834	0.8833629275506966	34.18174977453839
2	1.0	wm	428	diff_vonmises	-0.02897696968003348	-1.6602580657444699	3.6217497408794226	0.4884656113156172	8.058878791737119e-33	3.3034565359907018	-0.1701756171155998	-0.5255072297711727	0.3553316126555729	72.04613067911126
3	2.0	ltm	428	diff_vonmises	0.1294189503585584	7.415159644558509	6.233814252714383	0.649700930803227	0.32547976368392295	1.8724754905133383	0.2309943028333981	-0.31576010972760654	0.5467544125610047	50.72329798236157
4	2.0	perception	428	diff_vonmises	0.015136959638181954	0.8672839019276996	4.668994336318795	1.4124989604580325	0.3423952530864287	2.808084813306642	0.5694084983477274	-0.43731812523074726	1.0067266235784746	58.483677146564645
5	2.0	wm	428	diff_vonmises	0.10757921941297524	6.163835235675335	3.3209233156644817	0.6262491105151736	1.1854231306470297e-11	2.085764242318977	0.10245575580728183	-0.3313929286106697	0.43384868441795155	75.31738742220739
6	3.0	ltm	428	diff_vonmises	0.04787640403217075	2.743115889306501	1.2877929592283368	15.150720859738822	1.1289351782383268	15.985132010828586	0.13856659504758184	-0.23971519253909568	0.3782817875866775	76.989177232341
7	3.0	perception	428	diff_vonmises	-0.03730065069163351	-2.1371698577223355	4.02001074230787	1.9242505318591718	0.23817100092276103	2.8492678474404527	0.916140041093101	-0.4204790224941088	1.3366190635872097	64.72516028232576
8	3.0	wm	428	diff_vonmises	-0.08609828502811336	-4.933068355425299	2.3314658008525364	1.5070695557999507	0.4650327862013644	2.807332990193937	0.17795536458495764	-0.3407968767066044	0.518752241291562	74.06271809815664
9	4.0	ltm	428	diff_vonmises	-0.04987876185114304	-2.8578425414086333	2.8644185513089693	0.8731025122194159	0.16739892866770775	2.3835194515778784	0.11155430542386557	-0.34671791595520574	0.4582722213790713	73.95635400408668
10	4.0	perception	428	diff_vonmises	-0.017423052691178127	-0.9982673854385575	1.4386996534391565	7.186233929106797	0.6059893389926304	9.2253051333141	0.5748926476710849	-0.6514421410710501	1.2263347887421352	86.97181125622907
11	4.0	wm	428	diff_vonmises	-0.1322321724170914	-7.576345395345554	1.0057727578415088	272.7266490350886	0.9896729973320604	274.995064226788	0.06004224379518064	-0.5331493235341398	0.5931915673293204	81.00006103284073
12	5.0	ltm	428	diff_vonmises	0.019427582985101614	1.1131185111864919	1.2307616232929217	2.2145567203960925	0.25894096329701916	2.7133021588934136	0.3019674740484626	-0.25510758966253055	0.5570750637109931	106.64267793863596
13	5.0	perception	428	diff_vonmises	-0.010504170903556017	-0.6018446600578803	2.1902684091280777	1.8504684972318652	1.2615613357919473e-14	2.7385196896264734	0.5723824567823855	-0.4232259277980571	0.9956083845804427	92.86888239779168
14	5.0	wm	428	diff_vonmises	0.1245531611330187	7.136370457934855	0.37667852286983244	61.84294128338257	0.34328016793863436	62.73962568264444	0.18006720038184376	-0.35976246105956733	0.5398296614414111	137.35898261263137
15	6.0	ltm	428	diff_vonmises	0.4406405510781189	25.24684385909499	0.7839147096630682	129.14729061766985	0.7719463229658322	129.49501465062292	0.19144747255661088	-0.15892643816109953	0.3503739107177104	101.37561824192647
16	6.0	perception	428	diff_vonmises	-0.08266030984470707	-4.7360868873454045	0.7098267445389475	202.70100874160372	0.6961996145715392	203.48269353193402	0.3046783241463089	-0.31477484409057155	0.6194531682368805	105.47949015630286
17	6.0	wm	428	diff_vonmises	0.10720278292483584	6.142267013650221	0.3336911505478065	142.88885004240242	0.3228499602776862	143.43379451256064	0.16259951626464897	-0.2620574465316263	0.4246569627962753	141.6191021079909
18	7.0	ltm	428	diff_vonmises	0.014719916235094539	0.8433890750570175	0.8060763901267274	1.8609040306144753	3.3212614209131477e-13	2.942480592032731	0.09890060037189768	-0.35517502636829446	0.45407562674019214	137.08729587844743
19	7.0	perception	428	diff_vonmises	-0.04281726521411497	-2.453248587061101	0.9349623205129772	279.6590587811945	0.9195530024504237	280.4816524646151	0.5509627026344219	-0.3912938108556929	0.9422565134901149	93.35653608903658
20	7.0	wm	428	diff_vonmises	0.020935681259923546	1.199526177424749	0.9583985674927311	170.7403807755899	0.9411091796837702	172.02785350729528	0.13503774390871115	-0.3346803267536522	0.4697180706623634	85.89409484942294
0	1.0	ltm	429	diff_vonmises	-0.45887631726078787	-26.291676297549312	11.771930746414132	0.15993081013134022	1.449683630917651e-32	1.8244028162348478	-0.07390542659074828	-0.2903627263816524	0.2164572997909041	39.52703351127198
1	1.0	perception	429	diff_vonmises	-0.007830087699664137	-0.4486309784080543	9.958530933217794	0.7225686338492446	1.45949368566299e-19	2.54205804935995	0.49283702589640677	-0.4045811021712798	0.8974181280676865	43.0170794866832
2	1.0	wm	429	diff_vonmises	-0.3816794754092693	-21.868623067718417	0.0001521445671004896	5360.268614814642	2.179902386254254e-31	5362.194470856468	-0.17670836774243526	-0.43630077592183625	0.259592408179401	175.86810032017576
3	2.0	ltm	429	diff_vonmises	0.07361240515113211	4.217680134966951	13.288807184728789	0.279273921848749	0.19490013080598423	1.1984114395102605	0.17255997772737594	-0.21067720033425852	0.3832371780616345	36.20891300654881
4	2.0	perception	429	diff_vonmises	-0.017289532444588373	-0.9906172388294187	10.796486332992606	1.0229445985086818	0.052820884277151134	1.9421889679352193	0.999046398308616	-0.31351857151198037	1.3125649698205963	41.06384371997234
5	2.0	wm	429	diff_vonmises	0.030191598060171843	1.72985114560321	0.7082636784025911	1.6537524689449177	3.209916398953676e-15	2.7467362427857536	0.03603361834023178	-0.32238024261246406	0.35841386095269584	141.6844880330845
6	3.0	ltm	429	diff_vonmises	0.13354403490645378	7.651509579287545	3.637905220781617	0.6659452781997087	1.1717487900283101	0.7721709781558277	0.1972636433930951	-0.08920958734536186	0.286473230738457	59.34520924764044
7	3.0	perception	429	diff_vonmises	0.017298931296450756	0.9911557533734019	2.7584964648078114	3.8020146321019657	1.0497083168841934	3.953378058054662	0.9850243888459698	-0.34163657801301894	1.3266609668589888	67.9359680280892
8	3.0	wm	429	diff_vonmises	-0.23799926987575404	-13.63635369107578	1.6325646603593682	84.64702909400314	1.6108185496563132	84.79710647099854	0.24575577046196173	-0.11788078953446224	0.36363655999642397	71.76643049817721
9	4.0	ltm	429	diff_vonmises	0.11551090299531937	6.618287229376859	1.694415746322593	112.70382411686856	1.664996583493736	113.56699620051755	0.15924247523411594	-0.28441822449685716	0.4436606997309731	64.82693362686535
10	4.0	perception	429	diff_vonmises	-0.12270976144014764	-7.03075143557763	2.897664685802958	2.6893737610486976	0.35126581670475804	3.8215162473510227	0.8886841320756179	-0.4982627361891685	1.3869468682647863	73.04900580733553
11	4.0	wm	429	diff_vonmises	-0.22880016276079834	-13.10928367810005	1.3107785800419502	262.84185683428234	1.2962914484779344	263.99001726248645	0.23615542984136084	-0.3500998278217935	0.5862552576631543	74.57600298757251
12	5.0	ltm	429	diff_vonmises	-0.05910315050828455	-3.3863610800511914	2.4477910453325586	0.6713677174223346	5.77800657062538e-12	1.2485813656783842	0.19205477132745988	-0.1957947655204165	0.3878495368478764	87.9165225136694
13	5.0	perception	429	diff_vonmises	0.012897661109515124	0.7389815471652352	1.792307286042159	2.562208501168115	0.18489916585862032	2.9165104811638267	0.6830042427466277	-0.3486384330489729	1.0316426757956005	95.38153134247665
14	5.0	wm	429	diff_vonmises	0.003355755470685968	0.192270625548243	0.5853927275970134	82.27714885263599	0.5685060683483836	82.93234476187266	0.09224762440469547	-0.20074731079754127	0.29299493520223674	112.68487929803436
15	6.0	ltm	429	diff_vonmises	0.48296714855434053	27.67197925563157	0.9264069720793132	91.38886486781593	0.912743803031733	91.86949801875193	0.08129054446596484	-0.1361677808217472	0.21745832528771203	88.9236603539124
16	6.0	perception	429	diff_vonmises	-0.1252268679884998	-7.174971017382951	0.780242495647358	202.2783985663232	0.7689788885363553	202.75736128339005	0.2924858373433139	-0.2321515557719973	0.5246373931153112	101.92713967358425
17	6.0	wm	429	diff_vonmises	-0.3791474304052836	-21.723547575452855	0.7067252687710106	144.778179163097	0.6935447825644437	145.48123833679196	0.16451536556886026	-0.23148647289866808	0.39600183846752834	103.75345047669315
18	7.0	ltm	429	diff_vonmises	0.14799923172666052	8.479731349116319	2.1198997882127695	0.8836433968351793	0.5476892374957254	1.357468300631071	0.12503136039228596	-0.1443146682145966	0.26934602860688256	76.73086515763458
19	7.0	perception	429	diff_vonmises	-0.139933271442368	-8.017585867106217	1.209092130792745	4.7941192741649035	0.517053277083323	4.866156031149861	0.6094770597477857	-0.2724093226666683	0.8818863824144539	100.94550050911799
20	7.0	wm	429	diff_vonmises	0.2956558448366748	16.9398320975162	0.0003268164609364707	2123.772486708664	4.161440127322821e-30	2124.193250590159	0.04350918102409196	-0.17742443309754208	0.22093361412163404	177.1961294550847
0	1.0	ltm	430	diff_vonmises	-0.01374253694722346	-0.7873893668785028	2.8231521888513105	0.5197971625141374	1.1739099896933629e-24	2.066313241914135	-7.291472959858325e-05	-0.3277031112626963	0.3276301965330977	81.82539563304832
1	1.0	perception	430	diff_vonmises	-0.0518442055728282	-2.9704541715316783	15.056490569520824	0.5117168621583995	4.319334333401311e-24	2.0855581118354585	0.4534285313684228	-0.3319268826039475	0.7853554139723703	34.91176266773641
2	1.0	wm	430	diff_vonmises	-0.7437083383175661	-42.6113489742841	0.00017335581728159031	5899.396125667558	8.725514479471372e-30	5901.289728877277	-0.13860609589437445	-0.4641324192716638	0.3255263233772894	164.8210668935727
3	2.0	ltm	430	diff_vonmises	0.11763125625620269	6.739774522302275	13.308669388981274	0.4511930624939981	0.5213350982397666	1.2384654700854063	0.33965913441551193	-0.25367592213171325	0.5933350565472252	35.43437025417268
4	2.0	perception	430	diff_vonmises	-0.012653211614444894	-0.724975622793607	6.1660869504422475	1.0744582546889674	0.21469176850917598	2.0587656302545847	0.6393505925078138	-0.3317043764937234	0.9710549690015372	52.86266961992945
5	2.0	wm	430	diff_vonmises	0.06750530750460756	3.8677692147468163	0.6384766982460607	89.53066499902624	0.6191578032634776	90.74066436922244	0.002495513412611672	-0.2751753228263816	0.27767083623899325	101.87784136213543
6	3.0	ltm	430	diff_vonmises	0.06595059828442365	3.778690938060203	1.4065363487268436	77.35888790534977	1.38931773489864	77.70294135560906	0.09553719851064102	-0.11459772088971576	0.21013491940035678	72.77966376158474
7	3.0	perception	430	diff_vonmises	-0.04590534363849219	-2.6301824475833246	2.93563587259375	3.2302202071706554	0.643497963098578	3.9721677310603796	1.00190279890505	-0.4616615912568145	1.4635643901618645	69.37326152786386
8	3.0	wm	430	diff_vonmises	-0.27855442629934457	-15.959992991640387	1.3233120353439063	189.63990208197902	1.3077683419008597	190.75065626150342	0.09131145495496185	-0.2989686971407721	0.39028015209573397	71.76629126265823
9	4.0	ltm	430	diff_vonmises	0.06553677961366226	3.7549808747418614	3.17019584418428	0.5711246674574311	0.2896402979746759	1.4335741077028068	0.08743347503675503	-0.20779912483525026	0.2952325998720053	68.18353437422923
10	4.0	perception	430	diff_vonmises	-0.06568974743348964	-3.763745285219288	1.2033078226388063	136.56212362141122	1.1501622814834203	137.98358216817553	0.8193296831117536	-0.6008304270483631	1.4201601101601167	82.17270862031967
11	4.0	wm	430	diff_vonmises	-0.2278053799679006	-13.052286822534773	1.0844563363576043	267.4268622874289	1.0696084801742514	269.39134124310914	0.04833631817544415	-0.4674525443306834	0.5157888625061275	77.73730111578081
12	5.0	ltm	430	diff_vonmises	0.08033988774034725	4.603136494076722	0.8267567414954087	63.668035280868516	0.7969104153863708	63.817364918562504	0.31757841913810125	-0.1693299882780952	0.48690840741619645	102.38461557739689
13	5.0	perception	430	diff_vonmises	0.0011910522736062257	0.06824226845709772	2.1334988671210207	1.7983388057246563	1.4594507871269184e-19	2.237942918422889	0.6083905553012947	-0.34265267441422154	0.9510432297155162	94.05657167978993
14	5.0	wm	430	diff_vonmises	0.13405493785201006	7.680782161808722	0.4416035445876848	3.0840652435373426	8.647746531512665e-14	3.878038161062873	0.11024577616934694	-0.31643517701131735	0.4266809531806643	154.89676776068336
15	6.0	ltm	430	diff_vonmises	0.6867375424678296	39.34716281659277	0.7505823623429345	111.72865744048458	0.7388184626487315	111.92225057806027	0.1943556270641693	-0.1308481512881592	0.3252037783523285	105.2932696100774
16	6.0	perception	430	diff_vonmises	-0.043888304687568026	-2.514614628581875	1.0160799250305612	222.96291360576762	1.0029335037095792	223.41425499004268	0.39950609375361523	-0.2461530585218803	0.6456591522754955	90.1902090435398
17	6.0	wm	430	diff_vonmises	-0.17788150387395452	-10.191859425417597	0.049305044913666066	123.61049410081479	0.03762325699692024	124.29268765135879	0.12200218049408917	-0.32924492130247884	0.451247101796568	174.14746079482507
18	7.0	ltm	430	diff_vonmises	0.06379193766276506	3.655008795038079	1.954109859950485	0.6809690295533186	1.015991688418677e-11	1.0968155403993622	0.17182679399516645	-0.1676089154343798	0.33943570942954626	98.08617429948933
19	7.0	perception	430	diff_vonmises	-0.09833291584247651	-5.634061064989014	0.889848145444324	208.23158849351958	0.8739476457392742	208.51911215009173	0.5397164532197252	-0.2813728730936855	0.8210893263134107	98.12299035051367
20	7.0	wm	430	diff_vonmises	-0.11916100087602087	-6.827422432750701	0.7135686267085692	102.44628335762806	0.6983268096030895	103.52800746205259	-0.009775783492489865	-0.23731753784134568	0.22754175434885582	95.04161171336638
0	1.0	ltm	431	diff_vonmises	0.049392097100257784	2.8299587051451227	8.468699164722366	0.4158255064153303	0.16613900861656444	2.779860111954851	-0.043616258073623404	-0.4709679513567813	0.4273516932831579	44.18016059908231
1	1.0	perception	431	diff_vonmises	-0.0018467180002391182	-0.10580914736454082	15.441335155692236	0.5903629692663839	0.07462991780686391	3.083194567882113	0.38975243698366	-0.5106354476983519	0.9003878846820119	34.08893199845676
2	1.0	wm	431	diff_vonmises	0.03937214932589656	2.2558579867327224	3.521943068422354	0.7592737334926359	0.23943418878833123	3.697655601224762	-0.19286107224715232	-0.5772885631189261	0.38442749087177375	62.41869596074082
3	2.0	ltm	431	diff_vonmises	0.083548784426003	4.786992731058314	3.677423852871626	0.9559194306379323	0.6041593119038726	1.8553407839239457	0.20763932705921634	-0.27025169665126964	0.477891023710486	60.770716812814584
4	2.0	perception	431	diff_vonmises	-0.014811667889404703	-0.8486460576123332	5.772009833996267	1.2859862451272572	0.42264772914270154	2.5877868555140506	0.6019361953790974	-0.4291206087690846	1.031056804148182	52.60504361612945
5	2.0	wm	431	diff_vonmises	0.08818268578923008	5.052495721851145	3.097535853731491	0.8497631074800411	0.20235337111464835	2.1695032237368914	0.1483405010930105	-0.3164146295050956	0.4647551305981061	70.94269836991296
6	3.0	ltm	431	diff_vonmises	-0.02667981875893397	-1.5286410130608783	1.7997725192436937	114.27294040540922	1.7731572107725646	114.73421976019428	0.2777526249445259	-0.21559136879410623	0.49334399373863214	65.93549205387984
7	3.0	perception	431	diff_vonmises	-0.047513613736780175	-2.7223295365323166	4.29371834314433	1.9229363566772812	0.4248096150390186	2.591968395373946	0.9330986957297097	-0.3805693028054981	1.3136679985352078	61.20434455823417
8	3.0	wm	431	diff_vonmises	-0.13646364818531562	-7.81879109797668	1.3328609286684139	220.4339892023516	1.3194317384611796	221.35289411750387	0.16715309618524543	-0.2748535325967332	0.4420066287819786	73.52204278029384
9	4.0	ltm	431	diff_vonmises	-0.14987395769914136	-8.58714523508303	1.3334093925596169	252.3977481413977	1.3196891656065153	253.47020562880908	0.19640914203455395	-0.3212106253582334	0.5176197673927874	73.53348480465183
10	4.0	perception	431	diff_vonmises	-0.06773498387144197	-3.8809287012203266	3.861923395033887	1.6838281440783471	0.051118340398596654	3.1485791532174003	0.7429173724608867	-0.4850039544791969	1.2279213269400837	68.39531191198765
11	4.0	wm	431	diff_vonmises	-0.050326417974419904	-2.883491347945586	0.9188012765983086	212.29778739520754	0.9049372757021222	213.97933384196344	0.015983296504728628	-0.3815758059370893	0.3975591024418179	84.0846931656437
12	5.0	ltm	431	diff_vonmises	-0.06926000386707186	-3.9683059106429783	2.5235657857490796	0.9734314637754995	2.174070633035683e-21	1.7355544238273355	0.3006493071025139	-0.2725140808699682	0.5731633879724821	86.58377652367804
13	5.0	perception	431	diff_vonmises	-0.0686811968478429	-3.935142711288612	1.5827376765512826	3.1709917957700458	0.30971655297082884	4.336414122223048	0.5004627151416252	-0.4469063721138591	0.9473690872554843	93.80888561481001
14	5.0	wm	431	diff_vonmises	0.00679463209550369	0.38930374241649196	0.17219944480770327	79.3347463710201	0.15169970353722456	80.4628845221016	0.07018154965581402	-0.3897425174210536	0.4599240670768676	160.51037813821173
15	6.0	ltm	431	diff_vonmises	-0.011257150689109499	-0.6449872238287606	1.0913846030593335	1.1393194427211086	0.07018192658898048	1.7617849031491906	0.10850578082494522	-0.21497263119988302	0.32347841202482824	120.07269820824924
16	6.0	perception	431	diff_vonmises	-0.12430464839565182	-7.122131726928489	0.7921491368189009	219.75393403713053	0.7770135111352874	220.982259182962	0.2676091069136106	-0.3814445690205801	0.6490536759341907	97.5510257376353
17	6.0	wm	431	diff_vonmises	0.40766236607058864	23.357333042161898	0.0005954941438255919	2076.1904674096722	3.3022780071449203e-21	2076.9435279825652	0.07694483516979744	-0.31659287648562895	0.3935377116554264	174.86831925602368
18	7.0	ltm	431	diff_vonmises	-0.1888924835067538	-10.822742086681505	0.8469311013342533	129.8691440164975	0.8298877853547488	130.91770674644485	0.09809545624070637	-0.26921387943383124	0.3673093356745376	91.36139485531136
19	7.0	perception	431	diff_vonmises	-0.06308886885855342	-3.614725919849442	0.9016733045371311	9.465124609863846	0.4901295914967715	10.918566890170961	0.38369331665876993	-0.5033390356669457	0.8870323523257156	105.20536321721204
20	7.0	wm	431	diff_vonmises	-0.02588796582235346	-1.4832711817997746	1.0938146594534144	157.8005465462551	1.0786580601651272	158.81309945035642	0.0874706027370209	-0.2604016673353975	0.3478722700724184	79.52911320770366
0	1.0	ltm	432	diff_vonmises	-0.09079727494903858	-5.202300645868828	2.5596501261588958	0.41602217488058424	7.444359153340695e-33	2.995863780715624	-0.22820921680390394	-0.4753198189326935	0.24711060212878955	85.96887275443169
1	1.0	perception	432	diff_vonmises	0.026274307892662788	1.5054069518768458	11.795112835818516	0.7476661172978618	1.147349899722233e-21	3.070540934185511	0.5239605203506484	-0.48869176758398836	1.0126522879346367	39.49692483332373
2	1.0	wm	432	diff_vonmises	-0.284800608349621	-16.3178728611916	0.0002319359118054471	4536.581616056134	4.467227884396772e-29	4539.355416990458	-0.2739947729546657	-0.6089140676897387	0.334919294735073	177.67989557057356
3	2.0	ltm	432	diff_vonmises	0.08267573991625121	4.7369709653224685	3.7698090401487736	0.7716353951283963	0.33894120675708167	2.210562245721309	0.09440892957528146	-0.33818986950578805	0.4325987990810695	61.97696655539309
4	2.0	perception	432	diff_vonmises	-0.0008610695385138239	-0.0493356504241196	6.918324501526624	1.2335663295351167	0.1332734582832464	2.5866707482060125	0.8009485279528235	-0.41674169343283174	1.2176902213856553	50.555825509177396
5	2.0	wm	432	diff_vonmises	0.061802202179341924	3.5410053494905105	2.4090245021422887	0.7669732397527016	5.11874486663498e-19	2.177995551478581	0.09558586269003266	-0.34306390689535043	0.4386497695853831	88.61601771377997
6	3.0	ltm	432	diff_vonmises	0.182290272768688	10.444463275934382	9.39513260103649	0.35558762123224635	4.463141138893011e-32	1.0109091803439407	0.26771472794513584	-0.16089119010528077	0.4286059180504166	44.30635902571163
7	3.0	perception	432	diff_vonmises	-0.0003891166891890147	-0.022294744028634367	4.777329334621942	1.4112427849880835	0.05405967607842368	1.8718450032259044	0.8800871650023693	-0.29066507170576666	1.170752236708136	61.77725951246518
8	3.0	wm	432	diff_vonmises	-0.08439418812845442	-4.835430795193514	1.4093892266053842	120.86649892022065	1.3855720991203946	121.41606998730931	0.28711326898797296	-0.225466138203533	0.512579407191506	74.77999682118616
9	4.0	ltm	432	diff_vonmises	0.07644135485254419	4.379767013312658	4.097600185223816	0.7652303292306385	0.22761629555455998	2.3403343927343463	0.13440118879441731	-0.36237640861987397	0.4967775974142913	61.8416975600874
10	4.0	perception	432	diff_vonmises	-0.04782497868659482	-2.740169434044998	2.4859263366902615	2.273282689870174	0.07410546701604008	4.319403983228141	0.5959947889709565	-0.6322985303183117	1.2282933192892682	83.79353914496537
11	4.0	wm	432	diff_vonmises	-0.17557863862623932	-10.059914965936168	1.220919312538847	357.45668461942375	1.206910647328786	359.2573803857567	0.23805124883909912	-0.49941313292277556	0.7374643817618747	76.09559926617484
12	5.0	ltm	432	diff_vonmises	-0.02685410287725254	-1.5386267574766912	1.85151542016721	1.0547407338905976	2.2376232002492218e-14	1.6083494707853316	0.26325817912118754	-0.24317676185720274	0.5064349409783903	100.6026509164403
13	5.0	perception	432	diff_vonmises	0.014356980747028774	0.8225944033553285	2.1695984726113724	1.9813803661644984	1.202443234306768e-13	2.5755132839300763	0.6635846232055711	-0.3958995493900486	1.0594841725956197	93.29562695523052
14	5.0	wm	432	diff_vonmises	0.051788045152166395	2.9672364164520775	0.6264814069672573	184.331358898649	0.6153926746911795	184.86068935983508	0.24550120763390737	-0.24779567439041195	0.4932968820243193	112.95543776280819
15	6.0	ltm	432	diff_vonmises	0.3814176626492264	21.85362230154529	1.0226436551246105	110.11667872937124	1.0101483560435862	110.37625980971379	0.170709175876965	-0.11931353961625923	0.2900227154932242	89.03773900048543
16	6.0	perception	432	diff_vonmises	-0.19739886955328087	-11.31012210605648	0.5178641686768298	162.51481848412791	0.5066671859304184	162.9128615172592	0.24202005553859607	-0.2388547403521457	0.4808747958907418	123.63464171797135
17	6.0	wm	432	diff_vonmises	0.006732222371828361	0.3857279286493179	0.5975007196728414	109.14799705363892	0.5850145980062214	109.36382851657355	0.20100601798895568	-0.1590782564776294	0.3600842744665851	117.4671308750063
18	7.0	ltm	432	diff_vonmises	0.17499452376327368	10.026447649537374	1.179425035003957	1.0220084593525351	1.0855646382160528e-16	1.8716309076975595	0.08571175562380201	-0.2616188744144269	0.3473306300382289	121.25575551291502
19	7.0	perception	432	diff_vonmises	-0.11576548588177622	-6.632873754307095	1.0578719502839649	177.2141609618951	1.03637209013077	177.4465226250195	0.6365170576026173	-0.2852191203274561	0.9217361779300735	90.64791543575186
20	7.0	wm	432	diff_vonmises	0.03866302988713507	2.215228435721003	1.6498593148119058	1.0106351247203909	0.10169352178026836	1.7313825694842944	0.1595597669958107	-0.23115862723217184	0.39071839422798255	99.87493477978074
0	1.0	ltm	433	diff_vonmises	-0.016253521856043236	-0.9312582045749178	14.751077760890796	0.30056892150418196	0.157125489608963	4.2457288338479815	-0.3293349152899259	-0.7446894326849853	0.4153545173950594	33.56330867289725
1	1.0	perception	433	diff_vonmises	0.07154756187597962	4.099373329944743	13.253691593859093	0.6994845254314813	0.039332248096612094	4.4458493153899585	0.27028715206202014	-0.7202244807523993	0.9905116328144195	36.89383814777537
2	1.0	wm	433	diff_vonmises	0.20745138062783453	11.886088564136925	136.02929168430728	0.38067769538479174	9.425851087761781e-45	5.273133970384674	0.9299117660104729	-0.8392453369725129	1.7691571029829858	11.583825184866328
3	2.0	ltm	433	diff_vonmises	0.09630681491822173	5.51797403316166	10.031487280049792	0.4818250427503584	0.2777640392300127	1.6906227678865817	0.2521747298862765	-0.3012029210225175	0.553377650908794	41.04775718056348
4	2.0	perception	433	diff_vonmises	0.004409131759841375	0.25262464115600003	9.283150948756987	1.2167445115463078	0.2469283946604971	2.9815691544110043	0.8595613905618101	-0.5147309854835378	1.3742923760453478	43.17020636468874
5	2.0	wm	433	diff_vonmises	0.05934700335199404	3.400332818818008	1.8719931693803975	1.6870800748800283	0.2922275452938642	4.110261656626039	-0.021673979870935223	-0.515841253128257	0.4941672732573218	81.67322692260774
6	3.0	ltm	433	diff_vonmises	0.08728187762322387	5.000883215788068	2.032059146339538	66.7649566301354	1.9984789095515272	67.06545654158357	0.19331939515957686	-0.15213003495612298	0.34544943011569984	61.91327975931236
7	3.0	perception	433	diff_vonmises	-0.004610287481410005	-0.26415001502679125	2.905696427088177	3.1429200960477526	0.8006332891000153	3.758679462618083	0.8794321799764291	-0.40768863541332523	1.2871208153897542	67.87868859131476
8	3.0	wm	433	diff_vonmises	-0.08352761987128864	-4.785780091397907	1.3426634428085615	156.9590927859189	1.323895049034126	158.0194930462217	0.10627310861768535	-0.29221159606384006	0.3984847046815254	71.70321021544717
9	4.0	ltm	433	diff_vonmises	-0.07146420213562774	-4.094597168641274	1.1959007739152168	288.90538849069287	1.1830725158460087	290.4650181712111	0.09923479375008526	-0.3985003039606454	0.49773509771073066	75.14650426845074
10	4.0	perception	433	diff_vonmises	-0.13169356309667238	-7.545485354479135	1.3105711044545825	105.71185147953902	1.242347752890178	107.08781285977949	0.7836311523735731	-0.5792536411840139	1.362884793557587	78.72016415621783
11	4.0	wm	433	diff_vonmises	-0.2054081692707797	-11.769021176724486	0.9464011552660054	234.5443959194932	0.9312017527167471	236.6600215352051	-0.017831373286043117	-0.4698207617296539	0.4519893884436108	81.84124800587945
12	5.0	ltm	433	diff_vonmises	-0.1353076211596617	-7.752555628403648	3.753801754346287	0.6045913646372442	5.928715473874467e-16	1.892793044491489	0.14767249791269071	-0.30100094218656304	0.44867344009925375	70.73061276823356
13	5.0	perception	433	diff_vonmises	-0.027120955159974536	-1.5539162670300932	0.8938814982496326	336.1174662763772	0.8779073650693507	337.62150610130203	0.5441337979785317	-0.5405330875971295	1.0846668855756612	93.46991310628692
14	5.0	wm	433	diff_vonmises	-0.21501747707490848	-12.319593957943189	0.40367235020266623	133.06824777228366	0.3895272090303131	135.1616432170264	-0.12866563447603951	-0.44885164035067504	0.3201860058746355	123.29070577198591
15	6.0	ltm	433	diff_vonmises	0.3560369762636228	20.399416090505056	0.6244338939513607	97.27365137577996	0.6098225020579947	98.56651439263047	-0.07630296633359279	-0.2591119712990313	0.1828090049654385	97.28798481795408
16	6.0	perception	433	diff_vonmises	-0.08110120361909427	-4.646756680805219	0.6260517025354588	338.6869565892169	0.6152499783479446	340.27653389559157	0.2670043930610717	-0.49526372224503845	0.7622681153061102	109.11996512290402
17	6.0	wm	433	diff_vonmises	0.37805172095323053	21.66076804827762	0.00017177630231993252	7717.63616320042	1.7600135181237194e-28	7719.7868708514925	-0.131297569645767	-0.5532758174692844	0.42197824782351745	175.5675755055175
18	7.0	ltm	433	diff_vonmises	0.17699418673565348	10.141019898303322	2.7374085288433716	1.0444456831854334	0.686721855773709	2.273987065812675	0.007670442804680544	-0.30115755597946825	0.3088279987841488	63.196335208572606
19	7.0	perception	433	diff_vonmises	-0.05160103144972218	-2.956521320590909	1.2726981974916551	2.1478492712961703	8.607471901210877e-14	3.2054217670887386	0.3328520835860408	-0.4440312577077621	0.7768833412938029	118.03151745157096
20	7.0	wm	433	diff_vonmises	-0.4383392045208456	-25.114986414166268	0.7846648450534347	156.46059937896078	0.7720078967245191	157.8484691138087	-0.03582581592834089	-0.2950702993249159	0.259244483396575	89.0637269004093
0	1.0	ltm	434	diff_vonmises	-0.45589949843269445	-26.121117142324483	0.00028703278299860074	2362.1691141380934	9.862214696226814e-31	2365.2636303326494	-0.384589816813218	-0.6004097941213331	0.21581997730811509	174.13078164369674
1	1.0	perception	434	diff_vonmises	0.1380954283327874	7.9122852135200485	7.097154113232355	0.8487046882409084	0.18458125099148304	3.9617084158182454	0.1330123841998313	-0.6614778646303396	0.7944902488301709	48.28872083500406
2	1.0	wm	434	diff_vonmises	0.16330442432673192	9.35665428973527	11.555078284749548	0.33342832487600654	1.9624345395980217e-37	3.462770129241294	-0.1041463220806535	-0.5511169828186115	0.44697066073795805	39.903554524947765
3	2.0	ltm	434	diff_vonmises	-0.005211660292609728	-0.2986061390224531	6.204029613191354	0.39946187329699506	3.291591955190087e-21	2.2750928117286087	0.026114238483672392	-0.3620906806830469	0.3882049191667193	54.69091600339803
4	2.0	perception	434	diff_vonmises	0.043559760935279704	2.4957904581903625	8.148228580772425	1.3038628534771752	0.2381828032113523	3.616734006376979	0.739998348450311	-0.6153348486781971	1.355333197128508	45.772924479994344
5	2.0	wm	434	diff_vonmises	0.10490292761934915	6.010495011155062	2.8589179298693512	0.79926911310799	0.02887497124816214	2.4390807001430286	0.10977121407647022	-0.3763999352045608	0.486171149281031	79.37458870114347
6	3.0	ltm	434	diff_vonmises	0.031193266767327893	1.7872425349935772	5.193732065158621	0.5116370676755113	0.10972916654323545	1.5697916092287367	0.1747326264024645	-0.24774728284148417	0.4224799092439487	57.68366448752977
7	3.0	perception	434	diff_vonmises	0.014321755308602408	0.8205761344019998	4.833049398265207	1.6655689080356382	0.23983424619197768	2.5710436709182662	0.9055897421101836	-0.39498643658534516	1.3005761786955288	59.37473697220821
8	3.0	wm	434	diff_vonmises	-0.01814920763633773	-1.0398729990687565	1.1357154115931218	194.4966156280301	1.1223760991203493	195.2558066742511	0.20710281242801898	-0.24242424295222165	0.4495270553802406	81.44238413385423
9	4.0	ltm	434	diff_vonmises	-0.06999204210019423	-4.010248611843104	0.9451571983404374	47.57113128010379	0.8788484262367594	49.85035751403257	-0.12599949767032648	-0.47232854480022546	0.346329047129899	79.70693377589558
10	4.0	perception	434	diff_vonmises	-0.02429558366447752	-1.3920344047815487	5.376291014338903	1.097175840491931	0.018102428661008235	3.571976629238403	0.40984780442258584	-0.5648724661838613	0.9747202706064472	58.34583309649139
11	4.0	wm	434	diff_vonmises	0.15118021454897917	8.661988239538791	0.9291215787214459	173.27997627590182	0.9112721235421914	175.1856430594713	-0.0306520251649971	-0.41744668254378325	0.38679465737878616	82.23827259430243
12	5.0	ltm	434	diff_vonmises	-0.1719251721724714	-9.850586757542638	1.6300140013202518	1.1163946757878784	4.645617688211983e-16	2.9196807884513505	0.043926968608170414	-0.4451572907385936	0.489084259346764	106.48829267159556
13	5.0	perception	434	diff_vonmises	-0.09637813650287408	-5.522060458950424	0.7994410227733847	268.94823487507574	0.7817847013599273	270.6731656595884	0.3890343882850402	-0.5402381129457616	0.9292725012308019	97.30103577950658
14	5.0	wm	434	diff_vonmises	0.027557632449781114	1.5789360327452213	0.536926162526697	178.51220303999412	0.5245258101979166	179.81469588199195	0.08822081804099469	-0.3576104089232466	0.44583122696424127	115.25123737802753
15	6.0	ltm	434	diff_vonmises	0.0977469556994781	5.600488021832323	0.7819046677825244	187.47774172257874	0.7689024997790012	189.03355005968095	0.002305746931341446	-0.3463055688801049	0.34861131581144633	91.10393342813248
16	6.0	perception	434	diff_vonmises	-0.2097897638673636	-12.02006805464607	0.6628037031290275	244.25041710219	0.6501128694128412	245.73477317232124	0.18111434583487096	-0.4191396268795522	0.6002539727144232	104.79592897820224
17	6.0	wm	434	diff_vonmises	0.14860989555978885	8.514719809455853	0.48038722186769395	172.19683804405767	0.46750273052016594	173.68832213115337	0.05392682862747478	-0.39686007234082155	0.4507869009682963	120.4849226160959
18	7.0	ltm	434	diff_vonmises	0.005013827466176336	0.28727115301867556	1.0483772081472098	209.97120840670198	1.0314984412144446	212.09223184529648	-0.06946814573609572	-0.46637361025415913	0.3969054645180634	76.17351704960541
19	7.0	perception	434	diff_vonmises	-0.08324164630581855	-4.769395013044163	2.009574601968052	2.412444810590161	6.26860191065382e-14	3.76023352719969	0.6496621861845087	-0.576032461231115	1.2256946474156236	96.7917686222747
20	7.0	wm	434	diff_vonmises	-0.2531972075287517	-14.507131375895504	1.1057116362053983	158.364430920318	1.0842833893472508	159.72992384172733	0.14737991985310828	-0.3609061687447088	0.5082860885978171	79.7772776590639
0	1.0	ltm	435	diff_vonmises	-0.211026859621021	-12.090948420184194	1.9245561003403826	0.3736027282257816	5.005047280558345e-26	3.944791098504344	-0.43953202865522856	-0.623822429255765	0.18429040060053647	98.72868449171271
1	1.0	perception	435	diff_vonmises	0.08743534669861239	5.009676346093606	12.238793651125256	0.6919679097799553	0.014375371816823627	3.8216082995677314	0.3384971516759031	-0.611091789532658	0.9495889412085611	38.61050601200162
2	1.0	wm	435	diff_vonmises	0.19212195616628822	11.007777240125716	14.676746557167302	0.3195344103432718	5.376473325353517e-41	4.228782974438014	-0.18896230305751432	-0.6730317136445715	0.48406941058705716	35.362977228379805
3	2.0	ltm	435	diff_vonmises	0.09439873325980945	5.4086490071683135	8.011326679987759	0.446920547436374	0.11257875253257024	2.1372456839188496	0.11669346547258502	-0.35073854134084953	0.46743200681343455	46.490935454593654
4	2.0	perception	435	diff_vonmises	0.027378800677209447	1.5686897269340214	8.204206540006764	1.298325322437536	0.19688767925458994	3.2453813774159537	0.8363753220500317	-0.5431523217762256	1.3795276438262574	46.02733717189281
5	2.0	wm	435	diff_vonmises	0.07791607781427386	4.464262414970801	3.2675591734964224	0.7272362172437439	0.003716454707229322	2.675428599251332	0.07246265551097308	-0.42350099264030766	0.49596364815128074	75.66794016904217
6	3.0	ltm	435	diff_vonmises	0.12383242847754992	7.095075518619237	5.873371334511776	0.4271983683101899	0.13280523042041695	1.1785039948387452	0.19014749355320923	-0.1881503456412892	0.37829783919449844	54.30909240078472
7	3.0	perception	435	diff_vonmises	-0.0027849894752050817	-0.1595681429176052	4.9765137811926055	1.3734118200867513	0.07953654996612604	2.0266722354393365	0.8392207569026245	-0.314512139138808	1.1537328960414326	60.193313019449164
8	3.0	wm	435	diff_vonmises	-0.021186901598676568	-1.213920042563144	1.3067580051676302	141.8984821786532	1.2855703526267757	142.73512164082553	0.2165128188592078	-0.2685578704735825	0.4850706893327903	75.5384182739065
9	4.0	ltm	435	diff_vonmises	-0.06827512026852092	-3.9118762371343525	0.9284802516669488	58.54741342070773	0.8714661537698474	60.76895237089855	-0.06913864898397293	-0.47479591521525766	0.40565726623128473	82.1857531808489
10	4.0	perception	435	diff_vonmises	-0.06523045862225069	-3.737429974757715	1.5997059993135156	5.0081619869177665	0.5062986246324067	7.312011474067728	0.4429398923360728	-0.6573013729618469	1.1002412652979197	85.2067338541502
11	4.0	wm	435	diff_vonmises	-0.08080813532538832	-4.629965104466768	1.0650439501190674	267.1905667800253	1.0493077151371197	269.4190026441232	0.00877070784676448	-0.5146632495643928	0.5234339574111573	77.56858265602884
12	5.0	ltm	435	diff_vonmises	-0.11627686925064774	-6.662173863056615	2.226703573895271	0.8654092491635349	3.254690306518897e-16	2.0764269377918696	0.1457284288799376	-0.3249307407642647	0.4706591696442023	92.1121651876793
13	5.0	perception	435	diff_vonmises	-0.03630699955811212	-2.0802378414631693	0.9474038308117319	24.51487774856558	0.7536940703659114	25.811121483110693	0.5233852415483087	-0.4932060155800373	1.016591257128346	95.9111570367902
14	5.0	wm	435	diff_vonmises	0.0050258419047025825	0.2879595296394489	0.5847913272662377	212.6497825053881	0.5736911363680209	213.8338076134398	0.13726520788304697	-0.34592130898953144	0.4831865168725784	111.73715193864922
15	6.0	ltm	435	diff_vonmises	0.3126197581858211	17.911792736447918	0.8409635071968168	158.54851611090044	0.8293160680943885	159.45838663363998	0.07113227227015528	-0.22832355980276375	0.29945583207291904	91.0412516431521
16	6.0	perception	435	diff_vonmises	-0.2153350972865472	-12.33779225555814	0.47864485693918174	240.96687854320353	0.4679855564083625	241.97640167851765	0.23490582873260735	-0.391783214585665	0.6266890433182724	125.07288831802887
17	6.0	wm	435	diff_vonmises	0.19589120133956872	11.223739080504746	0.3531079580773256	150.9873022518822	0.3408084488892917	152.02802104384494	0.11019206703824835	-0.35187244898019543	0.4620645160184438	137.5523204679787
18	7.0	ltm	435	diff_vonmises	0.12817722032628018	7.3440137544143225	1.9043423403405957	1.3171722906061003	0.43406243197546457	2.9336751124487668	-0.028275830109995903	-0.3475080466609335	0.3192322165509376	76.33028304810762
19	7.0	perception	435	diff_vonmises	-0.07000585677248039	-4.011040134260457	1.5641048599874343	3.021650562836021	0.28206310942295487	3.8292726345543895	0.5502857859723684	-0.3966477604612155	0.946933546433584	96.24936073746564
20	7.0	wm	435	diff_vonmises	-0.20582507127509705	-11.792907902042415	1.0692262921253481	4.780469182566035	0.6057715658442722	6.100087439391918	0.06935045594269029	-0.3176678387363887	0.387018294679079	90.63782096722703
0	1.0	ltm	436	diff_vonmises	0.0593256561296866	3.399109713075464	13.10576054861828	0.24523945447348114	0.06539122000332442	0.9733640606133811	0.18536584320940225	-0.15946878534387435	0.3448346285532766	37.0876530189409
1	1.0	perception	436	diff_vonmises	-0.045630585736300786	-2.614439979399889	17.505348341679262	0.5143869214174583	2.339827282013658e-19	1.4665212877711171	0.6185529186118113	-0.2334041120982647	0.851957030710076	32.36898670210019
2	1.0	wm	436	diff_vonmises	-0.018767519039458894	-1.0752996328924114	6.0631216198373865	0.3215742780782992	0.1311452194060618	1.3354119326297949	0.06750791906798251	-0.21570024598769486	0.28320816505567736	52.84894186651064
3	2.0	ltm	436	diff_vonmises	0.18906160071128358	10.832431788744112	3.3630987083394586	43.33216003285256	3.289582718090096	43.449981827702516	0.2914105974530621	-0.15810997590542186	0.44952057335848394	49.22858826618983
4	2.0	perception	436	diff_vonmises	-0.03412472271307068	-1.9552025885131703	7.709589858432377	1.0779217918657225	0.6240854076176989	1.3342062653717406	0.8129724885100897	-0.2392040269017112	1.052176515411801	46.3706948456701
5	2.0	wm	436	diff_vonmises	0.0876655545805059	5.02286628613675	1.0575420358478278	108.20034182371718	1.0425936072712587	108.65021348006691	0.1471752496537846	-0.15198134656208317	0.29915659621586776	85.24479280583279
6	3.0	ltm	436	diff_vonmises	0.05231988192774116	2.997708419082358	2.9252669549654637	13.406968606428839	2.797083078528897	13.396903978697798	0.22634706912250735	-0.0779174724394458	0.30426454156195315	55.01849245874038
7	3.0	perception	436	diff_vonmises	-0.05767436371048079	-3.3044976267130237	4.108865410749071	1.789294632324269	0.627832304028006	1.7812383642789542	0.9135024924496061	-0.24044666517603006	1.1539491576256362	61.901920474984365
8	3.0	wm	436	diff_vonmises	-0.11761839778314723	-6.739037786065214	1.7725723593755323	111.6074842743949	1.7550038055311863	111.89748310019341	0.18522071835527498	-0.13818953616102014	0.3234102545162951	66.54353564761419
9	4.0	ltm	436	diff_vonmises	-0.04162554166144479	-2.384967857146763	2.0318833964551257	155.4095663576247	2.016949544245611	155.7880144660289	0.16346086758878187	-0.16683187280115774	0.3302927403899396	60.742278004084596
10	4.0	perception	436	diff_vonmises	-0.08075089567470876	-4.626685514062026	3.844716587436936	1.6996869262625536	4.615085681078731e-16	2.3643958616858036	0.9023924418742298	-0.37572001326277166	1.2781124551370016	69.87081450634454
11	4.0	wm	436	diff_vonmises	-0.042072635235485496	-2.4105844319867153	1.3524754505583712	172.8340178887178	1.3364709056623947	173.83053772720928	0.09616037042279402	-0.2743768364638939	0.3705372068866879	71.30233312650233
12	5.0	ltm	436	diff_vonmises	-0.055746310337914474	-3.1940283057890095	2.857991331696847	0.5843002596264993	2.3684836643280102e-11	0.8012600741788833	0.24468537196469792	-0.1262988065623956	0.37098417852709353	81.31685258190404
13	5.0	perception	436	diff_vonmises	-0.05327035394361215	-3.0521664541370574	1.6970532823415092	2.364057651110134	0.21343793974214245	2.7997835611753925	0.5583884757099719	-0.3197036728139759	0.8780921485239477	96.32204867954599
14	5.0	wm	436	diff_vonmises	0.30101696908478487	17.24700189037815	0.00039874269159880226	1743.3517810855524	9.020567657824847e-25	1743.8595298124148	0.02983564396095062	-0.19143502651792232	0.22127067047887294	177.09733953371494
15	6.0	ltm	436	diff_vonmises	0.203080185023159	11.635637504562881	0.6823553502989311	52.15404221787992	0.6663637755997318	52.46740085182248	0.07159474849254721	-0.103828638395707	0.1754233868882542	105.69113402447113
16	6.0	perception	436	diff_vonmises	-0.18537387908702246	-10.62114090365482	0.9552820810449196	212.04906072162748	0.939880447717209	212.76714107421273	0.3830944301551682	-0.3015759719050308	0.684670402060199	91.61961872135814
17	6.0	wm	436	diff_vonmises	-0.08777710049054982	-5.029257396004213	0.0004142921498844508	3317.0269914537703	2.84683760229631e-30	3317.736070180094	0.10588286318568407	-0.33154432621267915	0.4374271893983632	179.75576504843332
18	7.0	ltm	436	diff_vonmises	-0.1164311250994603	-6.671012072158782	1.0896673063184972	64.39833004107335	1.0642891546849056	64.86819742107295	0.14053358669985982	-0.15403446045314606	0.2945680471530059	83.81324295708518
19	7.0	perception	436	diff_vonmises	-0.03756957538692062	-2.1525781077691284	1.8748628740609343	1.8872856611216213	0.06042728789057185	2.813541968388065	0.46098685972827663	-0.39912283638472545	0.8601096961130021	97.1331600498018
20	7.0	wm	436	diff_vonmises	0.5530981834611617	31.690191568677076	72.97955755862031	0.25089145802449137	0.23115483811890156	0.9528609762589453	0.6641137675328187	-0.1836750027807279	0.8477887703135466	15.77376504187751
0	1.0	ltm	437	diff_vonmises	-1.1276512780738694	-64.6096589961659	0.0002647417940650966	1334.2024990054172	3.664927086978365e-29	1337.6627087718298	-0.4944904971858932	-0.606921038985206	0.11243054179931278	146.80238844257087
1	1.0	perception	437	diff_vonmises	0.04081805013964353	2.338702000954955	10.597201946514197	0.6631391323485454	1.3474328717230134e-14	4.008702636697893	0.2124226387543433	-0.6380048394848642	0.8504274782392075	41.68518144311665
2	1.0	wm	437	diff_vonmises	0.1736694114124227	9.950524304452953	123.44700914675315	0.3902131671099113	8.168993127601718e-34	4.276699331586229	1.0471312590161093	-0.6806578387397532	1.7277890977558625	12.154902614061058
3	2.0	ltm	437	diff_vonmises	-0.053803133361327915	-3.082692466183608	15.461026452525218	0.3314310151384593	0.04154074108810562	2.1991437770158395	0.15087049794404367	-0.35762268483680637	0.5084931827808501	34.16665177291512
4	2.0	perception	437	diff_vonmises	0.005670621649228255	0.3249026877162934	11.48544603777487	1.1111656069361664	0.09818262076946284	3.2956768832822294	0.9077644375680411	-0.5448243798928957	1.4525888174609367	39.51815356670804
5	2.0	wm	437	diff_vonmises	0.027456104324056062	1.5731188996393022	2.497727233223453	0.7065667740514295	7.762437021761725e-16	2.9888793891878547	-0.059523085079492166	-0.4728776193385414	0.4133545342590492	87.03499723803048
6	3.0	ltm	437	diff_vonmises	-0.12275850200427522	-7.033544064193228	3.322877930865096	0.48734934841635014	7.382171643914907e-27	0.9857903021116309	0.18128622659854216	-0.15645392578855072	0.3377401523870929	75.29439326290142
7	3.0	perception	437	diff_vonmises	0.012066790643983472	0.6913761761682017	3.3373580854646496	2.9743902125613375	0.7006570361804655	3.7857320358860953	0.9911903482152473	-0.47289094280710786	1.4640812910223553	65.1203240285592
8	3.0	wm	437	diff_vonmises	-0.2576879762726225	-14.76443347168857	1.506707138669161	145.47165138903293	1.4872241602786884	146.22401384768636	0.17190292447844513	-0.24503699621658015	0.4169399206950253	69.57364664784885
9	4.0	ltm	437	diff_vonmises	-0.06875430034952033	-3.939331233402356	1.0492780119882017	49.487096694228974	0.9819179614272384	51.26298696355652	0.02892433482957557	-0.4130424871884699	0.4419668220180455	79.80115068028044
10	4.0	perception	437	diff_vonmises	-0.13327420325510178	-7.63604936448603	2.4027509910920406	3.9684863771015375	0.5900431663423873	5.7781687441377585	0.7611833595253437	-0.6377927267930951	1.3989760863184388	73.54777512135723
11	4.0	wm	437	diff_vonmises	-0.2595607345706764	-14.87173461821516	0.9753908166650843	93.00827878753616	0.9385442087383001	94.9933913897472	-0.004711835914459783	-0.4458335550657413	0.4411217191512815	81.36681239518875
12	5.0	ltm	437	diff_vonmises	-0.07504068050688838	-4.2995142848343315	3.211375601635748	0.7956413096987267	3.151149565396458e-15	1.9629833978820397	0.22917423511458712	-0.31153878879383495	0.5407130239084221	76.62398764703408
13	5.0	perception	437	diff_vonmises	-0.03296119097003751	-1.8885371303078693	1.2907321099598927	5.8323448560774525	0.5225360490196975	6.850942630798972	0.5890203016015685	-0.4527140659819376	1.041734367583506	94.90357354847666
14	5.0	wm	437	diff_vonmises	-0.3202325309946467	-18.34797248878558	0.552203797023348	149.35932818709293	0.5357422306090859	150.79515934584342	0.09851365472745499	-0.391273487605325	0.48978714233278	113.77600210890736
15	6.0	ltm	437	diff_vonmises	0.37457075611132135	21.4613234542028	0.6161722076539529	117.3519931500714	0.6041383393727835	118.21385903398145	0.037982651342161944	-0.2150232833554604	0.25300593469762234	105.95608682448821
16	6.0	perception	437	diff_vonmises	-0.08560609842478936	-4.904868140321955	0.7605773634503252	266.0353068958907	0.751212169147757	266.8185066645928	0.24515655196780983	-0.27876042046453975	0.5239169724323496	100.83819256544855
17	6.0	wm	437	diff_vonmises	-0.3331372260652847	-19.087357052236413	0.7258352217223656	98.7740713619129	0.7057974040035465	99.82616661552095	0.07693449467178937	-0.26708675652503544	0.3440212511968248	98.54931567474247
18	7.0	ltm	437	diff_vonmises	0.1396133736237407	7.999257072223431	1.33089812139734	154.37559950885472	1.3155304450399312	155.31109704414465	0.055024077836066	-0.24624104796517798	0.301265125801244	70.90756745414811
19	7.0	perception	437	diff_vonmises	-0.1903463578212755	-10.906042948846075	1.4147377828455923	2.1506862660041346	1.1831610978876733e-18	2.5275512138183855	0.496943019318417	-0.34917897080410765	0.8461219901225246	113.04578181570321
20	7.0	wm	437	diff_vonmises	-0.5020665483760534	-28.76629425664863	1.15907195983894	103.00054904108042	1.1412845705492425	103.68238241856598	0.08974076891302474	-0.18684149741170764	0.2765822663247324	78.28670424142784
0	1.0	ltm	438	diff_vonmises	0.015802530560700256	0.905418306754627	5.8265763055538935	0.35393762652381533	0.005354090258892252	2.7499248398229326	-0.10718685631321329	-0.43690024909102393	0.32971339277781064	56.14725049742577
1	1.0	perception	438	diff_vonmises	0.0016830141586004945	0.0964296081485697	15.823190595037875	0.5364860083322252	2.8604522137327594e-20	2.769510910200885	0.40363874776023556	-0.44078135130538987	0.8444200990656254	34.045943602154296
2	1.0	wm	438	diff_vonmises	-0.008161456765026581	-0.4676170273145171	5.338308278959972	0.3829626184950014	0.011169999334364408	3.1673591221360065	-0.16596569019047802	-0.5025570683002951	0.3365913781098171	58.33102031418977
3	2.0	ltm	438	diff_vonmises	0.10616282040570185	6.08268155045205	6.229917188495569	0.6184524864506181	0.3789129274467942	1.7386470187985867	0.21232009799472956	-0.2971018830869479	0.5094219810816775	50.273756742413525
4	2.0	perception	438	diff_vonmises	0.00488313665915673	0.27978312135529343	5.715920607899692	1.2834726427458332	0.33199185186450403	2.644880949468353	0.6238480541811484	-0.43106124135102625	1.0549092955321746	53.555888212837715
5	2.0	wm	438	diff_vonmises	0.07420731702968561	4.2517660747902655	2.6046067211838113	0.8814955009034684	0.19322555206337397	2.333543276096612	0.08574443777879337	-0.3308224237060076	0.416566861484801	76.11283990147345
6	3.0	ltm	438	diff_vonmises	0.019251673722922604	1.1030396528863742	1.4426124093728592	58.337924008338	1.4014762363734108	58.95713675992404	0.169047830430074	-0.20638658744499505	0.37543441787506904	72.06272962749051
7	3.0	perception	438	diff_vonmises	-0.05055886586632081	-2.896809631108221	4.6182965758549575	1.6671811216262404	0.201620130821708	2.4172288130599644	0.9196207789117347	-0.36746455339562134	1.2870853323073561	61.14861846798871
8	3.0	wm	438	diff_vonmises	-0.1142664542638005	-6.546985569240419	1.3123461690163494	222.87217360022794	1.2977389758136717	223.95505972712712	0.161242157850495	-0.3117000294261665	0.4729421872766615	73.56747988082569
9	4.0	ltm	438	diff_vonmises	-0.11868938496664194	-6.800400831592064	1.312492975703192	5.479843986796716	0.8262370514417444	6.859844528869722	0.07314951956540039	-0.33726068204174287	0.41041020160714325	79.525991596561
10	4.0	perception	438	diff_vonmises	-0.040175507770456545	-2.3018870350422036	2.4831805523976316	2.5532443462213963	0.2280043353968741	4.400664012030185	0.6303484650240345	-0.5862611568403293	1.2166096218643638	79.3460935968777
11	4.0	wm	438	diff_vonmises	-0.09608282496986294	-5.505140354467348	1.0035719300770245	260.99061501276503	0.9895019216173165	263.08603355050707	-0.01703022458455905	-0.47047636439990015	0.4534461398153411	79.35998912581186
12	5.0	ltm	438	diff_vonmises	-0.015382631255441792	-0.8813598487428417	2.0346058521591233	1.0766060797538675	0.014220119550367179	1.652840172641524	0.2943759785195747	-0.24973908073959905	0.5441150592591737	95.56853566607279
13	5.0	perception	438	diff_vonmises	-0.036903299120869856	-2.114403289734684	2.1945705373133317	1.7786805896845466	3.4344069241506196e-16	2.689041846310674	0.5423293790944583	-0.4159313840053259	0.9582607630997843	92.7770047705313
14	5.0	wm	438	diff_vonmises	0.03280489425657608	1.8795819882747637	0.36117469039436206	118.380238444939	0.3445376400446596	119.31549517690512	0.1533899416367568	-0.35306775906473575	0.5064577007014925	137.97494874201277
15	6.0	ltm	438	diff_vonmises	0.3565967576763246	20.43148920290274	0.6700871772111302	124.97715640770798	0.6584860906614002	125.41951668638812	0.15343171981144366	-0.17353268554882462	0.3269644053602683	108.13282772630632
16	6.0	perception	438	diff_vonmises	-0.11540816139994889	-6.612400569581689	0.7627046767125335	222.96621014707395	0.7499502078157549	223.77293199390704	0.3056772654423554	-0.3108840787766418	0.6165613442189972	101.52434424552634
17	6.0	wm	438	diff_vonmises	0.17380729948431925	9.958424709017823	0.16976361638173448	127.0891914418681	0.15820644145038318	127.69890689218656	0.13825759045985464	-0.2955110282101252	0.43376861866997984	160.0537445704977
18	7.0	ltm	438	diff_vonmises	-0.05667275484707484	-3.2471096661169674	0.7179072460095381	85.60062431867883	0.694311580698168	86.67834612759347	0.07956452632641842	-0.27465784891639977	0.3542223752428182	99.28952401705942
19	7.0	perception	438	diff_vonmises	-0.0650343462426566	-3.726193563096706	0.834791770389673	241.98550727136816	0.8182058939868817	242.90866907134568	0.48270266095465786	-0.40066329704564296	0.8833659580003008	98.15002513892459
20	7.0	wm	438	diff_vonmises	-0.054179788773358106	-3.104273231623699	0.9324113056284079	154.31850010238824	0.9172659904356654	155.5242979465556	0.05144956422613234	-0.28725438800742253	0.3387039522335549	84.9828058961507
0	1.0	ltm	439	diff_vonmises	0.012871473148636924	0.7374810875328607	6.811341153206164	0.37515594599792457	0.1806323449114167	1.8274008233111294	0.03725867939538169	-0.3039024980989434	0.34116117749432506	49.136779873564905
1	1.0	perception	439	diff_vonmises	-0.033586902130680926	-1.9243877390069692	17.833345020439346	0.5593343591708457	1.5237236922750176e-16	2.0769540464019913	0.6049693933033923	-0.33055750305959036	0.9355268963629826	32.05604290754812
2	1.0	wm	439	diff_vonmises	0.01955710400046135	1.1205395187248537	5.281172514312093	0.4729984112904889	0.21826016003706153	2.255572389486069	-0.01901558572981471	-0.3694439944103867	0.350428408680572	54.172865903246844
3	2.0	ltm	439	diff_vonmises	0.11045901938369168	6.328835619839285	2.067261309357723	5.801092893486888	1.583820922480622	6.368334897473943	0.20199531129320114	-0.22259379131507717	0.4245891026082783	63.822099501873254
4	2.0	perception	439	diff_vonmises	-0.03251609501676495	-1.8630350107069995	6.536530844329853	1.16083363163281	0.43176230457647047	1.8869933484478876	0.7178213988642894	-0.3179042215460741	1.0357256204103635	50.30379479133643
5	2.0	wm	439	diff_vonmises	0.08530823782946044	4.8878019853263535	3.4791453358541937	0.596788011106007	0.13206054783827603	1.3901074542368637	0.17350721806705244	-0.2081974756481926	0.38170469371524507	69.5716195798843
6	3.0	ltm	439	diff_vonmises	0.016209037761636673	0.9287094537099603	2.0608305984702953	81.28341882554695	2.0325210549947155	81.44409638995852	0.27105169398554096	-0.1366615822208459	0.40771327620638687	63.416369077631146
7	3.0	perception	439	diff_vonmises	-0.06894748903708284	-3.950400129849359	5.452457419382363	1.324310008710106	0.21750965519292992	1.5412413579668172	0.9011072783743861	-0.23891719674897838	1.1400244751233646	56.74586978951885
8	3.0	wm	439	diff_vonmises	-0.1322085047912104	-7.574989340271479	1.6763024094351167	164.6142606310693	1.6611105028760138	165.02215775868208	0.2336302889334263	-0.18212222778829457	0.41575251672172087	68.26901840197675
9	4.0	ltm	439	diff_vonmises	-0.1261552810482106	-7.228165167349208	1.5579589833021519	174.61365813007424	1.5415791608584724	175.2763296740483	0.20325101688221991	-0.23432912230984115	0.43758013919206107	69.16469153137783
10	4.0	perception	439	diff_vonmises	-0.05307081765186117	-3.0407338667600348	3.5191910095356858	1.7729019768462662	5.894664298578934e-20	2.997817309780111	0.7931778810180174	-0.47600269970715753	1.269180580725175	73.11267283642607
11	4.0	wm	439	diff_vonmises	-0.0823296335690095	-4.71714053236283	1.19406643566347	237.93108061060713	1.1811604752007399	239.1851417642081	0.09715750771584908	-0.32537184403765806	0.42252935175350714	75.61906607019597
12	5.0	ltm	439	diff_vonmises	-0.02653654707781341	-1.5204321504089262	2.5943148773828155	0.8832802880457484	8.092583244809756e-17	1.1002748457513338	0.3568246068739158	-0.17214561027867614	0.528970217152592	85.39887265178945
13	5.0	perception	439	diff_vonmises	-0.06010414999747753	-3.4437141260766997	2.1234195002471568	1.7785934639043506	0.023654081603977934	2.322568922711097	0.5727674752223975	-0.3473440185268688	0.9201114937492663	93.37049711755503
14	5.0	wm	439	diff_vonmises	-0.00923029464249773	-0.528856926677335	0.7424717960230263	1.9251760977947208	8.295694263624686e-08	2.3037191781565802	0.19675904856460424	-0.23902156959222923	0.43578061815683344	140.07589987682235
15	6.0	ltm	439	diff_vonmises	0.04695429495864779	2.6902829311429164	1.75131270325977	0.6598449957423258	3.690882329554974e-15	0.7489888969742561	0.19482888782218974	-0.10974665502371508	0.3045755428459048	103.19340233924532
16	6.0	perception	439	diff_vonmises	-0.2056958788932753	-11.785505723818787	0.8453777343587462	109.0596277810757	0.8226353648174499	109.6019308936817	0.3064349527280186	-0.24419082778064194	0.5506257805086605	97.9556898441248
17	6.0	wm	439	diff_vonmises	0.21560897756871894	12.353484439818432	0.19359427731210596	83.8859707729834	0.17946074687070973	83.91348263835816	0.19928687458415162	-0.17327476724680224	0.37256164183095386	157.89091695168673
18	7.0	ltm	439	diff_vonmises	-0.18798873751735082	-10.77096125573684	0.9001202242261882	129.1717173383602	0.8859239283466229	129.758750629368	0.16148793653211868	-0.19062269033518398	0.35211062686730266	92.07413959554012
19	7.0	perception	439	diff_vonmises	-0.10163504161504693	-5.823258935178675	0.8490052780841415	65.03283226492108	0.7902656712240693	65.96647330826391	0.44755988984036676	-0.38924702844657055	0.8368069182869373	98.27731442637857
20	7.0	wm	439	diff_vonmises	0.12423407319773311	7.118088065949446	1.0203156993612315	74.23968442483405	1.000007695716559	74.82564713399087	0.0847214226266253	-0.16067749403153364	0.24539891665815894	84.13024325526999
0	1.0	ltm	440	diff_vonmises	0.015294877421501036	0.8763319244219444	7.34406256990932	0.4751738247401297	0.0824278841399232	3.1033831856232954	-0.031093638138193436	-0.5034723621449063	0.4723787240067129	48.43413714622341
1	1.0	perception	440	diff_vonmises	0.013467406837823088	0.7716255727928889	16.908253030546067	0.628366743266895	3.0831907726500703e-18	2.9087088846049407	0.559891676712599	-0.4629353970001876	1.0228270737127865	32.933069656759045
2	1.0	wm	440	diff_vonmises	0.0813343985796234	4.660117767847258	4.056937591710903	0.47870986195628773	3.9169654070031863e-17	3.583271704742746	-0.1994139440390193	-0.5701843626014176	0.3707704185623983	67.96918703240138
3	2.0	ltm	440	diff_vonmises	0.16567416614865083	9.492430494666865	5.62661659427239	0.7624591637805266	0.5286386604168617	1.7574189729573215	0.2607072117891979	-0.2993983944498349	0.5601056062390328	51.70079286224362
4	2.0	perception	440	diff_vonmises	0.0029651191003885976	0.1698888102058941	5.375410389929087	1.345839213507608	0.3513201112864776	2.483438362463967	0.668084749032973	-0.39777881323868336	1.0658635622716564	55.1545084351248
5	2.0	wm	440	diff_vonmises	0.09647631927863573	5.527685917622446	3.385156523012375	0.7303869626785908	0.09957013763868075	2.17988278055115	0.12975181299525784	-0.33051856350984526	0.4602703765051031	70.56566142086848
6	3.0	ltm	440	diff_vonmises	0.10321216591031773	5.913621501065236	3.250685841654604	0.912571975936533	0.6949963740336665	1.47607653864946	0.2068614454284362	-0.1939683741009466	0.4008298195293828	63.683848944430224
7	3.0	perception	440	diff_vonmises	-0.05486032556406791	-3.1432651175347486	4.980868238012625	1.3092600632814053	0.00740287412951435	1.8421248944763138	0.8376136773095936	-0.29149012783384887	1.1291038051434423	61.05230650589499
8	3.0	wm	440	diff_vonmises	-0.01891425070958545	-1.0837067383115688	3.270695042525955	1.0704768353782865	0.43732040721531973	2.114147192495424	0.2392449598879694	-0.2970321567770414	0.5362771166650109	66.02134718804442
9	4.0	ltm	440	diff_vonmises	-0.09559938855543876	-5.477441488257905	1.0871054178107251	84.82263550165217	1.0486558648202557	86.22216506766003	0.12172679035533207	-0.3591813275270681	0.4809081178824002	80.26582429872221
10	4.0	perception	440	diff_vonmises	-0.02587051936738649	-1.4822715735627023	1.847305397048351	3.4219250295171633	0.2468032574097542	5.2239063292009895	0.6341166102659603	-0.6189246664124708	1.2530412766784311	89.66236507655722
11	4.0	wm	440	diff_vonmises	-0.13039271057482815	-7.4709519952085115	1.1264922670483724	299.56508723443875	1.1107152630929706	301.7177059350255	0.10237650798272568	-0.5313651220272675	0.6337416300099932	77.08276049178676
12	5.0	ltm	440	diff_vonmises	-0.03641804619142136	-2.086600344880926	2.0828842306863775	0.9712740217117894	5.343524188869784e-13	1.4339103162487552	0.28527787377539615	-0.22024562143529341	0.5055234952106895	95.15333812131695
13	5.0	perception	440	diff_vonmises	-0.012113109580047701	-0.6940300557162183	2.1706353174594923	1.9176301231929904	0.015930805350820136	2.7508192323804446	0.5944186824804993	-0.41732834066963037	1.0117470231501298	92.6160542133467
14	5.0	wm	440	diff_vonmises	0.11998622048123864	6.874704033301131	0.9997202299281045	1.7945736551811546	3.289859919831819e-17	2.566095189291147	0.2047214615784	-0.32538201645995013	0.5301034780383501	128.4539611059667
15	6.0	ltm	440	diff_vonmises	0.37162036660708003	21.292278587690078	0.9309737489304016	90.28587671574229	0.9161906164702109	90.54993798898379	0.16784943071194292	-0.12221872958692703	0.29006816029886995	93.38272053524568
16	6.0	perception	440	diff_vonmises	-0.17761224861955013	-10.176432235728505	0.5244114414132106	164.37544852194216	0.508911021781264	165.06738157581663	0.3055191176623069	-0.34528028267763844	0.6507994003399453	122.48207824901992
17	6.0	wm	440	diff_vonmises	0.22745087463049712	13.031975162886694	0.33680025003331643	127.64774252665957	0.3243324547554382	128.0295015544107	0.2052696338927511	-0.24880210130110747	0.45407173519385857	141.61771053453083
18	7.0	ltm	440	diff_vonmises	-0.05611021138982477	-3.2148783002238406	1.0383526068564353	1.2077085693817922	3.115479223943377e-17	2.258986088624957	0.06190185993571812	-0.30670485417409526	0.3686067141098134	126.98206309742129
19	7.0	perception	440	diff_vonmises	-0.018719996852657034	-1.0725768121554324	0.9439955730334374	255.81063345252278	0.9287621445853574	256.6919922374699	0.4514371508992241	-0.3639931410736672	0.8154302919728913	92.04021419624135
20	7.0	wm	440	diff_vonmises	0.10029461814150206	5.746458327384288	0.8767295146263564	135.13780867445098	0.8575792194233638	136.42867213040847	0.08739841670295334	-0.31837863084247076	0.4057770475454241	88.8930198948766
0	1.0	ltm	441	diff_vonmises	-0.01870456669381812	-1.0716927291767462	7.125998693448719	0.5343614780132021	0.21644273989868532	4.039605513013688	-0.23066525186887266	-0.6932021593684901	0.4625369074996174	46.45910225969362
1	1.0	perception	441	diff_vonmises	0.02340851627479946	1.341209187209309	15.17024391889195	0.7386337090883877	0.02299532245993461	3.856898419051481	0.5096214034857796	-0.620377810508697	1.1299992139944766	34.64211032497252
2	1.0	wm	441	diff_vonmises	0.12469422890533743	7.14445304591403	5.916070046184994	0.46305883790419616	0.062398090460613266	4.663176117189254	-0.3502444458544793	-0.748542675182962	0.39829822932848274	53.2170516768079
3	2.0	ltm	441	diff_vonmises	0.05084880575858921	2.913421963247678	2.1934158437378244	2.2171758772190917	0.7770837196783855	3.5397968762520775	0.14978495266742753	-0.360009992122613	0.5097949447900405	69.60059898864921
4	2.0	perception	441	diff_vonmises	-0.014406215982044597	-0.82541537452507	5.948325808336884	1.3965441722963088	0.31657357881844234	2.9925595718593954	0.6900046366908842	-0.4912039565909177	1.181208593281802	52.65380282936272
5	2.0	wm	441	diff_vonmises	0.0986282419906526	5.650982006859358	4.938122481459791	0.6189001014692688	3.530636215016571e-16	2.35014573680559	0.15903198014023567	-0.37400991642480697	0.5330418965650426	61.453120325996196
6	3.0	ltm	441	diff_vonmises	0.028984649767292533	1.660698102330706	4.208697211010914	0.7136905183701931	0.26772175339368837	1.3155384204815512	0.29527455370719463	-0.19849616201801665	0.49377071572521125	62.38725518546116
7	3.0	perception	441	diff_vonmises	-0.05088768939410616	-2.915649831454924	5.693885710696558	1.2045230165363765	0.04282228936380803	1.7618348546534675	0.8264562128166053	-0.2769471370274821	1.1034033498440874	56.66303908106639
8	3.0	wm	441	diff_vonmises	-0.08137211704601915	-4.662278876781441	1.4807510484997146	169.90479509433192	1.4615931882371245	170.691256967996	0.23742868434705144	-0.27196086363805705	0.5093895479851085	71.0778917664079
9	4.0	ltm	441	diff_vonmises	-0.18478697140700778	-10.587513570626166	1.0356598130557515	174.10909248830632	1.012745771501306	175.7155208577396	0.20021192610125382	-0.430010517945405	0.6302224440466588	83.06008504149318
10	4.0	perception	441	diff_vonmises	-0.06608679624567618	-3.7864945064182587	3.017175041321168	1.9714247651678753	3.5705314130347114e-17	3.922360386226192	0.6711162306801547	-0.621160412560353	1.2922766432405077	79.10463265746506
11	4.0	wm	441	diff_vonmises	-0.16371888977870225	-9.380401410887151	0.9982960628867024	139.7748384837508	0.9693393155067024	141.80207256599806	0.08570883985236577	-0.4856299719097983	0.5713388117621641	82.25625609739453
12	5.0	ltm	441	diff_vonmises	-0.061127342023782165	-3.5023387108153945	2.832931955717846	0.9721000209690429	8.79722669672999e-13	1.7086587231246164	0.3441195297621865	-0.269808126928792	0.6139276566909786	81.68709041180415
13	5.0	perception	441	diff_vonmises	-0.040114675102155925	-2.298401579892059	1.3833140039726306	5.03161656261368	0.4855252230576512	6.089787351675369	0.589372162794797	-0.4570316977566131	1.04640386055141	93.64189662980328
14	5.0	wm	441	diff_vonmises	-0.09493130226808275	-5.439162963641841	0.47106452334479554	209.3176844367516	0.45950346743155024	210.18663617007957	0.24182983797807367	-0.3641342356334327	0.6059640736115064	126.56356368788236
15	6.0	ltm	441	diff_vonmises	0.09095337867193169	5.211244730356882	2.284657656302004	0.5642140758328906	1.2577687949458573e-13	0.8839019516624721	0.17458991147121766	-0.13740950095206292	0.31199941242328055	90.9595750842285
16	6.0	perception	441	diff_vonmises	-0.1788086265957352	-10.244979644466312	1.0388748221062623	1.7942453614711296	3.152725505313873e-10	2.521708596600444	0.22493589582069423	-0.3229235512647244	0.5478594470854186	126.75423569848321
17	6.0	wm	441	diff_vonmises	0.5910509779628286	33.864726514349904	0.000707771426304277	1703.7734508715264	2.9205801962858074e-23	1703.8908504149397	0.1732708057126615	-0.21057232328473674	0.38384312899739825	169.66800781481365
18	7.0	ltm	441	diff_vonmises	-0.09955716322826198	-5.704205273274446	0.7264849382817589	138.09141492794845	0.7128848122188944	139.14454088075365	0.0559670402875625	-0.2579867374680589	0.3139537777556214	97.46524842089427
19	7.0	perception	441	diff_vonmises	-0.10810559511086933	-6.193994341602919	1.0270333062549146	7.598405102701366	0.5899122447718574	8.562096339352268	0.3778815843428798	-0.36892405491434577	0.7468056392572255	98.69513873568184
20	7.0	wm	441	diff_vonmises	-0.002491950117369979	-0.14277822448242994	0.904078224623342	90.13746531409247	0.8820910358037437	90.94097686232175	0.12101154400115632	-0.22259089748337146	0.3436024414845278	89.88756030773999
0	1.0	ltm	442	diff_vonmises	-0.13955977282307588	-7.996185972566814	3.2494735823635237	0.3833829340988213	5.089185777573803e-17	4.172319136134246	-0.4013260740483776	-0.6636498163439823	0.26232374229560473	76.15785147378682
1	1.0	perception	442	diff_vonmises	0.08194985169711841	4.695380633967892	12.556208212038843	0.7650026118922033	1.93175410567795e-18	3.84588224525227	0.4579810021501892	-0.6120911698679701	1.0700721720181594	38.262420659203144
2	1.0	wm	442	diff_vonmises	-0.19158771074731107	-10.977167232394127	0.0002501003613244905	5154.370725499649	2.759969881860052e-29	5158.429547486159	-0.44080054584503614	-0.8511369624059171	0.41033641656088093	178.9375504496833
3	2.0	ltm	442	diff_vonmises	0.15124083683536027	8.665461640692861	7.058699073724023	0.5404697448222522	0.16333338959415653	2.2949095449517998	0.13469039448737669	-0.37922384473904264	0.5139142392264193	48.85765374865073
4	2.0	perception	442	diff_vonmises	0.029933333150590644	1.7150536562878793	6.951719472751603	1.3907633564964161	0.18261363000211434	3.2071436160854723	0.8268392962791095	-0.5240429502113657	1.350882246490475	49.96107687314432
5	2.0	wm	442	diff_vonmises	0.07686199236959192	4.403867767744354	3.1908218184526653	0.7620210637190903	2.2581271500801462e-14	2.7148796494476315	0.08472770140271674	-0.4312117525401485	0.5159394539428652	76.87706687295085
6	3.0	ltm	442	diff_vonmises	0.1938015670183307	11.104011853172123	9.002972392568596	0.3575614933715331	2.513817770499042e-20	1.2029802659173021	0.23027009817352967	-0.19146024937767692	0.4217303475512066	45.26447847492139
7	3.0	perception	442	diff_vonmises	0.0057283615065648755	0.3282109378513692	4.6288636469943025	1.2967579115967436	8.467484230242614e-13	1.8989619396531139	0.7767030868791027	-0.3021262640621719	1.0788293509412745	63.52252986638064
8	3.0	wm	442	diff_vonmises	0.020308766932893983	1.1636066323696708	3.083465886197052	1.126485524670069	0.396132873651155	2.0258281788960564	0.2885171951571717	-0.27629869398488943	0.5648158891420612	68.95634285592519
9	4.0	ltm	442	diff_vonmises	-0.038227688189376864	-2.190285193793398	2.6000416931131567	0.9846169709048795	0.16312204575672895	3.4531130013160087	-0.04889559364235341	-0.5031060147759142	0.4542104211335608	75.37704730433046
10	4.0	perception	442	diff_vonmises	-0.022297977045527998	-1.277579976388343	0.7974518745737976	321.431296027977	0.7788249673060594	323.9901012253702	0.37675993565218846	-0.7177573201075589	1.0945172557597473	95.87715471528665
11	4.0	wm	442	diff_vonmises	-0.12715329434707226	-7.285347117271909	1.1613975558755096	313.0778231573103	1.1437338819808232	315.53429315866475	0.12270720290503334	-0.6126238225931289	0.7353310254981622	75.95887904878464
12	5.0	ltm	442	diff_vonmises	-0.09722816168667911	-5.570763314462285	1.8728823943507285	0.955946726065846	4.987193194404591e-16	1.9100417065273303	0.16990249538180519	-0.2927991573805886	0.4627016527623938	100.05315157564239
13	5.0	perception	442	diff_vonmises	0.0044947463010930255	0.25752999303466834	1.6647027041272224	3.240092930305509	0.27701089904960297	4.345782105921759	0.599993832128436	-0.47088047094476315	1.0708743030731993	93.54369776220392
14	5.0	wm	442	diff_vonmises	0.0725004272305275	4.153968493204574	0.6537664591857064	221.6541938241543	0.6425851225413868	222.58371630287417	0.2166393154950299	-0.3151741813590121	0.531813496854042	107.9516627650066
15	6.0	ltm	442	diff_vonmises	0.3984291244213167	22.82830726443421	0.9854789290251242	139.08197978981917	0.9735980598982036	139.6475957636177	0.12267170923965409	-0.16947112721843816	0.29214283645809225	86.8996299977554
16	6.0	perception	442	diff_vonmises	-0.29207264144368283	-16.734529665960803	0.2474037793838497	177.5417910737883	0.2351334299048768	178.30111279694614	0.23207859317909652	-0.39484371944728736	0.6269223126263839	150.5352845524426
17	6.0	wm	442	diff_vonmises	0.1654703923956686	9.480755118645442	0.5000647881776468	173.43117546781568	0.4892801643193484	174.07607689127218	0.19144066511422153	-0.27124927820046274	0.46268994331468427	123.59171477048638
18	7.0	ltm	442	diff_vonmises	0.20321557670827223	11.643394876701032	2.728859313028818	0.5199741463688168	1.6246114845526803e-16	2.0560174689283426	-0.004723049898971932	-0.32585028331374855	0.3211272334147766	83.22863192158397
19	7.0	perception	442	diff_vonmises	-0.046529167587803934	-2.6659249270380707	1.0079980013747762	201.71457346466187	0.9878161725570394	202.2522217913678	0.587743236730006	-0.3364758855234804	0.9242191222534863	91.23902414099695
20	7.0	wm	442	diff_vonmises	-0.05179902522974945	-2.9678655285563127	2.2225927554375136	0.8830327170946093	3.309529026460363e-12	2.2503949024434693	0.1272205404603935	-0.3524655452498641	0.4796860857102576	92.20126370505355
0	1.0	ltm	443	diff_vonmises	0.2974932387061469	17.04510701154016	0.6903900545788292	139.70212011855074	0.671938123995945	142.74254011478865	-0.3580462520494194	-0.5517160928568074	0.19366984080738803	81.98822305849538
1	1.0	perception	443	diff_vonmises	0.0037435944880419496	0.21449216437324184	13.031837943378916	0.46335556330392175	0.03992411212525168	3.1752111189807244	0.13488883607161672	-0.514510964158625	0.6493998002302417	37.17625576570106
2	1.0	wm	443	diff_vonmises	-0.05660852882578229	-3.243429786161987	0.9364260205673214	142.42184792694025	0.9064619610963061	146.07903012026924	-0.37290035141555933	-0.7192194808673982	0.34631912945183885	74.01889723289173
3	2.0	ltm	443	diff_vonmises	-0.012956796264573732	-0.7423697419709452	14.575199872651003	0.4185258180805364	0.20653609477782642	1.9890617435397353	0.24662755380969031	-0.35455116593734953	0.6011787197470398	34.53823252903703
4	2.0	perception	443	diff_vonmises	0.012584601146852326	0.7210445325701338	7.695972537050196	1.17504640331614	0.27113223121452906	3.2706671796172913	0.6075185608088496	-0.5589682898408349	1.1664868506496844	46.73448951829644
5	2.0	wm	443	diff_vonmises	-0.07939761132641635	-4.5491480324237585	1.0320216902008847	121.61579733078764	1.0019379909129549	123.82267216337918	-0.06389501987226254	-0.48470986464412746	0.4208148447718649	77.30012417167046
6	3.0	ltm	443	diff_vonmises	-0.3436709809044721	-19.69089674694736	3.11937469250834	0.5202890609873749	6.390276377241566e-25	1.1777130569788976	0.16095222907614082	-0.18675863044057203	0.3477108595167129	77.75038503160734
7	3.0	perception	443	diff_vonmises	-0.053952668796054905	-3.0912602154811184	4.462549356004515	2.1141871936210492	0.33989739757765675	3.3555164484757163	0.9958636461289971	-0.5073332703970045	1.5031969165260017	60.45098549859691
8	3.0	wm	443	diff_vonmises	-0.253055851546446	-14.499032274700463	1.4326135423419537	222.7594312943944	1.4160262093402887	224.2907100769958	0.01572185732516118	-0.39625281379838384	0.411974671123545	66.7053739699258
9	4.0	ltm	443	diff_vonmises	-0.42398775530591754	-24.29270894425455	9.564211980301778	0.33357563378297017	1.2718499722657451e-35	2.0519494859790472	0.07926953751458571	-0.3265779016681064	0.4058474391826921	43.90283657287452
10	4.0	perception	443	diff_vonmises	-0.07540015579181333	-4.320110701499794	2.236563025760421	4.075767202550711	0.6031116330174797	6.057459682305867	0.6365273388162533	-0.6418177956065126	1.278345134422766	74.66664000723799
11	4.0	wm	443	diff_vonmises	-0.09411345653834008	-5.392303855034789	0.45825022855996717	56.1093807689548	0.4325224937327265	58.70494535645553	-0.34059800536103424	-0.44548988307770454	0.1048918777166703	95.22782691804625
12	5.0	ltm	443	diff_vonmises	-0.025861765730911992	-1.4817700271373218	2.3305576285619605	1.2748555830123747	0.16851781131846835	2.255590595277516	0.29890333375410794	-0.30587189063565445	0.6047752243897624	83.12711207966657
13	5.0	perception	443	diff_vonmises	-0.09670848179305977	-5.540987849860088	1.5508022964181716	2.8729847781771944	0.26274747261298603	4.069668990347156	0.4417912379737283	-0.43877262276225387	0.8805638607359823	95.93944683436453
14	5.0	wm	443	diff_vonmises	-0.3373581327177317	-19.32919718914032	0.4353111104641413	200.53639924413852	0.4220711936827387	202.2489589153911	0.09222989461164133	-0.4891558577950086	0.5813857524066499	126.25918311786785
15	6.0	ltm	443	diff_vonmises	0.6878052276150078	39.40833666937489	0.0004884847059661777	2525.811349054064	7.052895048580871e-24	2526.745934195689	0.04764372845096432	-0.34508346185896244	0.39272719030992675	166.27825794684
16	6.0	perception	443	diff_vonmises	-0.08049580075778931	-4.6120696519473015	0.9758672928752998	290.1432335975206	0.963645453173682	291.2098289166433	0.3153161396836168	-0.3504543049239359	0.6657704446075527	88.48098016833808
17	6.0	wm	443	diff_vonmises	0.27060020331427953	15.504249585290209	0.00017037070754053862	8302.868881801423	2.264184252324331e-29	8304.13598050087	0.0234712532571848	-0.4267821207183715	0.4502533739755563	177.6318813331288
18	7.0	ltm	443	diff_vonmises	0.05566763224114346	3.1895203829039085	1.3199005927533145	238.2763591528166	1.30707554064882	239.6351218420547	0.01236635794690244	-0.3387356872945304	0.35110204524143285	69.50950675292745
19	7.0	perception	443	diff_vonmises	-0.15891909272689111	-9.105393297299038	0.5302244859546813	176.4790094977749	0.5113109477697899	177.4645159081025	0.38053678810301506	-0.4578120963538268	0.8383488844568419	121.7433530948054
20	7.0	wm	443	diff_vonmises	-0.5523664751355832	-31.648267769786845	1.0282556478483946	129.74316821323518	1.0109164476806145	131.0780513796532	-0.034089089203312994	-0.2946279164871868	0.2605388272838738	77.41020603319498
0	1.0	ltm	444	diff_vonmises	0.08107477503111427	4.645242434255475	5.834095775500813	0.3027437945384499	0.008743514089945864	3.33198589714252	-0.25010104121588683	-0.5294591799433729	0.27935813872748605	55.79473726201033
1	1.0	perception	444	diff_vonmises	0.08224315458949868	4.712185651820261	9.434533960470128	0.7082192962782408	0.1876805416808982	3.651365443718123	0.16065920901500808	-0.6264350358297824	0.7870942448447905	42.29422551922903
2	1.0	wm	444	diff_vonmises	0.005903538172219688	0.33824782146256427	2.69217148787153	1.225114046677583	0.30834420525585887	4.517113813656357	-0.20180253873677656	-0.6593165790393325	0.45751404030255594	67.94940665925736
3	2.0	ltm	444	diff_vonmises	0.05516198252769555	3.1605487884113437	4.78591650113315	0.6019803244909029	0.1789447800094441	2.0375837388484883	0.12517841915976513	-0.32243408143159175	0.4476125005913569	58.42137582205831
4	2.0	perception	444	diff_vonmises	0.044396567081780365	2.5437359186554565	5.19996178229014	1.566840963449448	0.43645301558686755	3.5689505236284367	0.5486663300971775	-0.5844398139157297	1.133106144012907	54.37389547966575
5	2.0	wm	444	diff_vonmises	0.08649763983238808	4.955949700238515	2.2960045581531943	1.447147089861568	0.384048418980666	3.0034639574785404	0.13437601007442046	-0.3793788510475324	0.5137548611219529	75.43451880666063
6	3.0	ltm	444	diff_vonmises	-0.012932137128413498	-0.7409568775425254	3.1557424702216594	1.1671804639669625	0.5717798501784689	2.2249326014110116	0.20773549500337707	-0.30354097514778966	0.5112764701511667	64.72956251929597
7	3.0	perception	444	diff_vonmises	-0.04049187238150482	-2.3200133920425676	5.7233709578779175	1.4281057435014675	0.11788098879186461	2.433583612188043	0.895948566724645	-0.38285113518866615	1.278799701913311	55.74420449355668
8	3.0	wm	444	diff_vonmises	-0.005761033896548624	-0.3300829279040435	1.1216001181151383	232.4777258940512	1.1082835828857922	233.61848852339557	0.16547714817829728	-0.3158755591495819	0.48135270732787916	79.88106297101612
9	4.0	ltm	444	diff_vonmises	-0.2114032075941772	-12.112511570674346	1.0045669455256927	237.79987265424342	0.9897594001257806	239.7938666904745	-0.011219261373582867	-0.44920540203191095	0.4379861406583281	79.46276999467867
10	4.0	perception	444	diff_vonmises	-0.005432226341136095	-0.31124364270689164	4.580165444027981	1.188287774457307	2.9090529907894947e-14	3.518472915028768	0.42310675542604714	-0.5598789922953694	0.9829857477214166	63.86807701927887
11	4.0	wm	444	diff_vonmises	0.2742541098436525	15.713603008158573	2.517089353648627	0.8810275241189494	0.22400007467832106	3.029388693531512	-0.07438812009692719	-0.4340835314128003	0.3596954113158731	73.67020903450003
12	5.0	ltm	444	diff_vonmises	-0.1159685242545393	-6.644506996145623	1.9917597640409366	1.1385081839590834	1.8457816418667838e-14	2.6216560364316455	0.16860361587743883	-0.40634010118335456	0.5749437170607934	97.19390448572543
13	5.0	perception	444	diff_vonmises	-0.11837978321996404	-6.782661958177542	0.8086450491960773	215.39305274188146	0.7868163463113467	217.1963975858418	0.3548436360642029	-0.5417365944619021	0.896580230526105	96.33223111748204
14	5.0	wm	444	diff_vonmises	0.03836242201023899	2.1980048730864694	0.3630055248525378	182.0197701964397	0.35097597847928763	183.4411685145686	0.08605000099561977	-0.43225930067738005	0.5183093016729998	135.8343310772583
15	6.0	ltm	444	diff_vonmises	0.010143948096768178	0.5812054135445807	0.6941037020416356	39.98590226236225	0.6380471330038425	41.3041297811099	0.06685155003177101	-0.3261923276998844	0.3930438777316554	101.45065084806487
16	6.0	perception	444	diff_vonmises	-0.1840271087242922	-10.543976645897075	1.490624113767907	2.1721311670977705	0.1950177907315372	3.9023557824887454	0.18956731797142023	-0.4624836059852695	0.6520509239566897	97.6996680353192
17	6.0	wm	444	diff_vonmises	0.4732282619522892	27.113982156177524	0.2329256103845402	154.75714263612008	0.2207269263773309	156.07282005485743	0.0722533750752774	-0.42897044575204646	0.5012238208273239	148.59753513088586
18	7.0	ltm	444	diff_vonmises	-0.14106740653042935	-8.08256702104983	0.9093488971697263	163.78252481943318	0.8892510105306206	165.9318635071185	-0.062293053028604106	-0.46074861059658545	0.39845555756798134	82.36290927612649
19	7.0	perception	444	diff_vonmises	-0.04410524724891868	-2.5270445217440254	2.0369253662268196	2.1891011772911466	0.014618993046561732	4.270735004852704	0.4521121502430625	-0.6503821554899939	1.1024943057330563	95.31614194788989
20	7.0	wm	444	diff_vonmises	-0.13361036475227095	-7.6553099995086225	1.1244568580565095	263.2727978470001	1.1099514356130489	264.9866406980461	0.09236390903707559	-0.42614457977619935	0.5185084888132749	77.34822004767352
0	1.0	ltm	445	diff_vonmises	0.195077498866945	11.177117363044047	0.5815234731317945	84.71801213791092	0.5616507179064816	86.9359277053445	-0.2552157367624197	-0.39677001055760286	0.14155427379518315	90.15924477013101
1	1.0	perception	445	diff_vonmises	-0.015430863142662067	-0.8841233323185144	12.9245232912077	0.5086022037570858	3.517330937186226e-16	2.7562556926857056	0.2834431826833219	-0.4386717179118152	0.722114900595137	37.702376536339955
2	1.0	wm	445	diff_vonmises	-0.02596447920391471	-1.4876550756395084	6.551094272017735	0.38629716800135155	0.15528731201236873	3.028650544144616	-0.17340593194242848	-0.5034111061788834	0.3300051742364549	49.15343855138818
3	2.0	ltm	445	diff_vonmises	-0.01589656634247094	-0.9108061601733005	13.99726210848182	0.3409234709687476	0.1854955637784347	1.5585520190219073	0.2080860920222236	-0.27368153032699327	0.4817676223492169	35.322014205640016
4	2.0	perception	445	diff_vonmises	-0.005313073620049714	-0.3044166946711425	9.045980844148412	1.0792279031217349	0.2308511199642852	2.62781631059774	0.7560161290437539	-0.4495145813361487	1.2055307103799027	43.79019733715617
5	2.0	wm	445	diff_vonmises	-0.015062929897549105	-0.8630423102309892	1.4987186849516978	1.9909951412949747	0.46828469619191465	3.5434638663634157	0.008598970536812467	-0.3442361045880829	0.35283507512489537	83.25754252632157
6	3.0	ltm	445	diff_vonmises	-0.2067882972819803	-11.848096686954065	3.9624588302449197	0.40004573703489915	2.6253556180344758e-11	0.7355983917846411	0.18891951001500706	-0.11696346379640388	0.30588297381141094	68.79205632324326
7	3.0	perception	445	diff_vonmises	-0.03473047526941189	-1.989909653420782	4.293864555393945	2.082745056787471	0.46831671883847475	2.756244376442587	1.0004519195331205	-0.40288928008678415	1.4033411996199048	60.86655231704404
8	3.0	wm	445	diff_vonmises	-0.2592924450036686	-14.85636275833822	1.5819536991731802	156.4549798659422	1.5642952141467408	157.19490988462059	0.14706146169181977	-0.2393946944401968	0.38645615613201656	67.34959113110006
9	4.0	ltm	445	diff_vonmises	-0.13843092099704274	-7.931507527239479	1.1952829085795056	114.98188678551914	1.171704169358058	116.2047354016037	0.044790609303845486	-0.30255169225942957	0.34734230156327506	74.446925615082
10	4.0	perception	445	diff_vonmises	-0.09272313674027782	-5.312644398432341	3.5036298148833382	2.073401845050964	0.23516622840629667	3.64807988907205	0.7573874110780819	-0.5285512443680564	1.2859386554461385	68.28993754422993
11	4.0	wm	445	diff_vonmises	-0.13624155601391988	-7.806066153892808	0.9279889975851624	179.4701776942763	0.9139652174614418	181.21432763900998	-0.088689288935484	-0.36434645794177456	0.27565716900629056	79.67986581509876
12	5.0	ltm	445	diff_vonmises	-0.03774427004635421	-2.1625873744581483	2.8747684764906882	0.8478145227073919	0.003537331891660272	1.6032868052890614	0.28582027769327867	-0.252543627591738	0.5383639052850167	80.92138966859937
13	5.0	perception	445	diff_vonmises	-0.07340359928131543	-4.205716439888897	1.6296864820671761	2.6789315951023447	0.24303419445800536	3.5229365457283452	0.5158123652984555	-0.39001653495570027	0.9058289002541557	95.8064396940217
14	5.0	wm	445	diff_vonmises	-0.26025193370647737	-14.911337411499645	0.4159312515471473	123.6771194535476	0.40032521925085557	124.7592963094129	0.10768141278151688	-0.34611018692495144	0.4537915997064683	130.0841347865724
15	6.0	ltm	445	diff_vonmises	0.3277128401143997	18.776562630800647	0.47556090094212644	102.10756946349325	0.46315334572378863	102.74653453299334	0.08232565471276132	-0.20741496670515147	0.2897406214179128	123.57952892170272
16	6.0	perception	445	diff_vonmises	-0.12157869383426491	-6.965946035416583	0.9392956269512039	259.9797876071795	0.9281807856338005	260.7535313066932	0.29548299767577646	-0.28089802772751327	0.5763810254032897	91.16053532616978
17	6.0	wm	445	diff_vonmises	0.1330335527211308	7.622261104551923	0.0002717744465938065	4457.014706923031	2.8871002038710815e-31	4457.847216267521	0.06029574230979051	-0.3252655022859017	0.3855612445956922	179.33829514888367
18	7.0	ltm	445	diff_vonmises	-0.00038057136242633646	-0.021805132870572716	1.2938389767250371	173.01644877900532	1.2801505458475964	173.8853900853714	0.08922418816078448	-0.23723970712888942	0.3264638952896739	73.11656225477253
19	7.0	perception	445	diff_vonmises	-0.1682477971253625	-9.639888687656576	0.8422087474229321	8.403971667614167	0.44244542576364093	9.094467456085773	0.4729287208909252	-0.3999619823297445	0.8728907032206696	112.80456014212196
20	7.0	wm	445	diff_vonmises	-0.4703883939132108	-26.95126970316424	1.1042225320583077	105.65115704655939	1.088561011945819	106.44276156552478	0.026220643419115675	-0.19111592482829742	0.2173365682474131	77.35518969732996
0	1.0	ltm	446	diff_vonmises	0.06041582092687892	3.4615715549283195	12.307113096788227	0.42482899740106317	0.09810054662167625	3.161989835009067	0.034276510884235334	-0.5281883160276036	0.562464826911839	37.71594128618065
1	1.0	perception	446	diff_vonmises	0.040418080641653066	2.315785436786135	17.452343556728486	0.5906587951233322	0.008622075661769096	3.1658009830038907	0.4686999809390433	-0.5058840751067514	0.9745840560457947	32.367259679262645
2	1.0	wm	446	diff_vonmises	0.14546522427555378	8.334543416913199	4.005108262993084	0.5007578305077182	2.9437841255727338e-21	3.8894441756536953	-0.23377092819656758	-0.6188963245120211	0.38512539631545356	68.41789867323456
3	2.0	ltm	446	diff_vonmises	0.18129153945210258	10.387240072034935	7.080179586526121	0.6426893624059492	0.5424006615343958	1.4588892028680243	0.2976310797524012	-0.26401887038094335	0.5616499501333445	47.00200528131546
4	2.0	perception	446	diff_vonmises	0.00806056812855306	0.4618365342437547	5.95598275281162	1.3068843883994319	0.40677349811307983	2.4552366724808357	0.6796289776903963	-0.4068223860356948	1.086451363726091	52.23166097326376
5	2.0	wm	446	diff_vonmises	0.10912186731877158	6.25222244995216	1.0266844778388735	57.98430459408313	0.9694263497007523	59.52494367285426	0.11060477612314301	-0.3844290306226439	0.4950338067457869	82.69636559426837
6	3.0	ltm	446	diff_vonmises	0.08490219617986587	4.864537512498055	1.969057997108478	112.86871001371199	1.9447923434934848	113.31607707997841	0.2045583891628766	-0.1972198551626132	0.4017782443254898	62.02393769000423
7	3.0	perception	446	diff_vonmises	-0.04164042396046664	-2.3858205500701666	4.043012593059111	1.6862107782158964	0.30026685421347754	2.2197607560690127	0.8374856697659021	-0.3227510519986083	1.1602367217645104	64.19948099324537
8	3.0	wm	446	diff_vonmises	0.030088956752316563	1.7239702318593995	3.866881506163218	0.7526471214412622	0.22751862633391923	1.9117854817676851	0.19092759689885946	-0.289795765084475	0.4807233619833345	64.15224684672907
9	4.0	ltm	446	diff_vonmises	-0.06430886036905867	-3.6846262844431834	1.252051310471705	255.47567992994112	1.2387320534702888	256.7709564663576	0.12382458235069294	-0.34746409892941443	0.47128868128010737	74.22665765060685
10	4.0	perception	446	diff_vonmises	-0.05402354896450724	-3.095321349984614	1.6151885394036807	5.666471419565054	0.6029199356903217	7.15749844460619	0.6625638289374045	-0.5556058528450395	1.218169681782444	85.03542359126169
11	4.0	wm	446	diff_vonmises	-0.06753553947807961	-3.869501379233116	1.0842019224168646	295.27568910816154	1.0701483953657422	297.34017499832777	0.0462185435735023	-0.4899238290226009	0.5361423725961032	77.63822229203524
12	5.0	ltm	446	diff_vonmises	-0.11888697381199767	-6.81172183850981	2.166348099897296	0.8221705134587098	1.6302552978236107e-13	1.6402043846332164	0.18399568557672302	-0.2552021616427989	0.43919784721952193	93.35008374966122
13	5.0	perception	446	diff_vonmises	-0.025006215764293654	-1.4327506248875326	1.1059404806776718	9.088456956136234	0.6159312870098368	10.339105357481827	0.5099504786013949	-0.47692256328230054	0.9868730418836954	95.75867478288859
14	5.0	wm	446	diff_vonmises	0.35007023695024553	20.057547110393752	0.10628782678306241	11.956882597415412	9.650496810589189e-11	13.28211744894123	-0.0034766972887281256	-0.4076271790321182	0.4041504817433901	170.48299184268268
15	6.0	ltm	446	diff_vonmises	0.3860170482280678	22.117147683566238	0.7786704098557972	110.75442546133483	0.7647010462966009	111.56142628303667	0.055842252199539644	-0.20115333597994223	0.25699558817948187	94.57595008650839
16	6.0	perception	446	diff_vonmises	-0.13870875935431598	-7.947426492498083	0.5834141003807413	319.720129060528	0.5726603335406284	321.0843464054239	0.2940483522564392	-0.47437789273950415	0.7684262449959434	114.19259019752297
17	6.0	wm	446	diff_vonmises	0.25630760539755243	14.685344046384273	0.4528149068692324	3.5758118778068875	3.4325061196867213e-12	4.9103912721510365	0.06935795545443235	-0.4375121094913381	0.5068700649457705	153.4247700511885
18	7.0	ltm	446	diff_vonmises	-0.07704479598056856	-4.414341643133067	2.2343721353064807	0.5835900913228222	1.363021078168116e-24	1.943756607275824	0.012422881219388782	-0.3056698800184785	0.3180927612378673	91.96607731384782
19	7.0	perception	446	diff_vonmises	0.0595105655227725	3.4097042408916116	0.846588954007874	188.74212703649653	0.8236538366189113	190.15536792402082	0.39075076524903807	-0.4663231582312193	0.8570739234802573	95.34375142527736
20	7.0	wm	446	diff_vonmises	0.08277786215539366	4.742822138619757	0.9052147150013622	160.78236804199557	0.8870365759457137	162.51372274174787	0.002276745753356124	-0.38756606473337385	0.38984281048673	84.41623172591954
0	1.0	ltm	447	diff_vonmises	-0.150903429544297	-8.646129626937993	8.95786290634882	0.17085491072884848	1.4728755746692836e-20	2.770095049666045	-0.2399101936937335	-0.44087431665780596	0.20096412296407246	45.383483920874426
1	1.0	perception	447	diff_vonmises	0.05179585179291819	2.9676837040193305	12.794269608212115	0.6566204440764462	1.1474791950909119e-17	3.2130441596496597	0.4161133075829825	-0.5113718603736376	0.9274851679566201	37.8935222803961
2	1.0	wm	447	diff_vonmises	0.14364042745061806	8.22999026037551	9.806801133863798	0.3025432951060849	7.870730156111578e-34	3.320409613560115	-0.1555762821635452	-0.5284596019566825	0.3728833197931373	43.34764530280603
3	2.0	ltm	447	diff_vonmises	0.11559063283811448	6.62285541287026	7.618969745532038	0.44829348054542484	0.2517843066226007	1.5681163412812087	0.16892250178640578	-0.2679950928369551	0.4369175946233609	46.67853911327441
4	2.0	perception	447	diff_vonmises	0.004026349934648661	0.23069285809814308	9.041981822729564	1.1828264951478584	0.23249404394313156	2.5162215041295077	0.8996035647395513	-0.4291391819402477	1.328742746679799	43.92854721606514
5	2.0	wm	447	diff_vonmises	0.07721782574388225	4.42425551830109	2.8371544866189944	0.7196301089913841	0.021236310719122825	2.210982033373185	0.0970637491596294	-0.34316356277815424	0.44022731193778364	80.13404612887695
6	3.0	ltm	447	diff_vonmises	0.11675644544998148	6.689651555233363	3.144524706639004	1.0924400446485365	1.1587861795345624	1.4406516300782921	0.19964650912440207	-0.15686743356355606	0.3565139426879581	60.60326870993441
7	3.0	perception	447	diff_vonmises	-0.007454861717781739	-0.42713211328254064	4.2260409678784585	1.6634134350765244	0.38653665394314374	1.9976883919738044	0.8666374385792376	-0.2890881603993383	1.155725598978576	62.39418743087833
8	3.0	wm	447	diff_vonmises	-0.06457660752239582	-3.6999670663060438	1.441807220434313	142.80103242432554	1.4249670882098944	143.31371212070246	0.21111364376903197	-0.1933967292933758	0.4045103730624078	73.05009406968776
9	4.0	ltm	447	diff_vonmises	-0.0035875386976917376	-0.2055508262175963	1.3186568847881563	192.42821543491053	1.3010954977093607	193.79117902213028	0.07120390798468179	-0.35494746848632985	0.42615137647101164	71.09073303538551
10	4.0	perception	447	diff_vonmises	-0.09011295754846058	-5.163092146968345	3.2541690279737225	1.944264184221044	0.1359285554846414	3.4794846828840997	0.7019159644095612	-0.5099942974477129	1.2119102618572741	72.43340487675553
11	4.0	wm	447	diff_vonmises	-0.10423003318542544	-5.9719410000333895	1.1599026970588182	306.46695531609737	1.148149805965743	308.04431041592494	0.08684221485997057	-0.3958546903378135	0.4826969051977841	76.07702889878516
12	5.0	ltm	447	diff_vonmises	-0.12834827362312248	-7.353814386395185	2.6000275499645404	0.6956657981626004	6.333071818916117e-20	1.7088807680995624	0.14753047470813052	-0.26966248043464985	0.4171929551427804	85.29378579730383
13	5.0	perception	447	diff_vonmises	-0.036249910865964456	-2.0769669003451865	0.8767653311141451	190.03815503410254	0.8526785625324702	191.06405629834546	0.5512249116789789	-0.4441866879021017	0.9954115995810806	96.01187836371145
14	5.0	wm	447	diff_vonmises	0.032069278066304725	1.8374342852307226	0.5333338350898443	119.87410858395171	0.518679318252751	120.91867139274723	0.06820677947468567	-0.2862492316652432	0.35445601113992886	115.68396384012922
15	6.0	ltm	447	diff_vonmises	0.25577151309437096	14.654628219982527	0.8515757686814523	120.27974437746182	0.8385175772529478	121.1305613550148	0.03513016955664483	-0.20170776337569407	0.2368379329323389	89.05754008795495
16	6.0	perception	447	diff_vonmises	-0.19523202866769163	-11.185971268435827	0.6394969274413519	265.6420277496047	0.6287473173426386	266.6144642477728	0.27855488129588934	-0.3597876151038264	0.6383424963997157	109.99090871360934
17	6.0	wm	447	diff_vonmises	0.05594489660830485	3.2054064609516217	0.3816267815399425	97.99642131712639	0.36351086179756203	99.08315274236993	0.08291003196774227	-0.3388922405607193	0.4218022725284616	134.2464531574877
18	7.0	ltm	447	diff_vonmises	0.06437174115982348	3.6882290883664526	1.153470795163766	18.072990592552188	1.0286040505804663	19.199331907992036	0.03189763684587277	-0.2699093258037464	0.30180696264961915	77.39302210052949
19	7.0	perception	447	diff_vonmises	-0.06972883865030557	-3.995168165011201	1.975582926792823	1.8463612470910564	1.7233017632513974e-18	2.67296322858168	0.5200457718931688	-0.40723195059128214	0.927277722484451	97.58011060444052
20	7.0	wm	447	diff_vonmises	-0.17195957534417255	-9.852557914082977	0.7916246968306371	92.67464082469822	0.7726406376752938	93.66065426381675	0.04173348516224351	-0.23487442253876978	0.2766079077010133	92.81056579353903
0	1.0	ltm	448	diff_vonmises	0.019484724216371183	1.116392462574419	6.830469342498059	0.5458803449045477	0.21867529018836804	2.939544138572792	-0.017371300498495668	-0.49747170642978233	0.48010040593128667	48.286915501299205
1	1.0	perception	448	diff_vonmises	-0.00010504486395167483	-0.00601862736395689	17.800191217213545	0.6506902016334719	0.012380200177410967	2.8959997691531365	0.6206792359181104	-0.46368499379526446	1.0843642297133749	32.030731542863435
2	1.0	wm	448	diff_vonmises	0.09585451801031776	5.492059329251945	4.570422769457188	0.5789303481467474	0.12919159032650973	3.386688383950101	-0.13242574872220764	-0.5388567010389967	0.4064309523167891	58.905729549693916
3	2.0	ltm	448	diff_vonmises	0.07444728230027746	4.265515072024893	1.4717294080204444	102.86115770958021	1.439232110191941	103.79457313995299	0.19577314056850526	-0.2956767011142709	0.49144984168277617	70.37460483960709
4	2.0	perception	448	diff_vonmises	-0.015526574658869	-0.8896071982479696	5.233749861039014	1.3632352794376137	0.4136240349597729	2.4609572967874893	0.6434103209150364	-0.3940872058836499	1.0374975267986863	55.30263061402542
5	2.0	wm	448	diff_vonmises	0.1067487487996707	6.1162527745233435	4.5115864875076035	0.6042701772542657	0.03743282681362851	1.7127365567348851	0.21302179946185973	-0.26825364976099575	0.4812754492228555	63.265282801069645
6	3.0	ltm	448	diff_vonmises	0.02747474451144836	1.574186903706214	3.408803780571914	1.034298709077016	0.619799002135127	1.5793488808259055	0.3026516693867792	-0.21143054941204387	0.514082218798823	64.17686817020527
7	3.0	perception	448	diff_vonmises	-0.06622004647018093	-3.794129181901552	6.08788010169084	1.1187924743942603	2.5133701776578645e-13	1.5309767547056876	0.8329192103588577	-0.24365696925805913	1.0765761796169169	55.21942441220807
8	3.0	wm	448	diff_vonmises	-0.06410819018000775	-3.6731287295364736	1.4611285259608404	141.7397957856914	1.4398529823473463	142.37932738155132	0.2626343296825411	-0.24175310099019498	0.5043874306727361	72.58013297409474
9	4.0	ltm	448	diff_vonmises	-0.16416825266136528	-9.406148007533575	1.2144638867427655	184.64920580030267	1.194929475366261	185.76046622399338	0.24550590088556135	-0.3385459631657355	0.5840518640512968	78.00405251489752
10	4.0	perception	448	diff_vonmises	-0.018102673535920284	-1.037206791511399	2.630192599794124	2.0192772401577432	2.255588733488714e-20	3.772772980796214	0.6255096021733274	-0.5940886528407125	1.21959825501404	84.80626241666647
11	4.0	wm	448	diff_vonmises	-0.08994422197364932	-5.153424310677946	1.100124710007476	262.9659139021928	1.0852674861885476	264.6145821726786	0.142252931188807	-0.42436218759377553	0.5666151187825825	79.27241214187455
12	5.0	ltm	448	diff_vonmises	-0.04244107043520559	-2.4316942139547364	2.303103045181184	1.0896344913576002	1.645656142580939e-18	1.5031058065518288	0.37252084579073363	-0.23311477825115298	0.6056356240418866	90.61139944431241
13	5.0	perception	448	diff_vonmises	-0.04878155478606611	-2.79497720732779	1.9682829928724292	2.214972442308929	0.13266406464118122	3.058246615917157	0.5783138998142141	-0.4032577216998196	0.9815716215140338	92.2156795781579
14	5.0	wm	448	diff_vonmises	0.02619178866432106	1.5006789483641885	0.43959638572214904	131.79750167423745	0.42416162856987644	132.27450411735018	0.2646763341762117	-0.2906233557727056	0.5552996899489173	131.5761977559418
15	6.0	ltm	448	diff_vonmises	0.05612216350212024	3.215563105814637	2.065613640515606	0.6783808094148391	1.989943314817778e-14	0.7935889101417914	0.2305431911404502	-0.12057134576501072	0.3511145369054609	95.52946129765664
16	6.0	perception	448	diff_vonmises	-0.2242282626921071	-12.847333099808472	1.2766537360949115	1.5280184087353956	6.3251636571982e-14	2.1605226338844132	0.256976009202258	-0.29709823455778983	0.5540742437600479	117.65897067533852
17	6.0	wm	448	diff_vonmises	0.40613625439109036	23.269893283861027	0.37198276778201705	104.75986284847073	0.36056127293913764	104.63845850538836	0.24465103911048658	-0.13766737213439129	0.38231841124487786	138.88928794298994
18	7.0	ltm	448	diff_vonmises	-0.1450778781469465	-8.31235011853327	0.5661872723371921	103.75587788578538	0.547631648509763	104.6875014665972	0.12448159126284963	-0.2860050040887856	0.41048659535163523	114.57462030577972
19	7.0	perception	448	diff_vonmises	-0.07749418337587016	-4.440089644250226	0.9142119313862712	142.7680144833353	0.8847385622488139	143.93057424089184	0.4295763133377477	-0.4198589263457766	0.8494352396835243	92.81776860054202
20	7.0	wm	448	diff_vonmises	0.14113550730522104	8.086468908026964	1.0047501055016608	134.8575091349178	0.9876322313382464	135.61324446244032	0.18037016261936856	-0.23215336082575	0.41252352344511856	86.4774596135681
0	1.0	ltm	449	diff_vonmises	0.06662697171973865	3.817444281278517	7.7430020713606975	0.34022295438221256	0.06775245055418085	3.770226408858991	-0.2702107029107292	-0.6126694700748377	0.34245876716410856	46.79717205106354
1	1.0	perception	449	diff_vonmises	0.0627338067089291	3.5943823572111264	15.009548120963107	0.5736985021750713	0.05589766326223269	3.3987853317876504	0.30717042345853796	-0.556777477060312	0.86394790051885	34.62942349422508
2	1.0	wm	449	diff_vonmises	0.0687991477527243	3.941900800328065	2.5303488584816156	1.1152422326436011	0.22615389048541928	5.125362309159247	-0.3478282034939798	-0.7561862928673225	0.4083580893733427	70.37493105349836
3	2.0	ltm	449	diff_vonmises	0.10537497512482386	6.037541340948442	9.30009383553808	0.4863521265844831	0.27529308990022855	1.7692636320666022	0.21942453688989133	-0.3126428398666532	0.5320673767565445	42.43553347821742
4	2.0	perception	449	diff_vonmises	0.027870666968421966	1.5968715895052514	6.993801286401787	1.3333930806013554	0.3417535384007939	3.0778001949713802	0.709787714158861	-0.5255797624542063	1.2353674766130673	48.637883504374
5	2.0	wm	449	diff_vonmises	0.04833232937647848	2.7692384873083826	1.0451972322049619	157.07739006494046	1.0205675037105775	159.07238560960295	0.040172181101851834	-0.467886539931893	0.5080587210337448	79.26688918624026
6	3.0	ltm	449	diff_vonmises	0.09541489111945983	5.466870563845327	1.6390907359615376	47.41535287046895	1.5836138082157147	48.0648318452906	0.1584697530282817	-0.2210102369157374	0.3794799899440191	67.06825893547165
7	3.0	perception	449	diff_vonmises	-0.06514886661396885	-3.7327550970411694	5.837025411046311	1.207730499818181	4.5820842851762415e-19	1.9259450772051772	0.8301697706031539	-0.30651400256370914	1.136683773166863	56.41762207919342
8	3.0	wm	449	diff_vonmises	0.002401585651625548	0.13760072197731954	1.3677516383947241	157.525949121003	1.3452695024069512	158.77133890281735	0.13207994931815392	-0.3473935474222074	0.4794734967403613	71.18449879264406
9	4.0	ltm	449	diff_vonmises	-0.22614298424365623	-12.957038563654978	0.9326272141128074	184.44923834509945	0.9157777668483884	186.4349579614934	-0.05564174758512763	-0.42809514442661367	0.37245339684148604	81.26907416653327
10	4.0	perception	449	diff_vonmises	-0.03547476474130914	-2.0325542988965153	1.7735069321586756	3.9876146196667603	0.4352714323088768	6.099385782384058	0.48087880134380945	-0.6225312962993226	1.103410097643132	84.36528378602938
11	4.0	wm	449	diff_vonmises	0.07920071199871222	4.537866531957349	0.9913752016604779	128.53674266398986	0.9643091484607463	131.09328350899415	-0.19701237459855037	-0.5248078737520743	0.3277954991535239	74.92673133741306
12	5.0	ltm	449	diff_vonmises	-0.09404952670604975	-5.388640945459574	2.7708369807567625	0.7857133457900956	7.358241689126676e-14	1.850194023056027	0.19717048130366416	-0.2925400776801159	0.4897105589837801	82.60447459403895
13	5.0	perception	449	diff_vonmises	-0.0802792779590804	-4.599663809412919	0.8970574266173541	36.95374061148479	0.7743237978450671	38.37419146726106	0.44111199936176426	-0.48852616368702106	0.9296381630487853	95.77962235467608
14	5.0	wm	449	diff_vonmises	-0.035620494257327016	-2.0409039851148236	0.4342237851222121	105.15730820545693	0.41250702979843984	106.63067566409127	0.08139188226395078	-0.4236712230588129	0.5050631053227637	127.47223671363356
15	6.0	ltm	449	diff_vonmises	0.29338234378350664	16.809570082451113	0.6642655015829042	138.54536173363934	0.6520276632322843	139.50443927465042	0.05827061510377973	-0.2424485322927019	0.30071914739648165	102.51540687359244
16	6.0	perception	449	diff_vonmises	-0.1792731059497534	-10.271592351122518	0.6068182720231592	244.53980018028943	0.5936723225264101	245.82748275380973	0.268043581764303	-0.4347800990171109	0.7028236807814139	111.88109511924033
17	6.0	wm	449	diff_vonmises	0.41485398371533283	23.769382381077556	0.0005336350684272003	3293.3745074569883	4.6285394530529705e-29	3294.6854073843715	0.07110730568592771	-0.48830508366734193	0.5594123893532696	174.6994845355042
18	7.0	ltm	449	diff_vonmises	0.06413855688816457	3.6748686137515647	1.0911726061673606	162.18915165050663	1.0725623116866	164.0122542460941	-0.08161283155526888	-0.3998847777917298	0.31827194623646093	73.86675013817833
19	7.0	perception	449	diff_vonmises	-0.024745339905562404	-1.417803539205381	1.174823858428425	4.413249247548272	0.3670331629526711	5.788254161985648	0.3665593099743283	-0.46507425633370836	0.8316335663080366	101.29887615847045
20	7.0	wm	449	diff_vonmises	-0.2692691682772754	-15.42798689528583	0.7745079051380322	205.06436449575654	0.762848012476876	206.93015752206043	-0.09674381836766344	-0.3796672850504379	0.28292346668277446	87.38266831823042
0	1.0	ltm	450	diff_vonmises	0.012871469494864543	0.7374808781871239	6.8113417220999	0.3751559238650318	0.18063232674566188	1.827400798306272	0.0372586838973889	-0.3039024946125513	0.3411611785099402	49.13677822028984
1	1.0	perception	450	diff_vonmises	-0.03358690227401436	-1.9243877472193702	17.83334513410688	0.5593343578769201	1.5242622992501865e-16	2.076954045201581	0.6049693943591616	-0.3305575028685391	0.9355268972277007	32.056042804453796
2	1.0	wm	450	diff_vonmises	0.01955710268124182	1.1205394431391424	5.281172472121847	0.47299841466024184	0.21826016205973695	2.2555723937664878	-0.019015586138799112	-0.3694439948906298	0.3504284087518307	54.17286606086839
3	2.0	ltm	450	diff_vonmises	0.1104589937857759	6.3288341531867465	2.0683296724821054	5.777913141270443	1.5829996372162811	6.345157770038709	0.20201453163751504	-0.22259527436850868	0.4246098060060237	63.820788308418855
4	2.0	perception	450	diff_vonmises	-0.03251609530556966	-1.8630350272542906	6.5365308584425765	1.1608336317341734	0.43176230560676654	1.8869933488117174	0.7178213998360887	-0.31790422183554734	1.0357256216716362	50.303794736082295
5	2.0	wm	450	diff_vonmises	0.08530823580551614	4.887801869362887	3.479145136617123	0.5967880435045976	0.13206057521072417	1.3901074862838363	0.1735072153612393	-0.2081974774094736	0.38170469277071295	69.57162082384403
6	3.0	ltm	450	diff_vonmises	0.0162088926074694	0.9287011369887967	2.0600005485088992	86.32301849595937	2.033342237625906	86.48369607851672	0.27105152139024113	-0.13666174303643608	0.4077132644266772	63.416419386944256
7	3.0	perception	450	diff_vonmises	-0.06894748879805422	-3.950400116154028	5.452457421522152	1.3243100131628218	0.21750966234132824	1.541241363235939	0.9011072797145099	-0.23891719760600943	1.1400244773205193	56.7458697321309
8	3.0	wm	450	diff_vonmises	-0.13220856656957652	-7.5749928799111235	1.6763176894410912	164.28865156719158	1.6610957110498004	164.69654866243505	0.2336302607994014	-0.18212221440266063	0.41575247520206204	68.26901324533154
9	4.0	ltm	450	diff_vonmises	-0.12615531176272665	-7.228166927161347	1.5578892782521931	176.1307309662721	1.5416502691278238	176.79340234189357	0.20325113200654243	-0.23432918705311678	0.4375803190596592	69.16467418963614
10	4.0	perception	450	diff_vonmises	-0.05307081693626057	-3.0407338257591405	3.5191910048055606	1.7729019784240923	5.893664678834722e-20	2.997817311855599	0.793177880871724	-0.4760027000267785	1.2691805808985026	73.11267288674802
11	4.0	wm	450	diff_vonmises	-0.08232926631951988	-4.717119490517046	1.1941453165515115	235.03892883885123	1.1810809755620824	236.29299009401552	0.09715735467959519	-0.32537175705577326	0.42252911173536845	75.61907854058279
12	5.0	ltm	450	diff_vonmises	-0.026536546694031445	-1.5204321284198392	2.594314876240594	0.8832802875980031	8.782612951654935e-17	1.1002748453342437	0.3568246065294581	-0.17214561020775618	0.5289702167372142	85.39887267131076
13	5.0	perception	450	diff_vonmises	-0.060104147835147954	-3.4437140021843415	2.12341966006583	1.7785932811516163	0.023654006342618567	2.322568738875437	0.5727674786289063	-0.34734402257764313	0.9201115012065495	93.37049657925803
14	5.0	wm	450	diff_vonmises	-0.009230296191330131	-0.5288570154188947	0.7424717610334147	1.9251761774023832	8.213323571661358e-08	2.3037192583431687	0.19675904655082926	-0.2390215713614512	0.43578061791228045	140.07590158524113
15	6.0	ltm	450	diff_vonmises	0.04695429436600425	2.690282897186943	1.75131270948719	0.6598449931068749	3.669319126357015e-15	0.7489888937955074	0.19482888775180707	-0.10974665465285728	0.30457554240466433	103.19340217334206
16	6.0	perception	450	diff_vonmises	-0.2056957054533732	-11.785495786444397	0.8440735216999993	123.14805575461628	0.8239272902143584	123.69035890079516	0.30643485000089044	-0.24419112946893407	0.5506259794698245	97.95584726153446
17	6.0	wm	450	diff_vonmises	0.21560896623843284	12.353483790640858	0.19225484873927015	103.46943991572451	0.1807965784023288	103.49695181096708	0.1992765933284808	-0.17326640614188804	0.37254299947036884	157.89106879254643
18	7.0	ltm	450	diff_vonmises	-0.18798873751735082	-10.77096125573684	0.9001202242261882	129.1717173383602	0.8859239283466229	129.758750629368	0.16148793653211868	-0.19062269033518398	0.35211062686730266	92.07413959554012
19	7.0	perception	450	diff_vonmises	-0.10163500927294408	-5.823257082112682	0.8481671358577205	66.92751630314913	0.791079357532595	67.86115736897747	0.44755886000559997	-0.38924771361162147	0.8368065736172214	98.27765520804702
20	7.0	wm	450	diff_vonmises	0.12423401708167178	7.118084850735969	1.0208425456131907	70.5764269334642	0.999484785121579	71.16238962394262	0.0847214505711058	-0.1606773704771065	0.2453988210482123	84.13023538986499
0	1.0	ltm	451	diff_vonmises	0.011505264561711347	0.6592031015674931	10.307786133561981	0.3089822061676508	0.04918550359340828	4.0516110774754255	-0.28627755670804766	-0.6583895145867111	0.37211195787866347	41.14737705458816
1	1.0	perception	451	diff_vonmises	0.07568902145972957	4.336661485117622	13.770510030775883	0.6615324172285207	0.0464020939209109	4.026933745957623	0.2989337933117895	-0.6551551715546238	0.9540889648664133	36.17482356340119
2	1.0	wm	451	diff_vonmises	0.16699307640177818	9.567998485727594	5.851924808408731	0.4143337010988133	6.827509424088291e-35	4.8932626684861305	-0.3883399252492783	-0.778783714608555	0.3904437893592767	56.34944710977612
3	2.0	ltm	451	diff_vonmises	0.12344624481226814	7.072948824481697	8.31222832305862	0.5325835788969057	0.24964623451407703	1.8656977227014955	0.22752513005391983	-0.32179037116790277	0.5493155012218226	44.89808167839337
4	2.0	perception	451	diff_vonmises	0.020235194708441	1.1593912544191256	7.006525805647	1.3229196343857657	0.29021022453919193	3.123139331683222	0.7195075782996222	-0.5263118548482559	1.245819433147878	48.927801220831896
5	2.0	wm	451	diff_vonmises	0.08352509169159533	4.78563523737163	2.1639399119946088	1.467928102155808	0.2826714885256732	3.5950103362599197	0.04992819300434326	-0.47184190425391015	0.5217700972582534	78.53036175537937
6	3.0	ltm	451	diff_vonmises	0.08625054550422492	4.941792238093145	2.594703060635309	1.5461916563642395	1.0211513889489814	2.16702597887135	0.1821714490962515	-0.2153682209089657	0.39753967000521717	64.66537851734472
7	3.0	perception	451	diff_vonmises	-0.01964868782877887	-1.1257868855590984	3.9430528697881164	1.8666259132245204	0.3274925221765892	2.6576409214625367	0.8525067692366531	-0.38504831228220565	1.2375550815188587	64.35219883285649
8	3.0	wm	451	diff_vonmises	-0.022542915421183904	-1.2916139115542162	1.2074836379090448	64.37428677776549	1.1566244637313088	65.64669699038178	0.13414765398054485	-0.3403529162597767	0.47450057024032155	76.55556633341283
9	4.0	ltm	451	diff_vonmises	-0.08630866741988215	-4.945122378557519	1.0215908950334334	254.05922766730538	1.0071676851176672	255.98132518062604	0.03290526017838147	-0.44749734994219637	0.48040261012057783	79.88126429700574
10	4.0	perception	451	diff_vonmises	-0.07702843855596152	-4.41340443173938	1.1005103811633354	249.1962218402262	1.0735606249710534	251.10153918518776	0.5817054934141055	-0.6287051121622831	1.2104106055763886	83.48039944610542
11	4.0	wm	451	diff_vonmises	-0.08926127610263625	-5.114294394633011	0.9397992683465435	260.7273848365627	0.9248710949130912	263.1492465390979	-0.05306600872505385	-0.5273203534361173	0.4742543447110634	81.30790857072111
12	5.0	ltm	451	diff_vonmises	-0.12437587089006262	-7.126212475264622	2.4989132397525458	0.8089779667494821	1.7236985811000903e-14	2.017824573712941	0.15550894348497624	-0.3179280470890835	0.47343699057405975	87.00451727545953
13	5.0	perception	451	diff_vonmises	-0.03523806965500473	-2.018992669419788	0.8594122038142964	233.0267800142379	0.8375862576528208	234.56806097995877	0.49147236589084287	-0.533148411946577	1.02462077783742	95.09449652750328
14	5.0	wm	451	diff_vonmises	0.06087502776446235	3.4878821686454	0.36142229218318195	112.80419437285894	0.3433497457955207	114.51845168441969	-0.0036513485597922113	-0.44751913874948634	0.44386779018969413	134.39806213693254
15	6.0	ltm	451	diff_vonmises	0.37294232611815004	21.368021288361568	0.6692907336543531	156.39045414033959	0.6581770149094338	157.54131711205355	0.012311700894258593	-0.2639623716539976	0.2762740725482562	99.52423695399682
16	6.0	perception	451	diff_vonmises	-0.12087025696920951	-6.92535559299743	0.5667050934166953	317.20155217488866	0.5560258883011178	318.7137083580948	0.24947002871142843	-0.48951155442718175	0.7389815831386102	114.8787533943422
17	6.0	wm	451	diff_vonmises	0.3572890001165968	20.471151773130174	0.001066810282434627	1452.0520982896937	8.896215239193362e-26	1453.7139157167837	-0.01788786255841046	-0.5109535649743577	0.49306570241594727	175.96779074587965
18	7.0	ltm	451	diff_vonmises	0.10028586145824299	5.745956606391011	2.9458185357321107	0.655709389020026	0.2285890432210785	2.310472254832262	-0.0311798615920032	-0.3413922823919283	0.3102124207999251	69.3897312176291
19	7.0	perception	451	diff_vonmises	-0.0020601269625036968	-0.11803658021256783	1.1545426374625978	4.663377439085073	0.3723912666342738	5.940557245386962	0.40306404682664576	-0.4618172165229417	0.8648812633495875	102.25004087652488
20	7.0	wm	451	diff_vonmises	-0.18873187306227582	-10.813539786067196	0.8049601067448172	213.66799166526306	0.7922954115528174	215.41137294805816	-0.010034621120553311	-0.383417248077194	0.3733826269566407	89.24937398659283
0	1.0	ltm	452	diff_vonmises	-0.35549389462235736	-20.36829980452951	11.118260995821291	0.14964096438056704	1.402393436246025e-35	3.496812306895304	-0.35985830611778524	-0.556534963663635	0.19667665754584973	40.68564316475539
1	1.0	perception	452	diff_vonmises	0.05614077947278451	3.2166297223652394	11.406949641176595	0.6502257476749145	0.01692518488204785	3.7570914262301103	0.25790857104258147	-0.601055563136358	0.8589641341789395	39.962130114603696
2	1.0	wm	452	diff_vonmises	0.1123994794646333	6.440015792790854	12.57480586981715	0.2749481131050147	2.620780126185029e-33	4.033464411249266	-0.25713673668249315	-0.6419457988309571	0.384809062148464	38.23999576691273
3	2.0	ltm	452	diff_vonmises	0.002075822765209069	0.11893588346365568	9.538068621089486	0.3943999794132057	0.05601743578527213	2.1761472246847013	0.11321181596903779	-0.3524212093533256	0.4656330253223634	43.24499934444725
4	2.0	perception	452	diff_vonmises	0.013342158124297223	0.7644493501184138	8.46123208034502	1.2279134621956664	0.18054152604805698	3.3097396125714753	0.776645141306366	-0.5534135661649191	1.330058707471285	45.376516868723314
5	2.0	wm	452	diff_vonmises	0.06662030283093937	3.817062182096276	3.3229068183458055	0.6639445117396229	2.0077186014305792e-11	2.644256628241623	0.03987006838260826	-0.42024781441135106	0.4601178827939593	75.29557074920825
6	3.0	ltm	452	diff_vonmises	-0.013649617791428148	-0.7820654914155128	4.570656995923883	0.46127621615611564	1.1533963454535648e-14	1.2024414133051977	0.18983360697237997	-0.1913336469110139	0.3811672538833939	63.93392354295386
7	3.0	perception	452	diff_vonmises	-0.008134159028064315	-0.466052982196321	4.543241266177467	1.7795015859101455	0.2886600383678602	2.602994602151125	0.9241266278496667	-0.39317919844004423	1.317305826289711	60.73234583948559
8	3.0	wm	452	diff_vonmises	-0.1364929773148389	-7.820471533315157	1.378621607362725	166.0675086168847	1.3606285620903484	166.91812324855144	0.18896962592687316	-0.2672495592525266	0.45621918517939974	72.87401752222704
9	4.0	ltm	452	diff_vonmises	-0.12632843219123338	-7.238085997062279	1.4247906334347642	3.049036150992451	0.5524887343959779	5.025546612755196	-0.009221920567721753	-0.43522757478064505	0.4260056542129233	81.69094014426727
10	4.0	perception	452	diff_vonmises	-0.0863291158950407	-4.946293989881583	2.7871968608926707	2.434669588223746	0.2761234375020941	4.591966903362876	0.5835632092875601	-0.6263407167110797	1.2099039259986397	73.95562756037478
11	4.0	wm	452	diff_vonmises	-0.12795877068834516	-7.331497512124486	0.9363391395991674	210.06109803301555	0.9199043863426771	212.18045010484286	-0.035486098036443536	-0.4644316858184574	0.42894558778201386	81.8312068037597
12	5.0	ltm	452	diff_vonmises	-0.07186247924349891	-4.117416765998969	2.5877697301299967	0.9169032216246449	1.4351003608749508e-16	2.067835873401621	0.22231415454881337	-0.3259889952684764	0.5483031498172898	85.49976937539316
13	5.0	perception	452	diff_vonmises	-0.04841617719685749	-2.774042613537471	1.340399695964233	4.821307155923023	0.44704999519652205	5.994332265553043	0.5315984798710718	-0.46592315408394436	0.9975216339550161	95.31147803497845
14	5.0	wm	452	diff_vonmises	-0.14021647708475168	-8.033812355149092	0.5134091781881469	194.10858601597778	0.5012027901815128	195.3331643202947	0.14091273872241317	-0.3765012534476462	0.5174139921700593	119.41233413741995
15	6.0	ltm	452	diff_vonmises	0.27045194038320586	15.495754745081449	0.7225362197382943	138.6227226686478	0.7103738894343935	139.44947136898259	0.08464798974166854	-0.22051585666378593	0.30516384640545446	99.5187735163864
16	6.0	perception	452	diff_vonmises	-0.13539460039199952	-7.757539171321894	0.6770418787326145	251.51381822687236	0.6669569211276357	252.3981017179819	0.23670250324536823	-0.31039976704039773	0.547102270285766	106.4984728452059
17	6.0	wm	452	diff_vonmises	0.2794642337587746	16.012121119235246	0.05633867668540767	104.53501796324426	0.04425126376310908	105.40457706320178	0.061441702866250836	-0.32825959526295634	0.3897012981292072	171.88642957870223
18	7.0	ltm	452	diff_vonmises	0.06477701434753963	3.7114495315724008	1.0533916084622517	195.9554116023045	1.0404718803650068	197.26351494601883	0.019805285204427037	-0.3057018778373113	0.3255071630417383	78.48622931927082
19	7.0	perception	452	diff_vonmises	-0.14250814017690006	-8.165114978395094	1.7488651235593382	2.0641732161876654	0.011097915239702594	2.7630309717881394	0.5369217994941824	-0.4051748404320277	0.9420966399262101	102.72686365013952
20	7.0	wm	452	diff_vonmises	-0.3107391987293869	-17.804044616470822	1.0262456718991924	108.39981854147698	1.005589008428844	109.36249415168281	0.09301195439547172	-0.24853309737786944	0.34154505177334116	82.67557005198152
0	1.0	ltm	453	diff_vonmises	0.35723906864442045	20.468290910509594	0.00020916120402702344	3867.6268139212584	2.0643099985543684e-32	3869.2600893463486	-0.13119184478409807	-0.3886824069733166	0.2574905621892185	176.01462672313278
1	1.0	perception	453	diff_vonmises	-0.0037745098195730957	-0.21626348239222423	10.464337400164794	0.6612640787337054	2.9790058234462267e-19	2.4482275562930487	0.4529952164449899	-0.3896475167115519	0.8426427331565418	41.94784676353868
2	1.0	wm	453	diff_vonmises	-0.36347792137826507	-20.825750841162545	0.00019681872904556692	5066.733451377185	4.308407279244602e-31	5068.555650151416	-0.13129109569717912	-0.44871717009982603	0.3174260744026469	176.24560671973592
3	2.0	ltm	453	diff_vonmises	0.13034779684705022	7.468378628164637	10.047717645136533	0.3523235787817913	0.18560929081266045	1.3065127717874518	0.19137310388791548	-0.2235700645879985	0.41494316847591395	41.506303337935464
4	2.0	perception	453	diff_vonmises	-0.011131881090230519	-0.6378098045116983	8.148609535935238	1.040883594270794	0.09646648989369862	2.0439951380008594	0.8084350313180518	-0.3302009578686043	1.1386359891866562	46.97237903745989
5	2.0	wm	453	diff_vonmises	0.10868192834069963	6.227015803265339	1.0485312751655318	1.226469753805425	6.58049828117169e-20	2.251989193304381	0.07191374422819496	-0.305562773956179	0.37747651818437394	126.47779695528051
6	3.0	ltm	453	diff_vonmises	0.11120262234630679	6.371440931230555	3.938420156012985	0.5171767412244089	0.5183352331846511	0.8826189177695751	0.1734431626826477	-0.12914675831358707	0.3025899209962348	61.27257837281286
7	3.0	perception	453	diff_vonmises	0.013567075256124364	0.7773361525122965	2.7842506459527785	3.5769066047259765	0.849733058452069	3.999261942600067	0.9921775830308257	-0.3998253805008408	1.3920029635316666	69.06009688907002
8	3.0	wm	453	diff_vonmises	-0.1808517137086925	-10.362039913216332	1.3132164240123068	114.04621824361051	1.2932738470449532	114.49346189587571	0.2359476107783678	-0.1824288316950966	0.4183764424734644	77.62717152001574
9	4.0	ltm	453	diff_vonmises	0.11643397599269614	6.671175416309039	2.879944478022663	1.3076284219888286	0.7625922413521629	2.2748178074414214	0.1621488445678111	-0.28433513857866843	0.4464839831464795	64.1062675379817
10	4.0	perception	453	diff_vonmises	-0.08691582584652162	-4.979909993899764	2.455997415702249	3.077014151901812	0.40913394031998224	4.49096887138923	0.7622037168257378	-0.5384343721601178	1.3006380889858558	76.64637973747327
11	4.0	wm	453	diff_vonmises	-0.17404517175361692	-9.972053786111779	1.2270718308997877	333.03034514573136	1.2147786528413456	334.40307337275095	0.22966704740876764	-0.39604532988651897	0.6257123772952866	76.56213358473764
12	5.0	ltm	453	diff_vonmises	-0.02772795394369581	-1.5886947355068965	1.5511499096872579	1.015712374729611	1.0888060148203254e-12	1.5363632883763942	0.20446082815504224	-0.22433844208916404	0.4287992702442063	108.89201341994752
13	5.0	perception	453	diff_vonmises	0.015643577806211163	0.8963109847804228	2.0685088843402393	1.9728885244833003	1.232271704387852e-13	2.483459281606211	0.6434262357529896	-0.37866654799742483	1.0220927837504146	95.47026182530712
14	5.0	wm	453	diff_vonmises	0.17080511673218	9.786412307993272	0.5256910175534216	83.27681467974045	0.5073383712140328	83.95672892772198	0.11766587723208133	-0.23103418739830328	0.3487000646303846	119.6809654322069
15	6.0	ltm	453	diff_vonmises	0.5285914159974611	30.286057223498506	0.9019671036380108	153.9253995075775	0.8924246061543146	154.40241619515197	0.1265261124601551	-0.15295029924585712	0.27947641170601223	91.71763115781556
16	6.0	perception	453	diff_vonmises	-0.09283935399320621	-5.319303156531742	0.7977517573773336	224.887941671012	0.78643537102065	225.4874607296759	0.3055082443853081	-0.26114095641635515	0.5666492008016633	100.20029226555323
17	6.0	wm	453	diff_vonmises	-0.25280919998968243	-14.484900181487578	0.5630412371987569	148.25610753573565	0.5508820508407375	148.97700329249687	0.15481826454195158	-0.2545851869017053	0.40940345144365686	116.22867216656533
18	7.0	ltm	453	diff_vonmises	0.13233297480466924	7.582120946718607	2.0046920918020183	0.6791473725423454	1.6313258994076786e-17	1.3066462907890004	0.1428808563836953	-0.201592696510511	0.34447355289420634	96.88395152842475
19	7.0	perception	453	diff_vonmises	-0.10558989451547868	-6.049855314968487	0.9553159508388734	264.1481790288558	0.9401708204837425	264.3511562756408	0.6927883166235489	-0.31437217523691174	1.0071604918604606	95.46383668229389
20	7.0	wm	453	diff_vonmises	-0.025475778800234373	-1.4596546050622856	0.7952875113847583	57.32224370783776	0.7651886093125921	57.98095037329065	0.13382748600583128	-0.20072756457742358	0.33455505058325485	97.57420831666371
0	1.0	ltm	454	diff_vonmises	0.2219648230437348	12.717647560774163	0.7009860526562738	59.9758318661891	0.6759301203655034	61.49238263650162	-0.13832628478770914	-0.28655587064750243	0.1482295858597933	87.2260818006699
1	1.0	perception	454	diff_vonmises	-0.003559662534707549	-0.20395363972958347	13.97908775751505	0.5889940035253171	5.946891994184158e-19	2.010000706736813	0.5504362462827895	-0.31990154809473925	0.8703377943775288	36.242666755398204
2	1.0	wm	454	diff_vonmises	0.02625562106659579	1.5043362756107117	7.977869501526465	0.3032643641463048	0.07605770761845627	2.0815090314866858	-0.021018972731219776	-0.3382530767299492	0.3172341039987294	46.64631654436897
3	2.0	ltm	454	diff_vonmises	0.13265909986660285	7.600806536360845	7.073905302343217	0.48524275473790845	0.7044154888516281	1.1324178988278726	0.18182499432867272	-0.2146178143196934	0.3964428086483661	45.78465648469634
4	2.0	perception	454	diff_vonmises	-0.009307269074134377	-0.5332672367405331	9.501113166804247	1.1162687520092758	0.3373952886058313	1.7643453832712275	0.9707188072790337	-0.31142908062815683	1.2821478879071906	42.78907737054908
5	2.0	wm	454	diff_vonmises	-0.003967963036670261	-0.22734753526511986	0.9722312241083778	119.55430284446962	0.9542689045771795	120.50213753519388	0.09176067058645998	-0.24385379479012137	0.33561446537658135	85.02988863271204
6	3.0	ltm	454	diff_vonmises	0.16958299265234503	9.71638975617742	2.6501844730953548	51.608814633622096	2.6145573731813645	51.68613843248779	0.20040266695384545	-0.09742394484373218	0.29782661179757763	55.910657143741844
7	3.0	perception	454	diff_vonmises	-0.06219609619392904	-3.563573814101817	6.1560078083822205	1.0268213654047835	5.476527316093302e-15	1.0054706949598764	0.833708272393067	-0.1600211604416653	0.9937294328347324	54.9104751791773
8	3.0	wm	454	diff_vonmises	-0.031716366465386385	-1.8172139399568965	2.0781702646415274	97.7673080532733	2.055623489331986	97.97106035229461	0.23130819578153705	-0.13691578397154203	0.3682239797530791	62.353605689085555
9	4.0	ltm	454	diff_vonmises	0.04984245198208864	2.855762139157144	1.6723157824766448	127.351926038563	1.6516414538079085	128.23222864726577	0.040320527514104754	-0.2551545070865018	0.29547503460060653	62.571391597203814
10	4.0	perception	454	diff_vonmises	-0.06969049926538162	-3.992971480065931	3.3663491037797275	1.7739755173636562	3.6284720742544326e-19	3.006603585547567	0.7614684887628222	-0.4770386115592375	1.2385071003220598	74.79607888237737
11	4.0	wm	454	diff_vonmises	-0.03240495806774574	-1.8566673325802379	1.4063766200201746	212.39386926560863	1.3912273428898425	213.676121967334	0.04366822962495576	-0.3367542073556926	0.38042243698064837	68.12836305729289
12	5.0	ltm	454	diff_vonmises	-0.048834445123945	-2.7980076004652705	3.3416284277676493	0.5777402922414943	1.209109792924396e-11	1.0168595714997404	0.24032312390763313	-0.16133482307855573	0.40165794698618884	75.08011569667406
13	5.0	perception	454	diff_vonmises	-0.06156753862763815	-3.5275601183723344	1.5530076595447904	2.9432578934037625	0.3441569958678049	3.386289568187667	0.5636430328664119	-0.31841169950835146	0.8820547323747634	95.59221544284065
14	5.0	wm	454	diff_vonmises	-0.03902736420062589	-2.2361032542158235	0.6569374139184512	24.049273974350093	0.5959879983294862	24.45226094836495	0.17135589808137652	-0.1795540487609748	0.35090994684235133	112.17885142732983
15	6.0	ltm	454	diff_vonmises	0.18197705740736722	10.426517357652036	0.984964470694194	77.766298591891	0.9699144387994979	78.08395981377777	0.11506585788285051	-0.11209327797621338	0.2271591358590639	88.8503470992004
16	6.0	perception	454	diff_vonmises	-0.27544080700845264	-15.781595747261763	0.807528416737847	144.4105614278587	0.7911197407826066	144.80022939861385	0.33485093263441	-0.22856582580265616	0.5634167584370662	101.32319057232199
17	6.0	wm	454	diff_vonmises	0.10915848377560478	6.254320418389425	0.08897439807457672	43.09477887096183	0.056265145975710786	43.42797393286111	0.1761199174486867	-0.26599818418311116	0.4421181016317979	171.23733290776926
18	7.0	ltm	454	diff_vonmises	0.025704142177646383	1.4727388627833469	1.3243561876357615	117.35724571770405	1.3069890578047358	118.08130974316876	0.08073132930584137	-0.20096730506874572	0.2816986343745871	72.47631902259428
19	7.0	perception	454	diff_vonmises	-0.10974355746412619	-6.287842671445854	2.123085991801583	1.5437692167757255	1.218582458958249e-15	2.1209827290622925	0.48801168190415645	-0.3257428688802657	0.8137545507844222	94.26963930758664
20	7.0	wm	454	diff_vonmises	-0.20205742929171022	-11.57703791767805	0.6146147750520569	50.30819615232849	0.5979327017238508	51.02625182245505	-0.031469248028383134	-0.1488847151415671	0.11741546711318396	99.986188403859
0	1.0	ltm	455	diff_vonmises	0.034174169787904815	1.9580356972104336	7.653077721711989	0.500512482763738	0.337149139690967	2.873557897774665	-0.0801291137008725	-0.5189172784402492	0.43878816473937665	44.37052380818753
1	1.0	perception	455	diff_vonmises	-0.03136087167828208	-1.7968455890169182	16.353611980729653	0.5593240425206879	0.03459505465067528	2.9241520233579346	0.4135430666205583	-0.4737554004539563	0.8872984670745145	33.313403446017645
2	1.0	wm	455	diff_vonmises	0.05820254766295895	3.334760337996561	2.0733830384284793	1.749294438380365	0.5205456697220607	4.967794985312261	-0.32259974094932786	-0.6486674239405869	0.326067682991259	66.3055117303621
3	2.0	ltm	455	diff_vonmises	0.06623629091989788	3.795059920310846	6.0886436184989785	0.6682179918863688	0.6378721395902066	1.4487155431821848	0.24793364522511202	-0.25659614070312947	0.5045297859282415	49.403726395202995
4	2.0	perception	455	diff_vonmises	-0.031787889708260846	-1.8213119199106922	7.066772455593708	1.192375166282244	0.4142035717476079	2.3925159470310917	0.6882287747086787	-0.4142924359547649	1.1025212106634437	48.22544423054822
5	2.0	wm	455	diff_vonmises	-0.012393754917555816	-0.7101098490954578	1.10062604341533	97.20548463187616	1.0679424937734248	98.78490309862208	0.035954282799998794	-0.37555592997904874	0.41151021277904754	77.39137568234301
6	3.0	ltm	455	diff_vonmises	-0.05090819245608192	-2.9168245703732305	2.053867553700437	71.5042371282693	2.0236591224920963	71.61285686923632	0.27720773953468125	-0.12334920959754747	0.4005569491322287	64.14743098946747
7	3.0	perception	455	diff_vonmises	-0.07120138424357451	-4.079538812646099	4.433933328982064	1.8411443160299699	0.45927713525601144	2.3345859119456343	0.9385998851100573	-0.34363656312562657	1.2822364482356838	60.26645284975217
8	3.0	wm	455	diff_vonmises	-0.1878922700164553	-10.765434075075353	1.6570700075438547	178.76209327889305	1.6399236802474675	179.63757677625404	0.11882463758891504	-0.2737155729168741	0.39254021050578913	64.71967930097836
9	4.0	ltm	455	diff_vonmises	-0.2029599934127996	-11.628751032556407	1.412582610630298	198.84563243572805	1.3970892872760958	199.73894887829914	0.17862363019183647	-0.27693224521683035	0.4555558754086668	71.57932181129681
10	4.0	perception	455	diff_vonmises	-0.1059193758804536	-6.0687332066097595	3.772049674869055	1.9514353548335142	0.1095363541528451	3.086450666462535	0.9064468493061054	-0.4635284074262735	1.3699752567323789	68.336968468832
11	4.0	wm	455	diff_vonmises	-0.21572988230886636	-12.360411771152005	0.8858907975614542	155.35003950933867	0.8699020894167941	157.07569936158134	-0.07350160875197531	-0.3615191357279528	0.2880175269759775	82.36137013112918
12	5.0	ltm	455	diff_vonmises	-0.05288862792193812	-3.0302951641648157	3.299017017667601	0.8771674072491022	0.1064713172975855	1.4398813107625752	0.35203614960260876	-0.21310249899162026	0.565138648594229	72.8141600132916
13	5.0	perception	455	diff_vonmises	-0.07581985592508411	-4.344157747797287	1.4565510116999925	3.8401461049757857	0.4257865687404272	4.718001434656444	0.5349354253148364	-0.3972624129339696	0.932197838248806	93.93414278231799
14	5.0	wm	455	diff_vonmises	-0.3264866301347681	-18.70630597417093	0.3290742780173503	127.45839843475244	0.3143722595779735	128.65143190668942	0.08357980559067002	-0.37946151538361406	0.4630413209742841	139.41018342501616
15	6.0	ltm	455	diff_vonmises	0.07285634812568434	4.174361258337578	0.5819715851192324	60.8619910820734	0.5632088023479354	61.307089302528944	0.10040790061820815	-0.15794926765257422	0.25835716827078237	114.91292949007158
16	6.0	perception	455	diff_vonmises	-0.12358663474791746	-7.080992575280518	0.8667410132216434	269.6115850487677	0.8549458850075295	270.53969046597933	0.31507494126286417	-0.3275971033218106	0.6426720445846748	94.61971839007714
17	6.0	wm	455	diff_vonmises	0.39321400519368815	22.529502943033563	0.00018216488608845937	6800.681196612726	2.0817829338529963e-29	6801.364083271114	0.08848589823696784	-0.30583751659105474	0.3943234148280226	175.22702120968924
18	7.0	ltm	455	diff_vonmises	-0.12009444691393062	-6.880904951126139	1.2128708208166001	124.53010091569263	1.1972097408812223	125.24853124147374	0.08797269022401366	-0.1967762824915642	0.28474897271557786	76.17672633078894
19	7.0	perception	455	diff_vonmises	-0.13442007078604898	-7.701702737890381	0.5519230565678668	146.31435468950585	0.5321113919413974	147.31985698522615	0.2908819764481123	-0.4025970964701049	0.6934790729182172	118.79972451568955
20	7.0	wm	455	diff_vonmises	-0.35343993167771204	-20.250616396525068	0.9862210802623463	110.4519594304557	0.9744647812781804	111.29020989375483	-0.03634510708540262	-0.179240224239555	0.14289511715415237	77.76151412435385
0	1.0	ltm	456	diff_vonmises	-0.11267941668039173	-6.456055013782455	1.4650043025147448	0.7130843468503911	0.01667650079713028	4.0701505761601675	-0.35415268574193554	-0.6207677742447194	0.26661508850278387	107.85494768641418
1	1.0	perception	456	diff_vonmises	0.10845528044182663	6.214029835224408	10.077715630513584	0.7399191077509895	0.10971926333647758	3.7665703438927243	0.25784476029623404	-0.6254388403569818	0.8832836006532159	41.67889392323292
2	1.0	wm	456	diff_vonmises	0.11236904302018343	6.4382719129804915	5.595504003360103	0.4898643622493627	7.287015430887516e-35	3.956946088279489	-0.17892618224889212	-0.6297613068832315	0.4508351246343394	57.65309735647662
3	2.0	ltm	456	diff_vonmises	0.11075321147600528	6.345691585094977	5.690256673867936	0.5361785173642185	0.11311394414150781	2.1999544514046847	0.1070772463749986	-0.35205036330438094	0.45912760967937954	54.73127060029674
4	2.0	perception	456	diff_vonmises	0.05564311029532286	3.1881153789029395	5.564846672759511	1.5617487407158843	0.3441017268564058	3.5781129516689134	0.6532583386218962	-0.5852451892887799	1.2385035279106762	53.76430638987
5	2.0	wm	456	diff_vonmises	0.10216761999206869	5.853773428441949	2.7734234516831004	0.964709871289449	0.13159285183536845	2.6253705985381117	0.12944793947853833	-0.3837196538103724	0.5131675932889107	76.24664915196593
6	3.0	ltm	456	diff_vonmises	0.09477595022296338	5.430261947117775	5.170538825668758	0.5574057499216228	0.17908761965231815	1.6639066142201822	0.17775149176932525	-0.2645776183386281	0.44232911010795334	56.796365199628156
7	3.0	perception	456	diff_vonmises	-0.006651837634968843	-0.38112222248999783	5.367112086645417	1.3125490955754682	9.053632836841061e-12	2.1894042094271233	0.8332424102185008	-0.3484287513052784	1.1816711615237792	58.8899303023054
8	3.0	wm	456	diff_vonmises	0.049571255404340604	2.84022371983379	1.6921906619416693	2.5602938209043646	0.6145942627282627	3.6119187971417266	0.22415914425700934	-0.30760130778605743	0.5317604520430668	81.17756442178151
9	4.0	ltm	456	diff_vonmises	-0.10683079908363723	-6.120953909502475	0.8703309314943816	40.72229806278494	0.7900735886322668	43.125454126809544	-0.1013038753522757	-0.49999588276671947	0.39869200741444377	84.83671463713893
10	4.0	perception	456	diff_vonmises	0.031617143717241065	1.81152889525648	2.8113541611415385	1.6059766947113288	0.06963361509081	4.2473812726476075	0.2895334293313395	-0.6371791061774327	0.9267125355087722	78.33792598213657
11	4.0	wm	456	diff_vonmises	0.07635539593221717	4.374841929966418	1.0205845890253995	207.3629740452943	1.0006696855623949	209.68412053810064	-0.013005041334878342	-0.524361470065486	0.5113564287306076	78.91502557277678
12	5.0	ltm	456	diff_vonmises	-0.13914509136597705	-7.972426475232716	1.4878609876817135	1.2388095714349983	2.226387802454003e-14	2.644079827212007	0.1131415311480174	-0.3935807539883118	0.5067222851363292	110.77451895417848
13	5.0	perception	456	diff_vonmises	-0.06037971487082593	-3.4595028303016204	1.1068927423987827	7.887592109772629	0.5433877723916603	9.52714338794044	0.42565571262157365	-0.5326760144568915	0.9583317270784651	96.51290987736448
14	5.0	wm	456	diff_vonmises	0.12715170421396946	7.285256009356255	0.5402899836865657	218.80991888021447	0.5294247725062211	220.01290630156572	0.143135311222089	-0.36521180683595134	0.5083471180580403	116.51651778389544
15	6.0	ltm	456	diff_vonmises	0.25287454509326135	14.488644180134497	0.7899658182021619	183.5970184758758	0.7776141625134289	184.77756144846978	0.07962612930899127	-0.29291724611016434	0.3725433754191556	93.74376321644485
16	6.0	perception	456	diff_vonmises	-0.24894455852610045	-14.263472536293069	0.4345230200256173	119.54003289503106	0.4113298625877711	120.95862456614928	0.18439261407373309	-0.47729088104223827	0.6616834951159714	129.01126268763784
17	6.0	wm	456	diff_vonmises	0.26130645163187527	14.971756838045836	0.4907495598429537	218.66954946053127	0.4801556790672194	219.86098733372515	0.14240797882451517	-0.37542980075411947	0.5178377795786346	121.77274067036839
18	7.0	ltm	456	diff_vonmises	0.0391850055011559	2.2451354354131468	2.481481935992	0.6800681479057608	0.03831130561075446	2.9092153969289334	-0.08187336505855608	-0.44481984862317553	0.36294648356461945	83.36047713526654
19	7.0	perception	456	diff_vonmises	0.002704834609999093	0.15497560743386204	0.9091864097993937	212.14965592574015	0.8833730278382091	213.5862726843774	0.5840961296470795	-0.5402397127001208	1.1243358423472003	93.32611217406514
20	7.0	wm	456	diff_vonmises	-0.10163168401783756	-5.823066559029273	0.963593310148845	230.69680061820694	0.947238434019319	232.46260558466363	0.13051218265269426	-0.44028443521749594	0.5707966178701902	84.68184382364234
0	1.0	ltm	457	diff_vonmises	-0.3438680022644957	-19.70218523935064	0.639522303579304	177.81501007500833	0.620792139405112	181.5373166150698	-0.37109606392777295	-0.6885383990318061	0.3174423351040332	89.60325573155741
1	1.0	perception	457	diff_vonmises	0.06010116753566872	3.4435432436024964	10.809049619370267	0.7005360751652905	6.304640988424646e-18	4.263248463858861	0.2289117158760411	-0.6785170662809829	0.9074287821570239	41.272749807811294
2	1.0	wm	457	diff_vonmises	-0.22087492424852054	-12.655200959711992	0.00027073926409641795	4386.399786650904	1.8848659438819434e-31	4390.602479238656	-0.4798621919363768	-0.857870823281587	0.37800863134521023	178.59389500568136
3	2.0	ltm	457	diff_vonmises	0.06582481659622852	3.7714841781865913	5.901956467247454	0.6263827586005665	0.11848317624941629	2.5610925844345034	0.13571766047187034	-0.4114211060251102	0.5471387664969805	53.735531206508085
4	2.0	perception	457	diff_vonmises	0.014240365446318005	0.8159128387979525	5.532039315239643	1.3858390990020517	0.18923798255039126	3.544084947735673	0.5924402887808216	-0.5661093078792192	1.1585495966600408	55.295358450152406
5	2.0	wm	457	diff_vonmises	0.10827807351264374	6.203876626081755	2.2166100304322165	0.9308029816285172	2.9774958738496297e-25	3.0822784012537543	0.020249791879763945	-0.48449320304392807	0.504742994923692	92.31191688147595
6	3.0	ltm	457	diff_vonmises	0.05704303918579466	3.2683253959454057	4.527096937342617	0.5325604954337222	2.1354746749227444e-18	1.6173032550989206	0.18044859030233018	-0.2573506178456731	0.43779920814800327	64.2494429508449
7	3.0	perception	457	diff_vonmises	0.023714810524633936	1.35875855501395	2.3468897994814673	5.232405899174533	0.8117607124549412	6.574555259041294	0.95964215258592	-0.6104757443480653	1.5701178969339853	72.05282417631557
8	3.0	wm	457	diff_vonmises	-0.1246866262815222	-7.144017447656192	1.0108865886821392	170.19306626723815	0.9905547267289606	171.65821732423433	0.1565204128347304	-0.38276660865533074	0.5392870214900611	83.61643181163583
9	4.0	ltm	457	diff_vonmises	0.018105582801267464	1.037373480137276	2.8809914654251725	1.0921552379599269	0.0898411074235715	3.25677886511863	0.1330304121560133	-0.4870350304336277	0.620065442589641	76.22515935580086
10	4.0	perception	457	diff_vonmises	-0.08431315017364253	-4.830787662402421	1.144484599213735	511.7445166601663	1.129369259602933	514.0170761885821	0.6096953596873504	-0.7225882456810169	1.3322836053683673	81.08708359570579
11	4.0	wm	457	diff_vonmises	-0.19798725397737224	-11.343834050288152	1.64959104204788	3.19872277877742	0.4262691194472627	5.714868206221718	0.13606574974126073	-0.5958008837822703	0.731866633523531	83.53836440940228
12	5.0	ltm	457	diff_vonmises	-0.022093030705123765	-1.2658374160565289	1.6436584427924221	1.3226491547496508	3.819638609478932e-12	2.3913633197939617	0.2250344110488966	-0.3579737622825519	0.5830081733314485	106.17602600076604
13	5.0	perception	457	diff_vonmises	0.02855987668705197	1.6363603975821497	2.288231509153057	2.068788624540474	0.010670840426419782	3.3156156930801814	0.623680434866275	-0.5101725592773454	1.1338529941436204	90.42538924228924
14	5.0	wm	457	diff_vonmises	0.05251327451437776	3.0087889980857536	0.4063730571718093	212.28950775137096	0.3952954346778059	213.75056173047398	0.09934005051400163	-0.43890388280703263	0.5382439333210343	130.5851688744865
15	6.0	ltm	457	diff_vonmises	0.5145911900031448	29.483903361794837	0.7411552520723368	180.73077935184253	0.7304739310442394	181.57828364668737	0.12229438196187203	-0.2403012854948443	0.36259566745671634	99.30733877886973
16	6.0	perception	457	diff_vonmises	-0.004081708298584836	-0.23386465871243517	0.6639563105713776	233.4340200622615	0.6515895453278788	234.51521582306867	0.2512592607604063	-0.3639712197464178	0.615230480506824	107.12484703488211
17	6.0	wm	457	diff_vonmises	-0.058546962060961306	-3.354493829405635	0.5446965958224619	148.20841478875366	0.5322011886053625	149.23150073053702	0.08943359616643676	-0.29104549360812015	0.3804790897745569	115.14096905400932
18	7.0	ltm	457	diff_vonmises	0.15457418245617494	8.856448276423956	1.1497247405102964	1.1947840094712447	6.62760164169261e-14	2.461936538919769	0.05001975999530628	-0.34750537269812487	0.39752513269343115	122.41880225507603
19	7.0	perception	457	diff_vonmises	-0.08866371298326091	-5.080056549900132	0.8679689096927741	225.19044867538503	0.8493330935523862	225.74842989943636	0.6258971309801638	-0.37755416100044314	1.003451291980607	98.42198425761013
20	7.0	wm	457	diff_vonmises	-0.11271999849827692	-6.458380180672245	1.584104391641359	2.5728756186417137	0.49055432811765565	3.744434574085528	0.23463369404368417	-0.3379125729833453	0.5725462670270295	86.06581029609427
0	1.0	ltm	458	diff_vonmises	-0.09141268017100912	-5.237560767778051	9.829225102015245	0.3678884504897333	0.15501707665325856	3.084468430164627	-0.11584252508937332	-0.5266411119140211	0.41079858682464776	41.09282972153744
1	1.0	perception	458	diff_vonmises	0.016133234455307652	0.92436624418417	13.936024006210317	0.7785995945468498	7.585181593625908e-25	3.4586127127356185	0.5983366485309282	-0.5504553094714404	1.1487919580023687	36.29659656386937
2	1.0	wm	458	diff_vonmises	0.12864405496580955	7.370761408989867	8.19118043346356	0.32526392373192436	5.742894155030813e-18	3.6176255633833416	-0.21046469185782857	-0.5757629626119367	0.36529827075410815	47.48987922557373
3	2.0	ltm	458	diff_vonmises	0.08142270437764404	4.665177317380376	2.4754890682359147	1.7073608365426647	0.7835197372519157	2.7494427376029136	0.17420900188072386	-0.3033622122590768	0.47757121413980064	67.45390591013378
4	2.0	perception	458	diff_vonmises	-0.025845983682383823	-1.480865782364587	6.937554975171104	1.2475988787997891	0.24469283169593112	2.4247306698731728	0.7996332727584782	-0.4000456719397788	1.199678944698257	49.80832926255326
5	2.0	wm	458	diff_vonmises	0.09012797986167606	5.163952862114115	3.48007709625764	0.691587804273133	7.57224650188253e-21	2.0907672693710757	0.15969386545363845	-0.33228862209091053	0.491982487544549	73.53175643999387
6	3.0	ltm	458	diff_vonmises	0.08908522177352292	5.10420722460981	4.543354402819254	0.6601823314466306	0.566971656490212	1.0003474876598817	0.28444170992339163	-0.15183756442282925	0.4362792743462209	57.95626563749249
7	3.0	perception	458	diff_vonmises	-0.01418084213105084	-0.8125024040505173	3.980156973734954	1.7542988264954347	0.42574895051459244	2.0720301452326852	0.8624448172974517	-0.2916949048103932	1.1541397221078449	63.75491929112036
8	3.0	wm	458	diff_vonmises	-0.1021011436996254	-5.849964617447272	1.4654459193658353	126.55532528390556	1.4446134050648045	127.04684589297763	0.2573633929215404	-0.20349707337261158	0.460860466294152	73.19833564214454
9	4.0	ltm	458	diff_vonmises	-0.03898771646845854	-2.2338316064953694	1.3269944708838097	186.8847650958585	1.3061102069900614	187.9955738961392	0.26465013521600156	-0.35073520974594885	0.6153853449619504	74.64926991439074
10	4.0	perception	458	diff_vonmises	-0.09471989055944416	-5.427049964997201	3.34939084136095	1.9646633250166665	8.881793531304331e-13	3.369146313795971	0.8330525805798399	-0.5345284718032223	1.3675810523830623	74.99240176625202
11	4.0	wm	458	diff_vonmises	-0.1927614636945871	-11.044418322464086	1.167442528997558	313.5141593176337	1.153546016075416	314.99512676809843	0.26061388281770803	-0.4272492733402373	0.6878631561579454	78.80790315540625
12	5.0	ltm	458	diff_vonmises	-0.07927067956076446	-4.541875377965762	2.5652786247385744	0.8588559770443427	2.608997065087612e-15	1.5090491531083687	0.2736696717855597	-0.23713364832291187	0.5108033201084715	85.8805070136064
13	5.0	perception	458	diff_vonmises	-0.0008415655670030592	-0.048218155172809384	0.9235164336623637	80.57318742082201	0.8647701909640642	81.3490701715165	0.656521824084848	-0.4287328032087583	1.0852546272936063	95.75844545465111
14	5.0	wm	458	diff_vonmises	0.01961900170038724	1.1240859956921745	0.4823630926883197	140.21318848761217	0.4691798539608489	140.96450742953752	0.16306285584052915	-0.28374000304869185	0.446802858889221	124.80088288678955
15	6.0	ltm	458	diff_vonmises	0.24010986296199247	13.757281767186733	0.9767400786390533	74.77467327251595	0.9592589744476758	75.13184284581776	0.12861944636109257	-0.1259260221574552	0.25454546851854776	89.27456617619339
16	6.0	perception	458	diff_vonmises	-0.16684118264312084	-9.55929561442215	0.5258388048463393	192.3846713721963	0.5138618976985139	193.08191997685682	0.2580695328120157	-0.31756049860589997	0.5756300314179157	121.7101667780455
17	6.0	wm	458	diff_vonmises	0.047849708116501175	2.741586326008397	0.6408201355676091	82.84115974538136	0.6239669933663798	83.15833576821277	0.1793300449988955	-0.16395081487759722	0.3432808598764927	112.58700155902916
18	7.0	ltm	458	diff_vonmises	-0.024293761892881873	-1.3919300249578812	0.6443452041946319	69.95887157994093	0.6229276707999021	70.70367886567215	0.08339706581032402	-0.2090313522285978	0.29242841803892183	106.46301825248327
19	7.0	perception	458	diff_vonmises	-0.08433244319004245	-4.831893070816213	1.0389315448344068	9.178543886139467	0.6639593415475772	9.874314608057253	0.46183078865567717	-0.34000064893992965	0.8018314375956068	97.67536814216786
20	7.0	wm	458	diff_vonmises	0.13637829171850296	7.813900532674166	0.703329316191829	39.811182169608756	0.663033741358438	40.40121524015955	0.14176262216496482	-0.19787416326323104	0.33963678542819586	105.1834112290654
0	1.0	ltm	459	diff_vonmises	-0.0031772349588746387	-0.18204215366493848	2.1644617250174507	0.6525022478620183	2.828979898884869e-18	3.07670210478824	-0.13665588911333149	-0.4850188788419672	0.3483629897286357	93.40377651419118
1	1.0	perception	459	diff_vonmises	0.029368126639635197	1.6826697086568174	14.496275583160891	0.5171675804343351	9.657967867904338e-23	2.7762812110913515	0.3365154738644477	-0.4418588781581428	0.7783743520225905	35.589194409990114
2	1.0	wm	459	diff_vonmises	-0.06564196381522881	-3.761007485563078	3.137506840530656	0.5461345406735493	1.0932444052042525e-29	3.159369632838027	-0.1359233270576588	-0.5021384585879598	0.366215131530301	77.54051154865795
3	2.0	ltm	459	diff_vonmises	0.14072296477339938	8.062831962083942	9.509752880737025	0.4662069077865057	0.17326704917417202	1.7679395602760226	0.2335060031440344	-0.29972637288563675	0.5332323760296711	42.63859129659514
4	2.0	perception	459	diff_vonmises	0.04186238173522528	2.398537793793952	4.6689184752109005	1.4781235348046633	0.37500686415042656	2.987893770753016	0.5672847053878165	-0.46728927847638985	1.0345739838642063	58.04934035683863
5	2.0	wm	459	diff_vonmises	0.11193551974554537	6.4134328590230405	2.0789095975129164	1.0807165696447238	0.196615160002441	2.520939591772941	0.08695868017349662	-0.336470303131019	0.4234289833045156	83.845707977145
6	3.0	ltm	459	diff_vonmises	0.08731402068747579	5.002724877710322	1.2179435763189332	46.5092408485714	1.165657774834476	47.469949858793065	0.09160268267266147	-0.25455398408964935	0.3461566667623108	75.96520513174019
7	3.0	perception	459	diff_vonmises	-0.024636642589819673	-1.4115756417689214	4.134565554293828	1.8773154651971466	0.2072929114928227	2.866799486048769	0.9141075037194606	-0.42789280802812707	1.3420003117475876	64.19754258245626
8	3.0	wm	459	diff_vonmises	-0.02591865369578863	-1.4850294674298417	2.5406937382206443	1.1143682691567913	0.26199254404429556	2.454249133411035	0.16396247510602924	-0.33357475534600445	0.4975372304520337	75.93257999389272
9	4.0	ltm	459	diff_vonmises	-0.016826715602130803	-0.9640997870690288	2.971161494943457	0.7252010829240016	0.17221609885273187	2.4410522754750033	0.01424940287526616	-0.36150912052695966	0.3757585234022258	71.50215461630853
10	4.0	perception	459	diff_vonmises	0.014277918515327262	0.8180644711599465	0.9880259792935081	160.3658812340991	0.949098085490883	162.5897465304228	0.4454606602731559	-0.6533885098124284	1.0988491700855842	87.1317493343114
11	4.0	wm	459	diff_vonmises	-0.027380736951248784	-1.568800667264456	1.0262675158227357	268.3006893666825	1.0106792718476236	270.61645729423617	-0.006161757915421617	-0.5259930303923213	0.5198312724768996	78.75577724685294
12	5.0	ltm	459	diff_vonmises	0.0017962504436068135	0.10291756936717229	1.104117009040752	2.1303813382712615	0.18158518811018912	2.865851973467093	0.22726498656878846	-0.29267108358373434	0.5199360701525229	113.6343294072837
13	5.0	perception	459	diff_vonmises	-0.024882681333337476	-1.4256726233691932	2.137764052949174	1.8030243941379551	1.3015774450648134e-15	2.8788295532479493	0.5100082570036977	-0.44471599500913533	0.954724252012833	93.9715267005524
14	5.0	wm	459	diff_vonmises	0.18646041875360947	10.68339504082381	0.9005141764467623	1.8784245867654215	4.821330285993995e-14	2.9078194073523442	0.14359226143673615	-0.3626591557583218	0.506251417195058	132.4769536405052
15	6.0	ltm	459	diff_vonmises	0.48960445422515975	28.05226885790776	0.6636636885543018	170.43362789521558	0.6530396548538815	171.12798773087673	0.1529613048852383	-0.22947490291418404	0.38243620779942233	106.8656498010487
16	6.0	perception	459	diff_vonmises	-0.0903503777801481	-5.176695324215057	0.7274230331895567	207.38431181752276	0.7125949073190813	208.39037820269883	0.29787551302213444	-0.35682274696334204	0.6546982599854765	103.1717606577145
17	6.0	wm	459	diff_vonmises	0.07924273156542261	4.540274075786822	0.332656177524288	173.78997595590133	0.3219530013035495	174.71987351981477	0.13628036463126847	-0.3458947907960308	0.4821751554272993	140.74368932145543
18	7.0	ltm	459	diff_vonmises	-0.010542643507989271	-0.6040489779187821	1.4418593760833205	1.0927316727505119	1.2147671680235188e-16	2.5787408973716257	0.051703965371310445	-0.3845726874316432	0.43627665280295364	112.30608876786992
19	7.0	perception	459	diff_vonmises	-0.0104387108664313	-0.5980940762038643	0.9335949973847937	313.51300459001783	0.9178611800547644	314.5133038110109	0.611922827356608	-0.4532824672215021	1.06520529457811	93.15586623540315
20	7.0	wm	459	diff_vonmises	-0.030357166676377702	-1.7393375285316268	0.945546950779675	203.2743717893697	0.9294874092665263	204.8905572545659	0.08979171223235483	-0.39243738435787634	0.48222909659023117	84.88014287775468
0	1.0	ltm	460	diff_vonmises	0.020140609579219964	1.1539719257100607	2.765364712614345	0.521963105620413	9.018584648758651e-18	2.921569692746331	-0.13873385472782634	-0.4636892782157579	0.32495542348793155	82.68709432999191
1	1.0	perception	460	diff_vonmises	0.0426299326348596	2.4425152209044683	15.664287798009992	0.5335658567511767	6.726284321972683e-17	2.6739954548461573	0.4095734296907227	-0.42557959444400617	0.8351530241347289	34.23384235938792
2	1.0	wm	460	diff_vonmises	0.023705572189005212	1.358229237372699	4.354208790760552	0.48230511205595694	2.6827589933625645e-22	3.0158436853170367	-0.09170767426766474	-0.47992227963977174	0.388214605372107	65.54714861211545
3	2.0	ltm	460	diff_vonmises	0.15703967994676504	8.997710877034866	7.372422489585692	0.5111342971133566	0.24271029188988585	1.7217846814463804	0.19940074220471443	-0.29178849544560265	0.4911892376503171	47.52219634865335
4	2.0	perception	460	diff_vonmises	0.041398567187965696	2.371963177759207	5.137453973781084	1.4566142083070523	0.3914176950557509	2.8316543277045274	0.6395606427682027	-0.45286547926414167	1.0924261220323443	55.709150230403736
5	2.0	wm	460	diff_vonmises	0.09630653315097504	5.5179578890876195	2.144664807417918	1.209609860057643	0.2976973786892246	2.5172895309456993	0.12298535977521985	-0.3196524396082196	0.44263779938343945	80.02661765916469
6	3.0	ltm	460	diff_vonmises	0.10774574397837644	6.173376390458074	3.473189537243631	0.7351140029639547	0.45687624673557137	1.5936255822958325	0.14245667695300157	-0.23154810676690873	0.3740047837199103	63.55059317274106
7	3.0	perception	460	diff_vonmises	-0.038373307352039705	-2.198628557230208	5.304790806197782	1.3118263843461608	1.5755550940480144e-13	1.9972395768233424	0.855986226999523	-0.31784158041934074	1.1738278074188637	59.240190066168
8	3.0	wm	460	diff_vonmises	0.019963978530934394	1.1438517121123262	2.784621400601161	1.103332307837695	0.34252512824112497	2.12400920931625	0.22992497054800665	-0.28566189395775343	0.5155868645057601	72.29600542073916
9	4.0	ltm	460	diff_vonmises	-0.07513861469552155	-4.30512550051305	1.8854172055554521	1.4699092283383726	0.447743283598177	3.2017629566355326	-0.027196649172190668	-0.3740191540913853	0.34682250491919464	76.32574830012288
10	4.0	perception	460	diff_vonmises	0.044238134072695154	2.534658375899316	2.330712393746861	2.0280965263396706	0.08887478176803491	4.2811502305302875	0.4034770032002952	-0.6173427650054566	1.0208197682057518	85.3099860318766
11	4.0	wm	460	diff_vonmises	0.03837632397909884	2.198801397229061	1.1595944063291004	254.71225097013834	1.1426383673625802	256.85807711269666	0.012608239500551122	-0.5083232661879293	0.5209315056884805	74.2957246569448
12	5.0	ltm	460	diff_vonmises	-0.05312995532120742	-3.0441222056238155	1.5374173973463887	1.1798871405020317	8.614555221007417e-16	1.9424105878150186	0.20961996287104945	-0.2851787397651626	0.49479870263621206	109.29988078949489
13	5.0	perception	460	diff_vonmises	-0.042163980588019644	-2.4158181351650567	2.1333628920544188	1.7676714730751655	6.250076652683783e-16	2.8402757541928856	0.49598923326368805	-0.43874376610714433	0.9347329993708324	94.0638374694062
14	5.0	wm	460	diff_vonmises	0.16627395525830913	9.526795879248194	0.8142746359025658	3.3326685072133184	0.24565553476043714	4.158584099910723	0.18747242667284147	-0.30963592270422186	0.49710834937706333	121.10891199066754
15	6.0	ltm	460	diff_vonmises	0.35865575453402465	20.549461032879652	0.7810727147989069	163.01767804656728	0.7702162263718116	163.6431280313023	0.15159162742849475	-0.20143137639298736	0.3530230038214821	98.54216549569605
16	6.0	perception	460	diff_vonmises	-0.20771292536329358	-11.901073973632593	0.5862187199483962	103.8397960912735	0.5598956045182685	104.76167127566738	0.2780580224817726	-0.36624128686861646	0.644299309350389	115.8760047210383
17	6.0	wm	460	diff_vonmises	0.18603849012824927	10.659220311334913	0.4190032664721835	190.1138295434195	0.4087056094015508	190.83926388881835	0.1935009853340688	-0.31106045802355453	0.5045614433576233	131.76374398817507
18	7.0	ltm	460	diff_vonmises	-0.028423931461193756	-1.6285713098955212	1.7623252648026846	0.8570209891049702	1.0861369776458841e-16	2.4524591279710677	0.01910800963995951	-0.3782574606278153	0.3973654702677748	102.90755484417342
19	7.0	perception	460	diff_vonmises	-0.0038434776860271167	-0.22021505006206152	0.9710556425053608	318.49254491512573	0.9551661816721763	319.6095133765258	0.58795987593939	-0.4642430202519314	1.0522028961913215	90.81516940082173
20	7.0	wm	460	diff_vonmises	0.0042654127769324295	0.24439014999940467	0.9336031351669211	208.82175499701344	0.9186335297721672	210.40536442910428	0.07784531685241802	-0.380783364758674	0.45862868161109205	85.18212139748226
0	1.0	ltm	461	diff_vonmises	0.031457539834538854	1.8023842663837424	7.783127338374868	0.36076463293419314	0.06691564460904426	2.9106290022602663	-0.10011482795708132	-0.47159489613280486	0.37148006817572354	47.147594902649786
1	1.0	perception	461	diff_vonmises	0.035349340130331496	2.025367998040426	17.022763615867255	0.5878154620975142	2.3142623717363706e-15	2.6547093424353694	0.5377221759664894	-0.4225101143208216	0.960232290287311	32.819417001471464
2	1.0	wm	461	diff_vonmises	0.11086460706065096	6.352074081951567	4.466773332604914	0.5040758991462457	0.05316421377972007	3.4577854662894882	-0.16852843838233655	-0.5455260181580839	0.3769975797757473	61.73035153513513
3	2.0	ltm	461	diff_vonmises	0.17496207746676365	10.02458861368652	6.500875344559025	0.6348502731303672	0.5667213074880344	1.5551382707072228	0.22911482798310562	-0.27928452149239774	0.5083993494755034	48.215451318688025
4	2.0	perception	461	diff_vonmises	0.01256634737546421	0.7199986685093981	6.965208389813774	1.275066388018976	0.35806561988896496	2.3325967539499532	0.8019992431310972	-0.3948764166992242	1.1968756598303214	49.089778883159624
5	2.0	wm	461	diff_vonmises	0.055928554049191115	3.2044701012879617	1.070393304961009	82.04499793545867	1.0319982755672097	83.47158844304542	0.09689427407273854	-0.35663989451466627	0.4535341685874048	80.34021212901777
6	3.0	ltm	461	diff_vonmises	0.16092558861797596	9.22035704346854	2.6527802891457917	1.7021919952251818	1.3477088906319683	2.1095446961113327	0.18191223114980126	-0.17165820603174772	0.353570437181549	61.81973925558111
7	3.0	perception	461	diff_vonmises	-0.07678759765125087	-4.399605264365348	5.757791951472807	1.0394522723939719	6.888735401196674e-14	1.3144890032238778	0.7620097557391549	-0.20919773340286302	0.9712074891420179	56.81455278998831
8	3.0	wm	461	diff_vonmises	0.04249638515749083	2.4348635140866186	2.9678583267862395	1.414826085085995	0.8428597760840619	2.171390050855879	0.2438122249339575	-0.26045598248219964	0.5042682074161571	63.8767506809406
9	4.0	ltm	461	diff_vonmises	-0.12255186961093974	-7.021704900144417	1.1090581863866067	135.19931153357604	1.0882312854855276	136.6773158602615	-0.002346360472600395	-0.34240612935395376	0.34005976888135336	75.76407049937959
10	4.0	perception	461	diff_vonmises	-0.01166565261670155	-0.6683926602027438	2.30096041807171	2.100961932325735	3.2129512911314496e-13	3.908734162555921	0.5568161165043822	-0.6102659775438044	1.1670820940481867	90.6520213300343
11	4.0	wm	461	diff_vonmises	0.01685226465413401	0.9655636399193728	1.2989160251611471	253.88735625898624	1.2815613820495066	255.94955200806925	-0.01047095884020166	-0.5029710325042274	0.4925000736640257	69.5707941878409
12	5.0	ltm	461	diff_vonmises	-0.07143736843236231	-4.093059710695458	2.572285828573915	0.723711181804013	2.0298438147535534e-14	1.3212718041563778	0.2234255653145618	-0.20775795639467687	0.4311835217092387	85.7567683145225
13	5.0	perception	461	diff_vonmises	-0.04815329376097271	-2.758980502157375	1.7349729947778538	2.5722720825395915	0.2363232928218289	3.4464397683180232	0.5321020319152727	-0.3947319459569385	0.9268339778722112	93.54048164430336
14	5.0	wm	461	diff_vonmises	0.07174888257048448	4.110908156068514	1.423520052348742	1.2245827909864608	1.4161067389111817e-17	1.9549450365560468	0.20277849084801436	-0.2813236693591524	0.48410216020716673	112.86853436604255
15	6.0	ltm	461	diff_vonmises	0.28770385704803925	16.48421675848781	0.925080459864644	111.72356160100081	0.9128226206675929	112.1359731259914	0.1264528539044676	-0.13825830539202677	0.26471115929649436	91.12123028355035
16	6.0	perception	461	diff_vonmises	-0.28188032266817614	-16.15055281667232	0.5222029682957535	138.4173481315958	0.5032516230705308	139.08312370604003	0.32654841141832947	-0.3527421910197308	0.6792906024380603	122.9444409919994
17	6.0	wm	461	diff_vonmises	0.29928355865899503	17.14768478881642	0.2505190072729327	63.196907522039254	0.22190378327794125	63.70370014350789	0.2178292752361184	-0.314228627787541	0.5320579030236594	151.09962544421188
18	7.0	ltm	461	diff_vonmises	-0.011322366067448708	-0.6487237897669462	0.8803642489264283	46.50617054275466	0.8360448279262267	47.794102432448625	-0.006756722946473559	-0.2844136397637307	0.2776569168172571	85.97519547396729
19	7.0	perception	461	diff_vonmises	-0.015473999673021769	-0.8865948734509632	0.9304285843872212	160.0597216715063	0.906219023674653	161.0360429061822	0.42107622142808054	-0.3744071867734373	0.7954834082015179	92.37574734529773
20	7.0	wm	461	diff_vonmises	0.007644327483113526	0.43798770199826814	0.7247311965096056	100.86414978623374	0.7056495796203606	102.31665854667577	-0.04783743954594755	-0.30476845595290314	0.2569310164069556	92.5443033758126
0	1.0	ltm	462	diff_vonmises	-0.27115683506105925	-15.53614223512368	6.2711374875034345	0.24007875051752012	2.0200959832529086e-42	2.7525718002229964	-0.20347913395439626	-0.4380845697705625	0.23460543581616622	54.397804983421565
1	1.0	perception	462	diff_vonmises	0.009874902469542594	0.5657902346081046	11.516877525434385	0.6885921451487266	2.472138594508696e-16	3.0728305052931972	0.4323602706819226	-0.489056164109502	0.9214164347914247	39.97381492884193
2	1.0	wm	462	diff_vonmises	0.03987778678559575	2.284828879137202	12.995415601354834	0.2664586882801592	3.369544874861886e-25	3.0898301829845334	-0.11243588440364755	-0.4917617469345675	0.37932586253091993	37.60343648705867
3	2.0	ltm	462	diff_vonmises	0.06131562610365477	3.5131265939415988	6.260733463839918	0.5039529241392531	0.217706785500708	1.9233249893249957	0.11594059567058568	-0.3185364000108283	0.43447699568141396	51.089846404730764
4	2.0	perception	462	diff_vonmises	-0.007446333271209145	-0.4266434692881282	7.725543629110787	1.1572312915652345	0.12530965270730493	2.6175410127376924	0.7904251034202993	-0.4253549137797244	1.2157800172000237	47.936207937472574
5	2.0	wm	462	diff_vonmises	0.05535126849025691	3.1713940751871807	2.1773979256239158	0.749834430171435	2.9463176498388544e-19	2.28822801786711	0.04294408767227481	-0.35895312811085955	0.40189721578313437	93.12886114134793
6	3.0	ltm	462	diff_vonmises	0.08513356965984821	4.8777942363922975	5.315013590024815	0.3857078361562323	1.5248600990252245e-26	0.9192496226827486	0.19919787652009216	-0.14629476732397065	0.3454926438440628	59.18148192923218
7	3.0	perception	462	diff_vonmises	-0.0072215164269290155	-0.41376241294742694	3.9918448788450385	1.9553188819232976	0.36274538818955926	2.5274863287660003	0.9419375772045336	-0.36268895405444856	1.3046265312589822	63.969683697523124
8	3.0	wm	462	diff_vonmises	-0.16849113473269747	-9.653830905553681	1.4544219954843078	155.95764437913022	1.4362845899488306	156.58191809099074	0.2369579965697426	-0.22969547999017692	0.4666534765599195	72.47332328930486
9	4.0	ltm	462	diff_vonmises	0.01185184612428196	0.6790607623598385	2.856706846546812	1.015567733440341	0.3590567702310825	2.4509477216883355	0.10574392472695227	-0.3421671815100157	0.44791110623696795	69.35819021340953
10	4.0	perception	462	diff_vonmises	-0.08769906781873983	-5.024786453245371	2.519948219629015	2.807372841287899	0.2750508862043186	4.628910318293197	0.7104279052822596	-0.6037322406542304	1.31416014593649	77.94886873614607
11	4.0	wm	462	diff_vonmises	-0.20952928550601838	-12.005143743886505	1.1439063836603995	287.2350699643454	1.1287556412520081	289.0331731813058	0.15312136516058672	-0.4657307493175864	0.6188521144781731	77.61902015760703
12	5.0	ltm	462	diff_vonmises	-0.0160177850231606	-0.917751478974962	2.1375868781404312	0.9757781108170508	5.013020568897992e-19	1.5738178017673248	0.27349622524607264	-0.24319252202281944	0.5166887472688921	93.96971745607053
13	5.0	perception	462	diff_vonmises	0.005195428952468338	0.29767615173651013	2.194735618154134	1.9355712936439888	3.414607480353108e-13	2.55766464207737	0.6488464169391226	-0.39396319771833316	1.0428096146574557	92.7753680516492
14	5.0	wm	462	diff_vonmises	-0.038166617791556424	-2.186786117745102	0.5369374629475456	160.30990152318995	0.524421051467323	161.04778618346637	0.19126581786292718	-0.2851931078858403	0.47645892574876747	119.61210830927037
15	6.0	ltm	462	diff_vonmises	0.4086974913098266	23.416641349637704	0.8472903577394358	116.00520316359744	0.8356077703481533	116.36518533749442	0.14689033022185072	-0.1380256773587618	0.28491600758061253	96.40729107354116
16	6.0	perception	462	diff_vonmises	-0.12076700845246031	-6.919439888746715	0.7025104742497935	190.9917030408061	0.6916595052423037	191.46901957725393	0.2598965740364534	-0.2286939990961656	0.488590573132619	107.10270011766269
17	6.0	wm	462	diff_vonmises	-0.0714898521708977	-4.096066807406604	0.4922925190113117	127.05378663456892	0.48128507056158293	127.47107920713695	0.15933755669875893	-0.19831957195495065	0.3576571286537096	125.17111821387957
18	7.0	ltm	462	diff_vonmises	0.12151086154640584	6.962059531607542	0.7841723809338481	72.05894796884668	0.7611458209901929	72.80245346260561	0.0966069669086167	-0.203969154985586	0.3005761218942027	96.43484860459381
19	7.0	perception	462	diff_vonmises	-0.14229156956587738	-8.152706396416926	0.9239349493092245	185.3509344290193	0.9050507554612981	185.59461333340883	0.5872674588656679	-0.28630411702869907	0.873571575894367	96.74688331594817
20	7.0	wm	462	diff_vonmises	-0.11300159870362181	-6.474514683948525	0.8254455507089461	33.18174440118688	0.7758750003634344	33.85779606693347	0.11191302420913374	-0.19417468826176965	0.3060877124709034	95.52067528899144
0	1.0	ltm	463	diff_vonmises	0.03588660541727796	2.0561510314613436	1.2604002790155118	0.6362331116899783	2.80414743691128e-32	2.171959177031477	-0.09739284993764583	-0.32571707265446576	0.22832422271681993	118.47200509061275
1	1.0	perception	463	diff_vonmises	-0.024432216481352482	-1.399862888531468	12.443620453528853	0.5553106475781087	6.381964103991577e-25	2.219158010179185	0.41990530535741843	-0.35318996680996634	0.7730952721673847	38.44008441523266
2	1.0	wm	463	diff_vonmises	-0.03851231243137588	-2.206592961607052	8.419417226617723	0.2772892307144981	3.418061902214984e-27	2.069636688231477	-0.01347796349212621	-0.3293928939688227	0.3159149304766965	46.829121204870034
3	2.0	ltm	463	diff_vonmises	0.09936137054228174	5.692987178708248	12.583742876306692	0.3537910699787135	0.3159555964251022	1.1763696044768017	0.24492910781146987	-0.21823119683388648	0.46316030464535635	36.86792940695187
4	2.0	perception	463	diff_vonmises	-0.009946086548972862	-0.569868781927983	7.984785064410931	1.0372269366885722	0.19776860239442615	2.0228824512103754	0.7609900823554028	-0.33557819237676284	1.0965682747321657	46.87752904016267
5	2.0	wm	463	diff_vonmises	0.0966604416592673	5.538235352946536	0.660353731598058	27.40765464873204	0.5966147092368833	28.459843905111583	0.052700070058434356	-0.2636438076862593	0.31634387774469364	104.60755729142312
6	3.0	ltm	463	diff_vonmises	0.06778624478918259	3.883865735460831	1.7694422075389737	95.44364585469685	1.7510991912739073	95.72750228341953	0.15393045687294205	-0.12655664695050461	0.28048710382344666	66.17063115052088
7	3.0	perception	463	diff_vonmises	-0.018805980765742497	-1.077503327481249	3.3774370853859486	2.621010782986271	0.6399316851369512	3.0898686131887287	0.9914896463729667	-0.38663982689493603	1.3781294732679026	66.05521344475716
8	3.0	wm	463	diff_vonmises	-0.2124310043272469	-12.171399985676576	1.4138520202555571	155.6071963647678	1.3983585192720551	156.2085145863249	0.1801271843341823	-0.20467726897924265	0.38480445331342494	72.79162229820287
9	4.0	ltm	463	diff_vonmises	0.043088568682275716	2.4687931307539737	1.443004006595164	107.24958831319994	1.418185233495875	108.15475199216462	0.0932006474714413	-0.2569809027533321	0.3501815502247734	69.14181488093266
10	4.0	perception	463	diff_vonmises	-0.07783626396567597	-4.459689418299445	2.6978740288489163	2.6811003101392497	0.34730209672759355	4.043909457411916	0.7678692228902548	-0.5187132173519725	1.2865824402422272	74.88694127613377
11	4.0	wm	463	diff_vonmises	-0.14593374697634579	-8.361387790274652	1.1639258328809627	283.48425909352227	1.1516439603042177	284.9932088831183	0.08843801790914085	-0.38057792720930195	0.4690159451184428	76.06540913467731
12	5.0	ltm	463	diff_vonmises	-0.0061926854543138884	-0.3548147403842406	1.9330550567629714	0.900439462752823	2.2397221358459733e-17	1.3520735974735583	0.2398428611176156	-0.2056602716457579	0.4455031327633735	98.59712952394025
13	5.0	perception	463	diff_vonmises	-0.018137858699060715	-1.0392227528608249	2.0700537697249475	1.837846953804783	8.180662682124784e-16	2.4063428391563986	0.5850415253444936	-0.36756931554598915	0.9526108408904828	95.43694580088751
14	5.0	wm	463	diff_vonmises	0.08834897910364764	5.062023626928513	0.3891092577701059	37.51555309797769	0.3513094696532752	38.274937553271855	0.0918389152642547	-0.26056639733147424	0.35240531259572894	135.31597041128055
15	6.0	ltm	463	diff_vonmises	0.5148600525458881	29.499308050763183	0.6683191558031696	116.73415702611292	0.6572642013162925	117.20462565241458	0.11541878344297629	-0.16090481790368116	0.27632360134665745	106.91999789359923
16	6.0	perception	463	diff_vonmises	-0.0983303467375291	-5.633913866118402	0.9024285452791249	252.68982051787546	0.8911827022217734	253.33083035489034	0.3354934130827445	-0.27074846366842564	0.6062418767511701	94.16665592960707
17	6.0	wm	463	diff_vonmises	-0.18402471649769955	-10.543839581409676	0.29050235670172264	135.38700097123836	0.2787340196149089	136.1808901248715	0.12002062985224882	-0.30708372593496414	0.42710435578721295	145.57943448625554
18	7.0	ltm	463	diff_vonmises	0.04167415604520623	2.387753256159923	1.065242070275753	7.729317488133578	0.8367286944491713	8.379954263303729	0.13298250926521593	-0.19220931591805834	0.3251918251832743	88.14041458720217
19	7.0	perception	463	diff_vonmises	-0.1031115998443835	-5.907859489924971	0.8482320340955213	219.73030994576303	0.8308195667531753	220.1760049562344	0.5923043679077438	-0.34410337107934197	0.9364077389870857	99.89625451512576
20	7.0	wm	463	diff_vonmises	-0.13504914061295145	-7.737745783990918	0.8239836883590268	102.88169041489553	0.8088681688627266	103.71203310945107	0.043395947499274	-0.20044605448796737	0.24384200198724137	91.15491928169139
0	1.0	ltm	464	diff_vonmises	-0.03427006676326455	-1.9635301891666164	6.720873900217464	0.4069769854828004	0.14097477724175703	3.879279211428986	-0.2948951297444536	-0.6448978150719415	0.35000268532748796	48.351480031709286
1	1.0	perception	464	diff_vonmises	0.019610319437315542	1.1235885386615438	14.259463344791381	0.6417583590104067	0.009439345338821159	3.7674601825934975	0.35272061423413403	-0.6017732717451489	0.954493885979283	35.79846314637953
2	1.0	wm	464	diff_vonmises	0.06787007427667938	3.8886688112931416	6.305786926611103	0.3874037440589788	0.057371304892399944	4.607276141789084	-0.39618907060643455	-0.7412461415841088	0.3450570709776743	51.54850554467265
3	2.0	ltm	464	diff_vonmises	0.051234488709047246	2.9355199685390767	5.043264255006338	0.7357633311898828	0.3438780373434357	2.178032862849695	0.1661709790245504	-0.3555663051022556	0.521737284126806	55.083759411786446
4	2.0	perception	464	diff_vonmises	-0.007609259801516911	-0.4359784718454735	6.609329952661987	1.3101476177699116	0.2741438755936146	3.102204489059806	0.678583895521836	-0.5159304471818895	1.1945143427037255	50.36502825926087
5	2.0	wm	464	diff_vonmises	0.07268265382475887	4.164409307969074	4.090491224540592	0.6477215703936118	0.039086104392497746	2.6746581488901153	0.061623679331145154	-0.41849971239009676	0.4801233917212419	65.86316852400029
6	3.0	ltm	464	diff_vonmises	-0.026475185351604962	-1.5169163824735448	3.280107264064051	0.785229859397202	0.3746493298655558	1.371123191879626	0.23433121918954292	-0.19077193774508583	0.42510315693462875	67.8758056685449
7	3.0	perception	464	diff_vonmises	-0.04305020626301664	-2.466595126038517	4.550496639353213	1.7151159415196877	0.26869648882497044	2.5094229275364452	0.9006828613280259	-0.3794087034390621	1.2800915647670879	60.883202423070486
8	3.0	wm	464	diff_vonmises	-0.139350693409412	-7.9842066045808044	1.4340995198179638	196.9244457559941	1.4165590087018112	197.99486477813107	0.1655721203546534	-0.31920703873674583	0.48477915909139924	70.29055259823951
9	4.0	ltm	464	diff_vonmises	-0.17127760005767081	-9.813483608434202	1.0080552345432763	127.4928226635943	0.979798750187178	129.171429366741	0.11466142787282507	-0.41677900558783243	0.5314404334606575	82.75524562642579
10	4.0	perception	464	diff_vonmises	-0.09168648920506905	-5.253248869822239	2.739678818960372	2.5813501531627727	0.23784050950043467	4.464327616161739	0.7160537885841737	-0.6081394588546404	1.324193247438814	75.9077343293508
11	4.0	wm	464	diff_vonmises	-0.20376826270102	-11.67506145148148	0.9175533392268492	39.75545886900565	0.829921298016176	42.01563535578976	-0.03503605052978109	-0.492195107647194	0.4571590571174129	84.55224900548218
12	5.0	ltm	464	diff_vonmises	-0.05494073868028031	-3.147872449711214	2.867754072246961	0.9322680381438049	5.863076298808357e-16	1.7732859364746467	0.3128131992429051	-0.28030565665659435	0.5931188558994995	81.17614609287588
13	5.0	perception	464	diff_vonmises	-0.03919086236555839	-2.2454710090245893	1.675874304938278	3.109074787141198	0.28897278465774806	4.205637974002055	0.5653017490467039	-0.45267735992035507	1.017979108967059	92.77967310949981
14	5.0	wm	464	diff_vonmises	-0.1667798642010369	-9.555782326484422	0.4332811074132536	208.19876511746133	0.4215766680519399	209.45385672503534	0.15820207061565128	-0.41770105176619765	0.5759031223818489	128.61416548264935
15	6.0	ltm	464	diff_vonmises	0.23851623480043813	13.665973599416477	0.7018296673761376	93.07410359559329	0.6865428378326247	93.61144863224035	0.11958306162237164	-0.17456691566503313	0.2941499772874048	104.01773584843943
16	6.0	perception	464	diff_vonmises	-0.10857457382919283	-6.2208648428443105	0.655030273452953	211.02706700831493	0.6427136038962813	211.89453669041492	0.2565672976264608	-0.3216001627579672	0.578167460384428	108.82410260697779
17	6.0	wm	464	diff_vonmises	0.4257035998221749	24.391019593336765	0.00027292612916341705	4561.42174980743	2.9178605190820725e-29	4562.034793755325	0.1005768793434072	-0.2956877927667847	0.3962646721101919	174.4502085133651
18	7.0	ltm	464	diff_vonmises	-0.0235888294124243	-1.351540368985974	0.9075853641031317	154.63142148939713	0.8944643399258562	155.70600846407226	0.04073263201910038	-0.2538490862795939	0.2945817182986943	85.958532320588
19	7.0	perception	464	diff_vonmises	-0.11920226394388278	-6.8297866323889505	0.7040723326014368	179.89323553985986	0.6859201364214937	180.73946971622004	0.3837249586412028	-0.3686630954624004	0.7523880541036032	106.64102743868075
20	7.0	wm	464	diff_vonmises	-0.2094108246765035	-11.998356438317682	0.9570878650534107	101.711410885881	0.9372337800019643	102.69286166155021	0.059876384474740973	-0.2402824005060591	0.30015878498080006	84.6227505319736
0	1.0	ltm	465	diff_vonmises	-0.4077187881469714	-23.360565789009996	12.025405767880486	0.14337763986322716	1.3052338087327044e-39	2.4961013999217156	-0.20110388738328402	-0.39726687624909907	0.19616298886581504	39.10588258803335
1	1.0	perception	465	diff_vonmises	0.005170332687939009	0.29623824169743573	11.332223771481244	0.6016471868050469	2.201949579598235e-23	3.0452696770971213	0.31391160816895636	-0.48466972204320835	0.7985813302121647	40.29493351872378
2	1.0	wm	465	diff_vonmises	0.02157772254255769	1.2363124331928514	12.123252703850486	0.23827882038218892	1.3527659187017353e-21	2.9486250004562335	-0.14188773112884362	-0.46928824413729026	0.32740051300844664	38.943982166664966
3	2.0	ltm	465	diff_vonmises	-0.013810350340265688	-0.7912747880942843	11.59164035996324	0.3289308469003135	0.08055156573467584	1.6945264952422578	0.14987862834769922	-0.27909841136411884	0.42897703971181805	39.17774574804031
4	2.0	perception	465	diff_vonmises	-0.006297772546621621	-0.3608357872547754	9.184847593541079	1.0899147298580725	0.15839940837608185	2.678554624921496	0.8022675226220556	-0.4466456482831594	1.248913170905215	43.84957782928015
5	2.0	wm	465	diff_vonmises	0.0722100097642996	4.137328798092832	2.3499459353123875	0.6739761988861313	1.6893497718261025e-20	2.1999460202629844	0.03282879676870398	-0.34664872283676884	0.3794775196054728	89.70635000252165
6	3.0	ltm	465	diff_vonmises	-0.06417775411794215	-3.677114449586424	4.229095994554964	0.43400883235615323	0.07368825935673103	0.8607404250798274	0.19666639790354293	-0.13266268645958604	0.32932908436312897	64.93957274271429
7	3.0	perception	465	diff_vonmises	-0.0049507129083506156	-0.2836549552294274	3.703157072851985	2.4667200142593537	0.5992777231570581	3.0959914085658005	0.9961762570488045	-0.41568447507939693	1.4118607321282015	63.69454101486892
8	3.0	wm	465	diff_vonmises	-0.24335375439174708	-13.94314305531033	1.5076023291308212	144.09028531548142	1.4897362268947067	144.6712226356637	0.19987643522802756	-0.20962664369854522	0.4095030789265728	70.77595816412867
9	4.0	ltm	465	diff_vonmises	-0.04403475192091514	-2.523005436974032	1.2217751174035476	81.18003639754834	1.184044618822407	82.48039906473443	0.07632195739693515	-0.33145013743437524	0.4077720948313104	74.5573518505129
10	4.0	perception	465	diff_vonmises	-0.09974551238144108	-5.714996884826471	3.235651668049435	2.2734753081456387	0.27567598862672765	3.90572933602692	0.7505521518230673	-0.5496242319126321	1.3001763837356994	70.05881255050426
11	4.0	wm	465	diff_vonmises	-0.17498908325386067	-10.026135931309607	1.0362132825219421	224.34662425449656	1.0220063122542846	225.96161568367106	0.04276900797142957	-0.3815863314632466	0.4243553394346762	79.6905522219337
12	5.0	ltm	465	diff_vonmises	-0.04441430101303468	-2.544751998070504	2.5392736548458354	0.8741212236243521	2.8881357425872733e-16	1.7044763887992163	0.24858938110391282	-0.2680371084031051	0.5166264895070178	86.32204192035613
13	5.0	perception	465	diff_vonmises	-0.0366336578438857	-2.0989539825809738	1.7674686238903496	2.524559396834123	0.18792510946988653	3.3332845583165938	0.573680794816333	-0.4023287094510535	0.9760095042673865	94.75620155406111
14	5.0	wm	465	diff_vonmises	-0.1604603739638361	-9.193702207218688	0.45763014470347896	139.1423188200431	0.44417821013027564	140.12625182517388	0.11436325924591273	-0.31583144141356456	0.4301947006594773	125.74234699358028
15	6.0	ltm	465	diff_vonmises	0.30660120316615586	17.566954935053825	0.6492105425915741	124.56283430506313	0.6380802748694231	125.20857076287606	0.08723251424986955	-0.18771173512843298	0.27494424937830253	106.25562442843312
16	6.0	perception	465	diff_vonmises	-0.1112758720658128	-6.375637831008766	0.8361312608410948	255.4868423885829	0.826082280898164	256.20577770609015	0.2682092903312423	-0.2662498024562048	0.5344590927874471	96.69329273264277
17	6.0	wm	465	diff_vonmises	-0.1359708166607372	-7.79055393160734	0.45576916510622045	98.45177038696855	0.4403766616895416	99.20946468458135	0.10217810868200417	-0.2526879632570562	0.3548660719390604	126.47733486461459
18	7.0	ltm	465	diff_vonmises	0.04112321524039354	2.356186673282615	1.122354159244234	136.62937239721867	1.106839438184836	137.4561573826189	0.09700488366128468	-0.22161678812843455	0.31862167178971923	79.26366109885004
19	7.0	perception	465	diff_vonmises	-0.16020825451760956	-9.179256827016733	1.337440173979537	3.18605079769404	0.22956283673268277	3.6742877457352434	0.5618624531806027	-0.37000760518822484	0.9318700583688275	105.58231345766353
20	7.0	wm	465	diff_vonmises	-0.32565169183671716	-18.658467533538776	1.0751511239084217	108.72286234541964	1.0595566254990612	109.36822094619397	0.09083732664934274	-0.17684692794218293	0.26768425459152567	81.64494146778674
0	1.0	ltm	466	diff_vonmises	-0.228093633821013	-13.068802551746497	7.05519202651071	0.213403514562924	1.9695595412888227e-23	2.6220856728283097	-0.19548977607312967	-0.4173177308604463	0.22182795478731665	51.224940496635696
1	1.0	perception	466	diff_vonmises	-0.002937623385631571	-0.1683134217956209	12.231141026988244	0.6567055346356256	1.6958712042048119e-18	3.198123578777832	0.39747318935688913	-0.5089971761596787	0.9064703655165678	38.76916726762289
2	1.0	wm	466	diff_vonmises	0.023581212871876443	1.3511039733580914	12.353139803034564	0.2585215600054489	4.397701996595663e-21	3.035350838538971	-0.12449542478294334	-0.48309108996492317	0.35859566518197983	38.57894411791008
3	2.0	ltm	466	diff_vonmises	-0.009323520243067606	-0.5341983601325613	4.02946814820433	0.6779974511356905	0.25677886415877704	2.037342778493018	0.11095310908920925	-0.3149456332396146	0.42589874232882385	61.76353425834478
4	2.0	perception	466	diff_vonmises	-0.020577233693137815	-1.178988644671193	7.223709450854958	1.1664036255583503	0.17778311688585535	2.696475689849176	0.7187798160123846	-0.44190193350845336	1.160681749520838	49.096234736489066
5	2.0	wm	466	diff_vonmises	0.08739877414008664	5.007580892844085	2.428524734122864	0.7321762283352476	2.64268682764786e-26	2.146791775085643	0.08253605824331772	-0.33837498573197594	0.42091104397529366	88.25302596892254
6	3.0	ltm	466	diff_vonmises	-0.04280078027087539	-2.45230406938796	4.134472860475113	0.5354305936885899	0.049718904645052624	1.0566986438100285	0.2424561938830509	-0.16364517777292276	0.40610137165597365	66.11991332906533
7	3.0	perception	466	diff_vonmises	-0.003113504291206407	-0.17839065538199797	3.5371500503738367	2.5950364378998456	0.6106483990352183	3.262932149078225	0.9915259177966282	-0.4273664940455911	1.4188924118422195	64.74589116025444
8	3.0	wm	466	diff_vonmises	-0.22467649543353677	-12.87301494413197	1.4555379613823718	157.46219931765344	1.4380120257051112	158.04707721784615	0.2410819068770138	-0.22122400705288925	0.46230591392990306	72.6899293655934
9	4.0	ltm	466	diff_vonmises	-0.042537156860256255	-2.4371995605786396	1.9360067106154075	2.4425366831818653	0.7129397136690803	3.6661607034634742	0.1831817860075855	-0.3381607404136607	0.5213425264212461	74.50659281038523
10	4.0	perception	466	diff_vonmises	-0.09403729372171074	-5.387940047086099	3.3598238248231356	2.1386836806624254	0.18167912392637992	3.8005162135037573	0.773746082748552	-0.5524413622105464	1.3261874449590985	70.49970993138137
11	4.0	wm	466	diff_vonmises	-0.18652213863986042	-10.686931329818016	1.0491358172136838	238.82448674285914	1.0337473471667469	240.38036657237694	0.1509449824844893	-0.4029604540795404	0.5539054365640297	81.61439015625791
12	5.0	ltm	466	diff_vonmises	-0.026006111163253024	-1.4900404112024541	2.196554434504865	1.0604361700104423	1.0725734053860009e-16	1.741708871551188	0.30155523555240293	-0.2700456978479263	0.5716009334003292	92.74094618781751
13	5.0	perception	466	diff_vonmises	-0.014525314301588575	-0.8322392055820403	2.0178412281753553	2.170063018757647	0.07683487546811765	2.927677764951546	0.6230923106598505	-0.41096538102942665	1.0340576916892772	93.47806859626834
14	5.0	wm	466	diff_vonmises	-0.08729939718983777	-5.001887013013944	0.4373116563497734	149.0242137910308	0.42446018019975973	149.84752661532852	0.1620225395897208	-0.31104803585730245	0.47307057544702324	129.4103527039754
15	6.0	ltm	466	diff_vonmises	0.24229477991135978	13.882468286972077	0.7278933345930858	102.2620771256856	0.714350507497632	102.69048366802046	0.1411040671579613	-0.15847652549342683	0.29958059265138814	103.49494423684658
16	6.0	perception	466	diff_vonmises	-0.09869667253053893	-5.654902787984647	0.7650760771172967	203.82402949921843	0.7537561773452878	204.48061062985818	0.24694527154301937	-0.2517945345248549	0.49873980606787427	101.28505884032144
17	6.0	wm	466	diff_vonmises	-0.14649793764958707	-8.393713534692022	0.6941615568593363	88.14495796509944	0.6780414325186144	88.57188931646266	0.15093737454105494	-0.16635260493891924	0.31728997947997417	106.43486862342897
18	7.0	ltm	466	diff_vonmises	0.02280752052346793	1.3067746671527185	0.785691577020918	112.47343329725719	0.7699625515861255	113.19016155136966	0.12431004594783701	-0.2095020368846221	0.3338120828324591	97.13371673097615
19	7.0	perception	466	diff_vonmises	-0.15068796913572885	-8.633784654874875	0.8283892745034191	131.54991459978314	0.7995314889892275	132.04988476972756	0.5730737379297466	-0.35281345154431953	0.9258871894740661	101.12052263859572
20	7.0	wm	466	diff_vonmises	-0.12162718418782997	-6.968724328022959	1.0355564134649382	74.69145883759641	1.0121494180758406	75.18845832736045	0.15904509576941805	-0.16688605872495543	0.3259311544943735	86.29625038632807
0	1.0	ltm	467	diff_vonmises	-0.03946900556819431	-2.26140744063588	4.888483739557829	0.2710406716838989	0.022619668037915104	2.509628763580926	-0.1762996096207588	-0.3976221698639452	0.22132256024318642	60.13001342496227
1	1.0	perception	467	diff_vonmises	0.011408145442648945	0.6536385859351889	13.686557272084457	0.6087487493664168	0.0279370347992713	2.8996314711419258	0.41526702122514747	-0.46693965723607583	0.8822066784612232	36.45024668392472
2	1.0	wm	467	diff_vonmises	0.034689036019815864	1.9875353593127405	6.305534689086285	0.4220744743666299	0.10195217851507832	2.9176262056241202	-0.09913738955792889	-0.473162816839653	0.3740254272817241	51.43401664349901
3	2.0	ltm	467	diff_vonmises	0.027700120889680446	1.5871000189808566	3.1233370447177835	0.8800056065732194	0.402801085404586	2.0762274204101736	0.11478329626446715	-0.2957985700617903	0.4105818663262574	66.40536887460297
4	2.0	perception	467	diff_vonmises	-0.006721854276542516	-0.38513388054784947	6.667955666158492	1.2434283030386613	0.30204001580678436	2.6538086145528497	0.6963288822036534	-0.4430297667076183	1.1393586489112717	50.15211828448889
5	2.0	wm	467	diff_vonmises	0.09288995197664558	5.322202207434691	3.7364103570835914	0.5917494347631864	2.6357947425721773e-13	1.7804310266675905	0.15488732010577	-0.28311530078407965	0.43800262088984965	70.90066992701372
6	3.0	ltm	467	diff_vonmises	-0.013347136681883578	-0.7647346004561747	3.674868959522452	0.7460529311695674	0.3774740032424609	1.3273011205343863	0.250074378981974	-0.1917950542985212	0.4418694332804952	64.67605750464054
7	3.0	perception	467	diff_vonmises	-0.03474726638121775	-1.9908717132605902	5.347260288830604	1.451610615880574	0.206144181628583	1.9844090484024814	0.9204448309056217	-0.3085333089854013	1.228978139891023	57.12741452977815
8	3.0	wm	467	diff_vonmises	-0.12460969452223727	-7.139609582538649	1.44780374046451	176.45273389879512	1.4329917252495925	176.9900056351697	0.23642091472169113	-0.2076993617778271	0.44412027649951824	73.06352584139782
9	4.0	ltm	467	diff_vonmises	-0.12924695462708272	-7.405305015050686	1.2138166044599525	153.6726616280063	1.1924944676007911	154.93915299638215	0.12652728401859292	-0.3381521179737561	0.46467940199234903	75.70445200763035
10	4.0	perception	467	diff_vonmises	-0.04586577337904482	-2.627915238722753	4.103592426105271	1.51225648805071	5.783694726985489e-19	3.3284725438418086	0.6491812222518074	-0.5294213250370995	1.1786025472889068	67.57194315733884
11	4.0	wm	467	diff_vonmises	-0.047741696914885	-2.7353977400156535	1.0457886360320126	240.6561017432487	1.03269348387274	242.17693846324315	0.06489723315273466	-0.3675325206991218	0.43242975385185645	79.93248564580989
12	5.0	ltm	467	diff_vonmises	-0.05347577138530536	-3.063936006584453	2.2675583618356856	1.0344884074208855	8.755088479510331e-15	1.7814885265934153	0.2919379835492148	-0.2773603874478696	0.5692983709970845	91.30250456580904
13	5.0	perception	467	diff_vonmises	-0.06555642915486853	-3.7561067105223493	1.6397012396859678	2.828748088767735	0.2602813044903052	3.7641097556135716	0.5291887122744575	-0.41132361687450053	0.9405123291489581	94.79449039540478
14	5.0	wm	467	diff_vonmises	-0.04281549339083714	-2.453147069065238	0.45344288677370087	168.63309149879288	0.4420822190171425	169.3237163172946	0.19189889195693155	-0.2932622555983606	0.48516114755529216	128.45485137469745
15	6.0	ltm	467	diff_vonmises	0.05924895428299962	3.394715020979441	1.5069673471199418	1.090786657245162	0.22391505501157255	1.547607175619006	0.16949253378067886	-0.17193944877143114	0.34143198255211	98.69159635031039
16	6.0	perception	467	diff_vonmises	-0.19380632076463852	-11.104284222772437	0.7475650274140607	96.51160341180432	0.7222350707029382	97.27786137765295	0.2452247137831769	-0.2780480389789606	0.5232727527621375	102.39002821842998
17	6.0	wm	467	diff_vonmises	0.2301066456274203	13.184139632363642	0.33803201256322196	104.33939427220515	0.32578996257279813	104.65367045153634	0.16305788546238986	-0.20034498949260104	0.3634028749549909	141.42225520825974
18	7.0	ltm	467	diff_vonmises	-0.11130909953753637	-6.377541624902418	0.8967458674694414	140.16116572226375	0.8805911953861917	141.18357593438088	0.1052780164532976	-0.2652159549280668	0.3704939713813644	88.89367955596666
19	7.0	perception	467	diff_vonmises	-0.12274127493769663	-7.032557025984883	1.9403059141246286	2.138185239124137	0.07525224396572656	3.1353269714445267	0.5457720446760997	-0.4398238154967233	0.985595860172823	94.97749388234854
20	7.0	wm	467	diff_vonmises	-0.08106660894774195	-4.644774552143089	1.0729553962411542	124.01283762892015	1.0566129463067784	124.7067061244553	0.1364431931509742	-0.20306033534676793	0.3395035284977421	82.84627437182766
0	1.0	ltm	468	diff_vonmises	-0.045961998803755136	-2.6334285494405076	6.194149817281324	0.3850960371464329	0.06692622598950423	2.8852781232150337	-0.11652428450460034	-0.46310206652726277	0.34657778202266243	52.539347485496165
1	1.0	perception	468	diff_vonmises	0.007605551525436376	0.43576600327678955	14.795907705372597	0.659697390269098	4.494013600023803e-17	3.116627391852194	0.5070565408237637	-0.4960266551887369	1.0030831960125006	35.22770830027133
2	1.0	wm	468	diff_vonmises	0.06323317181936669	3.6229938704752844	6.8583987975155285	0.3624049331456805	6.056112827463512e-18	3.2522650910359525	-0.14647182767218597	-0.5176136557138886	0.37114182804170265	51.97278966950401
3	2.0	ltm	468	diff_vonmises	0.06333616016198754	3.6288946678465064	2.615051580990387	1.4611104020836103	0.6539891899512132	2.611442430502124	0.16383344193084437	-0.3177293118366705	0.4815627537675149	67.66790365889071
4	2.0	perception	468	diff_vonmises	-0.011534283469659021	-0.6608657625189734	5.812589180420255	1.2857148251863593	0.28418367802856653	2.595335703294241	0.6694669086420476	-0.42024312279498416	1.0897100314370318	53.62994784967117
5	2.0	wm	468	diff_vonmises	0.10034256798890932	5.749205651269021	3.5779564482990804	0.6472497845772088	2.1496370507949424e-14	1.958888284416681	0.15625823987923299	-0.31140155800002706	0.46765979787926004	72.49349900911685
6	3.0	ltm	468	diff_vonmises	0.04276512149626601	2.4502609721002346	4.081592621330845	0.7004841463059682	0.350681239415993	1.3011603916207621	0.25923649477163746	-0.19480342329807487	0.45403991806971233	62.09200732623461
7	3.0	perception	468	diff_vonmises	-0.02614395934692494	-1.4979385303403991	4.370532644966999	1.705382110435724	0.278871748598449	2.290810797725497	0.9029607747043009	-0.341031384114711	1.243992158819012	62.134574463554685
8	3.0	wm	468	diff_vonmises	-0.10448827998177987	-5.986737451537273	1.3315824895304038	159.97182716921785	1.3129460236346107	160.70907494134963	0.24505201454886105	-0.25478961135589273	0.4998416259047538	75.55633222513558
9	4.0	ltm	468	diff_vonmises	-0.0715054428216048	-4.0969600858919835	1.352710981499749	9.868965045730203	1.0068270961676569	11.132904071714103	0.19808435657488577	-0.3567584445466725	0.5548428011215583	77.90819200820283
10	4.0	perception	468	diff_vonmises	-0.05508149242530633	-3.1559370452518656	3.292511256755547	1.839631363251289	2.303517097239026e-16	3.596269647873191	0.697613213024635	-0.5706103414470113	1.2682235544716463	75.65007892420286
11	4.0	wm	468	diff_vonmises	-0.14155792111563947	-8.11067143657198	1.075740460995446	307.2214238695491	1.0622641904668835	308.94154276874036	0.16992778134206787	-0.4479999863607418	0.6179277677028097	80.54526518656482
12	5.0	ltm	468	diff_vonmises	-0.03915697848920062	-2.243529605915746	2.020413119997308	1.108866651002325	4.0832100959623396e-13	1.6926100674024078	0.30617086437802077	-0.2592668863707693	0.56543775074879	96.55099831844586
13	5.0	perception	468	diff_vonmises	-0.017225770446898422	-0.9869639454684616	1.9475826334691875	2.285636288508822	0.11303248152075468	3.1390847858437376	0.6027235416745725	-0.4212884863820533	1.0240120280566258	93.45651711047779
14	5.0	wm	468	diff_vonmises	0.04704858808486376	2.6956855293121857	0.4374559921998558	163.04771181210657	0.42534640179884226	163.77486549535828	0.1952521606212585	-0.30838255605404363	0.5036347166753021	130.1178821192209
15	6.0	ltm	468	diff_vonmises	0.23546233778235567	13.490998189212764	0.8377475988307655	93.29980531237504	0.8225034757013271	93.62419504237414	0.17160138986832152	-0.14140076985616634	0.31300215972448786	97.97537877257031
16	6.0	perception	468	diff_vonmises	-0.14620881610217798	-8.37714809025919	0.617018750341134	167.5698974160265	0.6028116014758019	168.2973319990194	0.2574383182161313	-0.3007920056005329	0.5582303238166642	113.0048324814083
17	6.0	wm	468	diff_vonmises	0.14337590764570862	8.214834391956575	0.4791418905125943	104.28882529421035	0.4662180205811156	104.58438542631256	0.1797206327775136	-0.18361618024749404	0.36333681302500764	127.50956727957231
18	7.0	ltm	468	diff_vonmises	-0.007563551352093276	-0.433359570605412	0.5074235756881895	86.72818916605839	0.48730261360883625	87.63507099674536	0.10439469041921257	-0.28088754038745467	0.38528223080666724	120.56316359823502
19	7.0	perception	468	diff_vonmises	-0.08324707948031422	-4.769706311012123	0.8959408742550408	233.42115906522386	0.8782904526998665	234.24820823822583	0.5216420033239757	-0.3862372455279406	0.9078792488519163	95.28517738367995
20	7.0	wm	468	diff_vonmises	0.04588143380423059	2.628812514991278	0.9442692356599859	119.6436285633195	0.9253089552010726	120.4159564160814	0.1782347382807643	-0.23616449308097387	0.4143992313617382	89.27535587981544
0	1.0	ltm	469	diff_vonmises	-0.08973002655296572	-5.141151817081746	4.021471855707105	0.41235483638942205	0.013362326346125681	3.8146217982311104	-0.2972895716131787	-0.6029797574297394	0.3056901858165607	66.76983666525024
1	1.0	perception	469	diff_vonmises	0.014359998240006614	0.8227672929676692	12.894325152422985	0.5981130128552435	8.736689584742255e-15	3.8171942957687306	0.24063378655335854	-0.6075253409084207	0.8481591274617792	37.74829900383372
2	1.0	wm	469	diff_vonmises	0.00017858255073805907	0.01023202645197167	7.075760297041867	0.3430485893783877	1.7509102199700407e-39	4.231058663850806	-0.3162596054868211	-0.6733936456497303	0.35713404016290917	51.149213758450685
3	2.0	ltm	469	diff_vonmises	0.013161148067546471	0.7540782378171721	4.915678535164705	0.7487937041993831	0.21224432540037771	2.6065740888250133	0.13620141589874413	-0.4166519514972617	0.5528533673960059	57.081143819075976
4	2.0	perception	469	diff_vonmises	0.004338188301333725	0.24855988039945026	4.933965329828909	1.4269594708341824	0.25478795795075776	3.5445184363996023	0.5124088993532478	-0.5612250844164636	1.0736339837697115	57.43669004140682
5	2.0	wm	469	diff_vonmises	0.09158253174279296	5.247292545984928	3.208395882605155	0.6906551275955896	1.3699589734728991e-14	2.7364003782168034	0.03437766584668783	-0.43474385325918546	0.4691215191058733	76.65908408319655
6	3.0	ltm	469	diff_vonmises	-0.07915236891262611	-4.535096677155978	3.0197200435769918	0.7342390758395151	0.05500563994118343	1.8388543844261482	0.1736684383638636	-0.27930155503944615	0.45296999340330973	76.4740440479874
7	3.0	perception	469	diff_vonmises	-0.012817934829062107	-0.734413567779001	3.11979992670905	3.2266673869117857	0.5397632900290855	4.68028210225742	0.9711193884408893	-0.6015944824445164	1.5727138708854058	67.8822262897865
8	3.0	wm	469	diff_vonmises	-0.20997016431957016	-12.030404239179758	1.1843029036330166	204.48040344992074	1.1654103557292936	206.03954114878422	0.13507732672519523	-0.40764386558675625	0.5427211923119515	76.30733436634674
9	4.0	ltm	469	diff_vonmises	-0.08378161152303741	-4.800332741074668	2.94327471373189	0.9245464208436447	0.021522420581618466	2.880712558468266	0.13056408500732664	-0.44761934969832123	0.5781834347056478	78.65026914425925
10	4.0	perception	469	diff_vonmises	-0.06871990955832029	-3.9373607862124778	1.1440743814398433	208.72644467831537	1.107233682220672	211.01732330017992	0.6060568897744218	-0.7250379702371639	1.3310948600115857	81.46639977166225
11	4.0	wm	469	diff_vonmises	-0.22609067790728324	-12.954041631339013	3.2531075472821627	0.8523873821151822	3.5320250379606873e-15	3.4367736193228113	0.037499031255634696	-0.5461062244700242	0.5836052557256589	76.1094424917747
12	5.0	ltm	469	diff_vonmises	0.023409000181501466	1.341236913021012	1.3930979071139584	2.250560563289547	0.2244018556136327	3.0873023882110147	0.32496559464883645	-0.3304669006038424	0.6554324952526789	102.04435939664569
13	5.0	perception	469	diff_vonmises	-0.003059516458233557	-0.17529738040759643	2.3228546211350722	1.8990850175472582	1.880731664636708e-16	3.0298103931753455	0.5894674338536755	-0.47191806898166533	1.061385502835341	90.2280444841958
14	5.0	wm	469	diff_vonmises	-0.05892562941109891	-3.3761898704079223	0.36905343822628645	235.08393202732532	0.35846159830039076	236.4225587719179	0.15767240515152992	-0.45844766757363686	0.6161200727251668	136.08814890902187
15	6.0	ltm	469	diff_vonmises	0.41247719691593665	23.633202528669745	0.5942243828239563	158.97804973307532	0.5836157666718335	159.56627962993565	0.16446179652289317	-0.22351843626877788	0.38798023279167104	113.94258900254036
16	6.0	perception	469	diff_vonmises	-0.00859973866343073	-0.4927287303300564	0.7801595962493962	210.12303259464576	0.766900350950815	211.029266746192	0.2625488750955398	-0.31075541946782437	0.5733042945633642	99.3638108133897
17	6.0	wm	469	diff_vonmises	0.12604811305612826	7.222024893703998	0.25909243850731306	104.67993652559122	0.24678091613863054	105.36423499271426	0.09005570302605292	-0.2602355996283485	0.35029130265440145	149.4002785428621
18	7.0	ltm	469	diff_vonmises	0.07212067291434356	4.1322101736353565	0.5217523337698448	117.96776332111905	0.5050324392148294	119.11029977115669	0.08641274239847974	-0.32290580722839124	0.409318549626871	117.51868552751084
19	7.0	perception	469	diff_vonmises	-0.12200069925153202	-6.990125164757647	0.8182577097682088	222.2897288876386	0.80034865635431	222.97469450695027	0.5521653754448437	-0.38351242252429785	0.9356777979691415	100.52368770169484
20	7.0	wm	469	diff_vonmises	-0.1503875931605738	-8.616574379231363	1.057477854569358	153.11402474312467	1.038218309426597	154.1720666399398	0.18612074287138114	-0.3019458259766523	0.48806656884803346	83.16919617940272
0	1.0	ltm	470	diff_vonmises	0.03268525912897445	1.8727274003816814	2.652832139994385	0.4136071927195096	1.4451717020420054e-14	2.5411858688206985	-0.15207379530466725	-0.4031896701318433	0.25111587482717607	84.43942789021875
1	1.0	perception	470	diff_vonmises	0.02278798842372216	1.3056555602722573	13.706685264133217	0.5143462115610324	0.0525765183470535	2.636747323163942	0.3103670625970553	-0.430090174660875	0.7404572372579303	36.268295634830565
2	1.0	wm	470	diff_vonmises	-0.007401146570735163	-0.42405446206084724	4.049445306641247	0.6036438501418764	0.18264551341703764	2.8598333633814708	-0.07464898868779601	-0.4500856215024992	0.3754366328147032	61.19702263808114
3	2.0	ltm	470	diff_vonmises	0.059297252745567776	3.3974823190415666	5.034399530297689	0.558607586459192	0.23596249742146158	1.7939160955456042	0.12959248619719127	-0.287901603225396	0.41749408942258726	56.392326484740465
4	2.0	perception	470	diff_vonmises	0.02513075360336916	1.4398861174562385	5.623077753594281	1.3433208208193543	0.3807433289386841	2.8645348356881493	0.5959094460385093	-0.4705086152706853	1.0664180613091947	53.39791189051303
5	2.0	wm	470	diff_vonmises	0.08483152657308514	4.86048844228967	2.46296213370031	0.9686943548692489	0.25482968877175455	2.168467011783045	0.12776783853090073	-0.2935388363301884	0.42130667486108914	76.91061936423873
6	3.0	ltm	470	diff_vonmises	-0.023071496328410105	-1.3218993666694738	2.789950997923106	1.0530388037312126	0.5733133693080467	1.8806049046891227	0.1716274957279474	-0.23919035947313447	0.4108178552010818	68.049669771861
7	3.0	perception	470	diff_vonmises	-0.04424248397169175	-2.534907606753129	5.6141850226613945	1.450505828322789	0.11622315060664674	2.237274153294001	0.938672189754101	-0.3505499664507115	1.2892221562048125	56.38340568809534
8	3.0	wm	470	diff_vonmises	-0.08294994382587335	-4.752681692069804	1.2605720740206836	240.35191043640052	1.2485255738844252	241.22182695713292	0.19272849528360325	-0.26719119622858045	0.4599196915121837	76.35016388163956
9	4.0	ltm	470	diff_vonmises	-0.16497552430179663	-9.452401265450893	1.068551803594772	131.20371479251014	1.0467739436406227	132.7002813203223	0.012892768980577785	-0.3476889456453307	0.3605817146259085	77.77616668200352
10	4.0	perception	470	diff_vonmises	-0.0013923776573566927	-0.07977736325485116	3.989809973336086	1.3716466834199226	1.1205867574823684e-14	3.4688966066207874	0.501036753918689	-0.5517314800327782	1.052768233951467	68.55035453773718
11	4.0	wm	470	diff_vonmises	0.10768313455902259	6.169789134971333	1.0158015222429144	196.3333628225065	0.9998584259085767	198.17705584703205	-0.038227480198770536	-0.4082682244417022	0.37004074424293165	78.16565472524502
12	5.0	ltm	470	diff_vonmises	-0.03164796559887071	-1.8132948589905105	1.7638639221820502	1.1996052150852157	2.3497003451258126e-13	2.0449472391704173	0.2479504117913695	-0.30862107635097447	0.556571488142344	102.86508599807368
13	5.0	perception	470	diff_vonmises	-0.08463106540259682	-4.849002863264437	2.003407532929657	1.8336403217416206	0.04599574950489303	2.9609927431337018	0.4537377765001521	-0.43260808595183914	0.8863458624519913	94.66686839439024
14	5.0	wm	470	diff_vonmises	0.03762873458769379	2.155967680292798	0.4113210872082964	142.98321116251373	0.39764158158199236	143.8475192933279	0.16230628151183168	-0.32791249620811236	0.49021877771994404	132.28905605963988
15	6.0	ltm	470	diff_vonmises	0.1663024867274846	9.528430612015256	0.6571022268862953	113.2289673734494	0.6414619287356572	113.91471069457437	0.1490562582592645	-0.22692619085032995	0.37598244910959444	107.58814004001775
16	6.0	perception	470	diff_vonmises	-0.16926024542882168	-9.697897702419967	0.8317790524589446	105.31093376297547	0.8034554055969813	106.31125517763049	0.26510859614159443	-0.32708669466367546	0.5921952908052699	96.23076706380468
17	6.0	wm	470	diff_vonmises	0.21739297426053827	12.455699920924982	0.3046290911957376	149.19737560041557	0.2938220466649161	149.8715687837906	0.1475189492861233	-0.29187894218921073	0.43939789147533403	144.065266672699
18	7.0	ltm	470	diff_vonmises	-0.1121166631269282	-6.423811610263005	0.8610382177856228	151.1649493514696	0.843389403430261	152.57809290362403	0.06822086942655403	-0.338600903577742	0.406821773004296	88.95879404973138
19	7.0	perception	470	diff_vonmises	-0.07289695174857305	-4.176687674562043	0.8573725714786319	73.1920304286427	0.7898995057999451	74.48291711565203	0.5533079542050707	-0.5095767955462218	1.0628847497512925	97.64730971007717
20	7.0	wm	470	diff_vonmises	-0.09604448146604323	-5.502943433526735	1.0895731549022838	199.7989641963496	1.075656436345812	200.99368061984944	0.09632199785461637	-0.3049164037572645	0.40123840161188085	79.50008816311896
0	1.0	ltm	471	diff_vonmises	0.2622609002810303	15.02644271740438	0.0009876000563996297	868.529164388955	3.538906447984774e-17	870.0712206892131	-0.10887554567392499	-0.3819088078596167	0.2730332621856917	177.7185637787934
1	1.0	perception	471	diff_vonmises	-0.005313666205266108	-0.3044506473030438	12.064291315854591	0.5597713559840319	1.7048083055670738e-23	2.2710662609649517	0.40572058620706875	-0.3614514214963245	0.7671720077033932	39.04107799060429
2	1.0	wm	471	diff_vonmises	-0.022546709997856944	-1.2918313247826203	6.147758101472354	0.3501229441974495	1.6023342443675843e-29	2.0480166911667324	0.012683875105555409	-0.3259504313762846	0.33863430648184	54.945758831564945
3	2.0	ltm	471	diff_vonmises	0.13242033674020018	7.587126416914624	9.749998894635787	0.37172553790053164	0.19814452460806664	1.270063594365678	0.21267323333834748	-0.21765990713286132	0.4303331404712088	42.10295089082348
4	2.0	perception	471	diff_vonmises	0.0006544086049249012	0.037494851139240934	6.889373445367918	1.0916101435479941	0.21866935910493027	2.1328765718236085	0.7033010228096914	-0.34944216721406157	1.052743190023753	50.12629597696494
5	2.0	wm	471	diff_vonmises	0.14632889170605753	8.384027915583973	1.7395982618913755	0.8092524724464861	3.1126771784960663e-18	1.7587042179659373	0.10365832663735502	-0.2680794089375572	0.37173773557491224	103.45895372261657
6	3.0	ltm	471	diff_vonmises	0.06778580620287372	3.883840606316381	1.5961101653175616	36.27985751246529	1.5385017670500607	36.765733514568815	0.14670060440992927	-0.17182250737739846	0.31852311178732773	68.70183249835753
7	3.0	perception	471	diff_vonmises	-0.003370207421788494	-0.19309866135214718	3.288975607048734	2.7037857393893825	0.6177392682026367	3.2696309053411245	0.9861486402122163	-0.40763549639941665	1.3937841366116328	66.82751973612528
8	3.0	wm	471	diff_vonmises	-0.14155935471194245	-8.110753575589666	1.20323977772509	149.57878383179104	1.1870541858504409	150.22175210967836	0.20530009440825836	-0.2161968130992502	0.42149690750750857	79.5703104355112
9	4.0	ltm	471	diff_vonmises	0.06531352936094059	3.742189577485681	2.5177611738066097	1.380242055596434	0.7519706219923912	2.3821017470319537	0.11536977787678904	-0.2755950226934246	0.39096480057021366	66.68934887175507
10	4.0	perception	471	diff_vonmises	-0.05278347021723993	-3.0242700715023267	2.694476080883754	2.4541835253919686	0.29767784293936644	4.003367524451687	0.6717049143237166	-0.527921013001552	1.1996259273252687	75.42506765609886
11	4.0	wm	471	diff_vonmises	-0.09037168238335772	-5.1779159880631696	1.1613489459570943	289.2140682032279	1.1485784674273818	290.6999110487807	0.13746307033852645	-0.38956596101326113	0.5270290313517876	77.15950957004748
12	5.0	ltm	471	diff_vonmises	-0.011536188401539351	-0.6609749070759763	1.380072986433193	1.1750665120327375	7.131853660788226e-13	1.7189563978586577	0.21043772782773185	-0.2429490353777609	0.45338676320549276	114.33530396912941
13	5.0	perception	471	diff_vonmises	-0.01509818267610425	-0.8650621456583084	2.032178450130221	1.8696544971989	9.250497640900433e-14	2.5685402159884694	0.5650699785201666	-0.3920704817249323	0.9571404602450989	96.28421551518238
14	5.0	wm	471	diff_vonmises	0.21782144560455546	12.480249520579465	1.0243400366294324	1.2422952593149625	5.581902237270666e-15	1.9799686183417593	0.11508199385152301	-0.2596624099403521	0.3747444037918751	127.17380232730795
15	6.0	ltm	471	diff_vonmises	0.4677096442338558	26.797788652165178	0.7426979899690322	124.23478737932182	0.7305938103708447	124.79316883744579	0.12483154499721394	-0.1779997664723112	0.30283131146952513	100.88818500626795
16	6.0	perception	471	diff_vonmises	-0.0955839738183357	-5.476558288879596	0.8534170834985035	240.31376935125806	0.8412838855055322	241.09225475983706	0.3138589908486722	-0.29628447456475016	0.6101434654134223	96.02209073668169
17	6.0	wm	471	diff_vonmises	-0.15517607880515177	-8.890934396924663	0.4261101413196493	164.04720942783243	0.4153495388467032	164.86875534670267	0.1354633819030866	-0.2956103226456861	0.4310737045487727	130.02654434659553
18	7.0	ltm	471	diff_vonmises	0.04821374265960757	2.7624439689253664	1.810763400297449	0.8360337069528475	7.995822669131309e-11	1.6601024260820112	0.14184185870126648	-0.25335451128350894	0.3951963699847754	101.63107711891462
19	7.0	perception	471	diff_vonmises	-0.0727924861671622	-4.17070223764282	0.9257133363730072	286.00853543961307	0.9098610910075355	286.57803698493603	0.6778510049653335	-0.3896441428012807	1.0674951477666141	95.34300955861505
20	7.0	wm	471	diff_vonmises	-0.022113937223046203	-1.2670352712977992	0.9380802257324138	129.207709232153	0.9210768197437065	130.1070575589596	0.1239050121890628	-0.24433298573051232	0.3682379979195751	87.72467249789744
0	1.0	ltm	472	diff_vonmises	-0.06463723313858287	-3.703440658243942	3.1717515698285417	0.4151421003627614	3.9488547510055257e-19	3.765779305440338	-0.31872763549429733	-0.598848991222086	0.2801213557277887	77.11269621896324
1	1.0	perception	472	diff_vonmises	0.08629850040169934	4.944539851325412	10.155023658861293	0.7398000420809054	0.10669719925047882	3.9626250620630468	0.22868041062604383	-0.6576642542830432	0.886344664909087	41.50843942112519
2	1.0	wm	472	diff_vonmises	0.09490116022179505	5.437435951603668	5.659217315153686	0.4623962233659539	1.9288089508401785e-30	4.074693317543043	-0.22039448424851393	-0.648502381097757	0.4281078968492431	57.31950931665361
3	2.0	ltm	472	diff_vonmises	0.058808449837934415	3.369475975420452	4.0108798171239775	0.7382960737797422	0.1940758475400465	2.3921705317566504	0.11049057637793291	-0.3695094512991491	0.480000027677082	62.864751197032206
4	2.0	perception	472	diff_vonmises	0.039547884231770976	2.265926855152455	5.173519273343607	1.541208472592255	0.34057211464554493	3.5831018851067227	0.5819509788652795	-0.577521305622649	1.1594722844879284	55.461234536825344
5	2.0	wm	472	diff_vonmises	0.10986915971169578	6.295039150128948	3.4411681981723934	0.7475455122631783	0.009822847305589334	2.4354583427631478	0.13752261841785063	-0.38349217777138894	0.5210147961892395	73.3463096680722
6	3.0	ltm	472	diff_vonmises	0.03296838516399293	1.8889493272585134	4.429105207590837	0.6912426844341383	0.20905792539426807	1.8172035306692609	0.20907323091803287	-0.2822087741385401	0.491282005056573	60.708342823457514
7	3.0	perception	472	diff_vonmises	-0.002527475377637796	-0.14481367196187964	4.425010588108923	1.7783507926415065	0.2232352353754777	2.8303564956632976	0.888101374520868	-0.4283463138618572	1.3164476883827252	61.937079078617586
8	3.0	wm	472	diff_vonmises	-0.005329353079598532	-0.3053494389960438	1.0439431788209472	172.0944842560403	1.0254190121895745	173.251433825677	0.20021663271999302	-0.32884313892491335	0.5290597716449064	83.66798770058702
9	4.0	ltm	472	diff_vonmises	-0.08787570833994328	-5.03490720960132	1.5446917495224572	2.856141580530771	0.49587459794472666	5.004848483404654	0.028340818708431303	-0.48321832192965886	0.5115591406380902	81.90742488397498
10	4.0	perception	472	diff_vonmises	-0.016519996788928733	-0.9465260935752887	2.6339447078048908	2.1126742872051687	0.20779390262320294	4.545648356931041	0.402717448085257	-0.6321538076334872	1.0348712557187443	76.65302216888696
11	4.0	wm	472	diff_vonmises	0.024866670456586602	1.424755267705064	0.8963681670705066	223.4960284893241	0.8792869741081278	225.73974687850983	0.012214336309909868	-0.5048786442292439	0.5170929805391538	85.0590231053861
12	5.0	ltm	472	diff_vonmises	-0.09447586553226672	-5.413068360844368	1.6450284608138281	1.2923322159479322	2.826583535428818e-13	2.6364942937687306	0.17242402222134623	-0.39755488169356973	0.5699789039149159	106.11775626078885
13	5.0	perception	472	diff_vonmises	-0.04975963643444732	-2.8510171577992316	1.3716707300983517	4.40125870312852	0.38148863669795025	6.018078879719958	0.4533190735357422	-0.5336902151421371	0.9870092886778793	95.30911549680454
14	5.0	wm	472	diff_vonmises	0.09069545333218011	5.196466696959639	0.43730252735049274	205.2143829508419	0.4260728647051487	206.51419481168114	0.12269512723000275	-0.4046231703372527	0.5273182975672555	127.52377705403268
15	6.0	ltm	472	diff_vonmises	0.22284375123676078	12.768006436729612	0.7017894341571709	165.86020357505217	0.6891388554212018	166.95919878748444	0.08938766873225745	-0.28468125893530427	0.3740689276675617	100.3649935962369
16	6.0	perception	472	diff_vonmises	-0.1474982879215637	-8.451029383311047	0.5659603655514487	185.99941937643146	0.5499945091519088	187.43617498038768	0.19149113383398486	-0.4404540955326972	0.6319452293666821	114.45506405229126
17	6.0	wm	472	diff_vonmises	0.2484697476640877	14.23626787783277	0.4518653506275962	209.94256569115126	0.4424626495312239	211.02497065490087	0.11013680441821805	-0.33838665198745943	0.4485234564056775	125.64311064707954
18	7.0	ltm	472	diff_vonmises	0.00022028909455030701	0.012621635390490936	1.2864960376939922	1.5744654552996835	0.1612669383424233	3.481656244224771	-0.02495495637319045	-0.4225237001221873	0.39756874374899687	102.16185082155127
19	7.0	perception	472	diff_vonmises	-0.027878761863848908	-1.597335392848815	0.8464375383562175	181.12775943492434	0.8176372506066123	182.57356991895335	0.5518702185096629	-0.5404598747689402	1.092330093278603	96.72286533106924
20	7.0	wm	472	diff_vonmises	-0.09152951879442028	-5.244255127783629	1.0466310185803946	247.3252874103562	1.0314587759516212	248.80598087267066	0.1925067390152293	-0.3994764752838016	0.5919832142990309	82.55901095785347
0	1.0	ltm	473	diff_vonmises	-0.01822681465841088	-1.0443195538941266	8.400196058222264	0.46974515739334305	0.12496655049200131	4.3321758592718576	-0.24364860493994078	-0.7235219801510395	0.47987337521109874	44.3144243441827
1	1.0	perception	473	diff_vonmises	0.034943477280136866	2.0021137696631235	14.371352912620061	0.6425443141099678	1.981356061005924e-23	4.218449313428685	0.2916486175439784	-0.6713870604144705	0.9630356779584489	35.73731794924265
2	1.0	wm	473	diff_vonmises	0.06395286564071624	3.664229288980256	3.067742261427275	0.4557373112358157	1.5126627279342496e-38	5.309283693343398	-0.5427094834444204	-0.8443443167823488	0.3016348333379284	78.43779520211444
3	2.0	ltm	473	diff_vonmises	0.10866067387411227	6.2257980120340815	7.371381365577262	0.6494976583601342	0.3059313561001229	2.0229148218147515	0.26355804048828574	-0.34936102998654595	0.6129190704748317	47.13940948294075
4	2.0	perception	473	diff_vonmises	-0.002372836431331568	-0.1359535129901826	6.011424135507125	1.330345435451636	0.2766248603590494	3.128608973292352	0.6274795163263971	-0.5126693458794243	1.1401488622058213	52.544510993904396
5	2.0	wm	473	diff_vonmises	0.09119667286326041	5.225184460700067	3.7051588605316725	0.6929728210814778	0.010488824756027224	3.0222559251884165	0.024797784195631056	-0.47661562466013	0.5014134088557611	70.45153658138051
6	3.0	ltm	473	diff_vonmises	0.032839849193420735	1.8815847586291088	2.161507245347035	2.235255586109544	1.0496420672215305	2.8549677901783177	0.20601466729575058	-0.21851648577532667	0.42453115307107725	68.80127520099524
7	3.0	perception	473	diff_vonmises	-0.01958855585967008	-1.1223415775153536	2.6669013495548604	3.7957983644100928	0.7285027175549147	4.838423223376156	0.920088953770525	-0.5181029208508774	1.4381918746214024	70.22928924645836
8	3.0	wm	473	diff_vonmises	-0.13588610678755428	-7.785700413390869	1.156125457375178	190.00690339441536	1.1372484478875082	191.6019886444785	0.08136805693791871	-0.39776520780294433	0.47913326474086304	76.19842868321265
9	4.0	ltm	473	diff_vonmises	-0.06194457581185809	-3.5491627577476335	1.005487770601679	196.6264671785777	0.9859007497742396	198.3547477956458	0.1428325729199571	-0.4373781182455403	0.5802106911654974	83.14355089780884
10	4.0	perception	473	diff_vonmises	-0.10174481525309237	-5.829548501340476	1.204181186602524	368.89008893250514	1.1833988508204114	370.6032504006804	0.7731674561800901	-0.6513832774676516	1.4245507336477417	80.779248626053
11	4.0	wm	473	diff_vonmises	-0.24113730339706374	-13.816149767817402	0.8714841962525179	83.5506652477635	0.8212966562918959	86.12105559576537	0.00923149982505933	-0.5748698927819973	0.5841013926070566	87.1216626004644
12	5.0	ltm	473	diff_vonmises	-0.07155644900287922	-4.099882524808087	2.502188692475649	0.9197270091740569	2.4974290153997673e-10	1.886369508532716	0.24210321877802593	-0.2965867858205563	0.5386900045985823	86.9533405416866
13	5.0	perception	473	diff_vonmises	-0.0010543858359424536	-0.06041185837787581	1.6218756265508567	3.5888166856725743	0.32037170114619773	4.919917823156849	0.578457866787595	-0.508190940313505	1.0866488071011	92.57361431556703
14	5.0	wm	473	diff_vonmises	0.018329211623843888	1.050186467848385	0.2272732431780349	138.46880132257988	0.21314591249692283	140.295785487426	-0.014386962362575417	-0.5061211460785557	0.4917341837159803	152.20971937427692
15	6.0	ltm	473	diff_vonmises	0.48610741908038657	27.851903503303337	0.6534655300257735	147.9467834734485	0.6428270647677788	148.80723646566557	0.06361754043894763	-0.22377737003790443	0.28739491047685206	103.88389177117014
16	6.0	perception	473	diff_vonmises	-0.01582366807444366	-0.9066293970815238	0.6505944774510253	320.03923312226937	0.6398947618789184	321.3662244304782	0.28818685650041687	-0.4401224249684361	0.728309281468853	107.92691952765065
17	6.0	wm	473	diff_vonmises	0.2796151863921207	16.020770068032363	0.0002908525293225444	4566.713636514784	3.817580672912041e-31	4568.093600732295	-0.008216775293362844	-0.43100873519892957	0.4227919599055667	177.47414463626666
18	7.0	ltm	473	diff_vonmises	0.03087518510900878	1.7690177984313697	1.901555855490582	0.739991980864425	0.1323907775500585	1.9189184074698626	0.023137921991498944	-0.2632897599538402	0.28642768194533913	89.23728021076624
19	7.0	perception	473	diff_vonmises	-0.02971610642354765	-1.7026074816308756	0.6751879839195003	182.39154792659093	0.6567503337631191	183.35962230809676	0.37230617726047655	-0.3975850082512551	0.7698911855117316	108.37691588285924
20	7.0	wm	473	diff_vonmises	-0.15051175659497315	-8.623688419992297	0.8424353673787109	160.95049400238526	0.8263735582170745	162.3986643131804	0.046432421116918476	-0.33847346342124496	0.38490588453816343	89.23913331738525
0	1.0	ltm	474	diff_vonmises	0.000572184626388842	0.03278376419435048	8.608314489505446	0.37748382722959994	0.07936437382219601	4.020067404816589	-0.2565221063159229	-0.6587887274218237	0.4022666211059008	44.39747602097128
1	1.0	perception	474	diff_vonmises	0.07310545416891276	4.18863398326577	15.239028291055082	0.7389918213669886	0.03817141891746019	3.8212535554489597	0.5094442898767564	-0.6196939373165482	1.1291382271933046	34.48495847040451
2	1.0	wm	474	diff_vonmises	0.2078361960167978	11.908136861816205	6.734965038237775	0.47657363328617797	3.840704287820744e-25	4.567745646504355	-0.24345390063251243	-0.7269786152864098	0.4835247146538974	52.44876780641633
3	2.0	ltm	474	diff_vonmises	0.13176539765082146	7.549601171255082	3.8467152205274364	0.8773943628359171	0.422201857722231	2.182554895748834	0.15325190438825154	-0.332697832472469	0.4859497368607205	60.87448027999156
4	2.0	perception	474	diff_vonmises	0.021712637311421493	1.2440424800427303	6.174353592836128	1.4640247237327717	0.3335754920391125	3.062238537856926	0.757433870771472	-0.5073444835277919	1.2647783542992639	51.70475646818937
5	2.0	wm	474	diff_vonmises	0.09583256986336904	5.49080179306365	3.5153288413198562	0.8648499225994618	0.11937140972244947	2.5392723100702206	0.1654552266299522	-0.3849722726081062	0.5504274992380584	68.84777534997434
6	3.0	ltm	474	diff_vonmises	0.13059106818548874	7.482317049133663	5.378375576844512	0.5793875619828001	0.3465821142229903	1.2730715541373954	0.2440431820728275	-0.2062722054108955	0.450315387483723	54.67287884954129
7	3.0	perception	474	diff_vonmises	-0.03819052701951793	-2.1881560155987123	5.584531406782995	1.0604072333348982	4.260056716152941e-12	1.5235645750106082	0.732570034801635	-0.24246908040487408	0.975039115206509	57.70386656104833
8	3.0	wm	474	diff_vonmises	0.03712855187978685	2.127309322144306	2.5867830313130318	1.4043258653625603	0.5994383418147533	2.193560646421061	0.2620855474973176	-0.257284990633062	0.5193705381303796	70.76528985254714
9	4.0	ltm	474	diff_vonmises	-0.1469259846766745	-8.418238822777255	0.9528649864501921	179.3084228197495	0.9321366642875731	181.33758208373743	0.03888569149766852	-0.4685152912363719	0.5074009827340404	83.11895488025752
10	4.0	perception	474	diff_vonmises	-0.007942345772524869	-0.4550628921992464	2.3166544769340756	1.9568556958407775	2.068477256314429e-14	4.208303867930841	0.43268434316759297	-0.6590521228725181	1.091736466040111	90.35240447046698
11	4.0	wm	474	diff_vonmises	-0.03887928283591104	-2.2276188169931253	1.1191143621474724	303.8491230375112	1.1040355383435343	306.0185632736017	0.07278458755281747	-0.5257897267258116	0.5985743142786291	76.81738883676618
12	5.0	ltm	474	diff_vonmises	-0.12809701938001172	-7.339418578680185	2.2267352441724553	0.9075758407680018	4.637336631852459e-20	1.936901010605101	0.19114141393953377	-0.3024547431058419	0.4935961570453757	92.10887690790501
13	5.0	perception	474	diff_vonmises	-0.042398130778489515	-2.4292339528511646	0.8786986041739892	158.32665630935279	0.8471189129653275	159.70762275706895	0.5218842694135333	-0.5086218948698562	1.0305061642833895	94.89935459633924
14	5.0	wm	474	diff_vonmises	0.07447964277890082	4.267369190873035	0.5768883968144767	169.77521746617103	0.5628909356983475	170.7385563148651	0.19928306182249145	-0.33246766170295494	0.5317507235254464	114.85889357087822
15	6.0	ltm	474	diff_vonmises	0.1944748910204728	11.142590476739723	0.9744467512189652	81.96292618667664	0.9525403987560621	82.61925575994891	0.12227953451912299	-0.1895705895983415	0.3118501241174645	87.11316989816982
16	6.0	perception	474	diff_vonmises	-0.30823569134393275	-17.66060420930447	0.29155427909601245	99.68591123134429	0.26667890251126775	100.74390811550049	0.22497669898528017	-0.45998384916907575	0.6849605481543559	145.822539928034
17	6.0	wm	474	diff_vonmises	0.4177864431833925	23.93739993219055	0.40577963749085444	152.61413067212717	0.3934137144151225	153.1935129614411	0.2146707781267594	-0.2914231431600953	0.5060939212868547	132.76369144156016
18	7.0	ltm	474	diff_vonmises	-0.017984697588705148	-1.0304472676519134	1.3020721765780854	1.4012855319275683	0.2270491741833651	3.080843187676054	-0.049968896987168554	-0.3531601020557818	0.30319120506861325	96.19112180960988
19	7.0	perception	474	diff_vonmises	-0.01391164103287548	-0.7970783172847824	1.334910994871871	5.509176958083625	0.5802696362296039	6.802585601157824	0.4434584889638207	-0.4472038661673329	0.8906623551311535	90.54818444375744
20	7.0	wm	474	diff_vonmises	0.012433952741940564	0.712413014778312	0.8405748986441454	162.89371444990633	0.8232233755582113	164.32339606500673	0.09909214354284046	-0.3540339573458766	0.4531261008887171	90.91456724803959
0	1.0	ltm	475	diff_vonmises	0.05341838714517708	3.060648131814537	10.943718287279918	0.7347836432264406	0.3206173553164413	4.690314183513463	-0.044550595978534946	-0.8761536010619437	0.8316030050834088	38.184416635048535
1	1.0	perception	475	diff_vonmises	0.048230617761316534	2.7634108410321443	16.549449407848215	0.7146129866407049	0.07458061341415234	4.232486205025301	0.425829721705428	-0.7026022133970207	1.1284319351024488	32.91815375783668
2	1.0	wm	475	diff_vonmises	0.2699942157197587	15.469529053686879	3.141889935680421	0.8732096340449217	0.13641986048514657	6.107842503057654	-0.5219462771597577	-0.9470177765796561	0.4250714994198984	66.71776187962536
3	2.0	ltm	475	diff_vonmises	0.1550748382369987	8.885133739653984	5.557869783251864	0.7618695891650368	0.6130749086298424	1.6250798922138998	0.26321547493827596	-0.2780621134418879	0.5412775883801639	51.49793205401474
4	2.0	perception	475	diff_vonmises	-0.004484598654972973	-0.256948575739997	6.029887436274106	1.3639832064966262	0.42665071535589605	2.7725455071342635	0.6595912351695891	-0.4652993792990809	1.12489061446867	51.56335901944101
5	2.0	wm	475	diff_vonmises	0.09229874287248775	5.288328420956737	2.051489101237265	2.264471692088398	0.5112664769541435	4.427532381018109	0.08447724395273948	-0.5089207930429971	0.5933980369957366	74.53068451084187
6	3.0	ltm	475	diff_vonmises	0.06744670885864895	3.8644117596482066	2.024165920928475	119.6769115391541	2.001475556512274	120.04964536485372	0.22969985980491003	-0.18539256563425965	0.4150924254391697	61.8474142107236
7	3.0	perception	475	diff_vonmises	-0.05945352038988941	-3.4064357955356477	4.188155635967617	1.5939079271190644	0.3067969370413819	2.190159147682862	0.7936283003911973	-0.3223353442133971	1.1159636446045944	62.992283715394336
8	3.0	wm	475	diff_vonmises	0.0030031759434461344	0.1720693066946827	2.73748911723085	1.3809840479984872	0.5863501304014175	2.752350305100463	0.1343311817170082	-0.3567563239764626	0.4910875056934708	66.8459185950548
9	4.0	ltm	475	diff_vonmises	-0.14880608899926623	-8.525960865506063	1.1846726947392567	286.986022337425	1.1708736478612092	288.4778726463192	0.1762634845033375	-0.4045367131433437	0.5808001976466812	77.00948454495332
10	4.0	perception	475	diff_vonmises	-0.08847644591202049	-5.06932693707628	1.665147300841916	6.051586968302051	0.6461443595300006	7.485183858662812	0.7397787973395844	-0.5671919458682656	1.3069707432078501	83.59917996745318
11	4.0	wm	475	diff_vonmises	-0.14931412072091693	-8.555068939015413	0.9029474669257598	233.02148736429197	0.8865707738038819	235.42041557796557	-0.04109692891253758	-0.5227041198209328	0.4816071909083952	83.38399078207507
12	5.0	ltm	475	diff_vonmises	-0.11389736999447916	-6.525838598323636	3.249019587183605	0.7127598010991691	2.3243378312241954e-12	1.6855779740909602	0.22006898958883075	-0.267532276746783	0.48760126633561374	76.17268112260155
13	5.0	perception	475	diff_vonmises	-0.038220117351644274	-2.189851416743942	0.8913521558656741	305.7090265781621	0.8738817349785395	307.2905343935098	0.5154685695568446	-0.5463689103760565	1.0618374799329011	93.26267012721692
14	5.0	wm	475	diff_vonmises	0.1534781862299049	8.793652318296418	0.0004534542576183091	3085.3989914311214	1.9078975319758526e-24	3087.2829254062513	-0.07714194922630213	-0.5224823755797843	0.44534042635348214	179.13974755422876
15	6.0	ltm	475	diff_vonmises	0.2174991750361199	12.461784777146825	0.6883127940924808	78.89981920940296	0.6703925918054529	79.80208424022406	0.01754717842525011	-0.20972091445458751	0.22726809287983762	98.81125340963587
16	6.0	perception	475	diff_vonmises	-0.10803599237040461	-6.190006398331747	0.5077993423843309	330.32533089951943	0.49691591599703205	332.0177431542961	0.2555643338600788	-0.5588309013907136	0.8143952352507924	120.81419079731505
17	6.0	wm	475	diff_vonmises	0.6085470273919737	34.867176304792196	0.00024929379607016187	6634.233502516787	7.460022099286578e-31	6635.760652687934	0.020184301096151103	-0.5062584887939465	0.5264427898900976	169.1070987984556
18	7.0	ltm	475	diff_vonmises	-0.06222495277830519	-3.5652271745977338	4.234333636044523	0.32966255672692146	1.1838827284108477e-12	1.7287900602302777	-0.013741124236151425	-0.2750905898593993	0.2613494656232479	66.49453138209174
19	7.0	perception	475	diff_vonmises	0.04919540382546165	2.818689010640697	1.8884532077043086	1.4737707977598997	2.8083393276708415e-12	3.0433637890497454	0.24994498193700193	-0.46755518533378515	0.717500167270787	99.67199132770563
20	7.0	wm	475	diff_vonmises	-0.008517526071205235	-0.4880182957727055	0.8310538150849117	158.90289576418178	0.8147857017688249	160.71380091249736	-0.06145968656589673	-0.38130157338337867	0.31984188681748194	85.8833905799438
0	1.0	ltm	476	diff_vonmises	0.014170049263239512	0.8118840182760857	1.363790810187634	0.71642853763211	4.000774446705256e-16	2.1074763773694283	-0.042401470050881795	-0.31625857701279886	0.27385710696191706	114.87798065373482
1	1.0	perception	476	diff_vonmises	0.011129695335986782	0.6376845700184793	14.003014360392266	0.45932060908963246	0.03246860096846333	2.0929185033901256	0.33518516796435777	-0.33786199496685704	0.6730471629312148	36.022699963606726
2	1.0	wm	476	diff_vonmises	-0.027403396179314782	-1.5700989453996623	4.848937064481511	0.4266914310908908	0.05968989726980232	1.8845529621343515	0.04583983765085081	-0.29692848616222256	0.3427683238130734	60.01973957899966
3	2.0	ltm	476	diff_vonmises	0.12241231836245176	7.013709202580275	7.420914892583146	0.39464285616170375	0.18401920314783768	1.224104948503911	0.18894318124087914	-0.20304010284863305	0.3919832840895122	48.03964612726355
4	2.0	perception	476	diff_vonmises	0.024480210487474483	1.4026127425241834	5.74686693537943	1.231859997050146	0.42038073981662666	2.3243584175843464	0.6106913900253476	-0.3829286095950972	0.9936199996204448	52.92554600628941
5	2.0	wm	476	diff_vonmises	0.1670510309149192	9.57131903473431	0.8814818107773762	92.78994016349161	0.8591376935414258	93.5641525523405	0.15152114654081572	-0.2284934612689309	0.3800146078097466	92.05034118059629
6	3.0	ltm	476	diff_vonmises	0.00023993010771124714	0.013746982549973709	1.725053783934361	130.3360999781429	1.7037250576068883	130.98032211120906	0.16232961420643477	-0.22713720993474595	0.3894668241411807	64.94634624040884
7	3.0	perception	476	diff_vonmises	-0.021083039376249998	-1.2079691755672526	4.249532794801845	1.9759518100111833	0.39368723699174996	2.62189554710819	0.9747051686308588	-0.38372862281764863	1.3584337914485074	61.83428765914866
8	3.0	wm	476	diff_vonmises	-0.05461597191233606	-3.129264684581904	1.0904680923805457	169.37952997930344	1.0764716433434875	170.09130263965443	0.19123485871649137	-0.22589018973474495	0.4171250484512363	83.17012156081609
9	4.0	ltm	476	diff_vonmises	-0.04245191349472267	-2.432315475502074	1.4074685018782043	137.65113430208515	1.3874101467302424	138.6974846493621	0.0606178210736843	-0.2812934920514003	0.3419113131250846	68.88015367967859
10	4.0	perception	476	diff_vonmises	-0.006589174141481402	-0.3775318687836219	4.0674424894082	1.377146522398173	0.04166245571687297	3.0561336515966997	0.5615624757402912	-0.4747708297148958	1.0363333054551869	66.70938727921742
11	4.0	wm	476	diff_vonmises	0.1283731453012782	7.355239428582915	1.1603042565425143	221.2953836229236	1.146096769311513	222.72111246043832	0.058333242594017065	-0.3518967483173867	0.4102299909114038	75.62392194762907
12	5.0	ltm	476	diff_vonmises	-0.04202873060457072	-2.408068881934219	1.1265393988912693	1.4000500726776772	4.8638828823048866e-17	2.1633130448662214	0.167396541211975	-0.2905320586177311	0.45792859982970613	123.48278959954874
13	5.0	perception	476	diff_vonmises	-0.07873127492038527	-4.510969768622263	2.0040786832592086	1.70329085299732	6.253717703216894e-16	2.753356420982534	0.4415110273721614	-0.42222619541523093	0.8637372227873923	96.92158038329427
14	5.0	wm	476	diff_vonmises	0.27667952046522604	15.85256880036094	0.8947857646330888	1.394988804213945	3.8010933580532513e-13	2.2029382663162385	0.0981993450073243	-0.27564292042861227	0.37384226543593657	132.3161345065505
15	6.0	ltm	476	diff_vonmises	0.21566701250094483	12.356809596499303	0.5568698381142183	138.7437007807735	0.5455158205075059	139.5881145873919	0.08098197284365227	-0.24211827007745867	0.32310024292111095	114.02872188006899
16	6.0	perception	476	diff_vonmises	-0.14627720776573716	-8.381066643935009	0.9280713632271362	217.07871008950232	0.9117895384839272	218.26205766302957	0.2878826921362645	-0.36808988617940486	0.6559725783156694	90.21840950624504
17	6.0	wm	476	diff_vonmises	0.0012022354561371993	0.06888301761764692	0.389334003257893	129.96567085867667	0.3747522266165357	131.01698878942918	0.11121598647465802	-0.3468752516177016	0.45809123809235963	133.7217021088959
18	7.0	ltm	476	diff_vonmises	-0.10355665811785236	-5.933359450632116	2.2901182485094425	0.8415905035395814	0.04378744251291769	2.0739759862805784	0.12624002320371314	-0.31110546832817765	0.4373454915318908	87.87784024263235
19	7.0	perception	476	diff_vonmises	-0.02443359901707657	-1.3999421019934841	0.8933278533139026	126.92520348057589	0.8497521997721039	128.27500895625673	0.631891665546938	-0.5449925251884178	1.1768841907353558	95.17249364188336
20	7.0	wm	476	diff_vonmises	0.008891970360177715	0.5094723731936056	1.1285719096618316	186.01383363015978	1.1127748782466076	187.2041820402398	0.11670342682980106	-0.31217566700366817	0.4288790938334692	78.55001333779799
0	1.0	ltm	477	diff_vonmises	-0.21338844369007448	-12.226257220306291	9.3188073561603	0.16132193788319932	0.0014543411518908567	2.784149746944348	-0.2500818298582972	-0.44313727178655793	0.19305544192826074	44.3936306105974
1	1.0	perception	477	diff_vonmises	0.018336244053453864	1.0505893963847595	11.918083916671113	0.6292982274632952	1.508197997277629e-18	3.2495683096733363	0.34005490176442743	-0.5171848593611631	0.8572397611255905	39.278770558911475
2	1.0	wm	477	diff_vonmises	0.0843775967045375	4.834480176626962	11.388960952087457	0.2198177099239001	4.949776397050314e-30	3.453495197150353	-0.2570936693601881	-0.5496408315331086	0.2925471621729205	40.189271991629
3	2.0	ltm	477	diff_vonmises	0.06844968907220578	3.9218782928201428	13.469940481961023	0.3786568538583298	0.24881078833421175	1.5146604213834225	0.24464932902798786	-0.2741287561883573	0.5187780852163452	35.803280390734045
4	2.0	perception	477	diff_vonmises	-0.0030545308588075556	-0.1750117266021437	9.874348406764886	1.1004707255240438	0.1806846710914472	2.5175308122847664	0.8850343961300577	-0.4254144270253705	1.3104488231554283	42.29075911992621
5	2.0	wm	477	diff_vonmises	0.02592298122965394	1.4852774168560239	1.399290632146997	1.6034711089809397	0.2562476277434744	3.3711359792313873	-0.016017506983423302	-0.3827990163374613	0.36678150935403797	93.13376458441246
6	3.0	ltm	477	diff_vonmises	0.0910717569353326	5.218027305235843	1.9539609263218394	54.62606182487926	1.9182263859326485	54.87184884810255	0.1854269796883159	-0.13082664687848045	0.31625362656679634	63.67699790065578
7	3.0	perception	477	diff_vonmises	-0.006977014139839881	-0.3997534638159235	3.098752585765776	2.9815021912208506	0.7770163587622939	3.468614569239968	0.9509143248768521	-0.393758585150478	1.34467291002733	66.85136627106112
8	3.0	wm	477	diff_vonmises	-0.18108628928717938	-10.375480103840472	1.4671114158168943	133.74214474198297	1.448026402100029	134.4536113917875	0.14872357058455776	-0.22534859487432968	0.37407216545888744	70.31242804692164
9	4.0	ltm	477	diff_vonmises	-0.010881517001612157	-0.6234649988922268	1.2905765335650494	185.18393851284614	1.2737140036586365	186.42329839580952	0.08265331329532444	-0.32523287004649504	0.4078861833418195	72.32644214893745
10	4.0	perception	477	diff_vonmises	-0.12040154872187332	-6.898500588602093	2.3071291271988925	3.939801372057431	0.5923603263679698	5.272324123639303	0.8218611736416648	-0.5512411747002931	1.3731023483419578	75.56325300606471
11	4.0	wm	477	diff_vonmises	-0.22066894175980287	-12.64339903245487	1.085257310038112	250.7045663569119	1.0711332815877876	252.44938810769133	0.04499049982040049	-0.4158945397332481	0.46088503955364857	77.74462884920044
12	5.0	ltm	477	diff_vonmises	-0.08254183657895567	-4.729298869232717	3.060643436289303	0.665116221239762	1.351896843861753e-18	1.548056825346688	0.19421677275257945	-0.2454134409824895	0.43963021373506894	78.52888756784773
13	5.0	perception	477	diff_vonmises	-0.0227713299636901	-1.3047011008192329	1.270303386377601	5.802801537198968	0.5323704958656488	6.682013912811851	0.5857457984466641	-0.4227086506586694	1.0084544491053336	95.51571477213395
14	5.0	wm	477	diff_vonmises	-0.1509542988322762	-8.649044222446038	0.43181346223205247	124.00292287306357	0.41831282864861397	125.31130230457319	0.005748415156705988	-0.3324444418663326	0.3381928570230386	125.00525031073671
15	6.0	ltm	477	diff_vonmises	0.48954786955728347	28.0490267952533	0.6300607568030109	106.37424407469254	0.6181135158435369	107.19034674296216	0.021544304692909577	-0.19536100680905655	0.21690531150196612	103.77207880726962
16	6.0	perception	477	diff_vonmises	-0.09552974609396064	-5.473451269140306	0.7671132898405437	281.1885549604743	0.7563848891802233	282.09111889475474	0.30942287967822324	-0.33233378154140425	0.6417566612196275	100.78551318221032
17	6.0	wm	477	diff_vonmises	0.03593056759471223	2.0586698786865325	0.0021345104997323706	593.2768374480546	2.080953034904136e-15	594.5668965189086	-0.003665149949085844	-0.40675830482152264	0.4030931548724368	179.79627737722438
18	7.0	ltm	477	diff_vonmises	0.1393739347461793	7.9855382350878115	1.3300736835351656	100.0573638534747	1.3077653524615793	100.90102021463801	0.0678856685901792	-0.22686440151290732	0.2947500701030865	71.62395893673286
19	7.0	perception	477	diff_vonmises	-0.11146398061468839	-6.386415656949668	1.0999486580459557	3.680460253602124	0.2737939387652583	4.236953005379837	0.45655193000112126	-0.35630406369250944	0.8128559936936307	111.09904533054554
20	7.0	wm	477	diff_vonmises	-0.4226546395206611	-24.21632703615709	0.8250848076374919	112.81800893081117	0.8115050629118578	113.73772913816093	0.011232711054574906	-0.20831070580003797	0.21954341685461287	89.15765734387054
0	1.0	ltm	478	diff_vonmises	0.053546879074288393	3.0680101770541093	4.765164175394854	0.3974860008058323	0.08222882512930148	3.4452339367958014	-0.2583866007096164	-0.5493497633449007	0.2909631626352843	58.13690312403273
1	1.0	perception	478	diff_vonmises	0.026222077850204514	1.5024143908801977	13.415431464868679	0.5726960898797955	0.07602107593098902	3.373097092319738	0.24992496090549343	-0.5572768709019028	0.8072018318073962	36.47246806175394
2	1.0	wm	478	diff_vonmises	-0.007000938876984887	-0.40112425028029225	2.6526388386335746	1.1535912665005912	0.30944988134722773	4.614482532919231	-0.27342052419850094	-0.6787647348419997	0.4053442106434988	67.18940825579998
3	2.0	ltm	478	diff_vonmises	0.021264257322685005	1.2183521990700064	5.135876726781806	0.6538105506889031	0.242121250143774	2.1727847779448184	0.1409173253450694	-0.3507496697777225	0.4916669951227919	55.70257791987376
4	2.0	perception	478	diff_vonmises	0.015363131424912512	0.8802425907522935	5.499060927740297	1.4229179447306557	0.360671936084267	3.3674491259871537	0.5534818961009328	-0.552444666475697	1.10592656257663	53.764473893430136
5	2.0	wm	478	diff_vonmises	0.05019877487844241	2.876177937262092	2.919204304758605	0.9833657828795968	0.24637183327085738	2.724419006833272	0.08767058477379108	-0.3929247072685436	0.4805952920423347	70.8376878697303
6	3.0	ltm	478	diff_vonmises	-0.10597601579722936	-6.071978434792983	2.7847067056268684	1.0038799097521423	0.34879155947836943	1.9265084031071376	0.2083447957879626	-0.25863514539089577	0.4669799411788584	72.17648279182703
7	3.0	perception	478	diff_vonmises	-0.054308932856946296	-3.111672642562387	5.578918487841044	1.5160092799805855	0.13009556061932173	2.561887739352667	0.9308410730980671	-0.40214990822310104	1.332990981321168	56.33120428192936
8	3.0	wm	478	diff_vonmises	-0.12650088897866113	-7.247967043130274	1.3194580737617605	262.99813620669784	1.3061599784533422	264.2120848104563	0.1504391069335611	-0.3410851782383375	0.4915242851718986	72.82826319019526
9	4.0	ltm	478	diff_vonmises	-0.24897408463381138	-14.265164257650355	1.1727184580342527	6.789270778150959	0.7257676988934573	8.623952614330909	0.04337549998266388	-0.42445125769369874	0.4678267576763626	83.49614613520166
10	4.0	perception	478	diff_vonmises	-0.03678810588823246	-2.1078032036760925	3.6037037698275363	1.64998424079942	0.06501794440438134	3.905410570416959	0.5352622416347091	-0.5978517803901308	1.13311402202484	70.0641648105383
11	4.0	wm	478	diff_vonmises	0.039984198752983986	2.2909258357582316	0.7539412872049549	116.6685921510595	0.7304197148596958	118.99067605470168	-0.15046100392189743	-0.46130176121616095	0.3108407572942635	87.58832018309448
12	5.0	ltm	478	diff_vonmises	-0.0413808409843651	-2.370947541106103	2.3765966637463	1.1401755227267332	2.2001207346608432e-12	2.122597363716384	0.314354651858998	-0.3321968592844733	0.6465515111434713	89.21449601449984
13	5.0	perception	478	diff_vonmises	-0.0847157646655856	-4.853855773561563	1.7707181252870752	2.4582010876830958	0.1885185138745699	3.769625640147411	0.45977996271751	-0.46316404756486496	0.9229440102823749	93.4325631087817
14	5.0	wm	478	diff_vonmises	-0.11540900910982164	-6.61244913977965	0.38341205689165203	204.3988249322763	0.371500830957192	205.62570271818907	0.17078668817097764	-0.4341430464621503	0.6049297346331279	134.70439178237592
15	6.0	ltm	478	diff_vonmises	0.1466489702264736	8.402367063916605	0.6238826100210254	80.8130024795212	0.6018269612498791	81.51654144377527	0.15067079502907532	-0.23755263451990594	0.38822342954898126	110.7950283690437
16	6.0	perception	478	diff_vonmises	-0.12706069567950623	-7.28004160443184	1.1863263568907119	3.422665048816067	0.4195796602292311	4.504156427000829	0.2448807008797249	-0.3404937067438857	0.5853744076236106	98.27325891218047
17	6.0	wm	478	diff_vonmises	0.4570993763083143	26.189865080528623	0.0028883193037163284	469.1840821799934	1.1842919269446962e-13	469.8563444920904	0.10883989881251921	-0.322516170639048	0.43135606945156724	173.51766733932863
18	7.0	ltm	478	diff_vonmises	-0.1265425621287084	-7.2503547387469975	0.9203508982772317	189.5194919556119	0.9059224518637922	191.02464152562038	0.033003492033039095	-0.3477597895444937	0.3807632815775328	84.63953555044608
19	7.0	perception	478	diff_vonmises	-0.10643401175301237	-6.0982196700934095	0.7248453145268944	90.6542136433897	0.6785341920716715	91.98091576640444	0.42813212206898044	-0.4922338579955232	0.9203659800645037	104.88090207613479
20	7.0	wm	478	diff_vonmises	-0.19396783265756634	-11.11353817257837	1.1087769534095655	178.43814653762365	1.0932046204699346	179.67502786388363	0.07581111683205677	-0.3093086687698232	0.38511978560188	78.19109020978894
0	1.0	ltm	479	diff_vonmises	0.2281088601139111	13.069674954067189	0.00025906009430283396	3185.598811921098	3.80639065960211e-30	3188.0736745353843	-0.2625337582614975	-0.5252224658099749	0.2626887075484774	178.2667274500045
1	1.0	perception	479	diff_vonmises	0.026404084712041483	1.5128426159058765	9.341840628271457	0.6283746624639795	1.3971105810685833e-17	3.1022494630197537	0.2614127145927234	-0.49373833093469044	0.7551510455274139	44.43549142693027
2	1.0	wm	479	diff_vonmises	-0.4756254034893217	-27.25132824914499	0.00036967556811341224	2651.4615972391653	8.401163694397344e-33	2654.1647047053925	-0.27419941752140176	-0.5861975787039455	0.31199816118254375	173.61875569628057
3	2.0	ltm	479	diff_vonmises	0.05639704848406509	3.2313128551316073	14.698813816974521	0.31022432391173904	0.04591489611666882	1.9122095966139456	0.15179972729610575	-0.3114055954448735	0.46320532274097925	35.02739445552038
4	2.0	perception	479	diff_vonmises	0.010006766853544645	0.5733455072795145	8.023889816256183	1.0978498551345948	0.09427851358087218	2.825182560572699	0.7268108532420547	-0.4571734986798019	1.1839843519218567	47.18373337279934
5	2.0	wm	479	diff_vonmises	0.163556698736159	9.371108548674597	1.0485545929040192	1.2543317318287774	3.4632786289671763e-32	2.913345457229847	-0.02356904881827271	-0.4096213326267765	0.3860522838085038	126.35967743100653
6	3.0	ltm	479	diff_vonmises	0.05788667054310168	3.3166619121839913	3.9567952644569653	0.3725722061966006	2.2470169244051292e-15	1.1010184434534644	0.10951072750898022	-0.17512837340328372	0.28463910091226396	68.84538427344273
7	3.0	perception	479	diff_vonmises	0.017016995565675583	0.9750020259060478	2.8215406694812346	3.72883907593319	0.7282494795598592	4.667034611122075	1.0047133016648122	-0.5166116497063826	1.5213249513711948	69.06380005196647
8	3.0	wm	479	diff_vonmises	-0.22408706474616036	-12.839243053429806	1.2265909053222313	169.224907576948	1.2098885806679907	170.13927483721008	0.17232722550376423	-0.26971622988174104	0.44204345538550527	77.02485670567134
9	4.0	ltm	479	diff_vonmises	0.08653778656165584	4.958249938386811	3.5796262020051106	0.6815750861038697	0.21467619546256259	2.288150498657801	0.0467705037953558	-0.3483050638438892	0.395075567639245	65.17282503346135
10	4.0	perception	479	diff_vonmises	-0.08206577634507609	-4.702022627037406	1.1960554696125771	263.31002922325064	1.168113195253618	265.2713301640113	0.6305718643915412	-0.6602771634006359	1.2908490277921771	80.05835497661198
11	4.0	wm	479	diff_vonmises	-0.19022048429412497	-10.898830926987923	1.0467328150494652	276.51748114326375	1.0319085559931436	278.51468399936226	0.07810690484824079	-0.4804646577281062	0.558571562576347	79.79167634697447
12	5.0	ltm	479	diff_vonmises	0.00962476950518524	0.5514586714333319	1.6539832053081391	1.1295233503320592	2.7824183166774144e-15	1.9394868792677793	0.21047984963958544	-0.2896807148715619	0.5001605645111473	105.88494312183754
13	5.0	perception	479	diff_vonmises	0.009680590334870398	0.5546569693832101	2.1943388612144226	1.9032134130605427	1.7293871473620436e-16	2.708413084409378	0.6070514719749504	-0.41816528183020246	1.0252167538051529	92.78530080902593
14	5.0	wm	479	diff_vonmises	0.01236888362676849	0.7086848291023015	0.47349521698592967	163.63453500247482	0.46152229486975205	164.70190348233095	0.10850391991368014	-0.3288420508653278	0.43734597077900794	123.58787135361611
15	6.0	ltm	479	diff_vonmises	0.5974684357732118	34.232419762088135	0.6282744313660394	145.93588876669693	0.6169842548567697	146.6657561224374	0.11632037722352351	-0.2238543163502218	0.3401746935737453	108.7111690992196
16	6.0	perception	479	diff_vonmises	-0.044339018460780144	-2.5404386255553457	0.84662924937798	230.0372933671323	0.8350252388393955	230.74274302591098	0.2905173246693806	-0.27165275021480184	0.5621700748841825	96.47731770955968
17	6.0	wm	479	diff_vonmises	-0.21084082213396066	-12.080289257344416	0.46039931004044143	148.97530906179142	0.4484403162715617	149.9207236551599	0.1062306911013664	-0.30038934026372033	0.40662003136508673	125.17893148755851
18	7.0	ltm	479	diff_vonmises	0.1982477707711731	11.35876056306522	2.6719992496765337	0.6098554898775312	0.0642079411339135	1.543414243945883	0.11199490651307276	-0.2309393308137286	0.3429342373268014	80.58769985754918
19	7.0	perception	479	diff_vonmises	-0.14521554728709793	-8.320237979233143	0.9026812771588266	223.5279090770928	0.8848300349773144	223.69278516725078	0.7074344438890279	-0.3227863785024496	1.0302208223914775	98.44959747218978
20	7.0	wm	479	diff_vonmises	-0.237672185021356	-13.617613109376121	0.900557879190326	122.20444011172427	0.8826100028366015	123.13502816397796	0.12063957194368413	-0.25053453977099416	0.3711741117146783	89.46524850673134
0	1.0	ltm	480	diff_vonmises	-0.01339050470599088	-0.7672194052033446	6.122270600898968	0.46650358714889695	0.11689719187000887	2.030543581422756	0.08822072078453425	-0.3273693527446491	0.41559007352918337	52.75216254311533
1	1.0	perception	480	diff_vonmises	-0.04327822587827836	-2.4796596876392107	17.986296029051314	0.6100412586967652	1.6007714340960016e-19	2.1598038360567338	0.6803956380068645	-0.3437434566172665	1.024139094624131	31.937367048207562
2	1.0	wm	480	diff_vonmises	-0.03368560274614028	-1.9300428677081336	8.758091062488615	0.2983466662738334	6.556557028167056e-26	2.218336041841113	-0.006139736856127009	-0.35305913792649773	0.3469194010703707	45.89811767908523
3	2.0	ltm	480	diff_vonmises	0.11321235248846093	6.486589986336214	2.621352154504068	2.3325345158590927	1.2742385868690163	2.98179986619405	0.24212998739843727	-0.2546290739299114	0.4967590613283487	62.331198688503065
4	2.0	perception	480	diff_vonmises	-0.034215704445622865	-1.9604154578011983	5.548472047907264	1.1641600398175875	0.31461183490761613	1.9083830079415767	0.6609077570520001	-0.3040314001456896	0.9649391571976897	54.98329306554629
5	2.0	wm	480	diff_vonmises	0.10124717074704656	5.801035571446178	3.5539994728354887	0.5315468762563555	1.4289176353317539e-18	1.4374448343723547	0.1541595099171703	-0.22846299231656206	0.3826225022337324	72.74397818835232
6	3.0	ltm	480	diff_vonmises	0.021584342063107217	1.2366917037827394	1.6387520872152868	76.08427665576033	1.6109081500391982	76.37256752341638	0.23032376535745414	-0.14826723414371656	0.3785909995011707	70.14391108468317
7	3.0	perception	480	diff_vonmises	-0.05941676384128086	-3.4043298004309106	4.325540312443132	1.6887668987596254	0.27921081251396296	2.076844367606486	0.9260559148574938	-0.3065258880012987	1.2325818028587925	62.64410077152863
8	3.0	wm	480	diff_vonmises	-0.14991923690751446	-8.589739542622503	1.5092689509017594	158.41146874529795	1.4901198350398301	159.06961658066555	0.2467077903427537	-0.24380845276967023	0.4905162431124239	71.01803029531587
9	4.0	ltm	480	diff_vonmises	-0.051918042940440425	-2.974684741066215	1.7917979424044592	3.6735825655323233	1.050281675185633	4.361107144570317	0.2412451549030934	-0.24177934415301516	0.48302449905610856	73.2714913889728
10	4.0	perception	480	diff_vonmises	-0.05365400682039185	-3.0741481447745866	2.9238082616976735	2.158740174101714	1.86743429517031e-15	3.4996002312811187	0.8362745213320977	-0.5529566523140615	1.3892311736461593	80.37997849478279
11	4.0	wm	480	diff_vonmises	-0.1883921749069661	-10.79407651545957	1.1800208403688164	300.691716527101	1.1659609458281024	302.22246374781116	0.2132837510066139	-0.4247432297393985	0.6380269807460124	77.64341512083041
12	5.0	ltm	480	diff_vonmises	0.02887819100057871	1.654598464305836	1.8039271434624384	1.2721632498297322	0.12723259128281933	1.2628139199944322	0.3891185116227974	-0.1595447436051657	0.5486632552279631	97.75992038832129
13	5.0	perception	480	diff_vonmises	-0.008559668273980471	-0.49043286613111103	2.130332421054696	1.8629543020687689	4.36375719453135e-16	2.2290160761625275	0.6435016181292487	-0.3406683599665534	0.9841699780958021	94.13202920029048
14	5.0	wm	480	diff_vonmises	0.08645958512930346	4.953769326361142	0.7904713384791513	2.0535106923020088	1.3310954261072572e-12	2.3911359374934307	0.239239165422731	-0.2530179057043832	0.4922570711271142	137.7054372881991
15	6.0	ltm	480	diff_vonmises	0.3194898441255842	18.30541966568851	0.9515032020536185	51.78900732227086	0.9323842684726602	51.68755967095493	0.22149268880527728	-0.06751440205719295	0.28900709086247023	98.90092070548474
16	6.0	perception	480	diff_vonmises	-0.1264034971021734	-7.242386899648668	0.7598102969494674	154.33963412861212	0.7455997335600719	154.70747389141204	0.3108362114956691	-0.22022582839122862	0.5310620398868977	104.35779733799214
17	6.0	wm	480	diff_vonmises	0.0633709146855723	3.630885955366901	0.36327590247142844	93.15978119633994	0.35105327699959155	93.1414946370878	0.21083642108836287	-0.14245154354901501	0.3532879646373779	141.07056586173258
18	7.0	ltm	480	diff_vonmises	-0.008367983509664481	-0.4794501381388449	0.3618096483030989	43.72600348609478	0.32841624093656946	44.14024251813529	0.17527793217424836	-0.23315400113980989	0.40843193331405825	140.3915543614841
19	7.0	perception	480	diff_vonmises	-0.09187999033564993	-5.2643356679355335	0.9714577792669918	227.0086637130588	0.9555255074383096	227.56943219488153	0.4992803133148698	-0.31128604657589776	0.8105663598907675	92.35433275880695
20	7.0	wm	480	diff_vonmises	0.18582473890798099	10.646973268547768	0.9789462365524217	69.01474008042572	0.9511142439771878	69.63861940251822	0.15696377605326362	-0.1949833077413956	0.3519470837946592	88.11970232588286
0	1.0	ltm	481	diff_vonmises	0.2021335129814248	11.581397191988478	0.1298558435835127	38.81779089617272	0.11450622371504775	39.52450209942347	-0.025466885983608023	-0.18868735510571977	0.16322046912211174	163.92308331558417
1	1.0	perception	481	diff_vonmises	-0.03538769099984194	-2.0275653410040313	10.804326657203895	0.6381429661481338	3.9404009388036676e-26	1.438757058525936	0.5977049416821889	-0.22898529743170262	0.8266902391138915	41.27424651081199
2	1.0	wm	481	diff_vonmises	-0.016928566630717984	-0.9699354211461405	14.318225813159044	0.2230125071931715	1.30883829545835e-13	0.9557853833400934	0.18149914368088452	-0.15211796829341595	0.33361711197430044	35.80357740899865
3	2.0	ltm	481	diff_vonmises	0.12904349306816026	7.393647526431278	6.673557116694165	0.3114574348922163	0.6238340744028374	0.7351748866252423	0.11589796602465982	-0.13443187832974088	0.2503298443544007	47.40792213064452
4	2.0	perception	481	diff_vonmises	-0.023879295000143477	-1.3681828212560698	10.475958715199464	0.9975613287391213	0.21405803347605196	1.2667926336579505	1.0248239066457276	-0.21550908868072632	1.240332995326454	41.33693723483583
5	2.0	wm	481	diff_vonmises	0.04261123280494144	2.441443799572545	1.3343153771923983	0.792902953327013	3.6212752784033133e-10	1.1510535819331362	0.13687375313349898	-0.1609982048051472	0.2978719579386462	115.87487890629949
6	3.0	ltm	481	diff_vonmises	0.16289136405392568	9.332987679418949	3.0577378432028186	33.03205500093012	3.010030482230811	33.00773249706931	0.2107423334877474	-0.06801144027646977	0.27875377376421717	53.671441493269924
7	3.0	perception	481	diff_vonmises	-0.02095811534417946	-1.2008115557698538	4.93839832885707	1.39617056547206	0.40501877006267983	1.2215064863511658	0.9227692672839503	-0.18039067386922192	1.103159941153172	58.79151237964476
8	3.0	wm	481	diff_vonmises	-0.17185681417586085	-9.846670132840885	2.0714523672628595	47.999351076536	2.0457860745383867	47.84697894606442	0.26906728888514664	-0.04893093119427805	0.3179982200794247	68.46091410981919
9	4.0	ltm	481	diff_vonmises	0.18795992188677824	10.769310241721023	2.4738128479018546	93.5647188843046	2.4398019580831845	94.08676996703434	0.1418133751782733	-0.231152420336187	0.3729657955144603	53.605185927757304
10	4.0	perception	481	diff_vonmises	-0.0683246777495456	-3.9147156716403666	3.9905789874422295	1.6194902284910875	5.503104264585233e-19	2.6492518645115273	0.8219078313266884	-0.42121642689784755	1.2431242582245359	68.54341202306989
11	4.0	wm	481	diff_vonmises	-0.09729603328506974	-5.574652070598875	1.4808584830497464	180.89730669741834	1.4651353653181878	181.65473561670836	0.17685710300699498	-0.2463537556251758	0.4232108586321708	70.24660107845469
12	5.0	ltm	481	diff_vonmises	-0.039806600292989804	-2.280750193552542	2.3473438928295707	0.6270580659028991	4.4291089202775174e-18	0.8559468015466215	0.2198318219532962	-0.13297226755992683	0.35280408951322306	89.76267244741436
13	5.0	perception	481	diff_vonmises	-0.03328051653186462	-1.9068331372912064	1.9136814039971233	1.8752821846647076	0.028747736873134585	1.9764834714318915	0.61825160139011	-0.285086683079013	0.9033382844691231	98.10545042556487
14	5.0	wm	481	diff_vonmises	0.09874240767802162	5.657523218910813	0.8424166797843671	25.937632487784544	0.7995472987736414	26.02826641812817	0.18477407792929057	-0.0986286979464408	0.28340277587573137	101.76347107195943
15	6.0	ltm	481	diff_vonmises	0.22760565276323438	13.040843296653454	1.0496839115526446	68.99599792862902	1.034070375715728	69.19136525691138	0.13497587642242692	-0.09172292793813686	0.22669880436056378	88.06059371574077
16	6.0	perception	481	diff_vonmises	-0.2545875439749342	-14.58679178636498	0.9103460889345729	130.68346047949908	0.8948071591832666	130.93909880852053	0.3044398098489154	-0.17624538213556562	0.480685191984481	96.14499139638073
17	6.0	wm	481	diff_vonmises	-0.2448291338043535	-14.027676068833168	0.5743247412458324	116.8190448854858	0.561921819520364	116.99876200561214	0.22687527902027327	-0.1687854279061778	0.39566070692645106	119.87046665690418
18	7.0	ltm	481	diff_vonmises	0.007534642275085142	0.4317032025032273	1.2149281803413223	104.46890323781048	1.1988891084461648	104.86504159340157	0.1590645691524415	-0.14411151850377202	0.3031760876562135	79.9369409583239
19	7.0	perception	481	diff_vonmises	-0.1332949880893173	-7.637240247764459	2.311117919039609	1.7775946225519592	3.4277373088725313e-16	1.9698512165992184	0.6865563113615094	-0.3036791887918852	0.9902355001533947	90.44280452719455
20	7.0	wm	481	diff_vonmises	0.46678071248540476	26.744564783523224	0.0002897787302475183	1796.1239431227204	7.166976881017673e-25	1796.408322807691	0.037581473009879574	-0.12809033648221657	0.16567180949209614	173.39482450904916
0	1.0	ltm	482	diff_vonmises	0.10853655704585664	6.218686641608484	2.7908412846740553	0.471788743463292	3.864659314219905e-16	2.8173812861605176	-0.151950123074079	-0.4472836158570127	0.2953334927829337	82.29912017995417
1	1.0	perception	482	diff_vonmises	0.05481552722221912	3.1406983616176287	17.17475057509639	0.5770002000723753	9.41492642939327e-20	2.292188521642332	0.5819682918778978	-0.3648131337178799	0.9467814255957776	32.67321337520326
2	1.0	wm	482	diff_vonmises	0.09852481266512395	5.645055943028682	5.5381542179823935	0.4563439032779359	1.9389891004171226e-16	2.7184828801240917	-0.014925504186608762	-0.4326535224204285	0.4177280182338197	57.95491574582189
3	2.0	ltm	482	diff_vonmises	0.2044809055071454	11.715892876572823	5.432328786648502	0.5955951808917415	0.37501661150765303	1.7533744869560859	0.14756454869960328	-0.2924010976914169	0.4399656463910202	53.07597054119654
4	2.0	perception	482	diff_vonmises	0.04303066371552194	2.4654754205461367	5.915088601315848	1.4656353907987243	0.3943580029942213	2.5195180477720562	0.8165609537574968	-0.4132373545428895	1.2297983083003863	52.72058173687935
5	2.0	wm	482	diff_vonmises	0.07523850214235323	4.310848629642843	2.4132876939262045	1.1422289350567278	0.38492175114770166	2.2105864993350397	0.16093414169411002	-0.28037269364468104	0.44130683533879106	74.97132234779409
6	3.0	ltm	482	diff_vonmises	0.22125354958296636	12.676894593392468	11.011398597877973	0.3321597299421371	0.07096723600262912	1.0805797186101447	0.2500380236858124	-0.17632622842176537	0.4263642521075778	40.441797894347616
7	3.0	perception	482	diff_vonmises	-0.087429479618099	-5.009340187142126	7.05459319094955	0.8194577550549044	1.7078027087325082e-16	1.0081921812858092	0.6913155855749339	-0.16045813422489233	0.8517737197998262	51.22703832910884
8	3.0	wm	482	diff_vonmises	0.08488501999681033	4.8635533897008285	3.448996044407172	1.0563603269719117	0.6085056779262582	1.5473227002322665	0.3350504866199124	-0.20673997377659664	0.541790460396509	64.35313300619438
9	4.0	ltm	482	diff_vonmises	0.5565518293895692	31.888070904307366	39.13137480941574	0.2167308431907313	0.4451177198159853	2.1205981481109433	0.037503749699728806	-0.4705893346413567	0.5080930843410856	20.928904767743063
10	4.0	perception	482	diff_vonmises	0.19238781114694875	11.023009608480097	0.7418571367806893	4.25006449989106	7.40084063292822e-15	6.8642966406999495	0.15083729257388234	-0.8105085898536145	0.9613458824274969	139.6041102456194
11	4.0	wm	482	diff_vonmises	0.12223758841343844	7.003697913947276	1.5335572706623772	215.3960473112049	1.5085467496003953	217.4001396492148	0.06718491152882677	-0.5475883696972446	0.6147732812260713	65.19723951236341
12	5.0	ltm	482	diff_vonmises	-0.08955769088529923	-5.131277710664887	1.7149422500487614	0.9741487456928772	2.5769609788114026e-19	1.5503684703053173	0.2109928703555838	-0.23192210726070722	0.44291497761629106	104.16546343197955
13	5.0	perception	482	diff_vonmises	-0.05639726122299973	-3.2313250441747	2.1588935073418605	1.6729474048894	0.009539861999290158	2.447263870746799	0.5104756470521528	-0.37374126123106816	0.884216908283221	93.11407324728609
14	5.0	wm	482	diff_vonmises	0.11909932431933681	6.823888626357806	0.7983664024237253	110.2048915563178	0.7795862591003013	110.45800692226673	0.3193746513791922	-0.19464020433889928	0.5140148557180915	102.90048941262964
15	6.0	ltm	482	diff_vonmises	0.21496619141840892	12.316655506276208	1.1398406250158755	90.97624043487842	1.1229173465031097	91.23582064112286	0.19241640797099535	-0.1249407534639726	0.31735716143496795	84.61380629770144
16	6.0	perception	482	diff_vonmises	-0.462108682334097	-26.476877174095424	0.6662653226648204	3.0184220484756614	3.750251102928083e-12	3.378311730382896	0.30183012911261	-0.31619593772850485	0.6180260668411148	141.03255043466527
17	6.0	wm	482	diff_vonmises	0.32193858800634895	18.44572235516482	0.5953131475533292	146.61668609232746	0.5829919909060112	146.5932872580605	0.34766185031582353	-0.18599445417973293	0.5336563044955565	119.91263549705309
18	7.0	ltm	482	diff_vonmises	0.008941812033382578	0.5123280907121145	0.7830159403053544	5.334439320984457	0.4325069454754211	7.008110343377751	-0.03881508862684169	-0.363784778004112	0.32496968937727033	102.85251020409191
19	7.0	perception	482	diff_vonmises	-0.010762123860785226	-0.6166242758200327	1.1322133814914441	195.88821029294562	1.1071225077174973	196.79962648817784	0.5881164650466957	-0.40841004047707585	0.9965265055237715	84.66582574825469
20	7.0	wm	482	diff_vonmises	0.09295317227534843	5.32582446372992	0.8273181641439692	144.23295232709566	0.8093127700642666	145.6569758733974	0.06091616890651608	-0.33861902581186776	0.39953519471838383	90.64415448968475
0	1.0	ltm	483	diff_vonmises	0.010104280148438975	0.5789326075233743	2.846025194750068	0.5778361952797888	4.5557853064106433e-17	3.873083035600615	-0.24923718659558763	-0.6151817320365991	0.36594454544101146	81.49463394013361
1	1.0	perception	483	diff_vonmises	0.05254070131445031	3.0103604379754594	14.369441096321031	0.5666016720570137	0.010247308931807681	3.3556724708280377	0.3095976263792939	-0.5362182265359743	0.8458158529152682	35.65436105857455
2	1.0	wm	483	diff_vonmises	0.0001009748622051405	0.005785433441269599	3.841620004269142	0.5430942791789821	3.67481914665051e-13	3.9437232129678574	-0.21923308219190013	-0.6274749694821717	0.4082418872902716	69.89331542085094
3	2.0	ltm	483	diff_vonmises	0.08963352948035867	5.135622942085995	4.690266300043235	0.7425009631987369	0.21637052812328558	2.5299781891249817	0.12807568863540997	-0.4016721343198556	0.5297478229552656	58.23046877858263
4	2.0	perception	483	diff_vonmises	0.06524204137039695	3.738093617341659	3.561968710250284	2.0460971275332756	0.47340600431433044	4.040507189344954	0.49895214640385066	-0.5835938089613724	1.082545955365223	63.36215979889778
5	2.0	wm	483	diff_vonmises	0.09922307249195465	5.685063284109618	3.3457291549759454	0.7507464692897646	0.055083552616424655	2.4737263172312853	0.10724818280001747	-0.3802171511469566	0.48746533394697406	72.25861833427825
6	3.0	ltm	483	diff_vonmises	0.08131605814366458	4.659066938272388	4.384113066538731	0.5486077513554741	4.157319029522155e-18	1.9758967484321888	0.1288212025851866	-0.314404747440779	0.4432259500259656	65.31593356305515
7	3.0	perception	483	diff_vonmises	-0.028994895419268037	-1.6612851349472622	5.096685271293023	1.4738593185910036	7.724047741439688e-15	2.721257429277553	0.857925224858333	-0.43305325562200553	1.2909784804803386	60.467258395844254
8	3.0	wm	483	diff_vonmises	0.0005244806954258184	0.030050530283985775	2.390450590800333	1.4679977721403317	0.3122617586886753	3.0243447776062045	0.20061434822638402	-0.3946187520174213	0.5952331002438054	76.68368143505046
9	4.0	ltm	483	diff_vonmises	-0.18020506527207453	-10.32498968696939	2.5034290455442365	0.8306530636906273	0.0035686864961267375	3.308020208861955	-0.03843883047019586	-0.5213317858481376	0.4828929553779417	86.5534424962327
10	4.0	perception	483	diff_vonmises	0.08094125207611616	4.637592132465969	0.8423838196906629	73.30979336650017	0.7627559942983813	76.25833993003556	0.2402556890241918	-0.7461927128996324	0.9864484019238242	93.10386604570746
11	4.0	wm	483	diff_vonmises	-0.011165896343102897	-0.6397587349403557	1.7996313951710854	2.3034769327147377	0.3991518345812646	5.124335599726902	-0.05405328202353599	-0.6000947340293211	0.5460414520057851	78.84812994928004
12	5.0	ltm	483	diff_vonmises	0.0027483718551381034	0.1574701078319538	1.2832282116451132	1.9575265889158642	0.10788803262814058	2.860552333700235	0.26640424144815644	-0.3482220270302062	0.6146262684783627	111.25966006955075
13	5.0	perception	483	diff_vonmises	-0.030717802044804527	-1.7600004130856295	2.2134581769669466	1.8197308622274346	1.773439609770062e-15	3.124986187974529	0.5004273765697163	-0.4854317288928888	0.9858591054626051	92.39051872372275
14	5.0	wm	483	diff_vonmises	0.08573215642376132	4.912090731636913	0.4683829218174243	217.8618767663654	0.4566215589645808	218.90632291256284	0.22666179445111823	-0.3984880400482922	0.6251498344994104	126.18749332921887
15	6.0	ltm	483	diff_vonmises	0.3729471488907627	21.368297612877825	0.7251254888575404	159.21433058842936	0.7128214232739977	159.84058046471733	0.19391466440712435	-0.22619404245512698	0.4201087068622513	103.42086000895551
16	6.0	perception	483	diff_vonmises	-0.14376501097566224	-8.237128370557404	1.2039393740461912	1.7851727724186817	3.482816681273779e-13	2.8062128677190086	0.23149418623100393	-0.38558679474601537	0.6170809809770192	120.43719451009727
17	6.0	wm	483	diff_vonmises	0.251557575111077	14.413187358409914	0.4315305080807931	177.0785170221095	0.42151813762182955	177.6915175692443	0.18474349313797944	-0.2740766166684949	0.45882010980647436	130.47466835936115
18	7.0	ltm	483	diff_vonmises	0.03824506948426895	2.1912810686331867	0.35210051718950663	49.313268120601364	0.30730373086214696	51.27574185596007	-0.016396684236585912	-0.5105017102946858	0.4941050260580999	137.25721772172423
19	7.0	perception	483	diff_vonmises	-0.022256011096421394	-1.2751755046212738	0.9623515791914826	288.6123613254693	0.9442164193410982	289.76291087303866	0.6127356518890821	-0.4820719718125268	1.094807623701609	91.33193755496143
20	7.0	wm	483	diff_vonmises	-0.04780382451978933	-2.738957389567928	1.0026691334494637	232.79902723532527	0.9855687013023862	234.49414218376532	0.1788473739880203	-0.44189943849196567	0.620746812479986	83.87361925127146
0	1.0	ltm	484	diff_vonmises	0.11308239684146974	6.479144076239727	2.492813189156019	0.40660461711715906	5.762436098064532e-16	1.0717595197820253	0.0686353198844254	-0.1689404136946719	0.23757573357909728	87.11313869017727
1	1.0	perception	484	diff_vonmises	-0.029297349004778584	-1.6786144488956156	17.46723719012247	0.527377065993609	3.731898759934539e-25	1.215965454722908	0.6790854130106212	-0.19352691274813447	0.8726123257587557	32.40108053036951
2	1.0	wm	484	diff_vonmises	-0.0069331597427949015	-0.3972407919521552	7.1440094471024915	0.3279158494529157	0.1056930362610732	1.0102878564408446	0.16481349702829373	-0.16320202088553126	0.328015517913825	49.65495324661026
3	2.0	ltm	484	diff_vonmises	0.17916789843151057	10.265564404354159	2.0214159297053538	42.18373853088778	1.9689173815394245	42.504727037967385	0.1816406333093603	-0.1538521641507069	0.3354927974600672	61.92974433737629
4	2.0	perception	484	diff_vonmises	-0.020905603901632083	-1.1978028717357454	6.978666068643066	1.0877065517040347	0.48226136118345064	1.31196419254085	0.8048291679790064	-0.22205878801253429	1.0268879559915407	49.178093787702494
5	2.0	wm	484	diff_vonmises	0.09965569240195758	5.709850579086115	2.837447889303301	0.5684875332594836	0.13705785790366243	0.8071373291584076	0.2139902420955536	-0.11431964726554035	0.32830988936109395	77.85030425800346
6	3.0	ltm	484	diff_vonmises	0.11259758324961978	6.451366303576147	2.37560521833524	39.8595778863252	2.3211187251983696	40.00101695788816	0.23170865806774188	-0.12461286622631107	0.35632152429405295	58.82729519980623
7	3.0	perception	484	diff_vonmises	-0.06814435042192489	-3.9043836768368267	6.5673697259574	1.0143053950273193	4.200254429700786e-12	0.9580912686126892	0.8631503388777355	-0.15248295500919248	1.015633293886928	53.12686880698163
8	3.0	wm	484	diff_vonmises	-0.060262187926747535	-3.4527690324268585	1.8210029143487083	119.88412168811755	1.8053165337478865	119.91813286314958	0.29008153537044734	-0.10433817288244462	0.39441970825289197	69.27944126292402
9	4.0	ltm	484	diff_vonmises	0.0783593168110406	4.489658138801147	2.2374689490296698	94.8091673941337	2.2083471411493973	95.27362635712464	0.15361568774090273	-0.20115580467096628	0.354771492411869	57.07026913655281
10	4.0	perception	484	diff_vonmises	0.013749893958217895	0.7878108925583153	2.837320335515933	1.7537131097059804	4.950383293768837e-29	3.050313081725334	0.6270176472473761	-0.48165429959413264	1.1086719468415087	81.61720859393029
11	4.0	wm	484	diff_vonmises	0.057582363646976206	3.2992264113592755	1.5453962843205191	196.73100299370867	1.5289899040905164	197.62077199967803	0.17029463304248793	-0.28312762823024684	0.4534222612727348	68.08581437770766
12	5.0	ltm	484	diff_vonmises	-0.021092920146605198	-1.2085353020069436	1.714875129436028	0.9724239093515749	2.312104229985384e-16	0.9603440017788958	0.30407367745986824	-0.13804131312926193	0.4421149905891302	104.18565880091444
13	5.0	perception	484	diff_vonmises	-0.06721251140588583	-3.850993234032165	2.0328502999402636	1.64448550279161	2.7921552176489333e-14	1.8949050944854238	0.5551661388108946	-0.2868892236539171	0.8420553624648117	96.2635927630019
14	5.0	wm	484	diff_vonmises	0.17122349966893416	9.810383884489577	1.7233994903277332	0.8494972339973244	7.746575752743227e-17	0.7686342777693064	0.278032810052196	-0.10958112053146277	0.3876139305836588	103.87306448662153
15	6.0	ltm	484	diff_vonmises	0.0839624411308529	4.810693514413502	2.518812738543524	0.5510143202786706	5.921595797840491e-14	0.4867844175337231	0.2487005819883023	-0.07535749503553034	0.32405807702383266	86.66314038716465
16	6.0	perception	484	diff_vonmises	-0.3302523721223608	-18.9220670967952	2.2476970196992316	0.9709675176606217	4.497905028028895e-16	1.222394593736372	0.34275815488543104	-0.1885536048666028	0.5313117597520338	91.59780372344483
17	6.0	wm	484	diff_vonmises	0.07284272242904084	4.173580563426981	0.5458434353555331	97.5892950850464	0.5331456481150663	97.37271740191349	0.2877020677921145	-0.11606972491978951	0.403771792711904	126.20889204677951
18	7.0	ltm	484	diff_vonmises	-0.1447279283692821	-8.29229947323156	0.8177844462927861	104.62854332431144	0.7998182205956639	105.15609568645266	0.19877789691142667	-0.19791174656757704	0.3966896434790037	98.0850105963478
19	7.0	perception	484	diff_vonmises	-0.08673681522038841	-4.969653440534337	2.180052784463807	2.443016435316269	0.3041620149344388	3.20457756676813	0.6518153207171627	-0.37860812534894417	1.030423446066107	83.63013326355735
20	7.0	wm	484	diff_vonmises	0.24737512764304972	14.173550770456773	1.0997351300753928	77.30954445020285	1.0783195386327042	77.78579006746487	0.14060452808856283	-0.15549624324514078	0.2961007713337036	83.27904310471942
0	1.0	ltm	485	diff_vonmises	-0.063765354145534	-3.6534856716961257	6.010548152264114	0.34570280525917163	0.058376423539325754	1.9028504031596352	0.00962912811510841	-0.3034606244292403	0.31308975254434873	53.95296563130148
1	1.0	perception	485	diff_vonmises	-0.03792355712598014	-2.17285976744194	15.348491820571692	0.6269771355237538	7.70897323186104e-18	2.365657141458278	0.595129471553518	-0.37650602772368275	0.9716354992772007	34.57568365985884
2	1.0	wm	485	diff_vonmises	-0.017360834319297098	-0.9947025353215991	10.020936820976202	0.2766127662631327	3.8340455511075355e-16	2.150097234401036	0.0025599676131221605	-0.3421986023016789	0.3447585699148011	42.875670547701134
3	2.0	ltm	485	diff_vonmises	0.06951912264618591	3.983152323078796	2.3851682989734595	1.9032912041535661	0.9927242329023167	2.6330747299496493	0.1949287626255154	-0.243372118394013	0.43830088101952835	66.68144889322141
4	2.0	perception	485	diff_vonmises	-0.03777351610336834	-2.164263050092457	6.358653696478668	1.1191131675418686	0.2636425690514699	1.9902899616918195	0.6965273804561894	-0.3241493846909247	1.020676765147114	51.866686719875446
5	2.0	wm	485	diff_vonmises	0.1060266212583894	6.074877914137765	2.5670868681444126	0.6568267349001572	3.1422420572948378e-21	1.5214253957227037	0.15102189539295915	-0.23982587058240554	0.3908477659753647	85.83839086631514
6	3.0	ltm	485	diff_vonmises	0.0014148066179974455	0.08106244803843132	2.2238342075479256	2.490938357413117	1.3266899091638187	2.761967533932442	0.2585108148098114	-0.15327009812746087	0.41178091293727226	67.5937683258339
7	3.0	perception	485	diff_vonmises	-0.025828239078093874	-1.4798490914296434	3.5364904633025116	2.414648004847503	0.6272349141110688	2.8112745638850147	0.9735719369520157	-0.36099594759624987	1.3345678845482656	65.06398938026402
8	3.0	wm	485	diff_vonmises	-0.19467544013470545	-11.15408109457034	1.4744384228416805	160.5759406241654	1.45839039782034	161.04259629351287	0.25519641968389806	-0.19699891596773966	0.4521953356516377	73.02416455486667
9	4.0	ltm	485	diff_vonmises	-0.025210098072142074	-1.444432220644634	1.5208842192511614	159.12990015827864	1.5007646263603729	159.80772375549466	0.26506803059130846	-0.2550861682454091	0.5201541988367175	70.86763564329897
10	4.0	perception	485	diff_vonmises	-0.07602823078348382	-4.356096747740227	3.684802487597276	1.836032049578849	1.2176937790572855e-09	3.0846577236501402	0.8584281300980148	-0.4900881439147061	1.348516274012721	71.40972317135476
11	4.0	wm	485	diff_vonmises	-0.17330359017651292	-9.929564291579064	1.1589704167710615	279.1822962152384	1.1456573771163217	280.43270143644435	0.22975948801220625	-0.36346518760041135	0.5932246756126176	79.24345793468319
12	5.0	ltm	485	diff_vonmises	-0.003997045607031796	-0.22901384380422807	1.9468165740953591	1.0795442958451087	2.244244399432933e-22	1.3093121108207773	0.33951992229891226	-0.197221697330779	0.5367416196296912	98.2667783932888
13	5.0	perception	485	diff_vonmises	-0.010595982813196542	-0.6071050949893189	2.0992507817118087	1.9305344362938193	1.488801025503567e-20	2.4198286247823355	0.640275613967015	-0.36972659489631543	1.0100022088633305	94.79863849974143
14	5.0	wm	485	diff_vonmises	0.07062809155435404	4.0466915611280605	0.35756382745435916	81.30875322699329	0.3387160630632125	81.80045699610957	0.17102311996658415	-0.24995439906075845	0.4209775190273426	139.69882306633906
15	6.0	ltm	485	diff_vonmises	0.22651417603396676	12.978306286629675	0.7799908901247133	44.26269351619177	0.7546912008538382	44.380796313220316	0.17899101429323494	-0.105910498735998	0.28490151302923294	104.68403484050012
16	6.0	perception	485	diff_vonmises	-0.11020690677034391	-6.314390631132444	0.7933779258873619	182.4901468380563	0.7801937981993063	183.0625049998621	0.287832855389901	-0.24832057999267576	0.5361534353825768	100.49691367361086
17	6.0	wm	485	diff_vonmises	-0.08644451236967343	-4.952905720848727	0.6091907530276568	60.96864925638032	0.5884394022862841	61.16968704618156	0.1864857057210294	-0.14673050926149678	0.3332162149825262	116.78742224951296
18	7.0	ltm	485	diff_vonmises	-0.02349581415446307	-1.346210987274475	0.5451525081859457	72.60860618203331	0.5237862717769399	73.07898304579676	0.17324384650941127	-0.21114069440498895	0.3843845409144002	120.33791640791522
19	7.0	perception	485	diff_vonmises	-0.10678991291819821	-6.1186113047823465	0.8930272904969397	257.9231693766667	0.8777862274918502	258.5310280996717	0.5555876715458794	-0.35398466587761135	0.9095723374234908	96.43146308215587
20	7.0	wm	485	diff_vonmises	0.11546522144611218	6.615669869405668	0.9605174539518253	72.46240900103139	0.9371254901274554	72.90169681166454	0.17703417882789552	-0.16252174537036357	0.3395559241982591	90.60488283817963
0	1.0	ltm	486	diff_vonmises	0.13512875720356665	7.742307478612389	0.8043277956255883	1.0994302143621686	3.193743944052812e-30	2.570959312399442	-0.07443902557091531	-0.34217902581850423	0.2677400002475889	136.93937238575407
1	1.0	perception	486	diff_vonmises	-0.025405964469330185	-1.455654538551946	12.911750991525764	0.5644329034834215	1.0781471920963455e-22	2.216884024076601	0.44784521860666643	-0.35282805068835904	0.8006732692950255	37.73447290833829
2	1.0	wm	486	diff_vonmises	-0.023473510675926804	-1.3449330920858862	8.956921142355027	0.2998389037331631	6.909693673972874e-29	1.8914196994866144	0.051633644861276806	-0.30102878877846256	0.35266243363973937	45.38557275898515
3	2.0	ltm	486	diff_vonmises	0.06701477146813127	3.8396635701576494	4.53260085400981	0.5613258126909279	0.3064910053756933	1.5205176029636776	0.14061441450387857	-0.23993177774179353	0.3805461922456721	58.47507262771762
4	2.0	perception	486	diff_vonmises	-0.01028378501775871	-0.5892174789374424	6.321652052697051	1.1004557932279022	0.2053871549516994	2.169725536998452	0.6603337260200746	-0.3505466855764199	1.0108804115964944	52.28443578741113
5	2.0	wm	486	diff_vonmises	0.17044023313536066	9.765506017881972	1.531013570952133	0.8810590188749102	5.584124157853084e-32	1.7497986155257093	0.10790382383625258	-0.2604082504806598	0.3683120743169124	109.39254396967706
6	3.0	ltm	486	diff_vonmises	0.00826427527269762	0.4735080938599011	3.1399375682541892	0.6837675958922002	0.440983825956354	1.220328928128268	0.17183253033903284	-0.1662251775210435	0.33805770786007633	67.73673636182068
7	3.0	perception	486	diff_vonmises	-0.008771523380363277	-0.5025712695951409	3.5505886697506295	2.5108075393251363	0.5522711095840827	3.121059893098725	1.0069883269207436	-0.41307000930813725	1.4200583362288808	65.35774206280928
8	3.0	wm	486	diff_vonmises	-0.18735442547634656	-10.734617852892967	1.311881743249786	161.9588278392524	1.296138737309377	162.5162769503203	0.24196004450513442	-0.2103843872812412	0.4523444317863756	76.98570452056785
9	4.0	ltm	486	diff_vonmises	0.0460454677701888	2.638210968937476	3.3340131072826993	0.8871456127574361	0.5002153543030677	1.8185301973960917	0.16794957340562938	-0.2580105138004035	0.4259600872060329	64.15302813073919
10	4.0	perception	486	diff_vonmises	-0.047225174340065436	-2.7058031764552624	3.3168445743822983	1.9083653909276248	0.11621023990593961	3.5367467673137685	0.6927132818157639	-0.5240804995989475	1.2167937814147114	72.13308299047625
11	4.0	wm	486	diff_vonmises	-0.11312142197832657	-6.481380051876544	1.1383466788434586	276.32823757232256	1.12514070881106	277.7312558665256	0.1680318829817793	-0.3781508802893896	0.5461827632711689	78.68919591531835
12	5.0	ltm	486	diff_vonmises	0.04546231301318299	2.6047986625580655	1.183710823527523	1.7669137771804897	0.12184591607851099	2.1234792082666774	0.2842195364521054	-0.23579874116703103	0.5200182776191364	115.18945239193698
13	5.0	perception	486	diff_vonmises	-0.01753046208944259	-1.004421490639151	2.031535058988026	1.8754823100116251	2.0671034932260879e-16	2.449345009592832	0.5868948804679885	-0.3730295436070155	0.959924424075004	96.2985207788814
14	5.0	wm	486	diff_vonmises	0.12350994653728957	7.076598664473129	0.43910908857747355	112.57066283043879	0.42475031605477487	113.11611004000264	0.17154560422577703	-0.24745582132300825	0.4190014255487853	130.32442820588352
15	6.0	ltm	486	diff_vonmises	0.3605931321745075	20.660464595002335	0.7462542299371588	103.99887171047726	0.7328131946047731	104.29127846311405	0.18174562215457613	-0.1464137951817781	0.32815941733635423	104.3869068467265
16	6.0	perception	486	diff_vonmises	-0.09644011696793778	-5.525611678010832	0.8816552730083405	187.1085967574398	0.868115078599787	187.71211832755276	0.29190469719505074	-0.2471846753738305	0.5390893725688812	95.096353078998
17	6.0	wm	486	diff_vonmises	-0.1371427488901762	-7.85770070222955	0.5316137542045266	105.93617060750046	0.5176462454919162	106.3593165381135	0.1717584176743543	-0.20085727988776547	0.37261569756211976	121.52388631334385
18	7.0	ltm	486	diff_vonmises	0.0859097616980315	4.922266764271857	0.9838742333352462	1.6645033678073131	0.060153058306406326	2.3005202905244855	0.1752086414459031	-0.26566378330263335	0.44087242474853644	125.3848766841695
19	7.0	perception	486	diff_vonmises	-0.11458007499862877	-6.56495471371387	0.9695861156348237	258.21622649232125	0.9519945493695662	258.6709956031853	0.7106575314643635	-0.3712991506702856	1.0819566821346491	93.74183884336726
20	7.0	wm	486	diff_vonmises	0.005049160245176706	0.2892955721338652	1.0202888496044848	111.36974919134501	1.0014271510760662	111.989803581097	0.18494259278516978	-0.20356114247289625	0.38850373525806603	86.62071553666885
0	1.0	ltm	487	diff_vonmises	-0.2507738710132041	-14.368284421214687	12.576358022312451	0.17793492081793846	0.007088489255347262	2.8819028837972733	-0.21285035602667515	-0.4598815353257206	0.24703117929904547	38.0462130526966
1	1.0	perception	487	diff_vonmises	0.04610982668854363	2.6418984633332347	11.89147591660339	0.8354666972186355	1.2644231144697296e-21	3.374932605862497	0.5993892890981019	-0.5371372067716972	1.136526495869799	39.32751239324199
2	1.0	wm	487	diff_vonmises	0.13409098848050544	7.682847710670301	12.639002134793337	0.31408647058915085	7.570420389634342e-19	3.317724666412901	-0.08722332870385302	-0.5280322804728849	0.44080895176903184	38.13658722483501
3	2.0	ltm	487	diff_vonmises	0.07517822134915324	4.3073947946067825	2.845228006958274	0.9999198513947544	0.4590607821635242	2.281365748997358	0.0898157492170154	-0.31276919127644415	0.40258494049345955	67.48106067017889
4	2.0	perception	487	diff_vonmises	-0.00771255708399579	-0.4418969701666839	8.50444733798578	1.2332814220754462	0.13990118389121164	2.457941267588612	0.96437281694371	-0.40330983277681226	1.3676826497205223	45.76572572776746
5	2.0	wm	487	diff_vonmises	0.05501608664409433	3.152189570032662	2.4926125525762233	0.810638065434464	3.7703031900747185e-20	2.176240169579307	0.13056507004880635	-0.3430979998347055	0.47366306988351187	87.12013977767128
6	3.0	ltm	487	diff_vonmises	0.18003433567494637	10.315207601615977	8.29089624972943	0.36085945254144364	0.09357068625257871	0.7544634271177538	0.27627311655260006	-0.12200483164693342	0.3982779481995335	46.55814768848742
7	3.0	perception	487	diff_vonmises	0.010905882385383809	0.624861032548559	4.758040361879318	1.2943569507484198	0.14924650553730018	1.4588694405343843	0.8248557129882411	-0.22178974573475066	1.0466454587229919	61.149033110276434
8	3.0	wm	487	diff_vonmises	-0.06192412246505527	-3.5479908672989144	1.5611817279746791	84.34570794667246	1.5343330322959925	84.59107011522393	0.284381837897584	-0.1532908298936171	0.43767266779120106	72.87506983400408
9	4.0	ltm	487	diff_vonmises	0.05410971235977988	3.1002581488822534	1.9317376160294446	3.349005813207487	0.9064203530330839	4.726944067468161	0.16049006798567844	-0.38121177149846797	0.5417018394841464	70.63093288158905
10	4.0	perception	487	diff_vonmises	-0.08591991806668468	-4.922848681330864	3.074417680380315	1.9181262326349668	3.247574051885597e-17	3.5976117639651943	0.7013448140053141	-0.5698566227356593	1.2712014367409734	78.34732211052048
11	4.0	wm	487	diff_vonmises	-0.1700010380589065	-9.740341993618223	1.2859989688347246	370.79422611364737	1.2737130631238434	372.19611619549977	0.28041230230391534	-0.42310475071779763	0.703517053021713	75.22060569826522
12	5.0	ltm	487	diff_vonmises	-0.10772621683363799	-6.17225756747862	2.2936654296495242	0.8022015895304287	1.939218131805601e-21	1.5828994395408489	0.1973753020583386	-0.24735228809290558	0.4447275901512442	90.78361281458626
13	5.0	perception	487	diff_vonmises	0.0015868561818765357	0.09092016191576965	0.9844567816627992	26.897027977788593	0.8140561965957038	27.569970635627495	0.6663818545876001	-0.41020290931007364	1.0765847638976738	95.92211137616863
14	5.0	wm	487	diff_vonmises	0.04482053264159853	2.5680273558919384	0.6892222502885171	141.0925380714511	0.6758594931077437	141.65343274023436	0.20200988983336288	-0.2208943702933137	0.4229042601266766	106.786909947998
15	6.0	ltm	487	diff_vonmises	0.28406317149163235	16.27562084157146	1.126925117947067	88.92127922403154	1.1105310835431526	89.33627063919012	0.12186053760582638	-0.13536625227755827	0.25722678988338465	82.09406496147656
16	6.0	perception	487	diff_vonmises	-0.2589721236475542	-14.838009696544956	0.4423855331512784	166.7691689283955	0.43062170295022034	167.27544390376707	0.24423807477517556	-0.2835994419328678	0.5278375167080434	130.42680908040805
17	6.0	wm	487	diff_vonmises	-0.04273853861348992	-2.4487378851098733	0.7970400739566604	110.75500814070152	0.7826385877803714	111.05410011672545	0.21476333458082308	-0.15783811247731627	0.37260144705813936	101.42913446798966
18	7.0	ltm	487	diff_vonmises	0.09554010656644267	5.474044880487288	1.3789699023625208	1.251460753555004	0.32806188401299907	2.10547558574285	0.062293820594753246	-0.2117888577062253	0.27408267830097854	93.52563476458306
19	7.0	perception	487	diff_vonmises	-0.10477112101598458	-6.002943049070319	2.274590785197509	1.7108934687026451	0.08270718417878523	2.1083311444554482	0.5896426328192479	-0.29836713615660276	0.8880097689758506	88.36209335180689
20	7.0	wm	487	diff_vonmises	0.21825931255309217	12.50533744871889	0.766418099079465	1.4397725159813217	4.2494486866220636e-16	1.9962808408473411	0.11021547054728043	-0.22531227111520047	0.3355277416624809	138.3394737370115
0	1.0	ltm	488	diff_vonmises	-0.03657473461236964	-2.0955779300998314	3.4547241920606697	0.3430071949479326	5.033787026570466e-20	2.6821751183758926	-0.18363107847125376	-0.4266385871431675	0.24300750867191373	73.80748265405572
1	1.0	perception	488	diff_vonmises	0.048231227091070125	2.7634457530553567	12.371757391867316	0.6448312010731513	0.06766130395453898	3.0662377931376925	0.37367692846010525	-0.5025766229674825	0.8762535514275878	38.07295876050151
2	1.0	wm	488	diff_vonmises	0.08068847933248045	4.6231093210797	6.373719363648692	0.3958515712614166	0.0013342253724385978	2.9210967157881798	-0.07536884285529954	-0.4646223708611508	0.3892535280058513	53.86966473357458
3	2.0	ltm	488	diff_vonmises	0.07388886934775118	4.2335203666196985	3.4527159534096095	0.767190773089562	0.32492571789479757	1.9560602360547987	0.12419129712420485	-0.2895240646837129	0.41371536180791774	65.11640922231356
4	2.0	perception	488	diff_vonmises	0.015215801091004314	0.8718011844251007	6.265707878369688	1.3097744472337272	0.3335790679430299	2.7504280326641366	0.6851608591519837	-0.4570691813243032	1.1422300404762868	51.35783741251262
5	2.0	wm	488	diff_vonmises	0.11247428678740651	6.4443019366624315	3.350061198364971	0.67167663087779	0.0016150320827169353	1.8380588205065431	0.17516399969625046	-0.2914875717543074	0.46665157145055786	74.89455604398455
6	3.0	ltm	488	diff_vonmises	0.04708240937090583	2.6976233462601016	3.892777661757082	0.81457787784196	0.5289330671816767	1.5318822704331887	0.23075017211053278	-0.22655677468696653	0.4573069467974993	60.80845411460473
7	3.0	perception	488	diff_vonmises	-0.016664971507780565	-0.9548325331015943	4.923417552603057	1.5090204484594243	0.21546703167773068	2.087493939495458	0.8904189563818999	-0.3201387925677733	1.2105577489496733	59.29976304135795
8	3.0	wm	488	diff_vonmises	-0.03568711249183621	-2.0447209287908135	1.2187453146462506	165.4520687213501	1.2032057473035433	166.08619608631486	0.23335174933567515	-0.2236760896167702	0.45702783895244536	79.49834053062648
9	4.0	ltm	488	diff_vonmises	-0.0719049958601932	-4.119852788694726	1.2110164327432822	167.51380690670692	1.1906168186399042	168.95175805003478	0.08846723737118367	-0.3675152611380206	0.45598249850920425	74.7068988973123
10	4.0	perception	488	diff_vonmises	-0.02306164185839865	-1.3213347471284793	4.0224064442234635	1.4021463464643882	1.53734089422547e-16	3.318807833703048	0.5530687151429254	-0.5278577972138145	1.08092651235674	68.26763152691936
11	4.0	wm	488	diff_vonmises	0.02321138899166724	1.3299146258589525	1.079918186159613	262.49745542258705	1.066780112455931	264.07382368069443	0.0891423297888565	-0.3899505487067394	0.4790928784955959	79.08531516653568
12	5.0	ltm	488	diff_vonmises	-0.11230789394622585	-6.43476832912159	1.68586426026277	1.1268758819527123	9.04787365372683e-18	2.1554821180476926	0.1809428175815247	-0.32506489205701233	0.506007709638537	104.95865502479398
13	5.0	perception	488	diff_vonmises	-0.06246823502977522	-3.5791662208374064	1.2776292189916003	4.948479020717421	0.4523121082625576	6.169971297577196	0.47904675558022225	-0.45965009003522034	0.9386968456154425	96.3335617578102
14	5.0	wm	488	diff_vonmises	0.11758950850004218	6.7373825520701365	0.4840031353443074	152.80438435217917	0.47169016699733385	153.66569289858313	0.1424188114520959	-0.29727717935427656	0.43969599080637245	123.73233810067896
15	6.0	ltm	488	diff_vonmises	0.10980214587367491	6.29119954004138	0.761982282483627	113.2867951125818	0.7461002233414392	114.09368000941785	0.10679002433440843	-0.22329500688159598	0.3300850312160044	97.73792265755122
16	6.0	perception	488	diff_vonmises	-0.21054441654425451	-12.063306468030168	0.6676267960146607	134.63253938720098	0.6464485279347769	135.75025653678048	0.23551474770110303	-0.3643619350346814	0.5998766827357844	106.8039337280449
17	6.0	wm	488	diff_vonmises	0.16691093256401915	9.563291990510994	0.5338798065660235	149.95565177210688	0.521689023384918	150.70050472608523	0.15624821449577553	-0.26696882791291365	0.4232170424086892	119.14361554487621
18	7.0	ltm	488	diff_vonmises	-0.06520575002831631	-3.736014276607573	0.7436350745998552	91.9887765171851	0.7178692573141562	93.39311635825942	0.04784836159243966	-0.332004163846193	0.3798525254386327	95.81286934539168
19	7.0	perception	488	diff_vonmises	-0.054964336823806526	-3.14922452373961	1.8563733752813343	2.768811224752868	0.2001354366803678	4.08002339755738	0.5799462981978684	-0.5007346954483641	1.0806809936462325	91.52842393393325
20	7.0	wm	488	diff_vonmises	-0.032613440583233254	-1.8686125008199435	1.038699210476714	188.8513653691863	1.023928464001182	189.89796177018215	0.16380926524283268	-0.29153670968283407	0.45534597492566675	83.47560477527367
0	1.0	ltm	489	diff_vonmises	-0.06312283486202135	-3.6166720284950813	4.658597272152821	0.3704969009068994	0.02570080620754176	3.73284906583786	-0.3001527092233761	-0.5910903549342644	0.2909376457108883	61.209377036374946
1	1.0	perception	489	diff_vonmises	0.028036391305640215	1.6063668945904601	13.526596683504822	0.6216871857781142	3.5405624464267516e-17	3.696420048923974	0.3148528157601377	-0.5883035225286255	0.9031563382887632	36.85375101845125
2	1.0	wm	489	diff_vonmises	0.046941701347159116	2.689561370355788	7.4706060663014116	0.3514980986985395	4.940100187571536e-23	4.134114228643811	-0.28158880012890714	-0.6579645926627453	0.3763757925338382	49.76042610408865
3	2.0	ltm	489	diff_vonmises	0.025163932525519458	1.4417871296642437	3.986692066494292	0.8475032318129794	0.2812801752795042	2.583436393007537	0.11624485315904098	-0.399896001610212	0.516140854769253	61.46297896642082
4	2.0	perception	489	diff_vonmises	0.008607233262296827	0.4931581392142273	5.399180600385732	1.4177323725219564	0.2682590581740162	3.4015197311404233	0.5849588110071554	-0.5470775514187743	1.1320363624259298	55.15489866294291
5	2.0	wm	489	diff_vonmises	0.08763606305474106	5.021176546179023	3.763027928334644	0.6539163978209587	2.779208255281557e-12	2.532155885748918	0.08321287588913973	-0.4027431226149874	0.48595599850412713	70.64077152264343
6	3.0	ltm	489	diff_vonmises	-0.028370975604903367	-1.6255371628295807	3.8920671167231964	0.6041384873619603	1.1663470375434093e-16	1.600853872018478	0.2027777361115845	-0.25459329804245956	0.45737103415404406	69.43241771922621
7	3.0	perception	489	diff_vonmises	-0.02333460907573771	-1.3369746166274374	4.376625818710573	1.8707567365342617	0.23703081681581784	2.9601577784849553	0.9214096082321903	-0.44655857669365684	1.3679681849258472	62.111748067560455
8	3.0	wm	489	diff_vonmises	-0.13299965890129795	-7.620319131723924	1.2536874324612342	224.38358103727364	1.2376944309630273	225.59857995073327	0.1891051475356278	-0.3478038476574099	0.5369089951930377	75.53731445971252
9	4.0	ltm	489	diff_vonmises	-0.13856050214165802	-7.938931979930409	2.3969939459076794	1.1786478820102229	0.15498630926760804	3.1494753532075896	0.09584620398357269	-0.4455904865623238	0.5414366905458965	80.12092744617914
10	4.0	perception	489	diff_vonmises	-0.05377428798255993	-3.0810397477217464	2.1945740388114765	3.194579931960975	0.3348178658702126	5.528004617420468	0.5467651329203149	-0.6751048287320461	1.2218699616523612	80.11518705194572
11	4.0	wm	489	diff_vonmises	-0.15517996789517632	-8.891157225369216	1.6627003560451885	2.308615699827576	0.377679279753479	4.707565111951215	0.009463714690542524	-0.5260879419451763	0.5355516566357188	82.98801987705346
12	5.0	ltm	489	diff_vonmises	-0.018635537596870817	-1.0677376532580665	2.0411457867713745	1.2368746482196107	1.5556673701470665e-17	2.10006301450343	0.3117447945067554	-0.32333849001672504	0.6350832845234804	96.08087389125595
13	5.0	perception	489	diff_vonmises	-0.020715178710008234	-1.1868923119427288	2.270182630145475	1.8876774620395724	2.4179216429356935e-09	3.020092136115438	0.5701374814202921	-0.4694507995497613	1.0395882809700534	91.25322111584921
14	5.0	wm	489	diff_vonmises	-0.056680355892423435	-3.2475451739353294	0.4368502185605653	241.65298318102467	0.426593532297165	242.76696924156892	0.19803277992264157	-0.40688430190926184	0.6049170818319034	129.09223530531938
15	6.0	ltm	489	diff_vonmises	0.3018444112468994	17.294410834058496	0.7014305774412497	124.9507116624112	0.6882664017467113	125.48206742932423	0.16342327927571176	-0.19410313021311154	0.3575264094888233	105.2188014438224
16	6.0	perception	489	diff_vonmises	-0.09123700525200572	-5.227495336352853	0.6571261608008654	170.83653968452361	0.6426998192803474	171.6785078061566	0.23800058074752428	-0.30630963346244755	0.5443102142099718	108.55883927594714
17	6.0	wm	489	diff_vonmises	0.251803052717477	14.427252189221607	0.25417898341985673	111.92827988326945	0.24248567551338923	112.44489460336915	0.12728151646108898	-0.24331527160307864	0.3705967880641676	149.7602141906567
18	7.0	ltm	489	diff_vonmises	0.030327447729886606	1.737634758326112	0.6091096207217067	161.19075268268205	0.5963029052326178	162.447599195786	0.057928593986034116	-0.3159067237806177	0.3738353177666518	106.7465770810361
19	7.0	perception	489	diff_vonmises	-0.11093084816727361	-6.355869417791321	0.8386314669526292	197.1496862205532	0.8181179339893673	197.9579875845859	0.5238118201978921	-0.39335268316149374	0.9171645033593858	98.72521202102556
20	7.0	wm	489	diff_vonmises	-0.12636829715332948	-7.240370091140834	1.0199075536471098	128.12528969155542	0.9987028885679939	129.1650482878437	0.15848358012901542	-0.2879000933730964	0.44638367350211183	84.34071252402993
0	1.0	ltm	490	diff_vonmises	-0.0011530388926511551	-0.06606426216334918	9.96597334691116	0.5579461085107612	0.1486922996205169	4.633347699161985	-0.15749744501168417	-0.788945896160886	0.6314484511492018	40.9271274242752
1	1.0	perception	490	diff_vonmises	0.044341268465601866	2.5405675413355144	15.058549148901363	0.6891181800327555	1.5992089577640822e-20	4.489420560406085	0.342671687641422	-0.7145134738069273	1.0571851614483494	34.91659291128357
2	1.0	wm	490	diff_vonmises	-0.11150359351735303	-6.388685309086615	0.00033439293984113643	3324.701919254749	3.5536744101788474e-29	3329.865190060302	-0.6448077556678982	-0.9986828054965144	0.3538750498286163	179.62646224970518
3	2.0	ltm	490	diff_vonmises	0.13974949320329888	8.00705614964121	6.73615724159948	0.7229052523863612	0.3506449766727329	2.0056440058742044	0.29387239528136766	-0.34450708622998033	0.6383794815113479	48.92523995557124
4	2.0	perception	490	diff_vonmises	-0.0030001702355555012	-0.17189709231810024	5.444588218831804	1.3890740959217565	0.3017331187582692	3.0911398529763696	0.609887474299428	-0.49867828851626034	1.1085657628156884	54.796205235051445
5	2.0	wm	490	diff_vonmises	0.10611774270496684	6.08009878844978	3.799040705905342	0.7393238449366579	5.866968028951899e-12	3.0624360233252337	0.0652060052357295	-0.487124744469595	0.5523307497053245	70.29486505962592
6	3.0	ltm	490	diff_vonmises	0.05073286642203812	2.906779128583754	2.3360594946439983	2.0958794669242864	1.0647116635745497	2.7311870235060494	0.22012014265344126	-0.22941402436829406	0.4495341670217353	66.95632449953783
7	3.0	perception	490	diff_vonmises	-0.012691745618725448	-0.7271834586066219	2.2272161495800664	5.366869554244601	0.8930825909043436	6.394954744892619	0.8982811630125886	-0.5238845894134991	1.4221657524260878	72.71622659974418
8	3.0	wm	490	diff_vonmises	-0.07056987024876656	-4.043355726040157	2.9762953366800464	1.0347545136767395	0.25560247350095666	2.737178108903649	0.12122671363263704	-0.394295192824781	0.515521906457418	70.37590231479803
9	4.0	ltm	490	diff_vonmises	-0.03157504357039595	-1.809116734525374	1.0065330961630765	227.25842824368476	0.9880589478319242	229.0138305457808	0.19853029709931036	-0.4622146790499926	0.6607449761493029	83.9353658702081
10	4.0	perception	490	diff_vonmises	-0.10064705210885982	-5.76665130627094	1.1794951069924202	467.8658831427539	1.1631976766521575	469.52960525208266	0.7948868193985561	-0.647278221242388	1.442165040640944	81.77192576233273
11	4.0	wm	490	diff_vonmises	-0.23008686718538057	-13.183006411109421	0.9032305625877868	140.067032008058	0.8685535064474396	142.66793675961495	0.101859619595416	-0.6150560982992879	0.7169157178947039	86.78282482306349
12	5.0	ltm	490	diff_vonmises	-0.08787614455442558	-5.0349322028501176	2.297977274561767	0.9441065746933526	1.1554679181600105e-22	1.9174146826797647	0.22421097157347636	-0.29982323923063664	0.5240342108041129	90.70246591828501
13	5.0	perception	490	diff_vonmises	0.018479191547633812	1.0587796844932413	1.1247919703189309	10.771653173865769	0.6442862649088321	12.205904574921462	0.5896204091678392	-0.544288418108378	1.1339088272762172	94.42338910364649
14	5.0	wm	490	diff_vonmises	0.2179349997536686	12.486755694069846	0.0514896377313087	29.717834525240846	1.0459625552548542e-06	31.61128331689877	-0.054753771525651196	-0.541683322606751	0.4869295510810998	175.55293686388256
15	6.0	ltm	490	diff_vonmises	0.5217173613310722	29.892202902972212	0.8172953320431908	135.18232442870425	0.8045776763482398	136.03714935060563	0.06797745892330198	-0.2154525700404708	0.2834300289637728	92.5070407196387
16	6.0	perception	490	diff_vonmises	-0.004956793767907278	-0.28400336281783595	0.5661309292207455	321.87095350087316	0.555201858445535	323.3807874082494	0.2747915462554289	-0.5035967596157498	0.7783883058711787	115.32350477763616
17	6.0	wm	490	diff_vonmises	0.28810825053311806	16.507386798445413	0.07241285362119267	50.37254759215505	0.044479932197877596	51.83789861728112	-0.013431850179703275	-0.4401617321237259	0.4267298819440226	170.77294547343118
18	7.0	ltm	490	diff_vonmises	-0.03805593818419626	-2.1804446433651994	1.2733926495876264	0.874929106787554	3.2246845572702326e-21	2.089428931204211	0.010967477464161768	-0.30563437388005926	0.31660185134422103	118.01414553236563
19	7.0	perception	490	diff_vonmises	0.0261421069902236	1.4978323981192594	0.7250840770770712	195.39187361347447	0.7068193975470135	196.49067135091465	0.366498214085496	-0.4098406971881392	0.7763389112736352	103.93018792179271
20	7.0	wm	490	diff_vonmises	-0.036773042685666266	-2.106940145743099	0.8488953339253813	138.84930169264803	0.8268023683448624	140.43742034988855	0.0951657306553173	-0.3875087868937843	0.4826745175491016	90.22183512333902
0	1.0	ltm	491	diff_vonmises	-0.1972631847392001	-11.302347938865635	7.109122983846468	0.1747449570244547	2.9459543810836407e-23	1.8003362672351007	-0.10418405706561817	-0.2865322942360807	0.1823482371704625	51.02933216231955
1	1.0	perception	491	diff_vonmises	0.0009717713743419862	0.055678398401423426	11.957489970444048	0.6308365216879823	3.2587332483637536e-18	2.456348813115104	0.4698464610997643	-0.3909400555297991	0.8607865166295634	39.213580913377
2	1.0	wm	491	diff_vonmises	0.04500127792028007	2.5783832975273064	9.463035822092527	0.2541957740877434	3.707831072093694e-32	2.196331343847084	-0.04201674234716435	-0.34955698818468056	0.3075402458375162	44.1446204370084
3	2.0	ltm	491	diff_vonmises	0.11497355319902264	6.587499353926842	8.679160087181122	0.39164241773609	0.38244995925318015	1.1120529658605616	0.2029744464805151	-0.20152659015164098	0.4045010366321561	43.525384872617394
4	2.0	perception	491	diff_vonmises	-0.015319985761310061	-0.8777705263235819	9.63031717837201	1.069278467230438	0.23807400778316862	1.9288583706572362	0.9216554161989607	-0.3305960935646316	1.2522515097635925	42.74858897675273
5	2.0	wm	491	diff_vonmises	0.07306092211521964	4.186082484536104	1.997853443328992	0.7225960963938673	0.003939845863134974	1.7210267568408963	0.09754082624078458	-0.2659791802493136	0.3635200064900982	96.77170346197994
6	3.0	ltm	491	diff_vonmises	0.0955486387816561	5.474533740408915	2.3872474489594353	79.29002778367932	2.361878699780699	79.41730716254347	0.21418363167624221	-0.11459896912431056	0.32878260080055277	58.51701539930724
7	3.0	perception	491	diff_vonmises	-0.004596240270021949	-0.26334516910032757	3.4020513361064224	2.451903347221964	0.7901479957830336	2.6116710929170757	0.9358224675722657	-0.3070086602621629	1.2428311278344286	65.08482105195083
8	3.0	wm	491	diff_vonmises	-0.1603467556421076	-9.187192356908286	1.5615997970174125	102.83206617313198	1.542895228034836	103.10415942118466	0.21287836450216702	-0.13694876085863328	0.3498271253608003	71.82257812123751
9	4.0	ltm	491	diff_vonmises	0.02830426122444982	1.6217147103967624	1.665321976206323	195.86036858581764	1.6496669619145308	196.67561495606964	0.14413008411065675	-0.26506142036650715	0.4091915044771639	65.1793246111464
10	4.0	perception	491	diff_vonmises	-0.10207270355930691	-5.848335117438261	3.5417332944344855	1.9509283178173908	0.1651875036971547	3.0192098157196234	0.8398188695082393	-0.44180167447541363	1.281620543983653	69.51957219275872
11	4.0	wm	491	diff_vonmises	-0.14208434779054416	-8.140833463267123	1.2403438478935749	229.69892060841792	1.226581096817252	230.84377884532992	0.1413082424826797	-0.3157404696521482	0.4570487121348279	75.26375769203068
12	5.0	ltm	491	diff_vonmises	-0.10218387793636155	-5.854704940033489	2.647883662805891	0.6301488848820195	9.629059778767008e-20	1.33452783211428	0.17167954819290468	-0.21047138384453773	0.38215093203744244	84.51580675749713
13	5.0	perception	491	diff_vonmises	-0.028771003499321924	-1.648457072867269	0.8830509756109358	104.31539906516609	0.8434737244050452	104.96155590157382	0.585860989741569	-0.37843816231843164	0.9642991520600006	97.64533307468355
14	5.0	wm	491	diff_vonmises	0.06840973800941073	3.9195892655349245	0.46760118760095054	43.10462295182526	0.4390762150620481	43.90110304152803	0.0404958427259281	-0.22225374479217042	0.2627495875180985	123.64571026074901
15	6.0	ltm	491	diff_vonmises	0.2968093135445435	17.00592098627748	0.8123914096947574	81.67300367276043	0.7972839571136338	82.33636427162251	0.03454249576152435	-0.160214513765359	0.19475700952688335	91.83352915462473
16	6.0	perception	491	diff_vonmises	-0.15924047136193584	-9.123806936712775	0.7973680195056355	240.60985486828548	0.7854236330267582	241.40353070581838	0.3100568918217874	-0.30474139415893475	0.6147982859807222	99.31108996888935
17	6.0	wm	491	diff_vonmises	-0.23250618387886246	-13.32162304695148	0.526596447872073	124.77208459990331	0.511841304222087	125.72712629426232	0.10731569846827327	-0.28956357570645963	0.3968792741747329	117.9774002747162
18	7.0	ltm	491	diff_vonmises	0.03662638967829496	2.098537547367822	1.1770124384189176	67.73563223796333	1.1484650191229355	68.43311996290048	0.10132492309558927	-0.19450035077837047	0.29582527387395974	78.13105830839396
19	7.0	perception	491	diff_vonmises	-0.08844360838113444	-5.067445485146878	1.8501429384024284	1.9458977862525304	7.406273402559844e-14	2.5572635451014665	0.5505633765540799	-0.3833334687779075	0.9338968453319875	100.62040278711632
20	7.0	wm	491	diff_vonmises	-0.12467682856291473	-7.143456079731127	0.7707275532376203	64.40781021532938	0.7516193269398184	65.05340428107314	0.044919864806640675	-0.16130554145695353	0.2062254062635942	95.27774664675766
0	1.0	ltm	492	diff_vonmises	-0.0024724785563234003	-0.14166258621392963	5.059130449472662	0.2939671128630803	0.007016527060273214	0.9281020466443335	0.10775718560119257	-0.14708118514270213	0.2548383707438947	60.45290602368644
1	1.0	perception	492	diff_vonmises	-0.08547717956950847	-4.897481634014702	19.604048481816264	0.5151837505247527	9.209811182191528e-21	1.324546799270143	0.6932317305286259	-0.21080817046039171	0.9040399009890175	30.56896452838194
2	1.0	wm	492	diff_vonmises	-0.11371079040204111	-6.515148375133665	18.330601804829968	0.21259843891476995	0.03820841452352006	1.0315253080750009	0.1898472862391849	-0.16770636100658615	0.35755364724577104	31.486348428164263
3	2.0	ltm	492	diff_vonmises	0.08121398871605709	4.653218790853162	2.2469843342128195	88.75149819122414	2.220138948126786	88.99387387847861	0.2180145903658186	-0.14959373113074115	0.36760832149655975	59.29886559175682
4	2.0	perception	492	diff_vonmises	-0.056982565601560994	-3.264860514796788	6.857032875870055	0.9992775217844703	0.37691646141195123	1.389891243221323	0.7120234253802644	-0.2319021601031991	0.9439255854834635	49.83130807150019
5	2.0	wm	492	diff_vonmises	0.10211926236164505	5.851002740311421	2.564040975211694	0.47124122702124516	1.828228346571606e-15	0.8187505282509802	0.15157034326106772	-0.12863721144658674	0.28020755470765446	85.89106102936066
6	3.0	ltm	492	diff_vonmises	-0.10097763954240255	-5.785592570972999	2.1333475883582333	53.48458552837723	2.107939324741248	53.398153904717766	0.25181982905246514	-0.06030403401420514	0.3121238630666703	65.98785435299632
7	3.0	perception	492	diff_vonmises	-0.06142658495959202	-3.5194840680864035	4.370785113864259	1.895467201602959	0.5342935467462263	2.0448256631507253	1.0113060525958453	-0.29160323382905234	1.3029092864248977	60.64267769815436
8	3.0	wm	492	diff_vonmises	-0.278228006171499	-15.941290495966715	1.8768204003342266	132.77781055004186	1.8602212627207118	132.97640422896706	0.25660656655860237	-0.13857409658115394	0.3951806631397563	66.11335294914082
9	4.0	ltm	492	diff_vonmises	-0.05063162749944298	-2.9009785655966005	1.967992520735336	125.02731447252728	1.949373723211954	125.29568514963894	0.2302569373853487	-0.15248636877498	0.3827433061603287	63.58178545517379
10	4.0	perception	492	diff_vonmises	-0.06425647150956776	-3.6816246239008503	3.830430126746542	1.7904021768687193	8.713565249573745e-22	2.7416055827073493	0.9078847132540593	-0.43570700729236683	1.343591720546426	70.00324065506422
11	4.0	wm	492	diff_vonmises	-0.14561683423659122	-8.343230027812789	1.259391876542672	181.4240947216915	1.2438653514109033	182.36920364864582	0.1502089872677601	-0.27181149352986367	0.4220204807976238	75.40760209577749
12	5.0	ltm	492	diff_vonmises	0.059283631984451746	3.396701906915862	1.9232488032246504	1.1486429452139844	0.15209512551608653	0.8642696277087176	0.41944234778021294	-0.10510685760163985	0.5245492053818528	95.36779286017435
13	5.0	perception	492	diff_vonmises	-0.046945303316263766	-2.689767747983421	2.0132435736736194	1.7435991891199865	1.3577218677576676e-18	1.8746089603787375	0.6047119860785555	-0.28224446630139843	0.8869564523799539	96.71456291150656
14	5.0	wm	492	diff_vonmises	-0.008628275683038627	-0.49436378111347096	0.5402428702739608	2.3198917091784694	1.5059445620783011e-09	2.396924927679033	0.20841297864600483	-0.18124583091400992	0.38965880956001475	150.1096779888781
15	6.0	ltm	492	diff_vonmises	0.1440710359056573	8.254662307471907	0.622620619647547	40.75836405259085	0.6011823713283901	40.52360337710168	0.22795745582414106	-0.07020499891360066	0.2981624547377417	121.74269050736433
16	6.0	perception	492	diff_vonmises	-0.1536137860095709	-8.801421613374185	1.055160984990444	147.5746501691026	1.0400409525126113	147.87240126139486	0.31620646577248834	-0.18020728184772317	0.4964137476202115	88.95954101328805
17	6.0	wm	492	diff_vonmises	-0.11379599242450018	-6.520030091426549	0.30217024483007104	55.12170431578184	0.28338523357514966	55.01733761078453	0.20648688840379315	-0.1255457415631911	0.33203262996698424	147.83396039780783
18	7.0	ltm	492	diff_vonmises	-0.12877662942897797	-7.37835736620063	0.8695848821802016	76.75313157699661	0.8501707432385514	76.84984453946738	0.25394527201222417	-0.12626757964452207	0.38021285165674623	99.82426794597485
19	7.0	perception	492	diff_vonmises	-0.14602815609094938	-8.366797034089005	0.8934262221684519	204.04727440530922	0.8751614862940654	204.54767470642864	0.5511552865370106	-0.32986743569045096	0.8810227222274616	96.95159435057262
20	7.0	wm	492	diff_vonmises	0.19269822665988007	11.040795107266451	1.1304786811065408	45.147512432748854	1.106409656015011	45.401072486052655	0.11126634861450313	-0.09532728112880129	0.20659362974330442	83.4836774781489
0	1.0	ltm	493	diff_vonmises	0.04552381103321504	2.608322239554313	9.291191380139166	0.4963977490703678	0.10382770744654753	4.320706342196818	-0.16589391798723474	-0.7170759379336639	0.5511820199464291	42.764443382308
1	1.0	perception	493	diff_vonmises	0.07565622816568657	4.334782567772626	18.893408196536775	0.6641559045832319	0.0033708656826476223	3.526493094226796	0.5803610699737728	-0.562114193056419	1.1424752630301918	31.12895484457073
2	1.0	wm	493	diff_vonmises	0.2269509666108017	13.003332543213402	4.80310171950307	0.5905033145155191	1.044030796648567e-18	4.953844635463653	-0.2872512313499246	-0.7883951268336877	0.5011438954837631	62.32691188138003
3	2.0	ltm	493	diff_vonmises	0.19563805535930662	11.209234884235025	6.26049488098129	0.6792483583471352	0.44628126522218	1.8137037765522597	0.233902877525496	-0.3149096466850104	0.5488125242105064	49.70351899326528
4	2.0	perception	493	diff_vonmises	0.03394737359083982	1.9450412323089918	5.736464894343785	1.5211679591925673	0.39295336561646105	2.934515879372252	0.7528283548618854	-0.48173965175328237	1.2345680066151679	53.12522599128823
5	2.0	wm	493	diff_vonmises	0.0920595964822824	5.274626342112182	2.3219067565448177	1.6613548561580354	0.4199784425526888	3.486223835572089	0.12888442141005885	-0.43934351496306556	0.5682279363731244	73.93516560950741
6	3.0	ltm	493	diff_vonmises	0.16820985332574226	9.637714668079646	4.719953430088674	0.6213437987663786	0.5438560688860274	1.2596461150150933	0.20123735137829007	-0.2012885664904036	0.4025259178686937	55.875707045528884
7	3.0	perception	493	diff_vonmises	-0.06956883685439967	-3.9860007373912794	5.372217159735075	0.9874061358322371	5.617345195858004e-16	1.403998074906472	0.6660687443512684	-0.22343405107685999	0.8895027954281284	58.85837524606845
8	3.0	wm	493	diff_vonmises	0.10509961677538965	6.021764469672173	4.669910014692363	0.8319005906573671	0.2664592918056967	1.9186966936120962	0.3038726877423845	-0.2999166020432091	0.6037892897855937	58.90880251049961
9	4.0	ltm	493	diff_vonmises	-0.21021882265711644	-12.044651312461898	0.8568575981598132	164.9583424586564	0.8362161346509882	167.1677885935349	-0.036379933935933195	-0.4791072321674612	0.442727298231528	85.87260313036147
10	4.0	perception	493	diff_vonmises	0.041622487093948654	2.3847928433209966	0.6510402986943212	198.3642907770799	0.6244584737987041	200.69057346703292	0.3726896362785723	-0.7079127874792874	1.0806024237578598	107.40767771310695
11	4.0	wm	493	diff_vonmises	0.00664989873155966	0.38101113150776805	1.2199342629827754	232.65114626076493	1.1965961811480157	235.30985066368757	-0.004658005044007041	-0.6345611560857876	0.6299031510417805	72.11983660773527
12	5.0	ltm	493	diff_vonmises	-0.11981466184035988	-6.864874447239778	2.2384469968111778	0.7841575702422463	7.82151433956636e-19	1.6082389814128568	0.17690479922511537	-0.251038034722892	0.42794283394800736	91.87136832892537
13	5.0	perception	493	diff_vonmises	-0.0355694645635803	-2.0379801990332918	0.8849117057190127	91.61333663051902	0.8316440252958779	92.96747155602604	0.511569031108472	-0.49939288602002563	1.0109619171284976	95.16114823216301
14	5.0	wm	493	diff_vonmises	0.12694612674285244	7.2734772878982765	1.3657938383473567	1.5815929867492442	0.044865041401957545	2.6022211510244957	0.21448084937581713	-0.35362806679558595	0.568108916171403	111.85041355739662
15	6.0	ltm	493	diff_vonmises	0.2925445850015018	16.76157003999222	1.0065833916732227	133.34427326058412	0.9945572738187437	133.89162642592768	0.11686863078751486	-0.16322219293475015	0.280090823722265	85.88339208064801
16	6.0	perception	493	diff_vonmises	-0.36482758959701694	-20.90308113383997	0.13051238764759182	164.22579524611	0.11412024844362718	165.32357463166468	0.2577345626267231	-0.5561272085657798	0.8138617711925029	162.85407666893056
17	6.0	wm	493	diff_vonmises	0.4396488949683077	25.19002614927445	0.4342726487211467	158.80364969908737	0.41959561302549814	159.497377498069	0.2691905616386805	-0.3491669260600272	0.6183574876987077	129.99911773597242
18	7.0	ltm	493	diff_vonmises	-0.016090317570934137	-0.9219072878397166	2.4123703228772535	0.49596325439536076	1.9413311431970538e-18	2.3891589432217994	-0.09402583460741415	-0.37794848420542815	0.283922649598014	88.5543628483515
19	7.0	perception	493	diff_vonmises	0.05662632911189419	3.2444496674303243	1.0052571407538753	216.49707635025368	0.9846266800456304	217.8356766343565	0.3917595212071916	-0.437277973469385	0.8290374946765766	87.27098786067987
20	7.0	wm	493	diff_vonmises	0.060236031114920464	3.4512703575036494	0.7792803144218851	108.86239611459807	0.750860898337222	110.9163482421463	-0.013685686463126956	-0.4509911160067439	0.43730542954361695	91.24039257622994
0	1.0	ltm	494	diff_vonmises	0.017773760345755424	1.0183614538887686	3.164023384573261	0.40672998819155204	2.4987181609354e-20	1.8978918175653872	-0.027497282740106155	-0.3015686294431628	0.27407134670305666	77.20795295164095
1	1.0	perception	494	diff_vonmises	-0.01823701421669188	-1.0449039455365257	15.386910332919642	0.5069039680346157	3.4113622079787506e-24	1.987093635553385	0.4703515335620117	-0.31625577448473247	0.7866073080467442	34.531061786929
2	1.0	wm	494	diff_vonmises	-0.046702803023309675	-2.6758735046664657	6.269571810529647	0.3244382422123764	1.173874549512167e-14	2.046962359189474	-0.008749509207360506	-0.3257830414357074	0.3170335322283469	54.40010845291695
3	2.0	ltm	494	diff_vonmises	0.13143323733485496	7.53056978702847	9.614930726706103	0.44423463737667784	0.49346665466771206	1.17281244534519	0.2539059806626653	-0.22479474176937894	0.4787007224320442	41.14559527344869
4	2.0	perception	494	diff_vonmises	-0.0014940683361622164	-0.08560380996622811	6.956915716229206	1.1066462374213029	0.3097402373693651	1.9737423481017098	0.723855853010271	-0.32974495477949867	1.0536008077897696	49.45532626492408
5	2.0	wm	494	diff_vonmises	0.060263475085395556	3.4528427811849536	0.9033813845425742	94.96457183499518	0.8812850014213258	95.947872695155	0.08594249921995711	-0.24945482370267236	0.33539732292262947	88.2313565172513
6	3.0	ltm	494	diff_vonmises	0.08862783178600894	5.078000708733717	1.798308106136502	96.70052754952827	1.7789641952665738	97.03183254792916	0.14756615310263754	-0.13871274471313377	0.2862788978157713	65.05826235542324
7	3.0	perception	494	diff_vonmises	-0.052783133237621654	-3.024250763992417	4.742087983706903	1.5583348649689566	0.2051897875532253	1.9652223712114398	0.9335816201234297	-0.298216198608001	1.2317978187314307	60.60898375041728
8	3.0	wm	494	diff_vonmises	-0.11393050033120342	-6.5277368267917835	1.4630235392538353	165.74827110091573	1.4469357097610172	166.43099324358684	0.18139733520810353	-0.22772205945978286	0.4091193946678864	71.10678534170714
9	4.0	ltm	494	diff_vonmises	-0.004166471668579219	-0.23872124207041912	1.3815938041802878	88.6876068776708	1.3541202611024552	89.63667226543114	0.05101204256222758	-0.2517909276014443	0.30280297016367186	69.5355883176683
10	4.0	perception	494	diff_vonmises	-0.039517183912046235	-2.264167856402525	3.0045489696659313	1.9719619220095281	0.08488870537159053	3.4726639109850037	0.692051296195281	-0.5145238046696212	1.2065751008649022	76.4738790190701
11	4.0	wm	494	diff_vonmises	-0.03703619165053841	-2.122017470813509	1.2322503042966237	239.86714974944923	1.2173503229179334	241.51816795359727	0.02646942843443867	-0.4036865779501895	0.43015600638462814	72.3549978076081
12	5.0	ltm	494	diff_vonmises	-0.003353539063889361	-0.1921436347931133	1.9757920847299928	0.9087374203950694	6.105542694762279e-11	1.2567244032088505	0.26534539104518956	-0.19106753117267125	0.4564129222178608	97.58239273179638
13	5.0	perception	494	diff_vonmises	-0.0400169116013347	-2.292800143904579	2.0762333298991096	1.7345457194745173	1.0563551690320738e-12	2.322235301677726	0.5456348678315848	-0.35520192375730364	0.9008367915888884	95.30021375074952
14	5.0	wm	494	diff_vonmises	0.11291488145033207	6.469546151324056	0.9808091205118	1.3937375276178436	4.658163218056842e-15	2.0043698591799144	0.15216989886968352	-0.25273931573344954	0.40490921460313306	129.26019738847583
15	6.0	ltm	494	diff_vonmises	0.43909373945317287	25.15821808128381	0.6913904421133441	121.88394507441384	0.6809783539385367	122.21877745938066	0.14766208134200554	-0.14476234477344363	0.29242442611544917	107.23327560228435
16	6.0	perception	494	diff_vonmises	-0.15243003938645538	-8.733597927856803	0.87845855473201	213.6909075281082	0.8653638546077838	214.26327083115302	0.3526281261731157	-0.26551979794592384	0.6181479241190395	96.04952168381283
17	6.0	wm	494	diff_vonmises	-0.011863441244287419	-0.679725113799099	0.13732815504652574	113.58204332678707	0.12387609489966325	114.16244220048108	0.15378263640598533	-0.3076370197836624	0.46141965618964775	164.75720241721427
18	7.0	ltm	494	diff_vonmises	-0.029256152370208375	-1.6762540556046	0.8940589328776324	62.89470025587323	0.8635448002380368	63.682346580610414	0.11712753171317303	-0.2179445918109888	0.3350721235241618	90.60756859419556
19	7.0	perception	494	diff_vonmises	-0.06882230053961463	-3.9432273573008465	0.8924394224284413	231.4414491460925	0.875165905738965	232.1231635122741	0.5451869649211858	-0.36555023598923597	0.9107372009104218	96.16086301662517
20	7.0	wm	494	diff_vonmises	-0.019116319367945642	-1.0952844196074787	0.846625693702686	108.18974063719577	0.8307392263645086	109.25247789107765	-0.0008748202859223397	-0.23596083171202054	0.2350860114260982	87.278175126556
0	1.0	ltm	495	diff_vonmises	0.6357524591870203	36.42593272647938	0.8369133855731574	112.79879859432792	0.8228319333742959	114.21058334799729	-0.13162053870973267	-0.27335875019577216	0.1417382114860395	79.13609370114085
1	1.0	perception	495	diff_vonmises	-0.015314833335119344	-0.8774753140486011	13.206845677128122	0.5445973697531528	4.1075151871840813e-23	1.8560176335118113	0.48639885379474257	-0.29539438083648545	0.781793234631228	37.29593973754018
2	1.0	wm	495	diff_vonmises	0.006584550791119192	0.377266970320657	7.712812315745921	0.34474703883584223	0.20938458627876894	1.9664618529339506	-0.006380071960212563	-0.3359194095067387	0.32953933754652615	45.823500787505594
3	2.0	ltm	495	diff_vonmises	0.032231693664344085	1.8467400135254712	20.492793313827402	0.2477139500960871	0.43045902537285724	0.9517769434300474	0.22199980554477547	-0.1975764158284571	0.4195762213732326	28.977854165107914
4	2.0	perception	495	diff_vonmises	-0.005922822094574989	-0.33935270882598095	10.633619308568765	1.0860602039213092	0.32760759536285705	1.7926167548982022	1.0097595925287304	-0.3210801162692562	1.3308397087979866	40.553106927707546
5	2.0	wm	495	diff_vonmises	-0.06229142194699762	-3.5690355774315528	1.0113797537967388	107.63847437748136	0.9921081708790255	108.59379894773434	0.06731515150947587	-0.23807896090595193	0.3053941124154278	82.490567209712
6	3.0	ltm	495	diff_vonmises	0.17318858789678762	9.922975146316421	2.7532737275689736	37.942654369637125	2.712149920662924	37.97710679392281	0.1839503673001346	-0.07764786477488528	0.26159823207501987	55.44131819337892
7	3.0	perception	495	diff_vonmises	-0.0694178784738444	-3.9773514593033323	6.621091248552519	1.016217205405877	2.8385603372606435e-21	0.9897537518702968	0.864378279593232	-0.15752238903173066	1.0219006686249625	52.90689862541956
8	3.0	wm	495	diff_vonmises	-0.05714632190717282	-3.274243059977	2.22071192670206	73.95436891093058	2.1932663212982266	74.11644834005838	0.212678832682478	-0.12155972746053578	0.3342385601430138	60.4487822102289
9	4.0	ltm	495	diff_vonmises	0.1399514005728317	8.018624589768029	1.745653334433534	89.57085842389066	1.7187806618190224	90.47475223781834	-0.025344632812434043	-0.2523780295382956	0.22703339672586154	59.05882011427272
10	4.0	perception	495	diff_vonmises	-0.07127466947244865	-4.083737746961237	3.7801780403147665	1.6530301380057566	1.833349133626865e-18	2.937599890849915	0.7646472274309117	-0.46689195431131436	1.231539181742226	70.47600748160161
11	4.0	wm	495	diff_vonmises	0.03342696098786658	1.915223786553208	1.4421781505771625	170.24903324549123	1.4254614468593778	171.5119768439056	-0.02584229606357269	-0.31857267385510113	0.29273037779152844	65.27711307968531
12	5.0	ltm	495	diff_vonmises	-0.035352221072391624	-2.0255330638614932	3.6458582750273654	0.5711877091702193	1.55167100832695e-17	0.9915578971336798	0.2595482267222514	-0.15752705275705095	0.41707527947930234	71.7960050457441
13	5.0	perception	495	diff_vonmises	-0.08676077067463313	-4.971025986958878	1.4114398218071054	3.3977415618773508	0.4264381525515006	3.780909545523533	0.5373887468797541	-0.2980609243231784	0.8354496712029325	96.7282344831791
14	5.0	wm	495	diff_vonmises	-0.15882468214100054	-9.09998396918615	0.6129505435368899	67.52828618139314	0.5910552830012404	67.88743472096218	0.18513153955158046	-0.18100230239921533	0.3661338419507958	114.97097312992464
15	6.0	ltm	495	diff_vonmises	0.1138462498039086	6.522909627156039	1.0209962712434932	72.48013115101725	1.0044059190825112	72.77729690361642	0.1254085070394737	-0.1108751487000541	0.2362836557395278	87.76880155223947
16	6.0	perception	495	diff_vonmises	-0.2750688652773093	-15.76028505584246	0.9194065539694893	154.60738753089058	0.9050758708149482	154.9201201897702	0.3204869298192108	-0.1938022209507757	0.5142891507699865	95.28535020525284
17	6.0	wm	495	diff_vonmises	0.10658516318561047	6.106880009248637	0.00035898822279407884	3827.888864027152	3.2560588880667473e-29	3828.1683890976187	0.17423692240652144	-0.26317325970171623	0.4374101821082377	179.53947088733537
18	7.0	ltm	495	diff_vonmises	0.03645947781912005	2.0889742022864177	1.539261023009278	140.04258279784622	1.5233150271950169	140.7324397610066	0.08646819100187031	-0.20612712210610695	0.29259531310797726	67.1276754837979
19	7.0	perception	495	diff_vonmises	-0.1557599631648242	-8.924388506457593	1.8855943592985618	1.6553799682140964	7.554959167103475e-13	2.1368582513953953	0.4839554886190812	-0.32111807399083286	0.8050735626099141	99.70800954954964
20	7.0	wm	495	diff_vonmises	-0.7271418580680418	-41.66215957459952	0.9472793405592042	47.15090892142853	0.9273976438986402	47.774524260833054	-0.02633909168251236	-0.13223038118628505	0.10589128950377269	79.65626653281531
0	1.0	ltm	496	diff_vonmises	0.0643548195906179	3.6872595538682336	0.24028032359169407	33.6272783732781	0.2195621196102531	35.21631356351362	-0.18924753729567279	-0.29750696505483276	0.10825942775915998	141.7604200021401
1	1.0	perception	496	diff_vonmises	-0.008542829824191607	-0.4894680940246662	10.907099944701248	0.7553983990347748	2.142043064848881e-17	2.408113567246546	0.599699133860145	-0.3832631774235026	0.9829623112836475	41.08547580324597
2	1.0	wm	496	diff_vonmises	0.029070484198893833	1.6656160529983646	16.880057195407964	0.2263795041034357	1.0556415854929463e-23	1.9961142909860317	0.050430301506546205	-0.31769145638680013	0.36812175789334634	32.962940685534136
3	2.0	ltm	496	diff_vonmises	0.05156213931789096	2.9542929655807137	4.0644642742379675	0.5068093378850671	0.36649446094573074	1.4266998880664932	0.07622390108735172	-0.2223195318431501	0.2985434329305018	59.833807667044056
4	2.0	perception	496	diff_vonmises	-0.02487212400751874	-1.4250677331568353	10.16939198260349	1.0767897865498588	0.09637531599906542	1.874014374194164	1.024195335337654	-0.3062360604723066	1.3304313958099607	42.17135308414984
5	2.0	wm	496	diff_vonmises	0.020145784675104	1.1542684368627916	1.3058687802034237	0.9916484367279754	3.8872488576192174e-19	1.8964441325108372	0.09337269764681105	-0.2728176979608482	0.36619039560765926	116.86774627465992
6	3.0	ltm	496	diff_vonmises	0.1573612402955514	9.016134927879078	6.8820313620436115	0.35223594249419155	0.38889035133828953	0.45344217494155714	0.25887216607132163	-0.07554197329595527	0.33441413936727693	49.81177731570031
7	3.0	perception	496	diff_vonmises	-0.00029353866889725034	-0.01681852685170053	4.375593715739338	1.6295374168709817	0.48521307460499447	1.616082105006687	0.9211563683433767	-0.22928830644565376	1.1504446747890305	61.26075881413129
8	3.0	wm	496	diff_vonmises	-0.18421366975566214	-10.55466580561618	1.8876009433924987	63.12021766833801	1.8611612540497318	63.09547572015318	0.2803517766478727	-0.08607256762948001	0.3664243442773527	68.95690096226951
9	4.0	ltm	496	diff_vonmises	0.09524772786728004	5.4572928150057445	1.7816555158089307	102.4673083009952	1.748166831554638	103.27224136830606	0.18313817663448617	-0.28215834256785755	0.4652965192023437	63.666480286763175
10	4.0	perception	496	diff_vonmises	-0.09916685553939475	-5.681842289990848	3.8297732126580226	1.7928488406045229	1.9945973259724103e-14	3.016574273421567	0.8658324068452757	-0.47946799488691755	1.3453004017321932	70.00912673212653
11	4.0	wm	496	diff_vonmises	-0.2012828769060218	-11.532659334966315	1.3678333649002847	320.17806320847563	1.3566640410215456	321.1475080595189	0.24753033814283754	-0.3139666625056563	0.5614970006484938	73.52866173171765
12	5.0	ltm	496	diff_vonmises	-0.048124825516841045	-2.7573493919184826	2.741548257941917	0.6939824497491027	8.869735471894493e-15	1.1450998046502967	0.24934856785077825	-0.1804542998860384	0.42980286773681664	83.0502585822071
13	5.0	perception	496	diff_vonmises	-0.007198649101435712	-0.41245221170790874	1.693552158914902	2.7643970667322066	0.25363483556885497	3.003366332651121	0.6828123557524102	-0.3229983852664587	1.0058107410188688	95.82867965969555
14	5.0	wm	496	diff_vonmises	-0.038565471357623476	-2.2096387437244864	0.667133942644099	87.02258197062068	0.6505606489634532	87.33024241861327	0.18962568308765881	-0.16332866939218782	0.35295435247984663	110.58841288062132
15	6.0	ltm	496	diff_vonmises	0.2540131543541741	14.553881685299306	1.0682170938568372	75.43605632107047	1.0528590771608806	75.68440282947687	0.13052700798007066	-0.10139343089455277	0.23192043887462344	86.4244758045528
16	6.0	perception	496	diff_vonmises	-0.21034665044502074	-12.051975305213308	0.7164350310617454	146.8971300182306	0.7045702175625529	147.19416908309302	0.2475629451934438	-0.18208511715652698	0.42964806234997077	107.35918470429877
17	6.0	wm	496	diff_vonmises	-0.2578847674444351	-14.775708775278865	0.8650524439128339	111.67003646031324	0.8523973169304355	111.83332884185934	0.21837346903234334	-0.1251928636198567	0.34356633265220005	98.79915880608128
18	7.0	ltm	496	diff_vonmises	0.05001530598285188	2.8656659438728282	1.060727445220268	86.09391148486039	1.0432506889436348	86.5505620132328	0.12345500015185706	-0.14516465605940176	0.26861965621125883	84.48672867934656
19	7.0	perception	496	diff_vonmises	-0.15827007071165036	-9.068207075014667	2.1660614179357114	1.6650778969880902	6.301783996428663e-13	1.7961098453763125	0.6153874409227	-0.27401767398529503	0.8894051149079951	93.34434144226654
20	7.0	wm	496	diff_vonmises	0.46709711943006604	26.762693566060946	0.000202176526238221	3368.9879720300155	3.029067310942832e-33	3369.2225298762346	0.07107875998383406	-0.14572988319480373	0.2168086431786378	173.39074689349235
0	1.0	ltm	497	diff_vonmises	0.02578289457459212	1.4772510427548766	6.051748301637492	0.3906330286824593	0.10561248499767646	3.7342052440381783	-0.28402142511109063	-0.6083478465447523	0.32432642143366164	51.466294830134046
1	1.0	perception	497	diff_vonmises	0.014483786923048693	0.829859862057463	15.01051384558542	0.5216061853498234	0.009830209779834294	3.3320612996719916	0.2636968107622282	-0.5324842325582578	0.796181043320486	34.884728773895205
2	1.0	wm	497	diff_vonmises	0.027017333462330654	1.5479791810891181	0.8230068677881938	64.58903314246265	0.7606227004012147	68.66295781409111	-0.43697929547368375	-0.7682373045595643	0.33125800908588054	78.60873765770651
3	2.0	ltm	497	diff_vonmises	0.051254548472116246	2.9366693083009627	10.87262963271291	0.49328125110221693	0.273890712392152	1.9085078856135478	0.24902883290871336	-0.3431105764982102	0.5921394094069236	39.44906943759497
4	2.0	perception	497	diff_vonmises	0.007788088529536468	0.446224603216687	6.788107602890942	1.2690753345078984	0.297365806486595	3.109264582953483	0.6408944568573139	-0.5233033564477739	1.1641978133050879	49.507279452641086
5	2.0	wm	497	diff_vonmises	-0.019311262759898067	-1.1064538532103172	0.999866710480545	120.96705888932371	0.9692265425630746	123.16709856785202	-0.03689211829284744	-0.48720686604571917	0.4503147477528717	79.35763611083905
6	3.0	ltm	497	diff_vonmises	-0.03529508009931575	-2.0222591272669748	1.349742373833397	39.78489617670171	1.2939648330261937	40.390509269936786	0.16178092761234097	-0.19682285465514227	0.35860378226748324	74.85895548248396
7	3.0	perception	497	diff_vonmises	-0.06714393560399645	-3.847064130007179	4.8062700670174445	1.6706861241215325	0.18671158348700612	2.6428898719511116	0.9158513384295509	-0.4062332275980486	1.3220845660275995	60.00413572980429
8	3.0	wm	497	diff_vonmises	-0.13471037768344388	-7.718336097874646	1.4207492379107176	246.44037982213413	1.4053911445801783	247.91220998992574	0.060864616948464345	-0.39111429300578493	0.4519789099542493	67.99517596708043
9	4.0	ltm	497	diff_vonmises	-0.25456885851326766	-14.585721188273233	1.7476638032532452	1.636984269487813	0.3808090694747135	3.410269311032046	0.01179852531618808	-0.3903303499105813	0.4021288752267694	81.48077858411433
10	4.0	perception	497	diff_vonmises	-0.07243860886044062	-4.150426561502218	1.863148214419664	5.053605618095882	0.5868745467086259	7.019188229069635	0.6508840655206647	-0.6472322621530272	1.298116327673692	80.31022264563026
11	4.0	wm	497	diff_vonmises	-0.191026954548362	-10.945038268858546	1.0170778249788248	4.087395824315263	0.49008126420357373	6.769710672053394	-0.2479061488323686	-0.5064361668301125	0.2585300179977439	84.53313306488798
12	5.0	ltm	497	diff_vonmises	-0.03660198013150326	-2.097138983356831	2.537927637493834	1.0482353336763794	0.10259605687807821	1.869983633985883	0.29436324196895747	-0.26838363759267575	0.5627468795616333	82.15417795529922
13	5.0	perception	497	diff_vonmises	-0.05490341183932396	-3.145733779261859	2.031299520698061	2.0445771815269302	0.10026935565623867	3.1763419987732013	0.5072546044167067	-0.4383082072565488	0.9455628116732555	91.64305586588651
14	5.0	wm	497	diff_vonmises	-0.2064793502575746	-11.830395326362492	0.4107849647702995	194.21569456359032	0.3978550454738796	195.72836375743006	0.11651175363711275	-0.4624419008539178	0.5789536544910305	130.17515443045193
15	6.0	ltm	497	diff_vonmises	0.46536719207423133	26.66357602970739	0.43709041904553286	114.35268128052199	0.4251488141386585	115.03060762611106	0.0942928047563143	-0.23074412858996673	0.32503693334628103	127.25811846870008
16	6.0	perception	497	diff_vonmises	-0.08930487056330662	-5.116792173239572	0.7956240115630553	263.9184626345317	0.7838025508182588	264.8739850630901	0.3086325421405576	-0.3391921440841337	0.6478246862246912	98.71625547105103
17	6.0	wm	497	diff_vonmises	0.32938382441250325	18.872302978714607	0.0001660875955404888	8950.887160170094	1.1957990414890686e-31	8951.876928579402	0.07908742529025403	-0.3941208466465014	0.4732082719367554	176.57876768612684
18	7.0	ltm	497	diff_vonmises	0.053948823777530006	3.091039912147492	1.1258506213730657	179.48688719956806	1.1116635329773206	180.78536163261361	0.00467085568719483	-0.3042093104439516	0.30888016613114644	75.29938060490849
19	7.0	perception	497	diff_vonmises	-0.10706643974521003	-6.134455124892268	0.6361207198157712	167.2282929928069	0.6173136822645412	168.1558335043843	0.3473388590840898	-0.38820283294242763	0.7355416920265174	111.68014103635524
20	7.0	wm	497	diff_vonmises	-0.4098104489483097	-23.480409125099634	0.8478270628071918	132.59971134235462	0.8326518240584819	134.02162122280137	-0.05657949439078891	-0.29736016866508663	0.24078067427429772	84.48818371996299
0	1.0	ltm	498	diff_vonmises	0.039187812542771684	2.2452962670506484	7.7121709914977306	0.30698947688718753	0.11967492339626948	2.7236931221399363	-0.152646066467724	-0.4515057498543584	0.2988596833866344	46.19463867167778
1	1.0	perception	498	diff_vonmises	0.003778961850836033	0.21651856499385083	15.625726180885257	0.49947897703350236	6.80506477472288e-16	2.6699225761666603	0.35616621304151574	-0.4249313756695502	0.7810975887110659	34.265728125436084
2	1.0	wm	498	diff_vonmises	0.05726006916769955	3.280760297936357	2.7234966248074057	0.9007511100823207	0.2998865075074801	3.957186930024942	-0.2732093866801074	-0.5914592666681745	0.3182498799880671	65.9914684844982
3	2.0	ltm	498	diff_vonmises	0.07543481967071737	4.3220967954625475	13.946959991165969	0.4139588447360802	0.44932750673907473	1.307053020326646	0.3007257187881877	-0.26175699217828907	0.5624827109664767	34.7516397664447
4	2.0	perception	498	diff_vonmises	0.0014331891299404625	0.08211568838961503	8.525858088719136	1.1368850023051986	0.3367195087565562	2.3852935107913997	0.7868889210318228	-0.41842658592872245	1.2053155069605452	44.647947074306586
5	2.0	wm	498	diff_vonmises	-0.008554554380045236	-0.49013986159174444	1.0402507919617845	182.11181049584877	1.023110628022231	183.8054258107096	0.002608934423925291	-0.3878216619651802	0.3904305963891055	78.44614486163479
6	3.0	ltm	498	diff_vonmises	0.07821418307619508	4.481342588329529	2.0819288945981915	76.1356246958822	2.0560993847016094	76.37217194249378	0.17741333617791355	-0.12941550047209915	0.3068288366500127	61.41003964582518
7	3.0	perception	498	diff_vonmises	-0.07345961624079343	-4.208925975248142	5.084816509694681	1.447640708143759	0.20377786343231533	1.9103602352757354	0.8976334941378318	-0.29409015677220357	1.1917236509100353	58.57979063461852
8	3.0	wm	498	diff_vonmises	-0.057541734132783504	-3.296898511672367	1.6619828591830352	149.63941002769414	1.6410700356222117	150.58934336877635	0.09511229054423609	-0.28797283767162796	0.38308512821586405	64.0000076469864
9	4.0	ltm	498	diff_vonmises	-0.16396607221624743	-9.394563921328245	1.2326977754794366	151.0264596119256	1.2153768643084948	152.23070784191637	0.021442253221515273	-0.29496658454429436	0.31640883776580964	72.4536011113832
10	4.0	perception	498	diff_vonmises	-0.08533850686961804	-4.8895362735772965	2.89382389802976	2.3533268772050113	0.24204290535163886	3.7646519579893476	0.757704777194159	-0.5157116497454552	1.2734164269396142	74.48078847722653
11	4.0	wm	498	diff_vonmises	-0.005248439906994214	-0.30071345569880276	1.0604663053705192	185.5731667096217	1.0448662970025926	187.60516352202822	-0.16668293354270247	-0.4245923250729753	0.2579093915302728	71.79109154363272
12	5.0	ltm	498	diff_vonmises	-0.05892152201106343	-3.375954533721117	3.1957808293473513	0.7079966093950895	0.046817653184587124	1.401360801397362	0.24700450465380477	-0.21385861335602752	0.46086311800983226	75.09683877209571
13	5.0	perception	498	diff_vonmises	-0.07543763163396532	-4.322257909088801	1.4627570498741627	3.475721315770975	0.37874463514524975	4.395104702080199	0.49684470054596686	-0.39513231858191955	0.8919770191278864	94.96678734417233
14	5.0	wm	498	diff_vonmises	-0.19086933236269166	-10.93600718286201	0.37305117770089957	89.9966090166892	0.35354036865237665	91.23929080625071	0.04637139660803413	-0.3563259550889324	0.4026973516969665	134.1785402232865
15	6.0	ltm	498	diff_vonmises	0.4874826522197677	27.9306985580364	0.4313007517606749	30.949673036051	0.3960508349591504	31.622362071021282	0.04769807919896074	-0.20164433589816966	0.2493424150971304	127.66262471743525
16	6.0	perception	498	diff_vonmises	-0.15222772817146585	-8.722006349089737	0.8451411185205423	293.2294235200616	0.8339157154052959	294.12573339191204	0.35028058315943156	-0.33750016568180996	0.6877807488412415	96.36222357033395
17	6.0	wm	498	diff_vonmises	0.21805223261173767	12.49347264205746	0.00014401870856479661	10852.249743102659	1.0414529152773547e-31	10853.38382423239	0.0682526674206656	-0.4292239932551638	0.4974766606758294	178.4124272677285
18	7.0	ltm	498	diff_vonmises	0.09920336758487325	5.683934276098156	1.4176570502455308	157.85079710463796	1.4009518203051836	158.9089370368821	0.02996279770405863	-0.27727063400887886	0.3072334317129375	67.68274787647414
19	7.0	perception	498	diff_vonmises	-0.09485005868086215	-5.434508048981598	0.6429591948017465	56.005343231159465	0.5877694905153904	56.937805672536506	0.3403250457507383	-0.3893936092611048	0.7297186550118431	112.63536149823395
20	7.0	wm	498	diff_vonmises	-0.6950536789468258	-39.82364233869404	0.6671926547600686	99.09905215939607	0.6539485022941646	100.41375941417297	-0.11295507354929413	-0.24993910833042143	0.1369840347811273	90.0136049937343
0	1.0	ltm	499	diff_vonmises	0.004018316846725884	0.23023259606371047	5.79412289776276	0.32139827077090405	0.024701317397284258	2.652329100547565	-0.1312967316470815	-0.4214807747733676	0.2901840431262861	55.43205325481486
1	1.0	perception	499	diff_vonmises	-0.018377421797798277	-1.052948707345563	15.442783702078033	0.48927498854400625	6.99904256093486e-18	2.776126130193169	0.3188164937193273	-0.44183419626678805	0.7606506899861154	34.46773719524441
2	1.0	wm	499	diff_vonmises	-0.04379428401412207	-2.509227640806444	4.647259463419825	0.44778680165379525	0.10519727508672917	3.282702674854214	-0.20548211647785575	-0.5234761083972661	0.31799399191941036	58.45875018311531
3	2.0	ltm	499	diff_vonmises	0.06360218765732178	3.6441369205635947	9.256453886978147	0.49093433582033097	0.3205230304842703	1.592865159795848	0.2467928776710911	-0.2857105379455348	0.532503415616626	42.427212984670604
4	2.0	perception	499	diff_vonmises	-0.004818458249457018	-0.2760773214538819	6.342605938534828	1.194715085616043	0.31438888577176133	2.651011757728861	0.6108236451497759	-0.4409078903738024	1.0517315355235783	51.10822028598881
5	2.0	wm	499	diff_vonmises	0.031188885793856147	1.7869915237034872	1.3161476148884357	3.345878915571859	0.6082814426009796	4.927464067764393	0.02342638046149803	-0.35921375885074824	0.3826401393122463	83.23356628260245
6	3.0	ltm	499	diff_vonmises	-0.05500953197222092	-3.1518140149982226	1.5134515081608586	82.83981147715195	1.4865282933770927	83.32892511555774	0.17945100374322465	-0.1799796821778905	0.35943068592111516	70.94062702134724
7	3.0	perception	499	diff_vonmises	-0.048399762212789826	-2.7731021042296193	3.8883752175075648	2.279984415792104	0.4426018367083713	3.1597929485842817	0.9801013281977824	-0.4489279841465327	1.4290293123443152	63.55791152193447
8	3.0	wm	499	diff_vonmises	-0.21940386457061342	-12.570915448756041	1.3686334901831512	239.1537331226721	1.3550823131822989	240.3431021256787	0.09798037119949754	-0.3243172263599874	0.4222975975594849	70.47479894837105
9	4.0	ltm	499	diff_vonmises	-0.12808337906449838	-7.338637046170043	1.1206821336443111	83.17107907162041	1.0873897235506425	84.40595980930226	0.0758410332042736	-0.3090262652231335	0.3848672984274071	78.08522718043241
10	4.0	perception	499	diff_vonmises	-0.07066889034002419	-4.049029159356219	2.4606337176076205	3.15356696807474	0.43204039132547906	4.789755807448716	0.7199918887428545	-0.5742447925926446	1.294236681335499	75.74078040631889
11	4.0	wm	499	diff_vonmises	-0.14134966526163784	-8.098739255078794	0.8709555218955555	210.85898807196594	0.8570062052308802	212.94335769942572	-0.09456933584063165	-0.43389080121484014	0.3393214653742085	82.80968222546772
12	5.0	ltm	499	diff_vonmises	-0.008180519090881588	-0.4687092181337121	1.9841990363325293	1.2614869357050327	0.15055070205554652	1.8829832501701627	0.30121606411753876	-0.24607162379903827	0.547287687916577	90.7699184302393
13	5.0	perception	499	diff_vonmises	-0.046913199447876565	-2.687928331818791	2.2017980309685012	1.7445021176473625	1.006045629128645e-14	2.6771232119713195	0.5274285420119182	-0.41441213581229064	0.9418406778242089	92.62840600586819
14	5.0	wm	499	diff_vonmises	-0.07552872410553287	-4.327477123255037	0.25833127377708315	105.48576238426935	0.24109960593693014	106.68438946083239	0.08103600315829596	-0.39712659846257203	0.478162601620868	149.43623904047746
15	6.0	ltm	499	diff_vonmises	0.4286255481642003	24.558434901290067	0.44279328804255835	126.15040013320397	0.43207542188475406	126.73326211560914	0.113495411242031	-0.2183461112581213	0.3318415225001523	127.57204322187687
16	6.0	perception	499	diff_vonmises	-0.07592266411047964	-4.35004822291985	0.9062534902973689	280.4831516298622	0.8946223286549889	281.39709005778553	0.3272906482911111	-0.3258970981527298	0.6531877464438409	92.65037276611645
17	6.0	wm	499	diff_vonmises	0.13390821987294552	7.672375840829635	0.0002529023070438721	5258.894382157324	7.946611862794665e-30	5259.789278211677	0.06925671924955168	-0.3540842157950692	0.4233409350446209	179.3315203775753
18	7.0	ltm	499	diff_vonmises	-0.0475336799199066	-2.723479244136397	0.9675978895370226	132.31928154848563	0.9512860809056466	133.2740602264333	0.09216559758488785	-0.24551012661785343	0.3376757242027413	85.19845423371336
19	7.0	perception	499	diff_vonmises	-0.09813099447506336	-5.62249182284273	0.6959327637744153	223.21394165448592	0.679619249426186	224.1197101017411	0.43940627687024403	-0.4107237716778478	0.8501300485480918	107.44345502324353
20	7.0	wm	499	diff_vonmises	-0.22443820146261548	-12.859361705314766	0.9441367507622224	139.40560552012585	0.9299264322971101	140.55420016858847	-0.000698589530465199	-0.25778572541590705	0.25708713588544185	82.36126496539127
