	roi	task	n_boot	func	loc	loc_deg	kappa1	scale1	kappa2	scale2	maxr	minr	amp	fwhm
0	1.0	ltm	0	diff_vonmises	-0.06212125294804368	-3.559285611987526	0.9369392620990232	190.1497000262145	0.9215033443169037	192.372701068539	-0.16839672164419994	-0.45091839015917046	0.2825216685149705	76.97440252011674
1	1.0	perception	0	diff_vonmises	0.06874225575031098	3.9386411287017333	9.107166181931106	0.7766210321553387	8.243853327648422e-15	2.7277799232978874	0.4873160674157431	-0.43413964713320613	0.9214557145489493	45.00166230426646
2	1.0	wm	0	diff_vonmises	-5.7473378147706755e-05	-0.00329298200222301	8.23479528238343	0.24088761720544855	0.007846557931040615	2.5335331331195845	-0.13506658789184972	-0.4034776896551017	0.268411101763252	47.052997728264785
3	2.0	ltm	0	diff_vonmises	0.0889181459783721	5.094634486688875	3.9502566368935574	0.47782268152116647	0.0474803785594033	1.8815945660920559	0.051022534082081294	-0.2933017551819071	0.3443242892639884	66.73678857638089
4	2.0	perception	0	diff_vonmises	-0.009211524049058548	-0.5277814508943138	8.26617538907412	1.1851357754036358	0.12113236285997103	2.549862047934314	0.8807470867139131	-0.4156433598283566	1.2963904465422698	46.45409432092134
5	2.0	wm	0	diff_vonmises	0.08149501880902446	4.6693206290963625	5.485702519621207	0.36514231504119304	0.06118439119398293	1.9279360229925284	0.0066806916463578725	-0.30625539952456865	0.3129360911709265	56.32147714240955
6	3.0	ltm	0	diff_vonmises	0.22747458859674435	13.033333873068175	4.309854564039026	0.4920221796690914	0.3386979613249998	1.1016195780367248	0.15484783495308102	-0.1699434416631371	0.3247912766162181	60.051952336316475
7	3.0	perception	0	diff_vonmises	0.05533926489917853	3.170706320079389	5.683450323067259	1.702310461650297	0.15848294431694923	2.1878781739146973	1.1744162247054908	-0.342080150207149	1.5164963749126397	55.90117946770792
8	3.0	wm	0	diff_vonmises	-0.10024478897734547	-5.743603326581451	5.892865006758857	0.33887774351549543	0.15965457779106906	1.2187029450874969	0.09445488628710097	-0.19701418120845124	0.29146906749555224	53.40573457287536
9	4.0	ltm	0	diff_vonmises	0.18262082772121063	10.463402679611077	0.6070212010509882	120.96046979845077	0.5950590510732331	122.32748559860177	-0.08785928076441252	-0.27131526866329736	0.18345598789888484	97.98848301582319
10	4.0	perception	0	diff_vonmises	-0.038837474176285705	-2.225223357249494	3.2214699595128633	1.9919925400141492	0.15537513672024744	3.8333500309308874	0.6500057475514156	-0.5594205225697025	1.209426270121118	72.1120947984951
11	4.0	wm	0	diff_vonmises	0.035766152080992285	2.0492495636639045	0.8508532222415092	108.99351812264186	0.8327003384940469	110.71977683075201	-0.15732992125909817	-0.33608628049292655	0.17875635923382838	78.88133267731516
12	5.0	ltm	0	diff_vonmises	0.27426565938043446	15.71426474787151	0.8292905697650365	123.77666732633082	0.8095049965473169	124.9486314128865	0.10959913972282465	-0.30150764156957877	0.4111067812924034	92.46930610863342
13	5.0	perception	0	diff_vonmises	0.03608515714017721	2.0675272071985216	3.1652855504471167	1.8964116040547492	1.6085704977848816e-13	2.961777889185509	0.8090699932039642	-0.46910107618445224	1.2781710693884165	77.19203176594831
14	5.0	wm	0	diff_vonmises	0.03570609845364899	2.0458087442726822	0.4615574186958595	149.0778737733253	0.44804848968256444	150.42783641023001	0.053501201621891425	-0.36674547305404914	0.42024667467594057	123.02568517387974
15	6.0	ltm	0	diff_vonmises	-0.3483021340571759	-19.956242276875994	0.0002721231476178299	3087.538183930371	2.6224702458931825e-30	3088.6107721268586	-0.036978167534073236	-0.3044190650134624	0.26744089747938915	176.5443222249529
16	6.0	perception	0	diff_vonmises	-0.20325683289081853	-11.645758681839757	1.5531595662592186	1.603371504959772	4.468211974075682e-18	2.6133318167218715	0.29338675905402034	-0.3841701613125658	0.6775569203665861	108.70679625794367
17	6.0	wm	0	diff_vonmises	-0.21292915254347644	-12.199941776038498	0.43752023467267626	137.91449815395944	0.4234617795713349	139.1818728234039	0.06325979685768601	-0.35832407948395684	0.42158387634164285	126.22627322084986
18	7.0	ltm	0	diff_vonmises	0.2839143605984359	16.26709460544573	0.8013992853034289	114.03591552301499	0.7830644680918333	115.20806782235162	0.047156729171817346	-0.2780210126561702	0.32517774182798753	92.09118950080719
19	7.0	perception	0	diff_vonmises	-0.03115423807487245	-1.785006355635966	1.5746586195042511	3.6006634597082385	0.4321765941394446	4.743691007482989	0.4956199311988243	-0.42974754360448647	0.9253674748033107	90.17576835324928
20	7.0	wm	0	diff_vonmises	0.20992923165964214	12.028058970521638	3.7869347013837382	0.38296375129658644	0.024818013156683874	1.795787082639348	-0.0071997358586282645	-0.281577258930867	0.2743775230722387	68.82623198718747
0	1.0	ltm	1	diff_vonmises	0.11175520146339267	6.403101382486641	2.903612317408031	0.7675824622266798	0.42535468563898443	2.0193725305532557	0.023144337530489834	-0.2862733635067851	0.30941770103727495	66.40712013685777
1	1.0	perception	1	diff_vonmises	0.06760370486310949	3.8734069681042125	7.140117077474695	0.996792570409669	0.3220224707841937	2.2456319513386886	0.5619641319675588	-0.38222974953100075	0.9441938814985595	48.37214804550226
2	1.0	wm	1	diff_vonmises	0.13851608146080793	7.936386862394602	3.33259244612736	0.37384381212329787	7.8317729387212e-11	1.7463141762094816	-0.018093825571841304	-0.2776033595258344	0.2595095339539931	75.18098777550958
3	2.0	ltm	1	diff_vonmises	0.12640228389785674	7.242317388161636	3.411338422541149	0.9922995361555299	0.9792608521835799	1.4784181128847707	0.19936660283485508	-0.18814599899303341	0.3875126018278885	59.75408158830945
4	2.0	perception	1	diff_vonmises	-0.026221179808707546	-1.5023629368925937	8.743286052151744	1.0210326736407735	1.678603623980668e-22	1.2610273488909907	0.9851445355370535	-0.2006987057511109	1.1858432412881643	45.95184987741425
5	2.0	wm	1	diff_vonmises	0.06200114271447043	3.552403802527448	7.789071824797863	0.33682356544031555	0.11041570773072411	1.060287755748051	0.18064103450414232	-0.17253463188535545	0.35317566638949777	47.5810191881165
6	3.0	ltm	1	diff_vonmises	0.26859378467268813	15.389290265190649	4.2872391669746595	0.4063485095040215	0.34892722060631004	0.5825838322940711	0.19687019327524918	-0.08635256040603485	0.283222753681284	61.77665994978932
7	3.0	perception	1	diff_vonmises	0.024552310873965404	1.4067437903713753	6.968428740347189	1.2030945660071979	8.209605505503115e-18	1.4319384410905123	1.014437615254907	-0.22789898034478345	1.2423365955996906	51.55416318120788
8	3.0	wm	1	diff_vonmises	0.04702501596977189	2.6943349466032256	6.3471668928516385	0.4923742266258133	0.46222399368971767	0.9608495336598364	0.25394212391198534	-0.16397207056727958	0.4179141944792649	50.28588017827468
9	4.0	ltm	1	diff_vonmises	-0.10791676427707357	-6.183175131784486	1.5941706583173996	68.91296710177468	1.5662165149965064	69.6057917720751	0.02320367402257517	-0.19314196546814166	0.21634563949071683	63.912425349706496
10	4.0	perception	1	diff_vonmises	-0.07759951906776809	-4.446124934828068	3.453119037410682	1.7774931562862977	5.306768763315727e-17	2.9981973180568424	0.7829143158750169	-0.47591565379495304	1.25882996966997	73.83228550735288
11	4.0	wm	1	diff_vonmises	-0.0870956073464146	-4.990210715078164	1.4063580156652036	202.326789257978	1.3896624405607616	203.8168786031096	-0.013219557996023923	-0.37525169450227835	0.36203213650625443	66.60996450268769
12	5.0	ltm	1	diff_vonmises	0.060632381153767366	3.473979541939423	1.5628095499718442	0.9419337816311394	6.607946290130634e-19	1.3728061464134536	0.19977147655924068	-0.20012121582909861	0.3998926923883393	108.52753992518566
13	5.0	perception	1	diff_vonmises	-0.025485456881963974	-1.4602091182991743	2.789298389840999	1.6334286075059796	5.448535898144555e-18	1.6415884326759633	0.7647044967084752	-0.25739023662340893	1.0220947333318842	82.33238339495088
14	5.0	wm	1	diff_vonmises	0.09780596279537454	5.6038688793885125	0.725812600322624	124.61093945124153	0.7104445852332459	124.97701872298144	0.26035058749846485	-0.20170638338627178	0.46205697088473663	106.346668644445
15	6.0	ltm	1	diff_vonmises	0.43047313641619045	24.664293910407057	0.8331146451783622	95.15951431005678	0.8187638333884296	95.25527813118595	0.23128705648906944	-0.11937797740121958	0.350665033890289	101.6991769279054
16	6.0	perception	1	diff_vonmises	-0.03304157155830117	-1.8931425987701556	1.7447406991528618	1.703568515688403	3.947377239426615e-16	1.6789763288702528	0.5417115922064921	-0.24253139422438466	0.7842429864308768	103.37480340577291
17	6.0	wm	1	diff_vonmises	0.06035530830226282	3.4581044369305576	0.7592069591792321	165.75225311425066	0.7452336319127949	166.07748278411546	0.3467833886033489	-0.22789281781618165	0.5746762064195305	104.97822719442303
18	7.0	ltm	1	diff_vonmises	0.05452473987673004	3.124037473985292	1.014087000046888	57.39044653929579	0.9697896186724094	58.344716888997404	0.1606174198761643	-0.2693856943849742	0.43000311426113846	85.44863177976649
19	7.0	perception	1	diff_vonmises	0.03875242043582886	2.220350136889516	2.6386761604225577	1.6266196702809	0.10176025837432279	2.700833021739614	0.5147405919917163	-0.3888678508780426	0.9036084428697588	80.95291743892108
20	7.0	wm	1	diff_vonmises	0.3725589435363245	21.346055084484135	3.6138594853269477	0.5721132611867863	4.745044106242691e-24	1.4896273087982796	0.17889350844481242	-0.2367794388799101	0.4156729473247225	72.11479446331381
0	1.0	ltm	2	diff_vonmises	-0.07224071102493855	-4.1390878507531745	0.8418197363174643	157.6551155106385	0.8239314392712713	159.7291367746971	-0.10089370760587713	-0.42753893710069946	0.32664522949482233	84.10739418377526
1	1.0	perception	2	diff_vonmises	0.0158044267204356	0.9055269487047449	9.243609735146324	0.7892027708227964	3.1773180745347674e-19	2.5655734016873497	0.5352583276764626	-0.4083236799150035	0.9435820075914662	44.66376357789744
2	1.0	wm	2	diff_vonmises	0.0142867893744211	0.8185727339466786	5.555910402133002	0.3400881269356381	3.8258660411697236e-17	2.4676080022726006	-0.08086563381820316	-0.39272735327341357	0.3118617194552104	57.85559889471202
3	2.0	ltm	2	diff_vonmises	0.15069472666845488	8.634171832979996	2.5758466572274754	0.5415944344341674	5.270808763270602e-31	2.0969220156724986	-0.008916935780800772	-0.33185473933418114	0.32293780355338036	85.69032783815481
4	2.0	perception	2	diff_vonmises	-0.02578233892338874	-1.4772192062860414	8.137228560694007	1.1388863721464995	0.06989838968669869	2.5531444813877613	0.8393223406337196	-0.41022751052454454	1.2495498511582641	47.106538527672996
5	2.0	wm	2	diff_vonmises	-0.014261003483085656	-0.8170953112021748	3.971954406489119	0.4922943123354851	0.06026553444808358	2.0604814972731025	0.029054174705035574	-0.32089833446125726	0.34995250916629284	65.98989441505702
6	3.0	ltm	2	diff_vonmises	0.22799035592451208	13.062885164160006	4.528676462521298	0.4265327341183836	0.1365340444967047	1.1776441417830288	0.13691117658244312	-0.18317210865058234	0.3200832852330254	61.20245958112534
7	3.0	perception	2	diff_vonmises	0.04768336929075569	2.7320558133240183	5.191598156961304	1.8964973136833696	0.1832339601475126	2.3939792731657543	1.2238557374182994	-0.36928766259400625	1.5931434000123057	58.22863423775772
8	3.0	wm	2	diff_vonmises	-0.18417991159871872	-10.552731605699181	6.39048903689792	0.3890317095694243	0.02000937086114166	1.3281353375718417	0.1683134491204	-0.21071404909897326	0.37902749821937326	53.465938445492526
9	4.0	ltm	2	diff_vonmises	-0.11726634511274521	-6.718866653884868	0.6537785097101237	121.34216948680266	0.6394328186115672	122.68518373407305	-0.03592337067887996	-0.28679457467053204	0.2508712039916521	98.1916020278475
10	4.0	perception	2	diff_vonmises	-0.014062905490289568	-0.8057451322849459	2.3062365694434566	3.0215954704559316	0.3538014431500543	4.844596285745289	0.6331151061943052	-0.5897370571139833	1.2228521633082885	78.90171079719514
11	4.0	wm	2	diff_vonmises	0.1587118186256246	9.0935173660941	0.8420824726920733	135.3470857662867	0.8269991875715025	137.11091972894874	-0.1549816985845851	-0.3442110264427676	0.18922932785818247	79.67145058783086
12	5.0	ltm	2	diff_vonmises	0.37236035895001235	21.3346770258121	0.860165617187512	130.09459459294249	0.8411058205748677	131.13334018141026	0.14955861484263266	-0.2865485109244936	0.4361071257671263	92.05287518414693
13	5.0	perception	2	diff_vonmises	0.06445406875864104	3.692946112316145	2.830488541965963	1.9709358713174252	3.505489639921084e-14	2.9572438384991035	0.7778681270914748	-0.4663158477926318	1.2441839748841066	81.71745560433035
14	5.0	wm	2	diff_vonmises	0.020818330067741482	1.192802449391888	0.45719081695764835	92.31360124858756	0.43538241403374917	93.58758233466045	0.07378031678900854	-0.36292050988270574	0.4367008266717143	124.77211612417852
15	6.0	ltm	2	diff_vonmises	-0.35451875791121606	-20.312428586532846	0.00021642379610571454	3268.466809139913	7.117445140373852e-23	3269.3653428997627	-0.030419604817666368	-0.255580392017805	0.22516078720013866	176.42552029599563
16	6.0	perception	2	diff_vonmises	-0.1937950663011903	-11.10363938951617	1.7747364299231916	1.3451361336584042	3.274575660047781e-16	2.2786529288809185	0.2827325201059037	-0.3441103591552278	0.6268428792611316	102.50056700719362
17	6.0	wm	2	diff_vonmises	-0.358975916016385	-20.567804934581552	0.2782722492014233	96.3178237078858	0.2629170760630233	97.57263997113144	0.0069955900673974725	-0.35089827584388367	0.35789386591128114	144.17168101986576
18	7.0	ltm	2	diff_vonmises	0.21097881423798592	12.088195622511195	0.9755796834963986	89.98406392940812	0.9525460205380232	90.94349658230152	0.07399913489527776	-0.2404075581510181	0.31440669304629587	84.38699590342122
19	7.0	perception	2	diff_vonmises	0.012616534964427396	0.722874205540926	2.0648850750099728	1.6341832345789913	1.046171112809072e-08	2.4894766024655524	0.46322147108247824	-0.38238648499818834	0.8456079560806666	95.55205695674883
20	7.0	wm	2	diff_vonmises	-0.4936493924980918	-28.284026749337702	0.00045337200508269886	1681.1751229800557	2.3509020269015265e-22	1682.5061496993305	-0.09051968828578083	-0.33313177786584447	0.24261208958006364	173.1328836934641
0	1.0	ltm	3	diff_vonmises	0.0048368597487469635	0.2771316496999088	0.8926897613836072	381.1093923289112	0.8803573225992624	384.68533957980344	-0.24496778932147834	-0.7242427749990483	0.47927498567757	79.57505878934612
1	1.0	perception	3	diff_vonmises	0.05238387345004789	3.001374863235151	7.075815304794111	0.8718134166063807	2.2717816587403215e-14	3.802562911141152	0.30241750110292664	-0.6051960352017989	0.9076135363047255	51.14900899548661
2	1.0	wm	3	diff_vonmises	0.08355762829548478	4.787499447454185	6.991591127066009	0.3634944744303876	1.0009976659943544e-17	3.5555355198631906	-0.1898320575965708	-0.5658807352956107	0.3760486776990399	51.461644664329555
3	2.0	ltm	3	diff_vonmises	-0.017112215926744143	-0.9804577507189881	3.076758382529051	0.9000101145546715	0.12472566591400283	3.0008482003462147	0.0590561113314334	-0.44961973593956855	0.508675847271002	72.26729678109871
4	2.0	perception	3	diff_vonmises	-0.04151163436733274	-2.378441449938387	6.731254269164589	1.3126261413324773	0.06721323932139335	3.3415628526630123	0.7630481313430946	-0.532356776118302	1.2954049074613967	51.65607461812806
5	2.0	wm	3	diff_vonmises	-0.0013640302185454925	-0.07815317465096404	3.8346478265806834	0.6752818571982522	0.1154892995089971	2.7668381100223973	0.01471134674262381	-0.42815299412816465	0.44286434087078846	65.25772724385223
6	3.0	ltm	3	diff_vonmises	0.15584567232485017	8.92929927959269	3.962465134900048	0.5616922441565023	0.03398023000461285	1.737462317156665	0.14364053513455416	-0.2711571944637165	0.41479772959827066	67.43730834809588
7	3.0	perception	3	diff_vonmises	0.07560748299263803	4.33198967508531	4.76033272486912	2.015816258877081	0.04411554341760259	2.903453912445934	1.219869644778105	-0.4523769021499191	1.672246546928024	61.96283713201484
8	3.0	wm	3	diff_vonmises	-0.11827126196360563	-6.776444148200748	3.643802195740638	0.593795447924967	3.4394199463663453e-22	1.8889256871438904	0.13309973377440998	-0.30033518672774484	0.4334349205021548	71.8184213220857
9	4.0	ltm	3	diff_vonmises	0.2169298442812052	12.429164527743216	0.00027402472963973236	4716.984174480168	3.5254457983428053e-29	4718.982473344102	-0.11231186810528015	-0.5237382329571574	0.4114263648518772	178.4196346524349
10	4.0	perception	3	diff_vonmises	-0.0329264610416464	-1.886547251988267	2.2620327917416128	3.3206380450732946	0.28863611465775785	5.920251473545314	0.6128051501330303	-0.7495415068956922	1.3623466570287226	80.30503064304287
11	4.0	wm	3	diff_vonmises	0.17149928092713645	9.826184986653375	0.6566071896695054	163.37425322607646	0.6413869487759978	165.7543748768501	-0.17816266073450038	-0.4615868567759094	0.283424196041409	92.5931950288983
12	5.0	ltm	3	diff_vonmises	0.2981013527931253	17.079949382186474	0.8094592528702653	78.26587034779925	0.7720223445322518	79.80222473424494	0.10124676755120277	-0.37990145138417564	0.4811482189353784	93.24943127527783
13	5.0	perception	3	diff_vonmises	0.03807541060617184	2.1815603309612976	2.242269125432868	2.6999697130595863	5.654807533782895e-22	4.010387866657619	0.8536523492629179	-0.6214406283705585	1.4750929776334765	91.8054942485164
14	5.0	wm	3	diff_vonmises	0.03809820773008989	2.182866509946839	0.5379809653957132	183.4620636608654	0.5234183030207441	185.0512793744889	0.10250117600233466	-0.43332824257336	0.5358294185756947	115.11713956239547
15	6.0	ltm	3	diff_vonmises	0.41505832201849624	23.78109010344168	0.7123872243615075	107.73857092168699	0.6957290589337651	108.9115461184966	0.00930999807031796	-0.26562449862263193	0.2749344966929499	96.28353525603876
16	6.0	perception	3	diff_vonmises	-0.19238261692480152	-11.022712001473208	1.2752644512696054	2.1205765077119563	7.780069615248725e-15	3.108416921609151	0.33858037838104815	-0.42968883398810864	0.7682692123691568	117.7727819115275
17	6.0	wm	3	diff_vonmises	-0.18376688637351601	-10.529067003462625	0.3874568587953157	152.06752377862733	0.375741566881274	153.4326619206942	0.019995774736173644	-0.36580836024062613	0.3858041349767998	131.06973211607828
18	7.0	ltm	3	diff_vonmises	-0.007607191800314198	-0.43585998410453003	2.0041382662582654	2.0841166503012643	0.7338429097992646	3.6474967556351903	0.01500095895849718	-0.37350088010145255	0.3885018390599497	69.73957891032666
19	7.0	perception	3	diff_vonmises	0.009161205473311049	0.5248984088728729	0.9580501200167422	313.5047024322667	0.9417893328317208	314.61231086276945	0.6017796458253315	-0.4690645430283844	1.070844188853716	91.56561634542749
20	7.0	wm	3	diff_vonmises	-0.5134044263212904	-29.41590681154517	0.0007568335342068456	1341.0783902178648	4.482530204968376e-19	1343.0134833116801	-0.1464153480923187	-0.46948279211989075	0.32306744402757204	172.5714511503818
0	1.0	ltm	4	diff_vonmises	0.12889002283315984	7.384854329684872	1.082589134727935	215.63344740185073	1.0653450718721476	217.76625588545264	-0.05683947215995033	-0.4766207179643551	0.4197812458044048	75.30403514097853
1	1.0	perception	4	diff_vonmises	0.12581253235866757	7.208527114004752	5.436065436594469	0.9485363369592797	0.15403800486380753	3.0518627169048345	0.29657761492302526	-0.48723101487472653	0.7838086297977518	55.71664471861442
2	1.0	wm	4	diff_vonmises	0.14085152450755728	8.070197892266513	5.836867330621687	0.31537218995093286	2.0533111622606024e-15	2.271888355130231	-0.06474651946127241	-0.3615797344284119	0.2968332149671395	56.41613077926095
3	2.0	ltm	4	diff_vonmises	-0.005880829911261046	-0.3369467339495524	1.8663175589525285	4.886930769138881	1.1979257548246214	5.7922247315573445	0.22372285327029529	-0.2982163767409879	0.5219392300112832	69.23621064797578
4	2.0	perception	4	diff_vonmises	-0.026211811480198872	-1.5018261712079546	7.133783974593261	1.1398602708338064	7.852242527008536e-22	2.052741922914944	0.8646970734376355	-0.3267032654053678	1.1914003388430032	50.94371406273868
5	2.0	wm	4	diff_vonmises	0.0638520192777249	3.6584512180016078	5.851564893619485	0.4369536824780796	0.16604406888151882	1.5773815063704981	0.11741492512080742	-0.25523422353439024	0.37264914865519766	53.47915470208861
6	3.0	ltm	4	diff_vonmises	0.20285628936383637	11.622809228232395	3.227850242850515	0.7799229403160819	0.39612089687740387	1.2579068668594353	0.2462411417751466	-0.1716319958363524	0.417873137611499	68.44040244812484
7	3.0	perception	4	diff_vonmises	0.051319319523616506	2.940380416186552	5.502416659660839	1.5200617479892935	7.683020028142225e-19	2.0797837105122863	1.0558349353015206	-0.3309848070016101	1.3868197423031308	58.139948230296
8	3.0	wm	4	diff_vonmises	0.04776354942874199	2.73664979683141	3.4723613295561724	0.6542633183173484	0.24373368168738332	1.4240678092871457	0.180332274086972	-0.2089277533869265	0.38926002747389854	67.49679154163093
9	4.0	ltm	4	diff_vonmises	0.6575036213628188	37.67218251865723	0.4473907424417584	124.36203939086687	0.43585686038717497	125.55434858371441	-0.014581500564812444	-0.2871351786628047	0.27255367809799225	120.31433202769651
10	4.0	perception	4	diff_vonmises	-0.11416776053158019	-6.541330834919801	3.4579214049199205	1.9757276600419351	9.562278939264815e-17	3.85412944010576	0.7882964553452966	-0.6120130339307803	1.400309489276077	73.77930522985105
11	4.0	wm	4	diff_vonmises	-0.06678254351300444	-3.826357888443929	1.13832342369046	192.37049984753838	1.120305761286356	194.24527646197978	-0.03647689353620365	-0.4289056577968502	0.39242876426064655	73.78498143909837
12	5.0	ltm	4	diff_vonmises	0.04546459625314374	2.6049294825714324	1.8764895717461092	0.9607779868061921	7.851088667049547e-13	1.7843848606476433	0.19285704750435645	-0.2728115791035566	0.465668626607913	99.97244400287542
13	5.0	perception	4	diff_vonmises	-0.049000780248606976	-2.8075379010931845	2.418686694244348	2.210101491403721	1.7059913244236248e-16	2.5242502296808924	0.8756604843739049	-0.3916195309827594	1.2672800153566643	88.43801780810338
14	5.0	wm	4	diff_vonmises	0.044098857330303005	2.526678406375915	0.6804559194036897	142.0727483155434	0.6657605075208296	142.75127544315222	0.20872007103638168	-0.25135435819740515	0.46007442923378683	106.94966992157731
15	6.0	ltm	4	diff_vonmises	0.4217387975840559	24.163853158488525	0.7734459730670163	125.30071869498164	0.7600597031622549	125.76470627429498	0.1829298187964028	-0.1810172712472582	0.363947090043661	100.960412376963
16	6.0	perception	4	diff_vonmises	-0.13570984657083404	-7.775601446876738	1.3522224283932334	2.2997432070343473	0.019467539006355155	2.4787041183340484	0.5335735703437234	-0.3242432515132991	0.8578168218570226	114.37850671662322
17	6.0	wm	4	diff_vonmises	0.029807927565635505	1.7078684455425805	0.7984425790748763	142.33314058211923	0.7821230359629883	142.89631700677634	0.2744996517440157	-0.24008102117667107	0.5145806729206868	100.16549942129777
18	7.0	ltm	4	diff_vonmises	0.0012815774500874488	0.07342897900914873	1.6541743405759022	2.234716411142292	0.5143259950026076	3.687185587531152	0.10760433513491341	-0.3558616476969013	0.4634659828318147	81.54233792802737
19	7.0	perception	4	diff_vonmises	-0.02383429353206372	-1.3656044270632068	1.1554346605624102	444.388940116381	1.1407648409890576	445.6960941150085	0.7318025391546428	-0.5456400891605426	1.2774426283151854	83.14027674167565
20	7.0	wm	4	diff_vonmises	0.3263117809161357	18.696287851892137	5.88966614082111	0.5932210839676825	3.4303327623282766e-18	1.990823488396137	0.24411453465435878	-0.3168451005920681	0.5609596352464269	56.161281475454444
0	1.0	ltm	5	diff_vonmises	-0.13505180683088794	-7.7378985470259405	1.1248624779056442	140.4722359377819	1.1072775074868784	141.6572275551489	0.03271807101366875	-0.2854502715583749	0.3181683425720436	76.42478300346875
1	1.0	perception	5	diff_vonmises	0.037900787619853396	2.17155517083928	13.14723987882927	0.6218777571502075	1.333502431382256e-16	1.8147212853247063	0.6018267637419632	-0.2888218628901147	0.8906486266320779	37.38129021213314
2	1.0	wm	5	diff_vonmises	0.01358725811851881	0.7784925453459915	5.7056164215794976	0.25643653677982314	2.466789272069927e-18	1.6216218178116364	-0.019610863198384898	-0.25808648784797156	0.23847562464958666	57.07693336336723
3	2.0	ltm	5	diff_vonmises	0.029983377452449368	1.7179209835730629	3.64287101340543	0.40955230535606096	5.650331639672822e-15	1.0896885083308416	0.12567665293805944	-0.17322433518687375	0.29890098812493315	71.82992188091248
4	2.0	perception	5	diff_vonmises	-0.01666662039288744	-0.9549270072591203	8.380225273465244	1.0241184614194718	0.1521153338089574	1.6750412640981625	0.8554218851107155	-0.2745278308113843	1.1299497159220997	46.15351140079616
5	2.0	wm	5	diff_vonmises	0.06229701398488696	3.5693559776014894	6.777278511991387	0.2627355895991795	0.07512873016851113	1.1515834134984297	0.07009120028655155	-0.1848805602180454	0.2549717605045969	50.92344544044127
6	3.0	ltm	5	diff_vonmises	0.16765410044750026	9.60587237370413	1.4933468498098015	59.31818977900305	1.4654102178277812	59.60517653216897	0.16854385908821	-0.12509157058621412	0.29363542967442413	72.89204332636484
7	3.0	perception	5	diff_vonmises	0.03351996421299646	1.9205524788342552	5.389341420175935	1.6332910789148796	0.36985988726315017	1.8328653671004844	1.0656750197054674	-0.2838929553010968	1.3495679750065643	56.15244500664684
8	3.0	wm	5	diff_vonmises	-0.006118765766042516	-0.3505794542233682	3.6746705254021066	0.5775775615904867	0.5871025702403307	1.1414092234192301	0.1235187118615006	-0.166751817334594	0.2902705291960946	60.896986065017614
9	4.0	ltm	5	diff_vonmises	-0.099044779702466	-5.674847859754303	1.3640052353757972	165.10786307469385	1.3517380412411126	165.90851667588345	0.03863718736342037	-0.21060708304088394	0.2492442704043043	69.64323665195951
10	4.0	perception	5	diff_vonmises	-0.05594231154502629	-3.205258347735986	2.6714605452887286	2.201004698603434	0.2857326632766647	3.1800325311224324	0.68846846200276	-0.4139628384070887	1.1024313004098487	76.69669773169926
11	4.0	wm	5	diff_vonmises	-0.036640736978145565	-2.0993595870966706	1.1200898535194366	134.8819842995871	1.1043011974564576	136.1121445449065	-0.04638519022311982	-0.2743758733817643	0.22799068315864446	73.29603350061527
12	5.0	ltm	5	diff_vonmises	0.2121653666017199	12.156180065124422	0.8756147699121065	95.12369992095101	0.853530120318404	95.83533248683432	0.17732667386948364	-0.22522167939968796	0.4025483532691716	93.26050568778649
13	5.0	perception	5	diff_vonmises	0.03705731522672813	2.123227762577403	3.493010361739933	1.5232239772671516	4.248132189320978e-17	2.2237907162279797	0.7329426054106297	-0.35292221948580643	1.0858648248964362	73.39299132299581
14	5.0	wm	5	diff_vonmises	-0.06941479416532127	-3.9771747414422407	0.423980305001821	128.49080710242637	0.41224015227584043	129.35675700533838	0.07824306080080135	-0.26983094362097937	0.3480740044217807	129.06642542778135
15	6.0	ltm	5	diff_vonmises	-0.0514582546926728	-2.9483408149994146	0.5811762603345815	76.27699341848279	0.5657091965104769	77.0742041833109	0.016138718660648976	-0.1923718772433931	0.20851059590404208	108.22511221707248
16	6.0	perception	5	diff_vonmises	-0.19764779930538653	-11.324384730247372	1.8921336447067651	1.3858575668532287	3.894080720354426e-15	2.3107304955267765	0.3235461876280644	-0.35205284843164764	0.675599036059712	99.5248367210678
17	6.0	wm	5	diff_vonmises	-0.2691152945646581	-15.419170580974852	0.5873242774081257	68.97807837423477	0.5544730753663952	69.9853144294982	0.16873023786917685	-0.3251412603563031	0.49387149822547993	113.93948531269297
18	7.0	ltm	5	diff_vonmises	0.13761196497326478	7.884584803470187	0.9923887703512402	148.85307084073662	0.977955278753429	149.60588273267595	0.15283611132932862	-0.22177354116922743	0.37460965249855604	86.4044428719667
19	7.0	perception	5	diff_vonmises	-0.024400766332387636	-1.3980609277307243	3.1494593809029277	1.2772304044543974	2.114965890237621e-15	2.2675476712216436	0.49898747972256347	-0.359310472330528	0.8582979520530915	77.3936981706764
20	7.0	wm	5	diff_vonmises	0.3072805072809032	17.605876193834717	5.1454345754314295	0.40212679434276244	5.222364028215186e-12	1.3481498455942593	0.1394549927908892	-0.21455269303263727	0.3540076858235265	60.1754291800531
0	1.0	ltm	6	diff_vonmises	0.18038050747994389	10.335041785028762	1.811383185601559	1.7422352930939273	0.38063185854462966	4.711262795977354	-0.21209755482152548	-0.5858956942244338	0.3737981394029083	75.74783470777521
1	1.0	perception	6	diff_vonmises	0.11864736206944464	6.797993096939747	5.643055349731558	1.0827163838056766	0.20666286001715886	4.100859327112508	0.2070557148415113	-0.6686376235972883	0.8756933384387996	53.6241870452412
2	1.0	wm	6	diff_vonmises	0.13270331315287923	7.603339771062886	4.296635042340469	0.44789842707543137	0.06521108228819297	3.512378314900371	-0.23805937691767298	-0.5546515347943164	0.3165921578766434	61.90418724968228
3	2.0	ltm	6	diff_vonmises	0.02933456861275983	1.6807469753480724	2.2687450247943426	1.663910937216122	0.6202264355706628	2.924677194582553	0.13800140004975447	-0.330734607652011	0.4687360077017655	71.33501794849215
4	2.0	perception	6	diff_vonmises	-0.029160107411318546	-1.670751084816705	7.375553526092341	1.176845700611398	0.09346420692045392	2.601245241893907	0.7981941631034064	-0.41792181104695963	1.216115974150366	49.26673038451827
5	2.0	wm	6	diff_vonmises	0.09735279340744216	5.57790418605546	6.002381862581838	0.43035358364483944	0.08161790283303116	2.1048852921787926	0.048112473884126816	-0.3367822094487186	0.38489468333284543	53.67162578613835
6	3.0	ltm	6	diff_vonmises	0.2112694508616728	12.104847874420384	3.007011291029093	0.7737089142226493	0.20140484178659881	1.6389055472115905	0.1915912213415607	-0.23457104649439897	0.4261622678359597	72.8124451082852
7	3.0	perception	6	diff_vonmises	0.03803742992167376	2.1793841980365403	5.6912615547962995	1.5928584312643967	1.0504843422682627e-16	2.6771732590555803	1.0532792039593202	-0.42606850254833056	1.4793477065076508	57.149938081466786
8	3.0	wm	6	diff_vonmises	0.09936475477156183	5.693181080762901	4.436551753218128	0.545261548072864	0.1081898495977399	1.9639421410962739	0.09616577662542802	-0.3068832066130818	0.40304898323850985	61.72188515273183
9	4.0	ltm	6	diff_vonmises	0.5453306269145002	31.24514336142416	0.6043049264223456	201.37190011210288	0.5928591537819197	203.37021427272296	-0.09178717774935308	-0.4129711606709279	0.3211839829215748	100.44333235420905
10	4.0	perception	6	diff_vonmises	-0.07881021859356037	-4.515492907914456	3.4265066469125824	1.901678230832693	1.1554040907976242e-15	4.287337593175755	0.6599507802479313	-0.680932792767793	1.3408835730157243	74.12676146657537
11	4.0	wm	6	diff_vonmises	0.024643459347371135	1.4119662132065842	1.0465035018036957	8.328193555889277	0.6713124352114632	11.070046309137911	-0.17066894273873823	-0.5540661340331392	0.383397191294401	81.98681635270907
12	5.0	ltm	6	diff_vonmises	-0.010611468247605664	-0.6079923450248882	1.8713874831205946	1.0578877061517382	4.221933481300788e-13	2.385267102063413	0.14455395415292094	-0.3672090169377098	0.5117629710906307	100.10573886912422
13	5.0	perception	6	diff_vonmises	-0.036340515290062166	-2.082158151451199	2.225668118425743	2.2961198333746005	4.2684092629189774e-15	3.3069386150782365	0.7368473893424178	-0.5115833247031893	1.248430714045607	92.14013831374265
14	5.0	wm	6	diff_vonmises	0.014085342881098887	0.8070307000816056	0.6322913119350615	203.42059081994407	0.61897764741965	204.84462773434785	0.13049704647696103	-0.38670131117359574	0.5171983576505568	106.50274463492372
15	6.0	ltm	6	diff_vonmises	0.3796233092698089	21.750813425949634	0.5745513926292216	181.37375269786665	0.5623793638356577	182.44672581836497	0.13914007795563776	-0.32415998060833395	0.4633000585639717	113.19856322446748
16	6.0	perception	6	diff_vonmises	-0.03638397931490478	-2.0846484566353323	0.8783599252204921	5.215717277665331	0.26487952971629025	6.191040468982148	0.3997932514074001	-0.45612639252976844	0.8559196439371686	118.74719079350805
17	6.0	wm	6	diff_vonmises	0.12660342949203707	7.25384218177582	0.6672052167968255	241.3012598824866	0.6549506788093121	242.57078860133845	0.21206293333672477	-0.38553245442351525	0.59759538776024	105.56708576505036
18	7.0	ltm	6	diff_vonmises	-0.008686230390500767	-0.4976843412539669	0.9097396751583827	108.13155269486795	0.8732935419073427	110.5450159664872	-0.015771602620723968	-0.5338039881734549	0.5180323855527309	84.2025322342725
19	7.0	perception	6	diff_vonmises	0.03767756994463401	2.1587657401364875	0.9716291781245994	430.10414708652957	0.9572102235798023	432.1649239174721	0.4890440665213589	-0.6333162938872476	1.1223603604086065	87.93294977348779
20	7.0	wm	6	diff_vonmises	0.29354812897365606	16.81906887415245	5.276584506669718	0.6656195310223262	0.042149772095797185	3.0424233372960243	0.08909653508228521	-0.4810718348623842	0.5701683699446694	58.04768620563661
0	1.0	ltm	7	diff_vonmises	-0.08657330835566444	-4.960285187264238	1.1596102196643132	322.77407233923236	1.1456625740273598	324.9289380316757	0.041946351748478605	-0.5187108318258211	0.5606571835742997	74.82281633938291
1	1.0	perception	7	diff_vonmises	0.05829177788354201	3.339872853040992	16.971687109081984	0.5249382542627156	5.878316663427127e-20	2.792546377487579	0.41150919245843726	-0.4444475597905126	0.8559567522489498	32.8732894407415
2	1.0	wm	7	diff_vonmises	0.14490909458373152	8.302679532709874	5.9102841819279615	0.34065803468846134	0.025330799708726384	2.637213095933313	-0.10769652528821066	-0.41915661127903797	0.3114600859908273	54.93879850572662
3	2.0	ltm	7	diff_vonmises	-0.1565506539422491	-8.969691750903957	2.222391943386022	1.4586114811862556	0.48814532196535226	2.338851455561724	0.2298136742438912	-0.264872985714613	0.4946866599585042	76.5123279912317
4	2.0	perception	7	diff_vonmises	-0.046211217328983846	-2.6477077191125873	6.782725907766907	1.075610836726719	0.17467587772615034	2.0242210000132035	0.7144622409767625	-0.32746328425859406	1.0419255252353565	50.853096229408465
5	2.0	wm	7	diff_vonmises	0.015305569520596694	0.8769445365742613	5.056091820616182	0.4095097564513664	0.16215617988478365	1.6345951137013222	0.05326283420967248	-0.26110967785117134	0.3143725120608438	56.86177549296286
6	3.0	ltm	7	diff_vonmises	-0.013696548899561976	-0.7847544458394533	1.095393069913047	164.68412329118055	1.0818799472859275	165.25586693952616	0.2130093034170386	-0.2019787751733766	0.4149880785904152	84.10632650688271
7	3.0	perception	7	diff_vonmises	0.05026934792830376	2.880221475166514	4.42356802148294	1.8439902085677484	0.35009699366282054	2.304127765200076	0.9924830427541331	-0.3404831111504932	1.3329661539046262	61.32590976087732
8	3.0	wm	7	diff_vonmises	0.14077727876029883	8.06594392430181	1.62772769443007	2.047455430721816	0.6704685152109173	2.9157706943393236	0.11868482167280048	-0.23359795636074893	0.3522827780335494	79.70585552163695
9	4.0	ltm	7	diff_vonmises	-0.16593548290138227	-9.507402841714441	0.9795693276924459	175.18601600981657	0.9674335194905351	176.34461190713532	0.014275308490532268	-0.26618230214458904	0.2804576106351213	81.39865144889941
10	4.0	perception	7	diff_vonmises	-0.08476751924579286	-4.85682109257791	1.9376583838499652	3.8068532044535277	0.4937709365827208	4.880665001311077	0.7280408749867788	-0.4757494955128277	1.2037903704996065	82.95574003860537
11	4.0	wm	7	diff_vonmises	-0.009210191645187266	-0.5277051097758825	0.9503996780640505	184.38467832107028	0.9351497909723314	185.99676241686683	0.003172511977702186	-0.3634281668926249	0.3666006788703271	82.24415057819465
12	5.0	ltm	7	diff_vonmises	0.029344818525375845	1.681334252081348	2.162854555612778	0.9598005930573819	0.02336368908877728	2.1713541472176705	0.16532549747406705	-0.33069115373263624	0.4960166512067033	91.90485735768897
13	5.0	perception	7	diff_vonmises	0.020776449554361174	1.1904028727313554	2.2552879404616903	2.3754135255499063	0.1304678095806215	3.4459313253700325	0.6949084144616373	-0.46996666407549614	1.1648750785371336	86.5876196167163
14	5.0	wm	7	diff_vonmises	-0.13752911943170998	-7.879838103587621	0.4920003678962274	203.56280985484128	0.4818004189217735	204.82253527424572	0.08072077678547629	-0.3538093707417964	0.4345301475272727	120.12011061637997
15	6.0	ltm	7	diff_vonmises	0.3171665790213792	18.172306380527544	0.7570384578228638	91.79708860312954	0.7366508479508497	93.13920410184919	-0.03404210011803244	-0.28535255041506424	0.2513104502970318	91.06003214076802
16	6.0	perception	7	diff_vonmises	-0.1916007491866579	-10.977914279940139	1.4287430153806218	2.181185694840081	8.044664055144574e-13	3.5004285840798097	0.36028766660255096	-0.5044399988290719	0.8647276654316228	112.5895487090942
17	6.0	wm	7	diff_vonmises	-0.1983781553736168	-11.366231050498735	1.6270721747254633	1.6517272184871634	0.06914394354492862	3.019541353082777	0.23728476775461216	-0.41890796793931306	0.6561927356939252	102.12702324896216
18	7.0	ltm	7	diff_vonmises	-0.010451492670699123	-0.5988264196429729	1.1758718878148007	172.1928352409359	1.156410782430977	173.49856913756045	0.13749813748623296	-0.34816683472728727	0.48566497221352023	77.10087893264014
19	7.0	perception	7	diff_vonmises	-0.014103459338483119	-0.8080686966294507	3.1545819017530556	1.7519376837737584	0.19380980947237533	3.103769386536369	0.5865891018358098	-0.44405671122919055	1.0306458130650005	72.26819354545052
20	7.0	wm	7	diff_vonmises	0.3545777495405952	20.315808557922868	3.434758375648067	1.0334392117095166	0.294380838161034	2.476830388430193	0.21263511802200175	-0.36413572008745465	0.5767708381094564	66.26983864609159
0	1.0	ltm	8	diff_vonmises	0.16014774011471966	9.175789607131387	1.1848737005676127	4.448296952689159	0.4920699578104754	7.499125789357761	-0.16514795228702717	-0.6159167494457134	0.45076879715868623	85.15881719903376
1	1.0	perception	8	diff_vonmises	0.07935843404898976	4.546903339774402	5.3606033178800345	0.9014853158040674	0.0912584023115875	3.827025021360193	0.1451512256548928	-0.6078955779092904	0.7530468035641832	56.61491219314419
2	1.0	wm	8	diff_vonmises	0.14299132259429698	8.192799291646866	5.437711631534627	0.41144258172918785	6.936300489472953e-20	3.2414554993056326	-0.14286311562781295	-0.5158866082878384	0.37302349266002544	58.49486136527847
3	2.0	ltm	8	diff_vonmises	-0.023045580197570095	-1.3204144817510324	2.1335166995019823	2.0025059075870755	0.5461192703564469	3.570836611023495	0.16211126895681405	-0.4013331975626443	0.5634444665194583	74.29242099336767
4	2.0	perception	8	diff_vonmises	-0.04487650880782087	-2.571234553969801	6.396338155430908	1.2162079011127365	0.030065250293725466	2.955302530452987	0.7162970651932326	-0.468250780900857	1.1845478460940895	53.415531584500116
5	2.0	wm	8	diff_vonmises	0.049172422734694674	2.8173722911311425	4.9428852624287805	0.5620706543822086	0.09404551007728691	2.3964041993918377	0.06631831496643026	-0.3787111328333751	0.44502944779980536	58.69747451963909
6	3.0	ltm	8	diff_vonmises	0.1694106504889046	9.70651527758013	2.3612672358005224	1.234071867243796	0.24048926882028776	2.4252504863392867	0.21929084190992915	-0.3215218699607613	0.5408127118706905	79.66809283577604
7	3.0	perception	8	diff_vonmises	0.03887371759673846	2.2272999522765553	4.624508432702039	1.9332679954181935	7.658351504476185e-18	3.2641027544425514	1.0882758788012457	-0.5193433990648992	1.607619277866145	63.550699707157264
8	3.0	wm	8	diff_vonmises	0.049204509037908364	2.819210700885464	2.3253312546517697	1.1154851918497672	0.1693695151751094	2.7511780422856624	0.11490545031929289	-0.3825581855378556	0.4974636358571485	81.03923417809935
9	4.0	ltm	8	diff_vonmises	0.4494445627320439	25.751276569648883	0.30079198400998663	233.76399048920123	0.2914707919988137	235.95866532604975	-0.06829477218466451	-0.5448251287562407	0.47653035657157616	138.69157645698954
10	4.0	perception	8	diff_vonmises	-0.08200671977546725	-4.6986389348463	3.0259172185677814	2.159950853507507	2.959288512549912e-15	4.893474684603021	0.642745065024451	-0.7754746921242818	1.4182197571487327	78.98822390049722
11	4.0	wm	8	diff_vonmises	0.09426659438314625	5.4010780072259115	0.7260510330570801	182.87078688694976	0.7069892849262253	185.77425113846897	-0.16525175111638646	-0.5834821098518219	0.41823035873543546	90.11846874079899
12	5.0	ltm	8	diff_vonmises	0.06951497148152881	3.9829144788638806	1.9561546166305024	1.0990132351330235	2.41557993946303e-12	2.4016372448837595	0.17717961216037875	-0.37104739799409153	0.5482270101544703	98.03146362095492
13	5.0	perception	8	diff_vonmises	-0.034652779820107574	-1.985458032088272	1.9346723888231674	2.6981693169512324	8.545386979167991e-17	3.6633083130329345	0.7812129397946324	-0.5545590125918929	1.3357719523865252	98.55452484415702
14	5.0	wm	8	diff_vonmises	-0.0014191854516763427	-0.08131333672742187	0.6462596826229267	207.33674707744166	0.6334916462947823	208.6260667933739	0.15220647180638736	-0.36457461305399264	0.51678108486038	106.09447908803644
15	6.0	ltm	8	diff_vonmises	0.39886608011471764	22.85334298150029	0.5244897435691693	160.42481789803733	0.51317450734053	161.32165629998647	0.11673675702911623	-0.281434528188802	0.3981712852179182	118.21877121020916
16	6.0	perception	8	diff_vonmises	-0.0980820981884448	-5.619690271985624	1.3746464398721179	2.1628439952279135	4.7211497800123274e-20	2.9731488540481505	0.41559004409749306	-0.41632980893302274	0.8319198530305159	114.47870951818506
17	6.0	wm	8	diff_vonmises	0.09620391086549088	5.51207806524539	0.6710212491561494	193.64728226458894	0.6587500039437358	194.78300212621116	0.13780253623237115	-0.3190624715606418	0.456865007793013	104.08269681355281
18	7.0	ltm	8	diff_vonmises	-0.05161001009765406	-2.9570357592231393	1.9742147624530837	2.109471812584238	0.46250817811258377	4.408819232724447	0.022713578484973462	-0.5158081399742417	0.5385217184592151	75.75547449481292
19	7.0	perception	8	diff_vonmises	0.0334023864840056	1.913815771198346	0.9762249876565626	485.836823708036	0.9630831471335455	487.5966027079189	0.6217757829252264	-0.6158303173724633	1.2376061002976897	89.12644135245199
20	7.0	wm	8	diff_vonmises	0.16835141977171666	9.645825827954646	5.192518925851782	0.618812003019034	2.1433538054067296e-32	3.0499241905955734	0.06202867886452351	-0.4853935965567862	0.5474222754213097	59.895033130760424
0	1.0	ltm	9	diff_vonmises	-0.012208672906922484	-0.6995054310223724	1.039684635311092	219.96275376645556	1.023644085660882	222.0852875649669	-0.06926856792365754	-0.46578052912875023	0.3965119612050927	76.4933286398531
1	1.0	perception	9	diff_vonmises	0.08068036748052689	4.622644546198726	11.051952187525908	0.6361755282624724	3.671134343802732e-19	2.749622519634003	0.3959569126430028	-0.4376160154268679	0.8335729280698707	40.80877971006967
2	1.0	wm	9	diff_vonmises	0.09138202121197271	5.235804138821	6.023994222388822	0.31166521233792854	0.03785885757798465	2.520541672516001	-0.11824092141331649	-0.40165604408982336	0.28341512267650687	53.96457124112476
3	2.0	ltm	9	diff_vonmises	-0.05415464646279617	-3.1028326833412927	2.6190964161337433	1.050602707079413	0.39770806661516483	2.061745768229076	0.16663438045307827	-0.2692009159929241	0.4358352964460024	72.42848040251934
4	2.0	perception	9	diff_vonmises	-0.024477096565522632	-1.4024343279386093	7.495195295461225	1.1024967368151104	0.11365887368392312	2.1741620629494003	0.7960261843810199	-0.35070674572017396	1.146732930101194	48.82175406321173
5	2.0	wm	9	diff_vonmises	0.0704863252055506	4.038568947664644	5.868152498079809	0.36949235272643716	0.11425566419111861	1.6807307668246032	0.04985876316626853	-0.2701988621568135	0.320057625323082	53.74654834987686
6	3.0	ltm	9	diff_vonmises	0.13773964364436778	7.891900252458227	1.2598706580233554	58.28395633705308	1.22258282800498	58.83964562067367	0.1859126450434907	-0.19042943237012633	0.376342077413617	78.15379235735074
7	3.0	perception	9	diff_vonmises	0.04910866992575138	2.8137195242465878	5.207712163782859	1.6593218840382427	0.1823320524714251	2.1958743193936248	1.0544031191252485	-0.339481021376767	1.3938841405020155	58.08381521782408
8	3.0	wm	9	diff_vonmises	0.06636895277743575	3.8026608848501313	3.0111947902030125	0.65111323556821	0.3150485914805773	1.5438274708586501	0.09885300209312975	-0.21909307958035595	0.3179460816734857	69.30029340239884
9	4.0	ltm	9	diff_vonmises	0.07239539910032428	4.147950824613778	0.7978755278787161	153.88935714052965	0.7862912703292774	155.15767012239468	-0.04135058374535561	-0.26686538712048247	0.22551480337512686	87.71782010838322
10	4.0	perception	9	diff_vonmises	-0.07868863715367025	-4.508526804541629	2.923469681830528	2.1284563664193468	0.1423591097103596	3.6241603677662395	0.7117842551471537	-0.5194613424718213	1.2312455976189751	76.0869560816933
11	4.0	wm	9	diff_vonmises	-0.03234398466142256	-1.8531738137353837	0.9666924715735827	161.51287658014616	0.9499208778598096	163.26036093561683	-0.06642245617527465	-0.37430340284711505	0.3078809466718404	79.06580288126821
12	5.0	ltm	9	diff_vonmises	0.09046607194132181	5.183324111364618	1.7141174243268056	1.3178362895642721	0.18511600512608295	2.4444370871126995	0.15487865344736412	-0.305409730900449	0.4602883843478131	92.9918488613124
13	5.0	perception	9	diff_vonmises	0.002360383006158291	0.13523998428727188	2.7633486631339017	1.9481574401709478	7.780478522740151e-17	2.874430090514153	0.7596884048603216	-0.45263643798747405	1.2123248428477957	82.71795840270735
14	5.0	wm	9	diff_vonmises	-0.04601677963306257	-2.63656725975805	0.5265720577074866	188.83316577399827	0.5156260008037533	190.0052077885623	0.09491591770966323	-0.33314934241535354	0.4280652601250168	116.84785963365033
15	6.0	ltm	9	diff_vonmises	0.21622224110425545	12.388621852133946	0.6395849046043552	122.09676733329859	0.6255472903201766	123.16378443257466	0.03680384118171531	-0.25882396101162186	0.2956278021933372	103.4620494511961
16	6.0	perception	9	diff_vonmises	-0.17591145153423562	-10.07898374093183	1.4738547100400747	1.968529586093377	1.3412509612714948e-20	2.9710316054316843	0.3707908272909691	-0.42859684168599194	0.799387668976961	111.17362470313189
17	6.0	wm	9	diff_vonmises	-0.11349622039499309	-6.502854419319721	0.6573526887863372	130.99750812302122	0.6369176666440939	132.15999607263305	0.19180492881782385	-0.3546171994845899	0.5464221283024138	106.70435320797104
18	7.0	ltm	9	diff_vonmises	0.04189896495621422	2.400633857957613	1.0102721836388235	161.8712843447192	0.9916914938979734	163.26277640103154	0.09559752846020331	-0.3459462602649559	0.4415437887251592	82.46412265246235
19	7.0	perception	9	diff_vonmises	-0.026260111402320725	-1.5045935528963472	2.101979406342056	2.9533785548926303	0.40752440470656875	4.35218317247504	0.5706531741809981	-0.4869879434015226	1.0576411175825209	81.07590795752532
20	7.0	wm	9	diff_vonmises	0.31648850084181956	18.133455362658864	5.36687718446318	0.5745424425545158	0.05775591676479366	2.0802585423183673	0.1668303179377157	-0.32863160556733206	0.49546192350504775	57.47861279308523
0	1.0	ltm	10	diff_vonmises	0.05808798983634016	3.328196658021113	4.8047407993713795	0.49502169150489467	1.4742972729556125e-15	3.8291020747887967	-0.18923738711993998	-0.6093923284453607	0.42015494132542075	62.320834274983696
1	1.0	perception	10	diff_vonmises	0.02807938379355456	1.608830182698719	11.433883577660096	0.8189484274366168	0.09773705861653817	4.180526427030072	0.35995371981072244	-0.6940577780966547	1.0540114979073771	39.3280593979286
2	1.0	wm	10	diff_vonmises	0.11789510571365316	6.754891982641004	1.8654101479331382	1.2330046538827304	0.1643491093096239	4.994026673030763	-0.32072321776539514	-0.6989835742449512	0.378260356479556	82.61127971100427
3	2.0	ltm	10	diff_vonmises	0.10626194091117817	6.0883607370790465	3.361673994186906	0.6235357242490769	0.05712707762726187	2.177545435740148	0.06885962199636142	-0.33489762399152073	0.40375724598788215	71.8781911527935
4	2.0	perception	10	diff_vonmises	-0.05438953979254618	-3.1162910797717434	7.614953309977249	1.1611999263948694	0.14660761336309006	2.7018482490049305	0.7606791167436433	-0.44133357546568086	1.2020126922093242	48.08968686018534
5	2.0	wm	10	diff_vonmises	0.03722230502557607	2.1326809817141026	4.510188504160998	0.5636822987296289	0.052802893236603796	2.6064471524484345	0.02550537994861357	-0.4094582582052741	0.43496363815388767	62.23104326607992
6	3.0	ltm	10	diff_vonmises	0.16628654563155987	9.527517254497957	2.3055863732287976	0.7250573413835796	2.1126570304576273e-18	1.905238367286923	0.10409255084988267	-0.29917863896207536	0.40327118981195803	90.53867813990809
7	3.0	perception	10	diff_vonmises	0.018016783621781267	1.0322856619284921	5.378749051801089	1.7411409362867059	0.05466869725905152	2.9905255613853154	1.0672204695136869	-0.46881589268323104	1.536036362196918	58.08559813123691
8	3.0	wm	10	diff_vonmises	0.028672941115966383	1.6428385121720024	3.552542885838718	0.8198769778347804	0.19691330974996285	2.6403576874108916	0.08373464015544074	-0.4003295518763455	0.48406419203178624	66.06020945414673
9	4.0	ltm	10	diff_vonmises	0.08604194912837071	4.929840546134974	0.7821477063204945	163.51248009525148	0.7640372230449676	165.77003772079797	-0.10450336813148908	-0.46377799138242537	0.3592746232509363	87.65049530387637
10	4.0	perception	10	diff_vonmises	-0.015884238693155302	-0.9100998378961971	2.572915623244048	2.410981675476247	0.13002274652280693	4.648292251214564	0.6061100586800257	-0.6601694104523498	1.2662794691323755	80.43875787031149
11	4.0	wm	10	diff_vonmises	0.21871798944577295	12.531617698829674	0.6870032062592215	261.5650833245763	0.6738534509485944	264.6495098292445	-0.20740948516389324	-0.6074121628891476	0.40000267772525433	91.35270852759047
12	5.0	ltm	10	diff_vonmises	0.050082570403372544	2.869519911280056	1.8110979204985025	1.119589718238068	2.953785951149204e-18	2.623104540736596	0.1263633681682088	-0.40294628357319284	0.5293096517414017	101.62098352963355
13	5.0	perception	10	diff_vonmises	0.02949109580906814	1.6897153230755544	1.8987097248920877	2.3511794044791423	5.997243960949699e-13	3.661366278548131	0.5925943335702435	-0.5563623458772572	1.1489566794475006	99.42544259756096
14	5.0	wm	10	diff_vonmises	0.0017831527596022382	0.10216712735231413	0.5825261570994673	205.1253315604713	0.5674421973808869	207.05332847919004	0.08396604557340481	-0.4887811383326621	0.5727471839060669	109.3389754427229
15	6.0	ltm	10	diff_vonmises	0.410739825860735	23.533658499758502	0.4653288532464065	144.62033988552196	0.4511424965007519	145.97014755905604	0.05998700594580697	-0.36996853076281333	0.4299555367086203	122.22035067039263
16	6.0	perception	10	diff_vonmises	0.057395005325361376	3.288491570274091	1.3875062607534712	2.1210981239370836	0.00409580285329879	3.6498719809193343	0.2932468557087078	-0.5238663753960474	0.8171132311047552	113.79135788740548
17	6.0	wm	10	diff_vonmises	0.13602054409343453	7.793403103626917	0.501726999805863	285.85246469881525	0.49168538514495236	287.7321716779296	0.07533539778334841	-0.49705417677456154	0.57238957455791	117.94815473145601
18	7.0	ltm	10	diff_vonmises	0.03486888313418343	1.9978398399236088	1.832224808382047	2.8044870445312315	0.5958254490383271	5.235360385702152	-0.014211846998000377	-0.5470651655058678	0.5328533185078674	73.97215912081313
19	7.0	perception	10	diff_vonmises	0.18651127439372425	10.686308854366821	2.1314747756480323	1.6061780888152206	6.466321082303117e-22	3.4754052038715	0.3078564306018827	-0.5410038725146316	0.8488603031165143	94.057956312897
20	7.0	wm	10	diff_vonmises	0.0781357509976455	4.476848761250198	1.2013206398975178	3.363964402609073	0.4261420218595421	6.019284479174111	-0.12642446136869223	-0.5392491477734793	0.4128246864047871	87.79385408969782
0	1.0	ltm	11	diff_vonmises	0.04560238194342897	2.612824021102073	4.1749742641628345	0.5095622841651751	0.12138485978295625	2.000892503951972	0.042752970424081715	-0.31179590528705975	0.35454887571114146	62.848611091236535
1	1.0	perception	11	diff_vonmises	0.027578731548674785	1.5801449220633579	11.108214401156658	0.7493437683598422	0.12952165717562264	2.3558583441971455	0.5593469347680617	-0.3946302023295407	0.9539771370976025	39.994644635792014
2	1.0	wm	11	diff_vonmises	0.11918185347848234	6.828617198863608	2.8617796770667905	0.4784484687123196	0.01085839485772721	2.2015209796095516	-0.04918427446770429	-0.3456381865292144	0.2964539120615101	80.10852509323374
3	2.0	ltm	11	diff_vonmises	0.10285719365096299	5.893283088759986	4.307093086397286	0.512409874116816	0.25435218489141775	1.1806608445408835	0.17166802286120614	-0.18158365875822338	0.35325168161942955	61.184035585814144
4	2.0	perception	11	diff_vonmises	-0.039252299362561915	-2.2489910896588494	8.651070914430322	0.9804253967421459	0.02261607206497081	1.4755552028871424	0.8925614645394416	-0.23489273321580414	1.1274541977552457	46.05795528191007
5	2.0	wm	11	diff_vonmises	0.04659900914216919	2.669926553337833	7.0260351039719415	0.35658369050195954	0.04933879482651421	1.2921881861479136	0.15389242680164067	-0.2062367363334345	0.36012916313507515	50.558258034406066
6	3.0	ltm	11	diff_vonmises	0.2148858115570818	12.312050079464317	3.22639410673848	0.49448643608871645	0.14812778760087095	0.849493580045051	0.18155088494385402	-0.1235932882048546	0.3051441731487086	72.58420126515401
7	3.0	perception	11	diff_vonmises	0.017497197246813555	1.0025155555503404	6.409574118743403	1.3276039591114628	0.025757792668887856	1.733946524246319	1.0294228532290974	-0.27407314502275226	1.3034959982518497	53.562240100165724
8	3.0	wm	11	diff_vonmises	0.04418501923358326	2.5316151197886883	4.788486207953134	0.6575186282688144	0.4385787872120805	1.3697255778354607	0.23474152385235386	-0.21772725669973617	0.45246878055209006	56.59774612792671
9	4.0	ltm	11	diff_vonmises	-0.06486616252035521	-3.7165573456260366	1.4209926907565211	137.75117809457416	1.4034755974851922	138.67937743391124	0.0434183325612878	-0.2479089894897939	0.2913273220510817	68.17859395873549
10	4.0	perception	11	diff_vonmises	-0.0615434451754197	-3.526179665246317	3.156327899067034	1.8238006841856471	4.284481241160739e-18	3.0431558801357013	0.7449909625873243	-0.4821037950597295	1.227094757647054	77.30865545373857
11	4.0	wm	11	diff_vonmises	-0.035334612313365855	-2.0245241562868537	1.21026314146774	225.74669638750842	1.1953687581853079	227.46541534293397	-0.029318705880484686	-0.4028469068415603	0.37352820096107564	71.55928450830416
12	5.0	ltm	11	diff_vonmises	0.05956153302752057	3.4126244638059893	1.633910338282484	1.0172523805180276	4.795448426211274e-16	1.6425845258513454	0.2026725183316751	-0.24374676087151162	0.4464192792031867	106.44290670986533
13	5.0	perception	11	diff_vonmises	-0.0011971887933997958	-0.06859386514216777	2.476076044861295	1.723101501839018	2.564471298955337e-17	2.077932758858468	0.6790892780438759	-0.32357577728028114	1.002665055324157	87.4122991251659
14	5.0	wm	11	diff_vonmises	0.03892840429877962	2.2304332694990032	0.6452006623965065	159.30613063931608	0.6320542074735902	159.99690744054882	0.210077001455808	-0.26102246434689924	0.47109946580270723	109.82436780645547
15	6.0	ltm	11	diff_vonmises	0.41769737236230803	23.932296550064645	0.7065662513953632	104.20640344072257	0.6923676035144202	104.6117876255483	0.16724112483539244	-0.16806046509188022	0.33530158992727266	105.9563602778945
16	6.0	perception	11	diff_vonmises	-0.02274985583129862	-1.3034707236644958	1.7749696885865558	1.673915654452253	0.00258581762505174	2.150308947992877	0.46006737483140986	-0.3182741803556423	0.7783415551870522	102.46219375940365
17	6.0	wm	11	diff_vonmises	0.030211908884698522	1.7310148701270194	0.6702769973838033	185.80502842886017	0.6566780954640974	186.52591712419647	0.2814701542058984	-0.2987455381620947	0.5802156923679931	108.63844829529326
18	7.0	ltm	11	diff_vonmises	0.02982335616194475	1.7087524389949116	1.0964256703954431	67.49533704801622	1.0525296672871531	68.62885093266493	0.1577488141239911	-0.31023283921415246	0.46798165333814357	81.32590192341453
19	7.0	perception	11	diff_vonmises	0.0775130494207121	4.441170588995774	2.8257937665766657	1.3440220055189567	2.4342961464930652e-17	2.5359861229046503	0.44693247347175136	-0.40062715838176544	0.8475596318535168	81.78877013336216
20	7.0	wm	11	diff_vonmises	0.29952422999795253	17.161474240788447	3.200130840081839	0.6208420374582913	8.911710101413807e-21	1.8161763745755133	0.1327316498677193	-0.2883527930023302	0.4210844428700495	76.74522077369204
0	1.0	ltm	12	diff_vonmises	0.1085174384060163	6.217591224235601	1.9901014230554417	0.9953710308542275	1.5925130334371616e-12	3.3937250873656764	-0.028176089857772202	-0.5305636378398588	0.5023875479820866	97.22785604256373
1	1.0	perception	12	diff_vonmises	-0.04282547024498555	-2.4537187007007595	7.654730019416504	0.7743873882699285	1.628356608896143e-17	3.0496760930205498	0.35426752665390066	-0.4853708364572239	0.8396383631111246	49.151371766656354
2	1.0	wm	12	diff_vonmises	0.14673616745653098	8.407363097184124	3.117293435793674	0.6549063120025846	1.1519118368466608e-21	2.950512579518538	-0.031236820453738157	-0.4687291642307061	0.43749234377696794	77.79719876196836
3	2.0	ltm	12	diff_vonmises	0.0469405806362096	2.6894971583483267	4.022145482479641	0.62306988725935	2.3821350559009137e-21	2.256989968304286	0.12125790243277995	-0.35905689535884	0.48031479779161995	68.2695175121259
4	2.0	perception	12	diff_vonmises	-0.0725925575232039	-4.159247170140236	6.341910114265985	1.1845819569507914	1.3910819057351878e-16	2.71696938551485	0.7322019650880942	-0.43241549639107146	1.1646174614791658	54.07937116729295
5	2.0	wm	12	diff_vonmises	-0.05829925312645474	-3.340301152910726	3.769687780490166	0.7482513250617981	0.06534190897413403	2.4354760118787206	0.14351550018402565	-0.3761620705428816	0.5196775707269072	67.98421724602727
6	3.0	ltm	12	diff_vonmises	0.13921101860148818	7.976203827582469	2.3101274767334368	0.8751173476126223	6.465655727893118e-17	2.062215293034525	0.16402314762959036	-0.32336310187726874	0.4873862495068591	90.45322200878772
7	3.0	perception	12	diff_vonmises	0.015201125722250705	0.8709603477327207	4.408866912601345	2.0469822745383426	1.6327119458602924e-16	3.1899463488377604	1.1514855546704141	-0.5074500266438142	1.6589355813142284	65.12615716121073
8	3.0	wm	12	diff_vonmises	-0.14235163024799877	-8.156147620017158	1.943894483974075	1.8210007619300699	0.28329590947716143	3.2425927294938854	0.2518378787210924	-0.3911795620410742	0.6430174407621666	85.07538908695417
9	4.0	ltm	12	diff_vonmises	0.16359158192970283	9.373107208440596	0.25109977659202315	80.02318902715491	0.22665465465797222	81.77748430350228	-0.002254874440556165	-0.49013102920275387	0.4878761547621977	149.39949369652413
10	4.0	perception	12	diff_vonmises	-0.021615367761601285	-1.238469345362895	1.7084135207557078	4.483397816614485	0.3232582513576112	6.904558893343634	0.6224369996161356	-0.7492801454058333	1.371717145021969	89.2612045723948
11	4.0	wm	12	diff_vonmises	0.14206733840865135	8.13985889747254	0.7945452774891977	290.7231663864892	0.7827875829240297	293.3253453215382	-0.12879467714599002	-0.5326282391816193	0.40383356203562926	86.44254316474019
12	5.0	ltm	12	diff_vonmises	0.22513314611616922	12.899179100958577	2.1098577263243574	1.0174078419155312	4.8625166906013076e-14	1.913947520203438	0.2374474912853904	-0.2966443168907889	0.5340918081761793	94.49802659617421
13	5.0	perception	12	diff_vonmises	0.010991501954194918	0.6297666724851655	1.7093327717769697	2.6971829213553438	3.665602158198479e-14	3.3146262197012346	0.7372719476467534	-0.48610588956302375	1.2233778372097772	104.33907192587861
14	5.0	wm	12	diff_vonmises	0.028995626374610915	1.6613270156034214	0.6715129956299397	105.17987833323316	0.6473067813946954	106.1857257798197	0.2080543373977477	-0.3255033502410054	0.5335576876387531	106.53455459142353
15	6.0	ltm	12	diff_vonmises	0.4664848732600181	26.727614444494147	0.5174175991201242	116.51605073985785	0.5069949959852281	117.00513521085583	0.10607689749807392	-0.17950857741195492	0.28558547491002884	120.21735277201194
16	6.0	perception	12	diff_vonmises	-0.08600573112757945	-4.927765407547233	1.715494723275235	1.5125126165306293	8.951582517606812e-17	2.0651154840045822	0.38218117228726756	-0.3056736398922058	0.6878548121794734	104.15112302460982
17	6.0	wm	12	diff_vonmises	0.040163384262854325	2.301192409223702	0.5458018814965697	157.55524752009075	0.5354487106011386	158.49065796930142	0.06963325666080067	-0.258661927766898	0.32829518442769867	114.40776614865027
18	7.0	ltm	12	diff_vonmises	-0.04804071548366087	-2.7525302420025533	3.091487715776014	1.1968428633548318	0.4888232568614035	2.696470887588913	0.13767135794234275	-0.3790409030987993	0.5167122610411421	65.17039305441028
19	7.0	perception	12	diff_vonmises	0.08986749305750284	5.149028067616139	1.0717204164842498	8.17937794379541	0.5547234623819689	9.221462898914801	0.5355919166343361	-0.45324245771270205	0.9888343743470382	99.46600108630619
20	7.0	wm	12	diff_vonmises	-0.5462299439859962	-31.296670434064946	0.04844990620374918	30.24098630878931	3.991823979473329e-05	32.10302637420884	-0.060592660310745394	-0.5264663358167301	0.4658736755059847	169.25979444447663
0	1.0	ltm	13	diff_vonmises	-0.03844080104419607	-2.2024956609345225	1.023872516060454	497.7145695843564	1.0131481418095512	501.3153949801811	-0.23132704435943197	-0.7586994787539965	0.5273724343945645	74.61666124135513
1	1.0	perception	13	diff_vonmises	0.08487743965555351	4.863119068139544	8.948424336412373	0.7775427068725365	8.832634845620815e-18	3.845883055100168	0.3021108565680277	-0.6120912833355912	0.9142021399036189	45.403801474382675
2	1.0	wm	13	diff_vonmises	0.09760491346770105	5.592349601438879	6.855336330036448	0.3609975227503572	0.04039455806827309	3.7018774534436805	-0.24360237525225775	-0.5930998749623717	0.34949749971011396	50.40462095135172
3	2.0	ltm	13	diff_vonmises	-0.07689663893822743	-4.405852869901779	2.5912368634128087	1.2001958844625702	0.2638722481515972	3.011781788322618	0.10895795266718933	-0.4173758945851298	0.5263338472523191	74.25682344125931
4	2.0	perception	13	diff_vonmises	-0.037245004939280936	-2.1339815909647024	6.673111630338724	1.3094292925298947	0.1330004347356133	3.116130376200586	0.7581295858397664	-0.5016823836698492	1.2598119695096157	51.30975065694358
5	2.0	wm	13	diff_vonmises	0.019332749503196623	1.1076849529168056	4.217987270008952	0.5603334646395095	0.12822913867165459	2.491195187704745	-0.005449871688518126	-0.3902303537064341	0.384780482017916	61.97013365512677
6	3.0	ltm	13	diff_vonmises	0.09213938083311653	5.279197648686168	2.556351308106745	0.9048038439911213	0.30228691820035414	1.8880197409072335	0.1428443195216728	-0.25255624602545446	0.39540056554712727	75.0188569586389
7	3.0	perception	13	diff_vonmises	0.08126930225279867	4.656388023058398	4.721856035449189	1.9528934644872316	0.14344094395919488	2.6842817375085133	1.1516848757629365	-0.41051846496955025	1.562203340732487	61.17270441917444
8	3.0	wm	13	diff_vonmises	0.009392379773690195	0.5381437206164874	2.6639223771743454	0.6378350616155963	0.10174681215586372	1.7871785252734587	0.07601074997520335	-0.2630800071645244	0.33909075713972775	78.6588180791544
9	4.0	ltm	13	diff_vonmises	0.16904324491839287	9.685464489020212	0.04138212399996961	97.44374119250318	0.030894956669929776	99.26738682182433	-0.1337542028298131	-0.44099372082093247	0.30723951799111937	174.80411732765398
10	4.0	perception	13	diff_vonmises	-0.05302018388198143	-3.0378327654450894	2.391458837054266	3.0716428446463078	0.30094833046016134	5.225691650523179	0.6648334065623525	-0.6657279139723656	1.3305613205347182	78.67379633527506
11	4.0	wm	13	diff_vonmises	0.102230262350625	5.857362571205972	0.6771488118849716	148.80917804526362	0.6609572451187318	150.9520553560571	-0.1353319448669481	-0.4251111681016404	0.2897792232346923	92.68472832047618
12	5.0	ltm	13	diff_vonmises	0.2233310356952356	12.795925779622538	0.7975862803400228	74.5332840002146	0.7575684005942449	76.23291986499228	0.06725357375605512	-0.4031973877627717	0.4704509615188268	92.97721988199632
13	5.0	perception	13	diff_vonmises	0.03415723732186685	1.9570655383697098	2.3027474901323703	2.7215260364376612	0.052562493942539965	4.211173026589677	0.8219776183277123	-0.6201969958925551	1.4421746142202674	88.37880473793552
14	5.0	wm	13	diff_vonmises	-0.0028214051658848336	-0.16165460830160888	0.4870045750805758	223.58454470414262	0.47554703039413626	225.3069069687784	0.0602374538591377	-0.4547928051753054	0.5150302590344431	119.58879233124456
15	6.0	ltm	13	diff_vonmises	0.464469642241849	26.612150212409208	0.8491875988459494	131.71649170945838	0.8314753463277373	133.25359340707962	-0.03070516806507584	-0.33133035006123635	0.3006251819961605	85.9718271567653
16	6.0	perception	13	diff_vonmises	-0.21115302015967063	-12.098176886589915	1.1705124373012872	2.496347589199883	2.9356054307393603e-19	3.774008874087103	0.33217719726463635	-0.5108866547312746	0.8430638519959109	121.54487249794705
17	6.0	wm	13	diff_vonmises	-0.20338309112291003	-11.652992745667383	0.4693127281579646	166.88633435386532	0.4550750472029838	168.46258939962766	0.06555843204615286	-0.4280702521720432	0.49362868421819606	122.103659143613
18	7.0	ltm	13	diff_vonmises	0.03265021369060098	1.8707194446716955	1.167414971262403	99.31574907705405	1.1346456319820717	100.93993098936785	0.009273705069531957	-0.38465789617703194	0.3939316012465639	74.2919214812859
19	7.0	perception	13	diff_vonmises	-0.01605854347180548	-0.9200867660618144	1.0679477747912016	296.3433369241467	1.0490888581586961	297.63454139156477	0.5980883470570291	-0.4983791898610157	1.0964675369180448	86.08845899536215
20	7.0	wm	13	diff_vonmises	0.19553341647724698	11.203239517920041	2.2355731527073246	0.9952590010181219	0.22584768444349138	2.9036999294052115	-0.022951004406708497	-0.39921018387107216	0.37625917946436366	78.23526481130042
0	1.0	ltm	14	diff_vonmises	-0.04765606307819622	-2.730491282589874	0.9634413998871563	83.6900890182895	0.9116714394866445	87.28193104375272	-0.3437328865011544	-0.7142133967606892	0.37048051025953477	74.28358565933567
1	1.0	perception	14	diff_vonmises	0.06471977096620674	3.708169727416968	11.27974810981577	0.9216874262139326	0.08884394557250914	4.192082157273279	0.4927383608490963	-0.6919247886104933	1.1846631494595896	39.712429943910024
2	1.0	wm	14	diff_vonmises	0.032516353666461315	1.8630498302429734	1.8848668145432617	1.1293450878807465	0.21680746536472784	5.06423101821125	-0.42741744418884076	-0.7115125683050895	0.2840951241162487	76.50144888357792
3	2.0	ltm	14	diff_vonmises	0.1397310491672767	8.005999384219951	3.6270853516713233	0.4943198537904063	0.0038217740508640075	2.1278299254460316	0.02021349279659901	-0.33712464903314154	0.35733814182974055	71.67732613869299
4	2.0	perception	14	diff_vonmises	-0.03251741722674133	-1.8631107677582759	8.06986102894849	1.2695676796854607	0.22951200906652902	2.7880707012983783	0.864132755652601	-0.4691560344368785	1.3332887900894794	46.329810652616004
5	2.0	wm	14	diff_vonmises	0.0634700685003575	3.6365670504767147	4.655955507091482	0.46429726468713883	0.06864573417718697	2.453374128492608	-0.03020794449983505	-0.3868261331190142	0.35661818861917916	60.567675812459555
6	3.0	ltm	14	diff_vonmises	0.1845145440774508	10.57190463441853	4.418918547366723	0.3288619021541113	4.578604786312559e-16	1.1168408216176984	0.0891060789792324	-0.1777119972344276	0.26681807621366	65.05262957340162
7	3.0	perception	14	diff_vonmises	0.055174406067419676	3.1612606048041494	5.931844397934361	1.6019497556659719	0.12567447690358896	2.2931507376718834	1.1084216809106602	-0.36083895509857083	1.469260636009231	54.88167350327038
8	3.0	wm	14	diff_vonmises	-0.04299193305654029	-2.4632563172487276	5.278744849466891	0.41646506095375413	0.17982783349080095	1.6012268328961152	0.06904264166564111	-0.25757292455486736	0.32661556622050847	55.60142682767068
9	4.0	ltm	14	diff_vonmises	0.04523703360145088	2.5918911030546257	0.712513649831396	131.29170297083402	0.6980195079855187	133.10399879404818	-0.15224006200909912	-0.34727691783976056	0.19503685583066144	87.32213266557133
10	4.0	perception	14	diff_vonmises	-0.009169540129989398	-0.5253759495242327	3.1093550599068083	2.0505148538334645	0.15819203712683028	3.9776249009909703	0.633524651632601	-0.5767334527111531	1.2102581043437541	73.17488098290522
11	4.0	wm	14	diff_vonmises	0.20383290792936942	11.67876535023156	0.7316184200850977	188.8244202674108	0.7184647906661468	191.13947696110517	-0.19307807570147872	-0.4452224167619647	0.252144341060486	86.18204133759647
12	5.0	ltm	14	diff_vonmises	0.17171900837109588	9.838774441835447	1.0019307230612702	3.5972934881050627	0.39715494656791067	5.301686058022731	0.023406245768899936	-0.3918532246857621	0.41525947045466205	99.02106301525544
13	5.0	perception	14	diff_vonmises	0.061015651697610564	3.495939326513322	2.535065789799896	2.1386482258368824	4.726271381519808e-15	3.719245888209316	0.678725061164	-0.5839530728984276	1.2626781340624276	86.39242973854479
14	5.0	wm	14	diff_vonmises	0.05329731160669571	3.0537110144572805	0.467033568342995	185.34017859051335	0.4521698025841804	187.45844934771256	0.0076210213478518085	-0.5256312565006951	0.5332522778485469	120.55061242591289
15	6.0	ltm	14	diff_vonmises	0.3823941733638242	21.90957224414105	0.7480186848248355	79.4293073586906	0.7172649961774329	81.18263773872671	-0.03856912108779653	-0.3750623514685625	0.33649323038076595	92.25267674575738
16	6.0	perception	14	diff_vonmises	-0.04304167269558581	-2.46610618864054	1.166799098774435	2.3228432414166043	1.2287108377701411e-20	4.008613063453108	0.22837157556190402	-0.553993503715071	0.782365079276975	121.93833016317652
17	6.0	wm	14	diff_vonmises	-0.09151204388044526	-5.243253888965506	0.3358089327240259	238.1491718466445	0.32507296055403717	240.14470446853196	0.0330643046409449	-0.5544970644473182	0.5875613690882631	138.00208436899936
18	7.0	ltm	14	diff_vonmises	0.15018620834581825	8.605035879287847	1.093181730491404	199.4671609803711	1.076391916671367	201.27902188454163	-0.017109231280500126	-0.4144082023269924	0.39729897104649226	75.87216144359849
19	7.0	perception	14	diff_vonmises	0.0919032336281193	5.2656674104960155	2.1097516245657855	1.626844686035433	0.07969605211519037	3.13881319214063	0.32657732086649904	-0.44860632056355265	0.7751836414300517	90.09754439725862
20	7.0	wm	14	diff_vonmises	0.2543228690967581	14.57162703290235	0.8778134455071575	161.3647057505832	0.8598895581341357	163.38368524841624	-0.0845848702825549	-0.42274451786355627	0.33815964758100137	82.86215354164241
0	1.0	ltm	15	diff_vonmises	1.0042431679763775	57.53889512989382	0.00021990756336853805	2745.3007020357836	4.937557377572647e-31	2747.8674350502506	-0.312422266276144	-0.5045836640131256	0.1921613977369816	152.33364601012525
1	1.0	perception	15	diff_vonmises	0.08885510560582743	5.091022539403133	7.625052390058636	0.9215736810140812	0.11795152618462763	3.4290338518979624	0.3855044963898002	-0.5599566297952023	0.9454611261850026	47.813717156586506
2	1.0	wm	15	diff_vonmises	-0.002292884836449315	-0.13137262403808977	5.205690261553346	0.33930617913953093	0.0739431574285507	3.303988509568823	-0.2648280610255888	-0.5290504346475693	0.2642223736219805	55.94831816355736
3	2.0	ltm	15	diff_vonmises	0.17935450409399964	10.276256121248025	3.157621450306534	0.6983460126347575	0.24151538046296805	2.2133295915422138	0.02883762528778172	-0.32820817833558197	0.3570458036233637	67.99874453622115
4	2.0	perception	15	diff_vonmises	-0.004920361176163857	-0.28191592907421476	8.475803442911372	1.2455579570176858	0.16938382026842552	2.9834066410903928	0.8654479657793677	-0.49576416539914875	1.3612121311785164	45.52498568454885
5	2.0	wm	15	diff_vonmises	0.15952068180373977	9.139861812403637	6.428898763923009	0.35076206694068623	0.020075383610222527	2.324666360659085	-0.030123404169751344	-0.3696249137385475	0.33950150956879616	53.000630891352216
6	3.0	ltm	15	diff_vonmises	0.2765391177706369	15.844524318528716	4.595356835436757	0.48998284210269105	0.20781126095055508	1.324350763058647	0.14942963676353566	-0.20709741150215524	0.3565270482656909	59.67032063713182
7	3.0	perception	15	diff_vonmises	0.03253162568622135	1.863924852519864	6.503816786507868	1.6263236550429654	0.05974360762437755	2.708180645993898	1.1630298159926356	-0.42861658996167556	1.5916464059543112	52.83877178956621
8	3.0	wm	15	diff_vonmises	-0.013737203799486718	-0.7870838000216678	7.923122893833812	0.3115631627835925	0.16334314885906412	1.780744836958081	0.012484228259697194	-0.29894859638858506	0.31143282464828226	45.84519735055517
9	4.0	ltm	15	diff_vonmises	0.502220454119931	28.775112406215644	0.7604581159801328	222.91104185477852	0.7489314133796008	225.03021682912342	-0.13226618671041024	-0.4232152803219016	0.29094909361149135	87.09870235766945
10	4.0	perception	15	diff_vonmises	-0.02754363338114766	-1.5781339451954104	4.275839023628926	1.5198749624687482	6.616826306902364e-16	4.035243821728593	0.5693425149530191	-0.6419948459690593	1.2113373609220783	66.16307565236588
11	4.0	wm	15	diff_vonmises	0.27269998903060255	15.624558444717373	30.421622935514424	0.11588727267730639	1.878896449637784e-13	2.758110531516197	-0.18519797445393554	-0.43896692468461007	0.25376895023067453	24.525136796179083
12	5.0	ltm	15	diff_vonmises	0.12792354207597995	7.329479061317857	1.3769499633837472	1.939387346639476	0.30811144248415434	3.35194562694796	0.08870892436274835	-0.34552615342997567	0.434235077792724	94.13104019999614
13	5.0	perception	15	diff_vonmises	0.003924212834279393	0.22484083331527996	2.9089295732834692	1.895320046139217	2.0903861309491057e-17	3.279172875456021	0.6977514750930119	-0.518269219096823	1.2160206941898348	80.5907826429588
14	5.0	wm	15	diff_vonmises	0.038538369460349414	2.2080859193938855	0.9873526264246293	2.376668994140353	0.1830599316137226	4.237066907604187	0.003363227407425007	-0.444932409981682	0.448295637389107	112.66496723805281
15	6.0	ltm	15	diff_vonmises	0.12430026634075696	7.121880653677419	0.412407543330135	76.28840893152199	0.38751649965846535	77.63273825049828	0.044642524654495475	-0.3728262957977053	0.4174688204522008	129.52710647618937
16	6.0	perception	15	diff_vonmises	-0.05837665253355474	-3.3447358122743713	1.4985486907773893	1.6226613072064915	2.772023565389276e-15	3.021963270494072	0.22146901445110673	-0.4458849311114051	0.6673539455625118	110.49645549604921
17	6.0	wm	15	diff_vonmises	0.11286149412167847	6.466487282712726	0.44797353105331983	199.05253574476052	0.43662108939541017	200.7297002987267	0.02408288554973126	-0.4322917218463047	0.45637460739603597	123.35314431846282
18	7.0	ltm	15	diff_vonmises	0.18621478076598688	10.669321020844947	0.7497903251681269	184.04553615933978	0.7331365614738455	186.20056610329456	-0.04184942055675123	-0.4630226586650785	0.4211732381083273	91.86413286612094
19	7.0	perception	15	diff_vonmises	0.0223351005819883	1.2797069983481184	0.7613608354348694	255.88187808896927	0.7426418836145017	257.8447278600536	0.3398871034411428	-0.5782574530716751	0.9181445565128179	98.84974250269232
20	7.0	wm	15	diff_vonmises	0.21474430126747326	12.303942137112072	3.753285349991422	0.5909237959654854	0.1590770197100617	2.913972433844512	-0.10158542260207643	-0.4540286740423787	0.35244325144030225	63.60326435640596
0	1.0	ltm	16	diff_vonmises	0.20597606555231343	11.80155923685754	1.7616004333830004	0.7214928895261813	3.3802788922261436e-26	3.6757846962893517	-0.2404140070596677	-0.5748515641869184	0.3344375571272507	102.8206645229946
1	1.0	perception	16	diff_vonmises	0.021502697605969862	1.2320138209681324	9.539711252380117	0.8185150761731906	0.06979292133512618	3.7472896287120725	0.35585256193092707	-0.6094981878005655	0.9653507497314926	43.218091601641646
2	1.0	wm	16	diff_vonmises	0.08199826505223712	4.6981545148882615	3.258615631286843	0.5545600185346938	0.023503030219449658	3.902899391859545	-0.25524519411849195	-0.6113206336112216	0.35607543949272963	73.37100499501108
3	2.0	ltm	16	diff_vonmises	0.15889221803809492	9.103853491055288	3.527303842420911	0.5784593042331091	0.03870898995787553	2.3014931916458226	0.034389966072716716	-0.3577044142303164	0.3920943803030331	70.79143919247315
4	2.0	perception	16	diff_vonmises	-0.0423377613349348	-2.425775038523926	7.865992860961932	1.1682386237265558	0.11121897770570623	2.976802941633425	0.7568509547648257	-0.48336747603852664	1.2402184308033524	47.52584043906171
5	2.0	wm	16	diff_vonmises	0.0594814926979773	3.4080384907323236	4.716314130601723	0.5344008631554158	0.01917012297852852	2.71613730710646	0.008488007649603113	-0.4290382673131257	0.43752627496272883	61.97563453622118
6	3.0	ltm	16	diff_vonmises	0.2549767213778589	14.609090009034427	2.9735889260666393	0.647669847196611	6.838079451352609e-15	1.9521508963934928	0.11133820605075595	-0.30959145428401197	0.4209296603347679	79.67935898919569
7	3.0	perception	16	diff_vonmises	0.009972259545469354	0.5713683841644427	5.370710774062589	1.8643539484314573	0.052681673418852	3.344201916297782	1.118386247927571	-0.5245591286829949	1.642945376610566	58.134507355697224
8	3.0	wm	16	diff_vonmises	-0.015372742344734805	-0.8807932558953495	3.9593257169378737	0.687595176040341	0.13948945180641767	2.697810997100715	0.034466421447804874	-0.4183953431707336	0.4528617646185385	63.8136818749133
9	4.0	ltm	16	diff_vonmises	0.203894838005175	11.682313682200144	0.6979035116631436	207.82573887590223	0.6832650411106788	210.28898152747416	-0.11348517048434559	-0.5046596595348056	0.39117448905046004	93.03909643795407
10	4.0	perception	16	diff_vonmises	0.0006241320928453786	0.03576013477870744	2.635164517071015	2.35543328119752	0.12618584879477218	4.983127286647725	0.5354468933996558	-0.7152764696835138	1.2507233630831696	79.32144627518608
11	4.0	wm	16	diff_vonmises	0.2484889252055499	14.237366670019993	0.6033271686480179	208.7095459540528	0.5892062647529147	211.94915691527055	-0.29608048009834675	-0.6074215941941219	0.31134111409577514	93.95227160246634
12	5.0	ltm	16	diff_vonmises	0.11824728848559629	6.7750705690905635	1.8544813230100479	1.1329568846417475	0.037228588082723384	2.543036369895321	0.13836501007887897	-0.3761305196113961	0.5144955296902751	97.79221853099142
13	5.0	perception	16	diff_vonmises	0.025463293896819585	1.4589392727889898	1.9678781266730105	2.290959094404582	7.385606743029655e-17	3.6040788872250644	0.5966733173261038	-0.5507474294935508	1.1474207468196547	97.7706725347914
14	5.0	wm	16	diff_vonmises	0.004721223334997444	0.27050617123403276	0.9589187444551018	3.6476779654684486	0.2889810317647002	5.548796953809252	0.06325843097936867	-0.46996297978393975	0.5332214107633084	107.59627012112831
15	6.0	ltm	16	diff_vonmises	0.29659934719872155	16.9938908008221	0.3064080696637466	119.83283860312571	0.2921199484680823	121.02799075530295	0.056880466441810995	-0.3658591587767841	0.4227396252185951	141.82006288016748
16	6.0	perception	16	diff_vonmises	0.023958709344174777	1.3727329280018632	1.5623323033987688	1.6755750763882489	6.198420880718515e-15	3.093810969174058	0.2515114647739858	-0.45969720017258564	0.7112086649465714	108.55291321972521
17	6.0	wm	16	diff_vonmises	0.18201967466965252	10.428959146915386	0.47487177433005673	241.69953718477612	0.4651289699841357	243.5045522293438	0.004310929234854655	-0.44360731207172677	0.4479182413065814	119.09128224116401
18	7.0	ltm	16	diff_vonmises	0.030286193526621916	1.7352710665918705	1.5408385392294093	3.3994998495735103	0.5812368717244111	5.824121253536112	-0.02929583123813395	-0.5327420614170536	0.5034462301789197	78.45520169719907
19	7.0	perception	16	diff_vonmises	0.1545245710900739	8.853605754530488	1.7535216149300774	1.916797429969879	2.4342085242829862e-17	3.7962030279119054	0.3087782907027118	-0.5768085699502886	0.8855868606530004	103.07881694106479
20	7.0	wm	16	diff_vonmises	-0.10308142116694369	-5.906130379076383	3.3705603363537997	0.5102362461289699	2.1344208237463433e-10	3.2586587971297907	-0.1617356747182047	-0.5182100422220025	0.3564743675037978	74.74759226040948
0	1.0	ltm	17	diff_vonmises	-0.0017898706577991863	-0.1025520345661978	0.8420030062642746	249.60886606193796	0.8279091534385601	251.74938058690347	0.010159707262360484	-0.4793292919104992	0.4894889991728597	87.80433253762777
1	1.0	perception	17	diff_vonmises	0.019916838918602044	1.1411508112777997	7.612488657992643	0.6553453363526168	9.98124408082871e-25	2.7055553177108367	0.27807863212960077	-0.43060232950222005	0.7086809616318208	49.284194851533044
2	1.0	wm	17	diff_vonmises	0.11393494442285142	6.527991454486983	5.934598056887911	0.39830604065065384	4.73991862099826e-22	2.415299484490292	-0.0062943734063330425	-0.3844042030796283	0.37810982967329526	55.949695082070946
3	2.0	ltm	17	diff_vonmises	-0.12409353435941806	-7.110035783656322	2.550568419395924	1.1100564514732316	0.1970550974028088	2.4610650358851225	0.18954350493796096	-0.3419936371998303	0.5315371421377912	77.80379672162366
4	2.0	perception	17	diff_vonmises	-0.05311583132622926	-3.043312960321703	6.326353850528637	1.1120550654356047	0.008584097048154	2.5963001526152105	0.6751660349287594	-0.41194620372675406	1.0871122386555134	53.99753313630379
5	2.0	wm	17	diff_vonmises	-0.02003187054185745	-1.1477416378008733	4.41083256848766	0.5453033445773718	0.09788516472998565	2.0481459669314095	0.08346575552208885	-0.3201172940694249	0.40358304959151375	62.03026016786606
6	3.0	ltm	17	diff_vonmises	0.05330851578029896	3.054352966317679	1.027920493795111	193.28331685108492	1.0127950123284204	194.22680149347684	0.22735529222258322	-0.290366717025595	0.5177220092481782	85.43517721498279
7	3.0	perception	17	diff_vonmises	0.04064255848609132	2.3286470698666415	3.9450441820284867	2.2838089054545927	0.21775944890834417	3.1572711767801693	1.1251840661746129	-0.46353327277894774	1.5887173389535607	65.71804689362955
8	3.0	wm	17	diff_vonmises	-0.016404190593721977	-0.9398908873484734	1.6188197507998616	1.777168624254898	0.35459130573890896	2.962190629785622	0.15480580053045934	-0.3130192665627727	0.467825067093232	88.32901040432316
9	4.0	ltm	17	diff_vonmises	0.058696716740482505	3.363074140504534	0.3872159679977698	115.15926254969607	0.3706243008810142	116.6917462009975	0.007366552987036812	-0.40103230119299127	0.4083988541800281	131.1601926452234
10	4.0	perception	17	diff_vonmises	-0.06697284396596703	-3.837261301238113	1.5385479282347352	6.628039441858058	0.5797903579498218	8.518222114159837	0.6859418946623279	-0.6547080504669577	1.3406499451292855	86.44023379491406
11	4.0	wm	17	diff_vonmises	0.006141162305239775	0.3518626813950705	0.7790817326087299	224.14195538461834	0.7664317349086524	226.2036603169682	-0.07137641082361768	-0.4318140099405987	0.36043759911698103	88.69870555319693
12	5.0	ltm	17	diff_vonmises	0.20989555808485882	12.026129616805434	1.6236010339629645	1.926847396355816	0.3478652328055411	2.9777723041858954	0.22448823547170782	-0.3101090320571451	0.5345972675288528	89.75268669708544
13	5.0	perception	17	diff_vonmises	0.008053985099997461	0.4614593544911048	2.20260730782554	2.352211964540203	1.2584968602415887e-15	3.246356193234173	0.7692257636384165	-0.500966078205456	1.2701918418438725	92.61642581536415
14	5.0	wm	17	diff_vonmises	-0.07995456528056225	-4.581059143379441	0.5490898366469773	178.73436895871484	0.5372095060376414	179.82315235601416	0.12306798859582813	-0.3247860501313191	0.44785403872714724	115.46517348502002
15	6.0	ltm	17	diff_vonmises	0.15744668250578756	9.02103040591788	0.355896257343751	92.84645317867435	0.3438285549960964	93.69115785476434	0.01903440206857354	-0.23549631579733088	0.2545307178659044	135.47645368742485
16	6.0	perception	17	diff_vonmises	-0.20479784001794005	-11.7340518864234	1.6808689753331592	1.6606634509474	7.291221857786309e-19	2.5155470740355077	0.3704779745139692	-0.37363195970873825	0.7441099342227074	105.02404117268051
17	6.0	wm	17	diff_vonmises	-0.1640441502229326	-9.3990374615841	0.5843806918495046	142.02609491098727	0.5706855529639331	143.1224993099563	0.08219310498771648	-0.29612821010857004	0.3783213150962865	110.47953902281694
18	7.0	ltm	17	diff_vonmises	-0.06469235681741074	-3.706599012392014	1.404788284473196	9.596850333460347	1.0609052856630345	10.932073325904039	0.13427847276281346	-0.35771343622130836	0.4919919089841218	74.88673776969483
19	7.0	perception	17	diff_vonmises	-0.0063835587106846345	-0.3657509723962029	1.1377786667704246	17.64622085494284	0.841524242598094	18.75480668270421	0.6430787473488335	-0.4801578278525267	1.1232365752013602	89.9815949484667
20	7.0	wm	17	diff_vonmises	0.11641182426757608	6.669906215950725	5.185347422712029	0.5262415614526073	7.567257001407287e-40	2.168504341382924	0.12008181641853283	-0.3451136040159502	0.46519542043448303	59.936768976024666
0	1.0	ltm	18	diff_vonmises	0.08904963059122817	5.10216800007644	1.812922307812898	1.813970906974337	0.5598262674084457	3.7294571456503434	-0.08039854634945343	-0.40902636686210514	0.3286278205126517	73.15950676136714
1	1.0	perception	18	diff_vonmises	0.09175480793075791	5.257163244465922	8.207888499676825	0.8564950968048387	0.1714964251947671	2.865605653756021	0.4255774911495378	-0.4785174403614338	0.9040949315109716	45.84556559408463
2	1.0	wm	18	diff_vonmises	0.12478955192535363	7.149914652651399	3.943513557221081	0.3844861317675463	0.06664332748634119	2.4836444544928375	-0.12873346739778613	-0.3892430987030815	0.26050963130529536	64.81900773351853
3	2.0	ltm	18	diff_vonmises	0.0532584368343206	3.051483654070655	2.8982926116498837	1.0024386552504212	0.6045957934445362	1.8019199565557784	0.16365662313003648	-0.23265134858463027	0.39630797171466675	66.54676784734744
4	2.0	perception	18	diff_vonmises	-0.022662845329511128	-1.298485389138757	8.299184498227314	1.056365365887657	0.0757460806020355	1.8083162512154713	0.8845213328042918	-0.29053726617114756	1.1750585989754394	46.72197784043132
5	2.0	wm	18	diff_vonmises	0.09084626512576796	5.205107576233021	6.90413684273329	0.34736788214026	0.10470719794261474	1.486902668436375	0.09496418536286527	-0.24080636593917168	0.3357705513020369	50.087750202943
6	3.0	ltm	18	diff_vonmises	0.22347791380460874	12.80434127539248	3.1518122164572744	0.621319883295028	0.3867511448325454	1.0276963960100702	0.18645942506582716	-0.13977589354242706	0.3262353186082542	69.08964387154981
7	3.0	perception	18	diff_vonmises	0.033374828746610255	1.9122368291526628	6.4936311574422545	1.3262132301312397	0.010966920272504047	1.8313002801359366	1.0254665388296802	-0.2902704037061208	1.315736942535801	53.32256196339188
8	3.0	wm	18	diff_vonmises	0.07233357611714673	4.144408628600797	5.35877562518331	0.47477641293236567	0.2960993498812601	1.2805502810292175	0.15900725904168006	-0.20809962718281363	0.3671068862244937	54.65871676457567
9	4.0	ltm	18	diff_vonmises	0.17446086342989398	9.995871164741173	0.9908901510472446	141.6547820309557	0.9777519550414514	142.80827801310096	-0.03677120218840457	-0.2504890990261188	0.21371789683771425	78.40838479474246
10	4.0	perception	18	diff_vonmises	-0.07914543196580937	-4.534699219380671	3.5214848830426466	1.745644714862797	1.7148103658347417e-18	3.2619139476096906	0.7319243673271583	-0.5180566259474151	1.2499809932745733	73.09162583583645
11	4.0	wm	18	diff_vonmises	-0.06835429776719583	-3.9164127736408276	1.1575829749024922	200.67731367768977	1.1411909761440944	202.51454971525192	-0.064508111365285	-0.41552840231286226	0.35102029094757725	72.23861992669526
12	5.0	ltm	18	diff_vonmises	0.013510497599056544	0.7740944915475718	1.8645319861077605	0.9339237904884404	2.1009960510686876e-14	1.812174731052074	0.17332376968001745	-0.2773274100964742	0.45065117977649166	100.27212900521315
13	5.0	perception	18	diff_vonmises	-0.022590891298401923	-1.2943627268372466	2.723207471095565	1.8093932766069574	2.0785281852163512e-16	2.365901524116746	0.7443625863649178	-0.37171151907437894	1.1160741054392966	83.33334002134615
14	5.0	wm	18	diff_vonmises	0.030703723990901273	1.7591938000132155	0.6200833538335505	169.28231123115305	0.607353494949317	170.1952097737381	0.16468773466029774	-0.29172028970221753	0.45640802436251526	110.03747707058677
15	6.0	ltm	18	diff_vonmises	0.34932447434487784	20.014818060587505	0.7156120998334026	149.01979412680404	0.7033673736676498	149.68370054234794	0.15858497961160367	-0.21904502395545045	0.3776300035670541	103.12306813714434
16	6.0	perception	18	diff_vonmises	-0.06785253749688615	-3.8876640278247394	1.51827134866431	1.954573935371073	2.1292612617132747e-11	2.5578032476177985	0.44577542371964796	-0.366148919904536	0.811924343624184	109.87912982445069
17	6.0	wm	18	diff_vonmises	0.03565544583726677	2.0429065631326857	0.7068702174980602	196.03314458243096	0.6928133811596514	196.87063908234026	0.28805314867881293	-0.31955657327101505	0.607609721949828	105.25684593032216
18	7.0	ltm	18	diff_vonmises	0.0377244249214896	2.161450332559496	0.9392182811773849	203.92501164546994	0.924176679485888	205.40105743133503	0.10004573493463909	-0.36444468976701927	0.46449042470165836	85.59958851763827
19	7.0	perception	18	diff_vonmises	0.01288372847734594	0.7381832661444327	2.0959108118402203	2.6435212885730577	0.336747660897939	4.149733724196438	0.5035915154765098	-0.48844516738848204	0.9920366828649918	82.4084428232836
20	7.0	wm	18	diff_vonmises	0.3569867544599601	20.45383437262873	5.252048841910909	0.5638064312571699	2.4409999692144173e-09	2.0077160678494193	0.18223609730917	-0.3195241706350934	0.5017602679442634	59.5490109444105
0	1.0	ltm	19	diff_vonmises	0.05863253850401758	3.359396998418501	0.9076004501196423	150.77060434133284	0.8818772916433211	154.18711972094272	-0.35197798173509653	-0.6658687270387169	0.3138907453036204	74.88891302633985
1	1.0	perception	19	diff_vonmises	0.08124596727447288	4.6550510272853	7.744698573398353	1.092518481724524	0.13786793563766056	4.157579533080385	0.43598352241528626	-0.6845083284104454	1.1204918508257316	47.24550816899804
2	1.0	wm	19	diff_vonmises	0.0777039525433655	4.452108532219682	3.343362822282187	0.5278614091414554	0.10404596979820557	4.078464527501662	-0.3508185051593241	-0.6361233003564855	0.28530479519716134	66.4646417638073
3	2.0	ltm	19	diff_vonmises	0.13706195593368944	7.853071606808475	3.6083361321297396	0.6750706713164756	0.2119662244689178	2.2843628195115366	0.04604282572945945	-0.348323931481581	0.3943667572110404	64.99569759307437
4	2.0	perception	19	diff_vonmises	-0.024185100158280605	-1.385704166170658	8.367166934458005	1.2675919809414176	0.14590218533107233	2.7800178030268294	0.9300886228571099	-0.4571581235473033	1.3872467464044131	46.023212752702165
5	2.0	wm	19	diff_vonmises	0.08154938587661835	4.672435632613994	5.1513374491437025	0.4624617577889397	0.06840204988151333	2.3539854807812133	0.006697649983854526	-0.37296025938650845	0.379657909370363	57.8768863394767
6	3.0	ltm	19	diff_vonmises	0.23932914783598633	13.712550085464557	5.790095296073307	0.3100608227346099	0.005353279705792405	1.041886935792399	0.12387172809539662	-0.1653977857254492	0.2892695138208458	56.49329020968699
7	3.0	perception	19	diff_vonmises	0.05515165319116454	3.1599569610229463	6.47870393157282	1.5117990789892513	1.0758564191506224e-16	2.236915227962224	1.147012892192108	-0.35601257046227824	1.5030254626543862	53.49522141917831
8	3.0	wm	19	diff_vonmises	-0.04946618423542529	-2.834203585306436	6.173021046091158	0.38887504569589154	0.14741301882219562	1.4870549577171939	0.10416819201811006	-0.24109987679121742	0.3452680688093275	52.337194692547996
9	4.0	ltm	19	diff_vonmises	0.49367475588962373	28.28547996462662	0.5593582214800843	150.69967367184015	0.548321519272475	152.50934281276588	-0.1497178247562374	-0.3462015591310106	0.19648373437477318	99.41859881114226
10	4.0	perception	19	diff_vonmises	-0.02754047480821589	-1.5779529722971357	3.950668983489443	1.677156602439481	4.453391834181631e-15	3.988166891329903	0.6459074558608849	-0.6342622173436956	1.2801696732045804	68.90173646019178
11	4.0	wm	19	diff_vonmises	0.1546866822738884	8.862894041174929	0.7798736645631921	188.92751314859805	0.7663340876831225	191.31433166070488	-0.22092402009928946	-0.4566512785827186	0.23572725848342913	82.04844401822143
12	5.0	ltm	19	diff_vonmises	0.17120676348773028	9.809424971941427	1.4507440594494045	1.3976894476694939	0.17385922207789878	2.8324291940740127	0.060939227475203084	-0.3458641002040049	0.40680332767920796	98.42961221294686
13	5.0	perception	19	diff_vonmises	0.02763732321647192	1.583501977342766	2.5252728574046883	2.2104580187267566	3.068437210022519e-16	3.419087807365123	0.7662215784480485	-0.5357694844999369	1.3019910629479854	86.55978036857277
14	5.0	wm	19	diff_vonmises	0.10494723711130166	6.01303375803631	0.5633026618752347	133.74650700190003	0.5420730278293083	135.46145238792388	0.09793577788424557	-0.4533898514935988	0.5513256293778444	112.33056656652514
15	6.0	ltm	19	diff_vonmises	0.3849054978794604	22.053460539874738	0.7291861520755354	128.9915146587407	0.7116973004811727	130.2462178315394	0.07048782054165059	-0.3089472703017364	0.379435090843387	97.53888939406045
16	6.0	perception	19	diff_vonmises	-0.045246172716711795	-2.59241473578756	1.1941165272274188	2.292177572568367	1.502525623783935e-18	3.392312229297532	0.3266277810337177	-0.46035806843330884	0.7869858494670265	120.90654019253667
17	6.0	wm	19	diff_vonmises	0.03260137345304974	1.8679211051895932	0.44529487268153145	242.27959112189677	0.435164020864752	243.7675570893657	0.10481502848561064	-0.437564581373838	0.5423796098594487	125.89961250286063
18	7.0	ltm	19	diff_vonmises	0.1583697091631765	9.073915937764333	1.0022034682564485	159.76358292188002	0.9827589078942573	161.56396155792186	-0.021283630172369783	-0.4019433530523777	0.38065972288000793	79.31387350548928
19	7.0	perception	19	diff_vonmises	0.061804747587299314	3.541151190623608	0.8613690879220632	206.84134469518384	0.839636432024748	208.33835037475842	0.3918043427799063	-0.48291678714304354	0.8747211299229498	94.24461205663997
20	7.0	wm	19	diff_vonmises	0.21886380038303216	12.539972050141474	0.9434085958500338	7.273736162163133	0.6285402276524602	9.181599483233946	-0.08044818831359768	-0.39417118884434177	0.3137230005307441	87.69567696873284
0	1.0	ltm	20	diff_vonmises	0.09801609059169265	5.615908315275925	2.889803733043819	0.5507620116463322	8.36914413482699e-19	2.461691934979364	-0.03872517086113331	-0.39069935185103	0.3519741809898967	80.85985899897344
1	1.0	perception	20	diff_vonmises	0.005800240602327398	0.3323293066737784	11.278528419649842	0.7003456103881633	0.041567623438906035	2.7380743227059243	0.4732144632255606	-0.4419522127625688	0.9151666759881294	40.08143558362735
2	1.0	wm	20	diff_vonmises	0.11051715050842521	6.332166287944865	2.969951665356023	0.5279799440409911	9.843565008325674e-13	2.717417811359331	-0.08868347763597728	-0.4315853890845991	0.3429019114486218	79.74209625006654
3	2.0	ltm	20	diff_vonmises	0.12663471523870878	7.255634723019025	4.23802320948205	0.4874057035261363	0.05273077861634496	1.5792024050757194	0.12193685226216355	-0.24623118668183683	0.3681680389440004	64.667317344861
4	2.0	perception	20	diff_vonmises	-0.04492618827082231	-2.57408097752826	8.238033994276451	1.0257041800169473	0.03320065932303789	2.046256655253142	0.8187186086041685	-0.326187414465144	1.1449060230693124	47.0973146212753
5	2.0	wm	20	diff_vonmises	0.03777689360805416	2.16445656685624	5.747537002074335	0.4347045830841543	0.012060663786929252	1.8251440252562412	0.11183930413645482	-0.28940144526634365	0.40124074940279847	56.476590920711686
6	3.0	ltm	20	diff_vonmises	0.22551848621134887	12.92125746208954	2.814008387038084	0.6450994306340304	0.0720724795737227	1.3864823363077075	0.17044551758762103	-0.20662355143822578	0.3770690690258468	78.78799523114091
7	3.0	perception	20	diff_vonmises	0.0060412896663091745	0.34614040069551316	5.680349690833648	1.621402928128403	0.04667716053837838	2.492435365296678	1.0888251026558913	-0.3917309019471841	1.4805560046030752	56.67548359814273
8	3.0	wm	20	diff_vonmises	0.007891566356577688	0.4521534459793336	3.6271510838692578	0.856138073334269	0.3294286095156441	2.087795814006016	0.17407767884195974	-0.3113392782525061	0.48541695709446586	64.07992115968099
9	4.0	ltm	20	diff_vonmises	0.03506149499642911	2.0088756867144415	1.0503766031564368	151.87191809506854	1.0318848408361296	153.34981911950638	0.015311571596726026	-0.34288388893887856	0.3581954605356046	78.4927739569626
10	4.0	perception	20	diff_vonmises	-0.038579374036912396	-2.2104353085716655	2.9041836644957977	2.0065107403861133	0.029926737774307044	3.791626316618798	0.6683466188194975	-0.5821803661828047	1.2505269850023022	79.38792860631747
11	4.0	wm	20	diff_vonmises	0.02798923898277347	1.6036652654959573	0.9586137385837615	258.5786835090029	0.9454871770935673	260.89907960860916	-0.12444832442271547	-0.486457507115702	0.36200918269298654	78.11741616559104
12	5.0	ltm	20	diff_vonmises	0.09883242540713232	5.662680854870208	1.7730321190044436	1.0504299340071648	9.262840069361847e-16	1.9112005482615015	0.19950680637742857	-0.28965093023379557	0.48915773661122414	102.59743824426636
13	5.0	perception	20	diff_vonmises	0.006568389178900924	0.37634097815042317	2.1362652241115176	1.9612012134510113	3.1243818074412916e-14	2.6261730406978296	0.6347277970305963	-0.4032856949062901	1.0380134919368864	94.00244894097213
14	5.0	wm	20	diff_vonmises	0.00913247020039638	0.5232519990117057	0.6320344087688429	163.3409628164115	0.6174588092473207	164.42015447792232	0.16144234835118	-0.3251224307384266	0.4865647790896066	108.30845477205824
15	6.0	ltm	20	diff_vonmises	0.3816076989629914	21.86451058027825	0.477935484915906	119.53333112794	0.4654648476918561	120.1598411251854	0.12676779852306552	-0.23163070185147916	0.3583985003745447	124.36031104625852
16	6.0	perception	20	diff_vonmises	-0.014542787653143907	-0.8332403548801092	1.8184642218352138	1.5303535379192736	1.0509276230750393e-21	2.348424471342545	0.3714446507380173	-0.35413942105654483	0.7255840717945621	101.4403392160448
17	6.0	wm	20	diff_vonmises	0.08863681598616881	5.078515465485179	0.5863505723730171	200.03775541116423	0.5748027496091649	201.14351028734066	0.14797156515252397	-0.33362753854622795	0.4815991036987519	112.12214898029745
18	7.0	ltm	20	diff_vonmises	0.008383709150863118	0.48035115100966386	1.666605182207068	2.7164050572723717	0.6018215832883734	4.290034652961691	0.1136137203243135	-0.38838811357669784	0.5020018339010113	79.09809787071015
19	7.0	perception	20	diff_vonmises	0.11220494639983065	6.428869869201917	2.1879740524370064	1.620945494650485	2.080353526320759e-15	3.0378286118220377	0.39912847673931273	-0.4723841384121012	0.8715126151514139	92.90011925515677
20	7.0	wm	20	diff_vonmises	0.05576037886582775	3.194834373062402	2.2984353512058306	0.6890943854714092	1.2524746914537684e-31	2.447137262724192	-0.003045922105164467	-0.3855774025372977	0.38253148043213325	90.69593574976778
0	1.0	ltm	21	diff_vonmises	0.32119652057964715	18.40320502350067	1.278478388268705	0.8918595627434086	3.089171953339773e-21	3.518808594868629	-0.20905924739961573	-0.5328192136943101	0.32375996629469433	117.2756426192131
1	1.0	perception	21	diff_vonmises	0.039869507111720354	2.284354488768397	7.811314133462912	0.7706174020452242	0.05434393322586089	3.393318194435445	0.27469399046713394	-0.544977530379288	0.8196715208464219	47.824864117579295
2	1.0	wm	21	diff_vonmises	0.07517139719266146	4.307003799241066	4.848053480331671	0.3968911701828996	5.836992699639338e-16	3.2975734181239456	-0.18631305372164342	-0.5248042806826657	0.3384912269610223	62.03490659637319
3	2.0	ltm	21	diff_vonmises	0.10119210405262165	5.797880482263894	2.9148389269088213	0.788865576591606	0.150238661982566	2.478044540371183	0.05247882956238881	-0.365752941961285	0.4182317715236738	73.2633696157911
4	2.0	perception	21	diff_vonmises	-0.030639701971091282	-1.7555256084822	7.474102131424349	1.172996034346876	0.08918847392090559	3.1082745476691342	0.716602777611691	-0.5004227468772947	1.2170255244889856	48.8571027795893
5	2.0	wm	21	diff_vonmises	0.08976082421758487	5.142916393283283	5.337670419509748	0.47583190268142267	0.014746114880509361	2.6064819146850864	0.00621690806122549	-0.41299791188591983	0.4192148199471453	58.40169194927296
6	3.0	ltm	21	diff_vonmises	0.25963226452470967	14.87583298269003	2.542433255198505	0.9934055638863188	0.18736280177522255	2.312689942049167	0.15122875165961824	-0.32355318566820035	0.4747819373278186	77.91459962922505
7	3.0	perception	21	diff_vonmises	0.011378252778040904	0.651925862414748	5.029170426687949	1.9888494140654545	0.07524605411154843	3.5901692165027623	1.1146231408195213	-0.5596433988527835	1.6742665396723049	59.76279204004288
8	3.0	wm	21	diff_vonmises	0.00972653114237319	0.557289183760543	3.403475082913042	0.6792375153266969	0.12409839373648292	2.7287204906583407	-0.012132519792614815	-0.4167328040795067	0.4046002842868919	68.45936520728989
9	4.0	ltm	21	diff_vonmises	0.3340268043489408	19.138326133436397	0.6065857104243977	272.6767271216483	0.5956164749913775	275.1937907609967	-0.10015484048390988	-0.5270070034434866	0.42685216295957673	100.86613524610596
10	4.0	perception	21	diff_vonmises	-0.02106548204749807	-1.2069632147302434	2.6964915410720662	2.3090857034162315	0.11224537033238519	5.103435225554367	0.5164712792641268	-0.7415157123947668	1.2579869916588935	78.81430546108689
11	4.0	wm	21	diff_vonmises	0.1993334993263467	11.420968226973503	3.673667549684755	0.41282231515869006	2.0690246397210806e-28	3.6227064201268395	-0.27368850467513883	-0.57637644568193	0.3026879410067912	71.52011400683935
12	5.0	ltm	21	diff_vonmises	0.1152372066284161	6.602605582685238	1.7055643576932413	1.4137346262239647	0.13590510502682382	2.7881210394381597	0.15606027631438013	-0.36547417165430773	0.5215344479686879	95.33744878395026
13	5.0	perception	21	diff_vonmises	-0.000481870612054208	-0.027609152342091933	2.098183062590036	2.2553284618194116	5.628891711734544e-18	3.5533273388551665	0.6320802457866868	-0.5475053720891081	1.1795856178757949	94.81982199603792
14	5.0	wm	21	diff_vonmises	-0.029780372950621307	-1.7062896823961593	0.6004777471726347	125.79256830139168	0.5788478678577769	127.55320598908521	0.05393026597892714	-0.4311830176178475	0.48511328359677464	107.2090416559477
15	6.0	ltm	21	diff_vonmises	0.23878289924920584	13.681252346877049	0.27374408360672464	127.16152940506824	0.2607703182680311	128.29539763618354	0.06203704329772464	-0.360301490737422	0.42233853403514665	146.2796336700348
16	6.0	perception	21	diff_vonmises	-0.04201864498849006	-2.407491018699008	1.6484771451388007	1.5545005553413767	7.658341357501614e-14	2.872260920069961	0.2559126276072104	-0.4307526636115563	0.6866652912187667	106.03795210547545
17	6.0	wm	21	diff_vonmises	0.1727039311148618	9.89520635819968	0.5197878131329315	228.8460469668548	0.5100780990932668	230.48890249430812	0.007788979183779077	-0.39469229043895027	0.40248126962272934	113.67502161667741
18	7.0	ltm	21	diff_vonmises	0.00032962297988098436	0.01888600557770605	0.9003710388458176	104.7028636217905	0.8626165504928793	107.1794956187035	-0.028134743557416186	-0.543224635246089	0.5150898916886728	84.40087724566567
19	7.0	perception	21	diff_vonmises	0.07243513470504898	4.150227507060904	0.7130705401644502	199.5822475350691	0.6885474243134709	201.59768715841938	0.36378969706340314	-0.6128257119190863	0.9766154089824894	102.70102166041087
20	7.0	wm	21	diff_vonmises	0.038379942630903816	2.199008730705014	5.708691386596317	0.4423408333328071	6.100943876672779e-14	3.2247803529283963	-0.10175573596056176	-0.5132352058658146	0.41147946990525286	57.06104455802878
0	1.0	ltm	22	diff_vonmises	-0.057377569855256	-3.2874925914232267	0.8400429751883703	134.79230962890736	0.8191047490165012	136.86594269457024	-0.09843197976225326	-0.4280101490683954	0.32957816930614214	84.38792589741541
1	1.0	perception	22	diff_vonmises	0.03823147046291202	2.1905019021039265	12.446339767583769	0.6521390779961502	5.404028392193434e-17	2.676887550671076	0.4821725823298663	-0.4260398857764141	0.9082124681062804	38.42821855850772
2	1.0	wm	22	diff_vonmises	0.03715696951700508	2.128937532820644	5.470967130064703	0.3134465896480309	1.5015598001982101e-13	2.6352021254185245	-0.1342985581937653	-0.4194003977160273	0.285101839522262	58.31174513950927
3	2.0	ltm	22	diff_vonmises	0.042758419852838986	2.4498769962160645	3.0552753007189346	0.5433768322216748	4.8793459714656914e-14	1.8033090973608792	0.07256696442918997	-0.28620739689170044	0.3587743613208904	78.60377560301441
4	2.0	perception	22	diff_vonmises	-0.026316362013841625	-1.5078164755315249	7.839914435009739	1.1147647485665844	0.15231899794481704	2.3978772988291515	0.7818641882783727	-0.3927145015665914	1.1745786898449642	47.467960108560135
5	2.0	wm	22	diff_vonmises	0.06024547207562043	3.4518112847063063	5.483159309323254	0.360620988148727	0.037520989939551226	1.8941867179746537	0.015466288554937646	-0.30015304009796273	0.3156193286529004	56.963575494370644
6	3.0	ltm	22	diff_vonmises	0.15401583009011943	8.824457042367833	1.852099265237581	1.5010864342879788	0.6193583086823032	2.220638899349641	0.14129854272513165	-0.2062920001261695	0.34759054285130114	78.28722678565819
7	3.0	perception	22	diff_vonmises	0.03515722812040433	2.014360790677824	5.031721166776642	1.8707989023697829	0.2636602843466183	2.5332855360202324	1.1118979970889957	-0.38967702867938975	1.5015750257683855	58.337304830350774
8	3.0	wm	22	diff_vonmises	-0.015139738806085733	-0.8674431365191444	3.4346882896704907	0.5865315044299177	0.2757185667244221	1.6954714867193394	0.0657523250293246	-0.2535919185613992	0.3193442435907238	65.55850636401473
9	4.0	ltm	22	diff_vonmises	-0.04211429750913434	-2.412971504431713	0.923901903285802	214.51321110475496	0.9130693981993202	215.96891541849075	-0.03128241360981576	-0.31638666078784183	0.28510424717802607	81.97430254450151
10	4.0	perception	22	diff_vonmises	-0.03547019310297397	-2.0322923633144496	2.3611831898743656	2.764249877027084	0.3293758943280481	4.356072509137391	0.6370109272467428	-0.5393308599961075	1.1763417872428503	78.96594057989122
11	4.0	wm	22	diff_vonmises	0.01910604759359819	1.094695890289259	0.8198917995993816	178.75768735784132	0.8066844056869811	180.67430612918562	-0.1336011513113533	-0.38174079358979895	0.24813964227844565	82.99730035472018
12	5.0	ltm	22	diff_vonmises	0.1921341368544138	11.008475142146878	1.0929760037602034	4.43772333108152	0.5627785270180752	5.6325370855393535	0.13796871434166924	-0.3171866715289431	0.45515538587061233	93.47362584358902
13	5.0	perception	22	diff_vonmises	0.03915658323444219	2.243506959486256	2.7798994419182694	1.8516183881093171	1.2364858156971941e-15	3.0165496234791105	0.680731180336126	-0.4756298856736636	1.1563610660097896	82.46733576841734
14	5.0	wm	22	diff_vonmises	-0.06622972585026474	-3.794683769528657	0.4580236115756844	195.42416969813044	0.4476054319480354	196.89276963905687	0.02945193801289747	-0.38129057516593434	0.4107425131788318	122.35264116561791
15	6.0	ltm	22	diff_vonmises	-0.18767745206590677	-10.75312591314527	0.08583599643847016	58.959816962706924	0.06996342128160835	60.16988578461114	-0.05178521405712999	-0.32228108561244895	0.27049587155531896	169.76893687143803
16	6.0	perception	22	diff_vonmises	-0.15382303994435698	-8.813410980683932	1.7346004997119926	1.5077587306927398	1.5747781727531146e-17	2.8376426335434646	0.26178453355543413	-0.4294075171813587	0.6911920507367928	103.59752190628967
17	6.0	wm	22	diff_vonmises	-0.19395531448392964	-11.112820934061775	0.452858373502304	151.27683317277132	0.4383521911756897	152.7967146230294	0.04874163756481664	-0.4080960553554984	0.45683769292031506	123.72008951962086
18	7.0	ltm	22	diff_vonmises	0.08652217377868943	4.957355391816382	1.0148420152416207	173.2122600074071	0.9981535794346056	174.5733491491189	0.08189856386488259	-0.33483038101942597	0.41672894488430856	81.93019658947887
19	7.0	perception	22	diff_vonmises	0.01695640340957585	0.9715303510899352	2.539559298118907	1.4966773597431644	2.6749695746262364e-16	2.830541099832029	0.4397525471822932	-0.4449524651731546	0.8847050123554479	86.31133886036386
20	7.0	wm	22	diff_vonmises	0.19582307869107765	11.219835940256955	4.184741128023805	0.47091066947757215	0.05213584379519984	2.1183235134894414	0.016117456681763564	-0.33147006473803114	0.3475875214197947	64.5419087790207
0	1.0	ltm	23	diff_vonmises	-0.007530541137930522	-0.4314682246530632	1.1641753554657266	12.978315500613201	0.9155717344697758	15.052745600698445	-0.06807144852301406	-0.4550258540445753	0.38695440552156124	76.29567107306687
1	1.0	perception	23	diff_vonmises	0.07930313531806682	4.543734955880088	14.106604369185444	0.6127123496234119	0.05606957067884148	2.8654095552192516	0.42729393207054667	-0.46838420949189363	0.8956781415624403	35.77235060934831
2	1.0	wm	23	diff_vonmises	0.10362782480280099	5.937437001321609	4.010940669180546	0.41643602091369897	0.10197566355730327	2.7849190310654506	-0.16888728073587506	-0.43832527081539874	0.2694379900795237	62.64704392148337
3	2.0	ltm	23	diff_vonmises	-0.04407274365421475	-2.5251822029484865	2.4557707907490904	1.0729066719097928	0.46415625268723004	1.9117483330500487	0.1667471328605054	-0.23483714168889958	0.401584274549405	73.40646528420837
4	2.0	perception	23	diff_vonmises	-0.027882701862045937	-1.597561138116794	7.615727090246631	1.0633582165514683	0.18538548154887205	1.9717564694909162	0.7754580116582246	-0.32384799043921103	1.0993060020974357	48.07039410184683
5	2.0	wm	23	diff_vonmises	0.09771258381186305	5.598518657738083	6.790741727506658	0.3196942164702477	0.09735391101561239	1.5775508419909008	0.049613779420417725	-0.2552233416877184	0.3048371211081361	50.391003848026315
6	3.0	ltm	23	diff_vonmises	0.1290593111331602	7.394553834795837	1.1814477468190792	102.94031244006236	1.162046491856252	103.45213421811125	0.17995695167143566	-0.17732906437505314	0.3572860160464888	80.73659992762461
7	3.0	perception	23	diff_vonmises	0.03601044249056359	2.0632463731078627	5.374150960027044	1.5544607191619477	0.22043143258391104	2.1287637614950476	0.9833529379447854	-0.3314404373848193	1.3147933753296046	56.880793897951094
8	3.0	wm	23	diff_vonmises	0.13311338525089864	7.626835171575473	4.012002441551497	0.5377169723117713	0.2970630353994466	1.5024229417705368	0.09922639531632826	-0.23161169480346522	0.3308380901197935	61.45108084950377
9	4.0	ltm	23	diff_vonmises	0.0189877434600371	1.0879175627372566	1.098745914680516	190.60248145594093	1.0866669059165892	191.880158004354	-0.026037770645686464	-0.2890677370055883	0.26302996635990183	74.99364726082689
10	4.0	perception	23	diff_vonmises	-0.07865542860961786	-4.506624095123652	2.9849429066264737	1.9470427613979937	0.10786159399687353	3.2357128641754462	0.6994703649319363	-0.47240726585121406	1.1718776307831504	76.26771695733083
11	4.0	wm	23	diff_vonmises	-0.03954822394811653	-2.2659463194652867	1.017943232965171	174.4720870260158	1.0004635693876505	176.3080826020543	-0.051093302330450285	-0.4030760692634203	0.35198276693297004	77.67253146102266
12	5.0	ltm	23	diff_vonmises	-0.028272254073955304	-1.6198808357591865	2.051572370029507	0.9588672422554905	4.987863624190091e-16	2.1344435277402867	0.16259803775299791	-0.3314080839363893	0.49400612168938723	95.85134238058146
13	5.0	perception	23	diff_vonmises	-0.004391405852926611	-0.25160902150174236	2.742403866478499	1.8008124156747898	6.012775872647958e-21	2.7942458153839964	0.6754312029700805	-0.4400699159707806	1.1155011189408612	83.03798622445993
14	5.0	wm	23	diff_vonmises	-0.08303708978948598	-4.757674787986408	0.5411208447011822	203.21929125694152	0.530559263011398	204.51108727921294	0.07710274602335687	-0.3473441666332917	0.4244469126566486	114.32266943345749
15	6.0	ltm	23	diff_vonmises	0.22575218031129962	12.934647147713827	0.6279787721248293	126.17262863346657	0.6127091973900669	127.39156058636208	0.03870026899765833	-0.2953790959932583	0.3340793649909166	104.3966993252655
16	6.0	perception	23	diff_vonmises	-0.10957543970749657	-6.278210233529769	1.4820471198635756	2.014246681198477	1.1837699971018821e-11	3.2788637382253634	0.34427659433762503	-0.4771475840737917	0.8214241784114167	110.98281405908843
17	6.0	wm	23	diff_vonmises	-0.061166309282230096	-3.504571370263656	0.6882714691636138	140.00351839940353	0.6653307599526097	141.31762665950254	0.24615892817325147	-0.4086434453191625	0.654802373492414	104.72573774715268
18	7.0	ltm	23	diff_vonmises	0.008108892850314605	0.46460533684683525	0.9758556702371316	216.4900844525424	0.9602406009827582	218.11059464904852	0.09957521150553816	-0.39767274659654106	0.4972479581020792	83.67754605646778
19	7.0	perception	23	diff_vonmises	0.0012734708066895412	0.07296450255643103	3.059611877479895	1.6669355533641843	0.13089681630632305	3.3687560790844486	0.4955375230102136	-0.4926647234261474	0.988202246436361	74.23179653862911
20	7.0	wm	23	diff_vonmises	0.368194511851943	21.095991568995903	3.966397805889225	0.9318126467854924	0.24321489158083642	2.585810370562067	0.19594998552263798	-0.39613340460345386	0.5920833901260918	62.792918225430356
0	1.0	ltm	24	diff_vonmises	0.05346770252758145	3.063473695091381	5.656774138721405	0.3075244389270079	0.035404113397340675	3.4159036590257084	-0.2783690560187858	-0.5442832075798999	0.2659141515611141	55.22738235046711
1	1.0	perception	24	diff_vonmises	0.057054091486725765	3.2689586461426665	11.496653699950489	0.8797450888267507	0.10797441190872879	3.9144817473774314	0.484357693599346	-0.6525544584858228	1.1369121520851688	39.240469580595715
2	1.0	wm	24	diff_vonmises	0.03405692505870607	1.9513180690571912	1.899060000705293	1.073414437169546	0.20822193274346107	4.789556618611229	-0.3919881965324641	-0.6737809535454472	0.2817927570129831	77.18192707004391
3	2.0	ltm	24	diff_vonmises	0.20366021139390553	11.668870567612947	3.5908829671095543	0.45254481144493264	1.2988626991870715e-10	1.9852273990468083	0.011921684813889055	-0.31570942841940924	0.3276311132332983	72.35893951879189
4	2.0	perception	24	diff_vonmises	-0.02703958589121626	-1.5492541513481783	8.411373119723901	1.223858244039783	0.23577577357010746	2.7992999936125647	0.8371418334122677	-0.47492503393029845	1.3120668673425662	45.361933481293676
5	2.0	wm	24	diff_vonmises	0.11788075497762461	6.754069746033661	6.180255111902857	0.36240667440037805	2.730722040405209e-11	2.421794490546707	-0.03394453418762672	-0.38543905816178314	0.3514945239741564	54.79763257260635
6	3.0	ltm	24	diff_vonmises	0.23944788315462912	13.719353118101928	4.1897503385881025	0.3736279923932162	0.0027890219692274063	1.2582316876606603	0.09377865454671871	-0.19965260588730838	0.2934312604340271	66.69984551734032
7	3.0	perception	24	diff_vonmises	0.03044283596074735	1.7442460169599139	6.150298045059384	1.63510953615473	0.1325064639445496	2.6121729734303747	1.1092681630581724	-0.41376450942128296	1.5230326724794554	53.78005748969778
8	3.0	wm	24	diff_vonmises	0.0026840357501685588	0.15378392054688825	6.495264972306796	0.3962151738105217	0.19390812417416894	1.922989310977619	0.02636848821815585	-0.3198282055157931	0.34619669373394896	49.984131015211204
9	4.0	ltm	24	diff_vonmises	0.14359885736997263	8.227608470200508	0.9200244691738956	226.32505930934437	0.907747017475376	228.3985380887952	-0.14337155856571826	-0.42233620513547265	0.2789646465697544	78.30046568885268
10	4.0	perception	24	diff_vonmises	0.001715070117497439	0.09826627930160946	3.3101413674346096	1.8508053933231254	0.11334870507339236	3.920097881913444	0.5849894140228498	-0.5840756693471385	1.1690650833699883	71.9081656086494
11	4.0	wm	24	diff_vonmises	0.19181831948087086	10.99038013954596	0.6642784385445317	168.7664065633974	0.6496374170273156	171.43564359577556	-0.2641144244107707	-0.4959144946303695	0.2318000702195988	87.86425993769589
12	5.0	ltm	24	diff_vonmises	0.10273363154147011	5.886203501378311	1.5255097837889267	1.4898316529737996	0.18261489634494724	3.117186631804464	0.0613744687000507	-0.3843293712134891	0.4457038399135398	95.71789002769339
13	5.0	perception	24	diff_vonmises	0.0464678469815773	2.662411515104101	2.5302346919412018	1.951113690258995	1.9230713479517673e-14	3.5395049077626	0.5946728769171126	-0.5559843310070445	1.150657207924157	86.47222386757574
14	5.0	wm	24	diff_vonmises	0.019398849487595765	1.111472203048757	0.48198955970590857	106.33758180769739	0.4568869310844923	108.56530476769775	-0.03537460687579852	-0.5223586411601211	0.4869840342843226	117.86456181622378
15	6.0	ltm	24	diff_vonmises	0.12672336436395473	7.260713943753144	0.881333642453213	1.4676226393230896	7.63683311371314e-16	3.186145434282016	-0.03867962560604671	-0.42671625672911845	0.38803663112307174	133.50355864344775
16	6.0	perception	24	diff_vonmises	0.026957010086527348	1.544522906249607	1.3749134281507858	1.8537218687591441	8.087776465095098e-14	3.722484091412631	0.16938025328745565	-0.5437367877646349	0.7131170410520905	114.50244448875671
17	6.0	wm	24	diff_vonmises	0.042944307873717516	2.460527595274444	0.3514189553182366	242.9243587695944	0.3410868266829878	245.072996852886	-0.012612842697471649	-0.5572740462741557	0.544661203576684	135.075219116358
18	7.0	ltm	24	diff_vonmises	0.13567961045083302	7.773869044811828	0.9693686212649725	234.25249373690642	0.953939122739856	236.42078959143498	-0.036174557726340595	-0.4780612373621018	0.4418866796357612	80.33672564153869
19	7.0	perception	24	diff_vonmises	0.13290043752716427	7.614634165748575	1.929234079827581	1.5492460655963	1.4242969884445553e-18	3.3885482568735044	0.24265516416290966	-0.5228031899591797	0.7654583541220894	98.65390645796197
20	7.0	wm	24	diff_vonmises	0.22077642007011725	12.64955708602508	0.894707082618202	171.45822135339247	0.875708376358423	173.8531946303047	-0.14101664359368726	-0.4911723856234751	0.35015574202978783	80.58833046503764
0	1.0	ltm	25	diff_vonmises	0.08450413342455662	4.841730196637487	2.2676573083234595	0.5955934206756056	2.191470589574246e-11	1.24207161525973	0.1336442419273721	-0.19412878965101354	0.32777303157838567	91.294392487735
1	1.0	perception	25	diff_vonmises	-0.022918970613276458	-1.3131602869251011	10.188256851246056	0.6511590995476388	3.7990642419140904e-18	1.3271733033468742	0.6071617026167911	-0.21122619040932022	0.8183878930261114	42.52076467226513
2	1.0	wm	25	diff_vonmises	0.1110737831877584	6.364058991209715	2.5465754134462113	0.5180982215357735	2.4999500851657503e-22	1.2294062678282252	0.11298965373195599	-0.1937711609804733	0.30676081471242933	86.18855114001684
3	2.0	ltm	25	diff_vonmises	0.11330713618711448	6.492020692235703	7.196567558673779	0.318486401934001	9.668773094972149e-18	0.7496403854291089	0.21510202629482167	-0.11930878510125917	0.33441081139608086	50.718653269673695
4	2.0	perception	25	diff_vonmises	-0.03751429702794546	-2.1494108911014425	7.705781456263939	1.01022747165376	2.1963216906446736e-18	1.3584986729868747	0.8831596070777206	-0.21621155614076124	1.0993711632184817	48.98081458621493
5	2.0	wm	25	diff_vonmises	-0.009197877382765847	-0.5269995545113186	6.535144731095631	0.35438676282172876	1.2073067533393081e-12	0.8521925667650218	0.21823329716295925	-0.1356299135760066	0.35386321073896587	53.26655027332953
6	3.0	ltm	25	diff_vonmises	0.2504663724285247	14.350666050106312	2.8654797834918364	0.7618501958186283	0.6008850616291069	0.9332216617176604	0.23804834809106618	-0.1083052962286475	0.34635364431971366	70.62363495312235
7	3.0	perception	25	diff_vonmises	0.008726418075973989	0.49998692601998174	5.708782748219017	1.5310157426671185	0.08128725365802503	1.784662268777052	1.1163850083450453	-0.27889825918879174	1.395283267533837	56.39799368248228
8	3.0	wm	25	diff_vonmises	-0.06470107891312063	-3.7070987516646996	2.231567526275413	1.9850221676235211	1.0028481711159871	2.3929819171377473	0.27473232240421397	-0.1853790247280239	0.4601113471322379	70.57586028105376
9	4.0	ltm	25	diff_vonmises	-0.09578662521784764	-5.48816935878405	1.5109860817645473	102.20624792090835	1.4899355317788212	102.76226738067618	0.13643493196661893	-0.1840569575772868	0.32049188954390573	69.70495871049837
10	4.0	perception	25	diff_vonmises	-0.06363338454916052	-3.645924370799881	2.885209401215397	1.9973878624547268	0.041784512469455276	3.1132617517264736	0.7628595406969136	-0.4718899063399201	1.2347494470368336	79.4756074871045
11	4.0	wm	25	diff_vonmises	-0.03503002023711424	-2.007072315844509	1.2863943916496288	162.67560890731878	1.2689764388577154	164.02133933949898	-0.010263098448049846	-0.3260705515396154	0.31580745309156555	69.81124108000873
12	5.0	ltm	25	diff_vonmises	0.22014356177959807	12.613296976948467	2.034268799700357	0.858025930757776	2.0907545909687956e-16	1.044835879093085	0.2808970603832388	-0.15864210917128757	0.4395391695545264	96.16678185442686
13	5.0	perception	25	diff_vonmises	0.004435548936375304	0.25413823387804624	2.6916048478487116	1.6067124557059127	1.556783442376782e-21	1.6277483568028155	0.7295778393662209	-0.2545230684548844	0.9841009078211054	83.82612669549223
14	5.0	wm	25	diff_vonmises	0.023690488322554416	1.3573649954863294	0.6755612937293408	89.85495702005169	0.6581366991834163	90.09568442705323	0.23131202020368846	-0.1689395904458566	0.40025161064954506	111.16156947548622
15	6.0	ltm	25	diff_vonmises	0.3312297721326487	18.97806799228074	0.6343254249619291	61.204133285286346	0.6205676346329604	61.268160947530404	0.14251245808133817	-0.08943789600246888	0.23195035408380704	115.5831796748115
16	6.0	perception	25	diff_vonmises	-0.11691008479659608	-6.698454441361527	2.1584877533094584	1.1953977746118059	1.8887821236554295e-11	1.3542966913920633	0.43010736269482797	-0.20692941220530908	0.6370367749001371	93.51631018807856
17	6.0	wm	25	diff_vonmises	-0.07428961838088269	-4.256481594862082	0.6735236692064687	97.62206466264453	0.6570867523374169	98.03858055044293	0.19015661891510405	-0.18621544833604897	0.376372067251153	109.04951684666204
18	7.0	ltm	25	diff_vonmises	0.03881165728575143	2.223744158381729	1.1967136808844563	14.92156678390532	1.0489094984184748	15.453410385607421	0.22499836596983158	-0.1969553116198246	0.4219536775896562	83.21467034263586
19	7.0	perception	25	diff_vonmises	0.025799072428406875	1.4781779655000415	2.437014092898207	1.5317204605925296	4.8983002488615054e-14	2.245279781525259	0.5318550272582931	-0.3505504771115419	0.8824055043698351	88.11296162187921
20	7.0	wm	25	diff_vonmises	-0.2265739630438317	-12.981731829964644	0.0003228870004145351	3458.9058597457647	6.840023661176904e-26	3459.621373376432	0.06388673482013019	-0.29161310059680545	0.35549983541693564	178.51751799017597
0	1.0	ltm	26	diff_vonmises	0.06749041986462857	3.86691621580911	2.4762949711615496	2.046320972375497	0.4916964707429874	5.718935530840661	-0.20293121864625996	-0.7826192363782054	0.5796880177319454	66.27937064440991
1	1.0	perception	26	diff_vonmises	0.09472908470059765	5.427576750481543	10.462087056215754	0.9134736028301182	0.1913834977035737	4.697232840559505	0.26661608798845005	-0.8133917683341375	1.0800078563225877	40.32175220842481
2	1.0	wm	26	diff_vonmises	0.15065216539333146	8.63173325154473	2.165211464096162	1.1006391656155867	0.20507231115875313	5.069635637442698	-0.3846021917015626	-0.7305219209985627	0.3459197292970001	74.64306698508668
3	2.0	ltm	26	diff_vonmises	-0.01996999170597502	-1.1441962416636275	2.307239582383461	1.4793896626377316	0.5789383418167217	2.593191885772653	0.1531906960382774	-0.29866920993515517	0.45185990597343256	72.13344722368782
4	2.0	perception	26	diff_vonmises	-0.05155765239113545	-2.9540358836146385	7.19530548448182	1.1539894988307264	0.20088180608526768	2.2424141515669485	0.7799739530862615	-0.36779626240676516	1.1477702154930267	49.23541133714727
5	2.0	wm	26	diff_vonmises	0.06182764576078384	3.5424631593228297	5.6598261167737265	0.4405011790701654	0.10233982274672639	2.0282725805566266	0.051198352969661576	-0.3244616944638957	0.3756600474335573	54.849273843617596
6	3.0	ltm	26	diff_vonmises	0.09467732702443858	5.424611254080223	2.5489705266394966	0.624611755838001	0.05655511700036792	1.364869859159582	0.14262794965391093	-0.20374741283451972	0.34637536248843065	83.16551905863247
7	3.0	perception	26	diff_vonmises	0.045516258017969935	2.607889483658171	5.861892289144334	1.3880756904284852	0.021361504218005284	2.1604571711890412	0.9580316613357063	-0.34119224934001197	1.2992239106757182	56.03814512487327
8	3.0	wm	26	diff_vonmises	0.11912939400845193	6.825611492635372	4.020505218570753	0.63036919104356	0.19284504230252947	1.8508368195635552	0.1320844393597428	-0.284555336566681	0.4166397759264238	63.213449663101784
9	4.0	ltm	26	diff_vonmises	0.1285770653823771	7.3669231885878474	0.7989631899594749	141.65973824562846	0.7838085958390462	143.39151543332804	-0.11052119269575655	-0.34672373155836667	0.2362025388626101	84.83478148370756
10	4.0	perception	26	diff_vonmises	-0.07359384538824992	-4.216616738885038	3.159987739797624	1.935956282404342	6.471119618058714e-17	3.639175662073693	0.7266958717965594	-0.5768421057640326	1.303537977560592	77.2583116608921
11	4.0	wm	26	diff_vonmises	0.08538110875683616	4.891977181914187	0.8880458987434426	193.12617036108125	0.8681685198251237	195.6619713040443	-0.07114431254999687	-0.5425131993031975	0.47136888675320066	83.45531114744753
12	5.0	ltm	26	diff_vonmises	-0.10291156533334604	-5.896398356685562	1.9973586222392754	1.0655020802108197	6.363813144960915e-19	2.637800493187172	0.12941725675977006	-0.40970602553513086	0.5391232822949009	97.06720930641406
13	5.0	perception	26	diff_vonmises	-0.003987380166180992	-0.22846005483634368	1.9504550109569052	2.567738494699632	0.06416851316690036	3.742051510462896	0.67030273581531	-0.5315894013471278	1.2018921371624378	95.27436437097035
14	5.0	wm	26	diff_vonmises	0.00941112184646085	0.539217562285573	0.5891299887990673	265.2013669565479	0.5776597539712736	266.89265760706263	0.13275732832470055	-0.45840797495603525	0.5911653032807358	110.02785997955516
15	6.0	ltm	26	diff_vonmises	0.5207563817629278	29.837142829519237	0.789804542015054	170.4280460433088	0.7727229574607181	171.92563196744334	0.10901031929373772	-0.37491945912978153	0.48392977842351925	94.09764313102656
16	6.0	perception	26	diff_vonmises	0.0321502309067716	1.8420725413290702	0.4980719000771225	257.5824765088353	0.4824895257960036	258.9239473887972	0.4224172951624894	-0.5809636377975664	1.0033809329600558	124.31773034033326
17	6.0	wm	26	diff_vonmises	0.07119489372962304	4.079166933589809	0.6473162745543021	247.80374478242987	0.6314861195396301	249.37815736139453	0.31750355470033753	-0.5117395666110731	0.8292431213114106	108.14642508957493
18	7.0	ltm	26	diff_vonmises	0.04726358163923418	2.7080037526001273	1.1219952765250891	61.60136695977416	1.050200695303617	63.976228099020105	-0.004704826333018275	-0.54813386402774	0.5434290376947217	76.20800541330101
19	7.0	perception	26	diff_vonmises	0.09146480890049535	5.240547523968991	1.8238214397826258	3.5846683312131455	0.48159945821454275	5.573076310335486	0.3927229619658421	-0.5648709613020618	0.9575939232679039	81.90083721397698
20	7.0	wm	26	diff_vonmises	0.37095860487573223	21.25436243344058	1.0495355337901648	181.92032285451486	1.0238177563334756	184.2019365636779	0.09211140469839307	-0.5495200756319463	0.6416314803303393	79.94890837011226
0	1.0	ltm	27	diff_vonmises	-0.05979918473674561	-3.426240903738654	0.9096948503460517	263.1287104842474	0.8948257433572603	266.4239570914006	-0.31514657741148255	-0.6486151034417276	0.333468526030245	75.66048147696418
1	1.0	perception	27	diff_vonmises	0.07802071534508798	4.470257703865119	10.285261730065022	0.8085315530663008	0.004667929226405377	3.666575818687242	0.43465533884604335	-0.5838229076813916	1.018478246527435	42.261906072183194
2	1.0	wm	27	diff_vonmises	0.03453020675683073	1.9784351128805189	4.9770363971222045	0.3898356251382503	0.08351957396603142	3.802243697510974	-0.319500376992312	-0.6090637135395782	0.28956333654726624	56.633140995349606
3	2.0	ltm	27	diff_vonmises	0.07780314477677759	4.457791828554671	3.234325916007074	0.6123733850217428	0.06130650872815484	2.399505138968846	0.012836964689248331	-0.36838941142692166	0.38122637611617	72.69591995861748
4	2.0	perception	27	diff_vonmises	-0.01849536236606787	-1.0597062041407852	7.826869715509314	1.2956139152065054	0.18594203246913446	3.0938618939300406	0.8334881177751916	-0.5128947706164206	1.3463828883916122	47.1769764211075
5	2.0	wm	27	diff_vonmises	0.08285986406103166	4.747520501724844	4.8287162228856415	0.43275492807218646	0.06267669207993719	2.466596664860409	-0.049232054969206185	-0.3898899058040269	0.3406578508348207	59.59232882749936
6	3.0	ltm	27	diff_vonmises	0.1972592861558504	11.302124566493616	4.356211088041501	0.43701950215071184	0.14121699690122666	1.2983698280513838	0.11511595453979542	-0.20156466074793764	0.31668061528773306	62.01795955753849
7	3.0	perception	27	diff_vonmises	0.06455580116877935	3.6987749500567637	5.467254684318191	1.8013837596233107	0.15817229403296437	2.5488522648900434	1.165604568972209	-0.39761525030307265	1.5632198192752815	56.85295473883565
8	3.0	wm	27	diff_vonmises	-0.09046636693332996	-5.183341013161675	5.708316065599252	0.33479167862231085	0.09518603336727972	1.5278008139582067	0.04459340797904232	-0.24414679955417493	0.2887402075332173	54.78388169303929
9	4.0	ltm	27	diff_vonmises	0.18675959466679895	10.700536557981538	0.45439014993472127	144.59257186995183	0.44381918918465596	146.4703490939013	-0.16049137173486372	-0.3642679292800306	0.20377655754516688	111.02306232763726
10	4.0	perception	27	diff_vonmises	-0.020974053148091334	-1.2017247246687113	2.970108957394728	2.243728705766796	0.20931605370550507	4.411305871133778	0.6050033562813106	-0.6249836098576427	1.2299869661389533	73.36921726782518
11	4.0	wm	27	diff_vonmises	0.15774348031304355	9.038035667642385	0.6535017177184734	125.96968851447775	0.6373337115773219	128.17182990102205	-0.21340981454201113	-0.4099947017335168	0.1965848871915057	89.07776536192702
12	5.0	ltm	27	diff_vonmises	0.23255507133926892	13.324424092103882	0.7665204867996033	109.30476090081923	0.7409898034816387	110.99700179523073	0.03797944472030679	-0.3908979490038238	0.4288773937241306	93.67114097992666
13	5.0	perception	27	diff_vonmises	0.049224921519772244	2.820380249945652	2.7778984546401473	2.158284152473751	1.3914162944350144e-14	3.7979315773307922	0.7480805145767804	-0.5992318911717904	1.3473124057485708	82.49659610053106
14	5.0	wm	27	diff_vonmises	0.029364028201769674	1.6824348854645264	0.44052274402191616	189.67952298467398	0.4275537887918182	191.68802584219458	-0.01407188125988057	-0.4927048947664687	0.47863301350658816	123.20382153229801
15	6.0	ltm	27	diff_vonmises	-0.36626536050394526	-20.985459338713657	0.00020815634633283533	4757.171829932144	2.781210398120985e-33	4758.8526219667765	-0.10989728909748919	-0.4250990293360246	0.3152017402385354	176.18775609725873
16	6.0	perception	27	diff_vonmises	-0.1601425485649869	-9.175492153242567	1.2553423686422218	2.0472469756991605	3.9091260589176343e-14	3.6004130128717087	0.22399942085104319	-0.5082944512324392	0.7322938720834824	118.53958536329135
17	6.0	wm	27	diff_vonmises	-0.18243324497555227	-10.452654979975376	0.34542097862986665	189.23973012078667	0.3339222085836663	191.09203674222425	-0.006914938834086115	-0.48508863638352295	0.47817369754943684	135.83069185075942
18	7.0	ltm	27	diff_vonmises	0.17027257482147465	9.755899904096024	0.969481210463422	151.98584588902023	0.9506779500342176	153.66408886703928	-0.015455728397931523	-0.3736463984225722	0.35819067002464067	80.84704774583972
19	7.0	perception	27	diff_vonmises	0.006660416496008808	0.38161375502061706	0.9134082214356051	72.19423045090387	0.8496649808370372	73.65744547187447	0.41891486982310155	-0.482745703003129	0.9016605728262306	92.85162380925144
20	7.0	wm	27	diff_vonmises	0.21736887987464698	12.45431941430345	1.468188143093604	2.102363252371212	0.4873485772415168	4.063974264025142	-0.09425798819728215	-0.4030561320179936	0.30879814382071147	80.04442382660386
0	1.0	ltm	28	diff_vonmises	0.060267818009553616	3.4530916124099558	1.89300401614059	1.69759213711637	0.2427696666793276	5.07378422999473	-0.1673686561252028	-0.6712771266663572	0.5039084705411544	81.10002852491465
1	1.0	perception	28	diff_vonmises	0.03198575277854638	1.8326486387595535	9.000840884395766	0.7235131095361685	0.01585233349489432	3.9458049042895573	0.2152434953209661	-0.629456097551694	0.84469959287266	44.9997555456672
2	1.0	wm	28	diff_vonmises	0.1537152815513315	8.80723687955646	4.4769770519576655	0.5044140703055391	4.660056768754895e-24	3.8247406853052452	-0.1964855457620428	-0.6086731115151656	0.41218756575312276	64.61570161033416
3	2.0	ltm	28	diff_vonmises	-0.02363583590586793	-1.3542336426700032	2.5559133642314045	1.1996688047365167	0.25650993854305765	2.9009772325529246	0.1292211035095021	-0.39966218825996	0.5288832917694621	75.17788552393503
4	2.0	perception	28	diff_vonmises	-0.061978314071818676	-3.55109581765149	6.386312194124693	1.222704137253012	0.08061213647701708	2.9609398470388917	0.6963168853244828	-0.47095476253657514	1.1672716478610579	52.896964879187465
5	2.0	wm	28	diff_vonmises	0.008166877502587168	0.46792761269858674	4.230239807129169	0.6478582193972632	0.09304301423063997	2.6360571653578164	0.05398267928416711	-0.4113531401593281	0.4653358194434952	63.15653197789723
6	3.0	ltm	28	diff_vonmises	0.09904675060664546	5.674960784245611	1.8897637786941597	1.3089516004334625	0.17322855906636525	2.624228101601889	0.15950311228494152	-0.34200179963950267	0.5015049119244441	89.43760589250061
7	3.0	perception	28	diff_vonmises	0.03432046971039707	1.9664180653123307	4.451910941790964	2.0117773559942305	0.05423585926548369	3.305686339928703	1.0842007500571291	-0.5123689657242416	1.5965697157813707	63.825018954340266
8	3.0	wm	28	diff_vonmises	0.0190658359438296	1.0923919324702607	2.1786057777223147	1.3186842262586749	0.21475270822864695	3.05174398678897	0.1210598917062774	-0.40807796303233046	0.5291378547386079	81.69484696309141
9	4.0	ltm	28	diff_vonmises	0.1856495792146952	10.636937357381687	0.3183577214994842	147.56053314039383	0.3042422694734884	149.79524405491568	-0.09733180257858365	-0.5298993839813377	0.4325675814027541	137.65496383808954
10	4.0	perception	28	diff_vonmises	-0.046268634400700843	-2.6509974749939715	2.1267173347179176	3.2772975646445714	0.22058375695695284	5.751129108356611	0.626946207070213	-0.7386446510424571	1.3655908581126701	84.58189773096544
11	4.0	wm	28	diff_vonmises	0.16618828322810256	9.521887233495042	0.6798335514321244	291.07513032388556	0.6677751078589083	294.0198791055548	-0.151796139530461	-0.5972766730571877	0.4454805335267267	93.68769589280566
12	5.0	ltm	28	diff_vonmises	0.09209777256365652	5.276813670453266	1.9643897188027906	1.1143836289548361	6.177455848551867e-15	2.5719285025519896	0.15933225252049643	-0.3981502628035304	0.5574825153240268	97.8342491828744
13	5.0	perception	28	diff_vonmises	0.003692262443403806	0.21155105486169906	1.8371174900517495	2.7185821217946424	6.4235744443571055e-24	3.9028959354591057	0.7108856260622676	-0.5873717960054524	1.2982574220677199	100.96410483820799
14	5.0	wm	28	diff_vonmises	-0.011969824305636291	-0.6858204142260707	0.6028827170623394	231.88853558791044	0.5903960759256921	233.46663268623797	0.13163634724571693	-0.42853808845761066	0.5601744357033276	108.9090036381128
15	6.0	ltm	28	diff_vonmises	0.4340028738088453	24.86653296579569	0.5327663354379262	155.19452684985407	0.5206389967488665	156.32310995377136	0.07033047403285053	-0.3071469946271783	0.37747746866002885	115.28912724345534
16	6.0	perception	28	diff_vonmises	-0.06567015446209686	-3.762622690650361	1.2854565032207794	2.4206283040388605	0.03985079953283509	3.5511186016212797	0.36777556443203197	-0.4698030841138476	0.8375786485458796	115.20984115800306
17	6.0	wm	28	diff_vonmises	0.0568191135413888	3.2554954015962028	0.57065327545535	239.30551399851984	0.5601350815233755	240.7869361875619	0.09239408640284097	-0.39285063921054686	0.48524472561338783	111.20627309590166
18	7.0	ltm	28	diff_vonmises	-0.03211049291147794	-1.8397957219124328	2.340801229570125	1.8339594732090685	0.5092389501002146	4.0715430227438665	0.028027521695444868	-0.5140437421536967	0.5420712638491416	70.21611171795396
19	7.0	perception	28	diff_vonmises	0.08934409028598697	5.119039297822829	0.9040787909649005	265.1486742462123	0.883790858404828	266.80546053712635	0.49525265495974224	-0.5532774563566569	1.0485301113163992	92.33274951889373
20	7.0	wm	28	diff_vonmises	-0.038001192377920316	-2.177307939719547	2.2772312592263932	0.8281832862060212	1.2783241881110027e-30	3.321645370016547	-0.06678454063662814	-0.5237972124611534	0.45701267182452526	91.11361553764519
0	1.0	ltm	29	diff_vonmises	0.05630132954091858	3.225828563669859	1.9619452379000248	0.9230395979308545	3.42394339714828e-19	4.229279181569064	-0.20243702347887532	-0.6638079844989294	0.4613709610200541	97.90070862964978
1	1.0	perception	29	diff_vonmises	-0.012065085614424462	-0.6912784851705254	11.373317779996688	0.7198717708498151	9.30766316839334e-18	3.8011283015867994	0.3522953541238013	-0.604968358397439	0.9572637125212403	40.222023326040585
2	1.0	wm	29	diff_vonmises	0.0907292902112592	5.198405407322765	3.3903631226962925	0.6051802805391827	2.7867947306055134e-13	4.101555004754237	-0.22809408263620784	-0.6523005210211164	0.4242064383849085	74.52336249532715
3	2.0	ltm	29	diff_vonmises	0.08023717135943327	4.597251278963492	2.543022669597807	0.7679421325490521	7.994183632442167e-21	2.822942767201783	0.00783508069490041	-0.44645882972927203	0.45429391042417244	86.2532352000087
4	2.0	perception	29	diff_vonmises	-0.06396588999754407	-3.6649755296573634	6.905805278284968	1.2082347314597417	0.10132602580675784	3.240590991588328	0.6725652117410673	-0.5206772672338248	1.193242478974892	50.642800725975775
5	2.0	wm	29	diff_vonmises	-0.03763423486751931	-2.1562828231129414	3.0990221330475665	0.8362328854496061	0.0929649101519921	3.17704884834918	0.004188883024601964	-0.48178593993617297	0.48597482296077493	72.76080521687499
6	3.0	ltm	29	diff_vonmises	0.12108832992346931	6.937850252902466	1.956748518869823	0.9506483147312159	0.012094726441036846	2.548595082628437	0.07343865811586187	-0.3910651393500675	0.46450379746592935	96.9959648655502
7	3.0	perception	29	diff_vonmises	0.017403908898938166	0.9971705269393325	4.180203096736917	2.3206035868438244	0.15168553208099184	3.8354282786617797	1.1211910502675577	-0.57967201382115	1.7008630640887077	64.40191061953806
8	3.0	wm	29	diff_vonmises	-0.09482007476727522	-5.432790097279781	2.5694721951479758	1.0314092543099185	0.11234234006400257	3.1148571348016914	0.06473487075263684	-0.45594726670450264	0.5206821374571395	79.04128385747265
9	4.0	ltm	29	diff_vonmises	-0.016093583406651533	-0.9220944064429065	1.4420935990346655	1.2034089730563358	5.557338243070805e-21	3.7255087197747367	-0.08393691313467888	-0.5644800586997899	0.480543145565111	112.29413524529188
10	4.0	perception	29	diff_vonmises	0.013131514280797327	0.7523803469054554	0.9485430754029319	243.48302257587883	0.9186565351014633	246.0912589293226	0.5323449377189036	-0.7717844803171232	1.3041294180360268	88.88923441216892
11	4.0	wm	29	diff_vonmises	0.2622537309951238	15.026031947579815	0.5927303078466342	276.98492174780716	0.5812190258087231	280.17980243514955	-0.23438435325719809	-0.6224260657373186	0.38804171248012054	97.91018199697533
12	5.0	ltm	29	diff_vonmises	0.19473234965505465	11.157341769900464	1.9259196975218438	1.2423131689051645	0.07592599225592205	2.78836135121733	0.148310241426298	-0.3977423139444701	0.5460525553707681	93.38278970399836
13	5.0	perception	29	diff_vonmises	0.053599679811129876	3.071035436430307	1.8131573202346725	2.6041759812004877	8.823535594103146e-20	4.068163865155193	0.6183952240910192	-0.6137784910324419	1.232173715123461	101.56698923781204
14	5.0	wm	29	diff_vonmises	-0.025838404227862495	-1.4804315116095037	0.5503248401245456	153.40588424431644	0.5309741838837914	155.3840142510341	0.05847246307119747	-0.4960138340869005	0.5544862971580979	112.26761363358686
15	6.0	ltm	29	diff_vonmises	0.11227050672299581	6.432626199022795	0.0007945282590345343	1380.1909022706943	1.414167615603518e-19	1381.4660414527364	-0.028385607246093514	-0.37743447429315324	0.34904886704705973	179.47507005377983
16	6.0	perception	29	diff_vonmises	-0.038826060183827255	-2.224569383654231	1.5633721141195223	1.685151598874536	1.8998738797823256e-18	3.152831745936305	0.24668792562022168	-0.4689595086204126	0.7156474342406343	108.52041406597267
17	6.0	wm	29	diff_vonmises	-0.0022704331075330732	-0.1300862347284173	0.34421146208500764	212.96664190347792	0.3352854810628787	214.8698922178379	-0.06812522423608414	-0.45502500585705974	0.3868997816209756	134.3618979796149
18	7.0	ltm	29	diff_vonmises	-0.009484608605325831	-0.543428043418632	2.2324818197116088	2.02873559864769	0.5872055348459997	4.220181815707416	0.007569343820959862	-0.5068708347719599	0.5144401785929198	69.58435551622233
19	7.0	perception	29	diff_vonmises	0.15099829135348386	8.651564808241377	1.7796154982035888	1.9174489472404386	8.6592419932268e-14	3.482460524293138	0.36724486790932465	-0.5280226660050354	0.8952675339143601	102.39434976767947
20	7.0	wm	29	diff_vonmises	-0.7147445148139536	-40.95184412896529	0.04005980173008119	80.8935994298667	0.02467129530581732	83.59604716108142	-0.23951082619305453	-0.6144256690081153	0.3749148428150608	162.96519436610993
0	1.0	ltm	30	diff_vonmises	0.05111522422234481	2.928686616805233	0.8402962933013399	253.00003126342335	0.824057236118215	256.569107072553	-0.3158366666247048	-0.6955566935781263	0.37972002695342155	79.69683786811498
1	1.0	perception	30	diff_vonmises	0.050788007321997466	2.9099384694299775	7.185610170135294	0.9748246753355942	0.01764295241993881	3.901041866966328	0.39114539190618547	-0.6203284827149406	1.011473874621126	50.40673823644738
2	1.0	wm	30	diff_vonmises	0.06566166058121871	3.762136027124356	5.757428195877699	0.36801708219131934	9.79512065984465e-19	3.669419969779709	-0.24012817601935282	-0.5840028939820916	0.3438747179627388	56.814256333243605
3	2.0	ltm	30	diff_vonmises	0.10366518890575013	5.939577806725888	3.9220575433210394	0.6575265010167443	0.09725120263075407	2.740755630834519	0.020511709855501825	-0.42531081966068174	0.44582252951618356	65.13463303661314
4	2.0	perception	30	diff_vonmises	-0.032693294040218104	-1.8731877668847048	7.643842765946924	1.2996965761471644	0.0576202886630891	3.2113703235741458	0.8675106861345313	-0.5135799011541792	1.3810905872887105	48.622659322888694
5	2.0	wm	30	diff_vonmises	0.02028922623342431	1.162487032761325	3.831216953094834	0.6731099331469077	0.10733720423704168	2.766829708963654	0.016604798915793584	-0.42821037637329984	0.4448151752890934	65.53100840238079
6	3.0	ltm	30	diff_vonmises	0.233482660668703	13.377571045801824	5.680972253799247	0.39552509582444967	1.3402457165126075e-12	1.4359013690280475	0.1384267961618662	-0.22852653199664463	0.36695332815851084	57.204964133549055
7	3.0	perception	30	diff_vonmises	0.06859645190275411	3.930287183599956	5.401335046091676	1.8379784470685299	2.9415812756043697e-19	2.6654760521141676	1.2362936996914007	-0.42418990571209897	1.6604836054034997	58.69585039151602
8	3.0	wm	30	diff_vonmises	-0.14832386078908813	-8.49833122430071	5.666512368964366	0.4626579989463951	2.7418399926704026e-17	1.679906477269548	0.1612602732004616	-0.26736028651781246	0.42862055971827406	57.28376433485627
9	4.0	ltm	30	diff_vonmises	0.3088026446333787	17.69308823997078	0.0011896262762973921	891.0014161380436	7.280802168339672e-23	892.9629259825145	-0.14343859283243887	-0.480829044700414	0.3373904518679751	176.9133551398258
10	4.0	perception	30	diff_vonmises	-0.01918579421385944	-1.099265035060661	3.0718925968651036	2.2113827256272818	0.09958192697018893	4.940091371687663	0.6015840745935604	-0.7342569346818058	1.335841009275366	74.6493272138475
11	4.0	wm	30	diff_vonmises	0.27963563765359073	16.021941839000316	0.7260394729655301	183.55038210809866	0.7123308968330072	185.99277841670948	-0.2207894902973635	-0.4641610111262864	0.24337152082892288	85.43927069103574
12	5.0	ltm	30	diff_vonmises	0.3188503252324949	18.26877793219562	0.7328157888385778	77.87026033959232	0.7001363965497482	79.27842365257251	0.08459530728489995	-0.3494257807090735	0.43402108799397343	97.99103283546418
13	5.0	perception	30	diff_vonmises	0.0406923990564431	2.331502724196323	2.284624401891685	2.5857117887037573	4.369628200225774e-17	3.7427057579276948	0.8491090309315817	-0.5806927663884907	1.4298017973200725	90.96802304722686
14	5.0	wm	30	diff_vonmises	0.10114569828276372	5.795221627505979	0.6807003236319512	13.191683582365249	0.47587701220186435	14.755333333991665	0.1309833091457162	-0.4306331267966155	0.5616164359423317	111.0630492410749
15	6.0	ltm	30	diff_vonmises	0.4257727476030473	24.39498146934345	0.7274175150653117	111.95591406219935	0.7112221584595689	112.98240443980431	0.05154830700229951	-0.2501971445063855	0.30174545150868504	97.36590140988773
16	6.0	perception	30	diff_vonmises	-0.13376338237898677	-7.664077263710547	1.2588587423993205	2.057415161899534	1.590551981034267e-15	2.9103717649579273	0.33909344174769646	-0.3984975241069423	0.7375909658546387	118.45419784104286
17	6.0	wm	30	diff_vonmises	-0.0879838304301109	-5.041102149040057	0.35863708260974086	178.26374077093777	0.34896169626195134	179.55784764886545	0.029756385049275025	-0.3603227902331021	0.3900791752823771	135.15711534731543
18	7.0	ltm	30	diff_vonmises	0.08584725054752029	4.918685139175058	1.2152338194424528	13.534303550925845	1.0084935601215914	15.076811022123701	-0.006722914305098193	-0.35683154517461935	0.35010863086952115	75.23135167551655
19	7.0	perception	30	diff_vonmises	0.04015344428420757	2.3006228903987926	0.8720370576821639	270.42289500501903	0.8552246310524579	271.5379489125109	0.516826406784574	-0.4493631358405068	0.9661895426250808	95.57734252861209
20	7.0	wm	30	diff_vonmises	-0.3151882609010746	-18.058957101699836	0.7349937150265119	1.2296744271048505	1.397029259236017e-29	3.071506834994626	-0.13072447778918	-0.4065032476583843	0.2757787698692043	139.28889000836023
0	1.0	ltm	31	diff_vonmises	-0.06611480367925636	-3.788099214157396	0.8999250666325013	167.1805897281536	0.8810035468226748	169.1785622403106	-0.03482394421624235	-0.43488522604106805	0.4000612818248257	83.57077971927492
1	1.0	perception	31	diff_vonmises	0.028038059723196028	1.6064624878748737	12.624673183577174	0.6232715451204142	1.1228395536701177e-22	2.62073938074635	0.45703758957828244	-0.4171036269919079	0.8741412165701903	38.161722512579956
2	1.0	wm	31	diff_vonmises	0.08119388243635668	4.65206678588462	4.986079338469745	0.3608751686130804	8.761474198538018e-15	2.530195010222689	-0.09025852620888997	-0.40267845521208107	0.3124199290031911	61.149439832753984
3	2.0	ltm	31	diff_vonmises	-0.01972787287326583	-1.130323854408757	3.2707129121647673	0.5810842243166108	2.1996028424114746e-10	1.7327365154600545	0.12388153267339552	-0.2751970970173799	0.3990786296907754	75.90787908530115
4	2.0	perception	31	diff_vonmises	-0.03743309580885845	-2.14475840395644	7.487366231962825	1.0801241854879409	0.1103904808266776	2.2485108737299337	0.7596042628388324	-0.36269283958720416	1.1222971024260366	48.82662221090092
5	2.0	wm	31	diff_vonmises	0.020915981445683823	1.1983974612116213	4.999149570908474	0.41495562681180576	0.06983278503648087	1.8167900618272264	0.0500924848473131	-0.28682305099518296	0.33691553584249606	58.91432454370948
6	3.0	ltm	31	diff_vonmises	0.09942646875766317	5.696717031703437	1.0709222138117804	114.56465174388664	1.0518304732687307	115.26790136274343	0.16410755329398796	-0.21457681996890443	0.3786843732628924	83.57801055604688
7	3.0	perception	31	diff_vonmises	0.03496378602027548	2.003277374760294	4.763766148281096	1.8971276132496169	0.2548431827359722	2.5267131489307046	1.0925364689340538	-0.3838627788228278	1.4763992477568815	59.94476860871049
8	3.0	wm	31	diff_vonmises	0.004114403511773073	0.2357379564384016	2.573212664290518	0.8992789782948439	0.36712624785931375	1.939934938887263	0.10797521140029909	-0.2575097417819698	0.36548495318226887	72.74030022962646
9	4.0	ltm	31	diff_vonmises	-0.09358626317402853	-5.362097900272435	0.9107517920997797	212.25207929377314	0.899930930362704	213.5993720926405	0.0025217409220488207	-0.302161367260819	0.3046831081828678	83.99726668303364
10	4.0	perception	31	diff_vonmises	-0.049761042740557114	-2.851097733204026	2.0930034481437705	3.3248496476880174	0.3920798268661786	4.810106382895344	0.6721688623279976	-0.5393779453921365	1.2115468077201341	81.80112442332717
11	4.0	wm	31	diff_vonmises	0.015601699818878875	0.8939115528517804	0.8723494881227758	182.58701302431507	0.8580016128845596	184.44889135349567	-0.08630501889469144	-0.38710580161190933	0.3008007827172179	82.66792826734064
12	5.0	ltm	31	diff_vonmises	0.17301769480416707	9.913183693361326	1.421636054296612	2.030729236275484	0.3505664491438901	3.115951096405879	0.16855734242850873	-0.3027509184149312	0.4713082608434399	93.43733349812183
13	5.0	perception	31	diff_vonmises	0.032267109522908934	1.8487691927490693	2.5672069464836245	1.939113686729651	3.531400543508622e-21	2.9437147680560973	0.6922345601012149	-0.4616692839404211	1.153903844041636	85.84381130033177
14	5.0	wm	31	diff_vonmises	-0.07512809641121763	-4.304522847214717	0.49124382947371814	195.9045576721342	0.4807015598663067	197.176750414539	0.07582122813655445	-0.35405537866570214	0.4298766068022566	120.08716036825098
15	6.0	ltm	31	diff_vonmises	0.06476393246767936	3.7106999950683104	0.36973715808857516	79.07774888929059	0.3543527834351351	80.13556244287666	-0.011348376221949508	-0.2682422475323971	0.2568938713104476	132.6656720751169
16	6.0	perception	31	diff_vonmises	-0.15648290955618646	-8.965810283496863	1.6967236005986022	1.6195508842706487	6.374214095664229e-18	2.7777864468847926	0.3139808282186932	-0.4166997022390887	0.7306805304577819	104.6273167635369
17	6.0	wm	31	diff_vonmises	-0.17942866876643923	-10.280505443967783	0.5167083751675859	155.21060670910126	0.5019819323638255	156.5592489498942	0.09454541810941919	-0.37779183294195384	0.47233725105137303	117.74307758681626
18	7.0	ltm	31	diff_vonmises	0.030606409431644287	1.7536180864826143	1.1132902737301704	143.34337551758924	1.0919542709837726	144.6229752563005	0.11299661977853503	-0.33070266164181916	0.4436992814203542	78.95405221823046
19	7.0	perception	31	diff_vonmises	0.020515212735427005	1.1754351055530041	2.743130272560809	1.4940718998406222	7.490155938505868e-22	2.7375480329427515	0.49380992651181277	-0.4318429791538995	0.9256529056657123	83.02594748937128
20	7.0	wm	31	diff_vonmises	0.1909650417988676	10.941490929614469	4.41451223280008	0.4810642996865217	7.683747313933684e-15	2.024742617942117	0.06795164795051778	-0.32219066247515404	0.3901423104256718	65.08252964711605
0	1.0	ltm	32	diff_vonmises	-0.04988680437502375	-2.858303344083631	1.913868153331385	1.4439646774890875	0.35466744895460367	3.452933479118453	-0.034105495764863325	-0.42607734431008293	0.3919718485452196	78.51554323592245
1	1.0	perception	32	diff_vonmises	0.05022383854374341	2.8776139795029683	17.52841404818818	0.5209279334031515	2.5024278604717675e-16	2.7439881014649186	0.42695594229514944	-0.4367192701334865	0.863675212428636	32.33758468553924
2	1.0	wm	32	diff_vonmises	0.09809978729268398	5.620703783001897	4.320098158405597	0.3994987895888825	0.052293649085563075	2.7605049135706463	-0.14236963852868872	-0.4349094135757948	0.2925397750471061	62.699966494865265
3	2.0	ltm	32	diff_vonmises	-0.06451381470865232	-3.696369303094791	2.5136599194764564	0.8689641987154192	0.2206108653806898	1.818396886313165	0.157265626460164	-0.24844222416977155	0.40570785062993553	77.89663566592287
4	2.0	perception	32	diff_vonmises	-0.0355352970101252	-2.036022542424027	7.301400120491716	1.0531936427076003	0.1879278347877209	2.131150231136287	0.7087842774218186	-0.34939394367365517	1.0581782210954738	48.9318603755423
5	2.0	wm	32	diff_vonmises	0.08457336144595731	4.845696670087787	6.358648995548112	0.3294857630745591	0.06034675938183064	1.7149245231541712	0.03472897956090204	-0.27408460778444715	0.3088135873453492	52.551041584314305
6	3.0	ltm	32	diff_vonmises	0.07928209068122356	4.542529187007584	1.0656610369073	169.4701592977351	1.0520721098071453	170.15455675012092	0.19255443913822035	-0.22018334317901989	0.41273778231724023	84.34600929353829
7	3.0	perception	32	diff_vonmises	0.024624367258544482	1.4108723170947282	4.654449310779093	1.8753659920891104	0.31906250271278447	2.630933986063764	1.003195316565254	-0.3983433355368019	1.4015386521020559	59.89789971549075
8	3.0	wm	32	diff_vonmises	0.1483902459132049	8.502134811735054	2.9883335871006307	0.7564080686696016	0.33929941442473915	1.9609572748784292	0.06843814973915191	-0.2802602794722979	0.34869842921144983	68.18007336203982
9	4.0	ltm	32	diff_vonmises	-0.02725662016336759	-1.5616892991521432	1.1008874080961575	236.9558444538854	1.089020757119531	238.41284738239415	0.004434429447314869	-0.33911656984108873	0.3435509992884036	76.12474202453143
10	4.0	perception	32	diff_vonmises	-0.06644145727186085	-3.806815086376419	2.1691355160133132	2.9548421374847273	0.35420158576838023	4.27682392638686	0.6604241371167088	-0.49789183640955226	1.158315973526261	81.69383209617632
11	4.0	wm	32	diff_vonmises	-0.015745800074246	-0.9021678893110741	0.8979584611801193	161.58695098586492	0.8794101443695871	163.59128152739905	-0.06785144325405668	-0.42594509772841604	0.35809365447435937	82.51737299343043
12	5.0	ltm	32	diff_vonmises	0.010695336131455973	0.6127976208062043	1.5212368196085848	1.646859623234448	0.19401775258860743	2.8870987522931406	0.16675510579752273	-0.34334274348963045	0.5100978492871532	97.35208945631791
13	5.0	perception	32	diff_vonmises	0.010486435140667648	0.600828475697932	2.580235126642718	1.8155596800784837	9.723151075511828e-14	2.981067934930874	0.6154943432200823	-0.4681957134884473	1.0836900567085297	85.63130378994342
14	5.0	wm	32	diff_vonmises	-0.16060566696162235	-9.202026882784644	0.5340107842736249	213.4715359472264	0.5238160319743441	214.93858620325648	0.03996180342288369	-0.3685725842420844	0.4085343876649681	113.46478202802462
15	6.0	ltm	32	diff_vonmises	0.10034844549379439	5.749542407493003	0.4269500937544755	137.82280597320488	0.4153332309850919	139.1864313257678	-0.019999818555561433	-0.3303181076944828	0.31031828913892134	124.36993611830417
16	6.0	perception	32	diff_vonmises	-0.11770176135942877	-6.743814167151263	1.652977557111276	1.7535055146391318	1.1996044711203145e-14	3.3116464528990925	0.2786217445086939	-0.49752408898986505	0.7761458334985589	105.87657477394905
17	6.0	wm	32	diff_vonmises	-0.09909276044441867	-5.6775969537660975	0.6282965964799971	131.56540413292237	0.6053394305241334	133.1558545324722	0.14857802904326434	-0.43532988995648125	0.5839079189997456	107.36962081793254
18	7.0	ltm	32	diff_vonmises	-0.018191551775152092	-1.0422991395099357	1.0053371426734532	243.17324858749456	0.9905379952724469	244.85258022165797	0.1100727429144257	-0.4156268259553002	0.5256995688697259	82.48594165139107
19	7.0	perception	32	diff_vonmises	0.022629784376740646	1.296591136078327	3.3816145909890842	1.3635684875426468	5.9972706261672156e-18	3.0940234593728224	0.46305791255212325	-0.4913249700669761	0.9543828826190994	74.62423931524279
20	7.0	wm	32	diff_vonmises	0.29626425382608995	16.974691364827507	5.366217176455856	0.7096303273649431	0.1411180952713363	2.5368201867715996	0.17627052946737082	-0.4047644999337309	0.5810350294011017	56.014861088401005
0	1.0	ltm	33	diff_vonmises	-0.06297844110296527	-3.608398875513139	1.0755259025328214	170.39056306899465	1.0598514740004186	171.84614209601787	-0.01195060038313045	-0.332007183074829	0.32005658269169857	76.56299402093916
1	1.0	perception	33	diff_vonmises	0.05066608402600702	2.9029527791454006	9.024097118061208	0.7270544413547	1.7336750002850347e-18	2.045939763591037	0.5329508009494069	-0.32562141418266194	0.8585722151320689	45.21087121314247
2	1.0	wm	33	diff_vonmises	0.030614606562967474	1.7540877475115475	6.988908738739905	0.2607926931963186	9.20254963997943e-21	1.7381666732774261	-0.006896119121809652	-0.27663758861111243	0.2697414694893028	51.47203280451646
3	2.0	ltm	33	diff_vonmises	0.04497487473171892	2.5768705062570647	4.764500552537682	0.4217358081454723	0.05415313384868813	1.3179220932573552	0.13508752953949	-0.206637371116702	0.341724900656192	61.131819388320594
4	2.0	perception	33	diff_vonmises	-0.01443480543304158	-0.8270534294057932	8.355344510866493	1.0603814054064424	0.01750301721161355	1.874135857318755	0.8998254050959192	-0.29812516211646134	1.1979505672123807	46.88141855728901
5	2.0	wm	33	diff_vonmises	0.0418431513374634	2.3974359731638386	5.845643234340215	0.3486041970175509	0.0989461483698135	1.3669858049948451	0.0887263672238277	-0.21838481545806424	0.30711118268189197	54.37016025161023
6	3.0	ltm	33	diff_vonmises	0.21578702910260342	12.363686041245844	3.4287532484135266	0.6468463555812881	0.6074028773526688	1.002257381775911	0.18921161786899243	-0.1351782459042612	0.32438986377325363	64.08912274971505
7	3.0	perception	33	diff_vonmises	0.04774826281036183	2.7357739381152	5.673473801624667	1.5844710996499853	0.16006477870615146	1.8061711697377503	1.1338885910676075	-0.2813643921981141	1.4152529832657217	56.060140052707936
8	3.0	wm	33	diff_vonmises	-0.06767639977956103	-3.8775720800089415	4.250472720622111	0.4824581411733581	0.33122248813904703	1.045016429964346	0.1579922598066712	-0.1601626197816356	0.3181548795883068	60.65066385083438
9	4.0	ltm	33	diff_vonmises	-0.038467456040518634	-2.2040228797267423	0.935330947730888	103.71511089257943	0.9210527647714979	104.58412398041293	-0.002320402360744822	-0.1942227538678285	0.19190235150708368	82.65668008494134
10	4.0	perception	33	diff_vonmises	-0.061880751266588756	-3.545505880674359	3.0967479517740713	2.0019278719246896	0.13876883346552069	3.359437562261241	0.7236114317856415	-0.48659864335927355	1.210210075144915	74.23872901404638
11	4.0	wm	33	diff_vonmises	-0.023086186854812334	-1.322741071831147	1.0959806618584513	127.80915954553832	1.078977821499187	129.13955600513904	-0.06696161214226493	-0.29049615562860254	0.2235345434863376	73.28638742617406
12	5.0	ltm	33	diff_vonmises	0.2727539641721573	15.62765099252708	0.8747059835384065	77.73256988704358	0.847754437357807	78.43995547432044	0.17836804132938155	-0.22488873603037352	0.40325677735975507	93.49515901439389
13	5.0	perception	33	diff_vonmises	0.025724785157960388	1.473921618431911	3.2339778521092755	1.750055507557016	1.2747368291902103e-18	2.2722545761606097	0.8342579238375727	-0.3597836288821601	1.1940415527197328	76.355025689077
14	5.0	wm	33	diff_vonmises	0.02455203326228066	1.406727884393496	0.5132516811250559	128.5547732315875	0.4998325271975033	129.31052724452726	0.136287810558553	-0.26205878629025037	0.39834659684880336	120.95137323625144
15	6.0	ltm	33	diff_vonmises	0.17360300161623543	9.946719303413099	0.7220979027936675	76.14182799719929	0.7059089611509669	76.7367643914283	0.06511545562298338	-0.1606782656924679	0.22579372131545128	99.91131213559703
16	6.0	perception	33	diff_vonmises	-0.21048126227166447	-12.05968799475254	1.6968020112857054	1.5183117614083208	4.532257769869727e-14	2.0721457980576274	0.37904355114317556	-0.30598424507008615	0.6850277962132617	104.57739665534588
17	6.0	wm	33	diff_vonmises	-0.21135230311777828	-12.109594959018366	0.5738399626429982	100.96882636715179	0.5550129861082084	101.75750735210895	0.15568030258137355	-0.2691464909914547	0.42482679357282827	115.20293724149025
18	7.0	ltm	33	diff_vonmises	0.19355915036655555	11.090122402141715	0.9249078466892264	96.7462692496703	0.9048649685353068	97.51393780304812	0.1205744922888563	-0.21412960173779716	0.33470409402665346	88.90276180133458
19	7.0	perception	33	diff_vonmises	-0.036505153368452566	-2.091591218490113	2.3298980961764855	1.9602094712488818	0.19169684402835688	2.8058418129372824	0.572181139818583	-0.3684118566122162	0.9405929964307992	83.61320647557034
20	7.0	wm	33	diff_vonmises	0.25754846395417097	14.75644000465121	3.9869641464860677	0.40509008176552314	3.227195195859506e-22	1.3566895710416835	0.09496678759647298	-0.21581679673820273	0.3107835843346757	68.57358483127427
0	1.0	ltm	34	diff_vonmises	-0.04988679158700461	-2.8583026113841066	1.9138695733361633	1.443962768237443	0.35466707741166303	3.452931570033991	-0.034105475690119125	-0.42607732842061685	0.3919718527304977	78.51553325029872
1	1.0	perception	34	diff_vonmises	0.050223838460972156	2.8776139747605245	17.52841394519525	0.5209279344906037	2.502269617898393e-16	2.7439881028484927	0.4269559412995784	-0.4367192703536891	0.8636752116532675	32.337584782023725
2	1.0	wm	34	diff_vonmises	0.09809978729268398	5.620703783001897	4.320098158405597	0.3994987895888825	0.052293649085563075	2.7605049135706463	-0.14236963852868872	-0.4349094135757948	0.2925397750471061	62.699966494865265
3	2.0	ltm	34	diff_vonmises	-0.06451381803445812	-3.6963694936494265	2.513659727746228	0.8689642944645767	0.22061091845185452	1.8183969822291002	0.15726562444084363	-0.24844222660996795	0.4057078510508116	77.89663677613078
4	2.0	perception	34	diff_vonmises	-0.0355352970101252	-2.036022542424027	7.301400120491716	1.0531936427076003	0.1879278347877209	2.131150231136287	0.7087842774218186	-0.34939394367365517	1.0581782210954738	48.9318603755423
5	2.0	wm	34	diff_vonmises	0.08457336205929918	4.845696705229687	6.358649024011772	0.32948576148290276	0.06034675823789826	1.714924520907956	0.034728979458838904	-0.27408460741802754	0.30881358687686644	52.551041490135475
6	3.0	ltm	34	diff_vonmises	0.07928209068122356	4.542529187007584	1.0656610369073	169.4701592977351	1.0520721098071453	170.15455675012092	0.19255443913822035	-0.22018334317901989	0.41273778231724023	84.34600929353829
7	3.0	perception	34	diff_vonmises	0.02462436679877217	1.410872290751715	4.654449364386852	1.8753659716423259	0.31906249251954877	2.6309339652790387	1.0031953184583078	-0.3983433336926093	1.4015386521509172	59.89789948748262
8	3.0	wm	34	diff_vonmises	0.14839024690419894	8.50213486851483	2.9883331309825167	0.7564082225736538	0.33929949575080326	1.9609574281950028	0.06843814516262031	-0.28026028444877094	0.34869842961139125	68.18007592737158
9	4.0	ltm	34	diff_vonmises	-0.027256711771246393	-1.5616945478969688	1.100569945182745	250.32395720933283	1.0893351849437884	251.78096018901422	0.004434396797535101	-0.33911662453618163	0.34355102133371673	76.12477110370418
10	4.0	perception	34	diff_vonmises	-0.06644145823935377	-3.8068151418096803	2.1691355908511882	2.954841981495075	0.3542015593845108	4.2768237709984405	0.6604241403687449	-0.49789183461772024	1.158315974986465	81.69383154768431
11	4.0	wm	34	diff_vonmises	-0.015746132602366396	-0.9021869417689422	0.8979461939793326	161.80288766319416	0.8794224770244864	163.80721819135192	-0.06785139109997118	-0.42594512457270994	0.35809373347273876	82.51737062741736
12	5.0	ltm	34	diff_vonmises	0.010695338767192177	0.6127977718227646	1.5212380162909016	1.6468572680733329	0.19401725322009267	2.887096396461522	0.1667551204683183	-0.34334274175607427	0.5100978622243926	97.35208286633755
13	5.0	perception	34	diff_vonmises	0.010486435089113825	0.6008284727441154	2.580235118130353	1.8155596841651986	1.5397380181634057e-13	2.98106793955558	0.6154943428346937	-0.4681957141159369	1.0836900569506307	85.63130393215178
14	5.0	wm	34	diff_vonmises	-0.1606056510889136	-9.202025973345423	0.5339778802319203	214.86598310611402	0.5238490679043648	216.33303335891156	0.03996170001847332	-0.3685724743356573	0.40853417435413064	113.46475610125681
15	6.0	ltm	34	diff_vonmises	0.10034902197553187	5.749575437463527	0.4271859843954543	132.47476807349716	0.41510251457832864	133.83839338894268	-0.01999964814298849	-0.33031797560622245	0.31031832746323396	124.3697626948198
16	6.0	perception	34	diff_vonmises	-0.11770176058141733	-6.743814122574491	1.6529775426745508	1.7535055234355021	1.2419122630781819e-14	3.311646460830265	0.27862174300014786	-0.49752408940790294	0.7761458324080508	105.87657518425759
17	6.0	wm	34	diff_vonmises	-0.09909269232544134	-5.677593050836192	0.6280935757710218	133.92631051486396	0.6055387572129365	135.51676093268304	0.14857781172295148	-0.4353298738356006	0.5839076855585521	107.36966948574505
18	7.0	ltm	34	diff_vonmises	-0.018191548828799843	-1.0422989706963868	1.0052961005323913	244.5461299702432	0.9905797465027084	246.22546152215466	0.1100728725129585	-0.41562689258147145	0.52569976509443	82.48592419338107
19	7.0	perception	34	diff_vonmises	0.02262978441460526	1.2965911382478097	3.3816145900333474	1.3635684880345655	6.001073279585383e-18	3.0940234598014826	0.46305791267700197	-0.49132497013286436	0.9543828828098664	74.62423932609909
20	7.0	wm	34	diff_vonmises	0.29626425599733286	16.974691489230562	5.366216951113366	0.7096303492138212	0.14111810665922558	2.5368202088831695	0.1762705259925202	-0.404764502409655	0.5810350284021752	56.01486201368641
0	1.0	ltm	35	diff_vonmises	0.028536543206564548	1.6350234876288696	2.0353144003344394	0.8389006211478456	3.6876329192185715e-16	3.015096708485522	-0.042509646131869416	-0.4724026928127971	0.4298930466809277	96.21475384789457
1	1.0	perception	35	diff_vonmises	-0.022243095599311466	-1.2744355011465616	12.158021772258152	0.6666876278522713	3.2300384544615135e-17	2.8458843646398515	0.4644163146483705	-0.45293656407511607	0.9173528787234866	38.88828767936414
2	1.0	wm	35	diff_vonmises	0.0921145387236108	5.277774300657288	2.967366238188025	0.5956407542102556	2.8192082941580166e-21	2.9760833105138498	-0.08597940558971612	-0.47263252677794154	0.3866531211882254	79.7773926714099
3	2.0	ltm	35	diff_vonmises	0.07595064373603869	4.351651337376739	2.795191190951525	0.6351756075512044	9.360489022084367e-20	2.085638346568232	0.0675209332609521	-0.3304480693022274	0.3979690025631795	82.23935141664458
4	2.0	perception	35	diff_vonmises	-0.05781016944109799	-3.3122787219110803	7.525045696715399	1.0661587700764819	0.04267305130089211	2.454350148488086	0.7384642492948016	-0.39106488739838285	1.1295291366931846	49.15671964838987
5	2.0	wm	35	diff_vonmises	-0.04493049808931767	-2.5743279119385116	3.685239556921774	0.6248691824925653	0.059230731287880055	2.2717565612872974	0.07596821017254207	-0.3514788871347627	0.4274470973073048	68.68817532917171
6	3.0	ltm	35	diff_vonmises	0.1238492570751819	7.096039726238674	1.6915145628041695	1.220713518261256	0.21173549113569756	2.2585637309226354	0.12952429001777632	-0.2750961379769968	0.4046204279947731	92.11786501154327
7	3.0	perception	35	diff_vonmises	0.010564240197681884	0.6052863770896224	4.583286974915701	2.0400392350488663	0.159101792339386	3.047422124284063	1.1232326841904552	-0.464707466340559	1.5879401505310142	61.76231073924828
8	3.0	wm	35	diff_vonmises	-0.08450726069882322	-4.841909376254343	2.258265392592612	1.3404480216913741	0.3333445974319821	2.7598145853237726	0.14751181016931392	-0.3512489527155865	0.4987607628849004	77.54693151115063
9	4.0	ltm	35	diff_vonmises	-0.07550980719156253	-4.326393263923125	1.1147001094769624	4.418385268948057	0.5651805175778181	6.106202403891887	0.02375053775215563	-0.381784451789807	0.40553498954196265	89.06952772106374
10	4.0	perception	35	diff_vonmises	-0.01715635951884473	-0.9829869922388988	1.6358171713427294	5.1189229635116	0.4802539929583505	7.044344528582771	0.6249950176340235	-0.6385913437231836	1.2635863613572071	86.76653861974546
11	4.0	wm	35	diff_vonmises	0.1173492440192066	6.7236164113513555	0.7877263680606164	249.6147031011083	0.7755115769811964	252.03166559523726	-0.14033677497900499	-0.48761771842375623	0.34728094344475124	85.99549569789315
12	5.0	ltm	35	diff_vonmises	0.19947672654009466	11.42917454183268	2.0087560889143727	1.0726473175675129	0.04380056691860273	2.103587705771148	0.20517625385661897	-0.310309233824756	0.515485487681375	94.17133649035577
13	5.0	perception	35	diff_vonmises	0.03985629891554108	2.283597714872344	2.0192905255329907	2.1875723863850096	5.669258741135285e-15	3.1173868774151563	0.6389252564289326	-0.4761437666153933	1.1150690230443259	96.57455822226203
14	5.0	wm	35	diff_vonmises	-0.030398003047632245	-1.7416772802551417	0.5630991494107112	158.41151738245063	0.547820152715761	159.73057723175884	0.1185698193093927	-0.3725223342116024	0.4910921535209951	113.36344901910273
15	6.0	ltm	35	diff_vonmises	0.28142410703916987	16.124413586582357	0.3374589244307699	82.80943761578942	0.3226449888768925	83.63883794030286	0.04368417985293149	-0.2520128741565735	0.29569705400950497	138.24327054860981
16	6.0	perception	35	diff_vonmises	-0.07210969442292195	-4.131581152411478	1.839120756983503	1.439590902155821	8.856932406247106e-19	2.47975945789975	0.3111775846976141	-0.37683099335515763	0.6880085780527717	100.90418710833491
17	6.0	wm	35	diff_vonmises	-0.055716393256576	-3.1923141832929653	0.43113539775797477	178.25474767048868	0.42056373003676717	179.6245072325304	0.02981686410298323	-0.363361609691065	0.39317847379404824	125.85149011965801
18	7.0	ltm	35	diff_vonmises	-0.006714551910421308	-0.38471548578864495	1.9162416620342728	2.4656526848185325	0.7009287677529855	3.9629449141776187	0.1110426139997629	-0.37955012097233315	0.49059273497209605	73.39968330743758
19	7.0	perception	35	diff_vonmises	0.10726283629504184	6.145707818308561	1.955717851382997	1.7355221577754631	1.8286675295653268e-16	2.9737634713870222	0.4099892716555588	-0.45561298585128857	0.8656022575068474	98.03139858460807
20	7.0	wm	35	diff_vonmises	-0.5339555515350279	-30.593399550537224	0.0005330111153544052	2183.4348706062965	5.216447718494774e-23	2185.3122006203666	-0.11354260495551216	-0.48398073997140045	0.3704381350158883	171.99266631495237
0	1.0	ltm	36	diff_vonmises	0.8396229802440978	48.1068531501829	0.00017116147398611806	3792.30686163411	1.1348642613083854e-31	3793.9338902225604	-0.15563843239704056	-0.36225201138540797	0.2066135789883674	160.1062574013933
1	1.0	perception	36	diff_vonmises	0.04602122645418998	2.6368220438409007	9.597625621468891	0.7788379900685574	0.057808271171349714	2.4026284095242314	0.5444091337406962	-0.38808353515040067	0.9324926688910968	43.37481729119878
2	1.0	wm	36	diff_vonmises	-0.04376549915550923	-2.5075783898940474	5.506721314913257	0.26790652502183565	8.889670539730045e-18	2.2612291494350516	-0.11540659550451005	-0.35988176626054413	0.2444751707560341	58.12806966934835
3	2.0	ltm	36	diff_vonmises	0.26348837931382363	15.09677208542424	4.35769174161985	0.41374979414019003	0.12180171998498379	1.5713456336241114	0.05182224659100376	-0.24563034181156435	0.2974525884025681	61.75134007136788
4	2.0	perception	36	diff_vonmises	-0.008163923880724323	-0.4677583826315682	9.074042159053224	1.1199773688525427	0.14357275799518732	2.2460569408694573	0.9154164487481224	-0.3709257672329058	1.2863422159810283	44.327379542485005
5	2.0	wm	36	diff_vonmises	0.12563375814289487	7.198284105955215	6.997301486614931	0.3016374854627018	2.0397919846778327e-13	1.7503287694406744	0.0336168565242731	-0.2785732146704503	0.3121900711947234	51.440218170067595
6	3.0	ltm	36	diff_vonmises	0.30532311262689155	17.49372574131838	4.545563767232254	0.4592467531720532	0.3172497661328302	1.0156543508710012	0.16184600398514196	-0.15816709690296707	0.320013100888109	59.07528208328941
7	3.0	perception	36	diff_vonmises	0.016292329888526663	0.9334817410474248	6.634217274979931	1.555681591593257	0.1227023207558047	2.2400768254768275	1.1644499874828664	-0.35631664569206595	1.5207666331749323	51.977995044624606
8	3.0	wm	36	diff_vonmises	-0.015057949264315779	-0.8627569409674171	8.18505869994787	0.36184480618961407	0.310717762997825	1.4271690129737764	0.1037197203125893	-0.2528721711872651	0.35659189149985443	44.468544946253985
9	4.0	ltm	36	diff_vonmises	0.14737264942141245	8.443830827508027	1.114614385651133	187.5087246062869	1.1013383274303201	188.92917220601413	-0.04688050107800734	-0.3181040932492287	0.2712235921712214	73.73549665278381
10	4.0	perception	36	diff_vonmises	-0.018476327565570837	-1.0586155904084318	4.028395666707454	1.4973227510387472	1.8252011531223473e-17	3.355819935865935	0.6215820629361819	-0.5337290465120362	1.1553111094482182	68.21097899812102
11	4.0	wm	36	diff_vonmises	-0.037176733213578665	-2.1300699092218878	0.9574920905549797	135.397117210691	0.9400129094497522	137.40785897601228	-0.214746116524978	-0.3970091019439046	0.1822629854189266	72.31943003405937
12	5.0	ltm	36	diff_vonmises	0.19433672324978823	11.134674046614766	1.5401449654355333	1.3886799391194422	0.25378072055083123	2.3010004700366173	0.14671780020225766	-0.25749961025492957	0.40421741045718723	94.48367733788592
13	5.0	perception	36	diff_vonmises	0.017320979279952593	0.9924190097748311	3.2829080543095177	1.5628823163791064	1.4402289386108374e-21	2.41456870231249	0.6928797098010039	-0.3827742390424353	1.0756539488434391	75.76265576552257
14	5.0	wm	36	diff_vonmises	0.0501312909406756	2.8723113924431307	1.3847833527178366	1.047441268684032	0.0010835346251995	2.299777601632287	0.06592321543563012	-0.3385212108877156	0.4044444263233457	114.06496780667398
15	6.0	ltm	36	diff_vonmises	0.12228033777126956	7.006147271727893	0.48265188777563744	65.53220519607083	0.46008754515917766	66.31826959541438	0.08696878675029929	-0.2459019700426328	0.3328707567929321	123.31570005799732
16	6.0	perception	36	diff_vonmises	-0.07068681077683209	-4.050055924752343	2.0448141697746722	1.1714902867778505	1.2911353939021722e-17	2.1528774694350004	0.26985446339319374	-0.33238455775001957	0.6022390211432134	95.99224832498884
17	6.0	wm	36	diff_vonmises	0.020649661788858072	1.1831384688741333	0.44362796441203706	176.63145858275112	0.43293477437248135	177.85262831643095	0.06315055349733711	-0.3448835706702482	0.40803412416758533	125.52193477881416
18	7.0	ltm	36	diff_vonmises	0.21845483864875415	12.516540268784992	0.7665191329518934	140.7722941206637	0.7489919723004381	142.14715046517082	0.06697547581369179	-0.3319705492749989	0.3989460250886907	94.66262069199709
19	7.0	perception	36	diff_vonmises	0.03616279597016833	2.0719755844833467	1.8792396437588694	1.6963923968633814	7.35746022172893e-19	3.101762445619906	0.3490733767772796	-0.4740089007399225	0.8230822775172022	99.90095630489975
20	7.0	wm	36	diff_vonmises	0.18398458698703443	10.541540329814639	4.8514269525852916	0.3249591718847386	1.755264374288844e-13	1.9023710035952792	-0.025531830345602857	-0.30275480174181707	0.2772229713962142	62.01703623868022
0	1.0	ltm	37	diff_vonmises	0.09423951815085628	5.399526653390581	1.4825425874647047	5.333190662079028	0.8262004946111419	7.657716307539776	-0.06979924047161656	-0.5205009105588765	0.4507016700872599	73.04237976437207
1	1.0	perception	37	diff_vonmises	0.11441252131142025	6.555354594594967	7.324252773758027	0.8998162461307745	0.20808027419378441	3.39219551119408	0.2959118147199272	-0.5695366239161614	0.8654484386360887	47.78560900543897
2	1.0	wm	37	diff_vonmises	0.18179721712938507	10.4162132687372	4.039667965052194	0.4378947445297791	0.06473617682674059	2.8729051700471664	-0.14884443886183746	-0.4509444403244151	0.30210000146257765	64.1786380394116
3	2.0	ltm	37	diff_vonmises	-0.013764671616696924	-0.7886575900202494	1.9856829689243298	2.798133191640823	1.007609633867303	3.598587997726004	0.20239442000302343	-0.2586135070341655	0.46100792703718896	70.54341399165088
4	2.0	perception	37	diff_vonmises	-0.035672574790042835	-2.043887979834233	7.571500523832616	1.0569061640175599	0.06848476399887306	1.8527054884876244	0.8243486073492663	-0.29591331869359444	1.1202619260428608	48.92405797244709
5	2.0	wm	37	diff_vonmises	0.07475816725283285	4.283327467720443	6.348046501975358	0.3916852284567464	0.13636119285014425	1.5644266558249418	0.10122018512019654	-0.2537616051911166	0.35498179031131316	51.74815567132765
6	3.0	ltm	37	diff_vonmises	0.1678215108826023	9.615464285081927	2.341270692602171	0.943015114923494	0.42044100630643716	1.4329415005562078	0.2022378225895739	-0.16876299217295057	0.37100081476252444	77.38081566005087
7	3.0	perception	37	diff_vonmises	0.038453018649210274	2.2031956781375945	5.957611150815096	1.3549834290360356	1.172113548269917e-19	1.95450158952686	0.9780523539607089	-0.3110599671967724	1.2891123211574813	55.83114202150864
8	3.0	wm	37	diff_vonmises	0.11366679902516401	6.512627854903638	4.419424375505933	0.5781616727802359	0.2321472530690214	1.475133229568913	0.17699386934390737	-0.22901082916192603	0.40600469850583343	60.501095124411734
9	4.0	ltm	37	diff_vonmises	0.2657885631952072	15.22856291393154	0.8043414633339473	144.9313980199332	0.792063030640889	146.20052519441555	-0.04360614831122689	-0.266408490673669	0.22280234236244212	87.22523778050328
10	4.0	perception	37	diff_vonmises	-0.1006879559654727	-5.7689949246206655	3.2408811798862422	1.9300790619698336	5.253595085372085e-18	3.479995973720568	0.7667542866665241	-0.5518364511822316	1.3185907378487558	76.2650421100798
11	4.0	wm	37	diff_vonmises	-0.04568190768861198	-2.617380510663692	1.1232456499462615	227.67443958453774	1.1065564093559284	229.69393376708103	-0.020502336196756232	-0.4651321380424669	0.44462980184571066	74.76806172954201
12	5.0	ltm	37	diff_vonmises	-0.0625195022201767	-3.582103614474905	1.7321572473491993	1.095697579095502	3.5890344450663336e-15	2.0951246860418045	0.18452573790956783	-0.3172382075132541	0.501763945422822	103.71144523860777
13	5.0	perception	37	diff_vonmises	-0.040116677780699196	-2.29851632492031	2.3490242493012823	2.058094380349982	1.9198047069435853e-15	2.6419823981078308	0.7486470817283164	-0.409829530898225	1.1584766126265413	89.73119761436391
14	5.0	wm	37	diff_vonmises	0.010219930700615039	0.5855588960614202	0.6456384480944741	193.40780174715542	0.6334930156540234	194.35793785977512	0.18775573175981464	-0.3068408046489246	0.49459653640873924	108.05642683202547
15	6.0	ltm	37	diff_vonmises	0.43910370567404416	25.158789103677428	0.7518179655602578	148.36726000961738	0.737750489803747	149.11988467335283	0.178810517301919	-0.24380277380311988	0.42261329110503887	100.54972926986281
16	6.0	perception	37	diff_vonmises	-0.056199993106561694	-3.2200224136703053	0.6187621473123889	109.62018673023164	0.5870923774717312	110.20681334731371	0.5028955220962885	-0.40415971585039756	0.9070552379466861	116.26704383903132
17	6.0	wm	37	diff_vonmises	0.04997170372820047	2.863167718704048	0.7718160462793614	195.82246330997566	0.7556542526046734	196.67383306009012	0.35299420710894935	-0.34040198563796764	0.693396192746917	101.34522013562184
18	7.0	ltm	37	diff_vonmises	-0.023452567787743985	-1.3437331529821963	1.0671785061347652	18.921102509514846	0.8841299765256998	20.682131229131464	0.09315411416724828	-0.4271595906566894	0.5203137048239377	83.09305294024014
19	7.0	perception	37	diff_vonmises	0.019638239139831468	1.1251882197809673	1.4575656937284531	8.80135637904484	0.8089826007132648	10.475888075156535	0.5477890536317069	-0.5607779885180626	1.1085670421497695	82.39227940871731
20	7.0	wm	37	diff_vonmises	0.36831154461206134	21.10269705221545	5.066327418523936	0.7422342198319652	0.037166916418450636	2.3869066451866283	0.25401117160479286	-0.37590402498387004	0.6299151965886629	59.66065612305346
0	1.0	ltm	38	diff_vonmises	-0.12795705202004207	-7.331399039684335	1.001852342263242	221.93355172527336	0.9827284851915162	224.48288464762717	-0.059400523131827754	-0.5607384298729059	0.5013379067410781	78.63985640409723
1	1.0	perception	38	diff_vonmises	0.008595803303182485	0.4925032507969684	13.256247279647978	0.7167966517155698	2.933513873770774e-16	3.0996586825993333	0.537155378456332	-0.49332600123023934	1.0304813796865713	37.2361049446294
2	1.0	wm	38	diff_vonmises	0.05242983773237115	3.0040084226206214	3.4216389412001265	0.4770546458646511	7.15874164366198e-14	3.180751322794439	-0.1697285152230506	-0.5058733803360737	0.33614486511302305	74.1720340194889
3	2.0	ltm	38	diff_vonmises	0.048419359621107536	2.7742249530156187	2.759430613226902	0.6266147825481981	3.138360396079268e-23	2.040888821831	0.06635198492231908	-0.3232487259878188	0.38960071091013787	82.77656332849531
4	2.0	perception	38	diff_vonmises	-0.05337141221202843	-3.05795666640221	7.5006231120693405	1.1414184570739363	0.13221672125457948	2.3527793830890356	0.7993567066711325	-0.3814990401367151	1.1808557468078476	48.646640524801455
5	2.0	wm	38	diff_vonmises	-0.05952915337185435	-3.410769246194228	3.387360363378611	0.649274121806148	0.14546772988773776	2.2113400704905906	0.05046870400648251	-0.33470353911708123	0.38517224312356374	68.60340545378418
6	3.0	ltm	38	diff_vonmises	0.035159072608068956	2.014466472036371	1.7876021432347107	0.984021315174904	0.2779452731029889	1.7749021335023272	0.10831545297794665	-0.20912741136260082	0.31744286434054747	87.64745181672032
7	3.0	perception	38	diff_vonmises	0.04774014892370842	2.735309046654512	4.920641686023868	1.8300295669713167	0.20685536545821764	2.3316497594702295	1.121788148361393	-0.3563224401957516	1.4781105885571446	59.52869141916881
8	3.0	wm	38	diff_vonmises	-0.07732230908893266	-4.430241973001887	3.3519787591688783	0.71306578603964	0.21637938595921466	1.701317769159974	0.16490235418577454	-0.25021903769731835	0.4151213918830929	68.6562895159017
9	4.0	ltm	38	diff_vonmises	-0.2553418846863132	-14.630012325441893	0.8278319926739275	161.83334919574057	0.8145854367009671	163.18827581863658	-0.00589904586269796	-0.298895019092992	0.292995973230294	88.03796593273977
10	4.0	perception	38	diff_vonmises	-0.02496821327337448	-1.4305732425468796	1.8641278409924271	4.266182260762659	0.5028616089460535	5.751100509207317	0.6868072417792597	-0.5533118434771498	1.2401190852564095	83.05765651960203
11	4.0	wm	38	diff_vonmises	0.1239033547664153	7.099139295627749	0.8529047493735276	208.16377168698023	0.8403242222474846	210.0376403204863	-0.08365980011134866	-0.3893939007065228	0.30573410059517414	83.74448320005573
12	5.0	ltm	38	diff_vonmises	0.2683773667391358	15.376890430987158	0.7438954752339144	81.62175886018144	0.7137529776429756	82.83633044231837	0.12060590748740552	-0.3211111862149929	0.4417170937023984	98.53082292157845
13	5.0	perception	38	diff_vonmises	0.07068805066218725	4.050126964950274	2.3762302155310495	2.135052600059122	5.363749284523539e-25	3.218733246608633	0.7089137286411445	-0.5017378783176455	1.21065160695879	89.21524561730828
14	5.0	wm	38	diff_vonmises	-0.011702615970373984	-0.6705105043648237	0.4684483053649365	191.6699390928292	0.4562389344526673	193.09692949616456	0.09417552788764283	-0.40933761483073283	0.5035131427183757	123.12852235999854
15	6.0	ltm	38	diff_vonmises	0.47197670213341947	27.042273060748133	0.8096350483972625	106.171785569592	0.793120862077687	107.32244201650452	-0.013048364838233795	-0.25078136262443884	0.23773299778620505	88.72732362485755
16	6.0	perception	38	diff_vonmises	-0.12932397199464657	-7.409717785161303	1.4954307092110333	1.8450262297203506	4.543044999858434e-17	3.0252120566863447	0.31619506603728204	-0.44139602063369565	0.7575910866709776	110.5500154112136
17	6.0	wm	38	diff_vonmises	-0.26281357492935564	-15.0581086421973	0.3501115258081203	153.32966288334234	0.3362113890073275	154.80901913121167	0.06536884991101743	-0.43683512640141586	0.5022039763124333	136.61981298024574
18	7.0	ltm	38	diff_vonmises	0.04465862875897699	2.558750946730943	1.3286586880222038	116.8720558190512	1.3023149190483065	118.03832648378852	0.09405997943869693	-0.3134097623618235	0.4074697418005204	71.73561545068
19	7.0	perception	38	diff_vonmises	0.07105552938264219	4.071181944693209	2.482446111736176	1.3736303269496586	2.4917187537076987e-20	2.3628915241576864	0.4301509222294133	-0.3704394971369439	0.8005904193663572	87.29613433793284
20	7.0	wm	38	diff_vonmises	-0.140245327544502	-8.035465364729799	1.0798072061126165	0.9756346939837386	1.1080205801752133e-32	2.467725364188653	-0.04469265664440247	-0.3525953580628445	0.307902701418442	125.19938139764584
0	1.0	ltm	39	diff_vonmises	-0.04574364886306059	-2.6209180193817785	4.783699369504853	0.5399888877228206	4.8424244321486053e-23	2.832678259594777	0.0064302741619201575	-0.45080274422160044	0.4572330183835206	62.46210742735997
1	1.0	perception	39	diff_vonmises	0.0034249086424812465	0.1962328104320556	17.51898777920788	0.6420363850151783	0.05217766442355785	3.140274721357983	0.5379081301605465	-0.5145145987221221	1.0524227288826686	32.137716133466796
2	1.0	wm	39	diff_vonmises	0.08409531699636635	4.818306740706571	0.6750658471735015	48.565662894879	0.6152123102758389	51.351804104326824	-0.19566206966068833	-0.5451438429560485	0.3494817732953601	93.57261191941959
3	2.0	ltm	39	diff_vonmises	0.09023128731191192	5.169871943004888	2.702262107138146	0.5902691831603	2.200859077258683e-14	1.7168115341380514	0.09080446659501118	-0.2716021932173862	0.3624066598123974	83.65298638518857
4	2.0	perception	39	diff_vonmises	-0.05795579570244929	-3.3206224920727787	7.833622523723824	1.0439685665341114	0.18145628774868658	2.077703617438466	0.7524938496757245	-0.3425098278897011	1.0950036775654257	47.37671902727175
5	2.0	wm	39	diff_vonmises	-0.003968131308678309	-0.22735717654099122	4.400419343656011	0.4851941806669252	0.056488043682819816	2.0084078465839794	0.05490373313857572	-0.3146292828254979	0.3695330159640736	63.033512311573446
6	3.0	ltm	39	diff_vonmises	0.05183510657853825	2.9699328375610508	0.7543653826979858	115.28058392052566	0.7379007827213314	116.10503021732833	0.12174847105031716	-0.23417666889540634	0.3559251399457235	98.66726666522061
7	3.0	perception	39	diff_vonmises	0.010517599916068593	0.6026140857978792	5.0083844532315505	1.7701454466533746	0.2294641206549427	2.5714942536234453	1.0280313602805253	-0.39648080072989766	1.424512161010423	58.62022901357372
8	3.0	wm	39	diff_vonmises	0.04499240127574512	2.577874703259216	2.9555875377785976	1.0428407385334135	0.423640189578384	2.3723162404142153	0.1254753081872596	-0.32996013366489674	0.45543544185215634	67.52019305986491
9	4.0	ltm	39	diff_vonmises	-0.08486635198381488	-4.862483791344294	1.2072084972749713	220.42497597436002	1.192076179229705	221.96934582481094	0.03291012577945196	-0.37717274182215377	0.4100828676016057	73.35174788968456
10	4.0	perception	39	diff_vonmises	-0.02828810939136328	-1.620789278529504	1.9942248740281885	3.3261132548322627	0.37916875725833343	4.698962272380843	0.6583910831294324	-0.5160693123676601	1.1744603954970925	83.85393163125178
11	4.0	wm	39	diff_vonmises	0.09364967111988719	5.36573090795773	0.870836180435604	229.166929522865	0.8564374914752242	231.44880476155518	-0.08810072435851168	-0.47967767662490246	0.3915769522663908	83.38336477932751
12	5.0	ltm	39	diff_vonmises	0.056406617057711356	3.231861094017498	1.8160323694611062	1.0783183430945655	4.378271945326851e-18	2.2734922212112325	0.16282035310659454	-0.34795388200993055	0.5107742351165251	101.49302039244529
13	5.0	perception	39	diff_vonmises	0.04962868913437599	2.843514430166511	2.1478738190534994	1.9231730768780884	9.785778257073832e-19	3.011430784976705	0.5564030141552785	-0.46517120268537665	1.0215742168406552	93.74774214185922
14	5.0	wm	39	diff_vonmises	-0.06973514548028624	-3.9955295197511997	0.5197595674318545	224.20948686965846	0.5087432455484592	225.778007888988	0.07306095242961419	-0.41592688432453073	0.4889878367541449	116.20726787432395
15	6.0	ltm	39	diff_vonmises	0.3274135906252511	18.759416898050986	0.4431893408169343	106.3371228613238	0.42831909507783	107.55157677798033	0.008756243632724647	-0.30873246223831785	0.3174887058710425	123.45583850939906
16	6.0	perception	39	diff_vonmises	0.009114698165800036	0.5222337364359747	1.6135119136354144	1.8475051869603853	0.03376042606811366	3.3751482962845905	0.28099430200921793	-0.4860014835057796	0.7669957855149976	104.85117367900591
17	6.0	wm	39	diff_vonmises	-0.035594472232571055	-2.039413032921922	0.4695505237695885	223.27235946579287	0.4573466207952884	224.98562311288825	0.09706918382849494	-0.48105282744078437	0.5781220112692793	122.65857943419869
18	7.0	ltm	39	diff_vonmises	0.027063559609207824	1.5506277442083318	1.1718738972479552	153.9069595393626	1.1468290765699016	155.5735317995529	0.10069652203186052	-0.421360125979227	0.5220566480110875	76.07235869605711
19	7.0	perception	39	diff_vonmises	0.1525391968871357	8.73985219194798	2.4209863555149544	1.303662985635854	2.8029934082148894e-20	2.794531796831973	0.30914962241721394	-0.4388137681471985	0.7479633905644125	88.3799230324343
20	7.0	wm	39	diff_vonmises	0.17749641627781	10.169795531415676	0.8813058772546204	24.523881671075078	0.7626712660715084	26.443210766758348	-0.013776426296503885	-0.42140452166471354	0.40762809536820965	87.8650287297132
0	1.0	ltm	40	diff_vonmises	0.2413936432085252	13.830836957135322	1.4067711025934195	6.049282507477426	0.8998412810909733	7.975330433814292	-0.052921598158498284	-0.43532182718400025	0.38240022902550197	72.9468588090771
1	1.0	perception	40	diff_vonmises	0.16104902073371374	9.227429182756687	3.268538862761524	2.015301960066917	0.5902672589867539	3.9924201130933357	0.3326768834638021	-0.5568852056237921	0.8895620890875942	63.28737919912487
2	1.0	wm	40	diff_vonmises	0.2035858368831132	11.664609222041198	4.118810615877771	0.373856022265534	0.01672598810830052	2.1939523914650905	-0.06300022932333976	-0.34602595923136503	0.28302572990802527	66.24455050379115
3	2.0	ltm	40	diff_vonmises	0.08510032837693604	4.8758896511758305	1.8619670907363728	89.94072025382472	1.8226694107724843	90.63472246012401	0.2338821187077329	-0.27151582188900925	0.5053979405967421	63.25283244328881
4	2.0	perception	40	diff_vonmises	-0.024772153963690265	-1.4193398715677257	7.444073613845443	1.1520646199270792	6.555613149635883e-20	1.7235903235835144	0.9568964973023754	-0.27431749849070064	1.2312139957930759	49.85438251437466
5	2.0	wm	40	diff_vonmises	0.07751147305479054	4.441080269881501	6.601784666432617	0.41340254791501413	0.16782193347647661	1.3689271834554333	0.15912392745089238	-0.22375273555567252	0.38287666300656487	50.7682185003473
6	3.0	ltm	40	diff_vonmises	0.2585101889152246	14.811542785971966	4.458871526381286	0.5135223172926534	0.24752055115596397	0.8432501964489939	0.24947387552423242	-0.12791596658322124	0.37738984210745363	61.37264252396386
7	3.0	perception	40	diff_vonmises	0.0360050662648923	2.0629383380671875	6.042513502994195	1.3726820915167732	1.8368150335792724e-20	1.9035461089590169	1.0127988783787651	-0.3029513472668324	1.3157502256455975	55.42897050821426
8	3.0	wm	40	diff_vonmises	0.06800331320919364	3.8963028397930377	5.92549863262891	0.4978574014717267	0.20145464329889687	1.1683190046381942	0.24717322641125683	-0.18812403730781752	0.43529726371907435	53.61509689239489
9	4.0	ltm	40	diff_vonmises	0.8730502511800827	50.02209469545516	0.6719749588315055	124.6481196121059	0.6580926714326788	125.70990571363441	0.03554250987303931	-0.2543800090948096	0.28992251896784893	100.6883000356761
10	4.0	perception	40	diff_vonmises	-0.11895448368697668	-6.815589869421564	3.605195359930391	1.9759605194247702	2.8393066844679743e-22	3.944057898547722	0.8071351492675337	-0.6266561043855753	1.433791253653109	72.2112384212763
11	4.0	wm	40	diff_vonmises	-0.11807396693717727	-6.765139975867481	1.3555226461555774	238.14531799433666	1.3373502311404952	240.13270980814008	-0.02318382290721388	-0.49050879847888496	0.4673249755716711	67.78513750379787
12	5.0	ltm	40	diff_vonmises	-0.017352018669033714	-0.9941974357678439	1.509215063098261	1.0207627559265637	3.493712095076224e-18	1.593397221941757	0.19019326399729375	-0.23190550985328937	0.42209877385058314	110.17221830939293
13	5.0	perception	40	diff_vonmises	-0.08058041889169094	-4.616917913890138	2.303253595164559	2.1125441624718326	1.8912847566934873e-20	2.025089871027469	0.8637936965847975	-0.3104567234858717	1.1742504200706692	90.60369503508511
14	5.0	wm	40	diff_vonmises	0.09666970818294121	5.53876628564381	0.789978590521979	128.31691972964123	0.7739520925331087	128.736411114113	0.2674082418622703	-0.20743677194760757	0.47484501380987787	101.58199581775341
15	6.0	ltm	40	diff_vonmises	0.4915402111821166	28.163179561704474	0.7819260225104582	118.76025128427563	0.7683398773241201	118.8538142905152	0.28027136179273526	-0.145956765690066	0.42622812748280126	105.15040087904148
16	6.0	perception	40	diff_vonmises	-0.041250571812798086	-2.3634836673746475	1.0366225078982525	4.355905774397419	0.35807175423576637	4.056843055861141	0.6238021722537542	-0.246204799749921	0.8700069720036752	113.66142889317598
17	6.0	wm	40	diff_vonmises	0.14041834685384602	8.045378640929478	0.8529279915610887	160.44615582955137	0.8388613349860978	160.7041525447493	0.35045492418774415	-0.20161696105724047	0.5520718852449846	99.56846184308671
18	7.0	ltm	40	diff_vonmises	-0.012493499694266611	-0.7158248038294611	2.3095982723964665	1.1270244905547635	0.18976083392453377	2.6784012255942655	0.12307595213053191	-0.3676407480014809	0.4907167001320128	80.69509604991211
19	7.0	perception	40	diff_vonmises	0.00908591983812427	0.5205848597187087	1.1180033422503157	399.3559891212766	1.101936321738388	400.77270394678885	0.6884676241746774	-0.5560981614098921	1.2445657855845695	84.15868193711643
20	7.0	wm	40	diff_vonmises	0.36453658754358265	20.886407944348544	5.166432133850495	0.6485625819642049	7.730882918984796e-26	1.9682885136728134	0.25901265793748735	-0.3132442208776535	0.5722568788151409	60.043162548825336
0	1.0	ltm	41	diff_vonmises	0.13031573838755434	7.466541813737831	3.1634445138790106	0.5519237768083487	6.561610209076892e-22	3.509154430879188	-0.18600268374872725	-0.5578332642832536	0.3718305805345264	77.21606118537255
1	1.0	perception	41	diff_vonmises	0.04945373051428819	2.833490039646047	9.570504230335013	0.7431126175132907	0.06377472104107076	3.7429545577085843	0.27020304390947647	-0.6077894965568187	0.8779925404662952	43.1490784981018
2	1.0	wm	41	diff_vonmises	0.11786718102743735	6.75329201597661	3.9395964328598447	0.492817417816024	0.030556072102751183	3.7262833924919176	-0.2355595906922509	-0.5861911354924161	0.3506315448001652	66.43780723196221
3	2.0	ltm	41	diff_vonmises	0.04180464460307977	2.3952296998008253	2.692703231442967	0.9272654641209096	0.2174645243937653	2.4434109398307533	0.09299682644492274	-0.34655098056597805	0.4395478070109008	74.33883398598368
4	2.0	perception	41	diff_vonmises	-0.04206353005252792	-2.410062743431552	7.190846422215198	1.1682163711194904	0.11812892105571708	2.846296704716203	0.718191650782403	-0.45972164023679624	1.1779132910191992	49.61102299692422
5	2.0	wm	41	diff_vonmises	0.07238187618933188	4.1471760188871825	5.302477402183461	0.48262733052927087	0.040469568337282526	2.4663121466804236	0.023204355238618357	-0.39036333350105984	0.4135676887396782	57.83258582952962
6	3.0	ltm	41	diff_vonmises	0.18852366332869475	10.801610247079457	1.9101438610967076	1.336523726493009	0.2748908775034982	2.536122899909488	0.14911329392617978	-0.3089141145798006	0.4580274085059804	85.20145984414273
7	3.0	perception	41	diff_vonmises	0.01976219568617966	1.1322904067297366	4.988364332259403	1.8820242292428417	0.0811754385948977	3.2622334757470517	1.0677462511119344	-0.5075921246494892	1.5753383757614237	59.96200602050169
8	3.0	wm	41	diff_vonmises	0.06676449273977847	3.8253236553211325	3.165263993725169	0.7924136846196702	0.16526295808558258	2.657153408851616	0.03952065557948603	-0.3974539189620826	0.43697457454156863	69.97630971956633
9	4.0	ltm	41	diff_vonmises	0.23503952756692564	13.466772948333606	0.6508312239741123	220.76039439569743	0.6381531809302903	223.08013892471251	-0.10108629694033766	-0.47881538652921307	0.3777290895888754	96.78358552791639
10	4.0	perception	41	diff_vonmises	-0.03958170918491536	-2.2678648822098557	2.6460766994744414	2.3580089798535324	0.1117402845755634	4.777506465826936	0.589001120969383	-0.6898512024944089	1.2788523234637919	79.84210216840773
11	4.0	wm	41	diff_vonmises	0.14645119707213788	8.39103549687218	0.6634129919596432	118.65951814277226	0.6364352068181629	121.70963503151987	-0.2226512826746898	-0.5936480728873388	0.370996790212649	92.79884550341708
12	5.0	ltm	41	diff_vonmises	0.04606629561403024	2.6394043164859475	1.8026758956919373	1.2184505616445078	0.03782479815226274	2.6786361331751776	0.14757761755791854	-0.39430671086430924	0.5418843284222278	99.08680865172914
13	5.0	perception	41	diff_vonmises	-0.0008859829580208153	-0.05076308421510911	2.0308544687342596	2.3162215397396047	1.3910944515488032e-19	3.608503186944446	0.631693953102709	-0.5535442013607774	1.1852381544634865	96.31406356343359
14	5.0	wm	41	diff_vonmises	-0.034804329220098434	-1.9941411730954883	0.592828507360509	221.94365103026792	0.5800530000879373	223.70990644730304	0.07355426354498462	-0.4433483465526926	0.5169026100976772	108.0949646573448
15	6.0	ltm	41	diff_vonmises	0.3112221695590142	17.8317168066364	0.38022296007489614	140.8416496032137	0.36686670004450733	142.1171497937567	0.05968473118203832	-0.3716511236892277	0.431335854871266	132.65580180456394
16	6.0	perception	41	diff_vonmises	-0.019686864705504677	-1.1279742594704782	1.4507812209724906	1.9589393153061678	3.045071714007807e-20	3.37050308837318	0.29513258569089973	-0.49074795717491054	0.7858805428658102	112.01436365118347
17	6.0	wm	41	diff_vonmises	0.12512707434023956	7.169253262515427	0.5589982508457928	270.064567029162	0.5489569499876565	271.7655969326453	0.07533586932932224	-0.4371244994269148	0.512460368756237	111.57683592099445
18	7.0	ltm	41	diff_vonmises	-0.018166810575105094	-1.0408815731671537	0.976778710204751	96.76808017082978	0.9331038365962574	99.25912423325423	-0.017297215909927388	-0.5557885335406247	0.5384913176306974	81.20566355370258
19	7.0	perception	41	diff_vonmises	0.098023844508176	5.616352581965118	1.4004284985555062	4.219300191603116	0.35860728268475106	6.249407664189982	0.3743656209900541	-0.5909099122091923	0.9652755331992464	94.16139764521967
20	7.0	wm	41	diff_vonmises	0.13804642119980579	7.9094773116341655	3.9981579961898066	0.6645320620051849	0.06129592703129777	3.357886667629903	-0.05687437423610586	-0.5246294078882834	0.4677550336521775	65.32562701889862
0	1.0	ltm	42	diff_vonmises	-0.04900734280323535	-2.8079139077762143	1.7771524009724926	2.8656734206342045	1.7771447658211703	2.077669528308784	0.3783944507633835	0.010822335299140912	0.3675721154642426	102.50985205647979
1	1.0	perception	42	diff_vonmises	-0.07091496395483046	-4.063128138934147	11.043067552138877	0.6267691016892379	8.468704201681215	8.286117745771298e-14	0.8211006619652986	2.1014333579380383e-10	0.8211006617551553	40.821412092685904
2	1.0	wm	42	diff_vonmises	0.00965571507225137	0.5532317218208602	1.179971779305763	2.7895502351396413	1.2574565553507475	1.8573526526947175	0.3234587974655202	0.04035681227515408	0.2831019851903661	128.48127308201913
3	2.0	ltm	42	diff_vonmises	0.02367093934620948	1.3562449216479633	0.5458579991240007	2.8551316916064384	0.5458283536689349	1.941445846586973	0.23330726430601811	0.07829904724010908	0.15500821706590903	149.7909880833878
4	2.0	perception	42	diff_vonmises	-0.043447104089471486	-2.4893356963922955	7.1361687448048485	0.9134498517572874	1.3607983481917697e-16	0.2346995213507806	0.9175747118678188	-0.03735298390293896	0.9549276957707578	50.93477274057611
5	2.0	wm	42	diff_vonmises	-0.7474371278318731	-42.82499287614653	1.0454593924346893	1.0366175473249932	25.989492258943276	0.12766955617956122	0.3089745591283037	0.04487214177065574	0.26410241735764795	59.420364689432745
6	3.0	ltm	42	diff_vonmises	0.13169080706659664	7.545327445587584	2.5099232174282737	2.3640381871907814	2.509948425151581	1.867901075742534	0.2930554986203293	0.0019364635790905024	0.2911190350412388	86.81452488523306
7	3.0	perception	42	diff_vonmises	-0.005640877952656511	-0.3231984994356147	5.312431928945892	1.450428251791775	0.4727777337162587	1.077513863101206	1.0384126470822554	-0.16007916893490826	1.1984918160171638	56.81446705891531
8	3.0	wm	42	diff_vonmises	-0.07022856768013101	-4.023800529320366	2.862417297863597	8.61026185208695	2.7196264625059996	8.181084771853248	0.42541364509804236	-0.020510383950921307	0.44592402904896367	64.2072995493725
9	4.0	ltm	42	diff_vonmises	-0.1360600550391832	-7.795666914062886	3.0045559644920403	8.524997702230152	2.8487709806761567	8.364167213515332	0.2700083814696548	-0.042108295103526205	0.312116676573181	57.831301420663465
10	4.0	perception	42	diff_vonmises	-0.1000993056729714	-5.7352677472512	2.3287294318021514	2.4199609892426754	0.2946259440337054	2.4836182022755895	0.848265911827598	-0.2922698729101999	1.140535784737798	83.20149561130242
11	4.0	wm	42	diff_vonmises	-0.02148849065501171	-1.2311998226384808	1.7910496661891435	89.48815162020466	1.7678303278402376	89.98076899869731	0.10568151509872337	-0.17155566041201453	0.2772371755107379	63.22566399153209
12	5.0	ltm	42	diff_vonmises	0.29020702520249037	16.627637729149413	2.244568645517064	2.237911318565643	2.244586236225554	1.4960331015642199	0.4101726785063443	0.00460713730850958	0.4055655411978347	91.67842487695825
13	5.0	perception	42	diff_vonmises	0.01768824871931827	1.0134619985946203	3.7385364008014217	1.1209645747641586	1.4945136687600177e-22	0.5669788589272294	0.7402619961183896	-0.08976749869717181	0.8300294948155614	70.87885705128127
14	5.0	wm	42	diff_vonmises	-0.04509225760139802	-2.583596049276811	0.7093518444467508	39.18851726856808	0.6935193968618907	38.574015944931745	0.2923591012329556	-0.014334648132074967	0.3066937493650306	123.03026721468596
15	6.0	ltm	42	diff_vonmises	0.3236761737622129	18.54527868551787	2.7089738128525025	10.630567545040167	2.7829994257640776	10.263434230131457	0.133154497346478	0.004494923064694258	0.12865957428178373	143.79911471989055
16	6.0	perception	42	diff_vonmises	-0.16864769779488492	-9.662801308244667	2.2683332042538753	1.1591551632143213	0.221886500587697	0.835704627929278	0.4809042936850079	-0.09914391819043167	0.5800482118754395	87.16146063898275
17	6.0	wm	42	diff_vonmises	-0.23260275526559387	-13.327156179832915	0.9431532869333348	24.900247171307235	0.8937012246752335	24.76361025036379	0.27821319225515495	-0.08479058538577577	0.3630037776409307	100.24753395393425
18	7.0	ltm	42	diff_vonmises	0.0170047705821155	0.9743015859434383	1.5690288672233632	26.32040623824448	1.5278693287249723	25.97015946281582	0.34099456077867885	-0.03716040302442658	0.3781549638031054	82.49577202235582
19	7.0	perception	42	diff_vonmises	-0.01137605624542459	-0.6518000103662704	3.2140155852113814	1.1715770217520471	4.456741552136658e-20	1.3357884224982897	0.5852518270027981	-0.21130814942675324	0.7965599764295513	76.59366127992652
20	7.0	wm	42	diff_vonmises	-0.14613160867695546	-8.372724430646867	0.00024679445722172906	4518.381426810047	1.8573271057972956e-29	4518.189253035645	0.20806810506735474	-0.14687539467820443	0.35494349974555917	179.37654182469777
0	1.0	ltm	43	diff_vonmises	0.09446056953626847	5.412191964830219	1.1331154837232635	203.79775258869523	1.1124763596116967	206.16222829527914	-0.07274231048342017	-0.5331007363763511	0.46035842589293097	73.36911232756316
1	1.0	perception	43	diff_vonmises	0.0962923933439981	5.517147737824711	6.319453357371274	0.9956101667597105	0.1804390753688822	3.3063726430810543	0.35164015527381853	-0.5399269311716772	0.8915670864454958	51.64468447930409
2	1.0	wm	43	diff_vonmises	0.17518549918909218	10.037389735427487	4.4665934078146945	0.3956793354661052	0.014634295150483005	2.677272957574198	-0.1093805588296512	-0.423319862163652	0.31393930333400083	63.64146590288459
3	2.0	ltm	43	diff_vonmises	0.019543178117223264	1.1197416243893195	2.6681473806402045	1.5251670477275057	0.7619564172695739	2.46583898336484	0.2029018556224803	-0.28685636797375547	0.4897582235962358	66.52563406364578
4	2.0	perception	43	diff_vonmises	-0.03686317596679801	-2.112104402345614	7.603557498733422	1.1129050050770337	5.543470816212935e-19	1.922195714182925	0.8968296512456564	-0.30592665039686323	1.2027563016425196	49.313312110875415
5	2.0	wm	43	diff_vonmises	0.045586283235076866	2.6119016330578853	5.7358876422881835	0.45625182608118636	0.14149894343184505	1.6309530969498727	0.1279114562672381	-0.2618744651922862	0.3897859214595243	54.3446349499373
6	3.0	ltm	43	diff_vonmises	0.192088608602585	11.005866565468478	4.013520229824935	0.4883823413025633	0.08762429588436894	0.9707524204954543	0.2078629363354345	-0.1484894282209435	0.356352364556378	66.33572098733987
7	3.0	perception	43	diff_vonmises	0.048945174842637044	2.804351946012996	5.73515128467597	1.4460884515915449	2.1425459146321613e-20	1.9278857734457813	1.0416663916714954	-0.3068184774355718	1.3484848691070672	56.926503257904415
8	3.0	wm	43	diff_vonmises	0.02333611306029098	1.3370607885947927	3.7372036459726883	0.6683601205659698	0.2814387955345275	1.414514387470602	0.20256575970119195	-0.20989803641550292	0.41246379611669487	64.89567383415098
9	4.0	ltm	43	diff_vonmises	0.5201394533698139	29.801795436332025	0.48523391950932426	137.3935467272464	0.47595043386449926	138.55128916697322	-0.04281719864689393	-0.254650939354768	0.21183374070787409	114.2297428301589
10	4.0	perception	43	diff_vonmises	-0.09246566926800338	-5.297892598909114	3.3027793972216872	1.9943366349782732	4.512629462792733e-16	3.7269003508760274	0.7859860377097537	-0.5912887079493271	1.3772747456590808	75.53113456366165
11	4.0	wm	43	diff_vonmises	-0.030474235757746083	-1.746045092805509	1.1298044074132252	226.99032040403011	1.1143383819354664	228.89021068698918	-0.034594020673822	-0.4343900329780759	0.3997960123042539	74.09735072876452
12	5.0	ltm	43	diff_vonmises	0.051564945205513864	2.954453731099294	1.7658311963493325	0.9764888264183555	1.5167866855756e-15	1.8308886668134934	0.1756896824747864	-0.2777298252665057	0.4534195077412921	102.80462310434646
13	5.0	perception	43	diff_vonmises	-0.029179999443265568	-1.671890814293209	2.284994562654757	2.2235326407493945	1.0169759879196177e-18	2.563686906593736	0.8345071378392528	-0.3951522576079749	1.2296593954472277	90.96283603612204
14	5.0	wm	43	diff_vonmises	0.07055673999011915	4.042603417635745	0.6795475112377706	167.57430046356183	0.6656665293169146	168.32729746747788	0.23339455664136466	-0.27989270057155835	0.513287257212923	107.01638601588061
15	6.0	ltm	43	diff_vonmises	0.4917790562118462	28.17686437386566	0.8482248549051002	141.96449767788528	0.8354758921235201	142.46157125408288	0.1911267556170344	-0.1857174796851524	0.3768442353021868	96.16647096697608
16	6.0	perception	43	diff_vonmises	-0.08426042782704105	-4.82776689445613	1.0044803174578374	4.194784613899661	0.2645529669501131	4.410838395861344	0.5381382421320703	-0.3367825626378524	0.8749208047699226	116.32600265548439
17	6.0	wm	43	diff_vonmises	0.04195098605219882	2.403614447203175	0.7375165167209979	172.9913613742655	0.722916887250357	173.62532028707335	0.2987227597671023	-0.2749914315173694	0.5737141912844717	104.14000478091177
18	7.0	ltm	43	diff_vonmises	0.019020727378527873	1.0898074020585813	2.1113327188807616	1.556285579306451	0.48240838651272805	2.9709464651226587	0.10622647523588447	-0.34605795440101006	0.4522844296368945	75.34042669949821
19	7.0	perception	43	diff_vonmises	0.01846451664946753	1.057938874763529	1.106332913893718	264.1077756369129	1.08501520240459	265.3448458056481	0.6121121508918606	-0.48982493598600385	1.1019370868778644	84.78010561232864
20	7.0	wm	43	diff_vonmises	0.3227464024972553	18.49200671612326	3.676209215548964	0.652659618129148	1.899337871498907e-21	2.030021283692029	0.1559266408662629	-0.322780771052752	0.4787074119190149	71.491729546273
0	1.0	ltm	44	diff_vonmises	0.24434569174328133	13.999976879094627	0.9926298458389211	1.2366403866884075	1.562616682463549e-19	3.7376548834408023	-0.17401798192910645	-0.5370648692031231	0.3630468872740167	128.36240983218198
1	1.0	perception	44	diff_vonmises	0.028923889362316484	1.6572167875640724	9.88612679027002	0.6012056668408406	2.5596334951947074e-23	3.121703772188084	0.24715220585882863	-0.4968345842859858	0.7439867901448145	43.17365278741465
2	1.0	wm	44	diff_vonmises	0.07473092312108257	4.2817664939546525	5.412057057486459	0.3909243822054196	3.920661799629473e-15	3.191253191832883	-0.15437453048959876	-0.5078966792231842	0.3535221487335854	58.63771168161048
3	2.0	ltm	44	diff_vonmises	0.01165469040697515	0.6677645718512839	2.303765301806663	0.9588841580489267	0.11983301582319254	2.6901348932462112	0.05752133974537327	-0.38524795213366697	0.44276929187904024	82.7780162081408
4	2.0	perception	44	diff_vonmises	-0.03410064396680678	-1.9538229779762823	6.828690799828688	1.1668440966954856	0.1092415683443513	3.2539056041494603	0.6165112271215998	-0.523640776763037	1.1401520038846367	50.799821770986085
5	2.0	wm	44	diff_vonmises	0.08517634780584553	4.880245243613339	5.245283974122489	0.46029502112625903	0.005848836895748707	2.6672099514009733	-0.01755216338107507	-0.42330501333154885	0.4057528499504738	59.25856990838324
6	3.0	ltm	44	diff_vonmises	0.19503807374594195	11.17485847000378	0.913677547037384	204.4475238107502	0.8973033642596455	205.95330166365335	0.15223599186398928	-0.3893646986455437	0.541600690509533	87.96542639645688
7	3.0	perception	44	diff_vonmises	0.004151517673511175	0.23786444126616077	4.009767606982314	2.4928816571957246	0.22787103640944045	4.290344980064782	1.0726023580982638	-0.63941750348439	1.7120198615826538	64.50030756365496
8	3.0	wm	44	diff_vonmises	0.06101162011330417	3.4957083337478143	2.1098428424785713	1.005772174118554	0.17487255926029407	3.2996572602202137	-0.08493286615786277	-0.46065131868626435	0.3757184525284016	81.22654722593998
9	4.0	ltm	44	diff_vonmises	0.20584171918151983	11.793861756818169	0.6174864966141075	188.8195102980807	0.5998997566462341	191.49024429561342	-0.0801524779501861	-0.570357831670087	0.4902053537199009	101.13408692181105
10	4.0	perception	44	diff_vonmises	-0.02158106098200845	-1.23650371168354	1.662887890789877	5.009365066567321	0.4412593026372145	7.704955976498638	0.4931356143400005	-0.7579262901992276	1.2510619045392282	85.65225938327578
11	4.0	wm	44	diff_vonmises	0.15634377793926604	8.95783862905049	2.154444477463901	0.6426076454822855	1.1555766557209286e-26	3.9091666189946057	-0.27546211703843726	-0.6175005817889748	0.34203846475053756	93.58174258531574
12	5.0	ltm	44	diff_vonmises	0.11235776252993056	6.437625588498164	1.4789494376539618	2.147840661895115	0.27421754450166114	3.658846846740273	0.17053617841921487	-0.39835568260543974	0.5688918610246546	94.28100549724951
13	5.0	perception	44	diff_vonmises	0.002983311543285484	0.17093116040291845	2.084101140148924	2.2529992362952598	1.3662530380066723e-17	3.7616502125717153	0.5928379806026627	-0.58024002796305	1.1730780085657126	95.127981259141
14	5.0	wm	44	diff_vonmises	-0.12056200235122852	-6.907693904371702	0.577320549750871	214.23840768093172	0.564888795391212	216.1548447083357	0.006354969543195921	-0.445885466014726	0.4522404355579219	107.37514195826603
15	6.0	ltm	44	diff_vonmises	0.14587948822474062	8.358278992806028	0.14653595885924212	107.59027410548066	0.13279584004879225	108.9394295373684	0.006326955549958768	-0.4049933263154326	0.4113202818653914	162.45842034255412
16	6.0	perception	44	diff_vonmises	-0.08854000011224214	-5.07296832451931	1.8003047148272266	1.43413542029264	5.137572154634735e-16	3.0261377901494524	0.21248400685634078	-0.4626706510821066	0.6751546579384473	101.8927749123531
17	6.0	wm	44	diff_vonmises	0.1037440367358065	5.944095454611881	0.49725546095690565	190.20571611290615	0.48583699848412054	192.07947496026293	-0.051986780924671905	-0.4200461926956258	0.3680594117709539	113.85644601106776
18	7.0	ltm	44	diff_vonmises	-0.051808133260324914	-2.9683873802679632	0.9182241502530819	176.00959384193703	0.8938606902714685	178.58770776232296	-0.012526008290748791	-0.5726384163854981	0.5601124080947493	83.58108087033719
19	7.0	perception	44	diff_vonmises	0.049819425169524846	2.8544427999815993	0.7133063822540497	160.6976377369383	0.6818279419241499	162.83981057868667	0.3618838031412821	-0.6407752362658155	1.0026590394070976	102.69945474348839
20	7.0	wm	44	diff_vonmises	0.11631091362784313	6.664124462186062	11.662812141360684	0.40949883796808845	0.02330694145864653	3.3823346994031067	0.000638091322594514	-0.5430309785412822	0.5436690698638768	39.3787636223052
0	1.0	ltm	45	diff_vonmises	0.21237387838312222	12.16812691017753	2.115753702194583	0.7945273232444167	1.0569627554622585e-23	2.645191202003656	0.0030268934825112837	-0.41483390155403826	0.41786079503654955	94.37834106954705
1	1.0	perception	45	diff_vonmises	-0.01263706026563613	-0.7240502186734212	6.525656581234174	0.8479494398242976	0.10687501835420472	2.8469025179853475	0.34341091384022615	-0.457823453716185	0.8012343675564111	51.72601007748321
2	1.0	wm	45	diff_vonmises	0.191695708643492	10.983355056041587	2.711567933643605	0.6521789145698972	3.174433626407716e-15	2.5549368794400755	-0.0035975250519303947	-0.40485213220761096	0.40125460715568056	83.49546329138226
3	2.0	ltm	45	diff_vonmises	0.1228630376810205	7.039533517279276	3.998968899424698	0.7661245282289058	0.3212060776955528	1.8716777315883575	0.18862646621776769	-0.28560254787479505	0.47422901409256274	61.77724173796426
4	2.0	perception	45	diff_vonmises	-0.058164495958001244	-3.332580135899207	6.803400704206666	1.13008237148447	1.1090880261949732e-18	2.1757368759435307	0.8062343649420942	-0.346277858351578	1.1525122232936722	52.18441294411082
5	2.0	wm	45	diff_vonmises	0.016915850149015244	0.9692068204143182	5.433904956352852	0.553515506532476	0.02429662104464924	1.8882545246399436	0.1937978697712781	-0.29848111017233464	0.49227897994361275	57.86821721307925
6	3.0	ltm	45	diff_vonmises	0.2575992711051219	14.759351039969781	2.954932674112897	0.767313546711236	3.8353780064669665e-21	1.616302999836044	0.24097920391984484	-0.2558910888687538	0.4968702927885986	79.93123551006559
7	3.0	perception	45	diff_vonmises	-0.011419030097061415	-0.6542622306944819	4.842697434608412	1.8168336976095643	2.6978659343678295e-15	2.9802756404870627	1.0743240331075465	-0.4742292800188988	1.5485533131264453	62.071120107176995
8	3.0	wm	45	diff_vonmises	-0.04891299690589013	-2.8025082860439587	2.014085494327161	2.30739722187697	0.5508003992252675	3.637995571091241	0.26309722296223836	-0.37863255336145835	0.6417297763236967	77.3730077860018
9	4.0	ltm	45	diff_vonmises	0.36850050364659526	21.11352360739511	0.5850240901824223	193.4591803667216	0.5729823992601604	195.01387748447598	0.03504650749448501	-0.37605690409309034	0.41110341158757535	107.79994388596279
10	4.0	perception	45	diff_vonmises	-0.054165380090750816	-3.1034476749219575	2.5655200742390387	2.33283315343972	2.4455224960563265e-16	4.66151460885041	0.6539859730685984	-0.7336527472017101	1.3876387202703087	85.87118716765104
11	4.0	wm	45	diff_vonmises	0.010208393753932734	0.5848978777080567	1.009218994553035	308.9986285247657	0.9955306262533785	311.6677878919725	-0.10987676386911005	-0.5754114509643031	0.4655346870951931	77.046485997226
12	5.0	ltm	45	diff_vonmises	0.0772280413270982	4.424840828104628	1.531366508847782	1.1987816255327883	7.767881986635703e-17	1.811414366446247	0.2374943778639072	-0.26370768773256476	0.501202065596472	109.46820390543564
13	5.0	perception	45	diff_vonmises	-0.043008652361855394	-2.464214262879674	1.6424665156977754	2.413894515884739	8.182741416341347e-20	2.653544080996129	0.6824526514851679	-0.3809539180041944	1.0634065694893624	106.21006729741396
14	5.0	wm	45	diff_vonmises	0.04821207675839318	2.7623485198166966	0.7833963455782281	91.65393613634566	0.7573063318587104	92.3321696672715	0.2561995074358592	-0.2591685889320905	0.5153680963679497	100.56517815686868
15	6.0	ltm	45	diff_vonmises	0.5121576309400707	29.34447069828488	0.49948509297999166	118.6278577351902	0.48835030874423	118.82488901223707	0.19845047827550388	-0.16791009982827276	0.36636057810377665	124.95620193827517
16	6.0	perception	45	diff_vonmises	-0.002186909439905409	-0.12530068108389866	1.8111095743145293	1.5259091749152498	1.5420391075792504e-16	1.7755999967354181	0.45862173919819055	-0.2627875681047027	0.7214093073028933	101.62898352636196
17	6.0	wm	45	diff_vonmises	0.20995132086249807	12.02932458861809	0.7408666984061807	163.9461476042113	0.7289338300421503	164.58554556942926	0.18786780871521813	-0.22435657518012952	0.41222438389534766	102.06209699168141
18	7.0	ltm	45	diff_vonmises	-0.047523169383319006	-2.7228770347495104	2.9548143777343916	1.1066963969966268	0.22345893841047795	2.8280888700985694	0.16271698785702238	-0.4073244000559459	0.5700413879129682	71.70981819382922
19	7.0	perception	45	diff_vonmises	0.11582432134970266	6.636244778304957	1.6364348125555332	3.066574368238947	0.23202241634406726	4.444587447961392	0.5201643548054358	-0.5066540055920561	1.0268183603974919	95.05756861947
20	7.0	wm	45	diff_vonmises	-0.32094633502941655	-18.3888704473773	0.00047260105417684347	3240.5564541583494	5.576425281393845e-26	3242.3823552874937	-0.04683374609908242	-0.5343110429106446	0.48747729681156216	177.0495622235735
0	1.0	ltm	46	diff_vonmises	0.13886621208583982	7.9564478694872065	1.635133874638018	1.137206391938611	0.2081795295859376	2.938314444131437	-0.05060531991864181	-0.3730761224257934	0.3224708025071516	88.98553539678264
1	1.0	perception	46	diff_vonmises	0.07049187308145308	4.038886817539119	9.17380997135728	0.5676042971387124	4.281812644761608e-20	2.542293846348094	0.27137827316697427	-0.40461862516602864	0.6759968983330029	44.83568218847242
2	1.0	wm	46	diff_vonmises	0.0915374710960966	5.244710761107097	6.4228394847508365	0.3072842300449458	1.059316147208461e-12	2.246666214778727	-0.05345854917002202	-0.3575672313763965	0.3041086822063745	53.73310449886702
3	2.0	ltm	46	diff_vonmises	-0.045722807419974046	-2.6197238926539574	2.0988794706306986	1.5271995441835526	0.510942206435086	2.56371727435126	0.1732804196279526	-0.2834722019796918	0.4567526216076444	76.60152435104996
4	2.0	perception	46	diff_vonmises	-0.02389259535174946	-1.3689448752691327	7.104500910718565	1.058385805163894	0.055227305439012844	2.3622753102354945	0.7069979532918409	-0.37619142506889075	1.0831893783607316	50.484972767866
5	2.0	wm	46	diff_vonmises	0.0996055617105131	5.706978302042273	6.2351594895157225	0.37753437689442876	0.07612853744174188	1.7986204041583564	0.05940718522532917	-0.2879134349552912	0.3473206201806204	52.85557589449584
6	3.0	ltm	46	diff_vonmises	0.17653728754317222	10.11484150291121	1.175859164236044	179.78269883104963	1.1596509641429145	180.56363079204723	0.2505335911224478	-0.262471967717417	0.5130055588398648	80.56530700897622
7	3.0	perception	46	diff_vonmises	0.01915699391261031	1.0976148993503807	4.693967335814643	1.9207369526091826	0.1693057884342414	2.978525660657484	1.05273199374964	-0.4561022619362053	1.5088342556858452	60.89338039613676
8	3.0	wm	46	diff_vonmises	0.13789923460310524	7.90104414084233	3.146123969365077	0.6949916415520153	0.19650912785971897	2.055562904810577	0.07327072684955627	-0.3039001686053588	0.37717089545491506	69.85506982489284
9	4.0	ltm	46	diff_vonmises	0.24242035919788726	13.889663450084367	0.7472542009153663	203.65400008813285	0.7350409208884315	205.31821921886035	-0.009953761588377574	-0.3661566666018601	0.3562029050134825	92.82445928807533
10	4.0	perception	46	diff_vonmises	-0.08790869014262358	-5.036796927695634	2.8003540485509415	2.1996412875966915	0.09989273513119655	4.118024097877271	0.6624427267717964	-0.6012116837725114	1.2636544105443077	78.43847034835204
11	4.0	wm	46	diff_vonmises	-0.06351348202298132	-3.6390544620968557	0.8950654071736578	173.29871484918715	0.8764047828298166	175.58274412804246	-0.11054630339649663	-0.4752709785839677	0.3647246751874711	81.50308106402025
12	5.0	ltm	46	diff_vonmises	0.03932343616493431	2.253066928202844	1.3827387045281923	2.0225818071582977	0.2647202399173388	3.072614281542227	0.20788286635307518	-0.319856611721935	0.5277394780750102	98.72387968954084
13	5.0	perception	46	diff_vonmises	-0.03414160902678218	-1.9561701030203729	2.4650852308606357	1.969218196973381	6.508924877396399e-18	2.8674065053104836	0.6946576550712156	-0.4480454782006584	1.142703133271874	87.60537521575907
14	5.0	wm	46	diff_vonmises	-0.10695383448332035	-6.128003318635024	0.6194679129912338	176.44165388029433	0.6074050219376174	177.58858482486693	0.09716601819312132	-0.3093698706249146	0.40653588881803593	107.36661264600048
15	6.0	ltm	46	diff_vonmises	0.20608880696863227	11.808018844188938	0.41994493462139515	161.68462807034706	0.41008440613782554	162.58380459895628	0.08655215039592434	-0.28427990865097286	0.3708320590468972	129.31882928295434
16	6.0	perception	46	diff_vonmises	-0.14221752696825712	-8.1484640680691	1.7645351279476176	1.6137376085393347	3.01104082726959e-21	2.6243869795736954	0.3538671894821059	-0.3950526133443702	0.7489198028264761	102.80662664658396
17	6.0	wm	46	diff_vonmises	0.00946617868127172	0.5423720865535848	0.712788102345606	153.6357625574762	0.6965355059391447	154.79333629436684	0.14736631288681679	-0.32303492549699975	0.47040123838381653	101.12733357727151
18	7.0	ltm	46	diff_vonmises	-0.05431961913922177	-3.112284921435457	0.8982918043046563	192.29004054859948	0.879168117173263	194.14907112121315	0.10815600791097069	-0.4521001773391973	0.560256185250168	87.39913620011407
19	7.0	perception	46	diff_vonmises	-0.013821934456491575	-0.7919385090634166	1.3425755138191242	7.761085440722156	0.6289277030554774	9.580407030651987	0.5479246863664424	-0.5976392836018566	1.1455639699682991	88.61871533275493
20	7.0	wm	46	diff_vonmises	0.2245851128936411	12.867779110274762	12.989926449286578	0.503725146620074	1.0830142304268576e-16	2.4610132870280785	0.3253474521451165	-0.39168242964161387	0.7170298817867304	37.60729795297544
0	1.0	ltm	47	diff_vonmises	0.002910818768186159	0.16677763034453605	0.8391833478516516	126.20417557087272	0.8203672374104535	127.27916071346802	0.12273537505026155	-0.2848742956123438	0.40760967066260534	92.47541138986949
1	1.0	perception	47	diff_vonmises	0.0035034693476534242	0.20073400727399296	9.654873497234185	0.5432793053145801	2.141302163970326e-28	1.78008217256301	0.38093696765524787	-0.2833088741425277	0.6642458417977756	43.69026436656847
2	1.0	wm	47	diff_vonmises	0.1283227675930217	7.352352998518277	4.70448504583857	0.39412495755735616	7.077103500235766e-22	1.50326683652723	0.09152779450912277	-0.2392252238711444	0.33075301838026716	62.99704920567953
3	2.0	ltm	47	diff_vonmises	-0.11426530627172146	-6.5469197941393755	2.845042612350557	0.8329905845360787	0.20754416768496559	1.4779036341287906	0.24283359916393127	-0.2058623091064737	0.44869590827040495	75.27954311597395
4	2.0	perception	47	diff_vonmises	-0.04468580959412207	-2.5603082938683968	6.631872985274772	1.0035133577080988	7.527959425102389e-17	1.8411417698598243	0.7167627724024812	-0.29302505960925673	1.009787832011738	52.86749274338894
5	2.0	wm	47	diff_vonmises	0.0015965320807599984	0.09147455008478741	5.407640394895176	0.4078548385435943	0.09970530627909951	1.2697859953536197	0.1459749616776986	-0.20090997831948482	0.3468849399971834	56.736769052061646
6	3.0	ltm	47	diff_vonmises	0.09460999667266665	5.42075350909056	1.1860960262345461	212.82780421612284	1.174628139272324	213.2666220807698	0.2877962326680006	-0.19743881438783006	0.48523504705583065	82.43164794320734
7	3.0	perception	47	diff_vonmises	0.014395393686702757	0.8247953026773384	4.282282031209952	2.0137147571270675	0.2580706664481835	2.6121585387339787	1.07740672720845	-0.3868434467001396	1.4642501739085896	63.003899039902336
8	3.0	wm	47	diff_vonmises	0.009214025810161453	0.5279247912468603	1.147811288815788	51.53779098071467	1.0980084131885097	52.30066814480191	0.20438617148040095	-0.24226834163076116	0.4466545131111621	81.62137555769584
9	4.0	ltm	47	diff_vonmises	-0.0559172075184725	-3.2038199929656694	0.99912080491324	143.55258394723265	0.9831099875561164	144.49707751835535	0.11539441203966305	-0.2515314182319912	0.36692583027165426	84.44388971712888
10	4.0	perception	47	diff_vonmises	-0.09073039346046481	-5.1984686188459985	1.9439346018445895	3.6763762467063037	0.38849625866297394	4.968115741958997	0.7409075146223325	-0.5297370649937083	1.2706445796160408	84.88380543296793
11	4.0	wm	47	diff_vonmises	-0.05999595085467492	-3.437514771847177	1.0506943289927417	186.69858289328982	1.0346598392168	188.30828258541482	0.003427234258467138	-0.36974388065435804	0.3731711149128252	78.04115674739785
12	5.0	ltm	47	diff_vonmises	0.1497454855521313	8.57978432327437	1.8126264334692967	1.326366411354666	0.19981999636157513	1.8402660107772368	0.2904644458546883	-0.22261208683494083	0.5130765326896292	92.9324192657185
13	5.0	perception	47	diff_vonmises	-0.011892835132822435	-0.6814092595556334	2.438911706067421	1.8736866901086133	6.447282707023955e-20	2.3032591157235762	0.7216981532531813	-0.35828880687946457	1.079986960132646	88.07639529679426
14	5.0	wm	47	diff_vonmises	-0.1135116005916737	-6.503735639677601	0.5993024740170605	127.96472923051418	0.5861553374665982	128.56004264768126	0.16164346248380923	-0.22288004459707977	0.384523507080889	113.64390723030253
15	6.0	ltm	47	diff_vonmises	0.21540282360142485	12.341672687562603	0.47748338376604066	90.81914515139276	0.4660371109205267	91.26556875753046	0.08606827189666078	-0.1623975290313755	0.24846580092803627	124.68602090289414
16	6.0	perception	47	diff_vonmises	-0.1874801151082045	-10.741819338326978	1.9890342268730885	1.4027019255129265	1.4836010819669122e-12	1.967915413025938	0.408014039015453	-0.29970045459173295	0.707714493607186	97.22519729597308
17	6.0	wm	47	diff_vonmises	-0.1261665610094663	-7.2288114615222305	0.7369242475185822	120.11858563876257	0.7204198253339997	120.8556946228621	0.1656377304368064	-0.23619026384915642	0.40182799428596283	101.47750765511907
18	7.0	ltm	47	diff_vonmises	-0.05968381947557864	-3.4196309611713622	1.1537575330098535	93.39465477559908	1.121291005620645	94.30406313540522	0.23349666551102644	-0.2856776087394248	0.5191742742504513	80.91717934357558
19	7.0	perception	47	diff_vonmises	-0.011064792485757757	-0.6339659106219866	2.806026004056505	1.7983635491102383	0.038177316621869455	2.825225847651749	0.6665314090160612	-0.4288362047554187	1.0953676137714798	80.68846202342246
20	7.0	wm	47	diff_vonmises	0.20965545660561088	12.01237281538968	10.600587072378088	0.46979081145633855	3.2080030384775106e-19	1.5517237605114298	0.3557180552202994	-0.24696450642482745	0.6026825616451269	41.67136212413976
0	1.0	ltm	48	diff_vonmises	-0.03125857230570354	-1.7909842667213312	2.3402240548638553	1.2550515357758456	0.32694273714804467	3.664695382469919	-0.07624448731542299	-0.5004191959542619	0.4241747086388389	72.80071461583259
1	1.0	perception	48	diff_vonmises	0.024004828741734652	1.37537537483573	12.268593206872415	0.7399990145866091	0.03614007606975159	3.113303712173671	0.5092606686519587	-0.502286360313092	1.0115470289650508	38.46089233936053
2	1.0	wm	48	diff_vonmises	0.08885726134658588	5.091146054250317	3.058120951293939	0.52415001626857	0.02939924204170831	3.1553222975132753	-0.1699921064855508	-0.49140904643134564	0.32141693994579484	75.43446322884958
3	2.0	ltm	48	diff_vonmises	0.07960280932606505	4.560905011768156	4.1136317066336465	0.4835120983696425	1.1750285875090713e-09	1.6795517545717198	0.11011565922073757	-0.26720806618635884	0.3773237254070964	67.48867903611449
4	2.0	perception	48	diff_vonmises	-0.04701244898212256	-2.6936149112497256	7.942903089440282	1.099188722284775	0.11000562831133842	2.121985765941961	0.8391683736268071	-0.34332778780273193	1.182496161429539	47.4939898956151
5	2.0	wm	48	diff_vonmises	0.008513661474614232	0.48779687069852035	4.724927711497803	0.4895013123560997	0.08106062684120477	1.9383679303881598	0.07774959995737507	-0.3046668488841052	0.3824164488414803	60.39837102675497
6	3.0	ltm	48	diff_vonmises	0.1435102966698282	8.22253431585151	3.1412742203206454	0.48031671345442906	7.33201645310673e-17	1.1644940957935295	0.13757334217420356	-0.18473156597153925	0.3223049081457428	77.48913938064965
7	3.0	perception	48	diff_vonmises	0.0354117680829566	2.0289448562494874	5.60208857516335	1.5819150352975144	0.09017419607388895	2.1571709063228863	1.082081110008377	-0.3372512198245055	1.4193323298328824	56.751709349690145
8	3.0	wm	48	diff_vonmises	-0.018649667999762535	-1.0685472657065813	3.482622178321472	0.7646071620460585	0.32051105596705165	1.770170103461472	0.16627397728267684	-0.2599905221717849	0.42626449945446176	65.58301432685599
9	4.0	ltm	48	diff_vonmises	-0.08102314458102779	-4.642284227371159	0.958282494330843	119.39240554302863	0.9396392732494995	120.74219611984013	-0.023069023591496318	-0.2967322628518563	0.27366323926035996	80.87049135601677
10	4.0	perception	48	diff_vonmises	-0.037745680026335784	-2.1626681603602904	2.71436370829807	2.2568155262994494	0.14165442512864398	3.805661230795184	0.7011098707014396	-0.5382875713903927	1.2393974420918323	78.73306293897247
11	4.0	wm	48	diff_vonmises	0.07521524372231182	4.309516020336328	0.933770594314228	233.79986712904162	0.9209593782395145	235.81712192941612	-0.08943904194759966	-0.42564566929550196	0.3362066273479023	79.92982665809208
12	5.0	ltm	48	diff_vonmises	0.1380527889416257	7.9098421563654755	1.901679611031495	0.9392152150142565	7.561977764302396e-13	2.022413334137428	0.14807977331156735	-0.31139898948662936	0.4594787627981967	99.31530622107502
13	5.0	perception	48	diff_vonmises	0.036519164207246595	2.0923939804204488	2.3067355764279887	2.052808044741345	1.7125351832256847e-18	2.912335669105835	0.6901367912274363	-0.4520714226481887	1.142208213875625	90.53633852834125
14	5.0	wm	48	diff_vonmises	0.02362217973474169	1.3534512017001614	0.5547443329988945	200.32571061531814	0.5425205685644771	201.587236641648	0.13948444889795297	-0.3730089549430389	0.5124934038409918	114.79977841946291
15	6.0	ltm	48	diff_vonmises	0.42110065463664326	24.12729026087574	0.7049579383893556	123.11163572385914	0.6908188979908547	124.04712924888202	0.06718038120114755	-0.23813800191825685	0.3053183831194044	99.82440403375742
16	6.0	perception	48	diff_vonmises	-0.057872114756878326	-3.3158279270658984	1.5277710772567943	1.8804051933575476	7.0083102526874216e-15	2.8593156877450374	0.3685184631667851	-0.4162835318856128	0.7848019950523979	109.5941343256085
17	6.0	wm	48	diff_vonmises	-0.057591847506341456	-3.2997697964744	0.5004418624631896	191.72338998497904	0.48761536198451927	192.99117055454747	0.14930373433533362	-0.39565221677334605	0.5449559511086797	120.99195042162216
18	7.0	ltm	48	diff_vonmises	0.05808887501018955	3.328247374746818	1.18927228770227	124.72605470107547	1.163149057166868	126.10604838624973	0.09014138047946574	-0.35220815630701097	0.4423495367864767	75.6468039115341
19	7.0	perception	48	diff_vonmises	0.08935518360284199	5.119674898059424	2.543316201104499	1.4048626744872865	1.0601442180330478e-16	2.6176839719647	0.4197367832965793	-0.41144962757824954	0.8311864108748288	86.24200897130319
20	7.0	wm	48	diff_vonmises	0.1478814707177922	8.472984140316962	1.6477049969630024	1.122625892877037	0.1784431143566391	2.7000001493450667	0.005194498383505941	-0.34647038191893076	0.3516648803024367	91.75718664453646
0	1.0	ltm	49	diff_vonmises	0.1781424774288184	10.206812108675823	1.1248193102359034	1.0141203174661766	6.411927842141634e-20	2.4026610857424253	-0.012066429263527134	-0.3433483229591537	0.33128189369562655	123.31941503575385
1	1.0	perception	49	diff_vonmises	0.0069892630249339905	0.40045527323555674	11.147218272335747	0.5567653497592232	2.3896945427667515e-24	2.1198130933416772	0.395335919455857	-0.33737873208390695	0.732714651539764	40.63392932213654
2	1.0	wm	49	diff_vonmises	0.08801733183563035	5.043021638184078	4.3957846062015316	0.3906066285041321	4.5309819959362396e-20	2.0073951494564755	-0.0033849958061877294	-0.319438810249567	0.31605381444337927	65.22491975033941
3	2.0	ltm	49	diff_vonmises	0.015713291699374524	0.9003052966321093	3.2437403767720427	0.5546630190239793	7.606442720307935e-22	1.5725361233426929	0.12943524090125247	-0.2496988255950339	0.37913406649628634	76.22985018726419
4	2.0	perception	49	diff_vonmises	-0.0315634338044167	-1.8084515439336284	7.650509869143853	0.9894951745517707	0.026100487813337896	2.1854239436588405	0.7158181990200567	-0.3475771893669954	1.0633953883870522	48.90174813420856
5	2.0	wm	49	diff_vonmises	0.062435068305243306	3.577265907501455	6.029808963783456	0.36426223537659497	0.0026262132892480674	1.6778729735532947	0.08097089835608068	-0.2666952262584874	0.3476661246145681	55.39081557550233
6	3.0	ltm	49	diff_vonmises	0.19844787100595343	11.37022546199771	1.1017343836310274	163.20064832532677	1.0857922009993681	163.95257247020962	0.21835926740780565	-0.2442826989489788	0.46264196635678445	83.03424355719997
7	3.0	perception	49	diff_vonmises	-0.003688803623708095	-0.21135287909103811	4.600758675160838	2.050658463146629	0.23793932391767134	3.070814236589546	1.0893577833801569	-0.46647639620680653	1.5558341795869635	60.82494970217414
8	3.0	wm	49	diff_vonmises	0.026337189135384347	1.5090097816953287	2.2947771365433067	1.198970581806314	0.44078671912480966	2.5078012756016346	0.08052639470832379	-0.31298371142986947	0.39351010613819326	73.59901455198019
9	4.0	ltm	49	diff_vonmises	0.04847008651661878	2.777131390036214	1.0244345363387013	184.73097184743764	1.0079964288526373	186.22047477804435	0.06237861377942977	-0.35825558132615143	0.4206341951055812	80.84854595434663
10	4.0	perception	49	diff_vonmises	-0.05360766739045314	-3.071493091014056	2.152187418768671	2.9760079578185477	0.28137587399861347	4.72619198177662	0.6274246121637532	-0.5805423193761283	1.2079669315398815	83.08332965473917
11	4.0	wm	49	diff_vonmises	-0.04905930211337833	-2.810890956953818	0.8879272475142312	190.68334150515383	0.8723156087037869	192.8685220677973	-0.1262164413024962	-0.4483579532492854	0.3221415119467892	80.92837877875644
12	5.0	ltm	49	diff_vonmises	0.12851177127370553	7.363182111733899	1.6468308137104295	1.5288358148068537	0.2192843293567403	2.3434079054246206	0.24197892678463007	-0.2734483070456149	0.515427233830245	94.7762050421193
13	5.0	perception	49	diff_vonmises	-0.004353303706046663	-0.24942592929513374	2.431029553943907	1.793902912882579	4.821975377039607e-19	2.576927979842822	0.6298299474787273	-0.4020868359198595	1.0319167833985867	88.21694453395617
14	5.0	wm	49	diff_vonmises	-0.11441591758081454	-6.555549186497349	0.5971601019563313	165.6312795397784	0.5852033044216117	166.6884077761976	0.09672088170434279	-0.2925303843443743	0.38925126604871707	109.73778632158998
15	6.0	ltm	49	diff_vonmises	0.18713592186369507	10.722098518079674	0.3274742421410984	109.15990720658394	0.3159219218961466	109.8594122051425	0.07802941672154518	-0.2435016314197398	0.32153104814128497	140.68023013134453
16	6.0	perception	49	diff_vonmises	-0.12052061458888588	-6.9053225602659785	2.1564462675005305	1.2214897652239138	1.9903583296896587e-15	2.1954983189959414	0.3099620635249735	-0.340592041885105	0.6505541054100785	93.55647897998773
17	6.0	wm	49	diff_vonmises	-0.01260877853445716	-0.7224297948395427	0.6044982415054851	153.6762787050095	0.5913434890307677	154.83300711107913	0.07725859406995284	-0.30381338197626917	0.381071976046222	108.12966094533402
18	7.0	ltm	49	diff_vonmises	-0.02489847029050297	-1.426577263977689	0.9529041500248616	146.27159720222048	0.9300627207157253	147.74092482659825	0.1522143268428522	-0.38123415721801557	0.5334484840608678	86.25812104711622
19	7.0	perception	49	diff_vonmises	0.02637657387763933	1.5112663612037498	2.2174213345856013	1.815740927945255	8.151157654659088e-15	3.3184684627904986	0.46845019948684863	-0.5163321248484164	0.984782324335265	92.31413369492137
20	7.0	wm	49	diff_vonmises	0.1674455633403742	9.59392407759394	13.556774894048004	0.3867961997970933	1.0067631543599057e-17	2.103343940853849	0.2277878317563236	-0.3347575852083327	0.5625454169646563	36.812603259307025
0	1.0	ltm	50	diff_vonmises	0.07646261204949115	4.380984960981996	2.4884829907725683	1.4389317508048742	0.39080826021877973	4.074253240658462	-0.07721253988382992	-0.5600781536948377	0.4828656138110078	69.59356802306476
1	1.0	perception	50	diff_vonmises	0.048071260644255244	2.75428035078916	7.63924836920503	0.9696200399155216	0.16461615946980807	3.5681920865503627	0.38539467835709673	-0.59195050188744	0.9773451802445368	47.331511096983746
2	1.0	wm	50	diff_vonmises	0.1762425278895958	10.097953018790543	3.3653848509983058	0.54260298069936	0.021347338293802597	3.216329850892469	-0.14367094275907677	-0.5040802658261166	0.3604093230670399	72.7522699318327
3	2.0	ltm	50	diff_vonmises	0.058080993675532704	3.327795807534051	3.4854027995282113	0.868289127130709	0.39187582683082994	1.9720820897565114	0.17165955625751034	-0.2887413475905179	0.46040090384802823	64.32317862957257
4	2.0	perception	50	diff_vonmises	-0.05177131811027559	-2.966278027547996	7.859516750737015	1.0933205325494046	0.0006689443765266387	1.9799801125902914	0.8867465074090312	-0.31502029977554696	1.2017668071845782	48.48237354204372
5	2.0	wm	50	diff_vonmises	0.019685536074691916	1.127898134532376	5.190359465005051	0.5254262322798194	0.10351123693165101	1.870377175401466	0.1355001908402465	-0.29590159324222376	0.43140178408247026	57.544574053514935
6	3.0	ltm	50	diff_vonmises	0.17707289975691115	10.14552982221411	3.401294976546323	0.505948522807802	3.755541349711723e-18	1.1437808729245917	0.17365634496667154	-0.1816432318430176	0.35529957680968915	74.39693247487116
7	3.0	perception	50	diff_vonmises	0.03755573358754745	2.1517850310841786	5.643616623010822	1.5018732103874914	5.563987069079906e-21	2.1063079862227814	1.0534679280354473	-0.3352119239782801	1.3886798520137273	57.39500151616812
8	3.0	wm	50	diff_vonmises	-0.001176697055130123	-0.0674197750244288	3.580460888249644	0.8325454525216456	0.2944024979677646	1.767088026680286	0.23279754293823274	-0.2594726866522251	0.49227022959045785	65.81331630575869
9	4.0	ltm	50	diff_vonmises	0.2326056697742193	13.327323168876505	0.6157285060548268	129.8229917176512	0.6034669164235368	131.15259597893348	-0.05240153765470268	-0.27817675400648767	0.225775216351785	100.14653640180313
10	4.0	perception	50	diff_vonmises	-0.064239837905711	-3.6806715886017654	3.0364110076263042	2.075944029798019	5.04674802499813e-14	3.87129949289361	0.7528274991982234	-0.6129811561166625	1.3658086553148858	78.84952350351833
11	4.0	wm	50	diff_vonmises	0.0387765586745232	2.221733156091581	1.0331000940046862	285.0095561133965	1.0201704129835856	287.1892959163366	-0.05772833136829547	-0.481349834755882	0.42362150338758653	77.0751831637474
12	5.0	ltm	50	diff_vonmises	0.07301948323741979	4.183708211730415	1.6185598307658657	1.0691461615422901	5.44118724345961e-16	1.9936754976492557	0.16769286774145775	-0.29825386496430223	0.46594673270576	106.87656247805347
13	5.0	perception	50	diff_vonmises	-0.006996958439641827	-0.4008961880199186	2.005203197926466	2.3336625436038583	2.2142959941979537e-18	2.7972128978837416	0.7605450141439885	-0.42333292336142264	1.1838779375054111	96.90279011369367
14	5.0	wm	50	diff_vonmises	0.07780002101128647	4.457612849975842	0.6831378429260162	179.23152346694516	0.6683739295648223	180.1580310192398	0.2456594373353269	-0.32331891252193756	0.5689783498572645	106.1608163008396
15	6.0	ltm	50	diff_vonmises	0.5484856916276272	31.42591525357699	0.8033700785524629	152.0235690681014	0.7911272627364224	152.5867502477621	0.18536245946651064	-0.20079698283184655	0.3861594422983572	98.31081795339463
16	6.0	perception	50	diff_vonmises	-0.019425529167897044	-1.1130008361287786	1.141158663097529	3.296718782664881	0.18593273905164556	3.6963297425232975	0.5115044335626832	-0.36040130973981993	0.871905743302503	114.19743701512454
17	6.0	wm	50	diff_vonmises	0.07702937027123685	4.413457815092365	0.6603618958241017	221.093088184324	0.6485574978571317	221.92149562332446	0.26854911720957375	-0.3178113155498714	0.5863604327594452	108.70097061482457
18	7.0	ltm	50	diff_vonmises	0.019733735291455903	1.1306597462287888	2.7535523835491444	1.2149616412394222	0.4426261110217421	2.7553129415357525	0.10709093143782045	-0.3735643312456438	0.48065526268346426	68.65572226401869
19	7.0	perception	50	diff_vonmises	0.0928468829741873	5.319734535365993	1.6657110734497889	3.5094623495864985	0.4451028072509809	4.755923888955295	0.4951499657006453	-0.4459828789446174	0.9411328446452627	87.69915396317717
20	7.0	wm	50	diff_vonmises	0.15583703039743	8.928804133624656	1.9204178709085329	0.8715244367044698	2.596654964484032e-13	2.4449927186193543	0.04955527861965575	-0.3797115419274178	0.42926682054707355	98.85183941587053
0	1.0	ltm	51	diff_vonmises	-0.04671971062655921	-2.676842238974346	1.1933475252475019	102.96922801619671	1.145220114400838	105.51998833864091	-0.02174041501456969	-0.597447564379614	0.5757071493650443	73.03496303828618
1	1.0	perception	51	diff_vonmises	0.05096480441989629	2.920068196969741	14.606388124435508	0.6635302742146658	0.05895719940861548	3.2850976953747706	0.44861544344930426	-0.5383781231312883	0.9869935665805926	35.12382153606322
2	1.0	wm	51	diff_vonmises	0.15446798034439166	8.850363343643398	3.3562737328160424	0.5414070783714954	0.07985914268253541	3.2911553135302305	-0.18864865795613633	-0.5098180438926382	0.32116938593650185	69.01896896243039
3	2.0	ltm	51	diff_vonmises	-0.060224712249219825	-3.450621834270127	2.9051662207178115	0.906984457818725	0.3156989229476554	1.871891600320802	0.18465843394733988	-0.25870867128669783	0.4433671052340377	71.24706261844378
4	2.0	perception	51	diff_vonmises	-0.053488195011960116	-3.0646478279580163	7.276961327783048	1.090990166860479	0.16814165567691014	1.9365467437647612	0.7904012374212667	-0.3148175705386772	1.1052188079599439	49.266991400333126
5	2.0	wm	51	diff_vonmises	0.007926437244586543	0.4541514006901144	4.928066729461731	0.4640985970677215	0.1426606717154302	1.7538681161687537	0.07897028510276533	-0.2780302260598591	0.35700051116262443	58.04429298072722
6	3.0	ltm	51	diff_vonmises	0.02380887234070596	1.364147900088213	0.9562348541393604	48.54918511786575	0.9193366756850114	49.11993074581568	0.15415083603496882	-0.18284867137934135	0.3369995074143102	89.7049241760528
7	3.0	perception	51	diff_vonmises	0.04796332883503582	2.748096313645676	5.2487475405122925	1.520881149023325	0.16403831041077319	1.9561868140905134	0.9888702467557134	-0.3025675544363708	1.2914378011920842	58.04746716047646
8	3.0	wm	51	diff_vonmises	0.06157207879747667	3.527820250942354	2.7200315788828617	0.94860981492736	0.4424946796618928	1.8047019218773395	0.16124867894121248	-0.2354859784006966	0.39673465734190905	70.74629796322313
9	4.0	ltm	51	diff_vonmises	-0.1461308406230076	-8.372680424397217	1.023779519400024	131.1976802456656	1.0077740644645399	132.38116831743545	-0.009482698425415492	-0.26682585668323	0.2573431582578145	78.57829758712754
10	4.0	perception	51	diff_vonmises	-0.06977455353798795	-3.9977874351363156	2.5369970290171793	2.4266496853166504	0.19668119381451937	3.610072454854447	0.7498264568393602	-0.48463389380451605	1.2344603506438763	80.2506754601923
11	4.0	wm	51	diff_vonmises	0.038373502319121705	2.1986397280211505	0.9915481212969447	226.54483594222202	0.9776269040228862	228.33937875742592	-0.00823572769131431	-0.403837061394686	0.3956013337033717	80.04751542347825
12	5.0	ltm	51	diff_vonmises	0.01822400934924834	1.0441588215188837	1.9991365331747644	0.9512544503402326	1.3063159090326532e-15	2.1466094280425385	0.1489664242261139	-0.3326421250928133	0.4816085493189272	97.0390152617727
13	5.0	perception	51	diff_vonmises	0.02507982658789495	1.436968214406369	2.337493145669245	2.0792150073807267	2.7167479785707244e-13	2.9920107790326105	0.7014504454415584	-0.4652095150896342	1.1666599605311927	89.95263326078151
14	5.0	wm	51	diff_vonmises	-0.023701782468714638	-1.358012102394514	0.5309335115973053	242.91876918641472	0.5210246871725752	244.1694429805061	0.13808729111745777	-0.3758867385857769	0.5139740297032347	117.2604504815425
15	6.0	ltm	51	diff_vonmises	0.510153186415836	29.22962448677812	0.916082577334628	123.40999913092146	0.8979199176596434	124.57143752148933	0.05238602421842842	-0.2773320879239769	0.3297181121424053	85.95920428925754
16	6.0	perception	51	diff_vonmises	-0.08650034724239836	-4.956104823405515	0.8981091012744659	5.443383047879582	0.27900722497465014	6.530541815710835	0.4072408707787989	-0.4800791298545623	0.8873200006333612	116.94384968676297
17	6.0	wm	51	diff_vonmises	-0.09401534940135395	-5.386682730145372	0.6267732199917607	87.08740929488	0.590516992174721	88.35768295552928	0.26301708232029597	-0.4254571319334026	0.6884742142536986	111.06322960377355
18	7.0	ltm	51	diff_vonmises	0.03459807891684808	1.9823239011959497	1.237104681305867	134.75867729547667	1.2110934943394198	136.16537805545588	0.1089159680346441	-0.3680195781250539	0.476935546159698	74.4203203056019
19	7.0	perception	51	diff_vonmises	0.047413190610926574	2.7165757152553938	2.9422137578231764	1.5625779609144674	0.14247409411953113	2.872255639980417	0.4876176407882734	-0.41372930418807735	0.9013469449763507	75.5911508056233
20	7.0	wm	51	diff_vonmises	0.35140306091732615	20.133912298541354	1.6414220942049522	2.6861409412500485	0.5840618384885116	4.188920276666937	0.12919752998912304	-0.3765039774815504	0.5057015074706734	80.31119844627804
0	1.0	ltm	52	diff_vonmises	-0.09061611388819182	-5.191920881670196	1.3916669269809447	82.76269337094334	1.3717652876814828	82.74006922862866	0.30428382473932203	-0.09729554342696556	0.4015793681662876	80.50304734583767
1	1.0	perception	52	diff_vonmises	-0.033804295131065656	-1.9368434404247001	11.199911472282402	0.5611810890297494	2.730016309352533e-23	0.591825600757495	0.646317056979112	-0.09419196967039642	0.7405090266495085	40.53071758686875
2	1.0	wm	52	diff_vonmises	0.12958483003305854	7.424663849814371	2.9554235596254057	0.4495170917558828	5.711684661274428e-32	0.42072672210239076	0.2249253370436835	-0.06616962983796502	0.29109496688164854	79.9424571934916
3	2.0	ltm	52	diff_vonmises	-0.06979559642410191	-3.9989931036994197	5.061599394992212	0.37676574252492695	6.302359958699042e-16	0.18194298251742244	0.29988859823773784	-0.028943925973939452	0.3288325242116773	60.67824644615618
4	2.0	perception	52	diff_vonmises	-0.04163136532802363	-2.3853015286630224	6.92613133716935	0.9762962495606609	4.602744313403266e-16	0.9339957803847292	0.8563149013871916	-0.14864907627090954	1.0049639776581012	51.71370763822307
5	2.0	wm	52	diff_vonmises	-0.0518890127379195	-2.973021432983356	3.0211110680204536	11.659751113923168	2.9000683406553054	11.52932184175477	0.26083163399609965	-0.048613839132143344	0.309445473128243	56.71606701946294
6	3.0	ltm	52	diff_vonmises	0.1239168659050626	7.099913426848655	1.7906255794819068	71.215334471	1.7734791565368373	71.03894124194201	0.28515309232930264	-0.05092338922474049	0.3360764815540431	73.86274371728706
7	3.0	perception	52	diff_vonmises	0.020061722266261007	1.149452015620385	5.00437269394365	1.599773253808498	0.31263282708689694	1.4620757107492268	1.0773770387384773	-0.2189864982647998	1.2963635370032771	58.87637777874289
8	3.0	wm	52	diff_vonmises	-0.07160114620396674	-4.102443485786449	1.7598137354845353	59.94502523124542	1.7293893209736442	59.89318133917343	0.3266672098572556	-0.09448869693780981	0.4211559067950654	71.89223127671238
9	4.0	ltm	52	diff_vonmises	-0.18706171807959962	-10.717846954427104	1.8212726633906506	100.46893582901373	1.8057485679610505	100.59407704196538	0.1935876205023419	-0.09689132565359415	0.29047894615593606	67.52413354296377
10	4.0	perception	52	diff_vonmises	-0.09748664050580864	-5.585573059891932	2.1921798040984264	2.927352205404972	0.3789188745625132	3.423917965031691	0.8276420227941998	-0.3778969501977789	1.2055389729919788	82.71562839607006
11	4.0	wm	52	diff_vonmises	-0.047334014936256254	-2.7120392832566838	1.43885800714359	108.9324105059819	1.4185072983140339	109.70404468067655	0.07030330940872176	-0.21639715388283953	0.2867004632915613	68.91784046709984
12	5.0	ltm	52	diff_vonmises	0.28222083373271933	16.17006266354815	1.1757775041005987	18.188316872310864	1.0965550878870245	17.9815590189583	0.3429431016914668	-0.08124336177661107	0.42418646346807787	91.38581215737878
13	5.0	perception	52	diff_vonmises	0.016119492333364287	0.9235788785952611	3.177623787572431	1.4742253209997775	2.6677828934244645e-20	1.2633249776617732	0.7965172867664425	-0.19933100221687175	0.9958482889833142	77.03905487924297
14	5.0	wm	52	diff_vonmises	-0.05967784547208689	-3.4192886759844887	0.5801475603898713	83.41258895465833	0.567050722152185	83.29217541251715	0.2374125831551197	-0.10524916742397039	0.3426617505790901	122.79674629023692
15	6.0	ltm	52	diff_vonmises	0.21508548557911514	12.32349055820523	0.884330838584151	37.776758299113254	0.8708709698758782	37.72642846542657	0.11289572626151134	-0.03677142440567627	0.1496671506671876	102.15889146158722
16	6.0	perception	52	diff_vonmises	-0.2167497763562488	-12.418847395617536	2.105534588027645	1.242537001865629	1.0207203238195838e-11	1.22756207513473	0.46578394754656954	-0.18556618482242804	0.6513501323689976	94.60882498229257
17	6.0	wm	52	diff_vonmises	-0.25255402107443825	-14.47027950662336	0.8025269632315248	41.69708970826008	0.765530583194717	41.885970202682735	0.23846292091362997	-0.1458400047206574	0.38430292563428736	103.22627155786967
18	7.0	ltm	52	diff_vonmises	0.012679023579874249	0.7264545394736467	1.3961630413139428	45.63957153118879	1.3598624839062992	45.675405145545035	0.28229197497768155	-0.10294000210851717	0.3852319770861987	79.77871946291219
19	7.0	perception	52	diff_vonmises	-0.028080747556507638	-1.6089083205601868	3.193118416959862	1.384939147924882	5.6340195610370447e-14	1.7258249044803786	0.6649991052785389	-0.27309037171794837	0.9380894769964873	76.84987103952125
20	7.0	wm	52	diff_vonmises	-0.21117892365367713	-12.09966104747113	0.00020725650614292183	5550.195583839558	1.8008714058563195e-28	5550.388455031535	0.15239098708718757	-0.21376482229618432	0.3661558093833719	178.71555506241
0	1.0	ltm	53	diff_vonmises	0.02157018644784135	1.2358806467715944	0.9503513636779432	174.18739493986777	0.928606121195975	176.76530277859695	-0.12618245216442858	-0.5420824193251725	0.41589996716074396	79.03315306861018
1	1.0	perception	53	diff_vonmises	0.03403048502614318	1.949803166781149	8.686019840193762	0.8416806518733586	0.025525100676532297	3.1941781652615115	0.4531201032901565	-0.5100968357670971	0.9632169390572536	45.772160230398754
2	1.0	wm	53	diff_vonmises	0.11022288617826094	6.315306183765208	4.095152851344236	0.43303903959285184	3.3873524916172167e-12	2.9804730836215154	-0.13713846147921493	-0.4742634918926211	0.3371250304134062	67.64167261416421
3	2.0	ltm	53	diff_vonmises	0.07510008677234707	4.302918013121748	4.162661848270947	0.6076840733625354	0.13939378557512272	1.978260507072002	0.11725548210995057	-0.30647181281160185	0.4237272949215524	63.063958111467485
4	2.0	perception	53	diff_vonmises	-0.04192450159136465	-2.402096999374698	7.876178202749005	1.1415366544071552	0.01760348774018737	2.3010651704726497	0.8835295329227874	-0.3658202460569049	1.2493497789796923	48.28395315015288
5	2.0	wm	53	diff_vonmises	0.007092232484083738	0.406354988663582	4.589248184632534	0.5497843560876943	0.09864990770185827	2.047871016781649	0.09646144522961686	-0.32104394928350427	0.41750539451312113	60.920029883657094
6	3.0	ltm	53	diff_vonmises	0.2000874675417934	11.46416742360561	4.327943786471361	0.4297066375592791	9.90119898743412e-19	1.1427491527885505	0.16291099344302243	-0.18181413264164667	0.3447251260846691	65.75357806401937
7	3.0	perception	53	diff_vonmises	0.04838442725872035	2.7722234760824116	5.627892176732751	1.6114921745272233	6.519863437537106e-23	2.1784304033184076	1.1411172458080832	-0.346688724192009	1.487805970000092	57.477184147038145
8	3.0	wm	53	diff_vonmises	-0.06879609434937405	-3.941725853202944	3.85523808965554	0.6685823003112177	0.19110467404857515	1.601511151526376	0.1980121803920898	-0.24206896443742948	0.44008114482951927	65.15520621820392
9	4.0	ltm	53	diff_vonmises	0.19649615630470285	11.258400446802415	0.44216105279210804	119.74456648073524	0.43063296428733516	121.11951116500552	-0.06637724623341867	-0.3002453659411284	0.2338681197077097	119.11349695362625
10	4.0	perception	53	diff_vonmises	-0.04480904551841747	-2.5673691922149167	3.1138470681590693	2.0399193102116446	0.034229295757889557	3.965021209569212	0.71168556734364	-0.6090761412155801	1.32076170855922	76.50152171658954
11	4.0	wm	53	diff_vonmises	0.08377308561955882	4.79984424278881	0.9295109624010279	214.0012397231844	0.9159428445109485	216.03518415728152	-0.11022663166522761	-0.4231838830238601	0.3129572513586325	79.3178441746802
12	5.0	ltm	53	diff_vonmises	0.2127606243168633	12.19028581992474	1.61327002261041	1.190328102074182	0.11480092092893995	2.195917203910411	0.1481751939604033	-0.2891835989659976	0.4373587929264009	99.44368545878274
13	5.0	perception	53	diff_vonmises	0.022337071348615067	1.2798199149582372	2.2613334795403115	2.2734645454805347	1.0743844175504464e-16	2.9355650301755767	0.7953822315083254	-0.4534971700327322	1.2488794015410576	91.4275840575086
14	5.0	wm	53	diff_vonmises	0.07613537289742676	4.362235538677267	0.6191210371850026	154.63506607353784	0.6029092796751763	155.7030256702494	0.19076873239788483	-0.34091795713846906	0.5316866895363539	110.2545794290983
15	6.0	ltm	53	diff_vonmises	0.4652509519654074	26.656915962061635	0.7760948742769546	122.97501019344273	0.7627000032624993	123.67376947968232	0.10733917097052625	-0.1988611061051433	0.30620027707566955	97.24145563139268
16	6.0	perception	53	diff_vonmises	-0.096883939207639	-5.5510408191997564	1.439548194023086	1.9444745814160675	5.04215497650228e-12	2.5329011362042086	0.41840347740469735	-0.35696173089764005	0.7753652083023375	112.34746795756791
17	6.0	wm	53	diff_vonmises	-0.03484401864268479	-1.9964152095009977	0.5252298302477945	178.10560648445673	0.5134942605200127	179.0845187169999	0.14778624779000893	-0.31911486408415435	0.4669011118741633	119.00126477093977
18	7.0	ltm	53	diff_vonmises	0.052989968436504865	3.0361015479431743	1.861465835145477	2.2007813550021034	0.719336645653679	3.4925828303951167	0.08029404541705731	-0.32337627062090046	0.4036703160379578	73.45129111802876
19	7.0	perception	53	diff_vonmises	0.05497913560771042	3.1500724315992294	1.4078839708423727	4.553843320161377	0.5168957053704021	5.593965015171169	0.5004951833766373	-0.41421985068401435	0.9147150340606517	91.73441475354312
20	7.0	wm	53	diff_vonmises	-0.10172536655245935	-5.8284341728771905	0.8778038746685519	1.2544742807168228	2.9401641422319074e-32	2.731516627782873	-0.03519434852995357	-0.3656924387619092	0.33049809023195564	133.75483417673217
0	1.0	ltm	54	diff_vonmises	0.005865615901506427	0.33607503540114186	0.8767781771029219	124.39828269274474	0.8540988401439675	126.23577375900295	-0.03884440662230304	-0.39647530025606237	0.35763089363375933	84.57836480565206
1	1.0	perception	54	diff_vonmises	0.0813768809298223	4.662551827217452	14.56752722953227	0.47106410602173593	1.1033048502781485e-26	2.520685688328159	0.30955673001349976	-0.4011795872782652	0.7107363172917649	35.501876367711276
2	1.0	wm	54	diff_vonmises	0.07900598790218397	4.526709663056782	7.075516987033851	0.2971592013609512	0.04777566567795347	2.3652657502319583	-0.08535876601906045	-0.37950659225562167	0.2941478262365612	49.75434941086115
3	2.0	ltm	54	diff_vonmises	-0.13130259099035363	-7.523084302879731	1.5512789515553767	3.0475277702932395	0.7246744040626766	3.973496599613848	0.19780551444739425	-0.2734110450125844	0.47121655945997865	81.15274153196216
4	2.0	perception	54	diff_vonmises	-0.020822153458363506	-1.19302151353796	6.833058929344795	1.06330716389798	0.1556593543343772	2.314049493481004	0.6592324450447956	-0.37448075945247483	1.0337132044972703	50.64776712661617
5	2.0	wm	54	diff_vonmises	0.12507089194282506	7.166034248260649	6.767537413183488	0.30765153870100603	0.08920740381292716	1.6877432599963251	0.01982780992555838	-0.2727398556033608	0.29256766552891916	50.44513656867565
6	3.0	ltm	54	diff_vonmises	0.09134940001761284	5.233935082061504	1.2080092584929967	214.62166324470462	1.1947354610865952	215.33370735912237	0.2568554747617213	-0.249288872629851	0.5061443473915723	79.76706668024255
7	3.0	perception	54	diff_vonmises	0.02980489549230428	1.7076947205375272	4.20834411882999	2.1105053040956974	0.3604456381062584	3.0067972505206395	1.003588752906047	-0.44274482290064343	1.4463335758066904	62.183889787871436
8	3.0	wm	54	diff_vonmises	0.28020078111472957	16.054322174142985	3.728783772346947	0.4763209786887793	0.10432737109911179	1.7578678098827243	0.04269332134579584	-0.2705747501674223	0.3132680715132181	66.77062538627547
9	4.0	ltm	54	diff_vonmises	0.07617150451240928	4.3643057277227575	0.9192947995085354	213.34310071248214	0.9070707983324665	214.90566556192348	-0.010030472560586645	-0.3466433404713314	0.33661286791074474	83.15077796023874
10	4.0	perception	54	diff_vonmises	-0.09304419353593035	-5.331039597807225	2.2532230453031157	2.893313544975141	0.32897353752954306	4.382596670469032	0.6598597734718434	-0.5296243454785177	1.189484118950361	80.74949644961092
11	4.0	wm	54	diff_vonmises	-0.07783586812051986	-4.459666738042659	0.8700959400154797	116.50295147519456	0.845012292007148	118.51367713128305	-0.07035007382295788	-0.42455184347954855	0.35420176965659067	83.97850751671956
12	5.0	ltm	54	diff_vonmises	-0.0015500032337440355	-0.08880864352516286	0.7820625114759947	44.59430358145035	0.7176527190229212	45.87465766578453	0.1796365800989328	-0.35916672938575633	0.5388033094846891	98.24117311839748
13	5.0	perception	54	diff_vonmises	-0.019912487147327573	-1.1409014731503662	2.755170304062386	1.8463500332437663	1.3015418133280968e-20	3.070516224013976	0.6628975117901691	-0.4840299060832343	1.1469274178734035	82.8423282921585
14	5.0	wm	54	diff_vonmises	-0.23511678841957362	-13.471199669111916	0.5977117298494857	173.33455114610467	0.5854578316550406	174.7348581457994	0.033651217129303745	-0.3378905969745176	0.37154181410382137	106.6544529903196
15	6.0	ltm	54	diff_vonmises	0.007327047828335111	0.4198089168540972	0.4296455454493235	161.58720026031074	0.4190602139143356	162.99079796461268	-0.009841865401035932	-0.3463558955387249	0.336514030137689	124.49554934095188
16	6.0	perception	54	diff_vonmises	-0.19824592643594705	-11.35865489044076	1.7365689603224446	1.7119261188673691	2.1521207953191698e-20	3.2363447608145006	0.295472121092488	-0.48993559236059214	0.7854077134530801	103.5119753677452
17	6.0	wm	54	diff_vonmises	-0.11469415941370278	-6.57149126920583	0.7419435952893677	111.60496137680822	0.7143155904857492	113.10707279313607	0.15674318874491888	-0.40052975355882836	0.5572729423037472	98.73955255315425
18	7.0	ltm	54	diff_vonmises	-0.05926807475576466	-3.3958105433711725	0.9108509536130434	245.28706237459636	0.8957591791811137	247.11418727359325	0.11671793595628799	-0.4481776723487556	0.5648956083050436	86.8673631211488
19	7.0	perception	54	diff_vonmises	-0.041516680091939165	-2.378730548662921	2.7755504576030003	2.212194745104636	0.20510422020120717	4.166425237517649	0.580015063778994	-0.5803461343156784	1.1603611980946724	75.83488874382476
20	7.0	wm	54	diff_vonmises	0.2530424881469228	14.498266608307837	11.538663011759292	0.6194750254765646	0.07958246336049629	2.536806610275635	0.39314765115729966	-0.4168954391462978	0.8100430903035974	39.3933551400082
0	1.0	ltm	55	diff_vonmises	-0.03072132276580816	-1.7602021355399806	0.9123011529594122	263.51920227428127	0.8996211886934692	265.620218065696	-0.04168960528461696	-0.45677267389276466	0.4150830686081477	82.66552613118711
1	1.0	perception	55	diff_vonmises	0.0503088235018638	2.8824832589253626	8.54051424618709	0.6647904002305088	1.815612255588211e-21	2.611036315085317	0.3474745131241182	-0.41555930700676624	0.7630338201308844	46.4896170244202
2	1.0	wm	55	diff_vonmises	0.06594433357559323	3.7783319966843414	7.95957883795246	0.30090851198572194	5.1060031966495026e-18	2.3460919589218228	-0.04039275727042452	-0.3733920915762521	0.33299933430582757	48.18186371662375
3	2.0	ltm	55	diff_vonmises	-0.09624219244046144	-5.514271437924316	2.854269220899344	0.8407607320642402	0.1248640926333973	2.168943806161707	0.145546891799675	-0.3181957648481499	0.4637426566478249	75.80006734800793
4	2.0	perception	55	diff_vonmises	-0.029920017197367265	-1.7142907083679861	7.007464694638933	1.1221139120826513	0.059015539161959715	2.5680363812379152	0.7290130739061604	-0.40901496757991074	1.1380280414860713	50.78078605793442
5	2.0	wm	55	diff_vonmises	0.019697240225915045	1.1285687330002443	4.776232789191677	0.44628137564936876	0.09592422078876925	1.9397278425068873	0.03861502858974064	-0.30596153699962975	0.3445765655893704	59.53635574003823
6	3.0	ltm	55	diff_vonmises	0.09974821579019393	5.715151778738308	1.1854006450077255	135.04593763282955	1.1659110098118648	135.83229527074553	0.19472019532885554	-0.24548723515393434	0.4402074304827899	79.39701472986238
7	3.0	perception	55	diff_vonmises	0.05225105598867841	2.9937649832530377	4.396867793596822	2.09753116267826	0.24858282828460793	2.7695073700469752	1.1411321697855112	-0.4134557190720352	1.5545878888575464	62.29055666382615
8	3.0	wm	55	diff_vonmises	-0.008761717229218379	-0.5020094185212708	2.203253707382068	0.8897110724402427	0.2547844723347083	1.9295277518664915	0.09661281362180829	-0.25260582657639713	0.3492186401982054	80.41065808283705
9	4.0	ltm	55	diff_vonmises	0.026466613138083805	1.5164252308176975	0.5079231636977132	136.70753034504884	0.49519072974779804	138.13735125379728	-0.026115235195618425	-0.3267817568784679	0.30066652168284946	113.49082516041035
10	4.0	perception	55	diff_vonmises	-0.0634159905146539	-3.6334686101313296	2.005296824146282	3.8571195185967864	0.4385518079757205	5.613947061528094	0.6719137442903276	-0.6011102507060362	1.2730239949963638	81.72722162437177
11	4.0	wm	55	diff_vonmises	-0.024488898830146322	-1.4031105478902433	0.7827330269314213	172.1580326553016	0.7691649914047725	173.98186748153137	-0.09700945331319133	-0.3705942885220104	0.27358483520881904	86.82135028379682
12	5.0	ltm	55	diff_vonmises	0.2369076120555471	13.573806305305471	0.9219495725193574	52.61581463711209	0.8683923747489452	53.75420648930128	0.17624382750808465	-0.3170990471418529	0.49334287464993754	89.88204922411106
13	5.0	perception	55	diff_vonmises	0.022314880149286443	1.2785484528943736	2.635715385399977	2.1144174641931297	6.510238322828603e-21	3.1564020434543445	0.7829011077612348	-0.4957551610964075	1.2786562688576422	84.71711858827581
14	5.0	wm	55	diff_vonmises	-0.07943517830150544	-4.551300461545437	0.48893054473296255	186.1035441761721	0.478240510965752	187.31925808829314	0.0758162106823903	-0.34096034141366616	0.41677655209605646	120.47418388763671
15	6.0	ltm	55	diff_vonmises	-0.26624432900435285	-15.254676371241949	0.0003618886053001353	2150.480805549334	3.3162515845608436e-26	2151.5150543507475	-0.04073596116546696	-0.2884532462468883	0.24771728508142132	177.96162286600725
16	6.0	perception	55	diff_vonmises	-0.2366431326537601	-13.55865275181493	1.6585987022387163	1.640641559215419	1.1026347090590628e-17	2.651340217614958	0.3333897088388107	-0.3945860306096847	0.7279757394484954	105.61220136003587
17	6.0	wm	55	diff_vonmises	-0.24260237224496492	-13.900092029498232	0.5469494865209966	122.91269734310015	0.5303886021631199	124.13181904612773	0.07482467960168648	-0.3283490054576479	0.4031736850593344	114.06878800189472
18	7.0	ltm	55	diff_vonmises	0.023631596409529387	1.3539907374225437	1.097859931390114	103.66531194422107	1.0701110595826822	104.89837427325423	0.10190651264410633	-0.31554417847757854	0.41745069112168487	79.50388608306343
19	7.0	perception	55	diff_vonmises	-0.03581940553613186	-2.0523007618878912	1.6440837839707274	4.284034454857744	0.5118903535217116	5.4143128488068735	0.614009571413876	-0.46222997896609375	1.0762395503799698	87.23629300555857
20	7.0	wm	55	diff_vonmises	0.18265474173148621	10.46534580926623	6.371333694984936	0.4237114539539088	2.0683315045958413e-20	1.953116696358843	0.10665759520879398	-0.3108469554943415	0.41750455070313547	53.96123055635178
0	1.0	ltm	56	diff_vonmises	0.020488174921448516	1.173885952924777	1.023896787654904	104.6624513148482	1.0013595886492515	105.5635872895917	0.1375575848776407	-0.24961457437184542	0.3871721592494861	84.20022983734185
1	1.0	perception	56	diff_vonmises	0.012359356784878428	0.7081389812699125	8.561344228497335	0.6311143198356612	3.7018288210911854e-17	1.603477108764313	0.47002467608221554	-0.25520128143132087	0.7252259575135365	46.43506485748375
2	1.0	wm	56	diff_vonmises	0.1493318971083129	8.556087450988192	3.8996998293619245	0.4115048426259341	3.5735937150539753e-19	1.3082887030020347	0.1037684058214362	-0.20809267454763003	0.31186108036906623	69.3631181886968
3	2.0	ltm	56	diff_vonmises	-0.015107427185953043	-0.8655918170563113	3.896749132648734	0.6557156081072251	0.35693951006856856	1.1019704699921298	0.2541693560035273	-0.16125526429759246	0.41542462030111976	63.66418768338656
4	2.0	perception	56	diff_vonmises	-0.039716733376127654	-2.275601198498488	6.934663275249132	1.0448080748495565	5.815956517697091e-19	1.5082383354325386	0.8362179726587126	-0.24004256640872534	1.0762605390674378	51.67769232812611
5	2.0	wm	56	diff_vonmises	0.0053450782746663015	0.3062504263054469	5.892786760054377	0.40459076549984263	0.14437391214325127	1.0180006954318472	0.19648466452821323	-0.1625253262535709	0.35900999078178414	54.234565374006564
6	3.0	ltm	56	diff_vonmises	0.17512108483700967	10.03369906491309	1.403072725174949	83.7250724599582	1.379653473033369	83.93266060588786	0.2650462379566605	-0.13647687115882334	0.40152310911548383	77.27607166863461
7	3.0	perception	56	diff_vonmises	0.0246006383487465	1.4095127507108571	5.3294310789671915	1.552569249464642	0.057160201152230944	1.8434418988181653	1.082155649797746	-0.2876167511633749	1.369772400961121	58.5343114241152
8	3.0	wm	56	diff_vonmises	-0.024322622962537725	-1.3935836424413948	1.8866703942402032	2.531539321383338	0.9658730586506447	2.9793554977918952	0.26178836429838814	-0.1891827140937098	0.45097107839209793	74.8241645987973
9	4.0	ltm	56	diff_vonmises	-0.05367900424703481	-3.075580391819916	1.1454973067251646	84.45074066115302	1.12452601681995	85.0820836429969	0.09961432910576207	-0.1778503447916222	0.2774646738973843	79.39028781415337
10	4.0	perception	56	diff_vonmises	-0.09499740316254655	-5.442950265916656	2.8534243601146363	2.126145935820304	0.05241298886842991	3.279329613301476	0.8034277779627094	-0.4922814221559904	1.2957092001186998	79.60170318673073
11	4.0	wm	56	diff_vonmises	-0.05713022846442314	-3.2733209736296076	1.248300681819511	210.1553648161801	1.2340940301842152	211.51242816428726	0.024972016208849368	-0.33424254219994154	0.3592145584087909	71.95076025600758
12	5.0	ltm	56	diff_vonmises	0.15612191159116137	8.945126623688113	1.9989396689853185	0.9148545068426526	1.2187820167638764e-10	1.2167809841982133	0.2781516902010195	-0.1849968750550541	0.4631485652560736	97.00327988779881
13	5.0	perception	56	diff_vonmises	-0.016658003603307353	-0.9544333015832289	2.5535769828850468	1.809843474815156	1.4779272482239042e-21	1.8566229461741446	0.7845088816890449	-0.2889531620031522	1.073462043692197	86.07297946252856
14	5.0	wm	56	diff_vonmises	-0.004838719841200217	-0.2772382251469844	0.6639572306658351	108.20783180877687	0.6491134531558335	108.50048673161474	0.22496698074485266	-0.17854860790812754	0.4035155886529802	111.43345418077618
15	6.0	ltm	56	diff_vonmises	0.3539547107755771	20.28011106621429	0.7038257481745435	75.32308968397467	0.6908442036771186	75.47793494312474	0.1425544278722093	-0.10258354180942231	0.2451379696816316	108.6231393019894
16	6.0	perception	56	diff_vonmises	-0.16026741608623124	-9.182646535208129	1.8575494953359415	1.4896308735344774	1.857655446706512e-13	1.6172497907366745	0.4774206401560669	-0.2394980145250414	0.7169186546811083	100.4020124796502
17	6.0	wm	56	diff_vonmises	-0.07939328289081296	-4.54890003133179	0.7815327914375098	98.14415466314448	0.7629808135245371	98.54770734626685	0.22798545531789216	-0.18764035735599816	0.4156258126738903	101.83919068919037
18	7.0	ltm	56	diff_vonmises	-0.01187085577879503	-0.6801499353334391	1.5916945422414257	2.9325522086637728	0.7951956016390164	3.5968598704172674	0.22794315678085986	-0.22541766978393352	0.4533608265647934	80.52357680584129
19	7.0	perception	56	diff_vonmises	-0.006823430498119889	-0.39095376934311865	2.5149532688242946	2.0096091761491848	0.1704247171147882	2.7885041129664057	0.6660073008654995	-0.3772764168220948	1.0432837176875944	81.53542029239935
20	7.0	wm	56	diff_vonmises	-0.19964122914650295	-11.438599846898777	0.0002583282959107559	4947.331742337633	1.1496711829279338e-31	4948.111261703789	0.07934852522066649	-0.32745097629344855	0.40679950151411504	178.84911419537002
0	1.0	ltm	57	diff_vonmises	-0.18062197818054518	-10.348877037049283	1.4262265919434782	206.75081014388297	1.4114583822574696	207.57396297874934	0.19925902938690854	-0.2664439922770576	0.46570302166396615	71.77875741797064
1	1.0	perception	57	diff_vonmises	-0.006381612995901975	-0.3656394911510203	11.403282468586964	0.700208173445153	4.579456021773534e-18	1.432017563029457	0.704395890167157	-0.22791267363440404	0.932308563801561	40.17104543495816
2	1.0	wm	57	diff_vonmises	-0.4176310883534229	-23.928498756106322	0.0004911578167197062	1731.0611336230959	1.0098482080654738e-21	1731.904876202135	0.0010480905370968685	-0.26958646384838403	0.2706345543854809	175.04810678188142
3	2.0	ltm	57	diff_vonmises	-0.008874163403399537	-0.508452109724244	4.613365783149262	0.36668098051134695	3.2755095948530158e-21	0.8584863093089145	0.16787706452656317	-0.1366023736485057	0.30447943817506884	63.637027705672864
4	2.0	perception	57	diff_vonmises	-0.037489410805924654	-2.1479850156116247	8.018662368706241	1.012843088983501	2.514158579851395e-12	1.3599425646984589	0.9087580176033603	-0.21644145950033838	1.1251994771036986	47.99956346129002
5	2.0	wm	57	diff_vonmises	-0.08972352720443	-5.1407794318410645	4.540055174040828	0.41480201200977945	0.17278371487920113	0.9209312906795121	0.16864895905952548	-0.14227711971508847	0.310926078774614	61.06586758117382
6	3.0	ltm	57	diff_vonmises	0.11503891753864003	6.591244454717578	1.921353250240331	1.6037118969921795	1.104009671550096	1.7592086694086864	0.17188003638780147	-0.09257797882885375	0.26445801521665524	73.95214436796593
7	3.0	perception	57	diff_vonmises	0.048487356416971585	2.7781208824390413	5.3099158553372945	1.578495629498332	0.2849632266714113	1.4403280751375371	1.114470529138531	-0.21927904979521393	1.333749578933745	57.40260461619815
8	3.0	wm	57	diff_vonmises	-0.1162220111268239	-6.659030724089503	3.479535481284287	0.6745997494814141	0.5551494228081886	0.8842758241909379	0.25295527375808213	-0.11700172030288486	0.369956994060967	65.53831787507903
9	4.0	ltm	57	diff_vonmises	-0.31268778190905405	-17.91569020869593	1.3466923666338424	93.30124404251946	1.3304934086428448	93.72865563846655	0.10061740228169214	-0.13515215836729944	0.23576956064899157	73.95283500430351
10	4.0	perception	57	diff_vonmises	-0.05944063287071594	-3.405697395078614	2.2550946736589936	2.9546632803340587	0.4176678697568398	3.7094191366049776	0.7795851964892789	-0.4116926996654202	1.1912778961546993	80.38722923731211
11	4.0	wm	57	diff_vonmises	0.020477432622546022	1.173270464535396	1.2331815706989122	110.6288120776766	1.2157755678990116	111.54047710882908	0.006079941620875218	-0.22063593919964397	0.2267158808205192	71.98510618625627
12	5.0	ltm	57	diff_vonmises	0.4010486296401754	22.9783938578873	0.8995927725467623	95.30657156057975	0.8814433953002625	95.63289233557603	0.2254322093673231	-0.16009873145883446	0.3855309408261576	95.37591279287284
13	5.0	perception	57	diff_vonmises	0.06147764654558702	3.522409681459161	3.180813986504775	1.6825435154515849	1.8072119351446693e-15	1.8964775409068075	0.8372356661530067	-0.29986667591799143	1.1371023420709983	77.002143562904
14	5.0	wm	57	diff_vonmises	0.004240301694248104	0.24295139094258875	0.46645495253256014	106.24729213307347	0.4522236939788593	106.61242487393346	0.19383577175460687	-0.21175361501426337	0.40558938676887024	128.70852796764808
15	6.0	ltm	57	diff_vonmises	0.43092298044662014	24.69006807478983	1.2225323359741882	48.45977018588729	1.200596886139666	48.82872270498075	0.05608484329284025	-0.10452335983424543	0.16060820312708568	76.58426310723704
16	6.0	perception	57	diff_vonmises	-0.22969132553060276	-13.160343543669033	1.7220729110400084	1.5048727574572278	1.0800832659975428e-13	1.8403779627857881	0.4160049087357473	-0.27026800699434417	0.6862729157300915	103.8687729435718
17	6.0	wm	57	diff_vonmises	-0.3797153990764861	-21.75608978320841	0.8922789231107837	2.2351213669232854	0.16365098038188267	2.8089665592310333	0.19499027705866978	-0.2565049154936027	0.4514951925522725	122.67963403560503
18	7.0	ltm	57	diff_vonmises	0.08292914062570517	4.751489756499801	1.409386564764869	62.21823297179163	1.383082876550725	62.50000775320144	0.17607792375926223	-0.12490171630525104	0.3009796400645133	75.34662108834522
19	7.0	perception	57	diff_vonmises	-0.013138071685375936	-0.7527560585123695	2.972671422298763	1.2224330521137945	3.65984511383039e-14	1.6186205908049902	0.5388394190353465	-0.2555262404870901	0.7943656595224367	79.7069162510684
20	7.0	wm	57	diff_vonmises	-0.23666215655191214	-13.559742740888929	0.0003131537487611653	2708.678286781525	5.497917327483496e-29	2709.1758627323734	0.055815345688188245	-0.2141775545205178	0.26999290020870603	178.38707094048607
0	1.0	ltm	58	diff_vonmises	0.26142835749262994	14.978741529364989	2.612307324000736	0.7800733908580023	0.3631576284358546	2.4837470712507974	-0.07837435878103366	-0.353061799624902	0.2746874408438683	68.18522005428852
1	1.0	perception	58	diff_vonmises	0.11075742039634724	6.345932738466878	4.345706719720761	1.5881358673582024	0.4960550997182796	3.236895550935896	0.4809099892931886	-0.5017995328737086	0.9827095221668972	58.24224686364951
2	1.0	wm	58	diff_vonmises	0.14350247346124495	8.222086079017439	3.7204548454639337	0.35648379849759526	0.021078743293323106	2.105875607668876	-0.07886268733915308	-0.33093113112567757	0.2520684437865245	69.33163381822234
3	2.0	ltm	58	diff_vonmises	0.16131202057851357	9.242497963876312	2.9033883705223076	1.695274541708887	1.1669808032208782	2.4371171743315863	0.18063115382538664	-0.2608705940604441	0.44150174788583074	60.21636585304779
4	2.0	perception	58	diff_vonmises	-0.01725565190582111	-0.9886760269504251	8.654022671264196	1.1254860080848512	8.230606133300086e-19	1.6308301253608133	1.0411220560868737	-0.25955463622299274	1.3006766923098665	46.17728164307388
5	2.0	wm	58	diff_vonmises	0.08185411900422218	4.689895554703516	7.303773771994268	0.37433963947173543	0.10498350780113799	1.3554881714638343	0.1572025265625831	-0.21976191737443287	0.376964443937016	48.97157292894718
6	3.0	ltm	58	diff_vonmises	0.2916366227551779	16.70954763532064	5.367091521253655	0.3829152664925082	0.30271628854000243	0.6633796579202349	0.20507080221659937	-0.10515991918197325	0.3102307213985726	55.78882014239957
7	3.0	perception	58	diff_vonmises	0.03027602665703841	1.7346885478738756	7.005843775919469	1.292744270370339	8.400706572306053e-20	1.7010668042635035	1.0680447208731958	-0.27073208996571213	1.338776810838908	51.40920306284647
8	3.0	wm	58	diff_vonmises	0.02990409395851305	1.713378373985461	7.384364393863109	0.42644947947346024	0.3086173431607171	1.0339608102567635	0.23507919014827797	-0.17683501180675137	0.41191420195502937	47.59953368023312
9	4.0	ltm	58	diff_vonmises	0.8080505318248665	46.29788510686646	0.7300949563573057	95.41664192491908	0.7148743924110632	96.3905695691533	-0.002858008814769164	-0.21573866647801943	0.21288065766325026	94.2916932433643
10	4.0	perception	58	diff_vonmises	-0.08054891239718015	-4.6151127247274175	3.8909422658058115	1.764683448007481	1.4468831845634584e-18	3.6297787424151067	0.758618322760739	-0.5771395868140182	1.3357579095747574	69.44280036560696
11	4.0	wm	58	diff_vonmises	-0.12214653326606653	-6.9984808382999235	1.3684220571825016	212.76576103345192	1.351025732873407	214.6071852032515	-0.08324796485460695	-0.44238675127339633	0.3591387864187894	65.84216281450435
12	5.0	ltm	58	diff_vonmises	0.07177169564407529	4.112215248902989	1.5941384512107084	0.872060691840641	3.3601364860237656e-17	1.406403919645846	0.16811699290608037	-0.207670762957816	0.37578775586389634	107.58824676792003
13	5.0	perception	58	diff_vonmises	-0.046111291847315786	-2.641982410747196	2.684850024116416	1.821373382585321	1.8743535577975646e-18	1.8087219654086637	0.8311971682599493	-0.28265666106115195	1.1138538293211013	83.93406170410768
14	5.0	wm	58	diff_vonmises	0.13256112144318705	7.595192786215774	0.768586675657411	119.14880178528908	0.7507994138680447	119.62363015212256	0.2649086723504581	-0.22093356824156274	0.48584224059202086	102.6422340645305
15	6.0	ltm	58	diff_vonmises	0.44341127385280454	25.405594580285253	0.7749366940431326	108.11664814751748	0.7610840089116931	108.2159230481514	0.25656683402068126	-0.13725925491831692	0.3938260889389982	105.45485266342666
16	6.0	perception	58	diff_vonmises	-0.01817121076695963	-1.0411336855894666	1.600938004663403	1.8074375064596533	1.8125364328299974e-16	1.663700724207602	0.5496854482981796	-0.23164873200426503	0.7813341803024446	107.41048209653101
17	6.0	wm	58	diff_vonmises	0.14703991313456316	8.424766442580708	0.7502531595514159	174.64698339116788	0.738013462293517	174.9794215081474	0.31099521340809844	-0.21423572241279665	0.5252309358208951	105.22179547706114
18	7.0	ltm	58	diff_vonmises	0.0837170950251726	4.79663621803805	1.6860843305670212	1.6032422517276788	0.36480817849501385	2.887266511051181	0.10525907714031091	-0.31529480389373843	0.42055388103404934	85.56344865715334
19	7.0	perception	58	diff_vonmises	0.02501760082386068	1.433402940750228	0.9838426890399575	215.5027407068939	0.9605305621344103	216.75128897818593	0.5351574981987142	-0.4718863011683325	1.0070437993670467	89.6911907719342
20	7.0	wm	58	diff_vonmises	0.3502565945276092	20.068224613056973	3.5175446780359674	0.5544781580481923	1.7407157425060113e-29	1.7135901311333097	0.1244567901246788	-0.2723766423473966	0.3968334324720754	73.11775522207577
0	1.0	ltm	59	diff_vonmises	0.025319981018100922	1.4507280496885402	0.9637709746934858	286.5650697545616	0.9506238749353251	288.7965521122887	-0.026559272875800843	-0.49477098271910336	0.4682117098433025	80.82075320241341
1	1.0	perception	59	diff_vonmises	0.07712941059264193	4.419189703290008	7.345883151335547	0.6595312278591372	1.790705253129615e-17	2.801156691570194	0.2541777127692883	-0.44581764228831927	0.6999953550576076	50.1915571916457
2	1.0	wm	59	diff_vonmises	0.10416252475754485	5.968073052034269	7.493502385795788	0.31996873871542947	6.644516771179713e-20	2.3763014980215136	-0.035002646658844006	-0.37820002332843966	0.34319737666959566	49.67792077643625
3	2.0	ltm	59	diff_vonmises	-0.11520555874834978	-6.600792292726902	2.0972984938121084	1.9235942841316855	0.5582947683779604	3.117717285486559	0.2177822409157496	-0.3343307821690238	0.5521130230847734	75.85527278016605
4	2.0	perception	59	diff_vonmises	-0.03690103414571848	-2.114273516217808	6.545404847030417	1.1257313784393324	0.020219551721037312	2.4759151831835573	0.7231677275221657	-0.3924502443105275	1.1156179718326933	52.943286589319854
5	2.0	wm	59	diff_vonmises	0.030477637816839716	1.7462400164332281	5.021807107869356	0.4773838540495434	0.13613504377465488	1.8826688656355688	0.07314954518666078	-0.2990633890751788	0.3722129342618396	57.56968180968849
6	3.0	ltm	59	diff_vonmises	0.09949640847307517	5.700724282216891	1.174247579194719	163.278343009606	1.156823432523027	164.04489762567192	0.2436282270391601	-0.2568416740469708	0.5004699010861309	80.61507024823302
7	3.0	perception	59	diff_vonmises	0.054000511905367206	3.0940014237234963	4.455403619863215	1.9527176486720235	0.14073074335775226	2.698518990216142	1.0998279092894583	-0.40963979142541335	1.5094677007148716	62.91906831897825
8	3.0	wm	59	diff_vonmises	0.06448436071686252	3.694681713675422	1.786689377124661	1.3939497802070857	0.3653858854133769	2.435154128396385	0.13121162599657277	-0.2702811385940623	0.40149276459063504	84.59600458618328
9	4.0	ltm	59	diff_vonmises	0.2689105773640949	15.407441149388848	0.2880223516048563	117.65280657630946	0.2753886308110737	119.09884557464811	-0.0329147151793272	-0.3708818101430307	0.3379670949637035	142.42321090078576
10	4.0	perception	59	diff_vonmises	-0.09513659525812324	-5.450925385534783	2.5062257649293507	2.7348722224634794	0.20503118811529844	4.58244304287507	0.7281156753494843	-0.616965619498388	1.3450812948478723	79.83347486455568
11	4.0	wm	59	diff_vonmises	-0.022176356542419184	-1.2706116348579501	0.8721498622034515	163.99715039925653	0.8545287832967654	165.9346997846473	-0.05730163497214136	-0.4127340634050398	0.35543242843289846	84.08769914982284
12	5.0	ltm	59	diff_vonmises	0.14112864545722548	8.086075753097159	1.6534009398164362	1.636712174653829	0.26164539949441296	2.729712137589454	0.19731287858986124	-0.31188005227243853	0.5091929308622998	91.75347192017895
13	5.0	perception	59	diff_vonmises	-0.013821700870038606	-0.7919251255455101	2.3872190050612763	2.2974619313664806	7.045686027293362e-16	3.13195484359271	0.8191924144759712	-0.48734098109542306	1.3065333955713943	89.01739820744407
14	5.0	wm	59	diff_vonmises	-0.0577626976313695	-3.309558787567789	0.570259985295581	184.94145339206472	0.5589484698769106	185.96846937222062	0.1296732149405031	-0.30920010014789234	0.43887331508839544	113.56560777938364
15	6.0	ltm	59	diff_vonmises	0.25016963386190527	14.333664182620257	0.560595807880372	120.02047215403451	0.5483719680759761	120.90260515315852	0.05062755359416471	-0.23308689485070744	0.28371444844487215	112.14881629071783
16	6.0	perception	59	diff_vonmises	-0.21408123161431006	-12.265951044462618	1.508410101667355	1.9540319752168478	2.5745609543620804e-14	2.7228102921740076	0.4159044616554713	-0.3917707809232203	0.8076752425786916	110.04923149991879
17	6.0	wm	59	diff_vonmises	-0.11177892590316967	-6.404460692757175	0.693104921541126	135.86824728750892	0.6764096333943538	136.86235197678963	0.15360841302730677	-0.29237077635175446	0.4459791893790612	103.35999300992066
18	7.0	ltm	59	diff_vonmises	-0.03546984290871959	-2.032272298661664	1.1168578102633084	72.09391215549986	1.0709221835798666	73.52516922177658	0.11224976754570193	-0.36494365627337366	0.4771934238190756	78.99775714043238
19	7.0	perception	59	diff_vonmises	-0.034610339217231174	-1.9830263646634636	1.114105878976679	306.83694537285044	1.0937986718230623	308.0876334370176	0.7165736147005646	-0.5293282356303521	1.2459018503309167	84.91911945320237
20	7.0	wm	59	diff_vonmises	0.24196751407837416	13.86371733596317	7.707234996559251	0.5179932577780635	1.256206257186503e-15	2.1193915727665185	0.22644773327023598	-0.3373115312085736	0.5637592644788096	48.976030698904395
0	1.0	ltm	60	diff_vonmises	-0.050148100456741354	-2.8732745067693557	0.9701284906290464	227.13906175121875	0.9540935193729435	229.11345898512235	0.03358444984306175	-0.4557096042762012	0.48929405411926297	82.12073458973657
1	1.0	perception	60	diff_vonmises	0.039991928594977695	2.291368723080774	12.621001011974771	0.5396008948322408	7.82840599543599e-24	2.6085179910566585	0.3416236156236216	-0.4151585324125539	0.7567821480361755	38.162920012162914
2	1.0	wm	60	diff_vonmises	0.12855031529655836	7.365390521568822	5.874165871461531	0.36162203628680983	9.717406230089409e-23	2.3987652515809104	-0.04030364723318375	-0.3817726479822717	0.3414690007490879	56.23864049945692
3	2.0	ltm	60	diff_vonmises	-0.1371911156683562	-7.860471914487911	2.2749059668775056	1.3297489284362756	0.37495672032277727	2.329410586426062	0.22021865166424226	-0.2843218699536502	0.5045405216178924	77.84614279946877
4	2.0	perception	60	diff_vonmises	-0.0471647922352453	-2.702343536690952	6.641923823064767	1.063415037775768	0.08213639499559663	2.202482726301632	0.6911246446208338	-0.3505435499805101	1.041668194601344	51.992171406334506
5	2.0	wm	60	diff_vonmises	0.014515902603593773	0.8316999550088865	5.001197696996036	0.4419831224819106	0.12195666509462999	1.7409864590817328	0.07143508842298318	-0.2758618637714534	0.34729695219443657	57.960399688259855
6	3.0	ltm	60	diff_vonmises	0.03049190011475312	1.7470571859098243	1.0726752747070474	234.78098827503067	1.0615575929497951	235.4920851960767	0.23928687136373128	-0.24241809468491837	0.48170496604864965	84.63058176521957
7	3.0	perception	60	diff_vonmises	0.03730923642483475	2.1376617839987917	4.1793091542046	2.057981181775369	0.2903742514088077	2.7531645274672187	1.0468465530177538	-0.4047880896243999	1.4516346426421536	63.297330685669124
8	3.0	wm	60	diff_vonmises	0.09684950856956766	5.549068088952326	1.5894544202650671	2.137905170135554	0.5714982027553801	3.18669105093343	0.13006832628691256	-0.27550960206614084	0.4055779283530534	82.44746954227512
9	4.0	ltm	60	diff_vonmises	-0.08097009848521136	-4.639244909961231	0.8149975785605739	185.2648566996563	0.8028187071976682	186.59723555843237	0.025560158258258525	-0.3051822125769057	0.3307423708351642	90.07384413353702
10	4.0	perception	60	diff_vonmises	-0.08287740219412869	-4.748525362731843	1.837937327835056	4.258757920901369	0.47342874178336697	5.669729436510261	0.7164252979615675	-0.5494050876234424	1.26583038558501	84.42117261578619
11	4.0	wm	60	diff_vonmises	-0.01521917966522944	-0.871994762468972	0.8952071228468382	197.01606570361116	0.8801122529340167	198.87173467123506	-0.025108784156778086	-0.4060608165637589	0.38095203240698083	83.95585547665326
12	5.0	ltm	60	diff_vonmises	0.09463813082540422	5.422365477302599	1.689322574015244	1.4936679056012596	0.1938417522616829	2.5665900654954057	0.20419182596766722	-0.31398789837152197	0.5181797243391892	93.85434259585907
13	5.0	perception	60	diff_vonmises	0.00449152020143694	0.257345151140086	2.3923836834124903	2.0766934364407548	4.702376491414633e-13	3.018481950498415	0.7121489762319455	-0.47044076961325154	1.182589745845197	88.92210856811809
14	5.0	wm	60	diff_vonmises	-0.12648033639674827	-7.24678946692857	0.5375141023843265	204.48732965675606	0.5273806917878067	205.6203288826997	0.10375743488578593	-0.3264560006567798	0.43021343554256575	115.93982705424598
15	6.0	ltm	60	diff_vonmises	0.1702185929383528	9.752806970022974	0.46705786175445474	114.28798719625972	0.4550383925483759	115.33047730399726	0.0065831745058524405	-0.2602283363926734	0.26681151089852584	120.47583411969813
16	6.0	perception	60	diff_vonmises	-0.1869726246869705	-10.712742279046955	1.6218458275309162	1.848168686527529	6.289764249078485e-17	2.9342844163644886	0.3724029235657141	-0.4342511537582519	0.806654077323966	106.70917041294035
17	6.0	wm	60	diff_vonmises	-0.15064625006391807	-8.631394328134913	0.6682526957522221	127.16906169840207	0.6477227323372095	128.39394107235427	0.16009819253248025	-0.3508058293437344	0.5109040218762146	104.91675080460524
18	7.0	ltm	60	diff_vonmises	-0.04547805011987114	-2.605700332353044	1.1477148771585164	138.47529437855223	1.1226127872478495	139.84607706376747	0.14788820854011675	-0.36457253199170836	0.5124607405318251	78.27179178460801
19	7.0	perception	60	diff_vonmises	-0.0051859944903941925	-0.29713559687768537	2.5840243201232904	2.1422182819385966	0.21163712415100366	3.4797652030454596	0.6104343068987156	-0.46931802642379183	1.0797523333225074	78.79825307867205
20	7.0	wm	60	diff_vonmises	0.24517096781847258	14.047261715136207	7.448995902670699	0.5398159621939868	5.079481638484605e-16	2.0974921525395	0.24338829814814966	-0.3338260486384239	0.5772143467865736	49.82756507636438
0	1.0	ltm	61	diff_vonmises	0.5726601238420981	32.81100819159127	0.00024644207114045777	3061.2469303362523	3.6114647426689577e-32	3062.4439417281674	-0.07043385882622033	-0.31057190630713194	0.2401380474809116	170.28665602370654
1	1.0	perception	61	diff_vonmises	0.0163356912505914	0.935966164087673	10.670811590950173	0.6757803836242761	3.439480372953217e-16	1.9207049542632044	0.5641878738917572	-0.3056896872233603	0.8698775611151175	41.53345850077028
2	1.0	wm	61	diff_vonmises	0.024508210504509808	1.404217025326602	3.8718673028317814	0.3521738833390114	2.777506545021547e-17	1.8088476599019805	-0.021921161911982956	-0.28777174130006966	0.2658505793880867	69.6194994345856
3	2.0	ltm	61	diff_vonmises	0.22083840713172437	12.653108683039585	5.147280293047199	0.3486691774042459	0.04582118654099817	1.247255089600775	0.09931924062783981	-0.19661683672723163	0.29593607735507144	58.91969977664962
4	2.0	perception	61	diff_vonmises	-0.017591666324731574	-1.0079282350095355	8.978179180489356	1.0152995527581234	0.047594474322796676	1.8518471503088507	0.8869007717235556	-0.2966742775011199	1.1835750492246755	45.05078661231519
5	2.0	wm	61	diff_vonmises	0.08119590574471865	4.6521827129144135	7.049951312410674	0.3120439476415838	2.8789762725966705e-24	1.4139222467798016	0.09916386206333408	-0.22503247071051125	0.3241963327738453	51.24709345995606
6	3.0	ltm	61	diff_vonmises	0.3065462010633513	17.56380354669878	3.647928436523981	0.5803590650460114	0.38773840493689726	1.0374214650198035	0.18973137828095685	-0.1495473090294695	0.3392786873104263	64.69849513532216
7	3.0	perception	61	diff_vonmises	0.005239032385063135	0.3001744443964752	6.200197424566952	1.5816022770776947	0.134997621022917	2.1806446007016076	1.1411208994156368	-0.34465231051666745	1.4857732099323042	53.68279412728867
8	3.0	wm	61	diff_vonmises	0.005260664381484755	0.30141386649387614	6.327388036382676	0.47414089174134444	0.35600357107579306	1.383162920030435	0.1610191611966995	-0.23604684404252355	0.3970660052392231	50.06066274891862
9	4.0	ltm	61	diff_vonmises	0.03804835858889714	2.180010364544142	1.3002361421413737	164.88292725001943	1.2842222651003143	166.01280492648593	0.0347503971547809	-0.28620863958202847	0.32095903673680937	70.89971476881001
10	4.0	perception	61	diff_vonmises	-0.031457068658986925	-1.8023572700132071	3.5048194507544976	1.63936490662412	0.004113623009687458	3.2257421326600206	0.6564161591583211	-0.5102246400429136	1.1666407992012346	73.10883709220556
11	4.0	wm	61	diff_vonmises	-0.04467223189392629	-2.5595303489516845	1.0826215629629512	163.8179351354745	1.0663070380693207	165.64210589001019	-0.14431127203637573	-0.3849624715301019	0.24065119949372615	71.36823028156977
12	5.0	ltm	61	diff_vonmises	0.19009610543088917	10.891704543063877	1.9288525906996932	0.9522998257139808	0.08537482009011987	1.5818333076631719	0.20692570719757192	-0.2205854071527615	0.4275111143503334	94.23908632253833
13	5.0	perception	61	diff_vonmises	0.011161444997833295	0.639503691643252	3.040154878334096	1.5234972807502112	8.91375700067954e-20	2.0666114246553606	0.676437498791316	-0.3266114434215857	1.0030489422129016	78.8010184423716
14	5.0	wm	61	diff_vonmises	0.01616535538617288	0.9262066379567792	0.5943627386519184	45.73544953862783	0.5546270343013922	46.5927863380848	0.12271570990466962	-0.26430773487684434	0.38702344478151396	113.00881751297842
15	6.0	ltm	61	diff_vonmises	0.1919008615509295	10.995109451792594	0.4865689203349849	76.62073244192908	0.4704447907572259	77.09131780723793	0.1165885832058251	-0.1862616848706793	0.3028502680765044	124.71174139006311
16	6.0	perception	61	diff_vonmises	-0.07773942054772486	-4.454140699177224	2.230907604525328	1.114252087062689	1.780360310795247e-15	1.8202915945048062	0.32409442051145454	-0.28262327178927016	0.6067176923007247	92.03668036329
17	6.0	wm	61	diff_vonmises	0.0025936360006567796	0.1486043964308235	0.5306919662877443	152.33813115848915	0.5187426347875668	153.2634600308069	0.1099118938359922	-0.28291457128612585	0.39282646512211805	117.63416663960955
18	7.0	ltm	61	diff_vonmises	0.1300027576475615	7.44860933826736	0.8564702739197599	110.40411571958961	0.8339725029107148	111.50607969853071	0.13223555800731646	-0.29395114797963373	0.4261867059869502	91.7512564126935
19	7.0	perception	61	diff_vonmises	0.03786447412374159	2.169474560772709	1.9591554580890882	1.6692909592672132	1.8512234761003516e-17	2.880321537985051	0.3920552395863072	-0.4415142860996229	0.8335695256859301	97.96921225692327
20	7.0	wm	61	diff_vonmises	0.1705764355313047	9.773309840329135	4.980839250920457	0.36834814381998005	1.5364001528652751e-28	1.6792383742488148	0.051483416057639675	-0.26724405052296435	0.318727466580604	61.18078149180661
0	1.0	ltm	62	diff_vonmises	-0.08708934297180691	-4.989851792851854	3.154377093845796	0.7711356467592985	0.21353467886883576	2.2285099353694013	0.08550954478154682	-0.32855326040029437	0.4140628051818412	69.4215642750948
1	1.0	perception	62	diff_vonmises	0.019737237560925387	1.1308604114881078	18.66834891259541	0.5493016610740348	0.014899040606796518	2.252538446918227	0.5764270432326603	-0.36123242907673586	0.9376594723093961	31.276726255819767
2	1.0	wm	62	diff_vonmises	0.08911041555030709	5.105650721689537	2.5679363484245545	0.5583923728963497	0.08160802832761355	2.3607664593727926	-0.07269069203927347	-0.3541664910873008	0.28147579904802733	78.96999158036792
3	2.0	ltm	62	diff_vonmises	0.0015119916902811045	0.08663074251195882	3.3727784716183247	0.4938843415088562	1.1993686884969102e-13	1.1433039177030047	0.16362318318142166	-0.1815560257915461	0.3451792089729677	74.72348719304296
4	2.0	perception	62	diff_vonmises	-0.04361759183481337	-2.4991039246590865	7.939905476841604	0.9744723819421586	0.18400327518588655	1.5965362796395162	0.7738959452424892	-0.26254145971522314	1.0364374049577123	47.2357024005797
5	2.0	wm	62	diff_vonmises	0.04337458345667443	2.485180570205406	6.5200570051763345	0.3142122053741586	0.05597224922467266	1.3025122109212646	0.09430280638754579	-0.20776970537319836	0.3020725117607441	52.23647934651416
6	3.0	ltm	62	diff_vonmises	0.06523851525978068	3.7378915860852504	1.0377546169572798	110.93954000217313	1.0223772543509126	111.35891942424232	0.17674508573855974	-0.15605264723319223	0.33279773297175197	86.99151871767737
7	3.0	perception	62	diff_vonmises	0.016376561869651453	0.9383078780659009	5.133209928107363	1.619320608240798	0.322540219963478	2.050407905810996	0.9849141702316062	-0.3158522049593895	1.3007663751909957	57.490341766879624
8	3.0	wm	62	diff_vonmises	0.08591389355568557	4.922503502276985	3.1249961380089952	0.9289126409511476	0.6102723392941892	1.7466843927449374	0.15543080943846393	-0.2359214928959419	0.3913523023344058	64.3816507579144
9	4.0	ltm	62	diff_vonmises	-0.09175038116936383	-5.256909609721131	1.4554293877195013	223.68449876782546	1.44287367937157	224.6801823731717	0.07515889631979178	-0.27668934323976657	0.35184823955955835	68.02513602176026
10	4.0	perception	62	diff_vonmises	-0.061905573643270734	-3.5469280980957203	2.2519808926705362	2.6234672512863684	0.3278279334519584	3.5299400242098335	0.6940929500127567	-0.41821810561150186	1.1123110556242586	81.7955022023423
11	4.0	wm	62	diff_vonmises	-0.014135132811030475	-0.8098834529289377	1.0839942768601054	203.12854441552156	1.069257464133793	204.74031823112148	-0.009838777118616804	-0.36936877320004413	0.3595299960814273	76.33715419722995
12	5.0	ltm	62	diff_vonmises	0.02798067501973926	1.603174586558191	1.8857022411586346	0.9849297204258575	1.4093787916779985e-11	1.8244936888936283	0.19991582605520336	-0.279089765355682	0.47900559141088533	99.7476749363363
13	5.0	perception	62	diff_vonmises	0.027134285181086536	1.5546800209806313	2.645026736245083	1.622991840789854	4.9902499409956326e-18	2.404643824082174	0.6058118520187459	-0.3777265261321411	0.983538378150887	84.56986648731441
14	5.0	wm	62	diff_vonmises	-0.11394726346516813	-6.528697283619374	0.5132331696948775	184.54940471643283	0.5028644596011683	185.59325667255342	0.09995310444374184	-0.30870508803289454	0.4086581924766364	118.79267463387308
15	6.0	ltm	62	diff_vonmises	0.22407638345361314	12.838631060447106	0.5910826392900966	104.22196628157363	0.5771867255756844	105.15370029883083	0.030260834268108994	-0.22966655281402026	0.25992738708212926	107.84768669975239
16	6.0	perception	62	diff_vonmises	-0.07788337930258578	-4.462388928254714	1.7096449771600388	1.7599801744724572	0.043825069313317346	2.9523906514206106	0.33469457806830943	-0.4225012864511792	0.7571958645194886	101.81086930496937
17	6.0	wm	62	diff_vonmises	-0.12068060069364882	-6.914489088849632	0.6208128844216578	129.5733018609353	0.5986835604958828	130.79175369426838	0.21994125784839014	-0.39051589254764174	0.6104571503960319	110.41321692724144
18	7.0	ltm	62	diff_vonmises	0.0072994035324988275	0.41822501537506707	1.1225270598222832	180.37087071402507	1.1050732124238476	181.51139982143016	0.17610193192913925	-0.31919889251688005	0.4953008244460193	80.11977759635278
19	7.0	perception	62	diff_vonmises	0.05316659342705317	3.04622141445813	3.4787944191090965	1.1553356078189603	4.257353456526859e-19	2.4716713569039235	0.4291278772144834	-0.3925961896739147	0.821724066888398	73.5457952974973
20	7.0	wm	62	diff_vonmises	0.3363298189441833	19.270279149900823	3.251446719554358	0.8470413665854938	0.20907943710032237	2.1335696815545546	0.1666309629813526	-0.31342452944326965	0.48005549242462225	69.43619210612974
0	1.0	ltm	63	diff_vonmises	-0.02374161095544726	-1.360294106588686	2.8883394835820844	0.7065388355908023	9.249170345439057e-16	3.114389379103815	-0.042872788882720725	-0.49426708857009627	0.45139429968737554	80.8839654569403
1	1.0	perception	63	diff_vonmises	-0.013449185214537083	-0.7705815506827235	14.125318096231757	0.6515840360450287	1.4997862091381527e-18	3.086726509804655	0.4766530446484815	-0.49126778200768356	0.9679208266561651	36.05430599861836
2	1.0	wm	63	diff_vonmises	0.08616331102557073	4.936794070638236	2.9059618695419016	0.6010535227862844	2.599299327556503e-13	3.282793511282484	-0.13591002637485688	-0.5213163423389169	0.38540631596406	80.62932888572823
3	2.0	ltm	63	diff_vonmises	0.06874081702023938	3.9385586955407716	2.733516258323473	0.6502797551570892	4.066921162761891e-18	2.075035312079066	0.07348844606568322	-0.32854682341925673	0.40203526948493995	83.17083173113252
4	2.0	perception	63	diff_vonmises	-0.060852152050035566	-3.4865714867553983	7.467121187919528	1.0838117143994932	0.09155439841834116	2.4192967038100264	0.7389783065568305	-0.3888758649633963	1.1278541715202268	48.98231668534311
5	2.0	wm	63	diff_vonmises	-0.04329497924493667	-2.480619584841367	3.57472209143629	0.6424966142173478	0.08492477293022498	2.3266064853088753	0.06192797423437052	-0.3574053850086341	0.41933335924300463	68.7542693655416
6	3.0	ltm	63	diff_vonmises	0.07335897031148787	4.203159388273761	0.940991111112252	5.230500683580866	0.5578891225730236	6.256669687615278	0.11704939207573006	-0.2767334624326529	0.39378285450838296	98.10450928274034
7	3.0	perception	63	diff_vonmises	0.015132109222225843	0.8670059935645316	4.634953270942892	1.9823751937658896	0.17725963050896418	2.936626729459204	1.0969864021860862	-0.44779686449634143	1.5447832666824277	61.25375926196773
8	3.0	wm	63	diff_vonmises	-0.043052894592379355	-2.466749155964942	2.4195596655147398	1.2430373077473746	0.33717138793630047	2.669998767246942	0.13979924631939633	-0.34956236617017994	0.48936161248957627	75.20174916192084
9	4.0	ltm	63	diff_vonmises	-0.10870680399607763	-6.22844107333112	0.8863029741320191	107.74733910069492	0.8595411884129615	109.453511832001	0.012345962107382036	-0.3844321851604331	0.39677814726781513	85.91446660276097
10	4.0	perception	63	diff_vonmises	-0.019731009388996166	-1.1305035635224814	1.6598584546254251	5.00532547331943	0.4916219655978881	6.791668216056904	0.6405231767981554	-0.6124145925133	1.2529377693114554	86.29128130170054
11	4.0	wm	63	diff_vonmises	0.129493230032497	7.419415556378798	0.7901922892693404	265.99467086535947	0.7783414487942776	268.4158868928759	-0.12320374501932463	-0.494254360043648	0.37105061502432335	86.5665732244374
12	5.0	ltm	63	diff_vonmises	0.1618844886463703	9.275297968070513	1.9120166603594861	1.0961553390598409	0.03355317160804061	2.2530160136976827	0.17957139467416933	-0.33463093917271286	0.5142023338468822	96.88701435000269
13	5.0	perception	63	diff_vonmises	0.046959660268135694	2.690590340732355	2.024142700083887	2.1828703928398476	3.545254726353878e-14	3.2260870389928358	0.62082264690779	-0.49365093520580994	1.1144735821135998	96.46369770309335
14	5.0	wm	63	diff_vonmises	-0.038321173761747464	-2.195641522535598	0.5424561030556903	187.55660449667513	0.5290246339529788	189.02398048769552	0.10324000508173725	-0.40368901246809585	0.5069290175498331	114.79085115265462
15	6.0	ltm	63	diff_vonmises	0.3111983048713352	17.830349460752995	0.39071825068294214	91.17455137368431	0.37563217392267684	92.18564415243826	0.025157385109771724	-0.2777064021374116	0.3028637872471833	130.79512851932338
16	6.0	perception	63	diff_vonmises	-0.051172646640593566	-2.931976679020322	1.715194054107133	1.6099756542182406	1.4344609686124492e-13	2.8350355133803777	0.30536988507106394	-0.4267160594675053	0.7320859445385692	104.17032812947282
17	6.0	wm	63	diff_vonmises	-0.06257150374793378	-3.585083082543618	0.4270726854139122	208.210923777608	0.4167332810474533	209.74974832381463	0.040846497260879744	-0.41405122017439666	0.4548977174352764	126.56425615217253
18	7.0	ltm	63	diff_vonmises	0.004446760362220268	0.25478060126128654	1.727119610535929	3.5574938556208813	0.8186819209638867	5.15009889755302	0.09666387322405345	-0.4025622479409185	0.49922612116497195	73.38641138106428
19	7.0	perception	63	diff_vonmises	0.12689472303863336	7.270532072595185	2.1090751834207024	1.583656201126329	2.9797480015846116e-17	2.898994977214623	0.38215683750889223	-0.44896685574590006	0.8311236932547923	94.5603313753696
20	7.0	wm	63	diff_vonmises	-0.48052987703205924	-27.532333883877428	0.0006244289175280058	1817.321459281742	2.9282743297448533e-27	1819.2685047073535	-0.12925260479266854	-0.49045482238722116	0.3612022175945526	173.47763982733312
0	1.0	ltm	64	diff_vonmises	0.049595416014568613	2.841608020830315	1.5337469851435486	1.7671544961085586	0.31970536079513195	5.086199026037808	-0.31066603296018436	-0.621859725006551	0.3111936920463666	79.99303027110815
1	1.0	perception	64	diff_vonmises	0.04933299589213475	2.826572455355549	9.550836983300071	0.8903770114697888	0.0565463388112719	3.8940708712499927	0.4273004444800268	-0.629924995034155	1.0572254395141818	43.335635630536956
2	1.0	wm	64	diff_vonmises	0.050701942500917856	2.9050073184175673	3.5994004583049253	0.4955531421040833	0.056674893103588767	4.0397750671340384	-0.3203631888592327	-0.632606016176467	0.31224282731723424	67.2146509706867
3	2.0	ltm	64	diff_vonmises	0.14934782670917235	8.557000149886766	3.6838138354814665	0.5358645347762029	0.02501505195808226	2.3338674371024437	0.01295702343927091	-0.36543445927972423	0.37839148271899514	69.84969757614843
4	2.0	perception	64	diff_vonmises	-0.03211518880808115	-1.8400647769688268	7.990437449450751	1.2508725382854051	0.15185579835404003	2.9993873908190873	0.8346295674992036	-0.49303827553026314	1.3276678430294666	46.934396574360534
5	2.0	wm	64	diff_vonmises	0.057846520973362105	3.3143615112886473	4.40916395368306	0.5241177564370244	0.058260179983700186	2.626594121594075	-0.017921938212660526	-0.4125238423822394	0.39460190416957885	62.568303820305914
6	3.0	ltm	64	diff_vonmises	0.22638900509524582	12.971134520123275	4.493901423908228	0.40828874599204384	2.0027490195980768e-20	1.4167967380156619	0.10887781310499797	-0.22544843348369573	0.3343262465886937	64.48934217756474
7	3.0	perception	64	diff_vonmises	0.045107018208794564	2.584441769783683	5.748793912896083	1.734530762971651	0.06135243180455342	2.6967471349966554	1.1633851584944306	-0.42366997597373224	1.5870551344681627	56.200404681899585
8	3.0	wm	64	diff_vonmises	-0.06945613950056344	-3.9795436546541705	5.256004699571619	0.462832755845242	0.10637698239997638	1.9114264151416356	0.07473938884956771	-0.30372657381760165	0.37846596266716936	56.87302974584995
9	4.0	ltm	64	diff_vonmises	0.18936288436726506	10.849694070668122	0.5479758713989975	162.18206508790104	0.5358088706302087	164.25140776439153	-0.15345043020928983	-0.4045877455019671	0.25113731529267724	102.10888731942327
10	4.0	perception	64	diff_vonmises	-0.005473515428109102	-0.3136093331303935	2.9931737294837513	2.155153555473374	0.1358979746518795	4.51350674109801	0.5905138999082347	-0.6577865893725441	1.2483004892807787	74.70996643638443
11	4.0	wm	64	diff_vonmises	0.23493543134071845	13.460808673908694	0.675422848264394	193.80580190123595	0.66233440765459	196.42368168693824	-0.24347364783067604	-0.4919830957250326	0.24850944789435658	88.20363417105253
12	5.0	ltm	64	diff_vonmises	0.1998416523882518	11.450083252767316	1.3525220911307723	1.9001389495756065	0.26155853066836815	3.441834359906054	0.07373812140721314	-0.37149631650880743	0.4452344379160206	96.5085097712763
13	5.0	perception	64	diff_vonmises	0.04684127675129188	2.6838074648532886	2.3538345352305887	2.2442244792592754	1.996225812593106e-15	3.6791790572638203	0.6908484781057248	-0.5740381149260463	1.264886593031771	89.63880934959485
14	5.0	wm	64	diff_vonmises	0.04992354848715431	2.860408626630668	0.5332835050752098	64.56158938087253	0.4904385066892246	66.5028249149844	0.04239938002581667	-0.4870414881376055	0.5294408681634222	115.18935528251049
15	6.0	ltm	64	diff_vonmises	0.23120421078042222	13.247025483371283	0.4556084422846574	60.78334052449508	0.4269267232666146	62.18498843335297	-0.004280285703151421	-0.34588181083987823	0.3416015251367268	122.35888012987854
16	6.0	perception	64	diff_vonmises	-0.05262780771307569	-3.015351266985278	1.3488078084268693	1.9318413324738901	3.7298490900757873e-13	3.3420895195266507	0.2529953054879154	-0.47903416793545334	0.7320294734233688	115.37837802146316
17	6.0	wm	64	diff_vonmises	-0.022509844284216606	-1.289719074982291	0.35202570117360826	216.91533082841542	0.34211471201614196	218.70416518610259	0.0001654054093052082	-0.47125235482942784	0.47141776023873305	135.24633073382296
18	7.0	ltm	64	diff_vonmises	0.11417153076364096	6.541546853304668	1.035610393039386	145.71767652786775	1.0125581045681002	147.62506350760387	-0.02227100462301479	-0.4288155192719323	0.4065445146489175	78.0496508057042
19	7.0	perception	64	diff_vonmises	0.0928809366586584	5.321685667763057	1.3593351042081379	3.3660316700104698	0.2937452899074194	4.891683736072047	0.35177926771942913	-0.48413973925674586	0.835919006976175	98.52331177240205
20	7.0	wm	64	diff_vonmises	0.05303433909590595	3.038643799461069	1.5644366585536185	1.2749270956459438	0.2543046973690392	3.4719233764838675	-0.1346846562222752	-0.4301567636423098	0.2954721074200346	85.85859987242915
0	1.0	ltm	65	diff_vonmises	-0.16966506617188373	-9.721092222456774	0.9258553432914945	133.32453183519075	0.9059342356972564	135.56383873405076	-0.2197757054309477	-0.44135290798156745	0.22157720255061975	74.77243996662247
1	1.0	perception	65	diff_vonmises	0.057854655263488264	3.314827571782211	9.446976011343168	0.8336999887590457	9.006616866875167e-19	2.7342858372966488	0.5727143863351678	-0.43517510055137343	1.0078894868865413	44.17835212258083
2	1.0	wm	65	diff_vonmises	-0.05388693891938266	-3.0874941709598835	7.763968452732046	0.228861302457438	6.4633302492026415e-21	2.630437490492708	-0.16861247360238069	-0.418647083992215	0.2500346103898343	48.79362785351873
3	2.0	ltm	65	diff_vonmises	0.2273071606223177	13.023740956761104	4.352879825256638	0.3666731809597034	1.1700154692999194e-11	1.8873087424601906	-0.0052086981272106425	-0.30032562741649005	0.2951169292892794	65.55203067962529
4	2.0	perception	65	diff_vonmises	-0.006172442342450553	-0.3536548955102603	8.79012453794981	1.2207516724304055	0.15792823614744908	2.6070743491161656	0.9390485509353408	-0.4319795537211532	1.371028104656494	44.894284132709686
5	2.0	wm	65	diff_vonmises	0.09361056564316442	5.363490329185668	5.409250877953727	0.34925226754459227	0.03146978613030144	1.99919235255369	-0.012529271555323462	-0.316751076825295	0.30422180526997156	57.43051239511357
6	3.0	ltm	65	diff_vonmises	0.26414789354108537	15.134559467175169	5.4473799613272496	0.36617937758110125	0.3014211558140229	0.9523055342825799	0.13200531101214558	-0.15504747850895723	0.2870527895211028	54.3272139094542
7	3.0	perception	65	diff_vonmises	0.05140648642615889	2.9453747118154587	6.149569736099774	1.6511186426022453	0.15543515407461608	2.0881063623741105	1.2114322834301365	-0.32954486473245975	1.5409771481625962	53.8384394082463
8	3.0	wm	65	diff_vonmises	-0.13551658484965753	-7.76452836591189	8.243193531511764	0.29552698755326823	0.20106716637535768	1.1585802468357551	0.1098266941541017	-0.1964709140065997	0.3062976081607014	45.284472872514584
9	4.0	ltm	65	diff_vonmises	0.14558318430112632	8.341302028529762	0.7095190178497026	117.06229944209467	0.6966599740262085	118.43778221516627	-0.10358121600436476	-0.26741151125206386	0.1638302952476991	88.73172126605536
10	4.0	perception	65	diff_vonmises	-0.013526303562292077	-0.7750001065321068	3.5502591471969	1.7997604661536188	0.13173384621429576	3.6935825239360454	0.6280913362002614	-0.5520156369774754	1.1801069731777367	69.30558161609372
11	4.0	wm	65	diff_vonmises	0.16462641911581724	9.432399011688146	0.8592311496552729	101.26230836928829	0.8415225147235925	102.9873782049405	-0.19532315040681425	-0.32857176511522823	0.13324861470841398	74.93211955094995
12	5.0	ltm	65	diff_vonmises	0.343357455196873	19.67293304713308	0.782111802558702	122.88637045795198	0.7635888667189248	124.05741686821325	0.08721396140427373	-0.2943590667391227	0.38157302814339644	94.69905248598727
13	5.0	perception	65	diff_vonmises	0.053454767020966756	3.0627325451564955	3.3923630552255055	1.8007413559862178	4.738846409537309e-16	2.9170547730397365	0.7998563377713823	-0.4628340652445293	1.2626904030159116	74.50095968370226
14	5.0	wm	65	diff_vonmises	0.08817631558307312	5.052130735923723	0.45033908999991556	46.93570161310402	0.40769189705772796	48.39985684120141	0.03322922453678778	-0.3885437125219511	0.42177293705873886	125.48216464055882
15	6.0	ltm	65	diff_vonmises	-0.4069241180619545	-23.315034547033225	0.000242380338174576	3468.903311256587	8.619416417648015e-34	3469.9877008453045	-0.03876336410314707	-0.3063923461950253	0.26762898209187824	175.3080641191852
16	6.0	perception	65	diff_vonmises	-0.17828458328689736	-10.214954174587833	1.6196678617702311	1.431136873478913	1.1979215535172697e-19	2.491444780689795	0.25294843516366855	-0.3710723309844102	0.6240207661480788	106.7802608109643
17	6.0	wm	65	diff_vonmises	-0.2489649826696877	-14.264642753520787	0.30375098775051024	127.03665602879963	0.2904561572566317	128.39718602082783	0.01842461732397993	-0.3826709050922972	0.4010955224162771	141.74754915446607
18	7.0	ltm	65	diff_vonmises	0.9797645666355389	56.13637458468049	0.00021763332027204517	4323.73229474	7.263120543957342e-24	4324.819852035854	-0.023319470236287998	-0.3228444723085886	0.2995250020723006	153.55324126655356
19	7.0	perception	65	diff_vonmises	-0.006191808251920259	-0.35476448038930686	1.798058890347136	2.05344893045227	0.1564833245983483	3.1208312225016717	0.41577340590360945	-0.3965678420022559	0.8123412479058654	94.2991696871972
20	7.0	wm	65	diff_vonmises	0.12936197803590088	7.411895370921175	2.69070595802882	0.3608194084905228	0.04391665981334898	1.7098697488610384	-0.062247648803920974	-0.2621958941641927	0.19994824536027173	79.53436597375236
0	1.0	ltm	66	diff_vonmises	0.055435461613384966	3.176217985806444	4.2347305354462215	0.4186587904094616	5.724899198898663e-19	2.6593920556799495	-0.09123119657431278	-0.42318573714296387	0.3319545405686511	66.48591307326018
1	1.0	perception	66	diff_vonmises	0.02371033032062919	1.3585018582331208	12.460602722435267	0.7331494934351857	0.06504363084386731	3.0622152281727812	0.5018816711668169	-0.5010192079089436	1.0029008790757605	38.00638759278297
2	1.0	wm	66	diff_vonmises	0.07481623938074008	4.286654755556871	2.6568586189007934	0.5914983202093047	0.05866670846221488	3.2354200011699015	-0.18435595005684047	-0.4940939850646629	0.30973803500782243	78.20517551461558
3	2.0	ltm	66	diff_vonmises	0.14365645547035266	8.230908598260255	3.917568705389216	0.4540558621013015	7.550830553676875e-15	1.6546832768228275	0.08179094433313422	-0.2632144800658223	0.34500542439895654	69.19672373275466
4	2.0	perception	66	diff_vonmises	-0.03968285189748654	-2.2736599327686893	8.293143118875618	1.0797220337903193	0.13526405441419834	2.214298454232003	0.8188785451825005	-0.36226637099757725	1.1811449161800778	46.32626657257646
5	2.0	wm	66	diff_vonmises	0.05953995653007359	3.4113882215656024	5.901834596875879	0.3962930255114723	0.009531923572145001	1.9661828993657013	0.05920791866305658	-0.3120573556261805	0.37126527428923706	55.75823798011265
6	3.0	ltm	66	diff_vonmises	0.2131346098930755	12.211713615040468	2.963340534940243	0.5519684857867648	0.06119874769075893	1.3234836756812407	0.1352584040954289	-0.1998864037761398	0.33514480787156875	77.01753187502646
7	3.0	perception	66	diff_vonmises	0.015311524268050433	0.8772857184714268	5.76290236778596	1.6263366877280072	0.11329428921828387	2.4622920132995887	1.0829871686039358	-0.38661439982787044	1.4696015684318062	55.70301773083821
8	3.0	wm	66	diff_vonmises	0.02139926530541431	1.2260875866809704	4.418922966376346	0.6393044124300189	0.27908493908848486	1.9353620081565894	0.11944795222815013	-0.3051448989640924	0.42459285119224255	59.04833164668625
9	4.0	ltm	66	diff_vonmises	0.018013701434680895	1.0321090656159713	1.079449972695476	185.1808018595884	1.0638998016236494	186.78362025203157	-0.02612121048998972	-0.36238910201071306	0.33626789152072334	75.9761727021426
10	4.0	perception	66	diff_vonmises	-0.0252453769004824	-1.4464535486147012	2.9000877900667934	2.027308819465492	0.09649294837178511	3.7541595869419786	0.6457345729247613	-0.5513497641727193	1.1970843370974806	77.3079779387403
11	4.0	wm	66	diff_vonmises	0.06070559229343798	3.478174231255892	0.8823381384527603	226.51275582408982	0.8687786935125777	228.84799953724814	-0.1541833706204585	-0.4733582800897196	0.3191749094692611	80.33797835688296
12	5.0	ltm	66	diff_vonmises	0.09676639625756606	5.544306104249059	1.852439912309552	1.0145794868246516	0.015416078167121493	2.1266563178098936	0.15591078552859916	-0.32097680495353503	0.4768875904821342	99.51394689600525
13	5.0	perception	66	diff_vonmises	0.027335474078844464	1.5662072957070496	2.321814690273961	1.8986276944682334	5.566925427000677e-17	2.871828629484003	0.6140083426355447	-0.4467577155059026	1.0607660581414473	90.251521684778
14	5.0	wm	66	diff_vonmises	-0.0029590737911983403	-0.1695424395034407	0.5588063391508167	180.83350303307404	0.545263447536805	182.2762418554304	0.09284186491079538	-0.38748509098692807	0.48032695589772345	112.72167464045158
15	6.0	ltm	66	diff_vonmises	0.3023783148645922	17.325001258019057	0.46749424957409025	111.95956721063911	0.4528800973689062	112.95750240285037	0.06629820127554353	-0.28696197823901315	0.3532601795145567	123.05841612758474
16	6.0	perception	66	diff_vonmises	-0.006375510910747098	-0.3652898674254164	1.7053414894373233	1.6101839813815084	4.786984677723869e-24	2.822538682016487	0.3047819439033958	-0.4243231050760765	0.7291050489794724	104.44996454146319
17	6.0	wm	66	diff_vonmises	0.041035644421252127	2.3511692349373083	0.4963373853470591	245.82455292946696	0.48626957287903955	247.28944753425503	0.10423391743556465	-0.41650041174407804	0.5207343291796427	119.90061642748927
18	7.0	ltm	66	diff_vonmises	0.051199353881917646	2.933506891230629	1.038307966511813	158.0128474321584	1.0163431139313506	159.71359832863953	0.06851287323669197	-0.4089348076554309	0.47744768089212286	80.32515570652572
19	7.0	perception	66	diff_vonmises	0.11765889731164851	6.741358238120608	2.1763538893080985	1.5084778156567362	2.1184301219337505e-16	3.0325334856058537	0.3361484691700294	-0.47210281987049924	0.8082512890405287	93.13792489372634
20	7.0	wm	66	diff_vonmises	0.15628187373057112	8.954291779158176	2.482236529421824	0.7410234147001336	0.10486988894805882	2.6482785819044676	-0.03190100247921851	-0.39005259102111967	0.35815158854190116	79.61997088758409
0	1.0	ltm	67	diff_vonmises	-0.24358170798911302	-13.956203834364223	0.9955818325306333	173.04307395906721	0.9776528808633609	175.37973359645827	-0.20100643094608017	-0.47632812139162795	0.2753216904455478	73.64189980058953
1	1.0	perception	67	diff_vonmises	0.047141635672484083	2.701016763376704	11.621393640510481	0.7874512476300767	2.3043913383025813e-18	2.8086014030004702	0.6117653755870798	-0.44700279637710144	1.0587681719641813	39.78590896646355
2	1.0	wm	67	diff_vonmises	-0.06667623946035263	-3.8202671148818435	5.553069272830578	0.27102761829164546	0.020280998480090934	2.8906029923610603	-0.22096134184365993	-0.4592623565711897	0.23830101472752976	56.52146479043898
3	2.0	ltm	67	diff_vonmises	0.35089734406540646	20.104936857297716	1.4501005647524072	0.688157936664429	4.701800260783859e-37	2.222703672667371	-0.06171539112500257	-0.3376885101391117	0.27597311901410915	111.53092016430747
4	2.0	perception	67	diff_vonmises	-0.012629594581128556	-0.7236224664599611	8.571133433625864	1.2244148015836467	0.2291674446595735	2.624519074684042	0.8893909560827511	-0.44443538866106225	1.3338263447438132	45.064674957114676
5	2.0	wm	67	diff_vonmises	0.08064943129343545	4.620872033244159	5.1244036596840346	0.3275244589178464	0.02030119052669695	2.034208061394418	-0.042642365470935306	-0.3220680575917573	0.27942569212082197	59.29320958397537
6	3.0	ltm	67	diff_vonmises	0.22996050854847755	13.175766594509852	4.734967563299327	0.35421017978385105	0.2406483758668492	0.9797223055167382	0.10282084059848015	-0.15466965369041227	0.2574904942888924	58.321814860428844
7	3.0	perception	67	diff_vonmises	0.05058169467274561	2.8981176253676835	5.658899468102537	1.7678558044081307	0.29230450313308576	2.1853166999929274	1.1808972369774893	-0.3433181612943883	1.5242153982718776	55.19284407642294
8	3.0	wm	67	diff_vonmises	-0.14183547160963647	-8.126573908479779	7.433431607378493	0.30116205787324296	0.22554786003841726	1.2171443089946452	0.08200359849661473	-0.20640830667328558	0.28841190516990034	47.147002905787815
9	4.0	ltm	67	diff_vonmises	-0.08087360828483073	-4.633716428715049	0.8808803791638796	151.00455263877	0.8686530181050324	152.3894281547572	-0.0866270295296303	-0.281988639414017	0.19536160988438667	80.72060028591045
10	4.0	perception	67	diff_vonmises	-0.0017803611365848119	-0.10200717913542402	2.8903382906800523	2.2024557671291727	0.2900370978246777	3.8337945744889894	0.6135253006833709	-0.5216944253276682	1.135219726011039	73.06744541073746
11	4.0	wm	67	diff_vonmises	0.19631607773283172	11.248082704653456	0.8215759953871341	103.40477290324678	0.8046920803263705	105.08248598823519	-0.1775611473742167	-0.31868561745723234	0.14112447008301565	77.86415924770384
12	5.0	ltm	67	diff_vonmises	0.3470827148482887	19.88637470274957	0.7793892478352077	150.30119493472966	0.7633345327320854	151.64216312314932	0.0629988436302753	-0.3222617757180295	0.3852606193483048	93.69650562076038
13	5.0	perception	67	diff_vonmises	0.07668164011036346	4.393534344464915	3.3669371004541833	1.7647210795645336	8.374365654078437e-17	3.1566006338859687	0.7311495893510825	-0.500920556672379	1.2320701460234615	74.79132640876296
14	5.0	wm	67	diff_vonmises	0.027698575297447174	1.587011463069042	0.33008563390563495	110.38536519085478	0.3134282461665131	112.12561812892739	-0.0388279664062523	-0.4371446834037087	0.3983167169974564	137.70002693144014
15	6.0	ltm	67	diff_vonmises	-0.6456447388633828	-36.992718601697995	0.0001348947852217798	6130.136050448917	1.9616087341866116e-32	6131.565298470915	-0.09585850610255875	-0.35907639242839196	0.2632178863258332	168.44091076511378
16	6.0	perception	67	diff_vonmises	-0.18767144646415052	-10.7527818175112	1.633485930930203	1.419941841503963	7.2253406155507e-21	2.8797381690889616	0.18940637653480813	-0.43363121520994635	0.6230375917447545	106.37445010764847
17	6.0	wm	67	diff_vonmises	-0.38569446905819604	-22.098665258573753	0.2600093793450221	103.25659847313314	0.24224769016005782	104.9762756933957	-0.02030535887744378	-0.463074250747292	0.44276889186984825	145.96817120654327
18	7.0	ltm	67	diff_vonmises	0.32137586320254274	18.413480598879396	0.8743267301599568	124.33835147885618	0.8579058465417853	125.43238168696952	0.04510054310134848	-0.25936452434112667	0.30446506744247515	87.90938807172213
19	7.0	perception	67	diff_vonmises	0.009972273487252442	0.5713691829697725	2.199122614560429	1.3900412406064118	1.4544249141617236e-16	2.472580483894772	0.3656676977696253	-0.3841850394129885	0.7498527371826138	92.68687687293021
20	7.0	wm	67	diff_vonmises	0.18586152546666126	10.649080983102959	1.5692443785840753	1.0784594064684903	0.3638380286659151	2.493895740940397	-0.07256090570276774	-0.2849336815829362	0.21237277588016845	81.99622979473037
0	1.0	ltm	68	diff_vonmises	0.20302738959740127	11.632612549489366	2.321312567097444	1.1312744809075785	0.2754066906778935	4.222765480684583	-0.23049527260108205	-0.5989432328908899	0.36844796028980786	72.06300477570824
1	1.0	perception	68	diff_vonmises	0.10725022562344244	6.14498528004909	5.229273571164037	1.2609202680075446	0.25650532527044506	4.365150760208589	0.23647734435585244	-0.7102425577747322	0.9467199021305847	54.92177200356511
2	1.0	wm	68	diff_vonmises	0.14677983052399896	8.409864806670635	3.6439155519992323	0.5151705895396097	0.0707951436318556	3.7170183341372476	-0.25790231504370253	-0.5811326924319525	0.32323037738825	66.46615461234973
3	2.0	ltm	68	diff_vonmises	0.0732472371443397	4.196757549364541	2.673191819820151	1.2582858659456742	0.5297655792382127	2.5588566425496513	0.12554213755186472	-0.3320867266790559	0.45762886423092064	68.37840363441043
4	2.0	perception	68	diff_vonmises	-0.032394853314038935	-1.856088372839819	7.734017159799342	1.1768446949680393	0.07673377601757324	2.5568254477699437	0.8443865055704389	-0.4103267687250065	1.2547132742954454	48.26008727511663
5	2.0	wm	68	diff_vonmises	0.0884945129405534	5.0703621015595575	5.884098312254659	0.455003962180523	0.07363618767456626	2.1572015689928903	0.06101766155270444	-0.34409441271709557	0.4051120742698	54.370300776125305
6	3.0	ltm	68	diff_vonmises	0.2293434020482546	13.140408996536989	4.005124314663692	0.5301718659028157	0.025675688323652406	1.3812032748764236	0.1824011912141039	-0.21604932362876864	0.3984505148428725	67.49863518363017
7	3.0	perception	68	diff_vonmises	0.03546166201049456	2.0318035677207438	5.83530385655148	1.577309045532801	2.7758417689338744e-15	2.6373088903852913	1.0646553884891032	-0.4197280678010734	1.4843834562901765	56.423824767965726
8	3.0	wm	68	diff_vonmises	0.06200681878041697	3.552729017150423	5.04484356537924	0.5423636921933583	0.11644416770723685	1.9343360121685131	0.12776631051478948	-0.3057726974496296	0.4335390079644191	58.0665991325817
9	4.0	ltm	68	diff_vonmises	0.5841126526786723	33.46718975867884	0.6153376921086483	204.1873563785755	0.604077646438631	206.17934823950412	-0.09497793013999711	-0.40936997830292654	0.3143920481629294	99.26305423787298
10	4.0	perception	68	diff_vonmises	-0.06576404315443028	-3.7680021164650683	3.4293489749014023	1.9101916329282238	7.156828960180827e-18	4.385734291901387	0.6510508585101307	-0.6965943182243078	1.3476451767344386	74.08932937466716
11	4.0	wm	68	diff_vonmises	0.04293520725996493	2.460006168515442	0.8698339144419206	141.70796910650392	0.8442946491844446	144.52598507364982	-0.18909385856551353	-0.5681419374728058	0.3790480789072923	81.10039221355126
12	5.0	ltm	68	diff_vonmises	0.008310099448648451	0.47613362574154866	1.8078948742006526	1.0358742231380518	2.0860174938567374e-16	2.287908831226892	0.13847595766407128	-0.350612331244086	0.48908828890815725	101.71679742595057
13	5.0	perception	68	diff_vonmises	-0.03057499489798419	-1.7518181662885193	2.1324953439102083	2.3357212926647324	1.1442430856167406e-21	3.242962537645492	0.7362940582004167	-0.49853370416999865	1.2348277623704154	94.08002821095519
14	5.0	wm	68	diff_vonmises	0.05071527581067078	2.90577126079335	0.6535113117345562	189.7334333098821	0.6385707161324803	191.1227816832087	0.15951250901634495	-0.38940483087788635	0.5489173398942313	105.46561121881888
15	6.0	ltm	68	diff_vonmises	0.42887628201203654	24.57280089255216	0.606888830795733	173.31095079333974	0.5941393728771583	174.25494344899417	0.16858258154123718	-0.3035931893648556	0.47217577090609275	111.23096431851673
16	6.0	perception	68	diff_vonmises	0.0025038419925960437	0.1434595787433796	1.0008052946909176	3.809829272999138	0.18188948070045083	4.649900215488824	0.42205020447929276	-0.43592467871810736	0.8579748831974001	118.5120660914908
17	6.0	wm	68	diff_vonmises	0.1651131064623995	9.46028414258973	0.6498463214623232	245.86522621351463	0.6380997242337452	247.0684414071603	0.22043663252769363	-0.3787353264978215	0.5991719590255151	107.3778409758313
18	7.0	ltm	68	diff_vonmises	0.02029553280564409	1.162848372732713	1.6846391323175238	2.4314439799187633	0.45506412490790443	4.805903002385018	-0.015413006716617383	-0.5176961552884045	0.5022831485717871	79.71748736709918
19	7.0	perception	68	diff_vonmises	0.07000477937748183	4.010978404074171	0.9238099374374361	325.50392141608086	0.9062581800210008	327.46107910490804	0.45333041084565195	-0.6005440654944785	1.0538744763401304	90.28439217253793
20	7.0	wm	68	diff_vonmises	0.26843292977879524	15.380073958656562	3.5932540394647274	0.7416004205789806	0.06251686998839052	3.0725694230059837	0.017441828997878828	-0.4753520014766651	0.49279383047454395	69.06534661753142
0	1.0	ltm	69	diff_vonmises	0.097660802541672	5.595551809498309	4.515267013682464	0.35054109786347015	2.1444633857758758e-19	3.4198077839265446	-0.25650183018352696	-0.544244858936531	0.287743028753004	64.33899947920557
1	1.0	perception	69	diff_vonmises	0.043587977245793136	2.4974071336962127	11.34329859810966	0.8356509890206893	0.08665644560118942	3.853040669525731	0.4419438127922305	-0.6355003442337013	1.0774441570259317	39.620381558841586
2	1.0	wm	69	diff_vonmises	0.049938575312115235	2.8612696002804108	2.3118329245360365	0.8080226778747847	0.13378429955354612	4.426157676077186	-0.3469999291402807	-0.6564947143438433	0.3094947852035626	76.3477949854356
3	2.0	ltm	69	diff_vonmises	0.18442951448539596	10.567032797660069	3.5261290785790957	0.4887554160694994	2.578357827458449e-13	2.094675489575613	0.01716678730206228	-0.33307451744738537	0.35024130474944765	73.03864270144624
4	2.0	perception	69	diff_vonmises	-0.03315656435029267	-1.8997312004256943	8.198923227048077	1.2010276400184459	0.19477855409642358	2.8624262691417157	0.8014051336994521	-0.4781335527850306	1.2795386864844827	46.09691646948053
5	2.0	wm	69	diff_vonmises	0.09460057394965397	5.420213626830414	5.49594947452591	0.4196940271710587	0.006109371313658113	2.535806630084314	-0.023437237697194024	-0.40257201668737047	0.37913477899017645	57.863732015272205
6	3.0	ltm	69	diff_vonmises	0.2396643695089692	13.73175687252779	3.5788908762291194	0.4668332286128638	3.825805359566523e-16	1.5121316067518606	0.09695012643153259	-0.24040027261646957	0.3373503990480021	72.47999548007974
7	3.0	perception	69	diff_vonmises	0.023667260790042822	1.356034155904912	5.817013967831109	1.730898131235615	0.11200104364911516	2.880240484374042	1.114938195578921	-0.45345513858506814	1.5683933341639893	55.381053377093224
8	3.0	wm	69	diff_vonmises	0.003856376101703122	0.22095407484270202	5.524197952253903	0.4717264830949671	0.16107610609737988	2.1896376536615545	0.024512041476785762	-0.35449456136919105	0.3790066028459768	54.308623280323815
9	4.0	ltm	69	diff_vonmises	0.13732850678677502	7.868343845715891	0.8561335356968591	216.47870476372165	0.8425733708560309	218.70105422070517	-0.1327196036982201	-0.4520138397439304	0.3192942360457103	82.22467083486211
10	4.0	perception	69	diff_vonmises	0.00230477036441576	0.13205361462785178	2.9827151033691885	2.0651353929503147	0.13372231907093532	4.294007749675486	0.5704043133750075	-0.6257376971066777	1.1961420104816853	74.91199219798932
11	4.0	wm	69	diff_vonmises	0.21794129697083647	12.487116498036244	0.6362023608064533	167.47569323936975	0.6204463742816365	170.34947931328432	-0.2736002403842406	-0.5358061786053696	0.26220593822112903	90.66936773953444
12	5.0	ltm	69	diff_vonmises	0.10874782867377845	6.230791614219262	1.6272967800132356	1.3619154814247254	0.13480449975121128	2.934783963465267	0.08775762330899661	-0.3843436317502554	0.472101255059252	96.36032205918579
13	5.0	perception	69	diff_vonmises	0.042847868231723665	2.4550020108104436	2.306144631621117	2.0575186478388834	2.706118916776444e-23	3.5772402208332945	0.5867044941010107	-0.5578554018491566	1.1445598959501673	90.55178524032908
14	5.0	wm	69	diff_vonmises	0.003747829546664563	0.21473481535830807	0.5173910712803358	109.67487257750142	0.49205610962613916	111.82310837410046	-0.007165728030379626	-0.5090600998398589	0.5018943718094793	114.33345110493056
15	6.0	ltm	69	diff_vonmises	0.17186172534436786	9.846951522068814	0.702334745779202	1.861537046168928	1.7695743413228963e-11	3.427148181950105	-0.01490492862870152	-0.41522620214770545	0.40032127351900393	141.56762284702222
16	6.0	perception	69	diff_vonmises	0.027019674460390115	1.5481133103977736	1.448923516784872	1.7858774411126705	3.2606157230362307e-16	3.543671696568965	0.1934898653202165	-0.5222201329696198	0.7157099982898363	112.07322932707166
17	6.0	wm	69	diff_vonmises	0.08087959507784094	4.634059446687353	0.380420585526719	252.91272914983696	0.37075208028628787	254.99310038880566	-0.01750531665167898	-0.5266535377599659	0.509148221108287	130.92616435777208
18	7.0	ltm	69	diff_vonmises	0.09475098296435441	5.42883142857347	0.9786106493243913	191.17857547478602	0.9587601775466041	193.44352607789492	-0.0365653131421908	-0.5004153287354605	0.46385001559326966	80.0703549492822
19	7.0	perception	69	diff_vonmises	0.14646045071834682	8.39156569174506	1.8396725006823778	1.6694277594791966	3.71182012314178e-14	3.5265262757250997	0.25738846978246976	-0.5405999310190623	0.7979884008015321	100.8516320567592
20	7.0	wm	69	diff_vonmises	0.1320339613244236	7.564988736283014	1.2107711836317936	3.8566583003395016	0.5450954968310447	6.396727826854923	-0.1625676707173418	-0.5087699326189509	0.3462022619016091	81.91966854401409
0	1.0	ltm	70	diff_vonmises	0.06376333055094074	3.6533697282664868	1.1973916840309355	2.323993498974967	0.36188238985633564	3.829920144574538	0.03261560878061198	-0.34641255546816596	0.37902816424877794	95.0460334777433
1	1.0	perception	70	diff_vonmises	0.05308735044293084	3.0416811259118988	9.879858131064246	0.4647540574490111	4.152410373605264e-33	2.232130180912781	0.21978724116034698	-0.3552545504096929	0.5750417915700399	43.18413180292248
2	1.0	wm	70	diff_vonmises	0.11135698072085498	6.380285014624666	6.523569542742278	0.3273848410397197	3.0933708546455954e-19	1.9348485804018547	0.018683889174924195	-0.30794001121794756	0.32662390039287176	53.311567835616614
3	2.0	ltm	70	diff_vonmises	-0.14459590354616814	-8.284735008076169	1.245740705387678	9.816111812304309	0.9546607117020922	10.69310559224153	0.24222355191756817	-0.2802231936623991	0.5224467455799673	82.7086526781845
4	2.0	perception	70	diff_vonmises	-0.03587908620671645	-2.0557202124308986	6.350822816938306	1.005842158906345	0.0351684437617177	2.262763262294418	0.616737272756569	-0.3583103405818107	0.9750476133383796	53.56813481435779
5	2.0	wm	70	diff_vonmises	0.07882217294562169	4.5161778418343825	5.964091570290309	0.3845906316219643	0.09669834827709534	1.6631892104608226	0.07514347886733425	-0.2663716060078908	0.34151508487522503	53.75075466902214
6	3.0	ltm	70	diff_vonmises	0.09360461361999205	5.363149303378327	1.1377649804646492	278.5427552510934	1.1259114015275145	279.3241456283696	0.33017989387266766	-0.2893090354351884	0.619488929307856	82.84235236917209
7	3.0	perception	70	diff_vonmises	0.007160068017898332	0.4102416784521752	3.698172750367417	2.4156029654052755	0.33184700940600886	3.551424283447299	1.0124105125021352	-0.506243322227082	1.5186538347292173	66.00732617700604
8	3.0	wm	70	diff_vonmises	0.20945136975655768	12.000679500284807	2.683735549038882	0.8644294976634517	0.1914475859063137	2.245934736082889	0.10207612391574228	-0.3199191514541247	0.421995275369867	75.40690260181239
9	4.0	ltm	70	diff_vonmises	0.11215329163957172	6.4259102694473205	0.8110106178608696	189.58593193487334	0.7962063401212823	191.16139333422956	0.05871433490664657	-0.37162074240441	0.4303350773110566	91.26934789823414
10	4.0	perception	70	diff_vonmises	-0.10537386133238145	-6.037477525342239	1.9510586543912614	3.6498215542001557	0.3531134551369739	5.335972905477079	0.6827995466023755	-0.59449272894395	1.2772922755463254	84.86752059676917
11	4.0	wm	70	diff_vonmises	-0.07633376803601337	-4.373602742794193	0.8917726130177414	173.76434640465374	0.8720966179522339	175.95344298326583	-0.04315871954502626	-0.47435088846031803	0.4311921689152918	83.84495798460111
12	5.0	ltm	70	diff_vonmises	0.005743358181388706	0.32907018402550475	0.8781958769055622	8.83430258329706	0.5786153164336331	9.790432338589754	0.25398554088633585	-0.3250116921969728	0.5789972330833086	102.44768735558262
13	5.0	perception	70	diff_vonmises	-0.043527605420933625	-2.49394808293026	2.336103560477397	1.9814519385880194	9.257292547022668e-17	2.8538760421601133	0.6676462364924332	-0.44371551345262666	1.1113617499450599	89.98033670900301
14	5.0	wm	70	diff_vonmises	-0.2049171780739977	-11.7408894533708	0.6503148080283201	158.5052555872751	0.637595123029025	159.53536506177335	0.10212586975978866	-0.28106042569104694	0.3831862954508356	105.14883986479154
15	6.0	ltm	70	diff_vonmises	0.17682875643927023	10.131541440516964	0.36719197075169707	140.38986539136445	0.35690383281348975	141.271340239495	0.06844647053480912	-0.2776558828276485	0.34610235336245765	135.31021734963872
16	6.0	perception	70	diff_vonmises	-0.18246556719150758	-10.454506906534126	1.9324096726129478	1.5415621979552323	2.332630410539935e-13	2.600752554510857	0.36492109810319784	-0.39759084864810823	0.7625119467513061	98.56256954502548
17	6.0	wm	70	diff_vonmises	-0.04794817086017054	-2.74722782565993	0.7921741884351452	134.47387285814364	0.7730519108610798	135.60653714770322	0.15296275040162755	-0.3123962301810206	0.46535898058264813	95.92523680779627
18	7.0	ltm	70	diff_vonmises	-0.13042380981331175	-7.472733850319693	0.968908515168007	193.75813229275704	0.9479973927256028	195.5072457872235	0.18848786235602688	-0.4565584513636125	0.6450463137196394	85.56848456889159
19	7.0	perception	70	diff_vonmises	-0.022858641455987296	-1.309703680830851	2.1205293796636395	3.1811013185462467	0.3172994913012017	4.9828303574695525	0.6376859828690016	-0.5953101988838373	1.232996181752839	82.63324359802249
20	7.0	wm	70	diff_vonmises	0.19832160176191302	11.362990767231887	20.17875261201683	0.560273381891805	4.355632560689173e-20	2.3900118995976465	0.6169059164792704	-0.3803822078694161	0.9972881243486865	30.136847899726263
0	1.0	ltm	71	diff_vonmises	0.195486152634077	11.200531499182834	2.467651102610843	0.8815988449533214	0.045978651166578885	4.027773781998365	-0.15523958886194666	-0.6134572703266685	0.45821768146472186	82.66203173180924
1	1.0	perception	71	diff_vonmises	0.03283551971305046	1.8813366976764072	5.32820271992592	0.9632591062654611	0.09696858600518772	3.9608919655453474	0.17102679419541944	-0.6290724806827955	0.800099274878215	56.711996896682564
2	1.0	wm	71	diff_vonmises	0.160900357374527	9.218911399707048	4.171052276732124	0.5247602558024448	1.9843830584471032e-17	3.473773601022501	-0.140110331510242	-0.5527698858201046	0.41265955430986256	67.00538710174555
3	2.0	ltm	71	diff_vonmises	0.028924353978188308	1.6572434080926228	2.7142403358426503	1.2622422801271218	0.32983403787681265	3.00423618934216	0.13320938287373463	-0.41393326838509625	0.5471426512588309	71.5237330228619
4	2.0	perception	71	diff_vonmises	-0.057031668078003986	-3.2676738794606117	6.517257315425409	1.208582693127012	1.6914122991035306e-17	3.026708995460506	0.7235373403087129	-0.4817130657079587	1.2052504060166715	53.335496336599476
5	2.0	wm	71	diff_vonmises	0.022449284167664736	1.2862492358970485	4.495331728158393	0.6615962342683078	0.07664327099143521	2.6407526109369983	0.08877528871808221	-0.41372122570265524	0.5024965144207374	61.904725145211046
6	3.0	ltm	71	diff_vonmises	0.18799220616391354	10.771159994545506	2.8715051547954924	0.8654953612613023	3.415015158925175e-21	2.241512627192023	0.19608097794189444	-0.3549758589184785	0.551056836860373	81.11141586672494
7	3.0	perception	71	diff_vonmises	0.023088099247670715	1.322850643870703	4.38205567070808	2.0575430068486327	7.266439497853419e-18	3.569098750858719	1.0941215640917423	-0.567779974829626	1.6619015389213683	65.33153463938243
8	3.0	wm	71	diff_vonmises	-0.026413519963388313	-1.5133832159866951	2.259129378030388	1.3761436503078182	0.1902794307063304	3.204469360496604	0.15242179344001006	-0.4368718789223766	0.5892936723623867	81.53041303758809
9	4.0	ltm	71	diff_vonmises	0.4002575342148975	22.93306742882677	0.2637553836839032	253.1450731629706	0.2546063282551029	255.49625158530958	-0.06559780544441196	-0.6011256138499093	0.5355278084054973	144.12386662956752
10	4.0	perception	71	diff_vonmises	-0.05190054290071064	-2.9736820626483866	2.6937518636214577	2.3563969625644994	0.01516370167103036	5.343988213261814	0.5871791784344429	-0.8310398572798087	1.4182190357142517	82.95233193627428
11	4.0	wm	71	diff_vonmises	0.17052812544623844	9.77054187634692	0.6880306917114297	266.8960990543179	0.6743460578076147	270.09490014208876	-0.1991046169946742	-0.6358048402136909	0.4367002232190167	91.92060814493877
12	5.0	ltm	71	diff_vonmises	0.10574420070734002	6.058696408514877	1.882141271188943	1.124771954242253	9.551884459032414e-14	2.3393553390703192	0.1869684294883981	-0.35935326387300326	0.5463216933614014	99.80829235489267
13	5.0	perception	71	diff_vonmises	-0.02438374718825039	-1.3970858026007356	1.702729179796288	2.8860782854278004	1.3271521262421245e-20	3.762393060287962	0.7513948035120137	-0.5539845437018304	1.3053793472138442	104.52117571904883
14	5.0	wm	71	diff_vonmises	0.025616469579865866	1.4677155929515753	0.6788390512293049	171.34671896501666	0.6623372750755907	172.63036225295718	0.18202344968991468	-0.37225940992296636	0.554282859612881	104.17711355580903
15	6.0	ltm	71	diff_vonmises	0.45905085426305936	26.301676531148335	0.507723461796638	155.201130833136	0.49685243272947205	155.93263629992146	0.1353880455659322	-0.2565621542691048	0.391950199835037	120.7588074719146
16	6.0	perception	71	diff_vonmises	-0.051719300250735754	-2.963297623737059	1.4384470926183692	1.9788902739174017	1.873008222060972e-16	2.6998112635872116	0.40603005832761724	-0.38262949882144154	0.7886595571490588	112.40325130802194
17	6.0	wm	71	diff_vonmises	0.1627036024905864	9.32222973428483	0.6452852379175344	194.31346006678126	0.6341046320050832	195.4200143895021	0.1115933767686812	-0.3034713493623258	0.415064726131007	105.57407913268256
18	7.0	ltm	71	diff_vonmises	-0.043113026075128257	-2.4701944361423176	2.724217433464942	1.3615768403080397	0.35078191074003956	3.6973103347783547	0.03306228843307735	-0.5185373200209442	0.5515996084540216	69.56024966607859
19	7.0	perception	71	diff_vonmises	0.08519599390171059	4.881370881990316	0.8772103575706006	368.48110825638844	0.8617902063103714	370.13622010008214	0.5614764334411291	-0.5825860688177116	1.1440625022588407	94.13115172141428
20	7.0	wm	71	diff_vonmises	-0.4513428621231904	-25.860041113013832	0.02218023450781944	66.49654052063995	9.922709526200593e-05	69.0441378283396	-0.1705228609913103	-0.6377995365492133	0.467276675557903	173.10639371549615
0	1.0	ltm	72	diff_vonmises	0.3403032428884216	19.497939572121904	1.9051896368033414	0.5422384536044685	1.5763040570645122e-32	2.430986150380537	-0.11529778935287938	-0.38088930714264524	0.26559151778976586	99.05390398615134
1	1.0	perception	72	diff_vonmises	0.03729903865593854	2.137077494880589	7.2713297075188414	0.8936405502646603	0.12562423136659945	2.819090879178117	0.4368863060885808	-0.4586413193938549	0.8955276254824357	49.01578184577667
2	1.0	wm	72	diff_vonmises	0.08506942043604362	4.874118756609255	3.733296375198892	0.4058866161500243	4.276539638225208e-18	2.510518038791577	-0.09908329722595144	-0.39938951706047965	0.3003062198345282	70.9296696286674
3	2.0	ltm	72	diff_vonmises	0.18641792203109606	10.680960157980651	4.144881281048043	0.5948154420579026	0.25389325187482037	1.7778868989979855	0.10731259462858045	-0.2760638501276556	0.38337644475623606	61.1348775524653
4	2.0	perception	72	diff_vonmises	-0.0259676020553885	-1.4878340018490028	8.660537163882614	1.0736255559705719	0.0065788645664786255	2.210123756412865	0.8867667980352998	-0.351539073674005	1.2383058717093047	46.11444918108566
5	2.0	wm	72	diff_vonmises	0.07765636590265275	4.449382018545636	6.3059478036518595	0.4092582731693523	0.014563090380759808	1.8724755898109258	0.0987271851382322	-0.29726699379461896	0.39599417893285116	53.83309862706773
6	3.0	ltm	72	diff_vonmises	0.2999847090413566	17.187857746529723	4.306396114648397	0.5125449407477568	0.11124866177383246	1.2134569316067878	0.19500522052474845	-0.187029948721568	0.3820351692463164	63.43338532637148
7	3.0	perception	72	diff_vonmises	0.012490153607225067	0.7156330871640973	6.261005591668058	1.5706768972408187	7.257927745971388e-22	2.4730133894588513	1.1401777095060457	-0.39358671301115045	1.533764422517196	54.436739711379346
8	3.0	wm	72	diff_vonmises	0.0012505956904074805	0.07165385493759796	5.9720875117233465	0.5316922182138674	0.197559220646298	1.7439812819855849	0.1715966397788788	-0.2841362816514901	0.45573292143036886	52.785348550698075
9	4.0	ltm	72	diff_vonmises	0.3197880435249896	18.322505232727774	0.8052950419931999	180.62413037902496	0.7926842992437744	182.18487163803204	-0.03674864374756481	-0.33342864955024254	0.2966800058026777	88.01686943829947
10	4.0	perception	72	diff_vonmises	-0.03681063368499561	-2.1090939513523494	3.4011680772064605	1.80032383408938	1.5587377170960596e-17	3.975525674928871	0.6329287484950858	-0.6313181813325011	1.264246929827587	74.40219194187443
11	4.0	wm	72	diff_vonmises	-0.024372381850072896	-1.396434616690426	0.9782479069089061	200.39097454444507	0.9624186105737075	202.76979244952963	-0.19443748480864542	-0.4847771647089161	0.29033967990027065	74.71471394948134
12	5.0	ltm	72	diff_vonmises	0.1339915259481734	7.677148927347992	1.8920845254263887	0.9199703420132	5.551449883119683e-17	1.7424370785993053	0.18158624960857056	-0.2668870027270704	0.44847325233564095	99.5536201253305
13	5.0	perception	72	diff_vonmises	-0.009586493988276573	-0.5492656458557837	2.3768940912282424	1.9117079489785869	2.328751264888969e-20	2.5010114690084673	0.6954971542816781	-0.38862170148454156	1.0841188557662198	89.21161742790366
14	5.0	wm	72	diff_vonmises	0.058816091997070635	3.3699138388853247	1.1519534768133335	2.3023466851398444	0.2762217081501085	3.325708290291637	0.16780856678988065	-0.30953308451313455	0.4773416513030152	104.85851735140636
15	6.0	ltm	72	diff_vonmises	0.3453545143209466	19.78735610638059	0.4923693990490777	118.58921935107716	0.4797763251241612	119.10273363225889	0.15373443474656767	-0.21827544938024523	0.3720098841268129	124.07117766955255
16	6.0	perception	72	diff_vonmises	-0.026593837783398147	-1.5237146660442582	1.8182515111636983	1.4313866430721849	1.362709653431857e-15	2.05500399509843	0.3698638910747435	-0.3087016523770477	0.6785655434517912	101.44926875605816
17	6.0	wm	72	diff_vonmises	0.14813713106274892	8.48763239907184	0.595472164957476	197.2885509199441	0.5850256749311407	198.2387607070912	0.14003723895841347	-0.29175371053448274	0.4317909494928962	111.5197181481449
18	7.0	ltm	72	diff_vonmises	0.06633085466303261	3.800478023687425	1.3318863050628056	3.3822545393471914	0.55880760467198	5.006046349858035	0.07343089401491865	-0.3841161740404432	0.4575470680553618	85.59124096393103
19	7.0	perception	72	diff_vonmises	0.07277424983596144	4.169657372831214	1.6749388059361343	2.424764796247527	0.13677279131724396	3.8830117159034265	0.41783308488509685	-0.4973386380651147	0.9151717229502115	97.71597245895725
20	7.0	wm	72	diff_vonmises	0.0934461726320906	5.3540713034696905	2.8809145198716566	0.5400765307118378	7.52926543889897e-33	2.3046431848465367	-0.021188040697654564	-0.3657081782022688	0.34452013750461424	80.98655525137255
0	1.0	ltm	73	diff_vonmises	0.1767141863264092	10.124977056591689	0.9409466196362691	1.491476800208362	1.1734663266933968e-18	3.376950895652116	-0.044507172651831184	-0.46238088113655157	0.4178737084847204	130.7726417569794
1	1.0	perception	73	diff_vonmises	-0.03459318607023285	-1.9820435617350922	9.63948720454156	0.6941350434246657	4.403071746845626e-23	2.5541865337961935	0.44153330284795456	-0.40651140883768294	0.8480447116856376	43.72323043432556
2	1.0	wm	73	diff_vonmises	0.09741700407910385	5.581583186541375	3.041669075955357	0.5815200360377616	3.0347875804984214e-18	2.587858527072161	-0.02802739090645301	-0.4109949608246251	0.3829675699181721	78.77943280110821
3	2.0	ltm	73	diff_vonmises	0.08824519790542992	5.056077402277827	2.937703663309527	0.606360318717359	1.8369333534385443e-20	2.087922408183299	0.06010611771917901	-0.33120142088201326	0.3913075386011923	80.18328332243746
4	2.0	perception	73	diff_vonmises	-0.053750627553948015	-3.079684105020813	7.412891491164364	1.063022899029046	2.3800829656506257e-23	2.522004232204043	0.7324077004691527	-0.40138902721007924	1.133796727679232	49.9508653571032
5	2.0	wm	73	diff_vonmises	-0.04946552422925704	-2.8341657697385427	3.821911393443855	0.6036292888860951	0.022936265286440015	2.1947870825188116	0.09529892959143543	-0.34392886920654725	0.4392277987979827	68.89170927455655
6	3.0	ltm	73	diff_vonmises	0.19003622395619243	10.888273587292735	2.394677856898251	0.8281199966929467	0.08813287993695056	1.8747222210462129	0.15060319131086547	-0.2721397546573665	0.422742945968232	84.01606968960161
7	3.0	perception	73	diff_vonmises	0.0044029963447180685	0.25227310776387385	4.514916991194641	2.114021476247523	0.13529007640898405	3.1937563894449887	1.1562726900121438	-0.48741439564462613	1.64368708565677	62.449246226527066
8	3.0	wm	73	diff_vonmises	-0.15206648337311734	-8.712767702675931	1.7394959937355448	1.9917623057668388	0.423167243072715	3.3941894970502084	0.1549771214779102	-0.3578079937637082	0.5127851152416184	83.43308606104429
9	4.0	ltm	73	diff_vonmises	-0.004523932922214093	-0.2592022632431529	1.9093079352700655	1.0516441113168518	0.10840772392427776	2.7059922739834277	0.0489063546404539	-0.3775968266300418	0.4265031812704957	90.70163335528594
10	4.0	perception	73	diff_vonmises	-0.012774082753957866	-0.7319010289526373	1.5872437241984159	5.372746794225968	0.4718311506817128	7.491701220085177	0.5992974432595681	-0.6742627811535649	1.273560224413133	87.55511905474322
11	4.0	wm	73	diff_vonmises	0.1000583880204101	5.7329233384518545	0.7832054297245125	214.74296945678722	0.7696925741496182	217.15299426909647	-0.1637092915672298	-0.47841656029204316	0.31470726872481336	85.20193834779064
12	5.0	ltm	73	diff_vonmises	0.24601465313276347	14.095601322882242	2.2909554710637967	0.9674899651342493	0.023898377520143784	1.8391569655759792	0.24175231696059996	-0.2802152788317681	0.5219675957923681	89.55704260166738
13	5.0	perception	73	diff_vonmises	0.030640891477761105	1.7555937621940834	2.012511246426061	2.1937976560322365	2.701081382336374e-18	2.975238019563926	0.6624765038598577	-0.4532306950693034	1.1157071989291611	96.73076277014613
14	5.0	wm	73	diff_vonmises	-0.019755857179380762	-1.1319272370417446	0.5946920534006862	107.99966333961453	0.5735264678925571	109.1327340894312	0.13672293113695844	-0.3328627582667014	0.46958568940365986	111.38958547687919
15	6.0	ltm	73	diff_vonmises	0.26055013315114156	14.928422981132048	0.29104599757694716	78.77161425058941	0.27746412732312153	79.38671395777523	0.06379944455673936	-0.2160354338320687	0.27983487838880805	144.66099393636
16	6.0	perception	73	diff_vonmises	-0.09697057299057603	-5.5560045693253	2.019176295942669	1.2282270763217935	4.257875055675616e-18	2.045272204564062	0.3117343462336206	-0.3142813490869798	0.6260156953206004	96.57208564289465
17	6.0	wm	73	diff_vonmises	-0.04493556183117658	-2.574618042975571	0.43766951234635076	144.84883364107964	0.42696782969914476	146.00164208390967	0.017480303469831426	-0.2996260701438178	0.31710637361364924	124.71334600488733
18	7.0	ltm	73	diff_vonmises	-0.013902477143578706	-0.796553265104152	2.0661225200434945	1.8993228097237784	0.6022648993607802	3.272578448490918	0.1287928267575329	-0.3508873542565241	0.479680181014057	73.82328194987838
19	7.0	perception	73	diff_vonmises	0.07831527420480108	4.487134683344866	1.7642128016369378	1.9699999528379781	5.0702696767873464e-14	3.1027522601364717	0.4479079870163678	-0.46617413970701344	0.9140821267233812	102.84166355298922
20	7.0	wm	73	diff_vonmises	-0.6006073304614993	-34.41226518006304	0.0011139398168698595	1083.6530906546802	1.1755638774740787e-21	1085.4378484347844	-0.0918847159032623	-0.47611433609736764	0.38422962019410534	169.90774888283002
0	1.0	ltm	74	diff_vonmises	0.06026781260343037	3.4530913026619103	1.8930053657571484	1.697590095722029	0.2427693703121431	5.0737821881459455	-0.1673686355494457	-0.6712771025390771	0.5039084669896314	81.10001860453579
1	1.0	perception	74	diff_vonmises	0.03198575329203297	1.8326486681801684	9.000840820223038	0.7235131098448419	0.015852333843786003	3.9458049061582186	0.21524349203608706	-0.6294560978571966	0.8446995898932836	44.999755700347094
2	1.0	wm	74	diff_vonmises	0.15371528225426426	8.80723691983154	4.476976912188953	0.5044140768462203	5.435168799451782e-24	3.8247406918459275	-0.19648554838717996	-0.6086731125414611	0.4121875641542811	64.61570264716116
3	2.0	ltm	74	diff_vonmises	-0.02363583801497779	-1.3542337635130968	2.555913135068784	1.1996689619092233	0.2565099913831774	2.900977390271411	0.12922110074541016	-0.39966219280201976	0.5288832935474299	75.17788692033207
4	2.0	perception	74	diff_vonmises	-0.06197831379442583	-3.551095801758051	6.386312220265183	1.2227041355311903	0.0806121362652099	2.96093984498576	0.6963168866520245	-0.4709547623165261	1.1672716489685506	52.89696477661926
5	2.0	wm	74	diff_vonmises	0.008166875255369181	0.4679274839424805	4.230239784615137	0.6478582176272385	0.0930430122412234	2.6360571630264458	0.053982677717115124	-0.41135313964853437	0.4653358173656495	63.15653217953519
6	3.0	ltm	74	diff_vonmises	0.09904675153884365	5.674960837656633	1.8897640319464988	1.3089513220756634	0.17322847741298839	2.6242278230128684	0.1595031157194951	-0.3420017975171334	0.5015049132366285	89.43760424285688
7	3.0	perception	74	diff_vonmises	0.03432046990588652	1.9664180765130512	4.451910857217094	2.0117773878160485	0.05423587309689543	3.3056863728157584	1.084200746207684	-0.5123689682328961	1.5965697144405802	63.8250193514817
8	3.0	wm	74	diff_vonmises	0.01906584134646504	1.0923922420184695	2.1786057936378587	1.31868422062883	0.21475270836675672	3.051743980667832	0.12105989289080121	-0.4080779630006004	0.5291378558914016	81.69484671766011
9	4.0	ltm	74	diff_vonmises	0.18564963906442017	10.636940786518332	0.31822206387598573	150.45474537411735	0.3043761507479605	152.68945629039442	-0.09733162620843672	-0.5298994477189929	0.43256782151055617	137.65494825439418
10	4.0	perception	74	diff_vonmises	-0.046268629881507296	-2.6509972160632542	2.126717228006829	3.2772978280546057	0.2205837962030202	5.751129371599059	0.6269462040997191	-0.7386446543838522	1.3655908584835714	84.58189833005721
11	4.0	wm	74	diff_vonmises	0.16618849413394804	9.521899317509861	0.679706735744084	297.34366799501305	0.6679012592899691	300.2884167511958	-0.15179619308098324	-0.5972766830936322	0.445480490012649	93.68767912753177
12	5.0	ltm	74	diff_vonmises	0.09209777213358777	5.276813645812142	1.9643897529834073	1.1143836165816075	5.986123052659159e-15	2.571928490178775	0.15933225416766839	-0.3981502616053012	0.5574825157729696	97.83424837794723
13	5.0	perception	74	diff_vonmises	0.003692262443403806	0.21155105486169906	1.8371174900517495	2.7185821217946424	6.4235744443571055e-24	3.9028959354591057	0.7108856260622676	-0.5873717960054524	1.2982574220677199	100.96410483820799
14	5.0	wm	74	diff_vonmises	-0.011969646541216059	-0.6858102290750437	0.602629777480799	241.65570936496036	0.5906461870640932	243.23380649641481	0.1316363505162741	-0.4285381874987948	0.5601745380150689	108.90905383895937
15	6.0	ltm	74	diff_vonmises	0.4340029123526242	24.86653517419155	0.5331354215865991	146.28557900821113	0.5202723383730398	147.4141620756798	0.0703304684107664	-0.30714712140578015	0.37747758981654655	115.28915420665919
16	6.0	perception	74	diff_vonmises	-0.06567015440137886	-3.7626226871714756	1.2854564629489704	2.42062843323459	0.03985082172190058	3.551118731191009	0.36777556343957485	-0.46980308320787256	0.8375786466474474	115.20984126711537
17	6.0	wm	74	diff_vonmises	0.056818817534396424	3.2554784416448332	0.570694128170963	237.46142346091963	0.5600945041488988	238.94284564802663	0.09239409113737906	-0.3928506469796389	0.48524473811701796	111.20627304248545
18	7.0	ltm	74	diff_vonmises	-0.032110492696085104	-1.8397957095713324	2.3408012409748884	1.8339594686507472	0.5092389507018533	4.071543016746188	0.028027523147519995	-0.514043742474532	0.542071265622052	70.21611160160185
19	7.0	perception	74	diff_vonmises	0.08934415941836014	5.11904325881604	0.9049683209551893	243.82388370430112	0.8829119406383844	245.48066997115066	0.49525315098878764	-0.5532769296697069	1.0485300806584945	92.33261648605358
20	7.0	wm	74	diff_vonmises	-0.03800118933756371	-2.177307765519945	2.277231311276526	0.8281832792686642	9.588156259212635e-31	3.321645363079057	-0.06678453710342536	-0.5237972118374988	0.4570126747340735	91.11361451443906
0	1.0	ltm	75	diff_vonmises	0.13031573839545343	7.466541814190417	3.1634443515863016	0.5519237889890646	1.0900536884637594e-15	3.509154443172456	-0.18600268828081895	-0.5578332660282224	0.3718305777474034	77.21606321984416
1	1.0	perception	75	diff_vonmises	0.04945373189569565	2.8334901187948645	9.570505058089532	0.7431125822234146	0.06377470512950795	3.742954521668003	0.2702030571318177	-0.607789488652927	0.8779925457847447	43.14907682175331
2	1.0	wm	75	diff_vonmises	0.11786717704836867	6.753291787992769	3.9395962256672616	0.4928174396276225	0.030556079794511682	3.726283414123116	-0.2355595930742045	-0.5861911371814242	0.35063154410721975	66.43780844183311
3	2.0	ltm	75	diff_vonmises	0.04180464472138969	2.3952297065794848	2.692703308216299	0.9272654369319795	0.21746451528206787	2.443410912007956	0.0929968284755317	-0.34655097987398437	0.43954780834951607	74.33883335114851
4	2.0	perception	75	diff_vonmises	-0.04206353011197937	-2.4100627468378693	7.1908463820800455	1.1682163746702063	0.11812892323749176	2.84629670853741	0.7181916492189717	-0.4597216408851372	1.177913290104109	49.61102311448903
5	2.0	wm	75	diff_vonmises	0.07238187738102762	4.1471760871663195	5.302477191709207	0.48262734293159654	0.04046957526732023	2.466312159202487	0.023204352387141636	-0.39036333501006637	0.413567687397208	57.832586764624125
6	3.0	ltm	75	diff_vonmises	0.1885236645084611	10.80161031467509	1.9101440466207662	1.336523486830445	0.2748908057153675	2.536122660260846	0.14911329480115088	-0.30891411195145285	0.4580274067526037	85.20145888670089
7	3.0	perception	75	diff_vonmises	0.019762195182999657	1.1322903778996458	4.98836425308384	1.882024253268158	0.08117544945974892	3.2622335009398267	1.0677462479332112	-0.5075921273579872	1.5753383752911985	59.9620063606784
8	3.0	wm	75	diff_vonmises	0.06676449119204589	3.825323566642588	3.16526436366893	0.792413576893881	0.16526291091015385	2.6571533002235146	0.03952065987453934	-0.39745391335001234	0.4369745732245517	69.97630746911119
9	4.0	ltm	75	diff_vonmises	0.235039186432152	13.46675340275083	0.6507636105990322	223.130336225377	0.6382195370412086	225.4500807763526	-0.10108634051678678	-0.47881540112709686	0.3777290606103101	96.7836093057563
10	4.0	perception	75	diff_vonmises	-0.03958170842577559	-2.2678648387143507	2.6460766568067324	2.3580090257225534	0.1117402945642867	4.777506511878061	0.5890011192787638	-0.689851203548063	1.2788523228268267	79.84210244851607
11	4.0	wm	75	diff_vonmises	0.14645114113533103	8.391032291929228	0.6635896853969758	117.1283625355429	0.6362636870277882	120.17847942944408	-0.22265121826015388	-0.5936479702597044	0.3709967519995505	92.79879079297149
12	5.0	ltm	75	diff_vonmises	0.046066297211635035	2.63940440802196	1.8026754854648273	1.2184509749323542	0.03782492572580368	2.678636546861807	0.14757761230970579	-0.39430670451890565	0.5418843168286114	99.086810021735
13	5.0	perception	75	diff_vonmises	-0.0008859828159512044	-0.050763076075120005	2.030854466484214	2.3162215404145137	1.401190190925013e-19	3.60850318775348	0.6316939525191322	-0.5535442014039286	1.1852381539230608	96.31406361457041
14	5.0	wm	75	diff_vonmises	-0.03480434271368004	-1.9941419462207648	0.5928788452987265	220.20384330158763	0.5800028003200771	221.97009872901415	0.07355432138126616	-0.44334841467135533	0.5169027360526215	108.09497973281229
15	6.0	ltm	75	diff_vonmises	0.31122202291869316	17.831708404764896	0.3803308278746885	138.6128810576324	0.36676078633166487	139.8883812346138	0.0596847155203335	-0.371651017669798	0.4313357331901315	132.6557454961369
16	6.0	perception	75	diff_vonmises	-0.019686865216737556	-1.1279742887619646	1.4507812246531857	1.958939311739827	3.071332240484114e-20	3.3705030841479413	0.2951325861221765	-0.4907479568518409	0.7858805429740174	112.01436353339125
17	6.0	wm	75	diff_vonmises	0.12512707434023956	7.169253262515427	0.5589982508457928	270.064567029162	0.5489569499876565	271.7655969326453	0.07533586932932224	-0.4371244994269148	0.512460368756237	111.57683592099445
18	7.0	ltm	75	diff_vonmises	-0.018167300975954852	-1.0409096710661145	0.9762486227250904	99.16224913711808	0.9336154660077717	101.6532931020054	-0.017297490920825	-0.5557890777438796	0.5384915868230546	81.2058490718066
19	7.0	perception	75	diff_vonmises	0.09802384172396184	5.6163524224413965	1.4004295505908986	4.219293053540437	0.3586067349139486	6.2494005257350915	0.3743656440212757	-0.5909098972433364	0.9652755412646121	94.16139189519163
20	7.0	wm	75	diff_vonmises	0.13804642406605264	7.909477475858013	3.9981587902008515	0.6645319422542424	0.06129587814243011	3.357886545531902	-0.05687436334981477	-0.5246293974998968	0.467755034150082	65.32562269256957
0	1.0	ltm	76	diff_vonmises	0.19592859113268493	11.225881357847172	0.86722695944202	140.89614289022026	0.8423625167703296	144.13138568901604	-0.34014178919044724	-0.621991339614322	0.2818495504238747	76.16885638880032
1	1.0	perception	76	diff_vonmises	0.10036715972391377	5.75061465389568	5.249040404774806	1.3987437566584136	0.23206911116972725	4.264438600348146	0.40003486321686255	-0.6863646369201901	1.0863995001370528	55.60328932985527
2	1.0	wm	76	diff_vonmises	0.08307431608369714	4.75980769753162	4.315648430677393	0.40072467066120365	0.06403211794514568	3.5691421233515825	-0.2839191492599889	-0.5647529787443417	0.2808338294843528	61.43751884424964
3	2.0	ltm	76	diff_vonmises	0.15762238289677433	9.03109729678022	3.491870744742203	0.9141456929385321	0.4221009596424938	2.4985615969688326	0.0718051550991683	-0.3754879988204155	0.4472931539195838	62.28903191022323
4	2.0	perception	76	diff_vonmises	-0.01572904101893293	-0.901207666173009	8.640709380234446	1.2701423924183266	0.059786848084002364	2.772321035467246	0.9986701290874281	-0.44536723046421006	1.4440373595516383	45.79427338595079
5	2.0	wm	76	diff_vonmises	0.09230896759336452	5.288914254309675	5.380579674768236	0.47561125169168433	0.07920971821854621	2.2699015023134073	0.038354067159220795	-0.36068137784845705	0.39903544500767785	56.56454006450463
6	3.0	ltm	76	diff_vonmises	0.2699469881228756	15.466823111708933	6.421055489482467	0.33713996174927424	0.0890271728830131	1.0147844746105203	0.1573604589478805	-0.1621460963345403	0.3195065552824208	52.470773585299725
7	3.0	perception	76	diff_vonmises	0.0559554265924936	3.2060097846039763	6.4492039168835325	1.554374487614152	5.317377732765178e-19	2.3143325386635833	1.1733070135733574	-0.3683336059231409	1.5416406194964982	53.61978664002129
8	3.0	wm	76	diff_vonmises	-0.05324339971631883	-3.0506220906731136	7.095432216326767	0.36731734925767534	0.11923382018011301	1.3809471354105611	0.1362131417738733	-0.2245313771523394	0.36074451892621273	49.43844640666475
9	4.0	ltm	76	diff_vonmises	0.8587869589153612	49.20486824672502	0.6727902712047579	136.92505561337205	0.6566689558826255	138.72846366387546	-0.07834667074183699	-0.3717263032784395	0.2933796325366025	95.210114808143
10	4.0	perception	76	diff_vonmises	-0.04523609838617443	-2.591837519166349	4.230626549734673	1.6929463272760619	1.4565684678957816e-17	4.422645085656958	0.637910140966783	-0.7036019669271689	1.3415121078939518	66.52358918477827
11	4.0	wm	76	diff_vonmises	0.06632480006715025	3.800131120896708	0.8586906530251265	146.58164561761092	0.8401599522871097	149.04044401440288	-0.24714250429210693	-0.4743954558177599	0.22725295152565295	77.14294555209386
12	5.0	ltm	76	diff_vonmises	0.17245135660267116	9.88073490463858	1.7321612914503643	0.9449005480667685	0.06074408338724989	2.127751289275782	0.08718912248657607	-0.3044107475432148	0.39159987002979085	99.00865268095316
13	5.0	perception	76	diff_vonmises	-0.002964220389112121	-0.1698373178427512	2.518248275203615	2.284114992952067	1.8369653183411506e-17	3.126522568244313	0.8543136287925812	-0.4888186528399256	1.3431322816325069	86.67825243225872
14	5.0	wm	76	diff_vonmises	0.1399515149100432	8.018631140807688	0.6631485709974358	48.77931777887283	0.605990811617759	50.13327431580901	0.1681875153747061	-0.38816922102027185	0.556356736394978	106.75889849358836
15	6.0	ltm	76	diff_vonmises	0.403304411839343	23.107640657400346	0.7285801881445005	147.52069264628926	0.7146747754858414	148.35698726833365	0.15099926406543318	-0.25199419441941373	0.4029934584848469	101.14979285238132
16	6.0	perception	76	diff_vonmises	-0.04699933650234006	-2.692863621499238	1.2176029967958242	2.230981403608855	2.414503221171723e-15	2.8278529468379787	0.4030108638448559	-0.37535187336313236	0.7783627372079882	120.03422336103088
17	6.0	wm	76	diff_vonmises	0.12678489681331961	7.264239493404855	0.5410492396948637	206.3508475742906	0.5302017636387831	207.40545347246746	0.15433883054730302	-0.33676782267288985	0.49110665322019287	117.13299747623196
18	7.0	ltm	76	diff_vonmises	0.18162800516889818	10.406518137558166	0.9041955221621253	87.95910540078852	0.871903358100735	89.74714662787895	-0.02622700057375127	-0.39063095555886385	0.3644039549851126	83.8724689854067
19	7.0	perception	76	diff_vonmises	0.03642410908926035	2.086947723338719	0.8960947717665811	356.37487388393646	0.882034426195497	357.84688839301924	0.4848020715998729	-0.509701488689565	0.9945035602894379	92.95133793080052
20	7.0	wm	76	diff_vonmises	0.19149874979801834	10.972070145458177	2.1949621556987013	0.6412417431590374	0.07134456105052281	2.4391460840513357	-0.06653193436318572	-0.36114924925863634	0.2946173148954506	85.72997350898515
0	1.0	ltm	77	diff_vonmises	0.04907052319705996	2.8115338776903394	0.8693070387492137	244.44483683771634	0.8531511488450723	247.447320599705	-0.18882989432570696	-0.6093756190604722	0.42054572473476526	81.32847197044893
1	1.0	perception	77	diff_vonmises	0.0928981077891829	5.322669501071578	10.478918453277482	0.6294426451153724	2.6418621076546056e-15	3.525170520476133	0.24154459827008057	-0.5610483129406149	0.8025929112106954	41.92210728408057
2	1.0	wm	77	diff_vonmises	0.09582180587208192	5.490185061792182	6.125625421424635	0.3712367883634513	0.050734022777878196	3.4177429403055353	-0.2135645336890603	-0.547027546687981	0.3334630129989207	52.94370406212565
3	2.0	ltm	77	diff_vonmises	-0.07338903818902698	-4.204882150755668	1.9695485908747818	1.8437922791208496	0.4755653448985146	3.311370677267541	0.14044108798941557	-0.3675864054909516	0.5080274934803672	77.97076548831146
4	2.0	perception	77	diff_vonmises	-0.031024167938620513	-1.7775538857880386	6.619454267517246	1.2216403426030815	0.14612235131083426	2.9269328381683564	0.6919929766416409	-0.47225112637388184	1.1642441030155228	51.384296616030326
5	2.0	wm	77	diff_vonmises	0.08230104761542442	4.715502677869047	5.407793085422667	0.4309274454845808	0.08288674174304742	2.270039659773672	-0.002293911483105704	-0.36156824088438855	0.35927432940128284	56.1684214565621
6	3.0	ltm	77	diff_vonmises	0.11627481103654264	6.662055936075058	1.0695351207100254	144.02141940935076	1.0493824802465652	145.0563500989869	0.18259269369351472	-0.29571733525817656	0.4783100289516913	82.69740823082944
7	3.0	perception	77	diff_vonmises	0.05114438677754728	2.930357508138152	4.540717239205474	2.0052806752395864	0.1798084518906672	3.0954107424434976	1.066448555745143	-0.47116338035776134	1.5376119361029044	61.744001925129254
8	3.0	wm	77	diff_vonmises	0.17093786460412952	9.794018200795325	1.8874054334784371	1.0718437122016324	0.24999979816730306	2.5845995679146436	0.013840493126307862	-0.3300135368427154	0.34385402996902326	83.71793235024546
9	4.0	ltm	77	diff_vonmises	0.2520525769400149	14.441548874059313	0.4791413348392451	179.58170690653168	0.46764947530780193	181.63665115845671	-0.11060816443801968	-0.4328498282641533	0.3222416638261336	113.20049079170334
10	4.0	perception	77	diff_vonmises	-0.0706934253345176	-4.0504349109910684	2.566933109311059	2.598675270109992	0.20185684237156512	4.756698355818405	0.6384471611278973	-0.6500736504221472	1.2885208115500446	78.61528529812242
11	4.0	wm	77	diff_vonmises	0.06165719799851541	3.5326972219173998	1.9868462965264568	0.9397453332464808	0.13427324465789625	3.4552089652144273	-0.14327232807197376	-0.4893592309528923	0.34608690288091853	84.44946989818138
12	5.0	ltm	77	diff_vonmises	0.05974762682392678	3.4232868529336318	1.6861486558721102	1.5649459928024714	0.17938388564326527	3.201455036863793	0.12301663249377637	-0.4048636581213131	0.5278802906150895	92.84186346171956
13	5.0	perception	77	diff_vonmises	-0.005592870016680242	-0.3204478473210402	2.220594965700622	2.5236518494186515	0.058451743235389195	3.997213464300346	0.7125044499053904	-0.5832093638205738	1.295713813725964	89.62998364328828
14	5.0	wm	77	diff_vonmises	-0.08082063540235707	-4.630681306120666	0.5410713636515219	233.37168570357915	0.5301879502586002	235.10933437092766	0.03858104018936359	-0.42973931943677	0.4683203596261336	112.40012145449103
15	6.0	ltm	77	diff_vonmises	0.14262811132531492	8.171988818862603	0.39227819603758113	136.28710477675318	0.37908948095283923	137.8518280718084	-0.022392441232113924	-0.38748383539612163	0.3650913941640077	129.13715931330228
16	6.0	perception	77	diff_vonmises	-0.15093779348685038	-8.648098535813732	1.3516834060367229	2.1892065079853085	7.559786774900461e-20	3.688819536857115	0.30349021702409207	-0.527439834247604	0.8309300512716961	115.19624283215545
17	6.0	wm	77	diff_vonmises	-0.0455661123382574	-2.610745925801136	0.602387532775861	181.52364856841447	0.5867782570751353	183.20194930754718	0.09449818366972806	-0.4323914782498086	0.5268896619195367	108.00041313610188
18	7.0	ltm	77	diff_vonmises	-0.011369754434439312	-0.6514389431935248	0.977878034796814	194.75550725878756	0.9578768707581233	196.9604223614996	0.0029370225466038846	-0.49862822680491803	0.5015652493515219	81.0856953552074
19	7.0	perception	77	diff_vonmises	-0.00567832835550214	-0.32534424945973395	1.0110784282286418	346.7537975532887	0.9930412526045055	348.6786050164845	0.527730664484892	-0.6156074771175994	1.1433381416024915	86.71312350182836
20	7.0	wm	77	diff_vonmises	0.25945931191739974	14.865923528235388	5.78219765576152	0.6720405338270979	0.10534174543452433	3.0563226490699886	0.09043429597203678	-0.48983073483117956	0.5802650308032163	54.27353267874125
0	1.0	ltm	78	diff_vonmises	-0.11333712373252937	-6.493738852025933	1.2425872549988977	223.3496358474023	1.2274509432218417	224.8081004491199	0.06076027559829811	-0.3678139594041383	0.4285742350024364	72.98289590807039
1	1.0	perception	78	diff_vonmises	0.01909863382149473	1.094271112437459	8.128301593516383	0.8241683599285814	4.727793796461721e-19	2.015629978611946	0.6012744935178749	-0.32079739425772313	0.922071887775598	47.669397521202
2	1.0	wm	78	diff_vonmises	0.07362369709165968	4.218327115501693	4.975825460171872	0.35313120652190716	4.49531064855729e-17	1.7067907496953545	0.03376745246725432	-0.27162963105618143	0.30539708352343575	61.21235502238932
3	2.0	ltm	78	diff_vonmises	0.049955998223597566	2.8622678595751783	6.316718550416065	0.3663756233209195	7.248170117495905e-23	1.2951680625155249	0.15332119435188352	-0.20613122701676787	0.3594524213686514	54.18855197573674
4	2.0	perception	78	diff_vonmises	-0.03212766635987362	-1.8407796880251912	7.713880050695778	1.127921593398034	3.9872362101749453e-19	1.814877323620141	0.9392691658889929	-0.28884645221140304	1.228115618100396	48.954774917752104
5	2.0	wm	78	diff_vonmises	-0.0436167278061476	-2.49905441946316	4.707601234408116	0.471724152289012	0.13049402148674424	1.3619981508665342	0.15007740645763717	-0.21296934705054055	0.3630467535081777	60.14026809724979
6	3.0	ltm	78	diff_vonmises	0.21342534408530783	12.228371457215527	4.6107210395323435	0.41358447957966654	0.29961051747280715	0.7465324568429687	0.1866187379513902	-0.11479962235974908	0.3014183603111393	59.61507006448491
7	3.0	perception	78	diff_vonmises	0.06156437748586363	3.527378998290212	5.680856829321543	1.5497061287471465	0.033740308179392595	1.552919726706009	1.182096749615483	-0.24385264656450276	1.4259493961799858	56.92610010466413
8	3.0	wm	78	diff_vonmises	-0.14415442782735555	-8.259440312630701	4.628537756702997	0.4955982318651828	0.16737967440264667	0.8688969470814943	0.24999861788303554	-0.13340289388062393	0.38340151176365944	61.09649614215766
9	4.0	ltm	78	diff_vonmises	-0.2127961990517168	-12.192324102089144	0.8167882290288891	57.00647173726363	0.7956014099553674	57.67301765854954	0.028804370604259333	-0.15870746930437285	0.18751183990863218	91.37809604655905
10	4.0	perception	78	diff_vonmises	-0.05703059709426255	-3.2676125166123007	2.8390725781251533	2.2873335913122266	0.17246849425669758	3.581746298623022	0.7791519975516503	-0.5012797850274886	1.280431782579139	76.69678057465302
11	4.0	wm	78	diff_vonmises	0.041226353459387126	2.3620960579374435	1.1358831063799792	115.62781614753037	1.1179294465016327	116.79784015940142	-0.03840030061584088	-0.2635200081830007	0.22511970756715982	73.11031925561997
12	5.0	ltm	78	diff_vonmises	0.4071152586894548	23.325986098282474	0.8415715824243079	109.89898532067836	0.8242804203599896	110.44272176049165	0.19511347806690083	-0.1980167742396084	0.3931302523065092	96.44290169441032
13	5.0	perception	78	diff_vonmises	0.04453554347868529	2.551698679650044	2.9213789415300964	1.9522202864816023	6.64978145018079e-15	2.1727087577013693	0.9134586826200994	-0.3421437958772003	1.2556024784972997	80.41960324703547
14	5.0	wm	78	diff_vonmises	0.08419985151784622	4.824296127600787	0.5817178412919991	128.6245172981306	0.5674144187671145	129.13945013704938	0.2137160053064875	-0.23693542462929962	0.4506514299357871	116.83507386257205
15	6.0	ltm	78	diff_vonmises	0.4372044091188799	25.049967427022782	1.059382173902254	65.4541777190944	1.0420391651660332	65.83283650821991	0.08131143449189437	-0.11308645768030878	0.19439789217220316	83.72923490772007
16	6.0	perception	78	diff_vonmises	-0.2245669714091667	-12.866739679780277	1.5430851553597043	1.6375949966057417	5.623759407901115e-19	1.8578110318923553	0.42593332266667294	-0.26271873789862854	0.6886520605653015	108.97955972329937
17	6.0	wm	78	diff_vonmises	-0.28301318839368184	-16.215461241498822	0.493257169366655	72.17287386193429	0.4715909459307597	72.7415161947908	0.15414127234646813	-0.23253249325582281	0.38667376560229094	124.40173370091979
18	7.0	ltm	78	diff_vonmises	0.11840565981460231	6.784144577838486	1.2515185477039557	53.7657691173907	1.2196304645878706	54.249177227261576	0.12994677051601755	-0.15529634269298587	0.2852431132090034	77.60926065867113
19	7.0	perception	78	diff_vonmises	-0.019658337842825717	-1.1263397906362247	2.061660393039611	2.179569674180725	0.31331229889369283	2.6132287181734393	0.5899702127829004	-0.29505640437869346	0.8850266171615939	86.0452082262766
20	7.0	wm	78	diff_vonmises	-0.26228322169083906	-15.027721639979205	0.000386540662333982	2157.0374517289774	9.121389737380892e-32	2157.7261137697265	0.023109474277305253	-0.24229176300394784	0.2654012372812531	178.01901701411816
0	1.0	ltm	79	diff_vonmises	0.12975086186136653	7.434176772841258	3.606440584854846	0.6204228477380064	0.19832180567597457	1.8845244800400767	0.0884194677635991	-0.28542824639876885	0.37384771416236795	65.90046562464084
1	1.0	perception	79	diff_vonmises	0.041817495372619085	2.3959659946589236	6.9708945041765595	0.927508247670181	0.2740211511443089	2.274010074831988	0.49074960834015724	-0.3817766413398796	0.8725262496800368	49.095499946368875
2	1.0	wm	79	diff_vonmises	0.19392427733325396	11.111042636319947	2.9169112308571763	0.5091798040737358	6.758060805781582e-13	1.8542296430592176	0.03307025645559608	-0.29414926314029427	0.32721951959589035	80.46585136847693
3	2.0	ltm	79	diff_vonmises	0.10333114490172618	5.920438495123664	3.4379110217909408	1.0365666511968052	0.9186661968616787	1.5285926718537886	0.23436335715082035	-0.1962674595200632	0.43063081667088354	60.48331184898953
4	2.0	perception	79	diff_vonmises	-0.043139291970702646	-2.4716993611038616	7.784981414085114	1.041686172957851	3.0844075237483992e-24	1.3246947473667956	0.9285336242055386	-0.21083151991480859	1.1393651441203472	48.73361937839343
5	2.0	wm	79	diff_vonmises	0.03746578668661272	2.1466314532803374	6.9654552458830645	0.4031900844183015	0.0973478361297882	1.1249172522088042	0.21943780162118204	-0.18079153716895172	0.4002293387901338	50.43241923844627
6	3.0	ltm	79	diff_vonmises	0.2450872902582795	14.042467344097192	3.837696426614251	0.48198906704321365	0.10214596043311634	0.7249132625992587	0.23482391613442738	-0.10918054043079214	0.3440044565652195	67.97402817460244
7	3.0	perception	79	diff_vonmises	0.014917620578543614	0.8547166995280544	6.145841421162843	1.3332830277131762	1.0424386882978321e-21	1.7043731990596598	1.0181465259105367	-0.2712535012061153	1.289400027116652	54.95310048372872
8	3.0	wm	79	diff_vonmises	0.042387109197725335	2.4286024627898146	4.8770392361181445	0.7169061679080826	0.42078430970115777	1.2729461574966718	0.3180041492127525	-0.19985824529923307	0.5178623945119856	56.99322798991403
9	4.0	ltm	79	diff_vonmises	-0.024201482688898955	-1.3866428160328332	1.3538960825285922	78.61559089088816	1.328732221417065	79.3620871888438	0.05636137323446988	-0.20095695815192371	0.2573183313863936	70.86579038278572
10	4.0	perception	79	diff_vonmises	-0.08644681973719638	-4.953037923269577	2.9982190060206446	2.0371805991064544	4.474806228510538e-14	3.3575878567107624	0.7994373724188109	-0.5310587054075318	1.3304960778263426	79.35745836620217
11	4.0	wm	79	diff_vonmises	-0.07189785995208657	-4.119443931277224	1.3621893372959242	234.32292435684877	1.345487302523489	236.013465047497	0.018749450935359846	-0.4277490496573719	0.4464985005927318	68.5027198718104
12	5.0	ltm	79	diff_vonmises	0.03624499217778771	2.0766850802719183	1.3954773053869296	1.1246075980355674	4.9813337063742274e-17	1.4930595477923416	0.22871575985080278	-0.20901167806838378	0.43772743791918656	113.80797162941005
13	5.0	perception	79	diff_vonmises	-0.04111688075181201	-2.3558237338215195	2.212911625187263	1.8537519880394757	3.0993769366686637e-22	1.7663937962930416	0.7351346410528461	-0.26897030915087417	1.0041049502037203	92.40308180996323
14	5.0	wm	79	diff_vonmises	0.07988984932146963	4.577351192056293	0.7826431106308059	125.69069799674708	0.7668754028003331	125.98289819455817	0.2915613854455188	-0.1923355503326416	0.4838969357781604	103.2963224648081
15	6.0	ltm	79	diff_vonmises	0.5113921058357519	29.300609340696102	0.7549634634927884	95.88667135690919	0.7415761684722211	95.89227617550395	0.24339778867205197	-0.11438297825252874	0.3577807669245807	107.94297551686745
16	6.0	perception	79	diff_vonmises	-0.017455164933276097	-1.0001072813814735	1.6575128374440529	1.920134101602747	0.08418904746831815	1.7916266745649643	0.5740921545390851	-0.2295501047901932	0.8036422593292784	103.09388757767796
17	6.0	wm	79	diff_vonmises	0.09634481096690682	5.520151046389489	0.8031697436352019	159.67390724822494	0.7892744673847841	159.95740875297435	0.3381750541579578	-0.20827443105879873	0.5464494852167565	102.32018846806659
18	7.0	ltm	79	diff_vonmises	-0.01637902176085151	-0.9384488194497256	2.637929981457892	1.045545541689321	0.2745607133421387	2.083129141677392	0.20768575054175747	-0.28170308281347717	0.48938883335523464	75.2429406950946
19	7.0	perception	79	diff_vonmises	0.06947898526472539	3.9808526205204013	2.5059065211917586	1.8074379655773192	0.12352209499220669	2.8740147871079778	0.5511280004853182	-0.40382832245319034	0.9549563229385085	82.38683781002786
20	7.0	wm	79	diff_vonmises	0.27015233651322257	15.478588707805619	2.4007743310344067	0.8012492155288186	8.047459056154219e-37	1.806406247961062	0.17355040017520446	-0.28370940483204204	0.4572598050072465	88.71372659196527
0	1.0	ltm	80	diff_vonmises	-0.053936151857683995	-3.090313864621988	1.0972130583912523	93.75375824599257	1.0757318576210213	94.30943599114302	0.179845386968168	-0.18687172044291067	0.36671710741107866	83.70284954461943
1	1.0	perception	80	diff_vonmises	0.024841596776762082	1.4233186516742569	15.743489491683858	0.4238338273654799	1.5651315314544607e-20	1.2385760296880004	0.46800026750577034	-0.1971254975199653	0.6651257650257356	34.14626075228517
2	1.0	wm	80	diff_vonmises	0.13261827582856814	7.598467491278775	4.9172844241811795	0.31959314702301644	1.2189670729146247e-21	0.9625782379586072	0.12144334143607613	-0.15318436923449472	0.27462771067057085	61.58825146661687
3	2.0	ltm	80	diff_vonmises	-0.14339539481848895	-8.21595092471153	2.2848115165380425	1.289301068019191	0.8152527100695668	1.3927201754271679	0.29350843311467906	-0.11597415056416245	0.4094825836788415	74.95075034676276
4	2.0	perception	80	diff_vonmises	-0.030734216069694904	-1.7609408674366709	7.387094387959174	0.873987858329315	9.91927197305009e-18	1.209219336456396	0.7379821628553126	-0.19245287790515905	0.9304350407604717	50.04338952142055
5	2.0	wm	80	diff_vonmises	0.05623414344670222	3.2219790840292934	6.450622241615826	0.3165051472067674	0.3452012066317129	0.7387661940782492	0.15273332762181993	-0.12452523376025544	0.2772585613820754	50.35318383216264
6	3.0	ltm	80	diff_vonmises	0.08415216390306333	4.821563828538682	1.4034934756595543	154.8003666710003	1.3911205501377244	154.8630376530156	0.3160818488932051	-0.12009046629715137	0.4361723151903565	78.94504113238719
7	3.0	perception	80	diff_vonmises	0.008185700159285504	0.4690060714866251	4.605506747537396	1.7325670835566276	0.39621990262485046	2.0415670154766765	0.9730246061867874	-0.30299839373460347	1.2760229999213908	60.018838242773114
8	3.0	wm	80	diff_vonmises	0.1519329912325876	8.705119166425408	2.9101838060331326	1.0549608607721734	0.8146354439988083	1.4965817263707775	0.22042290985561125	-0.17282004165728748	0.39324295151289873	65.69711715577444
9	4.0	ltm	80	diff_vonmises	-0.0773065678104007	-4.4293400641778655	1.5692301350966693	174.42366406171394	1.5557838146326637	175.00955750713183	0.14537563091643335	-0.19752307680164094	0.3428987077180743	68.23527015133678
10	4.0	perception	80	diff_vonmises	-0.11641876061853579	-6.670303639585938	2.2470259328402444	2.6620401405792466	0.31915969236595176	3.3501033352715255	0.7574782325426398	-0.39420189901528485	1.1516801315579246	82.58553823962876
11	4.0	wm	80	diff_vonmises	-0.08789151831773723	-5.035813054603108	1.286549291055265	172.2183113073794	1.2695052011488053	173.4056806846403	0.07021896509073144	-0.30873296498054614	0.3789519300712776	72.22560792346897
12	5.0	ltm	80	diff_vonmises	0.0014424046525673827	0.08264369894214488	1.2383770569772563	2.1076421107917107	0.3371753450662914	2.3869682359749524	0.2965620445312852	-0.19534593157248303	0.49190797610376824	104.17933428523968
13	5.0	perception	80	diff_vonmises	-0.02341088881149557	-1.3413451235487361	2.9975183800953102	1.4739285052841944	1.4779280626528267e-18	1.7730690745002904	0.6826614058412697	-0.279788917928912	0.9624503237701816	79.37051628215809
14	5.0	wm	80	diff_vonmises	-0.2000447638706721	-11.461720683480646	0.6367522947551157	106.66799242369997	0.6237979030183068	107.03276905795107	0.16371352789989047	-0.16650234387458163	0.3302158717744721	112.00549149594939
15	6.0	ltm	80	diff_vonmises	0.1331863704387417	7.63101691480585	0.6484894000697544	85.95747758572473	0.6356021713885897	86.32496517672683	0.11034518031356555	-0.1377778568080883	0.24812303712165384	109.47647790735803
16	6.0	perception	80	diff_vonmises	-0.19104450238320236	-10.946043685734493	2.0505111102010254	1.4624328169076606	4.494914647808754e-13	2.0231070609019777	0.44390688913728144	-0.3093075154966165	0.753214404633898	95.8245500579179
17	6.0	wm	80	diff_vonmises	-0.14241333214939728	-8.159682878555225	0.9258421237806398	59.56407018438107	0.8827797928573407	60.129103690773334	0.3079032271103799	-0.24289195522917684	0.5507951823395567	93.89972937925363
18	7.0	ltm	80	diff_vonmises	-0.07505690258364696	-4.300443741367535	1.0400949679339768	141.4281062330245	1.0202017709582136	142.1007402248118	0.29832816233102477	-0.2556633465448499	0.5539915088758747	87.16281483435515
19	7.0	perception	80	diff_vonmises	-0.02629022408740802	-1.5063188826616558	4.025199109320893	1.431341794035263	1.2268789371822095e-16	2.5762201858448783	0.6940922882674594	-0.4096658883114529	1.1037581765789124	68.24813406301573
20	7.0	wm	80	diff_vonmises	0.2754060772286463	15.77960587745544	10.218512792246118	0.5800573668511176	3.0707612709022177e-21	1.2771858120587085	0.526922822238319	-0.20327043426364463	0.7301932565019637	42.45434772408419
0	1.0	ltm	81	diff_vonmises	0.03291512409079598	1.8858976925519906	2.8839329111177565	0.8140864050625319	0.06483012597864507	2.9921466472615674	0.013714149380483653	-0.4544207792736918	0.46813492865417544	76.61222502152623
1	1.0	perception	81	diff_vonmises	-0.015759512635266558	-0.9029535611838677	10.495069204263276	0.6984458467713289	1.0070985702342195e-15	2.8943249101474926	0.43077070336875223	-0.4606461156813374	0.8914168190500896	41.88214809960539
2	1.0	wm	81	diff_vonmises	0.14684884287910552	8.4138189233525	3.0186346093144842	0.614503242749158	4.115484303524916e-15	2.855384141861081	-0.05058422997712503	-0.4534838920420993	0.4028996620649743	79.08208047465465
3	2.0	ltm	81	diff_vonmises	0.049343822847644894	2.8271927942112556	4.143505397673128	0.5827507189052215	0.04736703450400567	1.7942375535799673	0.15748369694000064	-0.27954719513964077	0.4370308920796414	65.59236584435524
4	2.0	perception	81	diff_vonmises	-0.06400304969368492	-3.667104623414222	7.241308447539029	1.0820771138718215	3.10302895249877e-16	2.14812641457938	0.7981311972570384	-0.3418843520770322	1.1400155493340707	50.55429635276309
5	2.0	wm	81	diff_vonmises	-0.03105701831527672	-1.7794360737258543	4.305038030398811	0.6107360266178467	0.08226957376453463	1.9927368449165848	0.144920203416036	-0.31004402216394045	0.45496422557997646	63.42078122964796
6	3.0	ltm	81	diff_vonmises	0.1211095914989691	6.939068451444403	2.4224629116067757	0.7271827241594011	4.422366528614997e-15	1.5488186842932994	0.17419166463317545	-0.24319203697032712	0.4173837016035026	88.35785024880894
7	3.0	perception	81	diff_vonmises	0.020466210968122945	1.1726275110977993	5.0832433692978745	1.7162176445728456	3.492678345874006e-12	2.4976122988151817	1.1038006014305253	-0.3974496346564512	1.5012502360869764	60.546124017616705
8	3.0	wm	81	diff_vonmises	-0.05492518136873907	-3.146981081419331	2.334535372765015	1.4869946203310824	0.4099671439003304	2.59148359242294	0.24548652558151185	-0.3152525671857754	0.5607390927672873	76.2775412595247
9	4.0	ltm	81	diff_vonmises	-0.021798895007340276	-1.2489846819693995	1.67050725082182	1.0998025167475645	0.2043348989867292	2.4904757603787413	0.027388904191267882	-0.3127049901666803	0.3400938943579482	90.46168148509881
10	4.0	perception	81	diff_vonmises	-0.046842657937032676	-2.68388660096696	2.3731357573703207	2.65618416725378	0.12997288795792938	4.464866969629802	0.7122110645743267	-0.620514739702393	1.3327258042767198	84.00263444035036
11	4.0	wm	81	diff_vonmises	0.07733993965704561	4.431252130145177	0.9367483467559827	269.1945479430737	0.9238027531087964	271.4199683533377	-0.06566973214094673	-0.4793432991146034	0.41367356697365665	80.89548149069202
12	5.0	ltm	81	diff_vonmises	0.1501212589507549	8.60131455306879	1.8065703939578772	1.0647191988447144	2.6027057676069876e-13	1.9052959432027468	0.21314573722208097	-0.2893107405179815	0.5024564777400624	101.69569176544769
13	5.0	perception	81	diff_vonmises	0.010951651389567258	0.6274834033207872	1.8992372876844572	2.338041048263577	1.8895721653101762e-19	2.882123057596023	0.7102297402141435	-0.43251215535415005	1.1427418955682935	99.41597133572182
14	5.0	wm	81	diff_vonmises	0.027371756662576137	1.5682861346247043	0.650697338662949	171.16513193329655	0.6363065744077546	172.0960565407517	0.21429960275946058	-0.3152892392473188	0.5295888420067794	108.31193074142452
15	6.0	ltm	81	diff_vonmises	0.4965066899010614	28.447737831341552	0.6325013807334702	115.76897570379113	0.620152261429348	116.30667605514898	0.12637500516659017	-0.18565299761359277	0.31202800278018294	109.8944772018159
16	6.0	perception	81	diff_vonmises	-0.058738357567403934	-3.3654599841425665	1.6521453587389916	1.7392096119343396	9.387817528471508e-20	2.3186293073097963	0.4298381900342399	-0.33968102735067646	0.7695192173849164	105.92861977411006
17	6.0	wm	81	diff_vonmises	0.02213951414691117	1.2685007210881893	0.5916451954315489	188.43757616964098	0.5803876378720695	189.37927287494506	0.15435409867364314	-0.2985648650429553	0.45291896371659845	112.34557306871193
18	7.0	ltm	81	diff_vonmises	-0.01941026145314145	-1.1121260605104735	2.8028870868547595	1.2748809919921251	0.4991878571048048	2.644627728006065	0.15095120730326106	-0.35251964765511973	0.5034708549583808	67.87629397432738
19	7.0	perception	81	diff_vonmises	0.10325737026402355	5.916211519748197	2.2790913753374817	1.740463993659278	0.03508149468478189	2.84223640382498	0.5027615664451173	-0.42644895794921206	0.9292105243943294	89.4816794522842
20	7.0	wm	81	diff_vonmises	-0.35285672485966063	-20.21720110726747	0.0007417773023087589	1793.2201335530906	2.1726894381869115e-19	1794.8151391286303	-0.04211216490705283	-0.4655153622804278	0.42340319737337495	176.42981560853144
0	1.0	ltm	82	diff_vonmises	0.004365217992404707	0.25010856761935996	0.8882611038754987	344.41884406415545	0.8749642642105873	347.931881237999	-0.2440392854814064	-0.7098133892156397	0.46577410373423334	79.69655323269183
1	1.0	perception	82	diff_vonmises	0.056006298075994054	3.208924505906122	9.318777264344678	0.7796736451024674	1.0292138962253346e-16	3.884411610654301	0.3178174016180866	-0.6182233013028258	0.9360407029209123	44.4811393357931
2	1.0	wm	82	diff_vonmises	0.1039418723301551	5.955430599205519	5.396657469155751	0.40643223732165035	0.016635324029393717	3.816530175162952	-0.25054340176967904	-0.6057266526754023	0.3551832509057232	57.62841140139096
3	2.0	ltm	82	diff_vonmises	-0.005750459175353066	-0.32947704101001046	2.9267577902246815	0.898307283409064	0.15007309207597602	2.7309032674204103	0.07789654100587329	-0.4026108849280685	0.4805074259339418	73.32335283093377
4	2.0	perception	82	diff_vonmises	-0.04356991781062396	-2.496372404280629	6.913080956232493	1.2724756375221624	0.11619885798461353	3.072181437927703	0.7610694910197184	-0.4944181633612977	1.255487654381016	50.58717022259819
5	2.0	wm	82	diff_vonmises	0.017393978918807364	0.9966015809871888	4.110884073648681	0.6022687750252284	0.1042696459809514	2.618615178295308	0.008697551017589233	-0.408405396234674	0.4171029472522632	63.44607820259722
6	3.0	ltm	82	diff_vonmises	0.1324605146723255	7.589428442854968	3.1865104095537284	0.6303766847359251	0.0624104523017276	1.7322992314921632	0.1340307619892364	-0.26372116523099115	0.39775192722022756	74.0684210315554
7	3.0	perception	82	diff_vonmises	0.06137260757550905	3.5163913917892926	4.895977745592671	1.9112614949618922	0.08315045431861441	2.8424255727510688	1.1477907013689805	-0.44035661452874564	1.5881473158977262	60.63919869043292
8	3.0	wm	82	diff_vonmises	-0.034762535247200375	-1.9917465548393454	3.181520949963174	0.6602644157323334	0.0862038969876176	2.038718837211848	0.094071777705655	-0.308587536537502	0.402659314243157	72.92258605608495
9	4.0	ltm	82	diff_vonmises	0.152895536196493	8.76026893044876	0.21691177469192108	122.9748686776213	0.20505784214005496	124.97835608257918	-0.13374241355129257	-0.4623312185690658	0.3285888050177732	151.26820140177716
10	4.0	perception	82	diff_vonmises	-0.03519924643428211	-2.0167682627252765	2.3862540530777374	2.9455257718001255	0.2479835485912467	5.268228836939406	0.6308523535657338	-0.6906968976082504	1.3215492511739841	79.8160700348723
11	4.0	wm	82	diff_vonmises	0.16151410616200226	9.254076614910653	0.6782502788299577	194.48262348674172	0.6642005741810719	196.96518180865442	-0.16947397737977354	-0.4878001610269962	0.31832618364722265	91.87291655368645
12	5.0	ltm	82	diff_vonmises	0.19533202047152037	11.191700376781114	1.4269995495083068	1.9763298085717556	0.27970337553209434	3.5650629720548883	0.09456838840475101	-0.3862087209137028	0.4807771093184538	94.01112864885351
13	5.0	perception	82	diff_vonmises	0.033875867879081145	1.940944256814141	2.2150943522412083	2.527127848775213	5.664119244456857e-22	3.91195320916128	0.7636910937039848	-0.6060927374322741	1.369783831136259	92.35431010000005
14	5.0	wm	82	diff_vonmises	0.013316943907137769	0.7630046818914507	0.5297253994379669	214.04518289834033	0.5169064064060215	215.77988084850472	0.0810991887889756	-0.45731951136816207	0.5384187001571377	115.16154879231387
15	6.0	ltm	82	diff_vonmises	0.37719491979097075	21.61167695779823	0.6390021866465974	119.4570918920667	0.6226697519151186	120.81862324999413	0.002859540405516725	-0.3094935132344947	0.3123530536400114	101.70856404071819
16	6.0	perception	82	diff_vonmises	-0.1324766205176364	-7.590351239816773	1.2662673625769723	2.2394025911071065	6.227432747263889e-20	3.4834286008801856	0.32188039355887355	-0.4847730571874327	0.8066534507463062	118.19257692001362
17	6.0	wm	82	diff_vonmises	-0.0972717133006358	-5.5732586381329865	0.4408886009762928	217.94634307280694	0.4305169080781487	219.53931043938422	0.045270208427787395	-0.4267502343569589	0.4720204427847463	124.88633613991992
18	7.0	ltm	82	diff_vonmises	0.03193917630072782	1.8299800031559654	1.1675302726957615	56.065589213942765	1.1044712662135656	57.88412656574149	0.0017375627912379343	-0.42658954037166374	0.4283271031629017	74.58746506644079
19	7.0	perception	82	diff_vonmises	0.04065946792779448	2.3296159095101547	0.9311563776907219	235.19833654626643	0.90984503589718	236.59833797432142	0.4991548891377562	-0.4960513634074175	0.9952062525451737	91.5895184713903
20	7.0	wm	82	diff_vonmises	0.04044110287931413	2.317104513839061	2.1732369766104713	0.776612682122215	0.07652873859288876	2.898153597567124	-0.07603836248846269	-0.4271287921266449	0.3510904296381822	85.79203488809432
0	1.0	ltm	83	diff_vonmises	0.10592495843728443	6.0690530635550575	1.5251750655438476	1.6102756557415803	0.3162392783632696	4.369004776571305	-0.22600951755133492	-0.5256555914140923	0.29964607386275743	81.77023424130985
1	1.0	perception	83	diff_vonmises	0.08765327410313886	5.022162666613213	10.709302640678079	0.6949870120418626	0.049543933143844476	3.4803885699339094	0.31456124390776397	-0.5635859769980174	0.8781472209057813	40.97208532500369
2	1.0	wm	83	diff_vonmises	0.05692386205255667	3.261497049196401	4.612190111280275	0.41963213314236647	0.09010813257163756	3.5244197478523294	-0.2640983228360749	-0.5615853302345881	0.29748700739851325	58.729139233094656
3	2.0	ltm	83	diff_vonmises	0.016295088169667307	0.9336397789154942	2.384395467762593	1.0421287004798512	0.30095030191792227	2.431491252996174	0.08605114520287149	-0.32390485045481077	0.40995599565768226	75.89335916496492
4	2.0	perception	83	diff_vonmises	-0.01997109550492352	-1.1442594846848075	7.421790697716453	1.197204996700256	0.18117195602925154	2.849364066179048	0.7385587756250098	-0.4690654248184798	1.2076242004434896	48.412519844781
5	2.0	wm	83	diff_vonmises	0.13219185008165496	7.574035095704936	6.460267029544607	0.35454740368046206	0.036575676640711194	2.239569566694891	-0.01768166009195732	-0.35693116776517714	0.3392495076732198	52.47866993484368
6	3.0	ltm	83	diff_vonmises	0.19004001817629465	10.888490980091134	1.7484804501408036	1.9581204476961	0.6117233245195931	2.9132096889610826	0.15092673193209882	-0.26203705466403593	0.41296378659613475	79.45002752542817
7	3.0	perception	83	diff_vonmises	0.03568609776740126	2.044662789363322	5.200792459862103	1.8309818975519572	0.1647465525777453	2.965721417175771	1.068542309528884	-0.46157519157519994	1.530117501104084	57.98317088368938
8	3.0	wm	83	diff_vonmises	0.12156385611742636	6.965095896864124	3.974339604629541	0.46446751099534145	0.13070925168034908	2.060140600823276	-0.016218807016734338	-0.32087401776822755	0.3046552107514932	63.50323693857604
9	4.0	ltm	83	diff_vonmises	0.2735530802243336	15.673436969657939	0.7372165538797203	236.74225168326072	0.7262610239925487	238.86076443690465	-0.11854294591120151	-0.4268341058651828	0.30829115995398126	89.22989430989023
10	4.0	perception	83	diff_vonmises	-0.04992508640442354	-2.8604967427994348	3.044598277991796	2.0402188360553057	0.11722005341136056	4.199935545056823	0.5985218376694892	-0.6174105421145747	1.2159323797840638	74.70326020904733
11	4.0	wm	83	diff_vonmises	0.14734665142708253	8.442341252157117	5.404401112728801	0.3443951599793567	3.683080164440226e-32	2.981414379077975	-0.16331915636499406	-0.474500541366127	0.31118138500113296	58.68405827850137
12	5.0	ltm	83	diff_vonmises	0.04235097391288574	2.4265320634770027	1.4551900444876087	1.9209114894254797	0.24973207100288244	3.525058412808282	0.10780736878113706	-0.39592995831844924	0.5037373270995863	94.91301683460821
13	5.0	perception	83	diff_vonmises	-0.0012777034724269119	-0.07320701643927201	2.5551469259995065	2.042749079956515	2.0172226560000007e-15	3.5612038829327997	0.6526368481221388	-0.559424812681246	1.2120616608033847	86.04683667326415
14	5.0	wm	83	diff_vonmises	-0.07250755257636915	-4.154376745448871	0.5352688223825699	211.30401095433115	0.5232119277088119	213.22025962230074	-0.002928968717974101	-0.4497547767814041	0.44682580806343	111.54200487157063
15	6.0	ltm	83	diff_vonmises	0.11769851866116157	6.7436283742263186	0.3715770695566633	122.12175279341889	0.35591512456567387	123.7518978889566	-0.010917819928039307	-0.41752046027658984	0.40660264034855054	132.5640104878166
16	6.0	perception	83	diff_vonmises	-0.08766842019520991	-5.023030473765001	1.4169540747219416	1.9335316765515593	3.0052877861092836e-19	3.6258218183768975	0.23211808016868785	-0.5295013652089492	0.761619445377637	113.08368090341402
17	6.0	wm	83	diff_vonmises	0.026856869509579287	1.538785273832478	0.5418435458136848	213.3075273340477	0.5286305680980544	215.16672889865475	0.060736852846524414	-0.4710516784458285	0.5317885312923529	113.04873312695186
18	7.0	ltm	83	diff_vonmises	0.031186141897457376	1.7868343100204167	0.8770703936534324	256.5715141607566	0.8623473421867743	258.9227415926072	-0.02155750953077984	-0.5167436381859929	0.49518612865521305	85.13186704613676
19	7.0	perception	83	diff_vonmises	0.0189148844613484	1.0837430496128448	1.3451638438247326	5.836616417025121	0.51078718038439	7.972529595845354	0.3843596802588847	-0.6101224870600853	0.99448216731897	90.23461380157644
20	7.0	wm	83	diff_vonmises	0.2660581364295333	15.244008322528115	4.541624224209083	0.7715124188908234	0.19067861588912619	3.2830977655066746	0.008828981986479634	-0.5220794423250891	0.5309084243115687	58.68964280757663
0	1.0	ltm	84	diff_vonmises	-0.04715455353771359	-2.7017569025346737	0.6393287323912935	99.93815786490015	0.6146277841552603	102.94823997779598	-0.3393352617149503	-0.5445588475312544	0.20522358581630407	86.72369115877456
1	1.0	perception	84	diff_vonmises	0.04973832647541002	2.849796187084798	12.020978680004553	0.7903140905517497	0.009032535891701	3.4728077828572115	0.5235640612298139	-0.5540166849628538	1.0775807461926679	39.02751168952176
2	1.0	wm	84	diff_vonmises	-0.05205719421602455	-2.982657521871047	4.0216116979593135	0.4156460656579841	0.07262490579507219	3.9383939683626963	-0.3526295546891084	-0.6223840461679458	0.26975449147883745	62.58434338557461
3	2.0	ltm	84	diff_vonmises	0.2957579313209326	16.945681222209497	2.170460289147872	0.587544418857607	4.421318135097459e-19	2.4978726678446415	-0.07914483884456708	-0.393401711676214	0.31425687283164694	93.17447490524899
4	2.0	perception	84	diff_vonmises	-0.015159951449303813	-0.868601235668344	8.39516754196976	1.2951667593418528	0.24430826145351825	3.258879232875491	0.820999962781729	-0.5559817523416603	1.3769817151233892	45.22740056885618
5	2.0	wm	84	diff_vonmises	0.12711752871439128	7.283297897467674	4.947804134303049	0.3711538562632814	3.479319314496032e-14	2.6672643813629806	-0.10448284810011721	-0.42449218102613434	0.32000933292601713	61.389748721291625
6	3.0	ltm	84	diff_vonmises	0.2508344462348656	14.371755125758963	4.830871625780115	0.3640873605838752	0.07959386982235064	1.3497410385944861	0.07768788552755343	-0.21220884050043765	0.2898967260279911	59.92641659839708
7	3.0	perception	84	diff_vonmises	0.04078533230420774	2.3368274070696806	5.595047280571342	1.9166253030213352	0.2354997952151926	2.87052910879951	1.1937498787858236	-0.4522471419719427	1.6459970207577663	55.56191751148762
8	3.0	wm	84	diff_vonmises	-0.1281883560102326	-7.344651782106788	8.180748315739102	0.29303918855849703	0.15396554545985905	1.8204904911886128	-0.007074559938189506	-0.3055857263514912	0.2985111664133017	45.16218977688669
9	4.0	ltm	84	diff_vonmises	0.0898101534382005	5.145742749431228	0.7658426228875925	178.75051320964153	0.752245439849339	180.89174745677965	-0.16659300881998718	-0.41752293228929815	0.250929923469311	84.96251214504798
10	4.0	perception	84	diff_vonmises	0.025030438971821067	1.434138512445123	2.807247062042533	2.338898664323933	0.28641094499388364	4.538590796913072	0.5320818563035911	-0.6205981584720937	1.1526800147756848	73.32220338533517
11	4.0	wm	84	diff_vonmises	0.3488689218009247	19.98871682247254	0.5932352783877947	96.87636466108309	0.5741944649012096	99.34462940253626	-0.2948724635219868	-0.4389678241601551	0.1440953606381683	87.83084593993752
12	5.0	ltm	84	diff_vonmises	0.2598672477281721	14.889296528504891	0.7637826924642294	146.22286477218788	0.7443411562475609	147.98136197593033	0.027460988972748623	-0.4014323889117062	0.4288933778844548	93.28127718217254
13	5.0	perception	84	diff_vonmises	0.07564779601942498	4.3342994413796	2.900648143602317	1.9183049213983145	1.863227593372134e-12	3.8239833154725402	0.6237844236755957	-0.6048791834513321	1.228663607126928	80.70662705547431
14	5.0	wm	84	diff_vonmises	0.013244938689263831	0.758879086804354	0.950720945495334	1.5210988466149733	4.370531242837309e-14	3.980953053828251	-0.12802552162735537	-0.5580797021373062	0.4300541805099508	130.66098622131483
15	6.0	ltm	84	diff_vonmises	-0.38786241849093345	-22.222879611267388	0.00018793562632361075	5613.582106614293	9.927100702830542e-30	5615.49330009782	-0.13626206956269016	-0.47207393325925295	0.3358118636965628	175.73341278410652
16	6.0	perception	84	diff_vonmises	-0.09764408020270102	-5.594593690051684	1.5558259803799332	1.4354516439527203	3.941949633554946e-15	3.442555146713979	0.08778210429354016	-0.5195922470125752	0.6073743513061154	108.72483514990509
17	6.0	wm	84	diff_vonmises	-0.2278791159409497	-13.056511582588778	0.1077181994775351	169.73956813091033	0.09876720182272059	172.1019461112163	-0.16039352599962697	-0.568518443652728	0.408124917653101	165.96626451734275
18	7.0	ltm	84	diff_vonmises	0.24292115463604108	13.918356915089985	0.8873987416165684	167.47291754937936	0.8703310612236966	169.28880183532317	-0.03085700904949107	-0.3948936618926169	0.3640366528431258	84.1724914488704
19	7.0	perception	84	diff_vonmises	0.07659544867385477	4.388595938922797	1.6391723503896	1.716873700410156	1.5388119938461733e-19	3.291018277614622	0.2610401790389979	-0.4941991883240742	0.7552393673630722	106.28441903926188
20	7.0	wm	84	diff_vonmises	0.08718477825966305	4.995319832062627	1.4074236123588033	2.118594597922918	0.49864326447723345	4.357745889143733	-0.19107867456030492	-0.4370199129780474	0.24594123841774246	77.2384737988632
0	1.0	ltm	85	diff_vonmises	0.14607765031187106	8.369632844058106	0.990063890018664	140.77086933852203	0.9528466528961662	144.5575186545119	-0.2667429406308912	-0.7817314161763349	0.5149884755454437	75.82643683536193
1	1.0	perception	85	diff_vonmises	0.07546494547075695	4.323822876659271	5.045883400583481	1.3579691663081788	0.20518874631934753	4.749145333727768	0.2648895412389838	-0.7609199848832029	1.0258095261221867	56.550239694815076
2	1.0	wm	85	diff_vonmises	0.17756419844898252	10.173679163750096	4.101985864815172	0.5172246403001267	0.015195574277358416	3.959757653523572	-0.2366685587365968	-0.6253987114291844	0.38873015269258754	66.19660409732688
3	2.0	ltm	85	diff_vonmises	0.06522575134513849	3.7371602676461873	3.189976138558928	1.195923502024569	0.44359669078573055	2.8396007472571814	0.1401687343476461	-0.4072783518268754	0.5474470861745215	64.97679838319527
4	2.0	perception	85	diff_vonmises	-0.05057060020644799	-2.8974819592728793	7.320498166644247	1.2562890703923824	7.667516294766119e-19	2.6862523464686743	0.9036838538188205	-0.4275297562177092	1.3312136100365297	50.271033891945365
5	2.0	wm	85	diff_vonmises	0.02165719206651469	1.2408657015155014	4.475796709477157	0.658572467598703	0.12385594527989857	2.4205264908283786	0.10377958969359907	-0.37903630928238313	0.4828158989759822	61.06393133447122
6	3.0	ltm	85	diff_vonmises	0.2083449627262814	11.937287047026373	4.336216279556909	0.49703322487875956	1.003267441420955e-14	1.4193921388967141	0.17337063456423285	-0.22583490225687777	0.3992055368211106	65.6808017356305
7	3.0	perception	85	diff_vonmises	0.05770736166026208	3.3063882699680764	5.088489048697187	1.7489690054497837	2.6603591063070753e-16	2.606257081969936	1.1159235588827128	-0.41474046657561703	1.53066402545833	60.51598740349306
8	3.0	wm	85	diff_vonmises	-0.04329633223617283	-2.480697105528917	3.8329856018601034	0.7308185035509893	0.10667247178559883	1.8802234342024304	0.21686747480310342	-0.2871335605531793	0.5040010353562827	66.8802514975192
9	4.0	ltm	85	diff_vonmises	0.5622988539858876	32.21735115843429	0.2928857756571218	171.62860121503465	0.28316592195961054	173.47190278536968	-0.08426346976621346	-0.43944633048663206	0.3551828607204186	137.77290421080352
10	4.0	perception	85	diff_vonmises	-0.05784923127033656	-3.3145167998665106	3.165226091020368	2.158455930638958	1.570309764237566e-18	4.852438194969586	0.6850118620497484	-0.7696934909360897	1.454705352985838	77.19416668469188
11	4.0	wm	85	diff_vonmises	0.15103806506047487	8.653843673787552	0.848275532648095	262.5481543727736	0.8346083238147186	265.2315064696721	-0.14767894067153975	-0.5487043807027021	0.40102544003116236	83.07714094125177
12	5.0	ltm	85	diff_vonmises	0.13046059215941883	7.4748413235122175	1.705071009382569	1.011857476886593	3.0964628168403e-16	2.180107721115277	0.1267918017438519	-0.3313214890161984	0.4581132907600503	104.40881561171273
13	5.0	perception	85	diff_vonmises	-0.011324085476940447	-0.6488223046740775	1.845050318264511	2.9029476866011086	3.998591081081336e-21	3.5170721447465962	0.8663251578313635	-0.5241483456085868	1.3904735034399502	100.76441883696597
14	5.0	wm	85	diff_vonmises	0.1132100666478523	6.4864590173167	0.7071769507526499	151.47318059156012	0.6872677965076819	152.61611922816323	0.25223066277715134	-0.36972220916445586	0.6219528719416072	103.7540876911194
15	6.0	ltm	85	diff_vonmises	0.582101427000655	33.35195501568012	0.8315182533704095	151.39440150254867	0.8179867111533421	152.06132187392728	0.18630719622274228	-0.22154167943263658	0.40784887565537886	95.99849621913705
16	6.0	perception	85	diff_vonmises	-0.033479208246861736	-1.9182173339847575	0.5611675986702294	85.40982739721952	0.5238157724592482	85.75645518258375	0.5127954913750479	-0.3769797767183851	0.889775268093433	122.53399167265191
17	6.0	wm	85	diff_vonmises	0.12363154185785524	7.083565563150082	0.6318247765143554	205.2947302275021	0.620317090817869	206.18992096838016	0.20702729824848376	-0.30736993070625473	0.5143972289547385	109.87415657531406
18	7.0	ltm	85	diff_vonmises	0.019565836165606972	1.1210398349337092	3.5751929867560754	0.9032430456748806	0.354095392140756	2.79565042234227	0.03829381945607779	-0.42658304835472566	0.46487686781080345	62.31153524204234
19	7.0	perception	85	diff_vonmises	0.08519860933070314	4.881520735033205	0.9786013059432002	367.7604753916332	0.9640861004975905	369.0571236238297	0.5779247982272437	-0.49843550388213487	1.0763603021093786	89.86057397923656
20	7.0	wm	85	diff_vonmises	-0.04473551777515162	-2.5631563628486624	1.1496586545163483	1.2150388478338303	2.539421656457546e-12	3.1434623520372584	-0.05098622893044846	-0.455216359377171	0.4042301304467225	122.58982864189605
0	1.0	ltm	86	diff_vonmises	-0.0005382532920979434	-0.030839641946234463	1.0841389949743963	361.9795260803965	1.073052455041848	364.1324677965476	-0.012104620087200146	-0.49390782853141246	0.4818032084442123	76.2886369527497
1	1.0	perception	86	diff_vonmises	0.10425619185974502	5.973439781669559	7.442272466703384	0.6576867808374653	6.957287394375187e-17	2.693111757357068	0.2743006750768875	-0.42862180714047843	0.7029224822173659	49.85023290275214
2	1.0	wm	86	diff_vonmises	0.08742673955835667	5.009183193283276	9.635393040195002	0.2690664905828774	1.0511474503399985e-15	2.205409270172271	-0.022347269602770392	-0.35100178548403504	0.32865451588126465	43.732561832602954
3	2.0	ltm	86	diff_vonmises	-0.1366894796979134	-7.831730290529588	1.8751695207892554	2.858883250774965	0.7787250736594824	3.924251057841019	0.24272939816010353	-0.3222938957981652	0.5650232939582687	75.29793443651533
4	2.0	perception	86	diff_vonmises	-0.028699644141499437	-1.6443684828352765	6.667673176267885	1.1219684753251722	0.02403710466581	2.3449810200575714	0.7500029152422785	-0.3717248967345469	1.1217278119768253	52.42765740337836
5	2.0	wm	86	diff_vonmises	0.03677790580196922	2.1072187817825396	5.153606094613323	0.4452919850426559	0.17564553135789235	1.7192500170774927	0.06872965260702452	-0.27561500342040945	0.34434465602743397	56.23751965128375
6	3.0	ltm	86	diff_vonmises	0.09552347987224682	5.473092241082611	1.2921196875027186	157.44434093591966	1.275054153151934	158.0557263150201	0.24949900438551254	-0.22510558234588984	0.4746045867314024	77.43561937957938
7	3.0	perception	86	diff_vonmises	0.06616934311136728	3.7912240934343924	4.602497218128558	1.8500660730216962	0.15843671533518378	2.3939546602029385	1.091019680260016	-0.36343804548765424	1.4544577257476703	61.865065798687255
8	3.0	wm	86	diff_vonmises	0.09369015094551414	5.36805023112158	1.7066822007451719	1.3557969114071677	0.42648120358761193	2.190596923644422	0.12459789735262927	-0.22437314991175586	0.3489710472643851	84.69326142350096
9	4.0	ltm	86	diff_vonmises	0.3139054669687297	17.98545842339148	0.24330507231482085	93.95471766997049	0.23055533267801864	95.20156249251262	-0.03637310491143708	-0.32130219127633275	0.28492908636489567	147.87803519401987
10	4.0	perception	86	diff_vonmises	-0.10803800803056875	-6.190121887152085	2.722797885843349	2.509000389695121	0.18734883010136363	4.159605654499418	0.7627378432032001	-0.575344922528025	1.338082765731225	77.5313192614878
11	4.0	wm	86	diff_vonmises	-0.04850959418041725	-2.779395012430288	0.9357805282522388	143.24515875690363	0.9171245513754752	144.9042823040945	-0.03259533803185377	-0.36200609608334844	0.32941075805149467	81.72267206053735
12	5.0	ltm	86	diff_vonmises	0.14562542262300235	8.343722106106974	1.457506699280249	2.1615194163385216	0.39559323397970547	3.232550682348509	0.18501912112434038	-0.303045357801108	0.48806447892544835	91.25487524915357
13	5.0	perception	86	diff_vonmises	-0.013453125882582875	-0.7708073343302094	2.6105833964570473	2.2261776938408975	2.207351062919244e-18	3.0136230165959974	0.8660356310080772	-0.4723647081012658	1.338400339109343	85.12700571486045
14	5.0	wm	86	diff_vonmises	-0.05844069780019825	-3.348405335750834	0.5508810574703596	169.4588937659822	0.5393238284493824	170.40692803697763	0.12748027109658722	-0.29409510108492043	0.42157537218150765	115.85531632132736
15	6.0	ltm	86	diff_vonmises	0.2505471202555972	14.35529255980242	0.6733564268864638	114.64002158562761	0.6597921298171914	115.54914778389765	0.04412238894152409	-0.22399353423124246	0.26811592317276656	101.29327098950935
16	6.0	perception	86	diff_vonmises	-0.2526619266144685	-14.476462038653175	1.4316340845943412	2.1057462959177853	1.6805579615091534e-14	2.8124063312296244	0.43909668222914905	-0.3969885477451103	0.8360852299742594	112.39720928179412
17	6.0	wm	86	diff_vonmises	-0.1552470220950815	-8.89499914802241	0.737288750044685	113.8410136536485	0.7164025678801433	114.75588763714667	0.19044826466034692	-0.2865108946821202	0.47695915934246713	101.31496311868366
18	7.0	ltm	86	diff_vonmises	-0.011305264518357927	-0.6477439431809086	1.0937655805490774	98.39105792930725	1.0632434112724176	99.65288649331167	0.11740584036983392	-0.3267613142240151	0.44416715459384903	80.01566559675035
19	7.0	perception	86	diff_vonmises	-0.06237272327251876	-3.5736938002527334	1.2136033027520257	322.0237448516179	1.193074652284506	323.1764928971609	0.7848636556129662	-0.5281061943042502	1.3129698499172164	81.71972113828343
20	7.0	wm	86	diff_vonmises	0.28023999085621604	16.05656872684596	7.612484354201751	0.5266296291272956	6.298221905848947e-19	1.9163514556548338	0.2645038664205906	-0.3049966677526604	0.569500534173251	49.28377813457715
0	1.0	ltm	87	diff_vonmises	0.17859240339877172	10.232590967847479	1.0727706539096635	337.6838474425381	1.0559114673309058	341.5472083914853	-0.2906879510913001	-0.8157834183104526	0.5250954672191526	72.04935484089478
1	1.0	perception	87	diff_vonmises	0.10870775158040634	6.228495365913888	3.9966776908932955	1.7447538151298505	0.2808105885544484	5.0173827203768315	0.3039293315139271	-0.7735644554144901	1.0774937869284171	61.70494765719721
2	1.0	wm	87	diff_vonmises	0.17849838696186307	10.227204222807755	4.531664431076603	0.45970271438159993	0.018546923606824448	3.6839316559233257	-0.21908027088300042	-0.5825994455847958	0.3635191747017954	62.79344940883712
3	2.0	ltm	87	diff_vonmises	0.07834950562830463	4.489095999438344	3.051724920111253	1.597494677464066	0.657356543929609	3.243441625982796	0.15981257792821746	-0.44118183443955317	0.6009944123677706	63.10394824147082
4	2.0	perception	87	diff_vonmises	-0.04051694604453477	-2.321450007111117	7.08848065537139	1.3692787591279039	5.473443932432972e-14	2.735015113784351	0.991386197324295	-0.4352901806519589	1.426676377976254	51.10506572514271
5	2.0	wm	87	diff_vonmises	0.03199361937758808	1.8330993616837647	4.687603125861442	0.6359490526159991	0.14311044359043393	2.2645691814491706	0.1189978252172108	-0.35653033272197776	0.47552815793918857	59.495073528089364
6	3.0	ltm	87	diff_vonmises	0.23617787464897985	13.531995431756345	6.194728627178666	0.39224821848813207	4.7893550671667164e-20	1.1411238891518927	0.1992339713139612	-0.18161392179666758	0.3808478931106288	54.737199720091155
7	3.0	perception	87	diff_vonmises	0.0745423758429619	4.270963530679659	5.163547840434381	1.729629003254051	1.1167190159600223e-18	2.399888158964241	1.143701968408686	-0.38190411674542796	1.525606085154114	60.064468793576964
8	3.0	wm	87	diff_vonmises	-0.062294486409580234	-3.5692111582040122	4.652208027928265	0.5480828773218582	0.049362744732273	1.405276771919725	0.2223945479089982	-0.21970803723324384	0.44210258514224204	62.1605696796874
9	4.0	ltm	87	diff_vonmises	1.1773794751988225	67.45887481422031	4.6467386966204485	0.5524592601629277	9.846384633249217e-26	2.210095541974504	0.10882953748253965	-0.35170523411169674	0.4605347715942364	63.32279572945856
10	4.0	perception	87	diff_vonmises	-0.07920792363397114	-4.538279728221073	3.57843087440568	2.091896292487441	5.309113005928318e-21	5.026095760531341	0.7127052034108334	-0.7987486177136436	1.511453821124477	72.4943248893999
11	4.0	wm	87	diff_vonmises	0.09247699432492283	5.298541476873344	0.9350614487027336	212.7103020801043	0.9187578145134361	215.1834971190963	-0.14745243346715142	-0.511470038389632	0.3640176049224806	78.65561190235334
12	5.0	ltm	87	diff_vonmises	0.1717946219856278	9.843106782821856	1.6479335398838182	0.9274224245356784	8.724566839595072e-18	1.9437254734144591	0.11598351373657623	-0.2936005750467478	0.40958408878332403	105.96109355526912
13	5.0	perception	87	diff_vonmises	-0.02775840040428349	-1.590439189199682	1.9373620514456693	3.0069958184524306	3.8257297012084866e-13	3.286306317345151	0.9985686788147405	-0.4914402413535316	1.4900089201682722	98.49430763933393
14	5.0	wm	87	diff_vonmises	0.1507887412368853	8.639558470963804	0.7517754291487876	146.657937460985	0.732497096114778	147.53657545739895	0.28415867483241186	-0.31898944323867795	0.6031481180710898	101.9193326989062
15	6.0	ltm	87	diff_vonmises	0.5882709202261908	33.70544093923787	0.9235293352209146	147.1880514885814	0.9108164002113892	147.63726691399515	0.21016119660367139	-0.1787345509409306	0.388895747544602	92.7163550739987
16	6.0	perception	87	diff_vonmises	-0.06567181792274786	-3.7627179999250493	0.5441922695183963	102.72594001854576	0.5153403652641937	102.6563793217023	0.5737160364636189	-0.3193714003380972	0.8930874368017161	125.32362220144421
17	6.0	wm	87	diff_vonmises	0.12676033742900425	7.262832344336144	0.672773862512348	166.9891051429671	0.6607959378592005	167.568557177812	0.2200083258001655	-0.2364093847754969	0.4564177105756624	108.26093889215124
18	7.0	ltm	87	diff_vonmises	0.02799972106846498	1.6042658447665752	4.002788804674447	0.6943428796662002	0.29798619064286425	2.3503025486953018	0.04109384684781697	-0.3678104064675061	0.4089042533153231	60.4388046636638
19	7.0	perception	87	diff_vonmises	0.04369088495447085	2.5033033110828073	1.0618769557392687	412.8779156693072	1.0479406016316477	413.9635419304132	0.7018848151758448	-0.49102471674588344	1.1929095319217282	87.31089117091867
20	7.0	wm	87	diff_vonmises	-0.027216083642784706	-1.5593667276065988	0.8969723085870226	1.366367957842693	1.1363873657529595e-19	2.9570158054840086	-0.03046521165031152	-0.3974201806768326	0.3669549690265211	132.99735556679275
0	1.0	ltm	88	diff_vonmises	0.29858581230775877	17.10770686771993	3.758179279612861	0.431391480465438	0.0617027574432831	2.307000899493961	-0.0696375584238122	-0.35949774813134994	0.28986018970753774	67.02552074988094
1	1.0	perception	88	diff_vonmises	0.07815597531073537	4.4780075290338	4.87212226214745	1.2968276611895786	0.3386103202646926	3.186351552732793	0.417376662068078	-0.5089733132999799	0.9263499753680579	56.7074729351657
2	1.0	wm	88	diff_vonmises	0.14591414604401723	8.360264739577705	3.5890734534050255	0.41044316888572907	1.017029361508867e-12	2.3527184227519014	-0.07715635854279979	-0.3742198779502587	0.2970635194074589	72.38004845029675
3	2.0	ltm	88	diff_vonmises	0.15877259062007643	9.096999344888781	3.5238435476894985	0.993321984328033	0.6836745368511866	1.9306847638686508	0.16885495079598034	-0.2765141504208166	0.44536910121679696	60.41638130719076
4	2.0	perception	88	diff_vonmises	-0.02722498752883626	-1.5598768826986182	8.229718274760371	1.1233963612342488	5.977672395402739e-26	1.9068912305822736	0.961154478672524	-0.30349107534898717	1.2646455540215111	47.37912907833734
5	2.0	wm	88	diff_vonmises	0.07162203305316066	4.103640214092588	6.653355384985967	0.423040054505208	0.06596762362792459	1.6102395881561324	0.15302859686850107	-0.2573705287344684	0.4103991256029695	51.643952785628244
6	3.0	ltm	88	diff_vonmises	0.29142311603093357	16.697314601123775	4.954932308109792	0.45350960658140277	0.11482106084212207	0.9386351481303411	0.22431963763986254	-0.14622106279770167	0.3705407004375642	59.53172639055188
7	3.0	perception	88	diff_vonmises	0.02116952018121338	1.2129241607005483	6.304516125403858	1.464898572632345	9.511536212627981e-17	2.1415718284235536	1.094887724630491	-0.3408369442915371	1.4357246689220282	54.24363470593528
8	3.0	wm	88	diff_vonmises	0.023183587344700458	1.3283217088242432	6.408557737423263	0.5346514103143487	0.21592324914926472	1.4295090167133295	0.24940404758991902	-0.23433444287913527	0.48373849046905426	51.350754914193914
9	4.0	ltm	88	diff_vonmises	0.6531530499962006	37.422913140879544	0.6622221545634494	154.4724404505341	0.6509004697976967	155.73203495082643	-0.01412091828071027	-0.2770840170712905	0.2629630987905802	98.62958408335425
10	4.0	perception	88	diff_vonmises	-0.06783942324311382	-3.8869126364321214	3.4491408561190164	1.8918299038273432	1.3061337869727485e-20	3.9975941754747444	0.7041804172231868	-0.6348836791557976	1.3390640963789844	73.86876315870134
11	4.0	wm	88	diff_vonmises	-0.08455166433260679	-4.844453517065185	1.2001389413379886	232.7754998659683	1.1838020238632334	234.96345060786564	-0.11968525963209231	-0.4915967252222728	0.3719114655901805	69.70592367304744
12	5.0	ltm	88	diff_vonmises	0.08050075039225695	4.61235324511243	1.616737632829076	0.9565101802390654	4.1550486411410966e-19	1.5857779248489754	0.18120708460671664	-0.23529083955513705	0.4164979241618537	106.92681615528718
13	5.0	perception	88	diff_vonmises	-0.041227549554076044	-2.3621645891150163	2.292000992549069	1.9956324046250729	2.1649666075540776e-18	2.1675504190021466	0.772226320598942	-0.33356427920584547	1.1057905998047874	90.8254776428735
14	5.0	wm	88	diff_vonmises	0.10250912847543865	5.873340423206962	0.7596855691595514	88.64668504055345	0.7339320683806378	89.28980758731933	0.2486189351129262	-0.2513289136229506	0.49994784873587683	102.25365326052471
15	6.0	ltm	88	diff_vonmises	0.45306463660924834	25.95869152433826	0.6537813749796408	117.78904480225097	0.6410162175026279	118.00079742117322	0.2278454455088621	-0.16396396624792686	0.39180941175678896	112.7505745558031
16	6.0	perception	88	diff_vonmises	-0.009517674891614161	-0.5453226020671247	1.6530022179978496	1.714404763772943	2.6278732369048585e-15	1.8132928673513031	0.4991055955625054	-0.25971256489494904	0.7588181604574544	105.91454341660598
17	6.0	wm	88	diff_vonmises	0.17136719460981184	9.818616998139248	0.719096333413342	178.52386154249842	0.7072138682137302	179.05045769754707	0.2539668070536294	-0.23375737930867047	0.48772418636229986	105.47083147363111
18	7.0	ltm	88	diff_vonmises	0.04467335243259826	2.5595945510883698	2.301799520557249	1.115293354542523	0.23173796580156475	2.628133628979265	0.10559022546073171	-0.35449483372160945	0.46008505918234116	79.2391639973089
19	7.0	perception	88	diff_vonmises	0.05679426462956913	3.254071663823443	0.9030478061622506	170.7568291996529	0.8743333856913812	172.10957388761372	0.5043604713783338	-0.4917015271224141	0.996061998500748	93.42498556951057
20	7.0	wm	88	diff_vonmises	0.21365794486790157	12.241698500369587	2.480691571485838	0.6839584175408279	2.946295572159121e-34	2.156287535066257	0.0580728857398955	-0.3403736010137373	0.3984464867536328	87.30048977668054
0	1.0	ltm	89	diff_vonmises	0.0015428108433908163	0.08839654991331279	1.6136207129698579	1.6839914673678844	0.23062192978311252	3.869182309220979	-0.0028232517827500025	-0.4745018436521464	0.4716785918693964	89.6371259455141
1	1.0	perception	89	diff_vonmises	0.007033615395309216	0.4029964768694582	11.592423935731956	0.5627377617183356	3.677090434937607e-24	2.8425546233319414	0.30315975038382587	-0.45240661924751246	0.7555663696313384	39.84058909543765
2	1.0	wm	89	diff_vonmises	0.140603718617493	8.055999660627347	4.431832444713967	0.47304311779135133	1.0998313511274433e-15	2.745997556475046	-0.052534252058957065	-0.43698470186520594	0.3844504498062489	64.95230808156296
3	2.0	ltm	89	diff_vonmises	-0.08711157276981826	-4.9911254664573335	2.452360105959625	1.0637698465942456	0.1869077487660385	2.3357242614712037	0.17563488262746108	-0.3228663364153116	0.49850121904277267	79.45704200841928
4	2.0	perception	89	diff_vonmises	-0.05939697813784305	-3.4031961631292265	6.467872403175388	1.080036876755285	0.052066197700310624	2.4877262495940347	0.6558749689273399	-0.39455007599475883	1.0504250449220986	52.89629075739444
5	2.0	wm	89	diff_vonmises	-0.0029790267040929554	-0.1706856572012943	4.589445954869408	0.5261054954408001	0.07182086118761055	2.0930652503135327	0.07828405567833957	-0.3283317073873215	0.40661576306566105	61.44059472783135
6	3.0	ltm	89	diff_vonmises	0.05232983353008431	2.9982786038960128	0.9107869499181748	239.08609956975636	0.8986287164313832	240.1185292933987	0.22059040559108212	-0.31020930509638234	0.5307997106874645	90.52323334873421
7	3.0	perception	89	diff_vonmises	0.016577811319292677	0.9498386221596736	3.908959839667291	2.286175256698562	0.2393562826911554	3.384831068038686	1.0610549029279532	-0.49633989413749136	1.5573947970654447	65.53787681644971
8	3.0	wm	89	diff_vonmises	0.039021621289587416	2.2357742096511997	1.5873991160440588	2.2768531970880197	0.4576228806844331	3.7365466062398722	0.128249460048791	-0.36346999655821444	0.49171945660700545	84.73472142626667
9	4.0	ltm	89	diff_vonmises	-0.012887295337449874	-0.7383876321745018	0.6963410865361062	140.0756523763345	0.6772726532241065	141.8049361740894	0.024182626827688125	-0.397206332018051	0.4213889588457391	97.92447786195976
10	4.0	perception	89	diff_vonmises	-0.06145914250442711	-3.521349477996762	1.4638624879992235	6.881972671425396	0.5724719231878297	8.734396624289841	0.6631462071673795	-0.6428496624209676	1.3059958695883471	88.09853222520795
11	4.0	wm	89	diff_vonmises	0.039505980906608715	2.263525971473093	0.7833831392657118	222.37340203316202	0.7685000364985679	224.76378845672346	-0.0794413134367602	-0.5019028717615122	0.42246155832475196	88.62153839670034
12	5.0	ltm	89	diff_vonmises	0.10408715761750575	5.963754832996057	1.8185449577627224	1.3356679530158388	0.0934727914910414	2.4552671094651215	0.2223079380636015	-0.338034035704138	0.5603419737677395	95.78251993985543
13	5.0	perception	89	diff_vonmises	0.001808507008497557	0.10361981880674012	2.030617155390644	2.275617677338074	1.9843820632040293e-16	3.257851803922207	0.6662737586599833	-0.4980920512795179	1.1643658099395011	96.31942773273661
14	5.0	wm	89	diff_vonmises	-0.10262464565031877	-5.8799590697888675	0.5769842155172573	223.36515539932654	0.5665422508355072	224.62424265951447	0.11374172517079728	-0.351920582662288	0.46566230783308526	111.65001621748524
15	6.0	ltm	89	diff_vonmises	0.2632664391768609	15.08405585227172	0.3540380035944108	134.42124987682553	0.3439430275454859	135.37434962765198	0.03822193935861051	-0.2776498423763325	0.315871781734943	135.70878506097293
16	6.0	perception	89	diff_vonmises	-0.12767180880952197	-7.315055807586773	1.7138921938640088	1.685828872979285	5.5530749947632455e-18	2.7837338348944862	0.34879494679079337	-0.41734151167481615	0.7661364584656095	104.17784331875058
17	6.0	wm	89	diff_vonmises	-0.0494887078109659	-2.835494091124457	0.6067000765286853	180.5828580430517	0.5937811501915317	181.90561059163514	0.09185618316971045	-0.3488166291613126	0.44067281233102307	108.01545949905262
18	7.0	ltm	89	diff_vonmises	-0.0717623552478162	-4.111680083618363	1.2631600378330932	14.838545474267312	1.0061824116523181	16.543078251294848	0.1258369180681429	-0.4346153113727771	0.56045222944092	77.4453511838729
19	7.0	perception	89	diff_vonmises	0.04842996747882948	2.774832738492761	2.2028744301317866	2.2157170976105482	0.14207030811490595	3.6971166921446263	0.5366045040565928	-0.5019404472264617	1.0385449512830545	86.41988075166458
20	7.0	wm	89	diff_vonmises	0.14898419208597577	8.536165420692772	6.663999387930195	0.5351717229340341	3.8186863130780284e-34	2.50686973833952	0.14088759607342716	-0.39897983111441837	0.5398674271878455	52.739343622620396
0	1.0	ltm	90	diff_vonmises	0.060098080236506535	3.4433663543904087	3.0073721219535865	0.6253785381652056	0.034655676620062206	2.8701849231749352	-0.06263715215595772	-0.4443620963780245	0.38172494422206676	76.29653189693579
1	1.0	perception	90	diff_vonmises	0.005318388090199653	0.3047211913810823	10.650886496217694	0.7203023141425282	3.416151723399503e-16	2.924765895577096	0.4606741472665937	-0.4654909491481994	0.9261650964147932	41.57713782246526
2	1.0	wm	90	diff_vonmises	0.10288092367495937	5.894642718982723	3.3589230400576415	0.508734439372694	2.1789164907950604e-14	2.8967538044016066	-0.10587552672075007	-0.46060324735529884	0.35472772063454877	74.87991112708346
3	2.0	ltm	90	diff_vonmises	0.0949887747859643	5.442455896354445	4.274596545884479	0.4948104541415181	3.3973263159763024e-12	1.8082394483315605	0.10658231512867117	-0.28771383652757615	0.3942961516562473	66.17328959157098
4	2.0	perception	90	diff_vonmises	-0.047721972846542636	-2.7342676341448087	7.8596320814053735	1.0830000948074174	0.03087025674760056	2.2770167574113347	0.8169727885228084	-0.3625008645470728	1.1794736530698813	48.220036986076906
5	2.0	wm	90	diff_vonmises	0.0025651188400330556	0.14697048348338743	4.59417433999619	0.5299866217757454	0.05736919988961333	2.0477569533095767	0.09433882040344949	-0.32121834269415117	0.41555716309760066	61.84068481171937
6	3.0	ltm	90	diff_vonmises	0.18837665533687584	10.79318730959354	3.2161056568692934	0.5527401689678408	2.2542240352860006e-16	1.378219427006549	0.157220471608116	-0.2187445482448555	0.3759650198529715	76.55979964712157
7	3.0	perception	90	diff_vonmises	0.02459264335895872	1.409054671538767	5.380272254419945	1.7077723719388598	0.04216469586213954	2.5012533642825385	1.1244415309929634	-0.3922363942479904	1.5166779252409537	58.30244019869579
8	3.0	wm	90	diff_vonmises	-0.05239103334116243	-3.0017850947777873	3.0801182795211477	0.9198819888810542	0.2867936194569206	2.0951415883686106	0.1763708126610663	-0.2986920633772963	0.4750628760383626	69.65324453868874
9	4.0	ltm	90	diff_vonmises	0.01739539234739031	0.9966825644796348	0.7826153023843301	93.24545921730447	0.7586066856991104	94.75196469543515	-0.01804380371622827	-0.32778528704244536	0.3097414833262171	90.53459346666156
10	4.0	perception	90	diff_vonmises	-0.033478760552668456	-1.9181916829969698	2.599558821634065	2.3869094593918216	0.12820312954943933	4.271756439582021	0.6695933530049686	-0.6059749174885121	1.2755682704934808	80.43387997100751
11	4.0	wm	90	diff_vonmises	0.08224503377839207	4.71229332141276	0.8872772389532841	242.50276475892696	0.8745570915299195	244.74505336828187	-0.12478019352383285	-0.4614866717851527	0.33670647826131983	81.08861177931772
12	5.0	ltm	90	diff_vonmises	0.17153930422730532	9.828478152835237	1.9657311456621875	0.9620016262622685	2.4814425759855767e-19	1.9342877942037713	0.18326556944224387	-0.29821804883408687	0.48148361827633074	97.76557402707195
13	5.0	perception	90	diff_vonmises	0.023495528152093183	1.3461946005457497	2.1417545813253636	2.154648611361635	4.42144571458878e-20	2.910309663309106	0.6951323835520886	-0.44721081999531453	1.1423432035474033	93.8838821821322
14	5.0	wm	90	diff_vonmises	0.024887332729692555	1.4259391287491818	0.6018951279322147	167.04360221463264	0.5872725160865344	168.19623638204592	0.15873354794348415	-0.34681327149829144	0.5055468194417756	110.83684413076315
15	6.0	ltm	90	diff_vonmises	0.3827366272667983	21.92919340745925	0.5511703507522854	109.81849322879677	0.5378888957747334	110.54064128446676	0.0910269610581409	-0.22061101734828448	0.3116379784064254	115.51489449518783
16	6.0	perception	90	diff_vonmises	-0.06415790647466187	-3.675977263393183	1.6738656477082678	1.635692235497811	1.3623292074384696e-14	2.44478911651193	0.3682142509374033	-0.3624686084874311	0.7306828594248345	105.31283346630399
17	6.0	wm	90	diff_vonmises	-0.0010472697395054406	-0.06000413608542688	0.5162795050947421	196.17309455896273	0.5055965758938848	197.3160695276142	0.10913457482790534	-0.33712275578064776	0.4462573306085531	118.47730143077646
18	7.0	ltm	90	diff_vonmises	0.024413308200946074	1.3987795238663308	1.917285033739322	2.1459447025039755	0.6385270453527513	3.588089631861403	0.1000252537307027	-0.3592259679227554	0.4592512216534581	74.48331870958435
19	7.0	perception	90	diff_vonmises	0.09108856610950473	5.2189903999730065	2.2144203883845353	1.6463342193369213	2.510118946989921e-13	2.858823614183088	0.447950132377564	-0.44422494158667	0.892175073964234	92.36041592782831
20	7.0	wm	90	diff_vonmises	-0.30621580802147996	-17.544873419819062	0.24513552008419012	4.49994584425833	6.881708646170485e-28	6.193596898182802	-0.08420143499909893	-0.43357542128040805	0.3493739862813091	164.01216114908095
0	1.0	ltm	91	diff_vonmises	-0.10963864506887827	-6.2818316339795395	1.4563008879382118	70.40640185590226	1.424866465337942	70.74643986938717	0.2490813759247068	-0.16332769181193907	0.4124090677366459	74.55107635300902
1	1.0	perception	91	diff_vonmises	0.021158090244340996	1.21226927355766	19.621180360172048	0.43298629589984095	1.907706448402206e-15	1.0069982144406626	0.5997896783252032	-0.16026874351294357	0.7600584218381468	30.556699714420745
2	1.0	wm	91	diff_vonmises	0.14676998552204068	8.409300729609127	3.9287594931026963	0.3305019226635007	1.2178500870603073e-20	0.7593252846055661	0.13074968089544978	-0.1207530258874494	0.2515027067828992	69.0975310652644
3	2.0	ltm	91	diff_vonmises	-0.13204584902393335	-7.565669851293042	2.9501291050982648	0.7966397017079208	0.86700641392391	0.6895770344655122	0.29855192213707205	-0.06464376487182286	0.36319568700889493	69.8996086136984
4	2.0	perception	91	diff_vonmises	-0.03386841340970836	-1.9405171471805707	8.01136227317008	0.8285944694987869	0.018716736121203382	0.8604820864889455	0.7805731783967229	-0.13663292377416314	0.917206102170886	47.9263691709705
5	2.0	wm	91	diff_vonmises	0.041041534356034456	2.3515067033419434	6.299597113833306	0.32687472790429667	0.7349083876902409	0.5161008336677934	0.16991604390000237	-0.09046046361757634	0.2603765075175787	49.323803488260836
6	3.0	ltm	91	diff_vonmises	0.04815418539867021	2.7590315892342967	1.4568450377635032	86.2283364574335	1.4410627441685007	86.15978940241504	0.26953671161582093	-0.07445334239340173	0.34399005400922267	79.45757594866598
7	3.0	perception	91	diff_vonmises	0.01390506380092488	0.7967014696531344	4.98378908129221	1.4786007229294253	0.47727027208134537	1.5376598934050527	0.9070125475146632	-0.23079475275425695	1.1378073002689202	57.700183413144174
8	3.0	wm	91	diff_vonmises	0.13136070411324255	7.526413939555591	2.2014932153651157	5.205851137155083	1.7807500715845965	5.425477666002248	0.23670789298549355	-0.1406403315383915	0.37734822452388506	63.578248054100754
9	4.0	ltm	91	diff_vonmises	-0.12205285412446908	-6.99311341885798	1.9036686471176578	147.89818556761233	1.889368025414743	148.28714418085423	0.1442132397979634	-0.15845814568591265	0.30267138548387607	62.52152585505124
10	4.0	perception	91	diff_vonmises	-0.11172107269718351	-6.401145948222868	2.2805201416621665	2.434044299495781	0.35013013725568287	2.781403415592992	0.7491155636715985	-0.31753292376935144	1.0666484874409499	82.16351541483132
11	4.0	wm	91	diff_vonmises	-0.06860336723674337	-3.930683403051464	1.4122161232390966	146.85569175937127	1.3941909814483744	147.77168825220772	0.09253420079071617	-0.2575144529965421	0.35004865378725825	69.80358709126497
12	5.0	ltm	91	diff_vonmises	-0.02568409156764142	-1.4715900474533996	1.6917642459822542	1.026690921876735	6.112129584825309e-10	1.1810759891617773	0.2904506783043774	-0.17174045076912275	0.46219112907350013	104.82446518258558
13	5.0	perception	91	diff_vonmises	-0.0036162716926944113	-0.20719710556402	3.250605122966298	1.3400577842221044	6.8237590486792824e-15	1.5562714684669925	0.6707675918345986	-0.24630906593822	0.9170766577728185	76.14928995447522
14	5.0	wm	91	diff_vonmises	-0.1863489240633457	-10.677006865633576	0.5846296994227148	99.16719677336914	0.5719516261549306	99.38982440475039	0.17948084796173802	-0.15057020489481765	0.33005105285655567	118.22447111216526
15	6.0	ltm	91	diff_vonmises	0.15596960297120127	8.936399982580937	0.8603849339140565	65.6876419130583	0.844336819422658	65.99991614488202	0.10367493869902589	-0.10955955484299995	0.21323449354202584	95.02144620412082
16	6.0	perception	91	diff_vonmises	-0.1721009791709426	-9.860659756563901	1.8451566092960627	1.7151952601467382	0.06967915097164039	2.221998991814976	0.4639480734179175	-0.3084033040909379	0.7723513775088554	97.8285794633174
17	6.0	wm	91	diff_vonmises	-0.1790860985026547	-10.260877613666246	2.132217668298797	1.3780308596982342	0.11288776420253728	1.8122196440726568	0.4169834378489474	-0.24690633766569856	0.663889775514646	89.85012141363671
18	7.0	ltm	91	diff_vonmises	-0.050456448474682	-2.890941546818579	1.1270971490213841	115.41328127623858	1.105823466106421	115.84308805567771	0.3033282885110111	-0.20181855800342952	0.5051468465144406	85.05184558623432
19	7.0	perception	91	diff_vonmises	-0.012685525844810261	-0.7268270918117561	4.654921158394388	1.1763805827857963	3.13969078890621e-18	2.159158026261386	0.6381113793598605	-0.34355178653740354	0.9816631658972641	63.33869800015242
20	7.0	wm	91	diff_vonmises	0.34905318721982215	19.999274453285576	6.896585278300003	0.6086094131424715	2.250268966469485e-18	1.0711751137722747	0.4547007370732	-0.17048217496655227	0.6251829120397523	51.81793418094816
0	1.0	ltm	92	diff_vonmises	0.0812351226985715	4.654429678855542	1.049807783800332	215.73366289326788	1.0324159404406397	218.1697649007863	-0.14032821109357485	-0.5205168832897797	0.3801886721962049	74.35389235721294
1	1.0	perception	92	diff_vonmises	0.06897924191471312	3.9522194357249694	6.28201517200681	1.051551507342814	0.10766080460644487	3.153901695554111	0.47132502532731013	-0.5049230371339835	0.9762480624612936	52.796549464257794
2	1.0	wm	92	diff_vonmises	0.1105928885108478	6.33650575583243	4.776146275069959	0.3592866028422595	1.7619451351111042e-16	2.600505060795855	-0.1098881641300723	-0.41386163613513177	0.3039734720050595	62.511203579362785
3	2.0	ltm	92	diff_vonmises	0.09824138898348926	5.6288169622569555	4.0488091961368395	0.8048409572949907	0.4177928694751579	2.0569467648971353	0.14672137678555852	-0.3188004748523163	0.4655218516378748	59.63148631260134
4	2.0	perception	92	diff_vonmises	-0.028311550084167005	-1.62213233129602	7.917550883714348	1.2076581849267414	1.3077275498210139e-17	2.186856010263463	0.9845897486153816	-0.3480487669486502	1.332638515564032	48.3162040251149
5	2.0	wm	92	diff_vonmises	0.03240886121086007	1.8568909662075248	5.24096753020906	0.501629284204237	0.11469488569731566	1.8178693585935857	0.1225836943471103	-0.2883342914731597	0.41091798582027	57.05262422624793
6	3.0	ltm	92	diff_vonmises	0.24979752265830027	14.312343781144158	5.95434867311099	0.3594856595925882	0.07584683830997015	0.8722696359641873	0.19234612224257205	-0.1380817079337775	0.3304278301763496	54.77873742804425
7	3.0	perception	92	diff_vonmises	0.059153076489780666	3.3892216280789667	5.870392741784365	1.5428835028204322	3.634405418542398e-18	1.9233054875531526	1.1502910692756392	-0.3060919759436994	1.4563830452193387	56.25780395014212
8	3.0	wm	92	diff_vonmises	-0.07356964820103569	-4.215230342181575	4.965081390163404	0.49594258370379835	0.16038958549328963	1.1655439092509714	0.21205131096110752	-0.18251052158893488	0.3945618325500424	58.6554709913336
9	4.0	ltm	92	diff_vonmises	0.6484286617013836	37.152225630805525	0.3416208010157727	105.88090701070699	0.3310260513252005	107.03655023548126	-0.046526160515270476	-0.27312611679069043	0.22659995627541996	131.02506769678027
10	4.0	perception	92	diff_vonmises	-0.06438919935878715	-3.6892293694849703	3.596649334247142	1.892447753760548	2.151804926664252e-18	3.9395323886487774	0.7453603342714153	-0.6259644730545714	1.3713248073259867	72.30247732470914
11	4.0	wm	92	diff_vonmises	0.01291107120443894	0.7397498890072397	1.0682137371493166	183.6513648870523	1.0527435453970682	185.46750170591255	-0.10435718684119877	-0.39031832150942236	0.2859611346682236	73.67867830276262
12	5.0	ltm	92	diff_vonmises	0.23856853767251238	13.668970333242743	1.3972070843619737	1.315070908571848	0.17879424347310044	2.1295704340115758	0.14365264107388676	-0.24793215551040437	0.39158479658429113	102.37566523385925
13	5.0	perception	92	diff_vonmises	-0.00046425861175964923	-0.02660005905643055	2.451912975506118	2.2545794665676704	4.7103061921498476e-20	2.543955850430197	0.9087798869930992	-0.3951381976309287	1.303918084624028	87.83921756593912
14	5.0	wm	92	diff_vonmises	0.1305059966410929	7.47744280868312	0.690230349613342	131.54344793979635	0.6722120689145431	132.2971916089021	0.24082695495013695	-0.28211536622773714	0.5229423211778741	106.44172636471592
15	6.0	ltm	92	diff_vonmises	0.4747849487230162	27.203173738164033	0.8844943514452653	109.73500510267657	0.8705131458199361	110.1553384033315	0.15919908625682666	-0.15425847711863838	0.31345756337546504	94.08961800290285
16	6.0	perception	92	diff_vonmises	-0.1164497799336347	-6.672080915424492	1.360673930110222	2.0307438557612025	6.1966976780524e-17	2.1668626875013	0.48454167799367104	-0.2903009824223722	0.7748426604160432	114.93132750240878
17	6.0	wm	92	diff_vonmises	0.00890175779577135	0.5100331519453769	0.6084794123949316	168.50993113601038	0.5972942582600329	169.11595743983145	0.19619297753437337	-0.24217203046570823	0.4383650080000816	113.34244155973404
18	7.0	ltm	92	diff_vonmises	0.10910368496825724	6.251180678006061	1.4022423760890015	3.7052707093868715	0.8070245109165233	4.814565288352113	0.07256563454704645	-0.27603362127419245	0.3485992558212389	78.75540385965377
19	7.0	perception	92	diff_vonmises	0.013862995842679374	0.7942911531929343	1.0168233947259167	250.97242920876656	0.9978344454058702	251.86616218973728	0.595918140895435	-0.4146529623694697	1.0105711032649047	89.48787545721086
20	7.0	wm	92	diff_vonmises	0.006863942476293902	0.3932749347122157	0.9233063080866254	1.1045579880128018	1.4125522797468404e-32	2.2821150394900616	-0.0018515873896740587	-0.30619565979556196	0.3043440724058879	131.84786485673445
0	1.0	ltm	93	diff_vonmises	0.18855869754267615	10.80361755967915	2.304670228912418	0.41437850840016927	2.8690284632559945e-15	1.4093407728954122	0.00844491590243543	-0.22198568912093272	0.23043060502336815	90.54455929425123
1	1.0	perception	93	diff_vonmises	0.03951770429053481	2.26419767189367	10.471383017441187	0.6192444203258944	1.2471210147276941e-17	1.6988956020787331	0.5189534730166259	-0.2703876322339932	0.7893411052506191	41.93519568677527
2	1.0	wm	93	diff_vonmises	0.042468803290985076	2.433283189544746	5.120566190555515	0.2841925612881343	5.04405470324299e-19	1.456127852765535	0.01779413758606954	-0.23174104108999133	0.24953517867606087	60.32609144385302
3	2.0	ltm	93	diff_vonmises	0.10780686906856589	6.176878600148286	4.371935880838216	0.43921822825684714	0.1820627334666804	1.0643160465510748	0.15284858334428839	-0.16415677242343993	0.3170053557677283	61.74472821924027
4	2.0	perception	93	diff_vonmises	-0.012089054079894229	-0.692651777083348	8.662801030305054	0.9786047625912446	0.019522815917019636	1.611794029714388	0.8698265426638916	-0.256549449040893	1.1263759917047846	46.03491523151314
5	2.0	wm	93	diff_vonmises	0.0932334821388511	5.341885035864512	7.385396901046113	0.28799114658763747	0.06565696635844356	1.1496342678933746	0.11135841585646011	-0.18466665012873784	0.29602506598519795	49.07309142440039
6	3.0	ltm	93	diff_vonmises	0.26351556706119666	15.098329828603182	1.8945386004211997	2.9308432468127794	1.2471839268869154	3.2200327145677394	0.21437050427887638	-0.1405257882313084	0.3548962925101848	71.42368056872837
7	3.0	perception	93	diff_vonmises	0.012323248158289609	0.7060701093623593	5.96995732710911	1.5303815918946064	0.17349479378724203	1.9751349920017325	1.0864107623229877	-0.3111109411291015	1.3975217034520893	54.48878690502124
8	3.0	wm	93	diff_vonmises	0.048010503180476234	2.7507992045407037	5.124699239435855	0.5121494319484136	0.46089786584818204	1.2152382292713537	0.15895431468905408	-0.19992355951226726	0.35887787420132133	54.24427793839595
9	4.0	ltm	93	diff_vonmises	0.0226005126074477	1.2949139872389606	1.3582579579835532	157.72465508931964	1.3435763223345984	158.6325947255792	0.04907585511054435	-0.23974162849589575	0.2888174836064401	70.00263192520222
10	4.0	perception	93	diff_vonmises	-0.06539250814582348	-3.746714728530542	3.4504025644129506	1.6591122365111477	0.006636540748637193	2.9713832163989133	0.6996838894415469	-0.46859306946165846	1.1682769589032054	73.62198003586707
11	4.0	wm	93	diff_vonmises	-0.08366641280123027	-4.793732340509818	1.19824156929792	193.24968845272122	1.184010978981454	194.79244208523477	-0.07169907376925266	-0.34939052000337156	0.2776914462341189	70.262720961627
12	5.0	ltm	93	diff_vonmises	0.13377070452138673	7.664496791567059	1.6252655820417077	1.265169181269881	0.22219932169273032	1.800094235591794	0.22194987344585654	-0.2060839116175103	0.42803378506336687	95.92453576886038
13	5.0	perception	93	diff_vonmises	-0.006451632345858293	-0.36965130438776683	3.28080133387164	1.4794099608208802	1.0736188029907205e-19	1.8993845050658233	0.7169058160557958	-0.3008554730675604	1.0177612891233563	75.79314227348806
14	5.0	wm	93	diff_vonmises	-0.02453199613820731	-1.405579841750513	0.5909915964177164	120.22437031245036	0.5774773854088482	120.87649926559006	0.13661044700538838	-0.2234719602489026	0.36008240725429097	113.48198498984077
15	6.0	ltm	93	diff_vonmises	0.16781056707816555	9.614837251275885	0.5925743498270767	90.63044317962897	0.5787123921119213	91.04219522568881	0.12974329568436715	-0.16495597494204706	0.2946992706264142	114.84289272696074
16	6.0	perception	93	diff_vonmises	-0.12602660077313627	-7.220792330680866	2.1065852046669464	1.2439147727731565	1.0590303056795655e-11	1.8259939706703792	0.37149916425922025	-0.28081677062240673	0.652315934881627	94.61971353593306
17	6.0	wm	93	diff_vonmises	-0.04642202388510396	-2.6597860450719577	0.6738574686860443	146.26149634411965	0.6598502844741212	146.99623969858675	0.18634030845085192	-0.25365018748192014	0.43999049593277206	106.71145795884783
18	7.0	ltm	93	diff_vonmises	0.08818967420920483	5.052896128821162	0.8528329383478355	134.0117021261845	0.8344658283740867	134.9852455713643	0.16773536461537475	-0.2796913304456581	0.44742669506103283	93.08349351324054
19	7.0	perception	93	diff_vonmises	-0.007124286332351377	-0.4081915388864704	2.6578725813400768	1.5459580795168297	8.258531964491762e-17	2.7594925228423017	0.5050869729544611	-0.43454645043955087	0.939633423394012	84.364169105554
20	7.0	wm	93	diff_vonmises	0.2662130504761998	15.2528842435894	7.727731008748398	0.40546604022586274	2.3694785980452463e-18	1.5013690192684959	0.20292471020440978	-0.23895021508961306	0.44187492529402284	48.91113342357599
0	1.0	ltm	94	diff_vonmises	-0.04215060709682749	-2.415051890562391	0.8942706641328967	367.57438336539246	0.8818668131271582	370.91162145204737	-0.19666910674979476	-0.6847900266237303	0.4881209198739356	80.45317234256805
1	1.0	perception	94	diff_vonmises	0.0630776552726561	3.6140834287043186	10.43135934727428	0.6795811554781745	4.783084791644221e-22	3.648701619879719	0.2837329908306121	-0.5807088979189862	0.8644418887495983	42.021156895694645
2	1.0	wm	94	diff_vonmises	0.09177858151939174	5.258525370758521	6.757170607631198	0.3649252200884028	0.024229336268471444	3.6484553822624286	-0.22396021055632126	-0.5817891666684774	0.3578289561121561	51.31057071531228
3	2.0	ltm	94	diff_vonmises	-0.0893916812089414	-5.121766056851251	2.407886136719777	1.1425394624648275	0.17722539204562315	2.9553716659122005	0.10145217371730819	-0.41399683730701753	0.5154490110243257	79.27183831923278
4	2.0	perception	94	diff_vonmises	-0.04137847006842793	-2.370811697629323	6.427951715871794	1.2792320985975363	0.15640472818740828	3.20282708477305	0.6740319251767691	-0.5169546694725683	1.1909865946493374	51.954071879953034
5	2.0	wm	94	diff_vonmises	0.02167755177549126	1.2420322269119735	4.223581633797735	0.5371546709895065	0.09679352483933874	2.585855816075362	-0.026935187380513703	-0.40507811766345236	0.37814293028293866	62.61798617559421
6	3.0	ltm	94	diff_vonmises	0.04931077441910234	2.825299258736228	0.9955579752514131	151.16198521720784	0.9767145462934784	152.3424516019725	0.1412929310770039	-0.31329901040669483	0.45459194148369875	84.60455547394787
7	3.0	perception	94	diff_vonmises	0.06347028558511869	3.6365794885173277	4.146726127186197	2.2801334621788696	0.25710042851952936	3.2778367588462576	1.1240741035652682	-0.4851187829332036	1.6091928864984717	63.68357689145839
8	3.0	wm	94	diff_vonmises	0.10717580225393902	6.140721135079402	0.9625660460769658	5.484108943861149	0.5748708564482569	6.973562779900018	0.016333739981107875	-0.3366156580363311	0.35294939801743896	92.71096643427848
9	4.0	ltm	94	diff_vonmises	0.016534583130049938	0.9473618293600718	0.32759429523964734	162.69788071892862	0.31653967257000387	164.761859768715	-0.11596255035240688	-0.4677695605601535	0.35180701020774663	135.4248445659174
10	4.0	perception	94	diff_vonmises	-0.04089254888290008	-2.3429704645225837	1.6494476427889877	6.01845151139615	0.5865059464731405	8.157329432108599	0.6162924953472859	-0.6797946426999687	1.2960871380472545	83.49003808823943
11	4.0	wm	94	diff_vonmises	0.07501637703686789	4.298121798574635	0.5781316674621447	151.8594186435868	0.5620900870249455	154.25206524068295	-0.1586330107378373	-0.4744664772805933	0.315833466542756	100.53081073565582
12	5.0	ltm	94	diff_vonmises	0.1892278731184445	10.841958495923913	1.0973276706463826	5.337641548634553	0.557947688729356	7.116295046816279	0.08847520964840072	-0.4263360379923641	0.5148112476407648	91.37211394115377
13	5.0	perception	94	diff_vonmises	0.03643119787798206	2.087353881014333	1.9531407229782476	3.1946664963032134	0.16274831293728803	4.8903292318076375	0.7147598135606767	-0.6312374192091202	1.3459972327697969	90.75092302950424
14	5.0	wm	94	diff_vonmises	-0.07983490503637797	-4.5742031164121775	0.4679619112323456	237.86068235697894	0.4573696780174013	239.7952786077154	0.005984499012122058	-0.4785194681564704	0.48450396716859245	120.1254949786926
15	6.0	ltm	94	diff_vonmises	-0.2912589094113564	-16.687906254853896	0.00016670166303975318	5662.104928424294	5.129687960593019e-31	5663.820228912895	-0.12277098534286779	-0.423213597440963	0.3004426120980952	177.57833959576416
16	6.0	perception	94	diff_vonmises	-0.1961163231114308	-11.23663760790895	1.3537418833374184	2.1004268408892823	3.7658574863013204e-16	3.728188326068937	0.26189880328831683	-0.5363087508676523	0.7982075541559691	115.05835350613629
17	6.0	wm	94	diff_vonmises	-0.21573168199622517	-12.36051488564211	0.44465051718761445	186.90500778213945	0.4319413877444327	188.77982318632985	0.0003379165036960785	-0.4673740787760394	0.4677119952797355	122.97614425042384
18	7.0	ltm	94	diff_vonmises	0.0025086178026001073	0.14373321250036883	1.1318369394319636	131.78890775804877	1.104059654835084	133.65775754498168	0.008657735523378562	-0.4382710943775727	0.4469288299009513	75.37537365218012
19	7.0	perception	94	diff_vonmises	0.0033235998092602066	0.19042824186109525	0.9786524519181407	153.80818946583236	0.9435891205257412	155.33565524730216	0.5177285132064711	-0.5270230079208993	1.0447515211273704	89.38799885508124
20	7.0	wm	94	diff_vonmises	0.15824661623964556	9.066863232758084	3.0892511369578064	0.7871033054020052	0.1651854298301035	3.0284940358571166	-0.0405293590067185	-0.45492066463925046	0.41439130563253196	69.86748872550598
0	1.0	ltm	95	diff_vonmises	0.007121545006973104	0.4080344725120233	2.727859184801069	0.784149265835937	0.09006696465419578	2.068012174852581	0.12681543796835493	-0.3061723364520261	0.432987774420381	78.57300562032285
1	1.0	perception	95	diff_vonmises	-0.02724068786627472	-1.5607764457707733	11.411186587457266	0.6464814963670856	4.560143612497987e-19	2.032070070559842	0.5375756342508954	-0.32341399633309675	0.8609896305839921	40.16031186389884
2	1.0	wm	95	diff_vonmises	0.14195318942138882	8.133318642266705	2.6174308039062293	0.6142811913634277	2.6055203127707025e-21	1.990987596152434	0.05501501018449545	-0.3148942197430415	0.36990922992753694	85.00297860338702
3	2.0	ltm	95	diff_vonmises	0.05452562590925918	3.124088239909723	5.0762669110984024	0.4486297835456155	1.0069372994184575e-21	1.1755172907259859	0.2050792380001458	-0.1870741015120229	0.3921533395121687	60.588531300437666
4	2.0	perception	95	diff_vonmises	-0.05872054035639809	-3.364439133149238	7.310847454012288	1.0318223339651245	1.4945946873364708e-20	1.6373346289045267	0.8318715872824822	-0.26058941169315597	1.0924609989756382	50.31135896016602
5	2.0	wm	95	diff_vonmises	-0.03383271841543541	-1.9384719746589874	5.083913256702647	0.48469462393502766	0.05640032712185878	1.3466922290225096	0.1974497357079229	-0.21154768352355738	0.40899741923148025	59.31438432822023
6	3.0	ltm	95	diff_vonmises	0.13627649861012242	7.808068217180444	2.3661848023617074	0.7461537556565527	0.14379573148801983	1.187646239726719	0.20857726345859245	-0.16288019162388828	0.37145745508248074	83.91025642251367
7	3.0	perception	95	diff_vonmises	0.013842168765585406	0.7930978495758564	5.3256895158062125	1.588245755437887	0.03150814785457438	2.0460711265146143	1.0881843103104187	-0.32117870283893585	1.4093630131493546	58.75264053158787
8	3.0	wm	95	diff_vonmises	-0.05074672318151167	-2.907573062419316	2.0247685497508146	2.2254337985873267	0.779554887451277	2.904128229981311	0.28615159684966385	-0.24651095175965035	0.5326625486093142	75.07626186763233
9	4.0	ltm	95	diff_vonmises	-0.11101497583727854	-6.360689578222873	1.1816062755961445	98.36330663893476	1.1582637608892297	99.2248116468008	0.10598882126171816	-0.23456568838462566	0.3405545096463438	77.39368627974574
10	4.0	perception	95	diff_vonmises	-0.0627022552775974	-3.5925745933582234	2.5165980408289355	2.3867248804925	0.09893608833028947	3.682550196912227	0.766564549304768	-0.5260509563305733	1.2926155056353412	83.08210451410127
11	4.0	wm	95	diff_vonmises	0.004449184320698851	0.25491948385182434	1.1322949768382546	229.05916846921593	1.1178915418299722	230.75683949878862	-0.0019790763412856904	-0.3961743607961772	0.3941952844548915	74.85740632760178
12	5.0	ltm	95	diff_vonmises	0.1585796240678546	9.085943175859281	1.7787990928848318	1.021038553714079	3.7009870997829575e-17	1.484436296282184	0.25431778815912665	-0.22227044535001866	0.4765882335091453	102.40751959037507
13	5.0	perception	95	diff_vonmises	0.0053740122920657545	0.30790822338679363	2.1270557685621982	1.9749093265779571	3.5519412056430554e-17	2.194262166182407	0.7080957737486073	-0.334206721093654	1.0423024948422612	94.19777006578954
14	5.0	wm	95	diff_vonmises	0.019312637150152974	1.1065325999713274	0.666523193619988	136.05843988044572	0.651804623222441	136.5728219293761	0.23919792510201887	-0.2333227129893949	0.47252063809141376	109.62569447768793
15	6.0	ltm	95	diff_vonmises	0.4625989052084186	26.504964875814824	0.6617587909910134	92.05771600028112	0.6495702216201376	92.31876818568182	0.14154908582938575	-0.12906855358977953	0.2706176394191653	110.37309444051334
16	6.0	perception	95	diff_vonmises	-0.08198926679112285	-4.697638952503458	1.8607775753158928	1.5184577973948945	2.7083047956968126e-12	1.835962626020382	0.4576094903222718	-0.2740589033107469	0.7316683936330186	100.35698466212142
17	6.0	wm	95	diff_vonmises	-0.02815907715515117	-1.6133962759734148	0.6534691254517487	148.0595920244963	0.6401885426124905	148.68516054465346	0.20273349735040114	-0.24132903104535863	0.44406252839575977	109.3540072009484
18	7.0	ltm	95	diff_vonmises	-0.02040283654166116	-1.168996423932477	2.4755290770570197	1.3671936550380928	0.574133547129238	2.243676702643412	0.21626545358507365	-0.2627545664232197	0.47902002000829336	71.67562481410343
19	7.0	perception	95	diff_vonmises	0.07251506007587302	4.154806893485139	2.5632960763401855	1.5172539542865342	3.2701376316685135e-13	2.3890809579839045	0.5271745121054727	-0.37484687845869274	0.9020213905641654	85.90679416826634
20	7.0	wm	95	diff_vonmises	-0.2702378221015893	-15.483486671228226	0.0002947756647362364	4412.739966437896	1.4351970749475009e-30	4413.800059230316	0.03831258774391699	-0.37572009541247553	0.4140326831563925	177.90615585940964
0	1.0	ltm	96	diff_vonmises	0.06019975596354784	3.4491919444287995	0.9516530208874403	375.7679391525516	0.9383235879198522	379.2433223767543	-0.19545622219433767	-0.724962812848176	0.5295065906538383	78.19229750761775
1	1.0	perception	96	diff_vonmises	0.08201587448111711	4.699163460842721	7.566335869281778	0.7997052365734447	0.031333071744726645	3.9817056055924054	0.20827550507630777	-0.6355937749395155	0.8438692800158233	48.83214953246451
2	1.0	wm	96	diff_vonmises	0.1439097722274937	8.245422579324378	5.756546920496385	0.4044872082078045	0.01001676339287278	3.625462186986587	-0.20487995574945916	-0.5758168730282858	0.3709369172788266	56.19893633917346
3	2.0	ltm	96	diff_vonmises	-0.05286712103409628	-3.029062910261017	2.29213501497377	1.7073685789700517	0.4669752527275504	3.3209470195136013	0.15694122603661254	-0.404456993627321	0.5613982196639336	73.81921026091527
4	2.0	perception	96	diff_vonmises	-0.04805677012040118	-2.7534501049293887	6.462261954765202	1.2578353394810315	0.08011915307708763	2.9045791566766765	0.7487965817639343	-0.46201712885095697	1.2108137106148913	52.63138653735987
5	2.0	wm	96	diff_vonmises	0.027973251420133502	1.602749245631986	4.571534040182032	0.5773054046740598	0.12158751778267136	2.3937623160011228	0.04846131234834161	-0.3767759237329441	0.4252372360812857	60.21737338916256
6	3.0	ltm	96	diff_vonmises	0.11614604610793601	6.654678249116595	2.6510352747506984	0.8927100710540885	0.16247623112726875	1.9437792782019758	0.18291401386241496	-0.2753717115450306	0.45828572540744555	77.78666323340249
7	3.0	perception	96	diff_vonmises	0.06118070871003481	3.5053963967042696	4.884475697460263	1.813543257573286	0.009790515011222353	2.7826498340218326	1.1055930403977272	-0.43968697815323565	1.545280018550963	61.620329819266885
8	3.0	wm	96	diff_vonmises	0.04300280119013992	2.463879015435171	2.3704558088436127	0.9771010730806636	0.18165907745750043	2.310024936221689	0.12075478883693819	-0.3197048500379459	0.4404596388748841	80.23729279895053
9	4.0	ltm	96	diff_vonmises	0.3149688575020366	18.046386212924137	0.1710279655874196	153.06033817177948	0.16133112079728712	155.00825172912735	-0.1078684963337544	-0.4772506239749603	0.3693821276412059	156.64426404374385
10	4.0	perception	96	diff_vonmises	-0.07331473729987212	-4.200625023393025	2.809484975802812	2.398486898137172	0.08881881386939484	4.755032721273885	0.6874496688811327	-0.7001249865502621	1.3875746554313948	78.49710919024014
11	4.0	wm	96	diff_vonmises	0.10921980982151064	6.257834141994056	0.7448864452190677	220.73250983829965	0.7304066861804972	223.2576173796342	-0.12320766535788152	-0.5152726344154601	0.3920649690575786	89.59062941389789
12	5.0	ltm	96	diff_vonmises	0.09670699749280891	5.540902805720184	2.0986341175827077	0.9984786746447812	0.004614488460365001	2.4706920525407274	0.1351992242062428	-0.38343642609032574	0.5186356502965686	94.46252537906892
13	5.0	perception	96	diff_vonmises	-0.00462443445884442	-0.26496057712665005	2.0783317993870725	2.677040166605932	2.5798108944303827e-20	3.79813328516015	0.808910579422386	-0.5823572222370508	1.3912678016594366	95.25555104638909
14	5.0	wm	96	diff_vonmises	0.010872956258882804	0.6229745044643376	0.5910405066457315	221.89314684903243	0.5787657583275685	223.33124631995722	0.13858555132559047	-0.40327220237969286	0.5418577537052833	110.52934752241272
15	6.0	ltm	96	diff_vonmises	0.45565108469673976	26.1068840836812	0.707670285677615	154.63896961078282	0.6940982107125804	155.79146958104562	0.07338900597600428	-0.2889493464458237	0.362338352421828	99.27894626210116
16	6.0	perception	96	diff_vonmises	-0.1263811156089998	-7.24110453455062	1.1876666903277446	2.6578642779161985	0.02062809959517079	3.6086921739525617	0.41537423032168064	-0.4694188390103813	0.8847930693320619	119.89905758004446
17	6.0	wm	96	diff_vonmises	-0.007602833922395724	-0.4356102960921682	0.6063015090088971	211.15651197717864	0.5941707304424064	212.4475887747659	0.143376105516559	-0.3686844110572167	0.5120605165737757	109.51125646022358
18	7.0	ltm	96	diff_vonmises	-0.012092732088656544	-0.6928625114624408	2.0211522546402914	2.130095475799616	0.5886750185494006	4.112053966985817	0.0226977986079977	-0.45848372716278396	0.48118152577078166	72.33884091664447
19	7.0	perception	96	diff_vonmises	0.024056062883569217	1.3783108749298252	1.044026712972972	412.25663636429533	1.0293816177290425	413.7707244134694	0.6124107157268099	-0.5537575682729639	1.1661682839997738	86.56241629368859
20	7.0	wm	96	diff_vonmises	0.17289802459274606	9.906327095313463	3.253409553464671	0.7051113437781051	0.021245443009425463	2.8514260483725384	0.020004658165649503	-0.44538048282580767	0.46538514099145717	74.54199625131164
0	1.0	ltm	97	diff_vonmises	-0.04429589488577177	-2.5379678267098504	3.376941931403114	0.7201768836848988	0.4184706445026272	1.7058047232154885	0.10915373446049625	-0.24885861395325892	0.3580123484137552	64.24875882073337
1	1.0	perception	97	diff_vonmises	0.02624018469312548	1.5034518365598752	14.006939551332927	0.6896973605109022	0.14883746520998953	1.7697107578460447	0.6946767326980623	-0.3025348472275963	0.9972115799256587	35.75955695648503
2	1.0	wm	97	diff_vonmises	0.04124370378018544	2.3630901580923847	2.48833086848057	0.42740281474203534	0.008119666742400609	1.6502146090126473	-0.013586159571515932	-0.2587790015066279	0.24519284193511198	86.3823192904558
3	2.0	ltm	97	diff_vonmises	0.09866740760561475	5.653226031298725	5.116285438130424	0.3443266271171152	0.08100906617630722	0.7132743488670045	0.17932985351979647	-0.11152183585180862	0.2908516893716051	59.057490773638534
4	2.0	perception	97	diff_vonmises	-0.033975021252237315	-1.9466253266204754	8.888459376398929	0.9472926063877631	0.12741917993363427	1.1253071849548315	0.9073406645149621	-0.18316333008763752	1.0905039946025996	45.09409117028963
5	2.0	wm	97	diff_vonmises	0.048333920782639976	2.7693296681649273	8.372334729676417	0.2732554438288062	0.07253212752215575	0.882086824221069	0.15966259733858867	-0.14246786896300023	0.3021304663015889	46.24132874714101
6	3.0	ltm	97	diff_vonmises	0.1925531676997821	11.03248384107228	2.4930678205206034	0.6234026639484777	0.5961055682728814	0.770017510226669	0.16289500681006114	-0.08229290089972748	0.2451879077097886	74.37833741579314
7	3.0	perception	97	diff_vonmises	0.01949252734156964	1.1168395487153029	6.3741455468173065	1.2487226347184595	0.2024688583942779	1.3748811275775974	0.9657586741040918	-0.21804262535294663	1.1838012994570384	52.783871863511536
8	3.0	wm	97	diff_vonmises	0.05898825667712203	3.37977814843349	5.006580297461626	0.6016591178513888	0.7170058461151915	1.0316567552714093	0.22512226584573936	-0.16728199748043973	0.39240426332617906	53.81239056746506
9	4.0	ltm	97	diff_vonmises	-0.11952224516138078	-6.848120205675044	1.8200090890364762	188.80683724661017	1.8078019401292604	189.42052895472347	0.0779426437560744	-0.2006980479350453	0.2786406916911197	61.34917233904949
10	4.0	perception	97	diff_vonmises	-0.06275142350544823	-3.595391725300213	3.281689932384603	1.6261400220512152	7.307943601280075e-15	2.3528202207040696	0.7459805194495281	-0.37288164247662253	1.1188621619261507	75.782988532726
11	4.0	wm	97	diff_vonmises	-0.04336624625316222	-2.484702883631215	1.3421979979774226	167.97889406160562	1.3252553618348673	169.22957946059807	0.011388466722394242	-0.313798741165062	0.32518720788745625	68.96682381121775
12	5.0	ltm	97	diff_vonmises	0.06212727314730912	3.5596305439972635	1.701449986559414	0.9125162942889193	1.0135008532791521e-13	1.3805935418989712	0.20697625094918873	-0.20552757095658356	0.4125038219057723	104.54378059731673
13	5.0	perception	97	diff_vonmises	0.016974823108307575	0.9725857220871655	3.0250188855302675	1.4448538313337829	1.1147744152423197e-18	1.7525922048028646	0.6718716407537748	-0.27669192792404584	0.9485635686778207	79.00001723696005
14	5.0	wm	97	diff_vonmises	0.0148976485446614	0.8535723862783113	0.5675406916680334	156.16001703691325	0.5565632938079323	156.67927551716608	0.1894937510511241	-0.22676217633278384	0.41625592738390793	117.62737354856232
15	6.0	ltm	97	diff_vonmises	0.3395652544060517	19.45565594675284	0.8856891555111258	84.443368993555	0.8695137237205545	84.82788739098436	0.13852520145163894	-0.13827458488959632	0.27679978634123525	93.9078689791011
16	6.0	perception	97	diff_vonmises	-0.05026884429462908	-2.8801926190825338	1.764731275476289	1.7237938880283248	0.06859392324489993	2.2401631330313103	0.4428298242508479	-0.3083386505864266	0.7511684748372744	99.8782565623128
17	6.0	wm	97	diff_vonmises	-0.07553656062831134	-4.327926122936302	0.6812521068293707	114.9972355694489	0.658349534802366	115.61320299268785	0.3308018366755512	-0.2992936314597081	0.6300954681352593	109.23490051698951
18	7.0	ltm	97	diff_vonmises	0.056379151908724494	3.230287456896853	1.1291526719628404	148.4437094566985	1.1123011664429567	149.19393230369047	0.19493131783635675	-0.23619130266065724	0.431122620497014	81.59144075852234
19	7.0	perception	97	diff_vonmises	0.04681956577374902	2.6825635174709794	3.4275034902391486	1.0902238523824772	1.0748183993436479e-16	2.1000249162896716	0.4354851081360124	-0.3334178551924204	0.7689029633284328	74.11163383523802
20	7.0	wm	97	diff_vonmises	0.39487989167567894	22.624951207599533	3.4441576120034276	0.6131141655967994	0.06688369151676116	1.4380466338232374	0.189600598008812	-0.21917905127933723	0.40877964928814925	71.56737203556455
0	1.0	ltm	98	diff_vonmises	0.006404303732692393	0.36693957460315346	1.0644557369289966	162.7177438049406	1.0487977983304728	163.98460286633724	0.03477220095744116	-0.30126533185472937	0.3360375328121705	78.64012155681874
1	1.0	perception	98	diff_vonmises	0.08683298679152027	4.975163665669335	9.161358575974997	0.5878087858062583	2.8387763284059565e-19	1.9259910511032876	0.3930396888800311	-0.3065309884181068	0.6995706772981378	44.86653872483285
2	1.0	wm	98	diff_vonmises	0.05912061403904845	3.387361666659359	8.72874066418525	0.23167592483165164	1.2948806840658381e-18	1.5255584111187237	0.02607567718715581	-0.24280015505742777	0.26887583224458356	45.98601763276946
3	2.0	ltm	98	diff_vonmises	-0.08259213583529558	-4.732180804333641	2.418446072349539	1.281427556688204	0.638182896148453	1.9013549844379773	0.22191672709170696	-0.20843862924016657	0.4303553563318735	72.1774072901045
4	2.0	perception	98	diff_vonmises	-0.01180861285099978	-0.6765836782662339	7.690484140358833	1.0019863312798665	0.013418568597910697	1.7697112947625002	0.8037239067076736	-0.2811474608739749	1.0848713675816484	48.9130331822125
5	2.0	wm	98	diff_vonmises	0.07994428572055653	4.580470167975863	6.300053168592366	0.32953682435541815	0.1867933385832251	1.2326493390225974	0.08839145214816957	-0.20229759727339283	0.2906890494215624	51.38852015604101
6	3.0	ltm	98	diff_vonmises	0.15890363671673075	9.104507733148738	1.5157709402343857	135.84462399655408	1.499486901192071	136.15414677107492	0.25231459212443497	-0.1581201774018588	0.41043476952629376	73.05220430200308
7	3.0	perception	98	diff_vonmises	0.04052061700378698	2.321660337583033	5.1317520377809345	1.647550274018808	0.22557233493786405	2.0264964781461616	1.049412443917352	-0.3114350546775994	1.3608474985949515	58.26910731567716
8	3.0	wm	98	diff_vonmises	0.07988486106534447	4.577065386033191	2.8695413855221226	0.7015554821986913	0.4577289200597559	1.338808742552804	0.12812206403875848	-0.17796154425895555	0.306083608297714	69.09075037415704
9	4.0	ltm	98	diff_vonmises	0.0678367705698675	3.8867606494506806	0.9655861425903787	129.74542671248884	0.9526059503039487	130.64520264592383	0.02024102939257233	-0.2091523825813031	0.22939341197387542	82.5108008501991
10	4.0	perception	98	diff_vonmises	-0.1035047285708933	-5.930384106759335	3.011376321172519	2.0334694418887094	0.1268425497066926	3.2698294393042158	0.7462895690821385	-0.47300735911840647	1.219296928200545	75.59128697811542
11	4.0	wm	98	diff_vonmises	-0.09495805189047334	-5.440695604108391	1.1387973651090846	163.15368907072556	1.1228548696227265	164.5313844051947	-0.017503902195151966	-0.3177526078228894	0.3002487056277374	74.09556424176972
12	5.0	ltm	98	diff_vonmises	0.10912121327169667	6.252184975815165	1.4107731530897818	2.0354828765399926	0.4145296159402538	2.737640662411832	0.21753494039262544	-0.23708413078047116	0.45461907117309663	93.4884437529349
13	5.0	perception	98	diff_vonmises	-0.01571726640375434	-0.900533030417885	3.148285876973315	1.724796130744486	8.473444444014866e-18	2.2582429535070414	0.8016242741282404	-0.3572711730888819	1.1588954472171222	77.40494098027557
14	5.0	wm	98	diff_vonmises	-0.08375590811323617	-4.798860044173963	0.5632740930471409	130.31719378914187	0.5508617871202677	131.01197576161687	0.12665759602370485	-0.23250501075024133	0.3591626067739462	115.69183568127383
15	6.0	ltm	98	diff_vonmises	0.11972206163169875	6.859568846101465	0.6488090696126814	119.65101333677	0.6373916726875211	120.29507546984792	0.08391491790776939	-0.18573394398910104	0.26964886189687043	106.16698230234306
16	6.0	perception	98	diff_vonmises	-0.22749763836047263	-13.034654527248579	1.7304140644453379	1.6488891045504899	4.4700859435713555e-19	2.2683523342821634	0.4180269443689857	-0.33655449580324065	0.7545814401722264	103.64590993780685
17	6.0	wm	98	diff_vonmises	-0.14220869415087398	-8.147957984911836	0.7953459659942012	124.38733627729256	0.7761868983221764	125.13127842210581	0.2325998684804631	-0.26119378605049093	0.49379365453095403	98.8488294215082
18	7.0	ltm	98	diff_vonmises	0.04264244995367557	2.443232410443443	0.9271580077630308	134.69694549293908	0.9080443541472758	135.69149485425388	0.16738087503038912	-0.2815039850430363	0.44888486007342543	89.00837759378916
19	7.0	perception	98	diff_vonmises	-0.06580561238581618	-3.7703838579810833	2.2825141033892176	2.955616255775804	0.41633999571750474	4.147291928489668	0.6916803578648558	-0.4751533130770401	1.1668336709418958	78.98944403645828
20	7.0	wm	98	diff_vonmises	0.2921351727557972	16.73811244623237	8.80838194688822	0.49534647642728613	5.871889498810999e-17	1.56344882874776	0.32881714652374894	-0.24883059645782463	0.5776477429815736	45.77022926261921
0	1.0	ltm	99	diff_vonmises	-0.12590166525643598	-7.213634052862653	1.0195267533770251	177.94993377844028	1.0031150184957147	179.5237741542074	0.013190079979601421	-0.3620790428690732	0.37526912284867464	79.59820946359318
1	1.0	perception	99	diff_vonmises	0.004711710021189965	0.26996109850368066	9.197807950173221	0.7722647792389095	2.111415425282103e-19	2.123766676636086	0.5828796629499957	-0.33800795511593934	0.9208876180659351	44.77817962373416
2	1.0	wm	99	diff_vonmises	0.03501743235967115	2.006351083593992	5.036095308725381	0.3568872103468745	4.834644453264097e-21	1.9348209161837089	0.002722195122161486	-0.30792319121794015	0.31064538634010164	60.835559247922305
3	2.0	ltm	99	diff_vonmises	0.08764613117099439	5.021753406747986	3.1179915829398586	0.46883099539440504	2.666816649319994e-32	1.6606372907817368	0.04957091351722104	-0.2636841697172676	0.31325508323448864	77.784874719703
4	2.0	perception	99	diff_vonmises	-0.029230707919838277	-1.674796195986363	8.168586476788189	1.070623896926146	3.289273779649764e-18	2.097847194545124	0.8668464233027546	-0.3338826543882107	1.2007290776909654	47.555074808659896
5	2.0	wm	99	diff_vonmises	-0.05149413685562699	-2.95039671149649	4.15031534360825	0.46886733751116005	0.07436464349627336	1.62190919701	0.09012919704012534	-0.25211248840701866	0.342241685447144	64.60358783918468
6	3.0	ltm	99	diff_vonmises	0.20617184312884365	11.812776465716022	4.045994795308696	0.4615656618487398	0.24570477265411111	0.9867259615973293	0.15930529375175276	-0.1491891658390351	0.30849445959078786	63.2689112398659
7	3.0	perception	99	diff_vonmises	0.04884702285161817	2.7987282511768083	5.196276075747302	1.8048536218731461	0.19102491462101212	2.036655412387737	1.2085885774386445	-0.31282837203381003	1.5214169494724545	58.29028843507362
8	3.0	wm	99	diff_vonmises	-0.17674899140800374	-10.126971240872663	5.267074996714038	0.45121193442608465	0.06615405114564406	1.0793038070691334	0.21891428858453582	-0.16951450202833873	0.38842879061287455	58.287702341047066
9	4.0	ltm	99	diff_vonmises	-0.22504653182659634	-12.894216467720527	0.8363573244091067	108.40010449124942	0.8210138460500659	109.34343639553462	0.02730041925430271	-0.21940843610962446	0.24670885536392717	89.41415799594091
10	4.0	perception	99	diff_vonmises	-0.032276215197581	-1.8492909094773977	2.2672540817407065	3.0623423701988948	0.3718524864804156	4.520791301358611	0.694966711065427	-0.5335116167126334	1.2284783277780602	79.72906746426088
11	4.0	wm	99	diff_vonmises	0.09405726793812424	5.389084485385674	0.9857777069007984	118.10941784057836	0.968635753407262	119.51614607360098	-0.08862527774139295	-0.29342315039275846	0.2047978726513655	76.2901497785337
12	5.0	ltm	99	diff_vonmises	0.39887856811487693	22.85405849120398	0.8992770405321003	125.82845293680194	0.8815467625726746	126.56326233990559	0.19053551945455638	-0.23421611284576116	0.42475163230031754	91.99366327264113
13	5.0	perception	99	diff_vonmises	0.0614846002312158	3.5228080982977508	2.938635140137176	1.886781635130367	4.0129320465171483e-16	2.5157030727791314	0.8207528546836751	-0.3969637304658049	1.21771658514948	80.17960182642216
14	5.0	wm	99	diff_vonmises	0.021371985864701407	1.2245245898606438	0.47419779559277186	105.63720396159562	0.4570225721221781	106.5009508840652	0.13096961971919185	-0.29345498850889307	0.4244246082280849	124.89698437830798
15	6.0	ltm	99	diff_vonmises	-0.3956979822799444	-22.671824346483252	0.00018200121400983686	3202.2866339002308	9.025290326187083e-32	3202.9119207104472	-0.006756095564071529	-0.1922704372847761	0.18551434172070458	175.56270863822508
16	6.0	perception	99	diff_vonmises	-0.21598245285342219	-12.374882997384375	1.7888716996422138	1.3541787597687935	8.154193338897148e-19	1.9907996885109591	0.33600541028010866	-0.29860442264879256	0.6346098329289012	102.11587230322334
17	6.0	wm	99	diff_vonmises	-0.38342039761297075	-21.968370562451128	0.3602694354190688	77.24292773644558	0.34076513280047904	78.17232179287173	0.07114446434500366	-0.29430166982013795	0.3654461341651416	135.74057903808398
18	7.0	ltm	99	diff_vonmises	0.17151853432264016	9.827288124957034	1.091429797863125	71.30098618606274	1.0656703221705555	71.94453913476559	0.11684680128625402	-0.1852280595235607	0.3020748608098147	82.01802044518632
19	7.0	perception	99	diff_vonmises	-0.003789569555120298	-0.21712634167966205	2.3176607315991267	1.5135934703219422	2.729764050754141e-14	2.1302037325449903	0.513966625338909	-0.3307555390437814	0.8447221643826904	90.32827652290445
20	7.0	wm	99	diff_vonmises	-0.4071757616089748	-23.32945266021919	0.000321955035031569	2543.9065491705624	3.242441657840538e-23	2544.8630793926286	-0.021876535872138447	-0.28257550794944564	0.2606989720773072	175.29824231679862
0	1.0	ltm	100	diff_vonmises	0.11916275568091947	6.82752297566526	0.8724671714527269	209.97842937040855	0.8561560598645492	212.87339532029253	-0.2568161627163619	-0.5684926207855305	0.31167645806916866	78.19676640925547
1	1.0	perception	100	diff_vonmises	0.11883615195532696	6.8088099606155605	7.280014232583146	0.8644498423076008	0.07207403889193993	3.546547765147586	0.30749311133228396	-0.5704486463711214	0.8779417577034053	49.30834306545333
2	1.0	wm	100	diff_vonmises	0.047792895106608634	2.7383311803201194	6.407567601721743	0.3287712977880303	0.0783119806088203	3.2199660850910887	-0.228403942155804	-0.5210357508253468	0.2926318086695428	50.91455681174591
3	2.0	ltm	100	diff_vonmises	0.02670471451744552	1.5300674349513672	2.453717655296366	1.2879185888884237	0.4491676438692909	2.768046824849414	0.09390275398585113	-0.3559285877960525	0.44983134178190365	71.57718791288883
4	2.0	perception	100	diff_vonmises	-0.00976096960500694	-0.5592623623223759	7.63242334133387	1.248149398867448	0.12110553010553524	2.918047769629831	0.8289964515379681	-0.47347511386094965	1.3024715653989176	48.2206496231756
5	2.0	wm	100	diff_vonmises	0.11599527116359569	6.646039481149574	5.849271062359804	0.39388398823819487	0.0793533993634238	2.1744634650558154	-0.002960423465587725	-0.34784122962531316	0.34488080615972544	54.16985190499017
6	3.0	ltm	100	diff_vonmises	0.2140942469525794	12.266696768414386	3.748229672483459	0.6435238821782334	0.2959191830568879	1.4378895457083933	0.1764084437288922	-0.2143876040973831	0.3907960478262753	64.31248961368533
7	3.0	perception	100	diff_vonmises	0.05878887988229573	3.368354699557097	5.738070666982153	1.6654118290468662	0.045561107320574036	2.5566974308449506	1.127648025220409	-0.402058926749701	1.52970695197011	56.40337480150043
8	3.0	wm	100	diff_vonmises	0.030056991098843834	1.7221387348260342	4.388033696002501	0.39215877557793455	0.10281213026496623	1.5946889675143228	0.03649673712668727	-0.24964016196124666	0.28613689908793394	61.85556071272521
9	4.0	ltm	100	diff_vonmises	0.5942118700264671	34.04583228909279	0.5317173540352034	157.1320914686833	0.5193920117244959	159.02359965051212	-0.11022780962596102	-0.38607736864207	0.27584955901610897	106.24374319666742
10	4.0	perception	100	diff_vonmises	-0.06934170165559272	-3.972986849120776	3.8685330708931196	1.732073004736213	0.013897607242337776	4.1210629972106485	0.6425554199713752	-0.6477510717405636	1.290306491711939	69.11317198474887
11	4.0	wm	100	diff_vonmises	0.01626677717892408	0.9320176786320734	1.5926584201618508	1.2732199198687557	0.31990403026362046	3.6056878516669855	-0.1984359883108413	-0.4432148356608321	0.24477884734999078	80.01389680908898
12	5.0	ltm	100	diff_vonmises	0.11233727717021244	6.436451863844509	1.588137298155071	1.5689637722282113	0.24124899762940694	3.031485966510824	0.09826452926848739	-0.35653108053757276	0.45479560980606015	92.01888686755902
13	5.0	perception	100	diff_vonmises	-0.00899439693056261	-0.5153409833866597	2.7323880079621548	2.179807101870571	4.264212079733786e-21	3.452010943945538	0.8035232447519898	-0.5436761507186475	1.3471993954706374	83.19515751982703
14	5.0	wm	100	diff_vonmises	0.020319726092344996	1.1642345459532248	0.544443234644204	188.2160142687019	0.531471071735758	189.79501363176018	0.05992595699944303	-0.4041410612712504	0.4640670182706934	113.02272804207684
15	6.0	ltm	100	diff_vonmises	0.19997150873612873	11.457523473443647	0.5479107405922582	142.38526460521393	0.5338949452291583	143.69154083851413	0.0445598583793938	-0.33086872309465676	0.37542858147405056	112.48911283208372
16	6.0	perception	100	diff_vonmises	-0.1494083566204762	-8.560468258338778	1.2900344336613405	2.1409815693028267	1.2276156343301008e-12	3.27724239404565	0.3254623905795577	-0.45740437405804507	0.7828667646376029	117.3274355853334
17	6.0	wm	100	diff_vonmises	-0.00040528688395451867	-0.023221227942602285	0.5733415691901207	189.43409751675276	0.5601694330393379	190.82576360205695	0.1115125929574603	-0.3823908099815121	0.4939034029389724	111.79082392853122
18	7.0	ltm	100	diff_vonmises	0.11537245916957203	6.610354982461892	0.8497888916097761	149.71451515350938	0.8290565942568222	151.6875851503295	-0.017647113219851462	-0.43259753366813314	0.4149504204482817	86.74566341488128
19	7.0	perception	100	diff_vonmises	-0.03176277451528927	-1.8198729253517643	1.0006864302729084	414.1903890009024	0.9859943930035283	415.970454184284	0.5482721267048021	-0.5914891022475501	1.1397612289523522	87.52713181234122
20	7.0	wm	100	diff_vonmises	0.2880183558941721	16.50223621503296	4.767540950736516	0.5912848624341053	0.10653579356952816	2.6738121535037793	0.027711442543246145	-0.4225392690855992	0.45025071162884533	59.23628388879163
0	1.0	ltm	101	diff_vonmises	-0.12337213214331456	-7.068702481342208	0.9049999510208355	55.31015376742238	0.847575455056458	57.61130351214887	-0.11412080815990322	-0.4771312502846712	0.36301044212476796	81.85636888163668
1	1.0	perception	101	diff_vonmises	0.021436672908766035	1.2282308844747238	14.532654422739315	0.6944328945950328	6.738635079699306e-14	2.9340064110874886	0.579656742202624	-0.46696162338760444	1.0466183655902284	35.54026149797238
2	1.0	wm	101	diff_vonmises	0.0021785922763036094	0.12482414271199573	2.91408977717329	0.49379355896883187	0.03962069845158649	3.150174428610229	-0.20333796773560958	-0.4880635029775154	0.2847255352419058	76.05383263145555
3	2.0	ltm	101	diff_vonmises	0.14854679754448366	8.511104559483215	2.445066962131642	0.5709204917074816	4.925932323825647e-28	1.8695991556164269	0.03452182099258372	-0.29505813988112745	0.32957996087371116	87.95261627076894
4	2.0	perception	101	diff_vonmises	-0.03799496499126267	-2.1769511367466676	8.11087177415881	1.1226730027515723	0.19177065597714707	2.2920727168358237	0.8167319899674906	-0.38063121751309753	1.1973632074805882	46.511926386607314
5	2.0	wm	101	diff_vonmises	0.016957231163073072	0.9715777778718032	4.548766622728839	0.4278494959609707	0.05171566283466494	1.9962946086240618	0.018323396949175674	-0.3137766114519354	0.3321000084011111	61.999527471029154
6	3.0	ltm	101	diff_vonmises	0.14375294710242928	8.236437161536575	2.6900006093219093	0.557668094044738	0.15508144886612674	1.2750571231215113	0.10747140128277072	-0.18218238704461093	0.28965378832738164	77.292517377866
7	3.0	perception	101	diff_vonmises	0.03355647141199193	1.92264418725854	5.3178469484876585	1.7509434467850806	0.24628720895352677	2.3287024596254273	1.101858247734819	-0.3617322095496948	1.463590457284514	57.01744936792136
8	3.0	wm	101	diff_vonmises	-0.038627124059109584	-2.2131711833152203	3.94193474639233	0.5934953280389467	0.2972023039572516	1.6748992351557153	0.1016400339695141	-0.25748350897647576	0.35912354294598986	61.823991458487455
9	4.0	ltm	101	diff_vonmises	-0.10832382402993708	-6.206497937633204	1.0490024488491152	183.3601815567378	1.0353777975751226	184.77650711192044	-0.022712950400816112	-0.31801380946487967	0.29530085906406356	77.09484816351664
10	4.0	perception	101	diff_vonmises	-0.016168788570738165	-0.9264033449426594	2.3539466513406135	2.735002563474151	0.33633510580490167	4.197380140923304	0.6464125624538518	-0.5151840142555585	1.1615965767094103	79.11093675253119
11	4.0	wm	101	diff_vonmises	0.0963085696426131	5.518074571463494	0.8504666131468928	197.09449869178917	0.8378079288622552	199.0367648898637	-0.12765077989300977	-0.39132347161944026	0.2636726917264305	81.87646247860783
12	5.0	ltm	101	diff_vonmises	0.20823304109986648	11.930874410196559	0.7964253933826868	17.66855676181673	0.662102337793906	18.900877033061462	0.11089861264275402	-0.32082448661371377	0.4317230992564678	98.26162879119622
13	5.0	perception	101	diff_vonmises	0.06440179551402073	3.689951076017946	2.614760605106777	1.8646022034202074	1.3531581081388994e-14	3.0472198523300587	0.6431573206884534	-0.4789372349274796	1.122094555615933	85.05626993267569
14	5.0	wm	101	diff_vonmises	-0.027304362353262324	-1.5644247251378238	0.4418518071657756	177.8691972280171	0.4295687423390641	179.45073806137552	0.03422984291967168	-0.4167811224944984	0.4510109654141701	124.60515624733361
15	6.0	ltm	101	diff_vonmises	-0.21300003464522396	-12.204003021311648	0.00029753957478444404	2710.5824724013605	2.4055457408015095e-25	2711.851839940068	-0.07365803929565118	-0.3303751019676042	0.25671706267195304	178.6888173462936
16	6.0	perception	101	diff_vonmises	-0.08903430234227287	-5.101289756103975	1.6547154129950397	1.58755152098632	4.89826159006893e-15	3.0144648949916446	0.250145359016329	-0.4530980699229102	0.7032434289392392	105.84030112446806
17	6.0	wm	101	diff_vonmises	-0.2004235358776203	-11.483422720876478	0.3520411098724247	189.08918618885997	0.34035907596944204	190.74374196428187	0.04052679523133662	-0.46462131129159445	0.5051481065229311	135.93746786770157
18	7.0	ltm	101	diff_vonmises	0.09658386035628089	5.533847567495802	1.1341500716735042	184.75407495094035	1.1178769279003262	186.08005903864833	0.07854833147600004	-0.33241922945767044	0.4109675609336705	77.21083988918357
19	7.0	perception	101	diff_vonmises	0.07868811427062987	4.508496845550235	2.306412135116798	1.3515168764871912	3.7152139286709437e-17	2.580141365330715	0.34876583340834194	-0.4031047959901699	0.7518706293985118	90.54302863904104
20	7.0	wm	101	diff_vonmises	0.16895426757466606	9.68036646275238	1.3889341942113325	1.7976724750287565	0.40036218611771796	3.4219966858715467	-0.03783301223547475	-0.34277384128621446	0.3049408290507397	86.2525955986388
0	1.0	ltm	102	diff_vonmises	0.13120379845353564	7.517423907472669	0.8808502093322971	4.708520423048701	0.629616327944108	5.681261274124208	-0.038229057539358235	-0.2017184469793546	0.16348938943999636	89.67099683439278
1	1.0	perception	102	diff_vonmises	0.06260533242548588	3.5870213229938623	10.935811793607394	0.6430469456455394	1.3031220763190087e-14	1.6411836528349169	0.5767864930213178	-0.26120249060436146	0.8379889836256793	41.02824523104934
2	1.0	wm	102	diff_vonmises	-0.04868379229908064	-2.7893758294288196	7.733412346513611	0.19370920711348075	1.0153761407362654e-18	1.3901576246629452	-0.010061686464988201	-0.22125041713224264	0.21118873066725444	48.89240158532087
3	2.0	ltm	102	diff_vonmises	0.15354327203196816	8.797381460060867	4.393837685127648	0.3871110784733895	0.20665405742564963	1.0044128870384532	0.11871834578083554	-0.15566678831107664	0.2743851340919122	61.00406709959094
4	2.0	perception	102	diff_vonmises	0.002401861337318292	0.1376165176039859	9.000089371227016	1.036972552954352	0.148448988035776	1.6264483205634654	0.9242190505138728	-0.26776508662862863	1.1919841371425015	44.61679502278071
5	2.0	wm	102	diff_vonmises	0.12965901655901438	7.428914424648378	7.951853461459026	0.23606046614597712	0.09176898720790136	1.1000790848774955	0.06955483063049672	-0.17903747734171657	0.2485923079722133	46.92195170340804
6	3.0	ltm	102	diff_vonmises	0.26733730939413014	15.317299534666752	2.6302081728505704	1.242009064271833	1.2587631896973674	1.45757816742039	0.18567276299860636	-0.11624559765820848	0.3019183606568148	64.43804349042557
7	3.0	perception	102	diff_vonmises	0.020046029141533295	1.1485528658061146	6.362199395773216	1.4576641835319932	0.2625703459189535	1.7475707961838012	1.0800114876119258	-0.27979349622366523	1.359804983835591	52.43164091784416
8	3.0	wm	102	diff_vonmises	0.03277540094446979	1.8778921459672113	6.437163487395514	0.3763436897996723	0.5832496148227306	0.9755761184784849	0.11692714921205127	-0.17650996457096338	0.2934371137830146	48.034743062179786
9	4.0	ltm	102	diff_vonmises	0.022293498948853765	1.2773234003486578	1.4704209475555419	140.94805317693357	1.4553988742231614	141.79204386788066	0.014259475635206798	-0.22264875230477443	0.23690822793998123	66.00996781083177
10	4.0	perception	102	diff_vonmises	-0.05574283709952901	-3.19382930388828	3.897730997425038	1.4650667486738178	0.015448757887420884	2.667615715434462	0.6794135751188832	-0.41851290823219006	1.0979264833510733	68.92112942072455
11	4.0	wm	102	diff_vonmises	-0.08499267779050818	-4.869721726911405	1.2416854762067973	125.18886070447913	1.223269696179498	126.52138714488478	-0.08717001715219652	-0.300500511344886	0.21333049419268946	67.83777137602425
12	5.0	ltm	102	diff_vonmises	0.15955284075562506	9.141704384620228	0.8712512449333939	32.958491574086736	0.8128917263736544	33.56603344846871	0.18110263831352924	-0.205414099774464	0.38651673808799325	95.22257666222458
13	5.0	perception	102	diff_vonmises	0.007112815436656774	0.4075343049759349	4.160680685499628	1.342108200093137	9.290143803682993e-22	1.8800206759463953	0.754934879014723	-0.2989580926013334	1.0538929716160563	67.09394264241368
14	5.0	wm	102	diff_vonmises	-0.003954962400489199	-0.22660265368095994	0.4981723533374166	107.45088820620849	0.4846876010895927	108.20356905540648	0.08688074354586206	-0.23427021442604712	0.3211509579719092	121.23045359112196
15	6.0	ltm	102	diff_vonmises	0.03515323254716511	2.0141318611944814	0.6970063818222639	112.29558082074301	0.6844533385344088	112.85321660113897	0.11154052107313461	-0.17551845957063605	0.28705898064377067	103.86898347011999
16	6.0	perception	102	diff_vonmises	-0.15341346987644672	-8.789944344377789	2.124939925556715	1.1839925331591081	5.073642300240749e-16	1.9085518076844048	0.3297598880388739	-0.2947174993802137	0.6244773874190876	94.21580877340475
17	6.0	wm	102	diff_vonmises	-0.11146683069200149	-6.386578954350995	0.636368177804418	127.0856911057293	0.6197253004188358	127.90088078534227	0.18178572411017768	-0.2760054645661256	0.4577911886763033	109.55610867250492
18	7.0	ltm	102	diff_vonmises	0.2068507227756224	11.851673404273777	0.7372701283466657	157.09565986577505	0.7239096247625759	157.98830793559281	0.1424114820144169	-0.2596014884356421	0.402012970450059	100.04001986563398
19	7.0	perception	102	diff_vonmises	-0.03725868900525786	-2.134765630191759	2.82339369794555	1.4191613889044834	1.7942314967267342e-13	2.6341461779595954	0.4784896741401128	-0.41606940459728536	0.8945590787373982	81.82012282121258
20	7.0	wm	102	diff_vonmises	0.310868787794754	17.811469522987405	7.142286764207944	0.36274775161036105	1.2599456802101773e-12	1.3693655304797527	0.16153166704810382	-0.2179410556630732	0.37947272271117705	50.907407261688206
0	1.0	ltm	103	diff_vonmises	0.08999533488017145	5.1563528645003105	2.618030988073749	0.44136607373075254	1.0866659095936667e-11	0.7616196491014621	0.14602588119971807	-0.11979346705430857	0.26581934825402664	84.99963547618285
1	1.0	perception	103	diff_vonmises	0.010717802850694107	0.6140848689980548	10.965694579482813	0.5582921221367051	6.00395306910652e-19	0.9290252857940297	0.5807256851604499	-0.1478589662737022	0.7285846514341521	40.97105967520406
2	1.0	wm	103	diff_vonmises	0.12218368989451163	7.000609756290763	3.3378322196867227	0.3608377040364232	2.4976762618766613e-20	0.7253634453699777	0.13557699028314085	-0.11512858010173953	0.2507055703848804	75.1211129041335
3	2.0	ltm	103	diff_vonmises	0.07076044124387347	4.054274639757391	5.4990212964538365	0.38565027951683345	0.4078722541372277	0.44907720812558033	0.24860348586471914	-0.07026212143710436	0.3188656073018235	55.3270530410029
4	2.0	perception	103	diff_vonmises	-0.02035681685601546	-1.1663596901704594	8.02352612257267	0.9367437426742945	2.4982618485959958e-20	1.019935078411549	0.8786503007526976	-0.16232759759216198	1.0409778983448597	47.98526671169654
5	2.0	wm	103	diff_vonmises	0.05240129011694944	3.002372764741795	7.630572971550606	0.28655229863654463	0.2528807921181668	0.5187926961339003	0.20561660778083019	-0.08673433020468405	0.29235093798551426	47.6694650999213
6	3.0	ltm	103	diff_vonmises	0.2480470406203692	14.212048548257249	1.8606359920119284	86.25627373706038	1.8425140337150048	86.21308199487972	0.27374250490475305	-0.07910010299385739	0.35284260789861044	69.72301487119003
7	3.0	perception	103	diff_vonmises	0.0027110852651287204	0.1553337435919815	5.873673820042816	1.4232579804692584	0.19715488560176594	1.5832201548996365	1.0400927646303417	-0.24792710033090018	1.288019864961242	54.930022735998335
8	3.0	wm	103	diff_vonmises	0.0675684294961262	3.8713858384552946	4.191610107162689	0.7710763831715317	0.9407966552525627	1.038267314457071	0.26500440083559446	-0.1463320297143026	0.41133643054989705	57.08553642142371
9	4.0	ltm	103	diff_vonmises	-0.0737235227730004	-4.224046705729535	1.879025583002774	125.69350720243781	1.8618505588415857	126.10361933150692	0.14462463694783878	-0.16365013081826163	0.3082747677661004	62.85724864513142
10	4.0	perception	103	diff_vonmises	-0.09124619385599513	-5.228021804581064	3.164533621785193	1.7444057814572038	9.52827982800791e-12	2.552360833249133	0.7714118319208279	-0.40412019830593177	1.1755320302267596	77.2012385558861
11	4.0	wm	103	diff_vonmises	-0.07648681032275358	-4.382371419911438	1.4589506455227788	161.7629568233957	1.4414491082138574	162.87681480853288	0.029311664026067774	-0.295233852349142	0.3245455163752098	66.61997795685593
12	5.0	ltm	103	diff_vonmises	0.11510950505813114	6.595288821670716	1.8698519099812818	0.89393645280389	3.2679856139925825e-11	0.946161719716579	0.29213517884396456	-0.14006576596153072	0.4322009448054953	100.11373289107945
13	5.0	perception	103	diff_vonmises	-0.01711101753927213	-0.9803890881746203	3.3681604266064094	1.3234840447099625	1.2120991375920548e-21	1.2802882861370866	0.7216110827172704	-0.2026657825835093	0.9242768653007797	74.77595531765712
14	5.0	wm	103	diff_vonmises	-0.0336906078683283	-1.9303296400854548	0.6771791818991645	82.57485977722669	0.6621586719222203	82.66118355152042	0.21209508950533973	-0.12572226025676425	0.337817349762104	112.56694477909319
15	6.0	ltm	103	diff_vonmises	0.23799055770375155	13.635854520389644	0.7106000738247056	59.851313437115905	0.6960710647759097	59.825711965167606	0.17302655084760232	-0.07908635274341957	0.2521129035910219	111.79661058991371
16	6.0	perception	103	diff_vonmises	-0.13525404066817373	-7.749485692377152	2.2474485289583295	1.2033186242171896	8.933313366910005e-12	1.318345105806803	0.45600739967152004	-0.20238629258173016	0.6583936922532502	91.6892546531408
17	6.0	wm	103	diff_vonmises	-0.07406789766576212	-4.243777933655052	0.8477907146693523	90.07984139946699	0.8270856015344817	90.35103759078562	0.272245018038177	-0.1721941250261958	0.4444391430643728	99.39166873044138
18	7.0	ltm	103	diff_vonmises	0.025361507894028665	1.4531073644155632	0.9557339652893121	104.41858866074054	0.9347875104847535	104.87246889388304	0.26598019294169717	-0.1999294855176288	0.46590967845932596	92.03877190766528
19	7.0	perception	103	diff_vonmises	-0.011381638926032228	-0.6521198744034576	3.0717583908733865	1.4460851364612932	1.7960242377687467e-18	2.314245962920482	0.5915695597396151	-0.36626221615358845	0.9578317758932036	78.38711194121811
20	7.0	wm	103	diff_vonmises	0.2897186562375849	16.599656248615158	7.787577019468165	0.4528964027225156	1.766791079648064e-21	0.9888403766690682	0.3381079636020702	-0.15737874856694914	0.4954867121690193	48.72267434298283
0	1.0	ltm	104	diff_vonmises	0.018061974002423146	1.0348748800138616	0.9672830773340927	227.88193870448993	0.9510828409947047	230.07061678672216	-0.026965515912706906	-0.48516784148403147	0.45820232557132456	80.70452468542203
1	1.0	perception	104	diff_vonmises	0.07490074408155974	4.291496518262853	10.2862952496124	0.5772630657898735	3.9904831268641804e-19	2.844512205095178	0.276387357038014	-0.45271817727822705	0.729105534316241	42.31543082254646
2	1.0	wm	104	diff_vonmises	0.1303102807922821	7.466229116562442	6.354811981086277	0.33364814074742505	1.7409396173023082e-20	2.5320757173265003	-0.07467789003316821	-0.4029913741435786	0.3283134841104104	54.03264780163548
3	2.0	ltm	104	diff_vonmises	-0.10581207476955726	-6.062585305818334	1.9289654775997929	2.1912105835383695	0.6550639023249712	3.221632496771193	0.21675510565426925	-0.30122746073794954	0.5179825663922188	76.63393749752811
4	2.0	perception	104	diff_vonmises	-0.03882021759474449	-2.224234627958359	6.69562549302217	1.0904681699114447	0.07187966657008277	2.2788490674303556	0.7137302865730843	-0.36243110288152	1.0761613894546043	51.86758558806929
5	2.0	wm	104	diff_vonmises	0.051047385817552415	2.924799762521729	5.457100255430299	0.4294133095692306	0.12628325293077808	1.7861466416607596	0.068811739402386	-0.2857196151290222	0.3545313545314082	55.51780399947296
6	3.0	ltm	104	diff_vonmises	0.09099621862262286	5.213699278726035	1.1218983831196203	203.04400500359262	1.1086569964776982	203.76642462516566	0.240793393393389	-0.24537249959988472	0.48616589299327373	82.66686244514395
7	3.0	perception	104	diff_vonmises	0.04150951490737279	2.3783200138278353	4.5545668387368865	1.8635182291825954	0.1765802531518447	2.6448461212982037	1.0386876506635485	-0.401502019923946	1.4401896705874946	61.84829559340571
8	3.0	wm	104	diff_vonmises	0.12166917557321258	6.971130257181289	2.1530690674623933	1.1310609418767184	0.34628937072183597	2.2426635641121586	0.1201610564540207	-0.2776689941806105	0.39783005063463117	78.7860172647614
9	4.0	ltm	104	diff_vonmises	0.12530631835470213	7.1795231880471135	0.6453277925700729	168.85321174358998	0.6336292154814128	170.31139824809102	-0.021376944493077588	-0.31957938616722004	0.29820244167414245	99.7638884789327
10	4.0	perception	104	diff_vonmises	-0.09566772741488179	-5.481357016480728	2.539412622662291	2.550252363411139	0.1781689716551613	4.195042889969346	0.7251686972125443	-0.5734831536561781	1.2986518508687224	80.20777645778753
11	4.0	wm	104	diff_vonmises	-0.02192479760666866	-1.2561983695406425	0.9171883093503416	180.2896163258296	0.8994674930051504	182.30682623488283	-0.04256693303916137	-0.4379286442102348	0.39536171117107344	82.47265067865175
12	5.0	ltm	104	diff_vonmises	0.03957100317567357	2.2672514730648734	1.9082015017148815	1.1520204226321211	0.048901269865724226	2.28789042764425	0.19547717663007097	-0.33383179277110975	0.5293089694011808	96.1053828153513
13	5.0	perception	104	diff_vonmises	-0.01920194884464182	-1.1001906272240836	2.371829604330305	2.1522110051683665	9.321377370367345e-21	3.055005607581053	0.7434321234647143	-0.4755129258746865	1.2189450493394007	89.3023809583596
14	5.0	wm	104	diff_vonmises	-0.08557967273402226	-4.903354059770282	0.579938154644983	175.7785930453679	0.5675522311800834	176.90477614842948	0.1187862751960651	-0.32376679640789696	0.44255307160396207	111.966151154194
15	6.0	ltm	104	diff_vonmises	0.2665746452339101	15.273602097100255	0.5522715217661331	138.99555772416795	0.5403458321745529	140.00425635379182	0.05533239224118347	-0.26649496975007914	0.3218273619912626	112.92595170369975
16	6.0	perception	104	diff_vonmises	-0.1672691309174752	-9.58381524439256	1.5070249356068952	2.0333373611555783	2.1981042648647253e-19	3.0033192222401155	0.4052147827638641	-0.4346308066777548	0.8398455894416188	110.1538640193427
17	6.0	wm	104	diff_vonmises	-0.06760511912044535	-3.873487999080703	0.7219671756136822	154.24168642965802	0.7042184727561346	155.37936977248108	0.19741347127123277	-0.34038914051289915	0.5378026117841319	101.62674305320532
18	7.0	ltm	104	diff_vonmises	-0.04656956354484746	-2.6682394448860567	1.049055975108134	164.98383172614393	1.0271527928425097	166.6166931116942	0.11482041673327359	-0.4086873593380389	0.5235077760713125	80.9498041119443
19	7.0	perception	104	diff_vonmises	-0.013026639190385391	-0.7463714468487986	1.593683898961873	6.305248942885294	0.6866985943184681	7.841562578497983	0.6219155360028252	-0.5515270463691195	1.1734425823719448	83.26279058353614
20	7.0	wm	104	diff_vonmises	0.270321518624021	15.488282128723483	8.01068904238607	0.576511298336147	7.073289849920932e-14	2.306669991148411	0.2728477245580794	-0.36711786063659047	0.6399655851946698	48.03526446217626
0	1.0	ltm	105	diff_vonmises	0.017028931177098094	0.9756858860664658	4.6524104136703075	0.725841096141946	0.2424759266754588	4.337466740671344	-0.2613565208755877	-0.7124814919963229	0.45112497112073524	55.238795628863954
1	1.0	perception	105	diff_vonmises	0.07100644013572913	4.068369338025615	11.802769547402987	0.9843411051233321	0.18563597728300954	4.5713678461891405	0.4657596172116494	-0.7944539106626941	1.2602135278743436	38.263321762002306
2	1.0	wm	105	diff_vonmises	0.07045853799331087	4.036976857678873	0.7022406051804071	162.97341641086877	0.6794620827192877	167.15400347414544	-0.4659933457637493	-0.7664147256551601	0.3004213798914108	82.99473383278331
3	2.0	ltm	105	diff_vonmises	0.10741810654386437	6.154604148250038	3.362330802455565	0.5849134898902852	0.13634603350287658	1.8729665470938073	0.06851406092757278	-0.2827275253511851	0.3512415862787579	69.36653828321471
4	2.0	perception	105	diff_vonmises	-0.04027556231133363	-2.30761973795558	8.151437476878934	1.1947530068739793	0.26099179048725674	2.4011879416508335	0.8507206570263097	-0.4075253053962804	1.2582459624225901	46.04873971368491
5	2.0	wm	105	diff_vonmises	0.08494225417767967	4.866832666708531	6.1355981417856915	0.38707881435968833	0.041189884930538906	2.1988109646602583	0.009501454766324469	-0.34996482434646325	0.3594662791127877	53.78036990322957
6	3.0	ltm	105	diff_vonmises	0.16535950026745852	9.474401467717781	3.3866876824960817	0.37072709159064016	6.132971016161926e-19	1.066244079572115	0.09027924593764522	-0.16940057766848357	0.2596798236061288	74.56784605429499
7	3.0	perception	105	diff_vonmises	0.041427482787110954	2.3736199195523224	6.402064954504521	1.398070300453375	0.08461877941455913	2.1190363273654125	1.0147945667903278	-0.3351674119707632	1.349961978761091	53.11871931862754
8	3.0	wm	105	diff_vonmises	0.04965154495275995	2.8448239720972297	5.621968101870438	0.45619858606739755	0.22016614124612285	1.684294843852962	0.09089411263572644	-0.2751695342794147	0.36606364691514115	53.58473646533966
9	4.0	ltm	105	diff_vonmises	0.06753526648545259	3.8694857379077496	0.9725399156540474	215.03924211214812	0.9612031657922518	216.8108346076631	-0.1299431968304532	-0.3640697958786774	0.2341265990482242	75.71431124062374
10	4.0	perception	105	diff_vonmises	-0.02410163509620459	-1.380921970376905	3.442900184025641	1.7478147137514737	0.04067127895830567	3.460448866226994	0.6636716681319794	-0.5324006771820414	1.196072345314021	72.57618120741083
11	4.0	wm	105	diff_vonmises	0.1416647807511802	8.116794042688769	0.8116924630507245	186.33364565322566	0.7950700710171459	188.82211320943003	-0.1617902351420355	-0.49823796422332833	0.33644772908129283	84.0463399194825
12	5.0	ltm	105	diff_vonmises	-0.025152063102299414	-1.4411070618084807	2.2284049019462078	0.8638859800941763	1.4365276568125114e-21	2.523493459682532	0.07394132684427746	-0.3961094719389968	0.47005079878327427	92.09183673150122
13	5.0	perception	105	diff_vonmises	0.04044451802628868	2.3173001873471195	2.2707910316716466	2.157146228546398	0.026421588610563568	3.5911137292182786	0.6142245761943386	-0.5437442111125564	1.1579687873068951	90.01563393980848
14	5.0	wm	105	diff_vonmises	0.04106433281236637	2.3528129586691753	0.5167901617194889	215.83825429236776	0.5030028432134291	217.9207195293395	0.042024611813722856	-0.5210335745495804	0.5630581863633033	115.30926664323867
15	6.0	ltm	105	diff_vonmises	0.4359894753904655	24.980356851996543	0.7386028129155525	115.99330498608856	0.7148815742363027	117.74456347486608	0.021656839878318124	-0.3985911436993277	0.4202479835776458	94.93751410333664
16	6.0	perception	105	diff_vonmises	0.07400047547111671	4.23991492645636	1.0662573314845187	3.048164736271997	0.0544512841587235	4.801593117495931	0.2733027155950255	-0.5951777162910508	0.8684804318860763	122.00475810794137
17	6.0	wm	105	diff_vonmises	0.05123168886316152	2.9353595491865376	0.46955925964632395	273.9523220996513	0.45712912810727446	275.92850065573384	0.1607653413874175	-0.5854925525161114	0.7462578939035289	123.4875550330349
18	7.0	ltm	105	diff_vonmises	0.13485426744262496	7.726580373790876	1.1068602012616622	200.52652312668783	1.0867024043130196	202.70529632993532	-0.02302959734539911	-0.4991792867346341	0.47614968938923496	75.3810112970126
19	7.0	perception	105	diff_vonmises	0.14387273787913632	8.243300667466482	2.6152552193345087	1.2653877437714767	3.1275409655492866e-13	3.0850674370516766	0.2746876091038788	-0.48690648302426925	0.7615940921281481	85.03878644644584
20	7.0	wm	105	diff_vonmises	0.34535613708205	19.78744908374297	0.9743511454183471	232.90928730018032	0.9581567693581251	235.13254117938422	-0.026624100574608178	-0.4937120976587863	0.46708799708417814	80.41668264710057
0	1.0	ltm	106	diff_vonmises	0.0029236760949449335	0.16751430090363445	0.9824389278403555	191.00132070759986	0.9655603757992506	193.3237856901694	-0.1673021845503797	-0.47894314004749106	0.31164095549711135	75.56805927664038
1	1.0	perception	106	diff_vonmises	0.059499925413733556	3.4090946075501214	7.884504215026675	0.9011667115971264	0.02087294373374606	2.881804016339042	0.5239699270752826	-0.45882212392475924	0.9827920510000419	48.143549744338344
2	1.0	wm	106	diff_vonmises	0.04131304423633034	2.3670630735789997	5.730751344992275	0.29976432457449137	4.809165433365193e-16	2.5643871807153884	-0.12873686355938574	-0.40813195370767785	0.2793950901482921	56.95083871040575
3	2.0	ltm	106	diff_vonmises	0.12760108675203688	7.311003732174395	4.646049886279511	0.5319396091652175	0.17863917351743458	1.8908561609086507	0.08652545712540666	-0.2986875410741407	0.38521299819954735	59.0309618087326
4	2.0	perception	106	diff_vonmises	-0.01870063058519434	-1.0714672067648985	8.53782987432995	1.1692801929900434	0.023990750547309998	2.3029908234011582	0.9664968088988835	-0.3668583061026997	1.3333551150015832	46.31679661397786
5	2.0	wm	106	diff_vonmises	0.044953187168448094	2.5756279004137235	5.181407524631302	0.44958853124263753	0.08526634010044117	1.8823348421909503	0.07160915863280032	-0.29803013293650393	0.36963929156930425	57.66694698826578
6	3.0	ltm	106	diff_vonmises	0.2561851096476525	14.678325556906717	5.680872103060947	0.36316881423461556	0.17840201110536472	0.9039188495524202	0.16634672940869805	-0.14447970661673482	0.31082643602543286	54.804286136453754
7	3.0	perception	106	diff_vonmises	0.05726713102281206	3.281164912429836	6.209445774550418	1.53040104505385	8.389818556151984e-18	1.9097860138223088	1.184023384179376	-0.3039458697776124	1.4879692539569884	54.66632122853156
8	3.0	wm	106	diff_vonmises	-0.09936861079952033	-5.693402014890608	5.9179062641346825	0.40325247802480046	0.1547601778598977	1.133480633721252	0.1729476473533013	-0.18189495308257625	0.35484260043587756	53.832432714019006
9	4.0	ltm	106	diff_vonmises	0.45247978153597734	25.925181797013014	0.3935426561113244	123.8086286190909	0.3849257831655649	125.02623433571996	-0.07925443088374706	-0.2590985146237017	0.17984408373995464	123.33746229375228
10	4.0	perception	106	diff_vonmises	-0.04339434003688193	-2.4863125388689076	3.7814108649886666	1.7306317329387806	0.001293296601210221	3.679338692261108	0.7037439221955163	-0.5841576141978968	1.287901536393413	70.4213181233689
11	4.0	wm	106	diff_vonmises	0.05556318504343546	3.1835359992932712	0.9810860475746298	147.542769090439	0.9652224709676923	149.2827677217991	-0.13937307339131877	-0.3555125730415085	0.21613949965018975	74.78059184857642
12	5.0	ltm	106	diff_vonmises	0.3012808973260257	17.26212386469556	0.7392457383145805	73.22785805024462	0.7110844908436965	74.172629940098	0.122578372176541	-0.26274578162483664	0.38532415380137763	99.6863214619342
13	5.0	perception	106	diff_vonmises	0.02592646098098789	1.4854767919212142	2.8132802672588832	2.043369237578774	3.0251275993058726e-15	2.663752570638161	0.8658470073150195	-0.41930397201008945	1.285150979325109	81.97652104946712
14	5.0	wm	106	diff_vonmises	0.11518785228766762	6.599777787259699	0.5979774932710817	112.27112225608644	0.5776578025718607	113.27808922020806	0.1680852235867789	-0.3205011807564535	0.4885864043432324	112.23993408376063
15	6.0	ltm	106	diff_vonmises	0.35948721018261787	20.597099932396358	0.807750488211284	107.24125974537633	0.7932503163592819	107.90321503709976	0.09679947749153683	-0.18487260863948052	0.28167208613101735	95.07719468427041
16	6.0	perception	106	diff_vonmises	-0.14748444341682837	-8.450236151620263	1.4422198314024681	1.7800246558325246	2.435997881756908e-16	2.2851545694160023	0.3891963198982798	-0.32161381739671824	0.710810137294998	112.21606712598684
17	6.0	wm	106	diff_vonmises	-0.09058118796863876	-5.189919773884192	0.48120200449365064	144.85804019431166	0.4685398473088639	145.73882222561346	0.12926162581924672	-0.29453476462452066	0.4237963904437674	123.75014553531267
18	7.0	ltm	106	diff_vonmises	0.2011377314563484	11.5243431132845	0.9674061358883427	94.4639440258948	0.9445262037275952	95.52189711130934	0.05986476643131766	-0.25763380830842486	0.3174985747397425	84.05825370760596
19	7.0	perception	106	diff_vonmises	0.0024143609735568622	0.13833269400590475	0.9482925271987196	134.55367447308376	0.916285067445914	135.48674913950214	0.5147730106442054	-0.4000974887940014	0.9148704994382069	92.49195315124385
20	7.0	wm	106	diff_vonmises	0.07343772152111853	4.207671500217148	1.6500983162461516	0.5809132101653829	3.054674008536782e-32	1.7950135717278954	-0.019053529557182147	-0.27585277965781924	0.2567992501006371	105.97187241996235
0	1.0	ltm	107	diff_vonmises	0.0005643801693379735	0.03233660174394459	1.7847274937970863	1.6100497405601353	0.38632360822238004	3.7507338384424447	-0.07142110002027402	-0.44533290842692913	0.3739118084066551	78.70224088412874
1	1.0	perception	107	diff_vonmises	0.020519005126805046	1.1756523935732277	10.809428128962626	0.7376740739019997	0.002636593607659227	2.804356800557187	0.508308265007978	-0.4464058921487697	0.9547141571567477	41.23558487190567
2	1.0	wm	107	diff_vonmises	0.08791151417980611	5.036958733107381	3.5934260967192118	0.4442246759336635	1.954922790694776e-12	2.7218304677131835	-0.11119516105167104	-0.43294919239491403	0.321754031343243	72.33176897462585
3	2.0	ltm	107	diff_vonmises	0.09529696106887815	5.460113669669233	4.470025543023887	0.4685625188656253	0.023035886882291294	1.6529511046533074	0.11340465390498711	-0.26009976138968005	0.37350441529466716	63.78089835447594
4	2.0	perception	107	diff_vonmises	-0.04083008647686266	-2.3393916322784074	8.104186614912209	1.0855700362159828	0.048491023703117274	2.1052910394173128	0.8609908999724236	-0.33628727081096293	1.1972781707833866	47.39044654338758
5	2.0	wm	107	diff_vonmises	0.01373323487507727	0.7868563974037999	4.972102341608775	0.47277510202831996	0.06640603523791816	1.846712833080069	0.09497762884722549	-0.29094734727256705	0.38592497611979254	59.32753915691899
6	3.0	ltm	107	diff_vonmises	0.1951466176232353	11.181077576064675	3.8576120880954563	0.4407418902433747	3.444598756724981e-10	1.0889505692408763	0.15889467226551984	-0.17316370081861454	0.3320583730841344	69.7444096736892
7	3.0	perception	107	diff_vonmises	0.03428483255139337	1.9643762065075823	5.715044212228909	1.585524760795559	0.04731676508867032	2.1475155453032793	1.1176883005664118	-0.33723514274295163	1.4549234433093634	56.547925932902984
8	3.0	wm	107	diff_vonmises	-0.045434864789877565	-2.6032259952075325	3.655947458516394	0.7236084208970816	0.2933237605734515	1.6661962655055271	0.18144443492234702	-0.24765416338820248	0.42909859831054953	64.86843093254183
9	4.0	ltm	107	diff_vonmises	-0.023414709309427767	-1.3415640219558893	0.875992200409126	104.33994317829355	0.8567368995769357	105.62209640752874	-0.0200394609676664	-0.27896968793971233	0.25893022697204593	84.89642175343673
10	4.0	perception	107	diff_vonmises	-0.03997920764145197	-2.290639866132368	2.898800331153183	2.1117132307532125	0.08965280740624833	3.7725258003810413	0.7007503665162614	-0.5554091282071119	1.2561594947233732	77.61275414090471
11	4.0	wm	107	diff_vonmises	0.05359521669648406	3.070779718797619	0.9630596096485773	225.83230170913137	0.9502721056120919	227.78441796304313	-0.10049413017141262	-0.4108106421542246	0.31031651198281196	78.09711034919096
12	5.0	ltm	107	diff_vonmises	0.18432410938300814	10.560993530154104	1.7634295703241543	1.0578294916487971	0.07050672923388143	1.988850865840247	0.1663110557852739	-0.2797573483797849	0.4460684041650588	98.40143965674449
13	5.0	perception	107	diff_vonmises	0.02729595826158819	1.5639432061542549	2.371362787868005	2.0296444232025186	1.105626727459178e-18	2.724459194274471	0.7258020248635789	-0.4235056357186149	1.1493076605821937	89.31340009285987
14	5.0	wm	107	diff_vonmises	0.040941991724009835	2.3458033306453085	0.584073342253908	158.26165180467123	0.5693974813242225	159.33007696018683	0.16098464699513215	-0.3332885858350192	0.49427323283015134	112.96498923267696
15	6.0	ltm	107	diff_vonmises	0.3823051347253579	21.904470705943336	0.6660695009769034	101.00896560412343	0.6511186628839997	101.72848203426794	0.0891431783123906	-0.20361939890126202	0.2927625772136526	104.6720075482556
16	6.0	perception	107	diff_vonmises	-0.08276185834593028	-4.741905187881374	1.6183955003920225	1.7034476762342992	1.5616206605812386e-14	2.4496357153623527	0.3828083960016838	-0.35951221229097924	0.742320608292663	106.88530679809563
17	6.0	wm	107	diff_vonmises	-0.05056629519164094	-2.897235300093694	0.5161667866861896	173.2900361726927	0.5037189406129411	174.35130545446805	0.14118385098098685	-0.33705016535082777	0.4782340163318146	119.60940400237747
18	7.0	ltm	107	diff_vonmises	0.05962060087283986	3.416008802047716	1.1554020372616927	75.4017835028139	1.116044877772922	76.64746249784773	0.1002358123910625	-0.3208397044523288	0.4210755168433913	77.51479220210155
19	7.0	perception	107	diff_vonmises	0.06816327481151813	3.9054679644903807	2.4128678571015674	1.519402678401951	1.9411750618086495e-14	2.6279225536296433	0.458707027632849	-0.4112130773440022	0.8699201049768512	88.54065286341748
20	7.0	wm	107	diff_vonmises	0.037106069389881695	2.126021170359795	1.6801539966656918	0.7422470503111042	4.4469106376769413e-29	2.1934814405861665	-0.004654721921345306	-0.33714248654599566	0.33248776462465035	105.13896435400022
0	1.0	ltm	108	diff_vonmises	-0.06690000957511284	-3.8330881980387614	1.126439924089522	536.6088069360146	1.1128660823966001	541.0879280854733	-0.2652479430892072	-0.9784871913880977	0.7132392482988905	71.58103830332723
1	1.0	perception	108	diff_vonmises	0.039357623469291586	2.255025716455445	5.94350048069679	1.1084438252532762	6.471416089445335e-18	4.396959589840729	0.35342976781328017	-0.6997906070294215	1.0532203748427018	55.90011648210344
2	1.0	wm	108	diff_vonmises	0.11649947972225573	6.6749285035551695	6.595916579579455	0.4294723886148017	4.737006591839939e-13	3.9570292897788573	-0.19881054397316966	-0.6297799671624914	0.43096942318932174	53.01198643154109
3	2.0	ltm	108	diff_vonmises	-0.03618926427453301	-2.0734921066143106	3.7718918432103283	0.9084742314053513	0.1338422561324695	3.40649870867159	0.059328224849881206	-0.5245781015388533	0.5839063263887345	65.49026898147679
4	2.0	perception	108	diff_vonmises	-0.061429828734591296	-3.5196699227035517	6.334306291049479	1.436470715514494	0.010315613468521037	3.454249724268524	0.8556517198669382	-0.5479307744587696	1.4035824943257078	53.945681516792035
5	2.0	wm	108	diff_vonmises	-0.062261273883975114	-3.5673082206598687	3.3559231088892285	0.932015498614478	0.17934368491166172	3.0122972400023746	0.08126564371107992	-0.453070021488075	0.5343356651991549	68.08950147097389
6	3.0	ltm	108	diff_vonmises	0.13979179235096037	8.009479712279214	4.762091056819331	0.44147869597845013	2.4950144197698675e-16	1.54940045914745	0.12638544099283797	-0.24656749067415104	0.372952931666989	62.60261714386485
7	3.0	perception	108	diff_vonmises	0.11215226317911028	6.425851343003484	4.629207502555623	2.054200520028545	1.4329457611939439e-18	2.4828554098649556	1.3139625802291481	-0.39499577983439327	1.7089583600635414	63.52275278679852
8	3.0	wm	108	diff_vonmises	-0.2003362769097205	-11.478423150291151	4.367185212347659	0.6155291715555543	6.633492394116117e-29	1.4657625671937362	0.26301125215676446	-0.2332034513185904	0.4962147034753549	65.44969697347847
9	4.0	ltm	108	diff_vonmises	0.17793693473479874	10.195035379798748	0.00015855158351295803	9137.68290095876	1.7386301528237337e-32	9139.356839968934	-0.035825123179392904	-0.4969879334221332	0.4611628102427403	178.90114458253169
10	4.0	perception	108	diff_vonmises	-0.03053051296397281	-1.7492695392050877	2.2986723271361122	3.4642837117178433	0.26843483114349775	6.148893812721654	0.6855835494232243	-0.7891746979070853	1.4747582473303096	80.4524827325651
11	4.0	wm	108	diff_vonmises	0.3124271093987167	17.900754774018523	0.8169441382366046	185.58743501370526	0.802712700295871	187.60601368300203	-0.10962895617873869	-0.4111730188821099	0.3015440627033712	84.80366927243284
12	5.0	ltm	108	diff_vonmises	0.5014136414940659	28.728885447895703	0.7040950265042829	183.42553659763044	0.689824601438948	184.9031610481891	0.08123245369236543	-0.3651530710072137	0.44638552469957915	99.21173379146984
13	5.0	perception	108	diff_vonmises	0.061220905519543754	3.5076995042390235	2.1252536889525837	3.237760968732138	2.803253108410918e-22	4.174624969272952	1.0680493827007163	-0.6397086217405836	1.7077580044412999	94.23395204063635
14	5.0	wm	108	diff_vonmises	0.12852646135401374	7.364023791336267	0.6190473387576609	165.0661844042004	0.601093753012631	166.3645739031361	0.21635895899557767	-0.40650127373938716	0.6228602327349648	110.07465913289985
15	6.0	ltm	108	diff_vonmises	0.7584597612148397	43.45654324811052	1.2209215890191565	162.2964433977335	1.2078227711910328	163.19132137955455	0.05124939726057676	-0.22839336100025776	0.2796427582608345	74.14204256402948
16	6.0	perception	108	diff_vonmises	-0.23685631437920138	-13.570867164952032	1.0048251055694224	2.775871762383765	8.376634112077115e-15	3.2397281804863107	0.4354321832552992	-0.3881369325419388	0.823569115797238	127.96287771643355
17	6.0	wm	108	diff_vonmises	-0.3165040250014966	-18.134344831488843	0.2794095951851165	97.80827719428565	0.2648989045883469	98.77469866505983	0.054876033170206284	-0.30766949186781467	0.36254552503802095	145.26493780939586
18	7.0	ltm	108	diff_vonmises	-0.1244295275483709	-7.129286775328462	4.060351354032531	0.8089971200789675	0.8755613192347358	1.8076217386725726	0.05215660484022144	-0.2887928937183471	0.34094949855856854	53.68953590002306
19	7.0	perception	108	diff_vonmises	0.008490189806568836	0.48645204318138713	1.0892170716313216	266.97924618821327	1.0717331937629586	267.4218572111485	0.7186089009955055	-0.3562789003501692	1.0748878013456746	88.46433650074795
20	7.0	wm	108	diff_vonmises	-0.4718477297629993	-27.03488348824926	0.09096702389158098	59.078107189689625	0.07319971138080685	60.4050561416595	-0.053306152272348584	-0.3559546812268337	0.30264852895448513	164.8698226812238
0	1.0	ltm	109	diff_vonmises	-0.06926543806663567	-3.9686172673430162	3.9309151280255317	0.6822296894167943	0.1309678662102963	2.9154402062553424	-0.007108518354381532	-0.45301382586050487	0.44590530750612334	63.933943149283664
1	1.0	perception	109	diff_vonmises	0.03515758214331394	2.0143810746963955	18.345409956045387	0.5964075035574685	0.048722625396328274	3.047561754900791	0.5030299526697382	-0.49872624602170634	1.0017561986914445	31.415748271498103
2	1.0	wm	109	diff_vonmises	0.07849130661873067	4.497220597720532	1.75084519982469	1.1636362464441452	0.23120522752392705	3.857492586483949	-0.20970593237620783	-0.5113098680434511	0.3016039356672433	81.84823088434328
3	2.0	ltm	109	diff_vonmises	0.0040949703912632985	0.2346245206504224	3.1258259047757906	0.5607261865513233	1.0866111796281001e-10	1.5446023438682321	0.13008384103432155	-0.24510657129254484	0.3751904123268664	77.68939696197549
4	2.0	perception	109	diff_vonmises	-0.04666188493312999	-2.673529070793434	7.569289043718231	1.055991227650117	0.22775183547795322	2.031839069968403	0.7375787707452962	-0.33765341853329395	1.07523218927859	47.92406812978024
5	2.0	wm	109	diff_vonmises	0.052133748449773226	2.987043756368704	5.878754157018914	0.35749191334937264	0.048067031944394045	1.7774787000995875	0.04109766998337838	-0.28249448590484866	0.32359215588822704	54.8758309272915
6	3.0	ltm	109	diff_vonmises	0.04712074226601772	2.6998196593665305	0.9276826647257383	138.04106055940505	0.9134996331322055	138.72557178894894	0.1498087916173816	-0.20660002228538943	0.356408813902771	89.79527118344402
7	3.0	perception	109	diff_vonmises	0.023454739526058546	1.3438575844218275	4.941322681192262	1.7376296459919485	0.2971873113070761	2.4071934658860554	0.9926745151635176	-0.36945917904153863	1.3621336942050561	58.50608150651354
8	3.0	wm	109	diff_vonmises	0.10132340876697897	5.80540368822674	3.0744915422109513	0.8438500476479246	0.41231802347973023	2.019747479702454	0.09494370375043876	-0.28691668563005984	0.3818603893804986	66.42078856569938
9	4.0	ltm	109	diff_vonmises	-0.07351298988216584	-4.211984059636026	1.2118234944560937	222.7637600125019	1.198458457136679	224.18145367723525	0.01243664449299331	-0.3419823216322797	0.354418966125273	72.67051261039103
10	4.0	perception	109	diff_vonmises	-0.048675970800012625	-2.788927690542757	2.127881006247975	2.9879243196212646	0.3736639812995197	4.190715695713674	0.6638910710369467	-0.47532259013314393	1.1392136611700905	82.09957707467808
11	4.0	wm	109	diff_vonmises	0.03635863343362405	2.0831962446099066	0.9060459200815769	199.36811388814306	0.89054222780013	201.397439748866	-0.06251126557667419	-0.4338288036037845	0.3713175380271103	82.28027533615358
12	5.0	ltm	109	diff_vonmises	0.00476461454483952	0.27299230442595024	1.9902754294842078	1.0021079095155534	8.363622644128071e-16	2.281041947162961	0.15240093395783155	-0.3534126437984377	0.5058135777562692	97.24581000280969
13	5.0	perception	109	diff_vonmises	0.03661364365546984	2.0978072540543655	2.2902178862966234	1.9797772317719313	0.05400703947252118	3.1606457636508662	0.5773006637046034	-0.46488227499857615	1.0421829387031796	88.4777408319319
14	5.0	wm	109	diff_vonmises	-0.11640841006533036	-6.669710596571641	0.49910828959792203	238.83772183683016	0.4895086235201699	240.41767372252886	0.04139480575888399	-0.4051600530886468	0.44655485884753077	117.53985379722752
15	6.0	ltm	109	diff_vonmises	0.20957528662456945	12.007779413832361	0.48276679019455115	107.10584173821205	0.4672402026020892	108.53040619402474	-0.03323986732493367	-0.3263067051067079	0.2930668377817742	116.44139644001493
16	6.0	perception	109	diff_vonmises	-0.049196800046896964	-2.8187690082362065	1.4825595584170885	2.0497400166144257	0.04316030866299482	3.7113554719559088	0.26513390302991213	-0.5200157939464705	0.7851496969763826	108.06518137336981
17	6.0	wm	109	diff_vonmises	-0.09231094179274618	-5.289027367602161	0.5441842110613697	170.8923067965726	0.5261903743833197	172.6109767673305	0.14516051555198572	-0.48712109146115345	0.6322816070131392	115.39402974359531
18	7.0	ltm	109	diff_vonmises	0.020074030904733937	1.1501572486564362	1.104137679636396	204.59083037475222	1.0861525509654946	206.23187064557885	0.10190759651450776	-0.41032601606911	0.5122336125836178	78.43639710346298
19	7.0	perception	109	diff_vonmises	0.07688438729992707	4.405150902735048	3.219322917678394	1.2053046043630795	4.540043098243182e-20	2.812295165582598	0.373973296813127	-0.4462771381351675	0.8202504349482945	76.52932538788914
20	7.0	wm	109	diff_vonmises	0.32920583424678534	18.86210489342414	1.1999925697536795	12.318302182373083	0.9155566091020271	14.135000575174507	0.06675249372883307	-0.43609336284374556	0.5028458565725786	79.11224956034525
0	1.0	ltm	110	diff_vonmises	-0.038611279317077626	-2.2122633464693156	1.0660764546331607	242.61021784970868	1.0511647663876453	244.74257238021272	-0.06873538438853188	-0.4714575909482903	0.40272220655975843	75.5125890229483
1	1.0	perception	110	diff_vonmises	0.06393655286592365	3.663294635832493	7.956069381218173	0.7781609316613666	1.0047064445066302e-18	2.6482626201311823	0.4394012695388444	-0.4214839807933011	0.8608852503321456	48.19622768666389
2	1.0	wm	110	diff_vonmises	0.062050178990563205	3.5552133741906027	7.433503976753896	0.2853950271180393	2.4340694670519414e-17	2.288772851203569	-0.05949978169892017	-0.3642694063450083	0.30476962464608814	49.89137011380868
3	2.0	ltm	110	diff_vonmises	-0.01200496592946428	-0.6878338809566508	3.6243532801957503	0.6904755953779164	0.19064907801369368	1.9188148299446863	0.13665186140913832	-0.2894563377556565	0.4261081991647948	66.34157883287207
4	2.0	perception	110	diff_vonmises	-0.023164853755838315	-1.327248353247309	7.727042715072609	1.1324696240979486	0.015472155983123716	2.2827133695469306	0.8650926932560927	-0.36276722896097713	1.2278599222170699	48.76432647014289
5	2.0	wm	110	diff_vonmises	0.023350073903451667	1.3378606859863442	4.971957303667518	0.45143070295290555	0.12299411067421233	1.7717690049994492	0.07255793363975155	-0.28061019240134066	0.3531681260410922	58.10555004264356
6	3.0	ltm	110	diff_vonmises	0.1835141892263463	10.514588523434805	3.5864631698700915	0.6132278459379289	0.35383071477441347	1.1694903526539664	0.18693225904567556	-0.16935603080120903	0.3562882898468846	65.32260586302732
7	3.0	perception	110	diff_vonmises	0.06363228472366514	3.645861355440794	5.397814077060892	1.6683212053027652	0.07819863547840383	2.0330360782021457	1.1572199518583302	-0.3166342102760357	1.473854162134366	57.97790277496742
8	3.0	wm	110	diff_vonmises	-0.07621899406097572	-4.367026678426596	3.866649165914791	0.507831021712806	0.1630597292425107	1.2223852670997617	0.15575389029798445	-0.1852414069361442	0.34099529723412864	65.60185566748052
9	4.0	ltm	110	diff_vonmises	0.2459852400112454	14.093916075156951	0.3212258115904666	106.4949212466394	0.311345610798982	107.63335531757687	-0.052367792711425665	-0.2672086833092866	0.21484089059786093	136.52975222854707
10	4.0	perception	110	diff_vonmises	-0.06669767928827093	-3.8214955265350485	2.9670101122263373	2.2208608361882938	0.1481898063150795	3.9202414029981663	0.7257702529745735	-0.5630060231215861	1.2887762760961596	75.30852058934326
11	4.0	wm	110	diff_vonmises	0.00894722534122136	0.5126382504044817	0.955388674786513	148.24790194182359	0.9398566243447491	149.82327425020262	-0.0830331162172655	-0.3302962585752063	0.24726314235794078	78.38052988817779
12	5.0	ltm	110	diff_vonmises	0.2709976095727553	15.527019286652957	0.8444276133951865	74.3780938504867	0.8128519806056338	75.3416513805088	0.15337436238613478	-0.2725794523037761	0.4259538146899109	93.68075456943288
13	5.0	perception	110	diff_vonmises	0.02208762077738001	1.265527450029341	2.790245593675864	2.0914018592871084	4.1845234601688326e-14	2.7807513896889313	0.8713945066733269	-0.43761544805559394	1.309009954728921	82.31360379773739
14	5.0	wm	110	diff_vonmises	0.03475987119418213	1.9915939158450011	0.5374030411969639	166.75590989713197	0.5252038700565531	167.71074188998736	0.14185558723398373	-0.30713579009202796	0.4489913773260117	117.6666853372116
15	6.0	ltm	110	diff_vonmises	0.32021267030823947	18.34683455527621	0.7942610966979484	92.77217472171507	0.7782277585030547	93.5333704197105	0.05608450235780538	-0.19070127088904876	0.24678577324685413	93.81842565376493
16	6.0	perception	110	diff_vonmises	-0.21945149157974847	-12.57364427537031	1.4509949887443083	1.8527850204368401	2.7466614861999443e-16	2.454016077985898	0.395975026387137	-0.34737318230051856	0.7433482086876555	111.83783661711686
17	6.0	wm	110	diff_vonmises	-0.18947967252572398	-10.856385539244924	0.5547573478392797	131.2304624008113	0.5399269776623038	132.1287961952017	0.13781094511169556	-0.28798279748337485	0.4257937425950704	116.04885449215733
18	7.0	ltm	110	diff_vonmises	0.10915973106125075	6.2543918825927864	1.0654921850424826	86.30441797051905	1.0386341226309999	87.29338848419987	0.09115378348118952	-0.2549072865881232	0.34606107006931275	81.04295930060005
19	7.0	perception	110	diff_vonmises	-0.034753526748892496	-1.9912304059065533	1.0747306711900106	121.03171252857797	1.0339404350000407	121.921989957342	0.6191350269212208	-0.41849870004801915	1.03763372696924	87.54809824577472
20	7.0	wm	110	diff_vonmises	0.1945059808729941	11.144371794074877	3.119388614066611	0.4834363233322046	2.647222346703148e-29	1.67147585550039	0.05770276171729116	-0.2653916401133475	0.32309440183063864	77.76156442568097
0	1.0	ltm	111	diff_vonmises	-0.005232018225454525	-0.2997725626540707	0.8438371575346268	418.1368658357615	0.8321651304690714	421.60290902717514	-0.14219475580040353	-0.7232701031137196	0.5810753473133161	84.49827037110987
1	1.0	perception	111	diff_vonmises	0.03109556861910503	1.7816448434341636	6.465163447384539	0.7713195898226791	3.0587587513975865e-20	3.6888660256799213	0.1788878522056233	-0.5870994058958242	0.7659872581014475	53.55253975042481
2	1.0	wm	111	diff_vonmises	0.10833331448992747	6.207041700936291	7.081394350333637	0.4122874139924173	6.866837365834707e-19	3.4475152099428152	-0.1193147789389053	-0.5486887836191878	0.42937400468028253	51.12957700217322
3	2.0	ltm	111	diff_vonmises	-0.129830597409018	-7.438745283198853	2.363863426304546	1.4163281575357953	0.19245945308139314	3.5370724913702594	0.13141057040619486	-0.48951640104546024	0.6209269714516551	79.49210483214506
4	2.0	perception	111	diff_vonmises	-0.06445378266330345	-3.6929297202607625	5.513606733102956	1.341912071788594	0.08149240424733938	3.539757251218042	0.6153406392373048	-0.5584628277163409	1.1738034669536457	56.69906677956851
5	2.0	wm	111	diff_vonmises	-0.03281156527355493	-1.879964209392712	3.764667681439514	0.7134189317566553	0.11070817540206848	2.860864432270107	0.023514335672457087	-0.4416765958209955	0.4651909314934526	66.01045521566195
6	3.0	ltm	111	diff_vonmises	0.013790220176920531	0.7901214146936978	0.9205780181580095	163.09091620187849	0.8999128023744672	164.57059300814123	0.16406208278024081	-0.38780871811195894	0.5518708008921998	88.00176110752574
7	3.0	perception	111	diff_vonmises	0.06644352174347581	3.806933371886881	3.6071368539481337	2.629023362767048	0.20587130042748986	3.8116750728832036	1.1721537142495957	-0.5520148387368031	1.7241685529863988	68.49929778912411
8	3.0	wm	111	diff_vonmises	-0.028139980849399147	-1.6123021382495326	1.8250408765320794	1.204091783204074	0.06715350960610295	2.807657864774512	0.11025103732337915	-0.40208801941065564	0.5123390567340348	96.08910581179885
9	4.0	ltm	111	diff_vonmises	0.1360545568379878	7.795351890339476	0.00026484065322536954	6639.493947172546	6.52506130859487e-31	6641.700203576184	-0.07126055862136127	-0.6309756079976978	0.5597150493763365	179.31159035011513
10	4.0	perception	111	diff_vonmises	-0.04007433669555424	-2.2960903594414996	0.9888353440135169	236.70091357929277	0.9560411703279968	239.27286174288253	0.6142464421871665	-0.791346173237244	1.4055926154244105	87.57966563283537
11	4.0	wm	111	diff_vonmises	0.06476415852201249	3.710712947027539	0.5358296551475654	170.96067158736994	0.5203560792827772	173.52826011031965	-0.14684093123734954	-0.5251350859263901	0.3782941546890406	106.11369041576197
12	5.0	ltm	111	diff_vonmises	0.2615998748114586	14.98856874784727	1.224622619350273	4.5634718000153685	0.5635508456908276	6.191337080588031	0.1493841220159844	-0.4134430830316733	0.5628272050476577	89.41926876704778
13	5.0	perception	111	diff_vonmises	0.02796498358805238	1.602275533748015	1.8535262090127367	3.3148156989398627	0.08733564212037565	4.773861299412879	0.8053985805253364	-0.6548262865619247	1.460224867087261	96.50659773697916
14	5.0	wm	111	diff_vonmises	-0.05290221020231687	-3.0310733715066815	0.5169774969929691	229.09650519981187	0.5057096008175036	230.7179094677715	0.08151825945282098	-0.43438206917647193	0.5159003286292929	116.72167959816248
15	6.0	ltm	111	diff_vonmises	-0.1595068927808931	-9.139071759590914	0.00021257392361158408	4022.2607731508915	7.69225710695243e-29	4023.522659132016	-0.0647466675322903	-0.3369096519360255	0.2721629844037352	179.26078190519033
16	6.0	perception	111	diff_vonmises	-0.2183154296528923	-12.508552721695951	1.4121046333248972	1.9971688776532273	5.955083982337779e-18	3.154828672571071	0.3319442317478475	-0.45259587098670134	0.7845401027345489	113.0894580528756
17	6.0	wm	111	diff_vonmises	-0.22425181582279188	-12.848682594791029	0.43649636403326436	150.82616082068404	0.4243190217588013	152.2911804852612	-0.001802241353331624	-0.365663559055843	0.3638613177025114	123.89370285719552
18	7.0	ltm	111	diff_vonmises	-0.0930781107449485	-5.332982910736828	2.088739679393065	2.629540814776285	0.8217880263410162	4.383271067677479	0.04331360587202071	-0.4377865137556548	0.4811001196276755	67.85574641050172
19	7.0	perception	111	diff_vonmises	0.005066469722665615	0.29028733213955643	0.984384007034638	320.36343135324483	0.9668000398528772	321.56074002509246	0.6661634082939827	-0.5097735298300172	1.175936938124	90.3988003138519
20	7.0	wm	111	diff_vonmises	-0.6453141255006587	-36.97377585136328	0.00030400790753188435	4440.393586577365	1.2745745973858618e-26	4442.6153112966795	-0.13873655947907082	-0.5684277256902988	0.42969116621122794	168.4444895895084
0	1.0	ltm	112	diff_vonmises	0.00973049036057499	0.5575160302536775	2.670548650061611	0.778767659323444	0.2345971950859741	1.6484713546581355	0.14977378672527364	-0.22772153557353256	0.3774953222988062	75.5585563715969
1	1.0	perception	112	diff_vonmises	0.012160686909585331	0.6967560358992276	13.055503067195474	0.5349975534984663	1.8359694067473938e-17	1.6112521505806423	0.5069527629043784	-0.2564387443288644	0.7633915072332428	37.516407234932274
2	1.0	wm	112	diff_vonmises	0.17187870320557722	9.847924281861268	3.2284615236981833	0.44790688921752386	2.35471648296288e-16	1.4370046532959933	0.07710652299637333	-0.2282263734638266	0.3053328964601999	76.4100776850932
3	2.0	ltm	112	diff_vonmises	-0.006903594122861674	-0.39554680671129344	3.433180603401233	0.7067912918538849	0.4896063137795698	1.0270704931672212	0.24803043261408464	-0.13908920951572862	0.38711964212981326	66.0668924273946
4	2.0	perception	112	diff_vonmises	-0.04175145836815017	-2.392182353011168	7.623614486348804	0.9407331564898508	7.951717924627799e-28	1.268678135943677	0.8159924619487116	-0.20191615326473927	1.0179086152134509	49.25145305234261
5	2.0	wm	112	diff_vonmises	0.036081219143956476	2.067301576635335	6.681766944360213	0.3548930207933492	0.14321003116594216	0.9397868093997717	0.18686264443484965	-0.15200106698444238	0.33886371141929206	51.059109849008536
6	3.0	ltm	112	diff_vonmises	0.157377620676815	9.017073454592298	1.2662409444918143	119.39933853917634	1.2513396635028515	119.58101942057976	0.25505953845801344	-0.1277846742655928	0.38284421272360625	81.58503364681428
7	3.0	perception	112	diff_vonmises	0.008955690794543522	0.5131232851515066	5.506640904516517	1.4528080686998486	0.1255886876884462	1.8093714012044781	1.0005415404895626	-0.28156936749313266	1.2821109079826951	57.03720170564068
8	3.0	wm	112	diff_vonmises	0.0715261750216461	4.098147953454371	3.0948696024423006	1.1005328281687594	0.7261816369194808	1.6301107047526344	0.26167222250276123	-0.20232555126761326	0.4639977737703745	65.18259891650303
9	4.0	ltm	112	diff_vonmises	-0.08091885815152147	-4.636309055099958	1.5302317410484543	157.16100952084358	1.515102651547025	157.83843876952974	0.11873045086740319	-0.21153394296278805	0.33026439383019124	68.19139855518463
10	4.0	perception	112	diff_vonmises	-0.0967334023146823	-5.542415690572325	2.897459223392029	1.9464059785669443	0.008054395973556991	2.888117189071016	0.7862336034578455	-0.45216023742981243	1.238393840887658	80.48142651568068
11	4.0	wm	112	diff_vonmises	-0.06288274801253665	-3.602916065303016	1.2983483628572174	198.58040021044758	1.2812712688112649	200.0257208338407	0.04793311474162465	-0.3667814698201397	0.41471458456176435	71.05362260449868
12	5.0	ltm	112	diff_vonmises	0.02130493239137805	1.2206827088375225	1.587617454829008	1.1230108926424658	2.2643180466560613e-15	1.4695321398271555	0.2696001777521774	-0.21284511008414186	0.48244528783631924	107.79948138767514
13	5.0	perception	112	diff_vonmises	-0.02461162635381335	-1.410142317026456	2.5283324678479357	1.6372801349533443	2.8286580921733615e-18	1.7975441663529583	0.6852029126552359	-0.2799032641408639	0.9651061767960998	86.5081047887322
14	5.0	wm	112	diff_vonmises	-0.040740947805862245	-2.334284362638678	0.6646300947037674	138.9612343690156	0.6525751223712297	139.32758349370445	0.21762267291673254	-0.1903512826789182	0.40797395559565075	110.4934309610969
15	6.0	ltm	112	diff_vonmises	0.37236413409449765	21.334893325658157	0.6623219503490873	87.18419294594271	0.6487784300091073	87.39307513267913	0.16709734230108708	-0.13090599112797996	0.29800333342906704	111.53438779129678
16	6.0	perception	112	diff_vonmises	-0.09536646875276941	-5.464096166599931	1.7410107807675514	1.8076781371733122	0.10192944550733932	2.1086179780177097	0.48655707455259234	-0.2759328836626497	0.762489958215242	99.52006124482088
17	6.0	wm	112	diff_vonmises	-0.02780761877352809	-1.5932591940319143	0.8197422003044942	124.2549245768753	0.8005678143886128	124.73835543229531	0.30808368986065915	-0.23525182548750045	0.5433355153481596	99.78673610504737
18	7.0	ltm	112	diff_vonmises	-0.04884746322711718	-2.798753482834303	1.0966308576746266	53.086991919750865	1.0422116908451349	53.93382984796066	0.24663880220411727	-0.27530581786928643	0.5219446200734037	84.03039413397195
19	7.0	perception	112	diff_vonmises	0.028629456749579545	1.6403470415032362	3.3254841885880926	1.4239250456258246	1.3016888397415537e-15	2.5239809732661396	0.5867508300254101	-0.4004260362885394	0.9871768663139495	75.2678785664489
20	7.0	wm	112	diff_vonmises	0.30646599103871536	17.5592078508125	6.101087496029814	0.5866397963736523	1.5078223738994961e-19	1.475585905076715	0.33022296379388916	-0.23484395334279268	0.5650669171366818	55.162201678915096
0	1.0	ltm	113	diff_vonmises	0.2189431912163348	12.54452080982174	1.9331362096039897	1.5801502846214677	0.2719525418309622	4.806847092338744	-0.18728392830105212	-0.6360314486894777	0.4487475203884256	78.69765682693063
1	1.0	perception	113	diff_vonmises	0.07812021282856138	4.475958489740318	4.364508518107982	1.2525053152039471	0.19980816811022548	4.310803827050772	0.18002838424572287	-0.6762766386020557	0.8563050228477785	60.31912366618184
2	1.0	wm	113	diff_vonmises	0.1671386559225172	9.576339577849476	4.46097949002767	0.4703636102248746	9.665165602674842e-18	3.422955410202884	-0.16114566697452204	-0.5447290739662176	0.3835834069916956	64.73794505216426
3	2.0	ltm	113	diff_vonmises	0.04697265530225206	2.6913349013418513	2.6652269973406972	1.50735181172182	0.510185691168184	3.0919582477556675	0.15341048871832863	-0.4025678455988472	0.5559783343171758	68.809827536663
4	2.0	perception	113	diff_vonmises	-0.04710457401730238	-2.6988932869530236	6.76664323399039	1.2340052961853827	1.0373734100573462e-19	2.8505246149405505	0.8012962059657234	-0.4536734183747594	1.2549696243404829	52.327135671582
5	2.0	wm	113	diff_vonmises	0.0426955170907709	2.4462729334298476	4.882493675814257	0.6064489895456485	0.09458813301715967	2.4094656897363183	0.09858613540456673	-0.37993327527272874	0.4785194106772955	59.168096777295716
6	3.0	ltm	113	diff_vonmises	0.21511118156222886	12.324962829588085	3.713630885462929	0.6844915210597831	6.429618231434886e-17	1.8036770458300153	0.218166745778136	-0.2867635632819945	0.5049303090601305	71.12099574072832
7	3.0	perception	113	diff_vonmises	0.0368817157593568	2.113166654212281	4.675092773764026	1.9100496639127995	5.88537254566186e-20	3.1686568757584004	1.093502873309617	-0.5041684737450043	1.5976713470546213	63.197554587711835
8	3.0	wm	113	diff_vonmises	-0.0063495883270097845	-0.36380461278319387	2.9595836232282333	0.9746307106601004	0.14287343948831918	2.496332243570095	0.17739022380432395	-0.3659837318779811	0.5433739556823051	74.05546308239073
9	4.0	ltm	113	diff_vonmises	0.5748930446640317	32.938945130674945	0.36375964696260354	235.51966436975323	0.3539877849454344	237.64830839443576	-0.04967648717510542	-0.5220687436683136	0.47239225649320815	129.97951253180327
10	4.0	perception	113	diff_vonmises	-0.0702470048475648	-4.024856901200498	3.0076521033409307	2.2061397404220187	1.4497116224559005e-20	5.145439155565431	0.6281049792776078	-0.8153897280655767	1.4434947073431845	79.23127890456504
11	4.0	wm	113	diff_vonmises	0.11496143425137569	6.5868049893745315	0.7901802498204529	231.09645900553804	0.7739893736547575	234.09195485932355	-0.18016754468413865	-0.6023859230256079	0.42221837834146925	85.75280511691884
12	5.0	ltm	113	diff_vonmises	0.08162728997469301	4.676899208640446	1.7955085685744638	1.078115195819782	2.7312286767554508e-17	2.213508987634629	0.1686470453730512	-0.33792767538127133	0.5065747207543225	102.0171971540403
13	5.0	perception	113	diff_vonmises	-0.03815764186622482	-2.1862718351063766	1.801701119286171	2.833318029094017	6.947027768892977e-16	3.522785993170255	0.811267812449379	-0.5233089985249496	1.3345768109743286	101.87058757665221
14	5.0	wm	113	diff_vonmises	0.06012400889885918	3.444851957311635	0.7043444486858458	151.9206078873108	0.6860989184031088	153.0486032939986	0.21019037670858864	-0.3469865751350625	0.5571769518436511	103.25312779147899
15	6.0	ltm	113	diff_vonmises	0.49298899475421426	28.24618874581356	0.6196152569686808	141.69598897932235	0.6067903454253973	142.33556737714633	0.17370385060979743	-0.23548720020353642	0.40919105081333385	111.57807804049554
16	6.0	perception	113	diff_vonmises	-0.0455854394147405	-2.611853285713944	1.113554210566069	3.0749240267278197	0.14609871404715535	3.5624222892885333	0.463708796393723	-0.366909897851605	0.830618694245328	116.76295677831843
17	6.0	wm	113	diff_vonmises	0.16574004123029618	9.496204858820223	0.6840408493747404	203.10820397287205	0.6729387973840972	204.02796529815575	0.172325345479571	-0.28577331070744805	0.45809865618701906	104.5894888624697
18	7.0	ltm	113	diff_vonmises	-0.016624349489119894	-0.9525050628770362	2.9326763308553727	1.1269571872129671	0.2825019733541636	3.376515602523557	0.029797646492116137	-0.48989496555941037	0.5196926120515265	69.02344500342451
19	7.0	perception	113	diff_vonmises	0.06751269192958308	3.868192311132044	0.9473974716282921	422.7475710073789	0.9331888232734162	424.3707391182778	0.6073432190483743	-0.5837047548165941	1.1910479738649684	90.76000009815834
20	7.0	wm	113	diff_vonmises	-0.04000981120649119	-2.2923933212471694	1.592656064949711	1.0732631285649354	1.0920224734548506e-32	3.3906437338366002	-0.05753421996593305	-0.5196945121792583	0.4621602922133253	107.65158250334412
0	1.0	ltm	114	diff_vonmises	0.00268493970656161	0.15383571343307395	0.7678850692123667	89.7573238762014	0.7375765594860803	91.18864429388577	0.10179265625140488	-0.35909449744926647	0.46088715370067135	95.89932826625898
1	1.0	perception	114	diff_vonmises	-0.03232727492753546	-1.8522164165068662	8.904002914876937	0.6455702804522656	1.792411461054962e-24	2.1243226389011802	0.41898857048410665	-0.3380964347313631	0.7570850052154697	45.518005595936785
2	1.0	wm	114	diff_vonmises	0.13593930228041518	7.788748290620917	3.586038393096314	0.5225744887760437	1.1513202069021305e-20	1.9464666427776962	0.06855931974262214	-0.30949930490050453	0.3780586246431267	72.40832960844594
3	2.0	ltm	114	diff_vonmises	-0.05736058775783473	-3.2865195889137078	3.33379743268644	0.6392535164256282	2.5332855038997574e-18	1.6525887435607414	0.1813688586829762	-0.2624526037063693	0.4438214623893455	75.17089730945943
4	2.0	perception	114	diff_vonmises	-0.06167089465787175	-3.533481982691946	6.427375274854578	1.0793672549488844	3.2442516875387953e-21	2.136523759293283	0.7284072349481092	-0.3400355235575469	1.0684427585056562	53.720959688072185
5	2.0	wm	114	diff_vonmises	-0.06496736879161098	-3.7223560378292486	4.361480679690168	0.5386121771991229	0.05302129741130383	1.6337359445853743	0.1600316603709223	-0.2549079321166869	0.4149395924876092	63.861612582349295
6	3.0	ltm	114	diff_vonmises	0.07684020289211196	4.402619322646958	0.982544136722867	119.04044744477686	0.9626346167739488	119.71950285524288	0.22209198588842582	-0.2309256944470217	0.45301768033544754	88.71283278804509
7	3.0	perception	114	diff_vonmises	0.01822805580350095	1.044390666269551	4.278193622916509	2.064929952833548	0.16674448560456417	2.7392769167584583	1.1352273508124893	-0.41100455042038125	1.5462319012328705	63.926961130622516
8	3.0	wm	114	diff_vonmises	-0.10464016555936814	-5.9954398541019875	1.4922655484796463	3.024949688458389	0.6276817781165825	3.906573995111507	0.24826131388319972	-0.28047230943112833	0.528733623314328	85.35384642019864
9	4.0	ltm	114	diff_vonmises	-0.09219480051726765	-5.282372962689975	0.7671207034392276	114.0155772739744	0.7475120190264448	115.11917477337525	0.10280001447009113	-0.28677751814084473	0.38957753261093586	96.36476399210247
10	4.0	perception	114	diff_vonmises	-0.05800445336125797	-3.3234103705635034	1.5706206616829859	5.764240686791246	0.5276155608353489	7.352851325702865	0.715171649362675	-0.6005180393757008	1.3156896887383758	87.77225081036013
11	4.0	wm	114	diff_vonmises	0.010344288217357708	0.5926840569215026	0.9442576394898587	203.4801391968748	0.929705037515679	205.30208188625002	-0.03548422723643796	-0.3983637869262324	0.36287955968979446	81.25725200279223
12	5.0	ltm	114	diff_vonmises	0.23836210541585476	13.6571426361809	2.056661549879932	1.1370731507771374	0.13444272574135768	1.7388511685616912	0.281410434810412	-0.23276139235671678	0.5141718271671287	89.82953017254721
13	5.0	perception	114	diff_vonmises	0.012437901819570451	0.712639280259474	2.1329375275571074	2.1498870869253754	3.598303986725334e-18	2.6094478308814937	0.7376113393136516	-0.39911917423410254	1.1367305135477541	94.07132989804441
14	5.0	wm	114	diff_vonmises	-0.04550095829944292	-2.6070128743588348	0.5942218164674485	152.34440946182093	0.5815327054480474	153.04324615663288	0.1822821707003115	-0.25855685759876046	0.44083902829907196	113.96358226475868
15	6.0	ltm	114	diff_vonmises	0.3079819677853252	17.646066920233217	0.47049140507378695	77.86622475898568	0.458070801730893	78.29936551615805	0.0761988876183004	-0.15389012487749554	0.23008901249579594	125.00922130602464
16	6.0	perception	114	diff_vonmises	-0.16231406719265457	-9.299911005741965	1.918990878327644	1.3731769239827396	1.2211756497463038e-19	1.8966877000504976	0.3890024260775355	-0.28698716407291053	0.675989590150446	98.89324565299412
17	6.0	wm	114	diff_vonmises	-0.13834927471602146	-7.926829539924021	0.5795647596132397	116.12041325615344	0.565436875243182	116.91595159438721	0.10354530772744752	-0.23983125193033672	0.34337655965778424	112.84974972352451
18	7.0	ltm	114	diff_vonmises	-0.055281239525980456	-3.1673817110904676	2.0309772000291733	2.26948924665929	0.8120780102089864	3.194311787070069	0.20440710028837095	-0.2806089667462537	0.48501606703462463	72.61428928325643
19	7.0	perception	114	diff_vonmises	0.027565757031620442	1.5794015369949235	2.343586423791105	1.8311870481062802	0.022894001022590277	2.6683898912328403	0.6043067827066664	-0.4054498733136786	1.009756656020345	88.92799107854827
20	7.0	wm	114	diff_vonmises	-0.4627375692774039	-26.51290974173779	0.0002771766310269126	4954.437408448601	1.6957076265397796e-31	4955.6583793530235	0.024243893751986434	-0.4128607178603261	0.4371046116123125	173.95921232542847
0	1.0	ltm	115	diff_vonmises	0.06465051607126124	3.704201714225969	1.1457173511012646	170.61758198099832	1.1189550469700382	173.19702556013152	-0.08770376501323796	-0.5811231823803276	0.4934194173670896	72.8594134374971
1	1.0	perception	115	diff_vonmises	0.0846031915696345	4.847405810276843	7.71502379845051	0.9226538751908563	0.1607667833218116	3.482239357832802	0.3580025444838808	-0.5776933254486916	0.9356958699325724	47.115759707912616
2	1.0	wm	115	diff_vonmises	0.18180447697758723	10.416629227399088	3.9654457631525224	0.4591576584809294	0.044392241066465776	3.049764598675251	-0.15584650933437605	-0.47860503366073676	0.3227585243263607	65.70545634183972
3	2.0	ltm	115	diff_vonmises	0.006281430395011317	0.35989945093934206	2.766010880962836	1.2689231884940466	0.6159815896801853	2.247894971434983	0.18946151081089735	-0.28222147278906445	0.4716829835999618	67.47185376568848
4	2.0	perception	115	diff_vonmises	-0.042443158672305095	-2.4318138611271607	7.673303366519428	1.09876160761087	0.039866444310278255	1.9388291936914133	0.8718743980555301	-0.3085510314814467	1.1804254295369767	48.784380663909445
5	2.0	wm	115	diff_vonmises	0.04086167716998583	2.3412016456662577	5.608447236555746	0.45769283069883643	0.13127810042100835	1.709897052480688	0.11279211932375144	-0.2737287636213958	0.38652088294514725	54.97335394088407
6	3.0	ltm	115	diff_vonmises	0.1591819395006868	9.12045330809616	3.651094358116338	0.47899433257034363	0.03117211978970279	1.0079829822226152	0.18480527077507344	-0.15644540213767338	0.3412506729127468	70.69623689094081
7	3.0	perception	115	diff_vonmises	0.04795665836664269	2.747714123959374	5.818836070396177	1.413264254927137	3.347422095170404e-18	1.9148228256368216	1.0232085000248947	-0.30474179432993487	1.3279502943548296	56.50683249086086
8	3.0	wm	115	diff_vonmises	0.03555082877012568	2.0369124467204647	3.628198825182479	0.6967697607599023	0.2967637285989751	1.5116599661294532	0.1910559723672366	-0.22308487338881197	0.4141408457560486	65.30663536493475
9	4.0	ltm	115	diff_vonmises	0.2757269420487115	15.797990077439401	0.6255821489005072	122.34599148268028	0.6138619779273475	123.57325251749566	-0.05724050430344363	-0.2524199249880148	0.19517942068457117	98.50703886117415
10	4.0	perception	115	diff_vonmises	-0.08364847549513166	-4.7927046085745335	3.2221875332691865	1.9788254903793252	1.3443059221726664e-15	3.6026361040194974	0.7761929004572807	-0.571232196015132	1.3474250964724126	76.49106770469055
11	4.0	wm	115	diff_vonmises	-0.001934502976088482	-0.11083885598536723	1.0761505648056842	235.189111694407	1.0612491652190907	237.15111525179015	-0.03458663780439508	-0.44256166130208285	0.40797502349768777	76.01132788136351
12	5.0	ltm	115	diff_vonmises	0.028834212153027016	1.6520786619532746	1.7854417331714842	0.9969805762216508	5.1490936664264e-17	1.9865727750278062	0.1639141388930464	-0.30266666479461407	0.4665808036876605	102.29556789538694
13	5.0	perception	115	diff_vonmises	-0.015753575888140078	-0.902613410629484	2.2461204293866515	2.21716237002157	6.321592172503391e-18	2.745776479631005	0.7894013469405732	-0.423273555885828	1.2126749028264012	91.72994072783987
14	5.0	wm	115	diff_vonmises	0.05640786966417126	3.2319328630810413	0.64574971067762	195.3172311259308	0.6330787378076149	196.25214360278437	0.21587534523521867	-0.31784357100761085	0.5337189162428295	108.6781033557929
15	6.0	ltm	115	diff_vonmises	0.5059556328279368	28.9891223819115	0.8586420954153294	144.75406788770016	0.8446637995018201	145.44561094024775	0.17020435369320097	-0.21867647727433948	0.38888083096754045	93.94211430246867
16	6.0	perception	115	diff_vonmises	-0.06394443975040835	-3.6637465210269737	0.6238293018006719	52.03189934606782	0.5598511729358211	52.48879459051144	0.5116095773462561	-0.3838732642845297	0.8954828416307858	117.77931606758398
17	6.0	wm	115	diff_vonmises	0.030138007225906618	1.7267806169792275	0.7001413332429856	215.72060407090873	0.6870362932399395	216.5463689518635	0.30573239981627864	-0.3268202878192348	0.6325526876355134	106.0171442803142
18	7.0	ltm	115	diff_vonmises	0.02601958707287724	1.4908125239490213	1.8886099530654434	2.1799860387372627	0.6160810840950152	3.6953221050945935	0.09362674705202279	-0.3722045945047065	0.4658313415567293	75.13794145095355
19	7.0	perception	115	diff_vonmises	0.037783217169275324	2.1648188802257056	1.17938400125293	25.535150925087382	0.9727780920678141	26.861315672784237	0.5436114191999017	-0.4857860902761	1.0293975094760017	84.99545359598417
20	7.0	wm	115	diff_vonmises	0.33183680216345335	19.012848251083543	3.2868213991660693	0.7440999564521231	0.047608488315109256	2.2381086316266856	0.13982898554505607	-0.3441391737337902	0.4839681592788463	73.3578839598776
0	1.0	ltm	116	diff_vonmises	-0.007968537882751738	-0.4565635895717874	1.1239224834029142	265.81053273690185	1.1088794180149362	267.8648654949016	0.003016109456083882	-0.47980727457410666	0.48282338403019054	75.28705096693795
1	1.0	perception	116	diff_vonmises	0.08213755421773156	4.706135196202992	10.687251286200171	0.6028671169678291	2.2288748422899853e-19	2.700747149642831	0.3466940461362329	-0.4298372585020056	0.7765313046382385	41.50482779255455
2	1.0	wm	116	diff_vonmises	0.13472696719630892	7.719286606945991	6.3525392808967585	0.31244431857967925	0.003292633020395903	2.357993981845536	-0.06908984672480767	-0.37489385232249417	0.3058040055976865	53.860802760772856
3	2.0	ltm	116	diff_vonmises	-0.10182709008392862	-5.834262501907546	2.124848499153732	1.914037795207423	0.7074117424032395	2.7829843809880623	0.22826685163376603	-0.2703697264973678	0.4986365781311338	73.6898951662127
4	2.0	perception	116	diff_vonmises	-0.035467337054666905	-2.0321287238003696	7.066855275833083	1.0710116540052554	0.06570934041000426	2.003393826129552	0.7741174853703303	-0.3189266708969021	1.0930441562672324	50.61214035045569
5	2.0	wm	116	diff_vonmises	0.04267869627548426	2.445309171705954	5.525844785711384	0.4127203320429012	0.16376083001107944	1.5746822112135008	0.08409371196535204	-0.2535955530848051	0.3376892650501571	54.773835305331545
6	3.0	ltm	116	diff_vonmises	0.0940968431822577	5.3913519798477205	1.209031458733673	134.00034479273964	1.1922165923438732	134.51306210161937	0.22249727241839423	-0.19201281283245386	0.4145100852508481	80.41205733756397
7	3.0	perception	116	diff_vonmises	0.05127233973057031	2.9376886723226074	4.987687406119362	1.639414959134955	0.15371231453589138	2.1266072366909303	1.0273491304458475	-0.3268088736531244	1.3541580040989718	59.56193050758776
8	3.0	wm	116	diff_vonmises	0.09082421376848072	5.203844126527927	2.4175100450140277	0.9463647025159649	0.4066610392150157	1.7509141932989873	0.14510906211793728	-0.21892297556360388	0.36403203768154113	74.8220361711328
9	4.0	ltm	116	diff_vonmises	0.04917854189594241	2.817722893244798	0.7501960638621135	129.19056518067748	0.7373034210238563	130.3315268836623	-0.014864314551481073	-0.24790396872494824	0.23303965417346717	92.1724394788005
10	4.0	perception	116	diff_vonmises	-0.09938591207239122	-5.694393304806314	2.8088710557420056	2.247293163710761	0.12881573821690193	3.6156640668274664	0.7654642290377017	-0.5166688626088364	1.282133091646538	78.01321797017971
11	4.0	wm	116	diff_vonmises	-0.03450453880202586	-1.9769644474014672	1.0296300846889026	191.10971636155105	1.0139681822340887	192.7803117619921	-0.010161878446808714	-0.3780548462988449	0.3678929678520362	78.4375507684837
12	5.0	ltm	116	diff_vonmises	0.045984907337279106	2.634741111726265	2.09990435901277	0.9399000257053274	5.10051855148407e-16	1.9483582582677883	0.18923385749598315	-0.3026011142009624	0.49183497169694557	94.77962767291166
13	5.0	perception	116	diff_vonmises	-0.011503051615295166	-0.6590763090775573	2.5523607100843866	2.0570456707282045	1.3098099824745185e-22	2.7842749904643265	0.7839861947396245	-0.4356842711058413	1.2196704658454658	86.09861153822396
14	5.0	wm	116	diff_vonmises	-0.05146035264221099	-2.948461018653584	0.5645210592464159	169.31482795089173	0.5524063009972408	170.2684251692691	0.141816427529335	-0.3005789653825577	0.44239539291189267	114.80616491539597
15	6.0	ltm	116	diff_vonmises	0.33890859560193937	19.4180321686971	0.7500923192439436	131.7928278575345	0.7368210042117347	132.69108869909945	0.07192272745395911	-0.22917964374486388	0.301102371198823	96.85612085213756
16	6.0	perception	116	diff_vonmises	-0.1810290234838807	-10.37219901500103	1.428749765302537	2.1691324775478167	4.458164876861586e-19	2.938299475506061	0.44465894953310825	-0.4152644138801587	0.859923363413267	112.60643182551524
17	6.0	wm	116	diff_vonmises	-0.10180893572707413	-5.833222333880009	0.7449852827040496	99.90132441644066	0.7172716978039306	100.8562406327888	0.25341437569557357	-0.32330346991604664	0.5767178456116202	101.94441574989341
18	7.0	ltm	116	diff_vonmises	-0.009874564817583767	-0.5657708885759195	1.0923221514791046	131.41220380388114	1.0681371442035779	132.72599602062422	0.13055724695917803	-0.34295191939750325	0.4735091663566813	80.12412205515278
19	7.0	perception	116	diff_vonmises	-0.026239857660643066	-1.5034330989788693	1.8848006640017196	4.442710825750729	0.6345656583487123	5.742008062959506	0.6484479468666626	-0.5000717691485175	1.14851971601518	80.15166324599468
20	7.0	wm	116	diff_vonmises	0.3197586902608277	18.320823414576367	6.071865270834931	0.5938637775357295	2.7132558621772555e-16	1.9735079674421556	0.256542218039693	-0.3140905109579585	0.5706327289976515	55.29475376010609
0	1.0	ltm	117	diff_vonmises	-0.061951897499123054	-3.5495822595268307	0.9684529035702472	72.51218800732873	0.9441460763061941	73.66074739952774	-0.045759254776292835	-0.24532208676824574	0.1995628319919529	79.02291854693149
1	1.0	perception	117	diff_vonmises	0.04256015830844222	2.438517446482384	10.091890871094067	0.7438671034443325	5.184504848950963e-14	1.7624027447115151	0.6497225935224731	-0.2804951069431667	0.9302177004656398	42.72938348448028
2	1.0	wm	117	diff_vonmises	-0.046282723960568754	-2.6518047473095994	6.264075610921094	0.23424685760431502	4.593872594726294e-17	1.5394462936099675	-0.016217835752746074	-0.24500965809776365	0.22879182234501758	54.425071015968484
3	2.0	ltm	117	diff_vonmises	0.2097782174588355	12.019406494168875	5.948666804175825	0.28380412258849597	0.03353213152306468	1.0829267487760958	0.09162534386120813	-0.17164623760035538	0.2632715814615635	55.08646432599255
4	2.0	perception	117	diff_vonmises	-0.0051242445957813305	-0.29359758853099077	9.193541275563069	1.0673374968170735	0.0983945485785386	1.6894046627426111	0.9764579580347885	-0.2744033208032989	1.2508612788380873	44.346180997666465
5	2.0	wm	117	diff_vonmises	0.07656713299152121	4.38697356983105	7.829358480672035	0.2530406789122038	0.021399821166074546	1.1708509121512058	0.08725358443616515	-0.1865959686901327	0.2738495531262979	48.20178465389992
6	3.0	ltm	117	diff_vonmises	0.27882663219342796	15.975589240529949	4.381739790781801	0.4684524759771797	0.7169922613464265	0.7238904571542933	0.17011086606918413	-0.10880145872784049	0.2789123247970246	57.25515492160929
7	3.0	perception	117	diff_vonmises	0.03150653706044199	1.8051916006358413	6.4661974887008675	1.4596607189810171	0.19825058815048588	1.6252716832958976	1.1373970350572338	-0.2582864423505553	1.395683477407789	52.428713764514356
8	3.0	wm	117	diff_vonmises	-0.0529497673014811	-3.033798192574677	6.6406881371424324	0.372829934596317	0.4825213065964664	0.8932047001196405	0.15802125228223682	-0.15733950780823913	0.315360760090476	48.554584415502546
9	4.0	ltm	117	diff_vonmises	-0.03776897046491026	-2.164002604193617	1.3611820088013733	118.45860076753618	1.3459575197153828	119.24982967375009	0.0036360583298673532	-0.1989008628942841	0.20253692122415146	68.26425526819838
10	4.0	perception	117	diff_vonmises	-0.03710183448093024	-2.125778527950254	3.7767788954143056	1.5657752271010614	0.04221757482044064	2.844578890833958	0.694516345914811	-0.4391292445506894	1.1336455904655005	69.37647273352846
11	4.0	wm	117	diff_vonmises	-0.00693182214027394	-0.3971641529730381	1.2066385316247565	113.75698643082987	1.1884484780012188	115.03397716574214	-0.099069793194964	-0.28138223921586913	0.18231244602090513	67.86920461405637
12	5.0	ltm	117	diff_vonmises	0.29087122803827636	16.665693748380573	0.8330732538649099	78.35984830336793	0.8097775167944233	78.9578570254729	0.16582028006376603	-0.198346685131205	0.36416696519497105	96.1709336535144
13	5.0	perception	117	diff_vonmises	0.03265997889161769	1.8712789494760498	3.8793149720546234	1.4638698686000347	4.884683784611605e-18	1.9417149586417632	0.7977592778803385	-0.3085608783026171	1.1063201561829556	69.54563572592534
14	5.0	wm	117	diff_vonmises	0.07365795515996597	4.220289958229914	0.4958779366821309	79.80193228538366	0.4760208959384427	80.53069295443822	0.11895186784049372	-0.2490569250624315	0.3680087929029252	122.84616953749591
15	6.0	ltm	117	diff_vonmises	0.09616161664536357	5.509654784934298	0.7270679351703742	50.822233169495696	0.7031745100764926	51.32134027657811	0.08924821286472628	-0.1504164271181141	0.23966463998284038	101.59667473193761
16	6.0	perception	117	diff_vonmises	-0.15643400234435073	-8.963008106670923	2.0028134068075842	1.2078167925199703	1.9231150560202382e-15	1.790591917376891	0.3386428759703391	-0.2736235547899581	0.6122664307602972	96.92216356397324
17	6.0	wm	117	diff_vonmises	-0.1819445888287917	-10.42465704513287	0.50154208569768	105.89485313494738	0.48464787444102775	106.68086160666863	0.1423085895301348	-0.27570256468988497	0.4180111542200198	122.31001939816778
18	7.0	ltm	117	diff_vonmises	0.3125849502377783	17.909798387931556	0.7643274871460347	134.95594901019356	0.7516828561541182	135.65951906126	0.1186672482352975	-0.20547763848568223	0.32414488672097974	98.34154757343956
19	7.0	perception	117	diff_vonmises	-0.016529510160009836	-0.9470711695871776	2.4554545765516282	1.3954119181883995	2.7387154683777254e-16	2.2815972253335546	0.4506204108793279	-0.35713356903815563	0.8077539799174835	87.77638332205561
20	7.0	wm	117	diff_vonmises	0.277625053259472	15.906743838862445	3.677604136257037	0.33907149876259224	1.6796868071680367e-18	1.2154361355376953	0.05550093827395294	-0.19328352917031635	0.2487844674442693	71.47289296741295
0	1.0	ltm	118	diff_vonmises	-0.09883071538875463	-5.662582878034277	1.3544145871335214	63.01165627379155	1.331802331770318	63.004524751926084	0.25988593606370003	-0.08640106495001998	0.34628700101372	81.45052524070408
1	1.0	perception	118	diff_vonmises	-0.03687923229901497	-2.113024362416106	11.54186711489448	0.620602947939728	3.658349745492809e-21	0.5818819754172634	0.739007877858288	-0.09260939260524595	0.831617270463534	39.91802235085598
2	1.0	wm	118	diff_vonmises	-0.2971378040099847	-17.02474210355755	0.00020856160405076583	4182.979219580148	9.72523800497559e-31	4182.976122539547	0.13934831725759977	-0.13834801942198283	0.2776963366795826	177.47749530166854
3	2.0	ltm	118	diff_vonmises	0.06354606693006257	3.640921439748437	8.128130261778681	0.24276389924638742	7.314581296027184e-16	0.17206672596794237	0.24417341765227363	-0.027385246320342834	0.27155866397261647	47.67658801548717
4	2.0	perception	118	diff_vonmises	-0.03349583702012039	-1.9191700925109585	7.727055027542287	0.9701697439483705	3.422132377536025e-18	0.9077742995338702	0.9128331837370008	-0.1444765615949706	1.0573097453319715	48.91190929222785
5	2.0	wm	118	diff_vonmises	-0.07081645630466406	-4.05748406632986	6.875731046221072	0.28261184154840024	8.490880054036018e-14	0.20166559547637963	0.25775276169078354	-0.03209576734887539	0.2898485290396589	51.89748591566166
6	3.0	ltm	118	diff_vonmises	0.21706349439636882	12.436822115273529	2.184363848659985	50.91105202581518	2.161496965567543	50.78213450427085	0.24376174154141594	-0.0460741528555948	0.28983589439701074	66.38887496381454
7	3.0	perception	118	diff_vonmises	0.018386243048139562	1.053454127760147	5.407152163915348	1.5472193415593698	0.3168396960382488	1.3649786947872415	1.107749922557638	-0.2081343877423933	1.3158843103000313	56.790121798897815
8	3.0	wm	118	diff_vonmises	-0.1008158669506425	-5.776323684224256	1.941867542312886	34.122538165470914	1.8876972938598187	34.09490510721098	0.30792067494354214	-0.09450565770451735	0.4024263326480595	68.20053595205485
9	4.0	ltm	118	diff_vonmises	-0.173524254808094	-9.94220744365647	1.9552156393110027	75.44624902651562	1.93380163609518	75.59565466091112	0.17976243431287742	-0.10131948885202391	0.2810819231649013	64.56734957797278
10	4.0	perception	118	diff_vonmises	-0.07283065985245028	-4.172889428698288	2.423586724615872	2.465334903868792	0.29639751718359675	3.023049273329882	0.7934927079608841	-0.3702813278065984	1.1637740357674824	80.69016837298639
11	4.0	wm	118	diff_vonmises	-0.010781259816324664	-0.6177206853093924	1.4637685225297863	97.35612469645034	1.4426340100706982	98.13457458484604	0.034059597143084375	-0.21002280301773268	0.24408240016081706	67.07675699327294
12	5.0	ltm	118	diff_vonmises	0.3461657254618688	19.833835081049422	1.1272924731881047	33.095722830992166	1.0856607980370596	32.930601065472246	0.3168421507501886	-0.08166237089357553	0.39850452164376415	92.04405273901892
13	5.0	perception	118	diff_vonmises	0.03577303663304376	2.049644019440292	3.489283684876305	1.3838394344245069	1.724140821182509e-19	1.2133218109659922	0.7937287632867513	-0.192186789497505	0.9859155527842564	73.43287653400301
14	5.0	wm	118	diff_vonmises	-0.013492440077278999	-0.7730598717612529	0.559537173932111	74.40289530874215	0.5445662255797356	74.30965278567342	0.2334909734800128	-0.11190896437870634	0.34539993785871914	124.20947505468699
15	6.0	ltm	118	diff_vonmises	0.17304420226682304	9.914702459097114	0.9144368536039881	36.32374330227742	0.9007903212266077	36.27835663425835	0.10902712478614696	-0.03514870876573717	0.14417583355188412	100.4182633884393
16	6.0	perception	118	diff_vonmises	-0.19429322487188552	-11.132181773145275	2.233999937854663	1.111976131818962	8.510354427002512e-13	1.148687701782828	0.43027601674567983	-0.17578689464777705	0.6060629113934569	91.93908398495914
17	6.0	wm	118	diff_vonmises	-0.29096459187968343	-16.671043102452327	0.6672839522647157	43.38654243878462	0.6340418102334758	43.62261900184251	0.20990304677602722	-0.15948724142144188	0.3693902881974691	112.24859192732107
18	7.0	ltm	118	diff_vonmises	0.11050001278084219	6.331184368483913	1.221304308665918	61.09076186088129	1.1986386036857226	61.133331464963064	0.23925271994394492	-0.09269633206607075	0.3319490520100157	84.9811358611637
19	7.0	perception	118	diff_vonmises	-0.01706144297930084	-0.9775486751170473	2.805869291625274	1.2833995233590811	1.0025815804709448e-16	1.61810180386566	0.5514173924503543	-0.25457243528170154	0.8059898277320559	82.07793203756242
20	7.0	wm	118	diff_vonmises	-0.2113822837731439	-12.111312724037852	0.00019450548358114822	4908.646039496749	5.118798371986548e-32	4908.8844984800535	0.1140097219152949	-0.18989879586615643	0.30390851778145134	178.71384804820246
0	1.0	ltm	119	diff_vonmises	0.18385342167003083	10.534025110731838	2.3936131937183296	1.6163706540467009	0.4552723171400751	5.121410608768225	-0.29253019106973566	-0.7140449600406622	0.42151476897092655	65.96721270239314
1	1.0	perception	119	diff_vonmises	0.11676520358821951	6.690153359590794	4.925740232649012	1.6940293929520267	0.3829913068702287	5.137760278113261	0.30068528043057174	-0.8433413190671529	1.1440265994977246	54.93942387516253
2	1.0	wm	119	diff_vonmises	0.1798272374218439	10.303341745768675	2.446938618173135	0.8427418620499647	0.16259250020604893	4.50396265594665	-0.34740902461610346	-0.66995002446923	0.32254099985312656	73.19933837199468
3	2.0	ltm	119	diff_vonmises	0.10564675599626118	6.0531132378341885	2.960944325142731	1.1399562160810193	0.5991752950973838	2.3267912785984315	0.12352955184549408	-0.31356981133760603	0.4370993631831001	64.77409042843183
4	2.0	perception	119	diff_vonmises	-0.03548612973149076	-2.03320546486813	8.410927111457639	1.1793519406613584	0.09319166043991	2.268841919519135	0.94749628436647	-0.36682388323174847	1.3143201675982186	46.269908344827456
5	2.0	wm	119	diff_vonmises	0.08085680598946021	4.632753728104187	6.139213034879009	0.4409436758993989	0.07974259360322926	2.0179201947483087	0.07887754208772257	-0.32284325001394487	0.40172079210166745	53.234070746977835
6	3.0	ltm	119	diff_vonmises	0.23399459272134832	13.406902591815872	4.7968783227718275	0.34932627065469113	2.5715399274145565e-16	0.9617858132703159	0.14316912849234495	-0.15305277173055223	0.2962219002228972	62.374753691381216
7	3.0	perception	119	diff_vonmises	0.0431644975396054	2.473143533822215	6.54614628182338	1.374648993749193	9.45480125133703e-18	2.1362599908058133	1.0338323799808926	-0.3399935044653474	1.3738258844462399	53.22068042320589
8	3.0	wm	119	diff_vonmises	0.04620613208245748	2.647416355948843	6.594887581072298	0.45040781188623097	0.15095762128875165	1.5099717300031938	0.1740406714130846	-0.24572226057720425	0.41976293199028886	50.958450260885
9	4.0	ltm	119	diff_vonmises	0.6811758635197142	39.028502085858996	0.6868974878800522	211.5492951699624	0.6775550444212436	213.27594425551428	-0.10756750614658017	-0.3431680081428361	0.23560050199625593	91.83794267378931
10	4.0	perception	119	diff_vonmises	-0.057923217497927115	-3.318755898449544	3.638576831435959	1.858607650489891	2.877087370609665e-15	4.1327052491833545	0.6987442643352446	-0.6568028287213393	1.3555470930565838	71.87423562723939
11	4.0	wm	119	diff_vonmises	0.021474976438354554	1.2304255150606005	0.9909748303861003	187.03899113312212	0.9703706022170636	189.687689787658	-0.1600287947158705	-0.5546929583578404	0.3946641636419699	76.37938815028446
12	5.0	ltm	119	diff_vonmises	-0.011997439484134037	-0.6874026474044919	1.764649987164348	0.9585320506095866	1.4141735892591334e-19	2.1566182414904764	0.11506045374090185	-0.3297959903348008	0.44485644407570263	102.84672264949289
13	5.0	perception	119	diff_vonmises	-0.022124017875561713	-1.267612850141676	2.13283990506943	2.327150062460387	6.268880498218529e-14	3.072901204211296	0.7588812292627327	-0.4715425094304771	1.2304237386932098	94.07349732465298
14	5.0	wm	119	diff_vonmises	0.11074401980138934	6.345164940932826	0.6776785555314457	172.9326163061468	0.659890335790868	174.27076002871945	0.2147968451525415	-0.40048740660243176	0.6152842517549733	104.78247684740026
15	6.0	ltm	119	diff_vonmises	0.5146848145744396	29.48926765458875	0.7737983027973463	180.19234913612772	0.7597174610447124	181.06384911356366	0.22653146020486048	-0.28831658210641464	0.5148480423112751	99.3995390221045
16	6.0	perception	119	diff_vonmises	0.06716188795090464	3.8480927237173725	0.9505583161085999	4.27167443670892	0.16918446704494355	4.87894705519592	0.5065355097084013	-0.4388833612536665	0.9454188709620679	121.82513270116304
17	6.0	wm	119	diff_vonmises	0.18011689116418456	10.319937682724964	0.6463007806780453	287.0060766836895	0.6350663927296121	288.07940756289304	0.3202313191845292	-0.4017589471968286	0.7219902663813578	109.57029395395134
18	7.0	ltm	119	diff_vonmises	0.08571187408649429	4.910928639312851	2.0491986599083765	1.8031497205770113	0.45142673268567657	4.029390947359704	-0.01380397146704071	-0.48903676572415045	0.47523279425710974	74.36328659261451
19	7.0	perception	119	diff_vonmises	0.10471198068140776	5.999554557500074	0.9369063692585322	254.18349252280262	0.9163557903002947	255.9855774023103	0.4062776876333771	-0.5479509154720397	0.9542286031054168	89.5958766092298
20	7.0	wm	119	diff_vonmises	0.3245381218696898	18.594664674235585	1.6236376699533506	2.0158327344636313	0.36750628527612095	4.060339546330922	0.013666017990035195	-0.45009507508416313	0.4637610930741983	84.19724354394552
0	1.0	ltm	120	diff_vonmises	0.10007994881715893	5.734158681108502	0.8678530867512922	292.5664352522445	0.8538167806794111	295.7751837982212	-0.22394591752178883	-0.6450777976812532	0.42113188015946434	80.62844370018516
1	1.0	perception	120	diff_vonmises	0.0875976697911014	5.018976774210738	6.870192542104765	0.8311234183886795	0.025948415246700936	3.6966516878180826	0.24834569838058151	-0.5880681017506936	0.8364138001312751	51.36141072852291
2	1.0	wm	120	diff_vonmises	0.09436404591822806	5.4066615688931705	6.793963721670974	0.3405312550565651	0.009336044461126364	3.306667519510436	-0.18417773162822065	-0.5259864872232046	0.34180875559498397	51.75878910688334
3	2.0	ltm	120	diff_vonmises	-0.014803822829861462	-0.8481965688104768	2.490051745235611	1.376571265238628	0.38433761195982624	3.0720322252800862	0.11713285414607288	-0.4045321131333486	0.5216649672794215	72.68132390586115
4	2.0	perception	120	diff_vonmises	-0.03127382021323261	-1.791857907469153	6.890286963187799	1.2567621803189999	0.0655557962305541	3.048748168769067	0.7727715458199879	-0.4859177595661697	1.2586893053861576	51.11041063892071
5	2.0	wm	120	diff_vonmises	0.053745829911484286	3.0794092203560286	4.7969460624091855	0.530645950063342	0.09996093379303053	2.4074577986138372	0.0276803173105733	-0.3803599479409047	0.408040265251478	59.220517400375485
6	3.0	ltm	120	diff_vonmises	0.17792995101869843	10.194635242340883	3.411728273340064	0.729289640190789	0.16136184047228183	1.760605797249838	0.1864391462437064	-0.26192833444467445	0.44836748068838084	69.36001068853193
7	3.0	perception	120	diff_vonmises	0.06165683162378638	3.532676230191706	5.098053258928079	1.8272712845956625	0.005498843442311665	2.8321159193167493	1.1474705370153366	-0.4487986126430434	1.59626914965838	60.36023488752852
8	3.0	wm	120	diff_vonmises	0.005894742989157539	0.3377438945930582	2.918945563498355	0.6866411423927286	0.10019943897503236	2.026552046437273	0.08708094414494816	-0.30227141165085014	0.3893523557957983	75.40879753151617
9	4.0	ltm	120	diff_vonmises	0.42205157073442434	24.181773739949644	0.22135460726136796	170.20710083544847	0.21187471836343122	172.20681044507512	-0.10772940150650356	-0.4810213244803414	0.37329192297383784	148.57857169063604
10	4.0	perception	120	diff_vonmises	-0.06688608579393533	-3.8322904241424265	3.0946742535058194	2.1768476672869457	0.06930152408469005	4.738158351954691	0.6438890059713165	-0.7137427286391933	1.3576317346105098	75.38636523662481
11	4.0	wm	120	diff_vonmises	0.09376091400039374	5.372104655511634	0.7080764298121621	151.39623498747997	0.689750326588401	153.89968909786472	-0.1787018298599321	-0.4898623278289769	0.31116049796904477	89.54001796767415
12	5.0	ltm	120	diff_vonmises	0.1538611514601161	8.815594609687777	1.7186679386707628	1.4083280457990304	0.1784602103166238	2.838607690995374	0.12685978049920266	-0.3603276542181748	0.48718743471737747	92.39692598605023
13	5.0	perception	120	diff_vonmises	-0.0037508817328744943	-0.21490969274642518	2.265683432584344	2.537779725033637	7.745005522682955e-20	3.691769837744284	0.8234497788061614	-0.5723720360928353	1.3958218148989967	91.3423496762939
14	5.0	wm	120	diff_vonmises	0.020455255120209577	1.171999787251376	0.5810209852195426	185.97389628203763	0.56708448819529	187.42401947587805	0.11315499429482401	-0.394924160811982	0.508079155106806	110.95360570216285
15	6.0	ltm	120	diff_vonmises	0.32898077247600604	18.849209803828742	0.588558522303526	138.60906251581795	0.5752729417189427	139.71890530963566	0.05835904181689244	-0.28565971716201943	0.3440187589789119	109.07351737262016
16	6.0	perception	120	diff_vonmises	-0.1505950942525653	-8.628463316046831	1.2974465665784536	2.2006255539526864	1.7823282471055197e-16	3.1394317633022752	0.3739703851550501	-0.4344329428206553	0.8084033279757055	117.0645737737516
17	6.0	wm	120	diff_vonmises	-0.011465620992473089	-0.6569316923653062	0.57029311460691	199.8694966784842	0.5590397651808696	201.13306767562983	0.09831457173587665	-0.3460450912414821	0.44435966297735874	111.92292815665847
18	7.0	ltm	120	diff_vonmises	0.022712297419606835	1.3013187851893417	1.281519810690891	6.40595735569561	0.7974606169302735	8.322652001807471	0.0014833018525517438	-0.4357901275815873	0.43727342943413905	78.55586537764589
19	7.0	perception	120	diff_vonmises	-0.00057020093985845	-0.032670107328282065	0.9975475924140901	445.6536422611547	0.9841978179430161	447.168107666847	0.61335903675905	-0.5572865949328047	1.1706456316918548	88.61421975089925
20	7.0	wm	120	diff_vonmises	0.15953116002565013	9.140462170295901	4.001073704171634	0.5427739915827335	2.1111634600820845e-16	2.6620589009129705	-0.0063079455158431275	-0.4235401171940941	0.417232171678251	68.45000042677142
0	1.0	ltm	121	diff_vonmises	-0.06654143865328255	-3.8125435975617705	2.531188778106039	1.4081362571950682	0.4366352013176014	3.090958670475379	0.1097070616251562	-0.4045856412589347	0.5142927028840909	71.0048924724436
1	1.0	perception	121	diff_vonmises	0.0007817697255734587	0.04479210582645977	15.038629048898551	0.6368583352139778	0.02453964049770344	2.4570361869164183	0.576118931373603	-0.39529935934725424	0.9714182907208573	34.81547397595267
2	1.0	wm	121	diff_vonmises	0.1114486649706212	6.385538135184094	2.677359910862292	0.563232688184726	4.077161603678195e-07	2.458294322450781	-0.045759809418168484	-0.3896166209813595	0.34385681156319103	84.04711465823058
3	2.0	ltm	121	diff_vonmises	0.02467163847549401	1.4135807583183835	4.403567511250355	0.4702418459997066	0.0015348009842478909	1.2001398346464367	0.18956625485804732	-0.19065887713470608	0.38022513199275343	65.10667330946859
4	2.0	perception	121	diff_vonmises	-0.0590159884177735	-3.3813670601313706	7.912309809791582	0.9920898844371758	0.05689700208667062	1.536875992175058	0.835669872229808	-0.24525691785332357	1.0809267900831316	47.98041371698443
5	2.0	wm	121	diff_vonmises	-0.02702323867254583	-1.5483175247115852	4.865127930273271	0.4753331028070137	0.1186273618319905	1.4371957978163745	0.14950363919805099	-0.2255836055581214	0.3750872447561724	59.34302737079034
6	3.0	ltm	121	diff_vonmises	0.04024120796756417	2.3056513790496482	1.5964677200847788	1.107074981364669	0.3413606483365058	1.5391843603110398	0.16320358322513728	-0.15531277504521795	0.31851635827035524	92.1090743913665
7	3.0	perception	121	diff_vonmises	0.027815962467305586	1.5937372524709141	5.484511045156811	1.4675730396276954	0.11917450596389789	1.794915896094493	1.0157816709682952	-0.2791447105455008	1.294926381513796	57.21051785831526
8	3.0	wm	121	diff_vonmises	0.006860695609757497	0.39308890296303745	2.6634674431068244	1.2730393255173296	0.649386374791577	1.9482001778227702	0.2429314448304737	-0.22775475971277565	0.47068620454324933	69.40875497958947
9	4.0	ltm	121	diff_vonmises	-0.16706382372729808	-9.572052008891722	1.3244696171776338	160.9880386051786	1.3097706110691216	161.87809791924406	0.0734833709781526	-0.23977228748195145	0.31325565846010406	71.73721935100869
10	4.0	perception	121	diff_vonmises	-0.06213644699204041	-3.5601561665822747	2.491815130269014	2.382937799383682	0.16552470862157803	3.389211730470147	0.7694352610143418	-0.45981433176599124	1.229249592780333	81.89168608786952
11	4.0	wm	121	diff_vonmises	0.02331546351720706	1.3358776569272106	1.1179076631278626	233.3219115464419	1.1041483142770308	234.9371545969587	0.016625722798522702	-0.38069450063274957	0.39732022343127227	75.87801562187991
12	5.0	ltm	121	diff_vonmises	0.09338936576175251	5.350816509551971	1.6764249162473197	1.0366487630022203	8.305937105849154e-14	1.756258241018264	0.20088865944333906	-0.2627093602621398	0.46359801970547887	105.22150738692312
13	5.0	perception	121	diff_vonmises	0.028193632449243455	1.6153761484847362	2.2653789067507675	1.912743398607087	2.713479979934332e-16	2.3962105710654504	0.681999818892154	-0.36991243959613024	1.0519122584882843	91.34874696774179
14	5.0	wm	121	diff_vonmises	0.0034788100455035898	0.19932113333506957	0.5832585408120501	175.61494713628522	0.5708794860478176	176.40087721569782	0.20610102443595224	-0.293950031344421	0.5000510557803732	115.03375068543612
15	6.0	ltm	121	diff_vonmises	0.5086545705987341	29.143760125346635	0.8484280507760597	107.68373089081508	0.8339612161884219	108.28517562425937	0.11080113185675344	-0.17572348620323375	0.2865246180599872	93.46776650180246
16	6.0	perception	121	diff_vonmises	-0.058265678254145685	-3.3383774544297267	1.4726839647331569	2.2407407535503205	0.0985662245791491	2.888396064422631	0.45372981840521953	-0.3650710910201024	0.8188009094253219	106.58796568689183
17	6.0	wm	121	diff_vonmises	-0.07798221321938344	-4.468051694559967	0.6142179438717971	145.9528052907537	0.596247490722442	146.83635262638845	0.26264143163734843	-0.33972381688424846	0.6023652485215969	112.80042869743009
18	7.0	ltm	121	diff_vonmises	0.020390729111371603	1.1683027192761364	1.3474359452134999	45.25200130090474	1.2783983245514865	46.24254634551125	0.17676541663287537	-0.29435977964840365	0.471125196281279	73.8604890118061
19	7.0	perception	121	diff_vonmises	0.08419772721044366	4.824174413752232	3.0694360998091215	1.2347671321709368	4.894111060889349e-19	2.231850036747278	0.4640956578773389	-0.353442381156663	0.8175380390340019	78.41222363220729
20	7.0	wm	121	diff_vonmises	0.2139573017764127	12.25885038779536	2.085772073742785	0.8495643040862747	0.04952841077114095	1.9855320601603572	0.11766384319389561	-0.2936203795547766	0.4112842227486722	91.6303118193702
0	1.0	ltm	122	diff_vonmises	0.1205581424645032	6.907472749152943	0.6790731315005102	179.63747178258427	0.6609150691607913	182.79194034143984	-0.25339582598688537	-0.6061841183950314	0.352788292408146	90.24397318904661
1	1.0	perception	122	diff_vonmises	0.046175747952959235	2.6456754735644146	8.020896051335264	0.7986449305859693	3.5475220026319927e-15	3.562846088972956	0.3202111595934082	-0.5670444707456562	0.8872556303390644	47.999051999030996
2	1.0	wm	122	diff_vonmises	0.06453511527653788	3.697589735735865	6.095585630294558	0.36207734103380645	7.939143517210227e-17	3.4581201356760523	-0.20174462776711927	-0.5503751437665363	0.348630515999417	55.184983891516
3	2.0	ltm	122	diff_vonmises	0.052832614304736854	3.0270858203039217	3.1221251696616728	0.7463532391374614	0.08251152064739896	2.7039902398526188	0.03346394223966409	-0.4108054531395624	0.4442693953792265	73.15414616114913
4	2.0	perception	122	diff_vonmises	-0.03264153160659781	-1.8702219979009358	7.226627917845986	1.2540150749565193	0.0876635861835448	3.2697529146487314	0.7529159906478254	-0.525092754701381	1.2780087453492064	49.68508006708191
5	2.0	wm	122	diff_vonmises	0.0398588751142053	2.283745320182991	4.257589328702324	0.5724547676233822	0.06733237884259134	2.7133332441063156	-0.006088522165698607	-0.42491639182692437	0.41882786966122576	63.39447020051608
6	3.0	ltm	122	diff_vonmises	0.20515873602123527	11.754729704255356	3.904303009088308	0.5805930774635858	0.04494089065760134	1.79714990306886	0.14148465698253515	-0.2793427036018813	0.42082736058441644	67.5734010803518
7	3.0	perception	122	diff_vonmises	0.050019291554192324	2.8658943002895843	4.928276843123401	2.0023175684292407	0.07194141792655394	3.152273349513528	1.1845031418360719	-0.48984816987409013	1.674351311710162	60.51362181019769
8	3.0	wm	122	diff_vonmises	-0.09093315617147588	-5.210086066429563	3.9797107033974517	0.5361044820830229	0.018232317715041982	2.115997423933658	0.06809446590652835	-0.33273306401662384	0.4008275299231522	67.65571045746682
9	4.0	ltm	122	diff_vonmises	0.2597389834316338	14.881947525651034	0.24208493816243506	160.9098463228221	0.23141620747928224	163.11523491739672	-0.13525823507876567	-0.5124227912597128	0.37716455618094713	147.07815437028978
10	4.0	perception	122	diff_vonmises	-0.020739919454427935	-1.1883098521799895	2.4350692392159794	2.835591514710656	0.2276739998558307	5.495978940702088	0.5612180675300924	-0.737332096037838	1.2985501635679304	79.2040278930356
11	4.0	wm	122	diff_vonmises	0.17470895612748003	10.010085829240868	0.6059139289738513	166.37979924022522	0.5911208982650474	169.05962201357536	-0.24136416839066754	-0.5038298307923235	0.2624656624016559	94.02234069824883
12	5.0	ltm	122	diff_vonmises	0.22902249883040282	13.122022596521914	1.5034716233570775	1.9380881527434592	0.30292865240291716	3.4337456799252957	0.1174905799020658	-0.3710803233512572	0.488570903253323	91.65583954817478
13	5.0	perception	122	diff_vonmises	0.029557333182354244	1.6935104450108807	2.256406380488926	2.4461518757287157	9.061828234003774e-24	3.8270673591968913	0.7476259124022969	-0.5942157801592924	1.3418416925615895	91.5256283437163
14	5.0	wm	122	diff_vonmises	0.014309495683635572	0.8198737096329869	0.538569164245468	168.98787237319905	0.5228796432967387	170.7223049011729	0.062388671383175165	-0.4440250501479337	0.5064137215311089	113.74403712203964
15	6.0	ltm	122	diff_vonmises	-0.055672097608806675	-3.189776229624985	0.0005046322322858217	2026.0977272708358	5.147694116352632e-26	2027.3155250567372	-0.03107344477166407	-0.3565225724997845	0.3254491277281204	179.88267620935846
16	6.0	perception	122	diff_vonmises	-0.13344105945912255	-7.645609520761994	1.4535615742081993	1.7779571104670124	6.578320540042874e-16	2.97197367727514	0.2825890220699359	-0.4317219220387126	0.7143109441086486	111.86576986296247
17	6.0	wm	122	diff_vonmises	-0.060858730707883925	-3.48694841608497	0.4014657033412339	177.06061955651614	0.3909276106245417	178.6122981689781	-0.009520381412094991	-0.3903930862350542	0.3808727048229592	128.3048837133496
18	7.0	ltm	122	diff_vonmises	0.048211462952102165	2.7623133513067826	1.052985143600359	62.08894894775843	0.9989412322538401	63.97390967565442	-0.010488089826964142	-0.42719462886887705	0.4167065390419129	78.30608451817403
19	7.0	perception	122	diff_vonmises	0.03416038701135023	1.9572460022838838	0.8273835242778877	281.4236876968194	0.8101275273818169	282.8862146916408	0.48031765107324986	-0.5167221134732074	0.9970397645464573	96.96547430853491
20	7.0	wm	122	diff_vonmises	-0.0935008122874194	-5.35720192511408	2.792817239999482	0.5159521377995323	1.546563323498222e-22	2.7747492063047634	-0.11729339183927912	-0.44039826977901186	0.32310487793973275	82.2748191359828
0	1.0	ltm	123	diff_vonmises	-0.04289210452363589	-2.457536563638323	1.0340483215890781	258.5001637827942	1.0162441576935286	261.14443422205454	-0.04308448738146353	-0.5911683584800898	0.5480838710986262	77.74476737334697
1	1.0	perception	123	diff_vonmises	0.030500198411112192	1.747532643268348	11.436084700758842	0.6791892435603726	2.5734125627852593e-17	3.2285165880308933	0.3919289201392925	-0.5138343737336507	0.9057632938729432	40.108510729098555
2	1.0	wm	123	diff_vonmises	0.14584061196184464	8.356051547018847	4.51779290655297	0.44235421251079715	8.73953699015872e-13	3.0926194848442483	-0.1289354974495739	-0.4921624067634028	0.3632269093138289	64.31906300215454
3	2.0	ltm	123	diff_vonmises	-0.04829138010186175	-2.7668922666987217	3.1262155437346117	0.8465014541416266	0.1860392521862741	2.112092417250795	0.16613996304329154	-0.3089410332103875	0.47508099625367906	71.2295110842783
4	2.0	perception	123	diff_vonmises	-0.056761508709222266	-3.252194887833501	6.99060411986352	1.1336995023923655	0.07767110892460331	2.2861811156323366	0.7800943373954852	-0.3646337830880021	1.1447281204834874	50.75510212141302
5	2.0	wm	123	diff_vonmises	-0.018773838858106993	-1.0756617318282355	4.28807772328238	0.5718621135510775	0.13378920590779197	2.0401752678070477	0.08708787513108412	-0.3179977132291562	0.40508558836024033	62.09050697091641
6	3.0	ltm	123	diff_vonmises	0.04825628065113416	2.7648812163088032	1.7626812980614643	1.2816164616625179	0.3479937783180372	2.055930286545166	0.1626764262706933	-0.22443235612203533	0.3871087823927286	86.86118523489057
7	3.0	perception	123	diff_vonmises	0.04971176943371101	2.848274580679091	4.9105224987496765	1.738699353155424	0.10285967248950251	2.331372848892077	1.0830470988331264	-0.3596132707163906	1.442660369549517	60.43877996780796
8	3.0	wm	123	diff_vonmises	-0.004082918654041837	-0.23393400697183192	2.488691135712092	1.0560892051612696	0.3249541194461434	2.0515524154293363	0.18056194712487167	-0.2677124363464824	0.44827438347135407	75.75164595152808
9	4.0	ltm	123	diff_vonmises	-0.10030983677405189	-5.747330290799354	0.6599548940210708	106.58060078295755	0.6424692648126027	107.95975761501049	-0.02312056812736074	-0.3003047648287698	0.27718419670140904	98.63724039279907
10	4.0	perception	123	diff_vonmises	-0.05972643595509384	-3.422072705585289	2.282171253559511	2.9664521649594238	0.2558905636877663	4.566221335472594	0.7329449178616806	-0.5777283379862171	1.3106732558478977	82.13797369201404
11	4.0	wm	123	diff_vonmises	0.07135044709668618	4.088079485011576	0.8915681910803879	298.3583622186572	0.8812840483578446	300.3397357785842	-0.047614761881462186	-0.4269089702940434	0.3792942084125812	83.32653088939418
12	5.0	ltm	123	diff_vonmises	0.13838252938101356	7.928734891877189	1.9407372920299653	1.018128508400318	0.02818797598527224	2.175401048112128	0.15970866130403483	-0.3259005956625681	0.48560925696660295	96.49721207114152
13	5.0	perception	123	diff_vonmises	0.02574931376184499	1.475327003911847	2.186858209543209	2.317145940931894	1.3109685973165906e-13	3.190989883169408	0.7534342320177402	-0.4919616533436805	1.2453958853614207	92.9386204520498
14	5.0	wm	123	diff_vonmises	-0.004137235981847851	-0.23704616060954511	0.5552117993553048	221.26233697043247	0.5441564274341526	222.46139100938854	0.1546078305824281	-0.3668862701937847	0.5214941007762128	115.22107078572216
15	6.0	ltm	123	diff_vonmises	0.4988423850438244	28.581563305251077	0.8108675456890424	130.46960388142705	0.7966739413679769	131.44334459315502	0.05856634251543369	-0.2382525936494826	0.2968189361649163	92.22863959627657
16	6.0	perception	123	diff_vonmises	-0.12524755811424076	-7.176156474265504	1.3902196896526677	2.1717918333498267	9.686059260913678e-15	3.0638508059828147	0.4109092647375483	-0.4319069070274537	0.842816171765002	113.93227788773747
17	6.0	wm	123	diff_vonmises	-0.10708289642395351	-6.1353980231290715	0.5584366099859422	168.0355085115168	0.5436511434999616	169.22947145365603	0.1633196032558999	-0.3703196201295338	0.5336392233854337	115.27878540750058
18	7.0	ltm	123	diff_vonmises	0.004593811290295073	0.26320599881345474	1.7389929060675453	3.6449768270779783	0.9063812727132615	5.012091420540065	0.10370340810485312	-0.35751103735902184	0.46121444546387497	72.1172923313679
19	7.0	perception	123	diff_vonmises	0.04681624508021433	2.682373255746385	2.0601993542697548	2.4851115985339804	0.31634267877101724	3.6217867200669702	0.533660758121265	-0.4225618474625495	0.9562226055838146	84.25907400595398
20	7.0	wm	123	diff_vonmises	0.11809483997535729	6.766335912860812	2.2797994128347128	0.7403008715043374	1.3951243690518482e-09	2.316017632515593	0.04452863123316719	-0.3642815204612628	0.40881015169442997	91.04928005173983
0	1.0	ltm	124	diff_vonmises	0.08575597392134819	4.913455373727204	1.0874768865297773	224.24378927511998	1.0715615563949679	226.1915820011267	-0.022075178126158335	-0.44389507550489427	0.42181989737873593	75.95906906292038
1	1.0	perception	124	diff_vonmises	0.11308678508866955	6.479395504283737	6.740222489438774	0.7430016998889099	0.04418573814936828	2.6777532664267167	0.3087629138450218	-0.42637541523508066	0.7351383290801025	51.67855569310791
2	1.0	wm	124	diff_vonmises	0.12169687019910108	6.9727170423598945	6.58211158154757	0.2965973984141684	1.9671927760977897e-19	2.093194463486733	-0.03580499930455128	-0.3331416754202919	0.2973366761157406	53.06612971446981
3	2.0	ltm	124	diff_vonmises	-0.0434996439355646	-2.492346007829698	1.845992789409815	4.25136288945087	1.1140827890282636	5.1081551633545805	0.23402510713345848	-0.2845866508616067	0.5186117579950652	70.91469278396517
4	2.0	perception	124	diff_vonmises	-0.02557274346220957	-1.4652102709553771	7.065002175739892	1.1099226483954006	1.9789186562514565e-19	2.021760627122312	0.8325389069831557	-0.3217723543317673	1.154311261314923	51.19499898659086
5	2.0	wm	124	diff_vonmises	0.05937262968840699	3.4018010997388526	5.773734305447789	0.42565130618337316	0.17726047682504212	1.5247722945242845	0.11081272863626318	-0.24697737743039122	0.3577901060666544	53.66166927619574
6	3.0	ltm	124	diff_vonmises	0.1779731297320165	10.197109200378813	2.2899038047746654	1.4110448268325055	0.7259707920479336	1.868236822239793	0.2486593653302036	-0.18182399211553374	0.43048335744573735	73.3217409811202
7	3.0	perception	124	diff_vonmises	0.05231706973364315	2.9975472922293704	5.450024147791061	1.526186592181354	8.864313309661277e-17	2.0417759485000206	1.0604444474562553	-0.32493316402853717	1.3853776114847924	58.42636140139908
8	3.0	wm	124	diff_vonmises	0.056785224519037766	3.253553703643664	2.9817035772353235	0.7337474756401462	0.298172915997334	1.4766483734413873	0.16915025764823827	-0.20563352426390707	0.37478378191214534	71.09099418608074
9	4.0	ltm	124	diff_vonmises	0.5387903155973247	30.870411126248356	0.4100482090053955	116.8926535353167	0.3989780732501379	118.01435262157305	-0.018145718436024083	-0.27329915652066106	0.255153438084637	125.12025454148431
10	4.0	perception	124	diff_vonmises	-0.11544890694248384	-6.614735117202914	3.398554023969842	1.955186262026023	3.5507222887032285e-17	3.6525743460608	0.7925112301159041	-0.5797904499092951	1.372301680025199	74.43463602097796
11	4.0	wm	124	diff_vonmises	-0.06650689430216938	-3.810564352036968	1.1180267508999724	179.31010989407574	1.1001066878003958	181.04022908711053	-0.022872963861587436	-0.3964428584548827	0.37356989459329526	74.80901111930368
12	5.0	ltm	124	diff_vonmises	0.06080477133560483	3.4838567717882025	1.9937925542079857	0.9401768977777007	2.1013052264631768e-14	1.7633176280701885	0.20343780447135162	-0.27166247373194524	0.47510027820329687	97.15919057807747
13	5.0	perception	124	diff_vonmises	-0.040253274355466134	-2.3063427321503984	2.5287158818426176	2.135488109071935	2.46299641191031e-16	2.5251449422841397	0.8651047177746145	-0.39382825634161456	1.2589329741162292	86.49881940267954
14	5.0	wm	124	diff_vonmises	0.011790824577037569	0.6755644852433766	0.6445911221838766	160.53076263645565	0.6322785594284376	161.22052049404533	0.18794992568582813	-0.24940844643290028	0.4373583721187284	109.41506502721221
15	6.0	ltm	124	diff_vonmises	0.3734730159464912	21.39842757575604	0.7562386900649263	128.8147203505876	0.7437933640555965	129.34937647096052	0.14942077795888764	-0.18280032586084793	0.3322211038197356	100.81305441711817
16	6.0	perception	124	diff_vonmises	-0.17199825608409935	-9.854774157229226	1.4300012302820644	2.1227136667910638	5.060303246687289e-21	2.424176826605463	0.5074553095046737	-0.3346626269784033	0.842117936483077	112.57619076797693
17	6.0	wm	124	diff_vonmises	-0.02369819084381389	-1.357806317446107	0.8023084880559707	124.6306046648304	0.7835854014633991	125.2471669234364	0.26032727324416527	-0.24500880046020868	0.505336073704374	99.49412375071466
18	7.0	ltm	124	diff_vonmises	-0.0016473502107177335	-0.09438621445411297	1.0297009895561462	38.20723515704466	0.9519140385474212	39.52812142281306	0.12329532369193963	-0.33879645407538916	0.4620917777673288	83.68599080700139
19	7.0	perception	124	diff_vonmises	-0.03832840797273018	-2.196056012293015	1.1776051663688596	388.47284317974527	1.1608660266922135	389.71305885861995	0.7452973691228806	-0.5348166481602661	1.2801140172831467	82.57125294785621
20	7.0	wm	124	diff_vonmises	0.3163203929846095	18.12382349193774	6.65710873365259	0.5721364344527171	6.73226587057626e-14	1.8874114631087429	0.27657158499205386	-0.30038991149131733	0.5769614964833711	52.76115075948971
0	1.0	ltm	125	diff_vonmises	0.188760299174385	10.815168482319018	1.444272894782492	1.533272755529737	0.45640933196917827	3.2096003413655803	-0.11677006589417693	-0.3320874537685973	0.21531738787442034	79.55175072532899
1	1.0	perception	125	diff_vonmises	0.09878496748353668	5.659961716143725	7.326931312574138	0.8757912418608026	0.15281980309954096	2.5894355173951156	0.45096225468082163	-0.424376414065644	0.8753386687464657	48.67054958786443
2	1.0	wm	125	diff_vonmises	0.03071113502373518	1.7596184209164312	5.951404769724439	0.2566819413170647	0.0343915434658858	2.126329338530758	-0.1060855298539741	-0.33856563562009784	0.23248010576612374	54.36516542194488
3	2.0	ltm	125	diff_vonmises	0.11971016945310536	6.8588874744588475	3.188524220361552	0.8371467525668095	0.5432366682435672	1.7233962107820924	0.12837591203583648	-0.24033845400988013	0.3687143660457166	64.29334473020515
4	2.0	perception	125	diff_vonmises	-0.004563669952536543	-0.26147902737101264	8.716111454587903	1.0949453096113015	0.07906740340455821	1.9816075676682054	0.9291493012009473	-0.31960480759259585	1.2487541087935432	45.56474494185224
5	2.0	wm	125	diff_vonmises	0.12240323194149655	7.013188589008662	7.148709965073276	0.3182650938812812	0.08980986705760176	1.5195316787038	0.06907485318471784	-0.2458643737431349	0.31493922692785276	49.33938651526873
6	3.0	ltm	125	diff_vonmises	0.2665194795445845	15.270441335927968	3.8696009034748524	0.5716225766442379	0.5093673959783308	0.9644684088035032	0.19192075566974973	-0.13998444942477273	0.3319052050945225	61.87633439797139
7	3.0	perception	125	diff_vonmises	0.0317202914541999	1.8174388252505467	6.833922106713288	1.3693097438755482	0.023320441287293357	1.9062879738914529	1.0893566572908249	-0.30193008831373885	1.3912867456045637	51.86720132502691
8	3.0	wm	125	diff_vonmises	0.03926281927317747	2.2495938361379757	6.574307524643343	0.3735917138143894	0.3079350231086117	1.1898428393483116	0.12261187729645828	-0.20238316398690046	0.32499504128335877	49.47175724451134
9	4.0	ltm	125	diff_vonmises	0.38055569874160855	21.804235407546184	0.9018692066680244	142.24711907247018	0.8892618309180096	143.45436323628087	-0.0455061235123182	-0.2554662317438492	0.209960108231531	81.89852288536679
10	4.0	perception	125	diff_vonmises	-0.06928069538019993	-3.9694914470169564	3.990855831210768	1.594314263315164	7.668107133357025e-17	3.3400685798229146	0.6926802978778747	-0.5311701478119976	1.2238504456898722	68.54085394038648
11	4.0	wm	125	diff_vonmises	-0.10472058064485702	-6.000047299109684	1.1453611539506379	163.96422945447887	1.1277831984165032	165.77563409644017	-0.12534191027320674	-0.3939311862654655	0.2685892759922588	70.28649070513964
12	5.0	ltm	125	diff_vonmises	0.08593045457770566	4.92345237894316	1.7256456352968288	1.0616890234081242	0.12409784791900412	1.9054593733334686	0.1587564890404387	-0.25131594844692756	0.41007243748736627	96.3289157842911
13	5.0	perception	125	diff_vonmises	-0.020349800767728563	-1.1659576979229291	3.232042772834636	1.6697608933465569	3.0968518207629195e-18	2.260526783822951	0.7809814722815838	-0.35799619216534084	1.1389776644469247	76.37193002591098
14	5.0	wm	125	diff_vonmises	0.048946799432493936	2.8044450281552353	0.5992572801757113	145.23063589530878	0.5855818947582538	146.16626546456334	0.12971087995875052	-0.28239708467213376	0.4121079646308843	111.07191921327191
15	6.0	ltm	125	diff_vonmises	0.23623476096655693	13.535254777665552	0.6547401089425767	128.43607514799845	0.6415154927876187	129.06949600323492	0.1495681121405994	-0.215771870821845	0.3653399829624444	108.01209633648679
16	6.0	perception	125	diff_vonmises	-0.10091862072175095	-5.782211041637823	1.6575737199271459	1.6134966410000904	9.994759203810026e-17	2.230602563944489	0.38760260984056794	-0.32803258156997334	0.7156351914105412	105.75519384405818
17	6.0	wm	125	diff_vonmises	0.03980859955349981	2.2808647427419126	0.6594179926615112	171.3530505228933	0.6457385749930749	172.19703470845286	0.21413192928667968	-0.29412536059488126	0.5082572898815609	107.90957684889554
18	7.0	ltm	125	diff_vonmises	0.12594657647946156	7.2162072763947895	0.7934384060879589	176.00710291082453	0.7784123434760823	177.4185340960571	0.08230291595130979	-0.3449707169776346	0.4272736329289444	93.24966611487898
19	7.0	perception	125	diff_vonmises	-0.021987548833877466	-1.2597937500189738	1.475405880798231	5.008445594365124	0.5401597493663419	6.513741870184485	0.49156901606850534	-0.5057077143441111	0.9972767304126164	88.42499710513019
20	7.0	wm	125	diff_vonmises	0.32794584408760663	18.78991277507518	6.347406777632968	0.4418915734439857	1.4293784382492887e-20	1.8631062963695817	0.13811225947086436	-0.2965212434378887	0.4346335029087531	54.05669901229973
0	1.0	ltm	126	diff_vonmises	-0.08411478219061723	-4.819422014184548	0.9965650378320149	129.12969704431808	0.9767774713022709	130.32325890214057	0.08130139554636884	-0.29605557042825126	0.3773569659746201	83.06860886230984
1	1.0	perception	126	diff_vonmises	0.01186256205992079	0.6796747402454772	13.096813308608409	0.5885822260417151	1.7922155320443494e-20	1.8706819096232443	0.5434605009407483	-0.29772827286558295	0.8411887738063313	37.45708685099649
2	1.0	wm	126	diff_vonmises	0.08453940101223914	4.8437508805653025	4.227278617397072	0.3698631843061873	4.820356652208876e-16	1.7074835855615391	0.02129287418738357	-0.2716920529947043	0.29298492718208785	66.54600428988837
3	2.0	ltm	126	diff_vonmises	-0.018489915824865526	-1.059394140316947	3.619734952087204	0.4871145854525097	2.455141315534265e-12	1.1723671141332155	0.16792700892906595	-0.1863335877042686	0.35426059663333453	72.06121808260872
4	2.0	perception	126	diff_vonmises	-0.03443252311738755	-1.972838252612947	7.943697796619053	0.9769110412658756	0.040131625447405596	1.6701563077313588	0.8034534951225611	-0.266051991354033	1.069505486476594	47.944592734882065
5	2.0	wm	126	diff_vonmises	0.01269479933584814	0.7273584237095789	5.73838255076273	0.34635482418316005	0.07450730928717304	1.231095943247664	0.11226841345852567	-0.19540392565106518	0.30767233910959085	55.38667703169301
6	3.0	ltm	126	diff_vonmises	0.120126002864288	6.882712973900141	1.231394030958877	113.81355139438126	1.21511436101316	114.18674128036051	0.19852449675751416	-0.1521219393092217	0.35064643606673584	80.27549994025128
7	3.0	perception	126	diff_vonmises	0.024921411388018566	1.4278916920427307	5.004710976773056	1.734051125640501	0.28578513202606204	2.081595628471739	1.0721827794564178	-0.31758398141713323	1.389766760873551	58.556319895197504
8	3.0	wm	126	diff_vonmises	-0.001633279123732561	-0.09358000055670111	2.439112556888395	1.1748633790742098	0.6745621776034719	1.8302815245894164	0.1704875728669476	-0.20300712089197623	0.37349469375892386	70.55831220750173
9	4.0	ltm	126	diff_vonmises	-0.12045875108088203	-6.901778042351483	1.2587169398821871	177.36212192054438	1.246030431941857	178.22580206524452	0.0775069056247446	-0.2305866256257012	0.3080935312504458	73.85499271455805
10	4.0	perception	126	diff_vonmises	-0.06489428062547908	-3.7181683943775394	2.2606154530054274	2.8005800107877716	0.3363686300776186	3.872264373072305	0.7162178182571063	-0.4594138844979637	1.17563170275507	81.24528444793188
11	4.0	wm	126	diff_vonmises	-0.028910911847468197	-1.6564732307346974	1.0880866554844666	160.26844958614765	1.071981606082621	161.69939913992943	-0.024026830466929994	-0.3240399488142316	0.3000131183473016	75.6487323207999
12	5.0	ltm	126	diff_vonmises	0.18080419593663544	10.359317345425598	1.5106561501210725	1.6434854643584442	0.33506811437558004	2.2719622198474405	0.2232974206361938	-0.22384881765033593	0.4471462382865297	94.17020297042191
13	5.0	perception	126	diff_vonmises	0.02473263632078555	1.4170756774129805	2.8265090490518547	1.6832837409502874	6.189051774326046e-18	2.255826752927682	0.7063833991362781	-0.3552891170505162	1.0616725161867944	81.77989974458805
14	5.0	wm	126	diff_vonmises	-0.07733506066860116	-4.430972584699017	0.5095824663254306	153.80563468797655	0.49855840887926184	154.5637920817559	0.13022985221888916	-0.25948769255180615	0.3897175447706953	121.05070263046782
15	6.0	ltm	126	diff_vonmises	0.14764043225216253	8.459173653536073	0.5743402844909642	77.44737075597666	0.5597735794745151	78.07539128707177	0.050765156637378794	-0.17278004463108942	0.22354520126846822	111.79197796712077
16	6.0	perception	126	diff_vonmises	-0.16530278286409303	-9.471151799879998	1.909179300535907	1.4364812787747305	2.2453468955856127e-13	2.2051417881679067	0.3694890959170973	-0.33513337385076314	0.7046224697678605	99.13091635114246
17	6.0	wm	126	diff_vonmises	-0.19355055494020887	-11.089629920488933	0.6111342643776886	105.51257346831798	0.5905147076826572	106.42740645942317	0.1705139675231031	-0.297990323158535	0.4685042906816381	111.39017833715319
18	7.0	ltm	126	diff_vonmises	0.03285081345008456	1.882212964261444	1.1323600718523361	115.89668019655551	1.1101187024849841	116.7171657415374	0.18397691964410967	-0.24857655261462064	0.4325534722587303	81.06481320906357
19	7.0	perception	126	diff_vonmises	0.0059757445602030244	0.3423849427478936	2.9619832567093147	1.3929500677468505	1.9010256839341835e-15	2.3769347585487246	0.5273590186710126	-0.37587840876796963	0.9032374274389823	79.85540898231258
20	7.0	wm	126	diff_vonmises	0.24609456947607694	14.100180192068224	4.892496101181497	0.4702668204235062	2.5081573321022486e-20	1.4955278516241322	0.16505973255629333	-0.23799796035043222	0.40305769290672555	61.74082190828565
0	1.0	ltm	127	diff_vonmises	-0.02478660916141309	-1.4201680933892706	1.4413381070633045	3.448275155740696	0.5900407428093248	5.86269269907403	-0.08782955786811031	-0.5119496672223791	0.4241201093542688	78.50266650041394
1	1.0	perception	127	diff_vonmises	0.0415425260868358	2.3802114150878144	12.572547728028482	0.6671161121139431	0.010779098722516553	3.0841725713985935	0.43751119280308953	-0.4924786640858557	0.9299898568889453	38.148378253607945
2	1.0	wm	127	diff_vonmises	0.1118808928692965	6.410302969565997	4.034961908126874	0.42917556943088353	0.02414100156978773	3.034982475511262	-0.16325186764338045	-0.47803154288056027	0.3147796752371798	66.22304249680715
3	2.0	ltm	127	diff_vonmises	0.008076589059143383	0.4627544659504523	3.2783208546992073	0.6767458693763223	0.13312236312584272	1.8468017879960081	0.1317151998179612	-0.2761382569271482	0.4078534567451094	70.86878487372908
4	2.0	perception	127	diff_vonmises	-0.04222080952116897	-2.419074193188744	7.5627646173008145	1.1056647273995692	0.12072433218592489	2.222393403930586	0.7937359291696131	-0.3594337088305212	1.1531696380001344	48.55228455857997
5	2.0	wm	127	diff_vonmises	0.033294330762652	1.9076246344125432	5.171940842804604	0.44339857836915103	0.08165380062168731	1.9147295818325014	0.06135156994499458	-0.303155217178751	0.36450678712374557	57.73310804734004
6	3.0	ltm	127	diff_vonmises	0.12337834775121725	7.06905860944214	2.1102877694547386	0.9695271755407512	0.3281910868409171	1.6815329974567654	0.15483916375677448	-0.20309269004664635	0.35793185380342085	81.41982491175605
7	3.0	perception	127	diff_vonmises	0.03790817188602728	2.171978258125845	5.259144813601341	1.6702195725965008	0.1373052468743353	2.3267423229546345	1.0649114629649776	-0.3610539706901341	1.4259654336551117	58.11380629764608
8	3.0	wm	127	diff_vonmises	0.02358004637239227	1.3510371378608441	3.0515000685194478	0.8020947343083997	0.3210753181478908	1.878113207391466	0.1287620072298047	-0.266919456138746	0.3956814633685507	68.90640750514098
9	4.0	ltm	127	diff_vonmises	-0.030701768944263998	-1.7590817840921482	0.8767241340288419	154.29801509598917	0.8624949361701869	155.73131831740724	-0.033629529581880035	-0.30836131022565993	0.2747317806437799	84.20405697838927
10	4.0	perception	127	diff_vonmises	-0.05287402410121122	-3.0294584268723987	2.6208822000877747	2.3739439232692634	0.17482215123702702	3.956751861982208	0.6939784931548636	-0.5461411630321649	1.2401196561870285	79.13096273290617
11	4.0	wm	127	diff_vonmises	0.043633472303477194	2.5000138084902135	0.903774601296523	219.23340213060237	0.8901377539461438	221.27746487763855	-0.08637257744621252	-0.4299117855644887	0.3435392081182762	81.48432033836397
12	5.0	ltm	127	diff_vonmises	0.09608802983246474	5.505438571127376	1.963300265670348	0.9909859939848819	0.023886351157178035	2.162477354619223	0.1530643927464997	-0.3260325969031037	0.4790969896496034	96.24566854252902
13	5.0	perception	127	diff_vonmises	0.021665763585222517	1.2413568133614774	2.375269990201013	2.0557047939302633	2.087679788991959e-20	3.0232378505957955	0.6943379847673192	-0.4709982314128712	1.1653362161801906	89.23821167508044
14	5.0	wm	127	diff_vonmises	-0.018548070596429003	-1.0627261632860816	0.5402725418276633	219.59794276677405	0.5295006825963295	220.92041804313266	0.11074292623553106	-0.3743432526795303	0.48508617891506134	115.40254527224029
15	6.0	ltm	127	diff_vonmises	0.34065548286857344	19.518121436360378	0.6290952169724233	122.04176725733927	0.6147763095458059	123.10863285498507	0.04509729491699943	-0.26389481004545523	0.30899210496245466	104.7945831865419
16	6.0	perception	127	diff_vonmises	-0.09292284273796955	-5.3240867092435264	1.4917035763726627	1.9455331438916132	5.754627692721184e-18	3.043445719163454	0.35548782955435415	-0.44186326215953603	0.7973510917138902	110.69183348155325
17	6.0	wm	127	diff_vonmises	-0.06393102469721955	-3.662977895097312	0.5563395715000569	182.5850206902733	0.5420325432632737	183.91512763089233	0.15294378863362112	-0.3964975826246171	0.5494413712582382	114.87404966045683
18	7.0	ltm	127	diff_vonmises	0.034149638097906374	1.9566301349091997	1.1166124440468135	157.99712487850178	1.0952767559184724	159.51537879228476	0.0846331686337436	-0.37747566100567553	0.4621088296394191	77.82060505766097
19	7.0	perception	127	diff_vonmises	0.051997097946382735	2.9792142592560906	2.5733690637231175	1.6339056733757344	0.07082879631994744	3.0140534800569054	0.4651615969982328	-0.4435951551433812	0.908756752141614	82.64675696733013
20	7.0	wm	127	diff_vonmises	0.2436759738995095	13.9616048731819	2.767071462768731	0.8026872274867418	0.13407615472702497	2.4978993292290377	0.04933838463171236	-0.3671725904844429	0.41651097511615526	75.53424548631435
0	1.0	ltm	128	diff_vonmises	-0.030799910283937113	-1.7647048686511777	1.165535151696014	329.87778502245163	1.1528803504953795	331.9051446664913	0.024686282107737156	-0.4847730454221093	0.5094593275298465	74.29958339841829
1	1.0	perception	128	diff_vonmises	0.0586889559735398	3.362629481312932	7.036956606685268	0.7783140735081916	3.450568886521632e-18	2.568395164839984	0.3990669486546381	-0.40877216223985463	0.8078391108944927	51.29549961008121
2	1.0	wm	128	diff_vonmises	0.11111389112290253	6.3663570066184585	6.4740689006818215	0.33707242236418056	3.9069418649672244e-19	2.1111347843349413	-0.0010418896716201664	-0.3359967388375324	0.3349548491659122	53.519228284663654
3	2.0	ltm	128	diff_vonmises	-0.0736106302312925	-4.217578439551167	3.13624781137335	1.0211496149643318	0.3907172903305038	2.0878135845168506	0.21297055382351576	-0.2919353892294474	0.5049059430529632	67.69214548654418
4	2.0	perception	128	diff_vonmises	-0.03880663493533029	-2.223456398899362	6.819374681657199	1.1658625149107043	5.154515016459258e-20	2.149256943261618	0.8484703011174322	-0.3420634456268142	1.1905337467442463	52.119096102014
5	2.0	wm	128	diff_vonmises	-0.011859237820347085	-0.6794842753478136	4.748253040153866	0.5176079088728187	0.17490774300171408	1.6503668162398846	0.1260954202946054	-0.26016662634279364	0.38626204663739905	58.87516161658627
6	3.0	ltm	128	diff_vonmises	0.13470935076014445	7.718277259503705	2.9029163544973082	0.806156726590099	0.41871047492126573	1.3044526323136487	0.21596881195292567	-0.17037386013940536	0.38634267209233103	70.93030621908608
7	3.0	perception	128	diff_vonmises	0.06940126637346145	3.9763996560625414	5.191374257930913	1.6417297719613337	0.007137975884525266	1.9114063820365654	1.1459634257357556	-0.3025515391479765	1.448514964883732	59.7978459570559
8	3.0	wm	128	diff_vonmises	-0.0620601334833719	-3.555783724615734	2.9237843428000065	0.7271712141639527	0.22852477539064947	1.3081007140924763	0.21101684741218274	-0.18232911758961548	0.3933459650017982	73.86529868234322
9	4.0	ltm	128	diff_vonmises	0.3461484826495515	19.832847140676705	0.001077762533727742	745.2940968720953	9.765292078051729e-19	746.2528199115633	-0.024710405498680643	-0.2803917260236659	0.25568132052498527	176.19580775870452
10	4.0	perception	128	diff_vonmises	-0.08837179244954464	-5.063330735364983	2.8368786288913386	2.387120012193172	0.1360862632727629	3.956250001492965	0.7960710486345138	-0.5650125464438239	1.3610835950783378	77.37638504569412
11	4.0	wm	128	diff_vonmises	-0.003399130371033617	-0.19475582427496382	1.028315685819281	152.70994312547546	1.011785932684772	154.16648312410328	-0.024303889053854277	-0.3250951520502099	0.3007912629963556	77.91757927890214
12	5.0	ltm	128	diff_vonmises	0.26609979738906336	15.246395319679653	0.851614814285287	75.1986681791001	0.8214177176034502	75.99364479967628	0.18878886392416305	-0.2495633949103535	0.43835225883451656	94.68802016277081
13	5.0	perception	128	diff_vonmises	0.009016232058750443	0.5165920440769497	2.532862134831692	2.2656322139175415	4.5133300823481844e-17	2.6556821674159865	0.9227634099987336	-0.4141746492054981	1.3369380592042317	86.43251300761861
14	5.0	wm	128	diff_vonmises	0.036176282196953784	2.0727482883597093	0.590055094585105	158.85833182626916	0.577547699471439	159.53850674990775	0.197706030552105	-0.2637061268160288	0.4614121573681338	114.75500590674365
15	6.0	ltm	128	diff_vonmises	0.4697977752586872	26.917429746958344	0.9684499197728312	96.14640035150138	0.9534726662754681	96.69437128915713	0.09084089093482817	-0.15424941813862603	0.2450903090734542	86.82684645871424
16	6.0	perception	128	diff_vonmises	-0.23046195490944543	-13.204497354645506	1.388998307417543	2.0372984721078087	1.3335947753676245e-18	2.335512745483252	0.47073696074281857	-0.31933860887406723	0.7900755696168857	113.82085405479312
17	6.0	wm	128	diff_vonmises	-0.17326135533586198	-9.927144413461358	0.6441329650428006	99.93666567895116	0.6253619490341125	100.58354137041414	0.1812458273364932	-0.23711963576879036	0.41836546310528355	109.84901390991683
18	7.0	ltm	128	diff_vonmises	0.010811715505970725	0.619465667788272	1.5535932421847896	4.423623579132353	1.0277341562437796	5.2665336458156515	0.13009306025543932	-0.24110487169151162	0.37119793194695094	74.38228020206654
19	7.0	perception	128	diff_vonmises	-0.03534462609970659	-2.0250979039811234	1.1717571703511562	222.04572737082862	1.1479981940723853	222.7218943951379	0.7302816156525438	-0.40465945317884433	1.1349410688313881	84.50371446070301
20	7.0	wm	128	diff_vonmises	-0.2570263436123572	-14.726524712667354	0.00047804336880260905	2308.247275849426	3.4761992769240665e-33	2309.2595088263743	0.0145353987497856	-0.33669718776684476	0.35123258651663036	178.09185449760264
0	1.0	ltm	129	diff_vonmises	0.018345007809407378	1.0510915226135784	0.7094270883579094	126.37825088804719	0.686526789454898	128.4907881491249	-0.04414666527519984	-0.4536313952353357	0.40948472996013585	94.73950904874243
1	1.0	perception	129	diff_vonmises	-0.0179611568218272	-1.0290984810633057	8.69544592610905	0.7695196786730821	1.3377723139188993e-18	2.664252319794942	0.4674676382228148	-0.4240289013732236	0.8914965395960384	46.06471873766
2	1.0	wm	129	diff_vonmises	0.07857425088408279	4.5019729540600215	3.9101873337570945	0.4900112795771664	4.639915194598923e-21	2.582733559824429	-0.039009499941259906	-0.41090540311001406	0.37189590316875415	69.26952458647199
3	2.0	ltm	129	diff_vonmises	0.05890296486111733	3.3748912873494143	2.839091235100982	0.6188846713592634	6.478860771402937e-22	2.2049971221497713	0.041785857942182814	-0.34959300981730057	0.3913788677594834	81.59324641875281
4	2.0	perception	129	diff_vonmises	-0.04939613306728114	-2.830189949021815	7.398501488183889	1.109400618433207	1.5696537944775626e-19	2.57396116395391	0.772379362953383	-0.4096581995706531	1.182037562524036	50.002317695346335
5	2.0	wm	129	diff_vonmises	-0.06766750589173022	-3.8770624977727737	3.579819341302689	0.6425075113174128	0.0706338845822326	2.2168202805183768	0.08657389590662584	-0.3411240220749688	0.4276979179815946	69.3307085605075
6	3.0	ltm	129	diff_vonmises	0.16569743862862163	9.493763909547996	3.310608506298478	0.5553057825282981	0.01584810260292177	1.4944834087449337	0.14285144417965343	-0.23385844323159174	0.37670988741124517	74.60900262000624
7	3.0	perception	129	diff_vonmises	0.03629650590122495	2.079636599211876	4.6659618213450145	2.035840963909332	0.12363034791065827	2.7588219338910744	1.206292054725908	-0.42208983767099695	1.628381892396905	61.737974133534635
8	3.0	wm	129	diff_vonmises	-0.18329180452268728	-10.501846818486875	3.694444119028503	0.6763440129680081	0.012442600392280165	1.7757210846932356	0.21161104708349077	-0.27922096349174363	0.4908320105752344	70.75222774717884
9	4.0	ltm	129	diff_vonmises	-0.0813609964042799	-4.661641710944306	0.5261383633542408	115.49426422695477	0.5091731778456986	116.9475713461201	0.006096726960112875	-0.34812983926775765	0.3542265662278705	113.31474514835419
10	4.0	perception	129	diff_vonmises	-0.016381206307905186	-0.9385739847760489	1.648730551367117	5.43871396969354	0.5189139672544949	7.422783211849198	0.6373025759696971	-0.6537612157899533	1.2910637917596504	85.482164746586
11	4.0	wm	129	diff_vonmises	0.12597461907844731	7.217813998963251	0.8101000149540467	170.4375254657918	0.795230624896456	172.47653604272102	-0.13331631562012092	-0.4079790182539469	0.274662702633826	84.04493131336486
12	5.0	ltm	129	diff_vonmises	0.33043311591250385	18.932422953143593	1.4727002370854376	2.118327192693113	0.41117191235606976	3.0598128318627906	0.20285150487454462	-0.2809000710850544	0.483751575959599	91.03465914518347
13	5.0	perception	129	diff_vonmises	0.050908252051191275	2.916827984921476	2.2503405640446243	2.2453372274066465	8.635213712640633e-15	3.0620726868886456	0.7560388362766473	-0.47354060813811866	1.2295794444147659	91.64200605769764
14	5.0	wm	129	diff_vonmises	0.007912213793900976	0.4533364569957189	0.5436548227008698	109.58863274393919	0.5233651023134692	110.71187443683205	0.13552909194947205	-0.34245209127292675	0.4779811832223988	116.73467461055193
15	6.0	ltm	129	diff_vonmises	-0.06792545083695092	-3.891841654480653	0.0003780443117282816	1879.079828715661	6.553853530604064e-26	1879.774688510462	0.0024798742468306045	-0.22363924579622108	0.22611912004305168	179.84636002084522
16	6.0	perception	129	diff_vonmises	-0.1589881699112693	-9.109351128424555	1.799972480445201	1.3714660434095318	7.483171691094281e-16	2.1332248922951966	0.32418836004106005	-0.3213773697050011	0.6455657297460611	101.86720124860521
17	6.0	wm	129	diff_vonmises	-0.2504620956460796	-14.35042100852231	0.32719739040251006	127.81081094476697	0.31612817124115616	128.91989320948446	0.01843719750639039	-0.3098700052941563	0.3283072028005467	138.6540764777588
18	7.0	ltm	129	diff_vonmises	-0.0023579734505715716	-0.13510192692165068	1.995746846871932	2.1314261188591206	0.8178025750466738	3.201936094523953	0.11501830572416583	-0.28924447010479454	0.40426277582896036	71.10131989838703
19	7.0	perception	129	diff_vonmises	0.043992227676507734	2.520568977242505	1.8192363269755367	2.0552519552645045	0.08207559223866753	2.897743768099346	0.5012144711543721	-0.3978137645210638	0.899028235675436	97.65426698046835
20	7.0	wm	129	diff_vonmises	-0.5657715975630746	-32.416324708738266	0.0006839794284394209	1573.339200302195	1.0865431957294848e-23	1574.821223301938	-0.06457485974831911	-0.40710914566088263	0.3425342859125635	171.03083335241448
0	1.0	ltm	130	diff_vonmises	0.04155958637339094	2.3811888975047077	3.781650697975856	0.3853913140526497	8.307564588649483e-30	3.4146152316391722	-0.25614072575164437	-0.5433037073596665	0.2871629816080221	70.46619292652835
1	1.0	perception	130	diff_vonmises	0.03355833228970464	1.922750807697668	13.987329280838305	0.7508545141891643	0.04967656080933604	3.7259476276819803	0.48711050787641663	-0.6070020378824871	1.0941125457589038	35.92434380092283
2	1.0	wm	130	diff_vonmises	0.013139052009639133	0.752812226955205	2.0208166586143586	0.9690051114749203	0.16141801189858224	4.67903755172929	-0.3664467045677514	-0.6736740813487697	0.3072273767810183	78.69215760365898
3	2.0	ltm	130	diff_vonmises	0.21415456647032663	12.270152822203567	2.405571668414407	0.594120151767012	8.99570637195842e-19	2.2862559352730925	-0.02158158490774259	-0.36108306183730715	0.33950147692956456	88.64333802714077
4	2.0	perception	130	diff_vonmises	-0.03328714256796501	-1.90721278119466	8.122686601828384	1.207621473551637	0.23395639189399722	2.97948056788183	0.7595161432657163	-0.5042035625402378	1.2637197058059542	46.014968266144734
5	2.0	wm	130	diff_vonmises	0.09514481451231445	5.451396314110684	5.076418280315874	0.41067147308996266	1.4047678455605772e-14	2.653197116162004	-0.0633285543962484	-0.4222554453528247	0.3589268909565763	60.59348622790847
6	3.0	ltm	130	diff_vonmises	0.22102303157982364	12.663686884710607	2.985484774487317	0.5240740729285335	0.02965108072065944	1.6610155652867	0.07002589525951713	-0.256773862287009	0.3267997575465261	77.61171252022729
7	3.0	perception	130	diff_vonmises	0.020013067279481288	1.146664290225642	5.350287031648972	1.9136808463003572	0.213661193607196	3.11542880853724	1.1132113306405353	-0.48808149680200374	1.601292827442539	56.770484027718965
8	3.0	wm	130	diff_vonmises	-0.00627728605040554	-0.35966199748458316	5.153189449919688	0.45476143527449575	0.1725692694769657	2.3140248437068127	-0.033728987554060674	-0.37429851345031123	0.34056952589625056	55.42641439276019
9	4.0	ltm	130	diff_vonmises	0.056175174303484565	3.2186004010014195	0.9335002249989962	197.5544969590841	0.9167162321844028	199.86497381707997	-0.12233365475853475	-0.4817602165007706	0.35942656174223586	79.32087684068719
10	4.0	perception	130	diff_vonmises	0.01893258408306066	1.0847571632359354	2.445883112614749	2.6528615629041394	0.3003966404596897	4.7589595453165865	0.5433677104673225	-0.6155098302202076	1.15887754068753	77.58396488849976
11	4.0	wm	130	diff_vonmises	0.2446497502799804	14.017398149972408	0.573767141046856	97.23912388783236	0.5491498618224424	100.11456731598973	-0.28480985013977644	-0.5304056929780039	0.24559584283822744	95.31886290436282
12	5.0	ltm	130	diff_vonmises	0.13266765557399396	7.601296742285105	1.3024293678870917	2.291193928444497	0.2996675316559097	4.014337309799114	0.06855270186686724	-0.40877056041825843	0.47732326228512567	95.74284643054798
13	5.0	perception	130	diff_vonmises	0.06540187659301425	3.747251501015164	2.373601734513486	1.9789252852908799	5.319684959537097e-12	3.74345803139467	0.5353340557100085	-0.5859758518488158	1.1213099075588242	89.26555833561326
14	5.0	wm	130	diff_vonmises	-0.04976738019498886	-2.8514608425958214	0.4523278044890556	176.19437843957394	0.43740921253432646	178.64144285198455	-0.08865994731431215	-0.5506360823028515	0.4619761349885394	119.30873540295313
15	6.0	ltm	130	diff_vonmises	-0.0662196524120371	-3.794106604033028	0.0003540252614250984	3314.3231285649877	2.9943043869228252e-24	3316.1882417663173	-0.11008155849879131	-0.48356935694789627	0.37348779844910496	179.85455125429735
16	6.0	perception	130	diff_vonmises	0.016243183469763868	0.9306658586741341	1.527481617929453	1.6008846407397728	5.5422550112173484e-15	3.739144133532068	0.10599799514283703	-0.5620641840215232	0.6680621791643603	109.60781641644064
17	6.0	wm	130	diff_vonmises	-0.017064505507290374	-0.9777241450454882	0.2532869946284457	211.81864642492064	0.24335074775679894	214.27449403140744	-0.12050448236046662	-0.5909843970403017	0.4704799146798351	146.98238431286842
18	7.0	ltm	130	diff_vonmises	0.10245011914894867	5.869959437847176	0.9876257840970343	226.2366745453378	0.9707851755933167	228.4969432922162	-0.03786921504831753	-0.5000121044985484	0.46214288945023085	79.58066043340054
19	7.0	perception	130	diff_vonmises	0.15771291822612865	9.03628458904905	1.6169419299781718	1.7065094571307573	3.265163081261472e-16	3.5673798781928268	0.20589210238414213	-0.5372807677564891	0.7431728701406313	106.86148117074939
20	7.0	wm	130	diff_vonmises	0.10740048984378042	6.1535947856862805	0.9010151501811205	52.84846022612235	0.8388659472951066	55.496776413674134	-0.1974969297220639	-0.530042245707163	0.33254531598509907	79.6863303490158
0	1.0	ltm	131	diff_vonmises	-0.11793838969616827	-6.757371972159637	0.9807166050039516	136.73052926028896	0.9630482325925998	138.3198416513417	-0.07391194279713886	-0.3378019204184213	0.2638899776212824	77.86825718265567
1	1.0	perception	131	diff_vonmises	0.06200478682236785	3.5526125945300606	10.37405959118681	0.6700346800750049	2.2724470058183704e-20	2.1418941243739797	0.5089310805357469	-0.34089303664411785	0.8498241171798647	42.14085193144288
2	1.0	wm	131	diff_vonmises	-0.017763529194224484	-1.017775252086487	9.326900353704245	0.2126045497264886	0.01049879268028315	1.9601342137624622	-0.0598752184987833	-0.31256809218523385	0.25269287368645055	44.179658345342034
3	2.0	ltm	131	diff_vonmises	0.04395944947769675	2.5186909247905946	3.3961894959767	0.4442163346306545	7.933283487162497e-15	1.5357992481076237	0.06756945656081798	-0.244079802321272	0.31164925888208994	74.4646839843835
4	2.0	perception	131	diff_vonmises	-0.002162672043416448	-0.12391198055869601	8.29152264583678	1.1158858940430394	0.15601652245268466	2.257121711400173	0.8440021929138424	-0.3714856846606243	1.2154878775744666	46.22381189243896
5	2.0	wm	131	diff_vonmises	0.10507517234043902	6.02036390671692	6.328698173091076	0.2706798764215219	0.05023748838791162	1.5597342385721435	0.004970182148030022	-0.24893279868183407	0.25390298082986407	52.76616066657567
6	3.0	ltm	131	diff_vonmises	0.19660863035990495	11.264844735470216	2.448499130431109	1.2224429708176643	0.9101946082738563	1.6945318443713946	0.1615227431865428	-0.16526479128026517	0.32678753446680797	67.79110947216873
7	3.0	perception	131	diff_vonmises	0.04449304356473116	2.549263613950803	5.284997508266595	1.8063999653483185	0.33518179983885965	2.1850569926449075	1.140139097987162	-0.3381255727294776	1.4782646707166396	56.73750477152731
8	3.0	wm	131	diff_vonmises	-0.06963006256842838	-3.9895087124027993	4.907254636933239	0.34842815247440595	0.28733285100208117	1.12670226739745	0.06497939133776062	-0.1819754428645796	0.2469548342023402	56.165272815012656
9	4.0	ltm	131	diff_vonmises	-0.013299417980956569	-0.7620005202892101	0.9680145103761745	150.87029319122286	0.9559697195299086	151.9988739895257	-0.03142811668487866	-0.24517705721750715	0.2137489405326285	79.6135083399588
10	4.0	perception	131	diff_vonmises	-0.0460371527254014	-2.6377345519646958	2.807339139301052	2.2213261732055485	0.2823651055141097	3.6518426296267466	0.6447870323793641	-0.4906762563088437	1.1354632886882077	74.45129319848837
11	4.0	wm	131	diff_vonmises	-0.04657543770672428	-2.668576009569775	0.911776149241228	105.63746122546209	0.8945803892359162	107.07526089126505	-0.11661796843740291	-0.2878080822187936	0.1711901137813907	77.45968702566415
12	5.0	ltm	131	diff_vonmises	0.26243740969785556	15.036555962032784	0.9228856792006171	125.12049242475946	0.9031405692382583	126.13456907866924	0.14234650697718365	-0.27666050303233547	0.4190070100095191	88.61724218714002
13	5.0	perception	131	diff_vonmises	0.03846838885164134	2.2040763258671565	3.6509786562554987	1.6452416347220582	2.712329210763943e-15	2.6781628883885853	0.7768197164374526	-0.42543169828328825	1.2022514147207408	71.74616036839944
14	5.0	wm	131	diff_vonmises	-0.0565040581675229	-3.2374440583607704	0.3873931512629121	130.87692487260682	0.375352253114552	132.09706023693045	0.014954586163486994	-0.32500592466412925	0.33996051082761625	131.17974470206732
15	6.0	ltm	131	diff_vonmises	-0.5377509154465325	-30.810857884382703	0.00028815654209182496	2697.3222777070787	8.91166367352908e-26	2698.3980632749067	-0.0475050061352249	-0.29491035294222456	0.24740534680699966	171.8925392522222
16	6.0	perception	131	diff_vonmises	-0.24606297847583797	-14.098370161083933	1.868678110501558	1.3304732821136196	8.329082632296556e-20	2.4565184913264555	0.26772670070119653	-0.3752788736438013	0.6430055743449978	100.06102463436902
17	6.0	wm	131	diff_vonmises	-0.32178123961071975	-18.43670695618211	0.5115232483063067	88.81056264561704	0.48844406417970304	90.07519723124149	0.07376666397653153	-0.3476162779374503	0.42138294191398185	118.24092964268077
18	7.0	ltm	131	diff_vonmises	0.34300583271205964	19.652786562771368	0.6782699673820525	110.26132263618977	0.6614669882022454	111.2313872457703	0.08365146968071713	-0.2557663643533221	0.33941783403403925	102.54764637361484
19	7.0	perception	131	diff_vonmises	-0.056438838837138315	-3.2337072659870643	2.775654406549627	1.5056782140107772	0.008245503150091317	2.6277171546015166	0.5214502764899818	-0.4111112322894336	0.9325615087794153	82.18942024805179
20	7.0	wm	131	diff_vonmises	0.24931356779146477	14.284615209799668	6.239869680051743	0.3329520693919185	0.017546943064667076	1.5596897373912924	0.07194544370807743	-0.2475833641507447	0.3195288078588221	54.031181819747644
0	1.0	ltm	132	diff_vonmises	-0.03930924771391205	-2.2522539898414404	1.2751654394429344	215.20577196642932	1.2558595991823647	216.98322242360894	0.06744871656677276	-0.4502136119376594	0.5176623285044322	71.92592085663418
1	1.0	perception	132	diff_vonmises	0.024551505736956337	1.406697659418826	10.827327043654913	0.7315412622132726	0.006795854979593088	2.4365647077580657	0.5580296253793525	-0.3881668037786162	0.9461964291579688	41.17415892273905
2	1.0	wm	132	diff_vonmises	0.14250066312318072	8.164686574773784	3.5497805242412097	0.4518597960680225	9.029817516157157e-18	2.2518112789952784	-0.03307124005321521	-0.3581183506882471	0.3250471106350319	72.78723862859192
3	2.0	ltm	132	diff_vonmises	0.017231264576503997	0.9872787359069588	4.336283368448045	0.6001432894505178	0.261588165304305	1.370224282757679	0.20361220250862633	-0.2109631047860287	0.414575307294655	60.93188944575695
4	2.0	perception	132	diff_vonmises	-0.048987958325945366	-2.806803259039431	7.8550469978684685	1.0590441732782636	4.0378822453745824e-20	1.5674719253676885	0.9145301889542738	-0.24947073002079634	1.1640009189750702	48.50548634645472
5	2.0	wm	132	diff_vonmises	-0.018082848567382768	-1.0360709044852197	5.079531077312604	0.48330929149832363	0.15280951633347478	1.4008704546919006	0.16437659591719256	-0.22128561788046128	0.38566221379765386	57.710421997768776
6	3.0	ltm	132	diff_vonmises	0.13251443411263017	7.5925177992181325	3.6648903865400055	0.40281113222125176	1.8716793604497509e-13	0.7506787097367438	0.17567553073629	-0.1192806566412133	0.2949561873775033	71.60948225030856
7	3.0	perception	132	diff_vonmises	0.04859461772885993	2.7842665029152798	5.882389591597616	1.3715033324577544	3.5229528678654934e-12	1.5285838729241794	1.0528537479668292	-0.24327160284710408	1.2961253508139332	56.19445203073636
8	3.0	wm	132	diff_vonmises	-0.0350694306900259	-2.0093303684650468	3.2192490535602922	0.8347610762446945	0.4895867145138621	1.3187581971426805	0.24620755826903995	-0.1763860762047748	0.42259363447381476	67.18662767064879
9	4.0	ltm	132	diff_vonmises	-0.19072716206480592	-10.927861424821039	1.1392931016462247	23.4332879375553	1.071131616324466	24.19089611322142	0.029796422975232773	-0.1846090133454652	0.21440543632069797	77.27370698127498
10	4.0	perception	132	diff_vonmises	-0.07056417930431617	-4.043029658941706	3.0659045963407356	1.9932047026901534	0.01623980321383591	3.1278466531951596	0.8157763519004942	-0.4868892795391112	1.3026656314396055	77.90057005228564
11	4.0	wm	132	diff_vonmises	0.007651710660217224	0.43841072688570765	1.1759153711263894	208.0717819122278	1.1619724276084458	209.49535013677203	0.008578465919711675	-0.33891424447754304	0.3474927103972547	73.71568901328317
12	5.0	ltm	132	diff_vonmises	0.17519993504322304	10.038216848942852	1.6906349734283026	0.936811436669771	5.337572933664504e-16	1.5841260877894676	0.18426797171049836	-0.2372823923281172	0.42155036403861557	104.76487899689346
13	5.0	perception	132	diff_vonmises	0.019447089142688376	1.1142361316907303	2.4114804100956286	2.0278951150633633	3.6532059151452545e-17	2.2752451838810153	0.8079246332554508	-0.3527058589306623	1.160630492186113	88.57000463526518
14	5.0	wm	132	diff_vonmises	0.07130771445896507	4.085631085222695	0.6336920733733716	161.16066977681274	0.6203691893644304	161.74747992303543	0.24927885957444573	-0.2611469128864101	0.5104257724608559	112.1067165170231
15	6.0	ltm	132	diff_vonmises	0.5411011544000052	31.00281243677701	1.042088594183532	101.15958121922746	1.0268811769991764	101.58582771887538	0.1422752277138173	-0.14512196667269883	0.2873971943865161	85.98099696715167
16	6.0	perception	132	diff_vonmises	-0.11209810453436214	-6.422748281235267	1.4700511234344142	2.0524681436544436	9.54084428290626e-12	2.2887112506453993	0.5139511989364964	-0.31783348071082723	0.8317846796473236	111.36078064910379
17	6.0	wm	132	diff_vonmises	-0.09099723327054642	-5.213757413769747	0.6393653477732262	119.46994329424483	0.6200439829050947	120.07193406303425	0.27589905719273844	-0.2779258551448063	0.5538249123375447	112.13446718249027
18	7.0	ltm	132	diff_vonmises	0.041782063250845505	2.393935883622104	1.4231163650831173	15.135897026509273	1.251709456290118	15.944883217801353	0.15394660262381876	-0.24440208148766152	0.3983486841114803	73.35645174581782
19	7.0	perception	132	diff_vonmises	0.03849746681130934	2.205742370232984	2.5303887354289514	1.7214668099466006	0.19331280266050327	2.485463658473345	0.5462882445001493	-0.33323596253987586	0.8795242070400252	80.57179821924393
20	7.0	wm	132	diff_vonmises	0.17322395570450655	9.925001572429347	1.677012719922847	0.8082308263380373	2.7631285197497045e-32	1.7250982604135405	0.1000852164514382	-0.2614665700273774	0.3615517864788156	105.14425898409075
0	1.0	ltm	133	diff_vonmises	-0.009263819122290167	-0.5307777378798132	3.830655778029856	0.923599749436489	0.11453914891717842	4.758431110680695	-0.15304445505728492	-0.7414884661292698	0.5884440110719849	64.45355587123322
1	1.0	perception	133	diff_vonmises	0.016554821681035354	0.9485214129149965	12.725060222807866	0.7734347485468933	0.06483389170377965	4.5036863803973946	0.32546926633026363	-0.7384774637032412	1.0639467300335048	37.48672198343104
2	1.0	wm	133	diff_vonmises	0.1307146369687184	7.489397018892289	2.1380654126624514	1.1070320917681127	0.11798704230116862	5.155340349912683	-0.32554653612296636	-0.7529117783878123	0.42736524226484596	81.28070509003055
3	2.0	ltm	133	diff_vonmises	0.028026647198802095	1.605808598393511	3.175880237581905	0.7579581507877092	0.06764545056437418	2.41733859329799	0.10151462889828183	-0.368316043185428	0.4698306720837098	73.60723607714752
4	2.0	perception	133	diff_vonmises	-0.07432271138887538	-4.258377684551456	6.815355960821453	1.2093429873445993	0.1486246879270159	2.709338572728785	0.7369867568963642	-0.43794688044638214	1.1749336373427464	50.73400292900192
5	2.0	wm	133	diff_vonmises	-0.02899125092644725	-1.661076320890165	3.4295690055554138	0.7889006790905913	0.1398357325403211	2.804929654136287	0.0462417300673873	-0.42618816654381864	0.47242989661120594	68.23459739823514
6	3.0	ltm	133	diff_vonmises	0.023073736823504998	1.3220277375824308	1.7563990362052606	0.9429694905871963	8.699690112791707e-18	2.172889432209772	0.10374499810329668	-0.33242211751157896	0.43616711561487564	103.06313508312911
7	3.0	perception	133	diff_vonmises	0.03391247537869796	1.9430417120407113	4.824669385175822	1.8198815006509403	0.06424643655916176	2.895067960030958	1.0574579452094075	-0.44984291015556893	1.5073008553649765	61.23431146333169
8	3.0	wm	133	diff_vonmises	0.010585390335204992	0.6064981907058178	2.583606443227024	1.1994004610635784	0.24709957147226494	2.844379511514395	0.14975365261426477	-0.3929586102839465	0.5427122628982113	75.33510697423691
9	4.0	ltm	133	diff_vonmises	-0.10126750324077255	-5.802200537523653	1.9740390492419193	0.780550796197143	0.03903302044297927	2.8897435939317995	-0.0785409243516979	-0.4345033226115862	0.3559623982598883	93.08177532346582
10	4.0	perception	133	diff_vonmises	-0.025341969772450464	-1.4519879125095188	1.992791167722489	3.5753298718374964	0.29489592227836553	5.637132345002943	0.6612127676506252	-0.6672689885331891	1.3284817561838143	85.19396171921656
11	4.0	wm	133	diff_vonmises	0.22349264390096082	12.805185247745275	0.7266653206666255	321.1353211131966	0.7149446635352286	324.03363074845873	-0.115012184295054	-0.6007119048900549	0.4856997205950009	91.55826185456465
12	5.0	ltm	133	diff_vonmises	0.06939556532996456	3.9760730103313495	1.796012491601203	1.1485011550181898	1.9753379721150432e-15	2.7411610833438576	0.11878913209546765	-0.4209816331215571	0.5397707652170247	102.00434870420113
13	5.0	perception	133	diff_vonmises	0.043553576376613605	2.495436109080644	1.4997768017346276	3.5380541537484604	0.1521780896546314	4.84240012595562	0.6401037273826938	-0.5817545991606432	1.221858326543337	102.7983140987345
14	5.0	wm	133	diff_vonmises	0.007001320794197472	0.4011461325246968	0.575198435372393	242.4758515978168	0.5619114945226897	244.33553907734498	0.12726203435386196	-0.49840947349156295	0.6256715078454249	111.1365347956913
15	6.0	ltm	133	diff_vonmises	0.5787422276398742	33.159487069764324	0.6992342502447861	172.70291735461456	0.6855905251689915	174.09161685018964	0.057607718186929446	-0.33527995886372963	0.3928876770506591	98.94560068506189
16	6.0	perception	133	diff_vonmises	0.01807303379436355	1.0355085594143396	0.5510625570828396	96.29468541791252	0.5121604254235764	97.72732925629357	0.34661841255302406	-0.5388985801439787	0.8855169926970028	119.29926742375095
17	6.0	wm	133	diff_vonmises	0.037128569393705055	2.1273103256179016	0.48822309448711587	257.3336086652299	0.47689675719606883	259.15468161467356	0.10175421661887896	-0.5038304269368332	0.6055846435557122	120.34699688430594
18	7.0	ltm	133	diff_vonmises	0.025963955596399788	1.487625075138782	2.4410281916678183	2.026922682242776	0.638663887748892	4.226698977918228	0.024434828800833364	-0.5256167166673517	0.550051545468185	66.75926553252546
19	7.0	perception	133	diff_vonmises	0.17938942346866024	10.278256854039313	2.147883884816572	1.7863947859604998	0.08939895802763323	3.3709964167081985	0.3765014421531375	-0.4783496766157362	0.8548511187688737	88.98267455266947
20	7.0	wm	133	diff_vonmises	0.009580847501194412	0.5489421259769007	0.6572768453797796	142.1103478005453	0.6356233851489892	144.56644014964584	-0.08413614183020002	-0.5165538962484977	0.43241775441829766	97.53798470477025
0	1.0	ltm	134	diff_vonmises	0.06026781476865971	3.4530914267204134	1.8930046676841599	1.697591159462017	0.24276952548767156	5.073783251755972	-0.1673686454437796	-0.6712771153311722	0.5039084698873926	81.10002366919196
1	1.0	perception	134	diff_vonmises	0.03198575329203297	1.8326486681801684	9.000840820223038	0.7235131098448419	0.015852333843786003	3.9458049061582186	0.21524349203608706	-0.6294560978571966	0.8446995898932836	44.999755700347094
2	1.0	wm	134	diff_vonmises	0.1537152815513315	8.80723687955646	4.4769770519576655	0.5044140703055391	4.660056768754895e-24	3.8247406853052452	-0.1964855457620428	-0.6086731115151656	0.41218756575312276	64.61570161033416
3	2.0	ltm	134	diff_vonmises	-0.023635838133435533	-1.3542337703002256	2.555913307840991	1.1996688492878962	0.2565099538803281	2.9009772773339866	0.12922110391507902	-0.39966218985322666	0.5288832937683057	75.17788581559134
4	2.0	perception	134	diff_vonmises	-0.061978314299357795	-3.5510958306885216	6.386312152589588	1.2227041447775302	0.08061214152254695	2.9609398554554764	0.6963168847342974	-0.47095476397520897	1.1672716487095065	52.896964995640076
5	2.0	wm	134	diff_vonmises	0.008166876062824872	0.46792753020628375	4.230239623592414	0.6478582419649007	0.09304302543799031	2.636057187868937	0.053982676285707354	-0.4113531420579229	0.46533581834363025	63.15653297054021
6	3.0	ltm	134	diff_vonmises	0.09904674939739991	5.674960714960944	1.8897645237892176	1.3089507959031292	0.17322832632390475	2.6242272968845226	0.15950312337893696	-0.34200179334749775	0.5015049167264347	89.43760072795325
7	3.0	perception	134	diff_vonmises	0.0343204695961319	1.9664180587654188	4.451910849761821	2.0117773891731225	0.0542358737022348	3.3056863734418083	1.0842007454002007	-0.5123689681880604	1.596569713588261	63.82501939551537
8	3.0	wm	134	diff_vonmises	0.019065839914998762	1.0923921600014932	2.178605613514594	1.318684380132365	0.2147527517852843	3.051744140527272	0.12105988979373938	-0.4080779658003714	0.5291378555941109	81.69484803409952
9	4.0	ltm	134	diff_vonmises	0.1856497150159204	10.636945138218744	0.3180561148875855	154.1486626343455	0.30453963176009663	156.38337355379278	-0.0973317013702939	-0.5298993628047697	0.4325676614344758	137.6549462654571
10	4.0	perception	134	diff_vonmises	-0.04626863295673257	-2.6509973922606838	2.12671711265251	3.2772980888619054	0.22058383246979163	5.751129633519543	0.6269461988637857	-0.7386446580624058	1.3655908569261914	84.58189915675064
11	4.0	wm	134	diff_vonmises	0.16618863257276104	9.521907249469567	0.679672323541086	299.0997962232932	0.6679358192285798	302.0445449604267	-0.15179603835703404	-0.5972767463792508	0.44548070802221673	93.68766864097725
12	5.0	ltm	134	diff_vonmises	0.09209777177724975	5.276813625395477	1.9643897273736914	1.1143836265413756	6.121413620742474e-15	2.5719285001327994	0.1593322531801008	-0.39815026260499736	0.5574825157850982	97.83424898058021
13	5.0	perception	134	diff_vonmises	0.0036922628214127585	0.21155107652001667	1.8371174807261708	2.718582130713831	5.589931483268507e-24	3.9028959451920224	0.7108856247699733	-0.5873717969175258	1.2982574216874991	100.9641050752154
14	5.0	wm	134	diff_vonmises	-0.01196973264454224	-0.685815162432236	0.6028433554160716	233.35291955645644	0.5904348114318109	234.93101666591392	0.13163634149725567	-0.42853812414139014	0.5601744656386458	108.90902013625181
15	6.0	ltm	134	diff_vonmises	0.4340011953484545	24.86643679709922	0.5330777871911533	147.64450583174906	0.5203326387747105	148.7730889179656	0.07033047217451127	-0.30714677680599145	0.3774772489805027	115.28898869038588
16	6.0	perception	134	diff_vonmises	-0.0656701534100172	-3.7626226303706365	1.2854560402367	2.4206297819113725	0.0398510478262104	3.5511200796351527	0.36777555592664957	-0.46980307591829196	0.8375786318449415	115.20984281676016
17	6.0	wm	134	diff_vonmises	0.056819129140555306	3.2554962953626077	0.5703737288777216	252.7512128248911	0.5604134457894128	254.23263501255988	0.09239412372616584	-0.3928505401308655	0.48524466385703136	111.20624072672234
18	7.0	ltm	134	diff_vonmises	-0.0321104914384193	-1.8397956375123898	2.340801305375903	1.8339593662894689	0.5092389307598958	4.071542915799242	0.028027522363348822	-0.514043740873293	0.5420712632366418	70.2161112795637
19	7.0	perception	134	diff_vonmises	0.08934412747111707	5.119041428373845	0.9046376434305221	251.33733300013367	0.883238476595621	252.99411928481427	0.49525297088075604	-0.5532771416535667	1.0485301125343227	92.33266980028944
20	7.0	wm	134	diff_vonmises	-0.038001180773308885	-2.177307274824289	2.277231204230918	0.8281833018569635	9.96588210934667e-31	3.3216453856678227	-0.06678454100532433	-0.523797214396148	0.4570126733908237	91.11361661576433
0	1.0	ltm	135	diff_vonmises	0.17018160700767093	9.75068783229354	2.6597760179328103	0.5899608364858617	1.1482318898980048e-17	1.4487808482941849	0.12993378776814177	-0.2288158459682229	0.3587496337363647	84.31560691175687
1	1.0	perception	135	diff_vonmises	-0.02063482539111379	-1.1822884059002083	8.700994538368192	0.6672308514815196	0.010161130074489736	1.6328766575010285	0.5106876562392545	-0.2598306282010709	0.7705182844403253	45.95435739558073
2	1.0	wm	135	diff_vonmises	0.19400604821590756	11.115727762783058	2.448329620834219	0.5979416541327087	2.7021737487027455e-18	1.5115578706101578	0.10752555056572502	-0.23797107008199053	0.3454966206477156	87.8760126722942
3	2.0	ltm	135	diff_vonmises	0.12776600059704113	7.320452599476413	4.677572618512432	0.6549960508809056	0.6003807581266619	1.1039129578808804	0.2548158785772189	-0.17228546592653535	0.42710134450375425	56.44697242226388
4	2.0	perception	135	diff_vonmises	-0.04729046079143203	-2.709543814577954	7.098589680909569	1.0604211592572834	9.628899318000088e-25	1.3895439493123336	0.8845630617487065	-0.22115203314319176	1.1057150948918983	51.06762899691091
5	2.0	wm	135	diff_vonmises	0.017525137109977957	1.0041163917898337	6.832019970185876	0.4166001725550454	0.026732155117236738	1.0214291555686383	0.258910135197725	-0.16210722396469193	0.4210173591624169	51.71400368928312
6	3.0	ltm	135	diff_vonmises	0.27749264742468827	15.89915754334643	2.984489175400475	0.750101188159113	0.32204619598421746	0.9860662281694659	0.2787747125210931	-0.1299032725873489	0.408677985108442	73.05613200670356
7	3.0	perception	135	diff_vonmises	-0.0055951662963828	-0.32057941445657834	5.633496065124033	1.50416627863204	6.918590512575764e-21	2.0158549325623083	1.0685716644581758	-0.32081550603029596	1.3893871704884717	57.449896827185285
8	3.0	wm	135	diff_vonmises	-0.006042461023004721	-0.3462075144904724	3.017891774198562	1.323201456425247	0.6610725614950521	1.8990086634870134	0.3432383233489311	-0.2331919569983652	0.5764302803472963	67.02354562398145
9	4.0	ltm	135	diff_vonmises	0.02452841621121751	1.4053747270430326	1.305225992154714	78.3691221477526	1.2772936439843583	79.0654911096726	0.12457514874144238	-0.20612912769048464	0.330704276431927	74.52538151838291
10	4.0	perception	135	diff_vonmises	-0.08111046822692955	-4.647287503733025	2.7611952032479783	2.152485174392523	8.527785645241448e-17	3.5815919792122086	0.7741339657081232	-0.5646558525960578	1.338789818304181	82.74999369919956
11	4.0	wm	135	diff_vonmises	-0.06911683997451766	-3.9601032238209584	1.3380855941628862	236.51118319128875	1.3215401804423845	238.24621836824284	0.011196302068881892	-0.4336190940840723	0.4448153961529542	68.96521942214983
12	5.0	ltm	135	diff_vonmises	0.0832197190962398	4.768138676478802	1.467803328853097	1.1208989061937569	2.3954545043327293e-17	1.3180251794531257	0.2694103017966075	-0.18432584524244494	0.45373614703905246	111.43802277168399
13	5.0	perception	135	diff_vonmises	-0.04649624304137383	-2.664038489485243	2.0589150280630655	1.8420780049574343	2.2982088546345696e-21	1.6797620303242682	0.6997255327700642	-0.25159764046634836	0.9513231732364126	95.68464033734807
14	5.0	wm	135	diff_vonmises	0.05665716682294836	3.246216538123572	0.8252168725781635	91.97325180115996	0.8059692539954304	92.14646491958466	0.28522152997962635	-0.15970931213233097	0.4449308421119573	101.74234089274898
15	6.0	ltm	135	diff_vonmises	0.49341082960135474	28.270358102206252	0.5998659058241161	89.8461133455383	0.588745123417028	89.75616539703795	0.21269594678033954	-0.09612919464865577	0.3088251414289953	119.92878910880552
16	6.0	perception	135	diff_vonmises	-0.03969580512227877	-2.2744020978803685	2.0279858966108453	1.3666551101548339	6.115991400628965e-08	1.2573560968913522	0.510849606966767	-0.187800921171952	0.698650528138719	96.3793879396517
17	6.0	wm	135	diff_vonmises	0.10955655296942629	6.277128103149574	0.8148154022679146	132.11285730559237	0.8017162893901285	132.37113231805017	0.2519485844763878	-0.16371993339827995	0.41566851787466774	101.08963874613059
18	7.0	ltm	135	diff_vonmises	-0.0390442396695943	-2.237070147365017	2.6511250465771274	1.042781294759198	0.22603601231545375	1.9306201505499185	0.25569667558595727	-0.2636165957921955	0.5193132713781528	76.85172480033171
19	7.0	perception	135	diff_vonmises	0.06961132431151786	3.9884350893663942	2.4987094319175447	1.6975833104335052	9.653790054687796e-12	2.6571609312199285	0.5772862113242043	-0.4161436751506192	0.9934298864748234	87.01230736993332
20	7.0	wm	135	diff_vonmises	-0.16267126824737868	-9.320377118615278	0.0002429537668459643	5865.562811274559	4.2458685277751965e-34	5866.503635460162	0.07707884388787534	-0.3765249334323926	0.4536037773202679	179.2307310532155
0	1.0	ltm	136	diff_vonmises	-0.0784859019049212	-4.496910930429773	1.0140126237099119	452.18709568380774	1.0026928013946534	455.6205440506394	-0.20744293888571974	-0.7245003629914919	0.5170574241057722	75.32540649532629
1	1.0	perception	136	diff_vonmises	0.08514361869318227	4.8783700035905255	10.892789659021792	0.687366431235388	9.194076339500917e-21	3.672546810926579	0.3096637253613308	-0.5845039783862526	0.8941677037475834	41.10532333349971
2	1.0	wm	136	diff_vonmises	0.08242649713203828	4.722690405712978	7.0960287260292745	0.3580395666549689	0.06465305475485367	3.6971609594313617	-0.25379981822984327	-0.5979250726177849	0.34412525438794167	48.89759113404136
3	2.0	ltm	136	diff_vonmises	-0.1180703263007373	-6.764931382764729	2.3898805305969333	1.233318795926149	0.23363403510365474	2.992855629234031	0.11424608208695841	-0.4083992653248459	0.5226453474118042	77.82664226954392
4	2.0	perception	136	diff_vonmises	-0.03339562000833212	-1.9134280807000776	6.532486215646655	1.3020906815705462	0.18519404059367017	3.1648905367745535	0.6991490046639169	-0.5145921459739393	1.2137411506378561	51.33829527152551
5	2.0	wm	136	diff_vonmises	0.030984200326757	1.7752639103110424	4.355007924380725	0.4889483005609232	0.11290670887207406	2.461368914904542	-0.043481677226421656	-0.38746308570214333	0.3439814084757217	61.15041103730226
6	3.0	ltm	136	diff_vonmises	0.037001231309919114	2.1200143908456837	1.0851430577082375	149.42371993856995	1.067258878805809	150.44169051982385	0.1409433487129803	-0.2784262174892653	0.41936956620224564	81.236454316215
7	3.0	perception	136	diff_vonmises	0.07834938283785364	4.489088964063739	4.259313075412191	2.1990985691779508	0.30041490534004883	2.979991780637933	1.123013655136075	-0.44028416159730815	1.563297816733383	62.62512118471247
8	3.0	wm	136	diff_vonmises	0.1770164228192423	10.142293932045861	0.7309313193960472	90.19214346187752	0.7095372557387025	91.44874679967279	0.008205537867553403	-0.28323212570454714	0.29143766357210055	95.04499854019417
9	4.0	ltm	136	diff_vonmises	-0.02028754036249833	-1.1623904394724625	0.32250439789728697	141.33892479941758	0.3116788162185452	143.21291451630404	-0.12255240685858482	-0.4132337014724712	0.29068129461388637	135.33272373052915
10	4.0	perception	136	diff_vonmises	-0.049176024342750126	-2.81757864807218	1.8586512221849896	4.789023854128799	0.5496049654583072	6.7338728333603415	0.6390512992857267	-0.6377969054315125	1.2768482047172391	81.1672199662768
11	4.0	wm	136	diff_vonmises	0.03807220303023401	2.1813765503975926	0.5906235306663074	106.20669579730765	0.5703261694390669	108.30098269632549	-0.1372137170131218	-0.4154549471327229	0.2782412301196011	99.66715850719808
12	5.0	ltm	136	diff_vonmises	0.1991875259061797	11.412604566076844	0.8331570551728322	107.25324029028054	0.802645863670969	109.13780318922755	0.051608149626751754	-0.437310383156305	0.48891853278305675	89.96402690408428
13	5.0	perception	136	diff_vonmises	0.04080316631722053	2.3378492207470947	1.9894942193308225	3.4784738143070797	0.23190032063140756	5.290048101893427	0.7411844833368841	-0.6494223905383041	1.3906068738751882	87.63839068486982
14	5.0	wm	136	diff_vonmises	-0.08417873490143483	-4.823086234602818	0.42650048867198825	239.88342964473034	0.41654648539860817	241.8721868179949	-0.019855182610960753	-0.48772493288879915	0.4678697502778384	124.65641872142115
15	6.0	ltm	136	diff_vonmises	-0.5412244920759574	-31.009879165064024	0.00015752134925926448	5818.359217756602	5.583364092720809e-29	5820.292149948673	-0.16176195205855493	-0.4534979853376626	0.2917360332791077	171.79629257696564
16	6.0	perception	136	diff_vonmises	-0.2444369704027171	-14.00520676103991	1.2496309830716124	2.3126651142279355	1.231044397672781e-19	4.043548695742897	0.25438850291782833	-0.5697889998341336	0.8241775027519619	118.56886965680293
17	6.0	wm	136	diff_vonmises	-0.2923923821023159	-16.752849456239208	0.46900936767523504	127.60413295089006	0.44868651637695073	129.53322737673642	0.02379079429302422	-0.4895342121552311	0.5133250064482553	120.98727992034576
18	7.0	ltm	136	diff_vonmises	0.033371589547644326	1.9120512367229119	1.1199223093550157	146.97897398777977	1.0972386714083102	148.68767944184296	0.00839217194518227	-0.399910829470997	0.40830300141617926	75.71861581930486
19	7.0	perception	136	diff_vonmises	-0.032339830009206386	-1.8529357696980522	1.0815983718424367	115.97037027614634	1.0327536780554167	117.4327900912501	0.5568778758528836	-0.5215947444245135	1.078472620277397	85.48010742884404
20	7.0	wm	136	diff_vonmises	0.263121453859905	15.07574880551878	2.309791059693734	1.3387412415403885	0.3909543514629677	3.3846637338716086	-0.01385950764480215	-0.4452310018157796	0.4313714941709775	72.53142244338045
0	1.0	ltm	137	diff_vonmises	-0.17567099935284228	-10.065206845763278	1.1917217873009183	187.77850727700346	1.1734729438123481	189.42547169551472	0.01826543877685083	-0.39581025741043874	0.41407569618728957	73.48516986731829
1	1.0	perception	137	diff_vonmises	0.020166440346433733	1.1554519196529947	13.558199174431483	0.7056400195660266	1.8997663582317044e-14	2.251745333938477	0.6682396764596852	-0.35837640047869473	1.0266160769383799	36.80616062066517
2	1.0	wm	137	diff_vonmises	-0.02496472745753395	-1.4303735200110574	3.289156299179115	0.3712166915278574	3.4806748158219656e-28	2.2080262862298587	-0.09531860814502235	-0.3510622038233685	0.25574359567834615	75.69582194428682
3	2.0	ltm	137	diff_vonmises	0.11322839459668116	6.487509131431725	2.705015482808195	0.48328013418298643	2.0840328480340003e-39	1.4240058527451782	0.07157182216046223	-0.22530386547752926	0.2968756876379915	83.61451530277674
4	2.0	perception	137	diff_vonmises	-0.03282228192430199	-1.8805782282510342	8.318699951789888	1.07629053976955	0.16306934825362945	1.820102112962678	0.8799216474333962	-0.29922184934662927	1.1791434967800254	46.24756158700205
5	2.0	wm	137	diff_vonmises	-0.017316311566028877	-0.9921515694670279	4.70087658320822	0.3851444901529397	0.09641822123174831	1.4604576193093701	0.067766267712002	-0.22944895094628787	0.29721521865828987	60.259267304245526
6	3.0	ltm	137	diff_vonmises	0.13283360859676963	7.610805150087589	2.8206356945505275	0.5265802819208468	0.36115724561008455	0.9282893547669835	0.12763719766042722	-0.12327498483064113	0.25091218249106834	72.20504698859949
7	3.0	perception	137	diff_vonmises	0.04494761171820064	2.575308450645659	5.447030252248446	1.6130150147242428	0.30767795916368895	1.7640065878040936	1.0905663642599723	-0.27302071752802226	1.3635870817879945	56.30754984061423
8	3.0	wm	137	diff_vonmises	-0.06978116493353997	-3.998166240198138	4.049731975051629	0.548434935602184	0.4239809385432174	1.1330416175735578	0.16094968650864422	-0.17141507784299506	0.3323647643516393	60.76585288615152
9	4.0	ltm	137	diff_vonmises	-0.20555585258958356	-11.777482807596432	1.2161806937498394	144.83013775337903	1.2028826865692066	145.69464655859346	0.02702478326109059	-0.21405914757371036	0.24108393083480095	73.411738718337
10	4.0	perception	137	diff_vonmises	-0.035260740780204185	-2.0202916292105293	2.454819493127719	2.5578041957076705	0.352263024654467	3.591884067727799	0.7029604446602888	-0.43837328628516736	1.141333730945456	78.17603948937486
11	4.0	wm	137	diff_vonmises	0.04877257183240022	2.7944625219951726	1.0475049454193015	145.19903744897863	1.0328350771855588	146.50847473982734	-0.05413576365359063	-0.28500409178901265	0.23086832813542202	75.58910781356238
12	5.0	ltm	137	diff_vonmises	0.30297977586760344	17.359462435033308	0.7731817217870911	119.75729095867563	0.7560374227364779	120.62113942234221	0.1369728718996086	-0.24801595896330753	0.38498883086291613	97.6749276914777
13	5.0	perception	137	diff_vonmises	0.06791476303048717	3.8912292882780277	3.058656862621797	1.7151149609035772	6.198271125012975e-21	2.510511190468838	0.7362090151931964	-0.3970565828233309	1.1332655980165272	78.55391550813957
14	5.0	wm	137	diff_vonmises	-0.008834334894346782	-0.5061701042512227	0.4087567141620258	153.7579741113861	0.397096456832551	154.79167229578323	0.0937540555230214	-0.32574284271053955	0.41949689823356096	130.91801713910093
15	6.0	ltm	137	diff_vonmises	0.35031805564041996	20.071746075425207	0.9461525057182615	59.62017023151114	0.9199041194550314	60.53336161085133	-0.000654165005073537	-0.20479754574327913	0.2041433807382056	82.541826217943
16	6.0	perception	137	diff_vonmises	-0.1705160100415088	-9.769847714788819	1.6585225787845728	1.582539639142615	2.1656403944078013e-13	2.551553488710188	0.32252644817133663	-0.37967205994437286	0.7021985081157095	105.68035326104881
17	6.0	wm	137	diff_vonmises	-0.3250357734574218	-18.623178009880615	0.4271860648262056	73.29293652119478	0.39756192032823584	74.44770883967307	0.13634981254179124	-0.3824152869015407	0.5187650994433319	129.73255595016394
18	7.0	ltm	137	diff_vonmises	0.12457596698726034	7.1376771371310905	1.2060882439236726	115.7174619809764	1.18703437340721	116.46029318275497	0.1276367486075216	-0.21447590733661315	0.34211265594413476	77.4663372418301
19	7.0	perception	137	diff_vonmises	0.018665357077024394	1.0694461836181404	2.83062573288646	1.1866239746109823	5.022921719477608e-17	2.005031761679656	0.4326295490841112	-0.316496031101846	0.7491255801859572	81.71376330994576
20	7.0	wm	137	diff_vonmises	0.23131514000232217	13.253381259610821	1.968821081285967	0.7066724559306914	0.16871559037319023	1.6893085915708477	0.04508608058960384	-0.2266564794159311	0.2717425600055349	86.71070367543913
0	1.0	ltm	138	diff_vonmises	0.13665923554990608	7.8299974284938	3.2547807041799994	0.537135188129467	0.03333714157445202	2.667747502597206	-0.07044318289644247	-0.4149996253827875	0.34455644248634504	73.4071344461043
1	1.0	perception	138	diff_vonmises	0.047138242635026494	2.700822356650655	8.568822237760303	0.7679811999515185	0.09158791517096322	3.0228716245018674	0.35675095355183617	-0.49284850359345667	0.8495994571452928	45.42412794553414
2	1.0	wm	138	diff_vonmises	0.1345333510177372	7.70819321706838	3.9392508339682353	0.4257637747791807	3.3223498273244552e-18	2.7449130389735883	-0.11225758443397782	-0.43674350403128753	0.3244859195973097	69.00176400384802
3	2.0	ltm	138	diff_vonmises	0.06457295029006933	3.6997575223290378	3.190137837629427	0.8080243952625051	0.31243313852014404	1.8938802907656274	0.14587648203687986	-0.27252784395475554	0.4184043259916354	67.94852488914114
4	2.0	perception	138	diff_vonmises	-0.03764970201331303	-2.157169025288035	7.829783264791217	1.0614295903764233	0.03520875351189379	2.163881533291632	0.8080699590300591	-0.3446106595522463	1.1526806185823053	48.283997612259554
5	2.0	wm	138	diff_vonmises	0.06537646641608517	3.7457956051204473	5.983959783338934	0.4300530022197256	0.05433637181676365	1.8609812990601795	0.09759885453733808	-0.2958592353590267	0.39345808989636477	54.42433045341801
6	3.0	ltm	138	diff_vonmises	0.21944112218716336	12.57305015293907	2.590273054568444	0.8492480750201608	0.235741398161751	1.589650058596173	0.19513322234913216	-0.21523198885155853	0.4103652112006907	77.26212544731152
7	3.0	perception	138	diff_vonmises	0.017716866958644554	1.0151017029251117	5.724735475865644	1.577945393436926	0.005340034236919325	2.491667645443792	1.0714145033638405	-0.3952414064836186	1.466655909847459	56.89544865728075
8	3.0	wm	138	diff_vonmises	0.04689792996351951	2.687053454809791	3.8187456340359134	0.7422702698635524	0.25285350925092387	1.9908728156199669	0.15479020955100103	-0.30224644831467457	0.4570366578656756	63.7511480944022
9	4.0	ltm	138	diff_vonmises	0.20772838106963942	11.901959520375604	0.8122484385145324	173.4454536408279	0.7986698159856854	175.02279787111834	-0.02880627011258241	-0.33999867109008974	0.31119240097750733	88.01864099961651
10	4.0	perception	138	diff_vonmises	-0.06295808025286431	-3.6072322847350557	3.111046801385988	1.9400035590268212	3.6052553732204886e-14	3.8784904705097016	0.679764357130598	-0.6147058086809799	1.2944701658115778	77.88086462560446
11	4.0	wm	138	diff_vonmises	-0.003793115386110549	-0.21732950283027014	0.9632615926844701	237.23003301715525	0.9483671105758894	239.60837994244446	-0.11868652559486748	-0.501411648467947	0.38272512287307947	78.26305573067793
12	5.0	ltm	138	diff_vonmises	0.04890838834306183	2.8022442348442764	1.7770586274080045	1.0686411443743178	1.0678733823689259e-13	2.027935079643733	0.1903784576824103	-0.30807654407260876	0.49845500175501906	102.50877220444389
13	5.0	perception	138	diff_vonmises	-0.01837520950589636	-1.052821952356532	2.1939470710338385	2.0570569803888956	1.866677589549462e-16	2.750870113805299	0.6841616961569381	-0.4238718961134592	1.1080335922703974	92.79073455127764
14	5.0	wm	138	diff_vonmises	0.005357765785064508	0.3069773671037925	0.6432198780433509	195.28036166641434	0.6309018938430387	196.37043622410562	0.16088253435009392	-0.32488536443005955	0.4857678987801535	107.15466439379729
15	6.0	ltm	138	diff_vonmises	0.37898132237946824	21.714030286630383	0.5245557620606274	158.3781965548363	0.513962799906541	159.07230848328135	0.14138809753701054	-0.2479430960345983	0.38933119357160884	119.59369566806649
16	6.0	perception	138	diff_vonmises	-0.039476636768429454	-2.2618446762019726	1.62782567368156	1.7735024129159902	2.271562039162497e-19	2.5444777131554006	0.402338922522605	-0.3738389336098914	0.7761778561324963	106.62683244434271
17	6.0	wm	138	diff_vonmises	0.09706069852634687	5.561168382151324	0.654117139647434	216.56640103410953	0.6425278145074466	217.61774941323688	0.189279488226461	-0.32839370424375147	0.5176731924702125	106.93413593121863
18	7.0	ltm	138	diff_vonmises	-0.010554008478266246	-0.6047001427499443	1.3815455753377501	4.2356903024138255	0.6514742786798712	6.027907582819118	0.08623080267073502	-0.4285941280799279	0.5148249307506629	82.1599273296329
19	7.0	perception	138	diff_vonmises	0.06876340561174239	3.93985292649904	1.9401745919084008	2.477986576404622	0.2071961173478125	4.085949369236934	0.46357903557599955	-0.5120516795193004	0.9756307150953	88.72982584406071
20	7.0	wm	138	diff_vonmises	0.22201775269387436	12.720680206338264	4.581819466196466	0.5753385137064402	1.9602047985101056e-26	2.454037465108701	0.08551302120528259	-0.3905223030291007	0.4760353242343833	63.85474242001038
0	1.0	ltm	139	diff_vonmises	-0.0067951840633537	-0.38933536784472444	1.1482231480738014	347.5257885982559	1.1339142094835328	350.23957584506223	-0.06944534242691702	-0.618695868885986	0.549250526459069	73.06234853777909
1	1.0	perception	139	diff_vonmises	0.06085803809448435	3.48690873226034	9.890171023239235	0.7601591096246116	0.031987600498391035	3.3291479859259594	0.3937861711966417	-0.5341727338437268	0.9279589050403685	42.82341127385169
2	1.0	wm	139	diff_vonmises	0.1596100038553585	9.14497958897884	4.680005472298045	0.41134593898375343	0.015116068290064387	3.0687071848081424	-0.15151599821600303	-0.4856825511775972	0.33416655296159414	62.08616649967058
3	2.0	ltm	139	diff_vonmises	-0.03428996645267642	-1.9646703573835378	3.0154557187577766	1.0156393005871944	0.3807882201835194	2.168866832429721	0.17981942672989332	-0.30170641990608277	0.4815258466359761	68.54832741679934
4	2.0	perception	139	diff_vonmises	-0.04793841665509529	-2.746668950876613	7.305588912854735	1.139009348179246	0.06475741158204204	2.1320708443827248	0.8439373331470938	-0.33993096070824563	1.1838682938553395	49.79565864352631
5	2.0	wm	139	diff_vonmises	0.006401805361250582	0.3667964284638817	4.770227195994795	0.5202860246658914	0.14804994909440342	1.8733978858160334	0.09606854264434339	-0.29576266253537703	0.3918312051797204	58.91025483821463
6	3.0	ltm	139	diff_vonmises	0.10615168186644751	6.082043359162835	3.1105878181069055	0.5551224132669069	0.08177354303285628	1.1662888158777376	0.17003697939302911	-0.17458041590302859	0.3446173952960577	74.90501863062906
7	3.0	perception	139	diff_vonmises	0.05886368020524824	3.3726404423684913	5.522827896746375	1.5097115084693473	0.010779711757016011	1.9526941748884303	1.0658027028440948	-0.3088294828358087	1.3746321856799035	57.89985004808187
8	3.0	wm	139	diff_vonmises	0.0015373531728076944	0.0880838484229272	3.0039534991931114	0.7899109776717307	0.30169585170479674	1.5953544108864894	0.18210372347934256	-0.22256209297499605	0.40466581645433863	70.78091674009005
9	4.0	ltm	139	diff_vonmises	0.051310621280631234	2.939882043574317	0.5576097799141698	97.9410943830352	0.5434693411896162	99.17085457605998	-0.05276327607080589	-0.2588238537553025	0.2060605776844966	105.44885016183483
10	4.0	perception	139	diff_vonmises	-0.07314566834377169	-4.190938085761788	2.9659187754865113	2.1552820361831038	0.06455108642617843	3.7209477825052675	0.7713847497037501	-0.5569283107276561	1.3283130604314062	77.56159848499507
11	4.0	wm	139	diff_vonmises	0.0434543404975333	2.489750312033072	0.9805703095667392	215.86880127742634	0.96642773689584	217.7058682512411	-0.037310928181980785	-0.404042808535074	0.36673188035309323	79.61338640566348
12	5.0	ltm	139	diff_vonmises	0.11017090951556821	6.31232814035974	1.9548239943727632	0.9223995340932609	1.9053978208419487e-13	2.024388365153366	0.1471149457858903	-0.3127824226031171	0.4598973683890074	98.05409720795583
13	5.0	perception	139	diff_vonmises	0.012681735821381532	0.7266099394650342	2.2894865209725377	2.2965091619124895	1.0375201073885875e-19	3.0026205472601193	0.8069444904991077	-0.4646919154757252	1.2716364059748329	90.87450480093574
14	5.0	wm	139	diff_vonmises	0.03959005763497834	2.2683432131639405	0.5879749876665021	212.82393646632372	0.5764403341460408	213.88356589708337	0.1871082502552852	-0.34436866566900903	0.5314769159242942	113.0187173054622
15	6.0	ltm	139	diff_vonmises	0.5296111609421831	30.344484305010877	0.9381211699495389	149.2093258830474	0.9244332483463085	150.08034129710646	0.10316345911954983	-0.23057010952090629	0.3337335686404561	87.1562441505983
16	6.0	perception	139	diff_vonmises	-0.12132900441640013	-6.9516398855838535	1.1866821184337393	2.775655531865958	0.060338052751802596	3.4240930200459796	0.4671893191244295	-0.4151775098714527	0.8823668289958821	118.01179450472299
17	6.0	wm	139	diff_vonmises	-0.06941048853103389	-3.976928046769447	0.6183970549866158	180.94459110208027	0.6038796747853253	181.93613729140102	0.23366632431990553	-0.3465916701470686	0.5802579944669741	111.33046856912514
18	7.0	ltm	139	diff_vonmises	0.03405227704040278	1.951051757225313	1.4027237819836327	8.939714193251264	1.0633325723067153	10.255713201078377	0.09162686570364231	-0.34072480710699815	0.43235167281064046	74.05007833750366
19	7.0	perception	139	diff_vonmises	0.026526468953969626	1.519854716447267	1.5220670539954377	5.941080751038717	0.7216222657262841	7.052067419289287	0.5603915792685044	-0.438741835796475	0.9991334150649793	84.46927852970279
20	7.0	wm	139	diff_vonmises	0.2596628843860283	14.877587371512865	2.373605555916161	0.8656586616868968	0.11412783524576806	2.2866825897528176	0.08819677481289195	-0.32877234566321695	0.4169691204761089	82.3819592202772
0	1.0	ltm	140	diff_vonmises	0.1768166249305741	10.130846356269549	1.810423814960583	0.7881733054768176	0.08606642897552091	2.8571307061659312	-0.11190968931779471	-0.40992069695341193	0.2980110076356172	91.68398973677023
1	1.0	perception	140	diff_vonmises	0.03621123112331812	2.0747507143388995	8.988339549017967	0.706899494899112	5.035984851906732e-16	2.717338896967812	0.4005902197155114	-0.43247790452113233	0.8330681242366438	45.30153574824163
2	1.0	wm	140	diff_vonmises	0.06480635894591004	3.7131308532105316	5.220118880178514	0.35161194630552467	3.9919900739924e-17	2.5461012319468512	-0.0932791985120836	-0.40521547661524	0.3119362781031564	59.73090389402273
3	2.0	ltm	140	diff_vonmises	0.0761233958923973	4.361549306837873	3.621523766935024	0.5804218144110114	0.08050937975803737	1.9311537818031823	0.08992742323231295	-0.29661030553055634	0.3865377287628693	68.72255236829062
4	2.0	perception	140	diff_vonmises	-0.02646727551656595	-1.5164631823091648	7.847110886437375	1.1070261479661194	0.05095035046146755	2.5030504771333786	0.7968918900104529	-0.3999309867040036	1.1968228767144566	48.0939947933735
5	2.0	wm	140	diff_vonmises	0.060081855993953034	3.4424367737662966	5.410752659195123	0.42620495415578863	0.03827129405831741	2.0139933309901887	0.052428897335302926	-0.3187749180596874	0.3712038153949903	57.418959017805236
6	3.0	ltm	140	diff_vonmises	0.2291586694315279	13.129824597260141	3.1644656255887145	0.7217200389893436	0.23823828855807444	1.543838066681149	0.17979884166884702	-0.22182843978895708	0.40162728145780413	70.36619485626673
7	3.0	perception	140	diff_vonmises	0.02819503928308728	1.6154567541264635	5.309258083756134	1.803013995333109	0.09534598268389068	2.6891983047689063	1.1442166310006834	-0.4190514507111276	1.563268081711811	58.155531086542396
8	3.0	wm	140	diff_vonmises	-0.03793604054226974	-2.173575014509239	3.4823677970733464	0.6570068799791215	0.21061469033105576	1.9032623723262645	0.09818198557230567	-0.28567660487614926	0.38385859044845494	66.77496883882009
9	4.0	ltm	140	diff_vonmises	0.18922112366058272	10.841571780474432	0.6696076264038207	180.1519038066399	0.6578412810460312	181.77762815633506	-0.04631768576631856	-0.345168307384931	0.2988506216186124	96.67856538576106
10	4.0	perception	140	diff_vonmises	-0.041651747154469246	-2.386469321297124	2.841648219816336	2.192649624960743	0.12100016559815664	4.25704502575143	0.6302085917377365	-0.6171387608340301	1.2473473525717664	77.17777565435614
11	4.0	wm	140	diff_vonmises	0.021546288166709435	1.2345113761251185	0.8276397907554025	186.06299870332515	0.8132673610718653	188.29048222470342	-0.17142494824935994	-0.4397127064602415	0.2682877582108816	81.77408146811055
12	5.0	ltm	140	diff_vonmises	0.1832703662058935	10.500618493414727	1.7480037843757024	1.3150850346749632	0.18779351512627973	2.356847507572766	0.17650389557328677	-0.29414694454229257	0.47065084011557934	92.51260834532198
13	5.0	perception	140	diff_vonmises	0.010445198012009518	0.5984657622665831	2.482394942630125	2.013940460910227	5.053939877894226e-19	2.9168441718115052	0.7177159717770074	-0.4559798673492411	1.1736958391262484	87.30387189884794
14	5.0	wm	140	diff_vonmises	-0.005851762783017638	-0.33528131017863955	0.566749748042168	161.3046375897795	0.5529527163621193	162.54365711427093	0.10136122368326284	-0.34319442800344824	0.4445556516867111	112.58922793730503
15	6.0	ltm	140	diff_vonmises	0.20007922721578247	11.463695287703372	0.42210603472842423	98.2247662004584	0.408004473830984	99.0574196023643	0.06367014506788848	-0.2523987872727531	0.3160689323406416	128.860879196412
16	6.0	perception	140	diff_vonmises	-0.12088084505270616	-6.925962245494921	1.7572626171061192	1.4737177083246653	4.7417258769205006e-18	2.394013156377726	0.3218208535728318	-0.36010109525834255	0.6819219488311743	103.01139990203004
17	6.0	wm	140	diff_vonmises	-0.023470582317170082	-1.344765309488226	0.5217905011664318	166.60810722714828	0.5099802962780398	167.80409662819608	0.07130759313628232	-0.32605292040964784	0.39736051354593016	116.60887456468792
18	7.0	ltm	140	diff_vonmises	0.06242066634142478	3.576440735757953	0.9667615060387693	97.781568351711	0.9358095295673833	99.30865495964737	0.07143930205966598	-0.3667232396827238	0.4381625417423898	83.90168120537814
19	7.0	perception	140	diff_vonmises	0.023422916555016878	1.342034262489573	1.5141942996622113	3.424649228534598	0.3138593607474761	4.8013240035772125	0.47124692007927527	-0.4854690650990314	0.9567159851783067	94.73937368436583
20	7.0	wm	140	diff_vonmises	0.1132042546228451	6.486126012813363	4.394592607189831	0.446413856351139	6.426448139980421e-26	2.2297442245560943	0.006279968292243032	-0.35481976785610664	0.36109973614834967	65.2397404218338
0	1.0	ltm	141	diff_vonmises	0.029062948651878057	1.6651842979580382	0.9931885537221185	167.1535309233263	0.9770696436122509	168.43913840860714	0.07659160753345873	-0.3152350444427974	0.3918266519762561	82.84276152344194
1	1.0	perception	141	diff_vonmises	0.06486920867647845	3.7167318775156364	8.359470863951271	0.5712859977110776	2.0277187706503664e-22	1.9880203695309486	0.33203011172185426	-0.3164032332142789	0.6484333449361331	47.000151450178834
2	1.0	wm	141	diff_vonmises	0.11220909517682111	6.429107576613611	6.335025831032546	0.3081904647680386	4.1036183839820954e-21	1.5807965327463	0.051186895916684405	-0.2515906299704682	0.3027775258871526	54.117114914971864
3	2.0	ltm	141	diff_vonmises	-0.10343275842338755	-5.926260521056321	2.1289263435798174	1.833764053687219	0.7530968957981844	2.458144790705089	0.2579190248038542	-0.22434939014843575	0.48226841495228995	74.1263395616352
4	2.0	perception	141	diff_vonmises	-0.029854733211931408	-1.710550211532718	6.883361467477088	1.0184707767203998	1.1699539186373454e-19	1.8208587447472488	0.7552691005482148	-0.2897975723874736	1.0450666729356883	51.873982560440055
5	2.0	wm	141	diff_vonmises	0.04906837808343083	2.8114109717328137	5.84366688591464	0.3897787753666336	0.17751106229153107	1.294173304915048	0.12302787626570202	-0.20941098803576141	0.3324388643014634	53.534259676974585
6	3.0	ltm	141	diff_vonmises	0.13020711916678038	7.460318390813484	1.3344654989273959	177.6543696933995	1.3206742990308327	178.03694290611983	0.28966817304380754	-0.18526895274684207	0.4749371257906496	77.92687815946746
7	3.0	perception	141	diff_vonmises	0.031961226214376894	1.8312433701466853	4.762766919915289	1.7477215601599894	0.17299198099791163	2.27053653206475	1.0502150036506959	-0.34606965979973076	1.3962846634504267	60.72123410338352
8	3.0	wm	141	diff_vonmises	0.0760670184875585	4.358319119480708	2.1678472922099448	1.2633591765649068	0.5436264856643744	1.9900079390580783	0.1768367813880657	-0.21643403951705892	0.3932708209051246	75.95015774445869
9	4.0	ltm	141	diff_vonmises	0.08512401400245014	4.877246737552915	0.8476812114224812	129.63119854811524	0.8336023161270469	130.59281759249885	0.05017305803227856	-0.23184100763865345	0.282014065670932	89.75723863770534
10	4.0	perception	141	diff_vonmises	-0.11131976354821142	-6.378152627706781	2.730035644884217	2.2966933768784523	0.12978095356302455	3.6247752951000356	0.7707304519383378	-0.5147264809298385	1.2854569328681764	79.07933389191814
11	4.0	wm	141	diff_vonmises	-0.07921198246675451	-4.538512282209309	1.1142854729976417	186.0989580208622	1.0979481113902285	187.65809072821966	0.007250664084892833	-0.36457506275215223	0.37182572683704507	75.79952124395004
12	5.0	ltm	141	diff_vonmises	0.0822328130396736	4.711593124661659	1.757254396596761	1.2569167847141312	0.1426474314142513	1.8894212320639314	0.25437139809390547	-0.24187170227365085	0.4962431003675563	95.93039928317697
13	5.0	perception	141	diff_vonmises	-0.029932729988482586	-1.7150190976447255	2.632586589141941	1.8878238742900848	1.3114456202479604e-14	2.312468455366143	0.7786859696201438	-0.36211354459713435	1.1407995142172782	84.76822288652369
14	5.0	wm	141	diff_vonmises	-0.08505386622150639	-4.8732275657626305	0.6151623492020514	133.0687213746274	0.6023202552517539	133.67986638933272	0.16114657867640148	-0.22322994760164327	0.38437652627804475	111.99980449595154
15	6.0	ltm	141	diff_vonmises	0.23551721302685194	13.494142309122148	0.5976755707332003	142.57386933019714	0.5887439039764567	143.08373791405316	0.1065322370828099	-0.17333062391553078	0.2798628609983407	112.57572141598791
16	6.0	perception	141	diff_vonmises	-0.19976673136516732	-11.445790594347773	1.7516814950496329	1.6727502110370474	2.1892585374461976e-15	2.1713512115007583	0.4505960897779382	-0.3216169829942847	0.772213072772223	103.10722750775084
17	6.0	wm	141	diff_vonmises	-0.09416984321306993	-5.395534573517586	0.8207370280169431	104.40382695183926	0.7990027209089751	105.07783452627167	0.2287528916808732	-0.24205469467193552	0.4708075863528087	97.63597008719215
18	7.0	ltm	141	diff_vonmises	-0.04089256110190925	-2.342971164620239	1.0379640928610696	119.48956231569302	1.0128735172481258	120.55448598631546	0.19933166736426244	-0.30775768676665116	0.5070893541309136	84.3326833251011
19	7.0	perception	141	diff_vonmises	-0.0405464199996581	-2.3231387403452417	2.0494195970035465	3.5797502314450416	0.4844110492700484	4.75160792047817	0.7155311359957188	-0.487824144829255	1.203355280824974	81.14407435195812
20	7.0	wm	141	diff_vonmises	0.26547357850874453	15.210515620785976	9.550016831794414	0.5375392257465256	1.7306749477386033e-17	1.6699802413415692	0.38775537087273537	-0.26578560696178716	0.6535409778345225	43.93314254152696
0	1.0	ltm	142	diff_vonmises	0.22905723359977764	13.124012752209453	2.8122518216580534	0.8505080481705939	0.16944719352095153	3.243256891256211	-0.07033958551338404	-0.4802812678220124	0.4099416823086284	72.31024864443
1	1.0	perception	142	diff_vonmises	0.05598463574473797	3.207683345750734	4.7210860621031	1.251099878946358	0.24448254667928881	3.5629887645552727	0.33864434473477145	-0.5633973096664155	0.902041654401187	58.23723245014841
2	1.0	wm	142	diff_vonmises	0.1850009604912618	10.59977424201579	3.509446572623557	0.5197745899152449	1.056769956183704e-12	2.7594154098024037	-0.06735787003727955	-0.43884183820720496	0.3714839681699254	73.21595417920676
3	2.0	ltm	142	diff_vonmises	0.10878587184888461	6.2329713275921215	3.530982977717485	1.0776949348497928	0.5557703308041799	2.267492155456221	0.19038399070696732	-0.33000325731177066	0.5203872480187379	61.72039201454919
4	2.0	perception	142	diff_vonmises	-0.0470364834592119	-2.694991985349749	7.014516266201681	1.215933538260007	3.535718639026436e-21	2.2279421533829873	0.905425667255259	-0.35458698867497174	1.2600126559302307	51.37753955443003
5	2.0	wm	142	diff_vonmises	0.030155048067191832	1.7277569852642225	5.385798213050634	0.558450873277232	0.08654197473967744	1.9119076635039136	0.172557399727702	-0.30251717105929427	0.4750745707869963	56.923410969720464
6	3.0	ltm	142	diff_vonmises	0.2547181313095715	14.59427388949756	4.4906891632130606	0.5309402789727106	6.054539098904837e-18	1.2420256455853218	0.23692283750412704	-0.19761986695720318	0.43454270446133025	64.51785976615554
7	3.0	perception	142	diff_vonmises	0.028002163591315837	1.6044057910172935	5.134695469434375	1.7047884870558005	4.8483017486884596e-20	2.527273805381967	1.0969460127170882	-0.4021761168504063	1.4991221295674946	60.240155667571656
8	3.0	wm	142	diff_vonmises	-0.034354782998935275	-1.9683840719267847	3.5584658216796967	0.9129766467442382	0.2326082289461651	1.9398802468936087	0.27381713056275675	-0.28589812130557196	0.5597152518683287	67.11928838728844
9	4.0	ltm	142	diff_vonmises	0.6414562994892957	36.75273870281639	0.43573219919817574	175.095339513034	0.4253892862392265	176.53835241842725	-0.0016968647926134395	-0.3601877911826925	0.35849092639007907	122.24843004781636
10	4.0	perception	142	diff_vonmises	-0.06942053972644371	-3.977503937845491	2.986113580854169	2.1952426368904545	2.4881369159092243e-22	4.6048814241358595	0.7011019621274138	-0.7292350270568375	1.4303369891842515	79.52135625934775
11	4.0	wm	142	diff_vonmises	-0.0006796929641806633	-0.038943538212288645	1.0622850962098622	252.10614339601088	1.0465278958915203	254.53530177470583	-0.10382821126270869	-0.5299017838707769	0.4260735726080682	74.97290082675383
12	5.0	ltm	142	diff_vonmises	0.10720868348695964	6.142605090956669	1.5964676665669109	1.0410013109234113	1.6512716955920024e-15	1.7438510940210914	0.1907567315681884	-0.2583180875536236	0.449074819121812	107.49881023923032
13	5.0	perception	142	diff_vonmises	-0.04134906634802265	-2.3691269885481177	1.8382434614575287	2.534556098031823	1.0414790333621178e-14	2.679176040677342	0.8159083981415756	-0.3949566186723301	1.2108650168139057	100.93425562091726
14	5.0	wm	142	diff_vonmises	0.1011780555588599	5.7970755628628305	0.7783407662755895	106.8115561082901	0.7553117869435934	107.46738321041887	0.27613883237266634	-0.26367720239382386	0.5398160347664902	101.19348780872622
15	6.0	ltm	142	diff_vonmises	0.5353137938287051	30.6712211015211	0.7006110903879624	120.37091254577422	0.6885894662638028	120.59688380146162	0.21192555655038348	-0.15197827051783364	0.3639038270682171	108.79364560048975
16	6.0	perception	142	diff_vonmises	-0.0271280047030784	-1.55432017609744	1.508731164143213	1.9240444913226251	1.9246557015569162e-14	1.9468947546610567	0.5264455076188788	-0.2689378616240086	0.7953833692428873	110.19129399933507
17	6.0	wm	142	diff_vonmises	0.164905044398883	9.448363064473453	0.7305587546843388	175.63125789379197	0.7194089427248906	176.15329229157527	0.2230960185340365	-0.21650359607039604	0.43959961460443253	104.17650352964358
18	7.0	ltm	142	diff_vonmises	0.0026598892240971626	0.15240042651309466	3.4860186166698988	0.8360629785134898	0.2145561971860865	2.4398208844711102	0.12014563778982057	-0.36640341255500625	0.4865490503448268	66.61071698675036
19	7.0	perception	142	diff_vonmises	0.07564181556797521	4.333956786751946	0.9433360771078627	307.18597575271536	0.9263916937424911	308.38956075808085	0.5949380949618046	-0.48895016775974653	1.0838882627215511	92.00131475095313
20	7.0	wm	142	diff_vonmises	-0.1616945461126666	-9.264415062539268	0.2706405034756895	5.0497670307749285	1.2545883344662686e-17	6.666112373359797	-0.02649022282567426	-0.45888643644382754	0.4323962136181533	164.07863040855392
0	1.0	ltm	143	diff_vonmises	-0.05979678346809232	-3.426103321179344	0.9095599954138256	268.00216679170995	0.8949596303756244	271.2974133020269	-0.3151465690333879	-0.6486152310103748	0.3334686619769869	75.6604768050864
1	1.0	perception	143	diff_vonmises	0.0780207151204059	4.470257690991785	10.285261814795687	0.8085315519464235	0.004667929666752898	3.6665758169217226	0.4346553417925152	-0.5838229074682263	1.0184782492607414	42.26190589159941
2	1.0	wm	143	diff_vonmises	0.034530202543119254	1.9784348714526352	4.97703704595749	0.38983558664126583	0.0835195596272174	3.8022436594165443	-0.319500371247709	-0.6090637101265257	0.2895633388788167	56.633138165992506
3	2.0	ltm	143	diff_vonmises	0.07780314477677759	4.457791828554671	3.234325916007074	0.6123733850217428	0.06130650872815484	2.399505138968846	0.012836964689248331	-0.36838941142692166	0.38122637611617	72.69591995861748
4	2.0	perception	143	diff_vonmises	-0.018495362150522877	-1.059706191790967	7.826869796014717	1.2956139041931367	0.18594202528010295	3.093861883718863	0.8334881190526965	-0.5128947683880122	1.3463828874407087	47.17697623359743
5	2.0	wm	143	diff_vonmises	0.08285986850867237	4.747520756555885	4.8287162948560045	0.432754925477413	0.06267669096454212	2.4665966624534574	-0.049232053349255955	-0.389889905698783	0.34065785234952706	59.59232843530614
6	3.0	ltm	143	diff_vonmises	0.19725928624304512	11.302124571489506	4.356211117288643	0.4370195014608217	0.1412169973379102	1.2983698276880073	0.11511595523039464	-0.20156466085701757	0.3166806160874122	62.01795935889706
7	3.0	perception	143	diff_vonmises	0.06455580116877935	3.6987749500567637	5.467254684318191	1.8013837596233107	0.15817229403296437	2.5488522648900434	1.165604568972209	-0.39761525030307265	1.5632198192752815	56.85295473883565
8	3.0	wm	143	diff_vonmises	-0.09046637173165653	-5.183341288085536	5.708315734634493	0.33479169005146187	0.0951860420151477	1.5278008255918096	0.04459340482808244	-0.24414680080744172	0.28874020563552416	54.78388304634899
9	4.0	ltm	143	diff_vonmises	0.18676006184697674	10.700563325433997	0.454703983646039	136.49159545749228	0.4435098746976078	138.36937266417758	-0.16049141255708577	-0.3642678834681128	0.20377647091102702	111.0230218015954
10	4.0	perception	143	diff_vonmises	-0.020974053148091334	-1.2017247246687113	2.970108957394728	2.243728705766796	0.20931605370550507	4.411305871133778	0.6050033562813106	-0.6249836098576427	1.2299869661389533	73.36921726782518
11	4.0	wm	143	diff_vonmises	0.15774307891616468	9.038012669295316	0.6537598966399323	122.07012590060609	0.6370799741581376	124.27226729220203	-0.21340990383095715	-0.4099945893995631	0.19658468556860598	89.07772464264144
12	5.0	ltm	143	diff_vonmises	0.23255582494634636	13.32446727060883	0.7656995128121211	116.79154280964174	0.7417938469520639	118.48378372414415	0.037979082378434725	-0.39089826452763354	0.42887734690606827	93.6713443725281
13	5.0	perception	143	diff_vonmises	0.04922492167226606	2.8203802586829037	2.777898465616147	2.1582841487764757	1.3757591406891925e-14	3.797931573358514	0.748080515979749	-0.5992318906513754	1.3473124066311244	82.49659593489628
14	5.0	wm	143	diff_vonmises	0.029364072360193935	1.6824374155558666	0.43995482566304545	207.85898793042867	0.4281147323356815	209.867490806945	-0.01407201222735921	-0.4927048231397002	0.478632810912341	123.20387770690891
15	6.0	ltm	143	diff_vonmises	-0.3662881587375985	-20.98676558128234	0.0001564149398046856	6330.873309951968	8.713456101642424e-31	6332.554101985982	-0.10989810721821414	-0.4251022881676363	0.31520418094942215	176.1900599533725
16	6.0	perception	143	diff_vonmises	-0.16014254913289197	-9.175492185781131	1.255342353675027	2.0472469984359667	3.905666183328771e-14	3.600413036407148	0.223999420343721	-0.5082944527773148	0.7322938731210358	118.53958589994632
17	6.0	wm	143	diff_vonmises	-0.18243315503140775	-10.452649826555504	0.3455685258695523	184.50171860098186	0.33377593022743285	186.35402521967322	-0.006914838486437702	-0.4850887664859833	0.4781739279995456	135.83071060306298
18	7.0	ltm	143	diff_vonmises	0.17027137581775945	9.755831206243522	0.9699318694386303	145.05384383121466	0.950235118320703	146.73208669627866	-0.0154554357073593	-0.37364632471958004	0.35819088901222074	80.8469690652401
19	7.0	perception	143	diff_vonmises	0.006660412989921185	0.3816135541365936	0.9116780444108831	76.30226609039738	0.8513352800779239	77.76548087951139	0.4189126574679456	-0.48274822243362703	0.9016608799015726	92.85237225514697
20	7.0	wm	143	diff_vonmises	0.21736888231723464	12.454319554253415	1.4681942500551557	2.1023411753642565	0.4873461410857197	4.063952189996846	-0.09425792587079529	-0.4030560861823307	0.3087981603115354	80.0443880703522
0	1.0	ltm	144	diff_vonmises	0.5612071812728244	32.15480291936617	0.0003790562354684954	2755.2718608047985	8.09704766926464e-30	2758.2594430559843	-0.30925144349725997	-0.641694019579802	0.332442576082542	170.6432364677794
1	1.0	perception	144	diff_vonmises	0.014029321855966325	0.8038209317775135	9.269496117715326	0.7837736049465479	3.6724539710981544e-16	3.404899230643118	0.396496437149626	-0.5419065349487845	0.9384029720984105	44.6011083479286
2	1.0	wm	144	diff_vonmises	0.019475373361166264	1.1158566980363394	4.922626291738589	0.40803629831938226	1.1626021356259051e-17	3.6029266488949876	-0.2225353821379149	-0.5734049889512121	0.35086960681329715	61.54847721287078
3	2.0	ltm	144	diff_vonmises	0.17933688569594078	10.27524666139747	2.554445233948751	0.6487703823451045	5.4047194049508e-16	2.8303033833644626	-0.06324586014579581	-0.4481168041083058	0.38487094396251	86.04219021643564
4	2.0	perception	144	diff_vonmises	-0.032103634037824326	-1.8394027373998674	7.711629055713235	1.2365756833265777	0.11596589909790098	3.4742708696257156	0.7273633881115503	-0.5649692634338235	1.2923326515453737	47.8566017471876
5	2.0	wm	144	diff_vonmises	0.027122738211622865	1.5540184283641965	3.5696066846053602	0.6227549051346715	0.041843297035090356	3.0374813260193223	-0.05416978696754632	-0.47301617703713805	0.41884639006959173	69.84649172669796
6	3.0	ltm	144	diff_vonmises	0.2562880189831623	14.684221827503922	4.092387145879737	0.5075348353363182	1.472762986590906e-14	1.9285013425225246	0.08815444572921172	-0.30682033142248266	0.3949747771516944	67.66335963150448
7	3.0	perception	144	diff_vonmises	0.030478526267271964	1.7462909208933024	4.823309109684859	2.1844364590067507	0.14336423275523075	3.562726357554186	1.2069944921295428	-0.5492926970564466	1.7562871891859895	60.310468172007404
8	3.0	wm	144	diff_vonmises	-0.17311843610467925	-9.918955744703332	5.690491544504543	0.4373931651345966	9.138062760077915e-18	2.352270854330109	0.031832638545639946	-0.3743708988967064	0.40620353744234633	57.15329291323428
9	4.0	ltm	144	diff_vonmises	0.10754140926069937	6.161668873527181	0.44176458522900647	62.4179948019582	0.4050975349160669	64.89164354969462	-0.14489478565093705	-0.527534567252121	0.38263978160118395	119.73226273493994
10	4.0	perception	144	diff_vonmises	0.026958525772226016	1.544609748643209	1.8651796150999578	4.316566466025336	0.42873787893170057	7.084291043355289	0.48034953600371555	-0.7612254365470417	1.2415749725507572	82.21549910269752
11	4.0	wm	144	diff_vonmises	0.322420953839427	18.4733598815815	0.5614286743705639	153.21795913590913	0.5462560260592247	156.16136086805744	-0.3140296469439363	-0.5343141759269798	0.22028452898304351	94.07714805156914
12	5.0	ltm	144	diff_vonmises	0.27716027758458006	15.880114154270792	1.7100236474221409	1.607872906720415	0.2510100809175378	3.155869512865209	0.11867041529038891	-0.3784756422869135	0.4971460575773024	89.10110684181433
13	5.0	perception	144	diff_vonmises	0.06122100390014102	3.507705141032033	2.2450934016724005	2.299614703483102	8.64060445132946e-22	3.9050569539287516	0.6500555859928734	-0.6072416431277864	1.2572972291206597	91.75228208436266
14	5.0	wm	144	diff_vonmises	0.003927299240790743	0.225017671382242	1.3729268026432753	1.3010843906348522	3.5383037325586768e-12	3.3778396415567116	-0.003333714003368793	-0.503302744605854	0.4999690306024852	114.57207479651024
15	6.0	ltm	144	diff_vonmises	-0.08122784282944526	-4.654012573079201	0.0002618299509955038	3967.898112332744	1.9055275354855407e-29	3969.235273824625	-0.0474596652920809	-0.37815041199633015	0.33069074670424925	179.7971764685733
16	6.0	perception	144	diff_vonmises	-0.09897817721752467	-5.671031818462081	1.7237826908991243	1.3525368483875202	1.8195504850049415e-16	2.8235085527001207	0.18814423033518346	-0.4290863926028658	0.6172306229380493	103.92374383343264
17	6.0	wm	144	diff_vonmises	-0.13382720162233466	-7.6677338370061	0.17220009981023884	142.9332496263485	0.1630323928382786	144.84285523957794	-0.13094492749856457	-0.44625492064365346	0.3153099931450889	157.74529454863153
18	7.0	ltm	144	diff_vonmises	0.08635495490778478	4.947774456258602	1.00446975223686	84.7754749626435	0.9654247058249261	86.72445287878611	-0.026266374013232507	-0.4334904111260034	0.4072240371127709	79.53426358397596
19	7.0	perception	144	diff_vonmises	0.0765390835084179	4.385366452831708	0.6210025771940526	138.53601388589612	0.5929387954862948	140.02995952708824	0.34157579156749307	-0.5182965473378953	0.8598723389053884	111.61170507920892
20	7.0	wm	144	diff_vonmises	-0.28812825125723274	-16.508532755524392	4.925109736090191	0.358483663736356	9.870512775199729e-14	2.8521847396610336	-0.14563331963969256	-0.45392303532915296	0.3082897156894604	61.540484427592105
0	1.0	ltm	145	diff_vonmises	0.06603103287034297	3.783299500360262	3.4183985290743957	0.720320208307975	0.09959738793304514	3.0426512341343823	-0.0258253975122541	-0.46662967866067695	0.44080428114842285	69.05078699806222
1	1.0	perception	145	diff_vonmises	0.03785523219064584	2.1689450370117807	10.05346684974129	0.7201536344882341	0.09423865165207121	3.2332577480197404	0.33483829638840334	-0.5323870445565381	0.8672253409449414	41.94691324299728
2	1.0	wm	145	diff_vonmises	0.1766952062223493	10.123889576734337	3.506304915683641	0.5150746143803997	0.0071267119937517	3.0258566624335503	-0.11671847549393777	-0.4782282909468747	0.3615098154529369	72.49073310634887
3	2.0	ltm	145	diff_vonmises	0.018768307811516154	1.0753448262022902	2.9255904767510392	0.9527033870709823	0.3703600955352524	1.9680388835557439	0.17662812188281868	-0.27023207012630596	0.44686019200912463	69.8071415817302
4	2.0	perception	145	diff_vonmises	-0.052927200844447075	-3.032505229828064	7.459757778255903	1.0448889440125964	0.04190593681861873	2.034823075774273	0.7805555716111128	-0.3237853034811729	1.1043408750922856	49.42832769725612
5	2.0	wm	145	diff_vonmises	0.03999400134047658	2.291487482649865	5.602530746180436	0.4711517382092224	0.07570878828604848	1.8512558119198586	0.11659258078175139	-0.2938780342973891	0.4104706150791405	55.872086908168654
6	3.0	ltm	145	diff_vonmises	0.14819802531637255	8.491121382801074	1.9308289645770282	1.1502440280072563	0.26060609615772845	1.9043949470449448	0.19411200830246572	-0.22970340813804913	0.42381541644051485	86.88160101250912
7	3.0	perception	145	diff_vonmises	0.01727661969823188	0.9898773929612685	5.445076294542978	1.5625183488579861	0.005849919062953802	2.441761773003539	1.026806406101492	-0.3870779266635213	1.4138843327650135	58.35556821662493
8	3.0	wm	145	diff_vonmises	0.06373214126547098	3.651582713843041	3.1874506002117036	0.9817411524047271	0.31560427697879784	2.21597333802508	0.19371183600646463	-0.3174155760959221	0.5111274121023868	68.1509593677545
9	4.0	ltm	145	diff_vonmises	0.09476589777649809	5.429685984361533	0.8738689353939334	149.94148049854294	0.8574298204829776	151.4713137005423	-0.0111971728389193	-0.33702006620668	0.3258228933677607	85.45722538225431
10	4.0	perception	145	diff_vonmises	-0.07297610669719065	-4.181222919045406	2.8764339426132457	2.0785605853354263	8.296735281241094e-20	3.8309493425523047	0.7192700420639443	-0.6054966500647054	1.3247666921286498	81.05121885516172
11	4.0	wm	145	diff_vonmises	0.023236596986090527	1.3313589375493962	0.9782775947650746	273.3320891115826	0.9639611425221797	275.7243222334313	-0.05913617122318726	-0.5228357669619328	0.46369959573874553	79.43066973966134
12	5.0	ltm	145	diff_vonmises	-0.0016942230913294105	-0.09707183268678264	1.611523546281043	1.2131285417332818	3.637801663547812e-14	2.200257888473067	0.1986755420439585	-0.3283189059774866	0.526994448021445	107.10210555482561
13	5.0	perception	145	diff_vonmises	-0.019439635391652933	-1.113809063214858	1.9864211401545082	2.1881289961602297	1.2995885925520768e-17	2.8556075427364958	0.6696952227121116	-0.43332698707907974	1.1030222097911913	97.33456909912738
14	5.0	wm	145	diff_vonmises	-0.003186730489199572	-0.18258620747679563	0.6515444024401105	223.16350170796022	0.6402081957343001	224.23760997358085	0.18725584479595625	-0.33290839662525684	0.5201642414212131	107.01824670668886
15	6.0	ltm	145	diff_vonmises	0.4633043160176903	26.545381938008997	0.5885013805286751	158.27421217349806	0.5770660937777232	158.99450687604224	0.1537891516340082	-0.24872210745251522	0.4025112590865234	113.50201794571123
16	6.0	perception	145	diff_vonmises	-0.016469511290899116	-0.9436334876115756	1.2230006922192693	3.0614031040250604	0.1895020486878194	3.832644211544129	0.44299395335857206	-0.398496184441974	0.841490137800546	110.09839647018248
17	6.0	wm	145	diff_vonmises	0.08970940666354241	5.139970384443764	0.6872540182021653	235.35671337491203	0.6752393030076524	236.41422397994177	0.24254661531148258	-0.3494500022325582	0.5919966175440408	105.14988753283683
18	7.0	ltm	145	diff_vonmises	-0.03509353943108155	-2.0107116975769093	2.022077879918515	2.0326016550398505	0.48404118528247225	3.8757213671570705	0.1108242906532626	-0.4424977775230782	0.5533220681763408	76.15377932349867
19	7.0	perception	145	diff_vonmises	0.09620657335674272	5.512230614757112	2.293217545473463	2.060821985498125	0.1574279375100276	3.6696651081549336	0.47461564516870036	-0.49949175916405525	0.9741074043327556	84.04456919442666
20	7.0	wm	145	diff_vonmises	0.23329328828991686	13.366720807741027	3.7293214275424478	0.7126861632796848	4.5710895862861805e-22	2.6024323426591702	0.11306681726985213	-0.41388599413689314	0.5269528114067452	70.96728646408636
0	1.0	ltm	146	diff_vonmises	-0.11779827669041958	-6.749344088275345	1.9867157221218479	1.6001736834073967	0.39019354609401224	4.12265902618032	-0.11125320923702331	-0.5197925729822683	0.408539363745245	74.93780245017632
1	1.0	perception	146	diff_vonmises	0.024397397413679307	1.3978679029072145	15.573484275753751	0.7033423234078401	0.025100910767143093	3.195041405470951	0.5763928949715612	-0.5145150543931442	1.0909079493647054	34.20286299038236
2	1.0	wm	146	diff_vonmises	0.006499072970899583	0.37236945198009536	1.6378827846049349	1.1558584498870261	0.19306466998387461	4.092140893363738	-0.2545514704839178	-0.5468316648929805	0.2922801944090627	85.07319270088698
3	2.0	ltm	146	diff_vonmises	0.13226122994940254	7.578010269310048	2.4154705781434562	0.5955020807075458	5.033679890690223e-25	1.8865504891240938	0.04364974160479035	-0.29750946669928896	0.3411592083040793	88.48738761280552
4	2.0	perception	146	diff_vonmises	-0.04356719692048284	-2.496216508759024	7.967132619169491	1.1297096399807243	0.22123596960158912	2.278474555401351	0.803569922310971	-0.3808768821495281	1.184446804460499	46.76537703283216
5	2.0	wm	146	diff_vonmises	0.007768223099136375	0.44508639789655075	4.283340522420216	0.45981484765976255	0.07320983012915443	2.070821720032711	0.012745704931133972	-0.32410872427181414	0.3368544292029481	63.14521000133206
6	3.0	ltm	146	diff_vonmises	0.09433433259553269	5.4049591209074155	2.025220248237412	0.7625723042580408	0.23893233362325744	1.499425663208306	0.0976020020597212	-0.19064934069250283	0.288251342752224	84.48452321654085
7	3.0	perception	146	diff_vonmises	0.034966383213942215	2.003426182995976	5.271203642021668	1.7267170190243883	0.25515591406430016	2.313284447090332	1.0724190225528578	-0.3589566881962729	1.4313757107491307	57.173889201928574
8	3.0	wm	146	diff_vonmises	-0.013366079337545892	-0.7658199346783948	3.6607163262327505	0.6514691537030616	0.32260753253738467	1.770561821526518	0.09792823938299056	-0.2673943039152291	0.36532254329821967	63.33251652600157
9	4.0	ltm	146	diff_vonmises	-0.12013575311170109	-6.883271621926119	1.0726644514823427	186.2195847349397	1.0587110886090003	187.67458919934901	-0.024911182137458354	-0.32815181164597007	0.3032406295085117	76.15151479987696
10	4.0	perception	146	diff_vonmises	-0.01717466344890228	-0.984035730179699	2.2666658377877678	2.8755440588392593	0.36572983195833153	4.2692771223998385	0.6516914267060387	-0.5058530771088791	1.157544503814918	79.83095285414092
11	4.0	wm	146	diff_vonmises	0.10841270470935607	6.211590425444167	0.8434273047256347	197.96792379407543	0.8300942116084267	199.967917896224	-0.11495769834873215	-0.4071853331263533	0.29222763477762115	83.07843919146737
12	5.0	ltm	146	diff_vonmises	0.1640388597466964	9.398734339624152	1.2336851752336098	2.2232507529509014	0.3154061899830061	3.563512747976135	0.09821763666073102	-0.33891643271336835	0.4371340693740994	98.10466832434008
13	5.0	perception	146	diff_vonmises	0.0687824013475407	3.9409413019890285	2.5136853259919243	1.9040301660200818	4.794421548418604e-20	3.173519500474301	0.6206823886058233	-0.4977007596712887	1.118383148277112	86.7527777446615
14	5.0	wm	146	diff_vonmises	-0.03614385479352322	-2.07089033500257	0.4396170617044732	210.66967331344014	0.42870545064666976	212.37803499464826	0.02581925624861725	-0.4434371331170084	0.46925638936562564	124.47449993444033
15	6.0	ltm	146	diff_vonmises	-0.20344024338386807	-11.656267329009909	0.00023096930596844508	3522.4614559454258	1.268841559306616e-31	3523.888330360639	-0.09760361619896685	-0.3565696640115448	0.2589660478125779	178.80643047622235
16	6.0	perception	146	diff_vonmises	-0.06336811505895033	-3.63072554857725	1.55298027377466	1.7453437873035984	8.650687902936076e-18	3.331893111054227	0.24177482102431835	-0.4957109430760385	0.7374857641003569	108.82656797672134
17	6.0	wm	146	diff_vonmises	-0.18287827166120593	-10.478153130834027	0.3616508594572147	172.83525927569286	0.34752035634900075	174.62719351795198	0.05153441433014194	-0.5059390226564773	0.5574734369866192	135.048735321387
18	7.0	ltm	146	diff_vonmises	0.08977296685660219	5.143612115251126	1.1738950579322207	197.7525852987797	1.1574197093184062	199.1886040696249	0.0716906494838554	-0.3591982386708388	0.43088888815469417	75.50709847052826
19	7.0	perception	146	diff_vonmises	0.09681415539862549	5.547042501464935	2.443766527225777	1.2724007211516344	2.1457449368347066e-17	2.572294240289305	0.33047995343374253	-0.4038138464364775	0.73429379987022	87.98416358384947
20	7.0	wm	146	diff_vonmises	0.22305516547538845	12.780119580331949	0.8677597350102683	105.30765929284874	0.8425664544201292	107.025820462046	-0.029510903416735346	-0.3725037525284556	0.34299284911172023	85.37312373220249
0	1.0	ltm	147	diff_vonmises	-0.11779827669041958	-6.749344088275345	1.9867157221218479	1.6001736834073967	0.39019354609401224	4.12265902618032	-0.11125320923702331	-0.5197925729822683	0.408539363745245	74.93780245017632
1	1.0	perception	147	diff_vonmises	0.024397397620202117	1.3978679147400999	15.573484240879692	0.7033423238650056	0.02510091044887987	3.195041406478416	0.5763928944107084	-0.5145150544563287	1.090907948867037	34.20286303053936
2	1.0	wm	147	diff_vonmises	0.006499072970899583	0.37236945198009536	1.6378827846049349	1.1558584498870261	0.19306466998387461	4.092140893363738	-0.2545514704839178	-0.5468316648929805	0.2922801944090627	85.07319270088698
3	2.0	ltm	147	diff_vonmises	0.132261232744273	7.578010429444331	2.41547056959727	0.5955020810265303	5.03425552268671e-25	1.886550489441906	0.043649741036943135	-0.2975094667073645	0.34115920774430764	88.4873877635878
4	2.0	perception	147	diff_vonmises	-0.04356719663886582	-2.496216492623557	7.967132654178955	1.1297096336930632	0.2212359636214636	2.2784745491381964	0.8035699218282728	-0.38087688065212316	1.184446802480396	46.76537696568499
5	2.0	wm	147	diff_vonmises	0.007768214594886654	0.4450859106389338	4.2833410699987375	0.4598147955463076	0.07320979372916811	2.0708216668451866	0.012745710354724993	-0.3241087191981928	0.3368544295529178	63.14520721793275
6	3.0	ltm	147	diff_vonmises	0.09433432697934813	5.404958799123744	2.0252213963106858	0.7625716066391437	0.23893196746530748	1.4994249649297413	0.09760201068691332	-0.19064933172201684	0.28825134240893013	84.48451565188375
7	3.0	perception	147	diff_vonmises	0.0349663836387473	2.0034262073355147	5.271203674494363	1.7267170113427825	0.25515591102804547	2.3132844389964475	1.0724190236126359	-0.35895668735906056	1.4313757109716965	57.17388905856302
8	3.0	wm	147	diff_vonmises	-0.0133660777919039	-0.7658198461196322	3.660716493231117	0.6514691192318537	0.3226075086400659	1.7705617872527388	0.09792824110974796	-0.2673943020829553	0.36532254319270324	63.33251571176285
9	4.0	ltm	147	diff_vonmises	-0.12013619801440857	-6.883297112973552	1.0726507024281422	186.61033863055022	1.0587264338711888	188.06534298203238	-0.024911049747814218	-0.32815189736549044	0.3032408476176762	76.1514886220645
10	4.0	perception	147	diff_vonmises	-0.017174663837359654	-0.9840357524366671	2.2666656768434805	2.875544391560161	0.36572989435798525	4.269277455197067	0.651691421714313	-0.5058530819944482	1.1575445037087613	79.8309538133168
11	4.0	wm	147	diff_vonmises	0.10841276530209298	6.2115938971522615	0.8435634566392508	194.0002876244266	0.8299590714033512	196.00028174403346	-0.11495773816724864	-0.40718526536369737	0.29222752719644873	83.07843746574258
12	5.0	ltm	147	diff_vonmises	0.16403885146862893	9.398733865325823	1.233689984662926	2.223230524864678	0.31540374687864625	3.5634925207219945	0.09821767657989067	-0.33891640716867166	0.43713408374856233	98.1046431116331
13	5.0	perception	147	diff_vonmises	0.06878240141019261	3.9409413055787184	2.5136853229272833	1.9040301675828362	1.022109320482452e-15	3.1735195035148016	0.6206823882404126	-0.49770076010918696	1.1183831483495994	86.75277779761296
14	5.0	wm	147	diff_vonmises	-0.03614382748346205	-2.070888770251327	0.4395998518871881	211.32582109844697	0.42872198845815873	213.03418278684734	0.025819171858493917	-0.44343715134213113	0.46925632320062505	124.47453109848
15	6.0	ltm	147	diff_vonmises	-0.20343472573666668	-11.655951191112429	0.00021862317854167104	3721.3857764092872	5.490322321662451e-31	3722.812650824671	-0.09760390720418854	-0.35657017231369537	0.2589662651095068	178.80718913924972
16	6.0	perception	147	diff_vonmises	-0.06336811691941956	-3.630725655174284	1.5529802811981046	1.7453437825802105	8.598104133480992e-18	3.331893106121552	0.2417748219754131	-0.49571094279817085	0.737485764773584	108.82656775123802
17	6.0	wm	147	diff_vonmises	-0.18287828237509732	-10.478153744694785	0.3616753770275876	172.23034613829205	0.34749550035697635	174.02228038572147	0.05153444458524348	-0.5059391472817012	0.5574735918669447	135.0487747685374
18	7.0	ltm	147	diff_vonmises	0.08977316192259273	5.143623291709111	1.1739908395152265	195.48433863438706	1.1573250186452564	196.92035741262632	0.07169061869599602	-0.35919820036659544	0.43088881906259147	75.50708801574041
19	7.0	perception	147	diff_vonmises	0.0968141552791515	5.547042494619579	2.4437665533629462	1.2724007134596818	2.1465786402932225e-17	2.5722942324291553	0.33047995487526627	-0.4038138454756885	0.7342938003509547	87.98416311577625
20	7.0	wm	147	diff_vonmises	0.22305635107740088	12.780187510323444	0.8674568841391856	107.89639867504481	0.842863344663006	109.61455983240369	-0.02951083777502106	-0.37250392770941865	0.3429930899343976	85.3731845829962
0	1.0	ltm	148	diff_vonmises	-0.11346965603266375	-6.501332393472794	1.1240864543596467	224.22948723177223	1.1070430847438508	225.86264150821242	0.1231206706670065	-0.4165360525016908	0.5396567231686973	78.0991013872817
1	1.0	perception	148	diff_vonmises	0.002175275217873511	0.1246340892635528	13.783559835173172	0.6015632441092397	5.199654091716823e-18	2.3018214642859425	0.5162544173371323	-0.36634626415519145	0.8826006814923237	36.50014221515238
2	1.0	wm	148	diff_vonmises	0.12708306807045866	7.281323448011031	3.9314055106482395	0.4501890006898051	9.737199912827071e-20	2.1737342887649076	-0.003102342912665701	-0.3458286158701437	0.342726272957478	69.07237802413016
3	2.0	ltm	148	diff_vonmises	-0.07793346822633732	-4.46525881218603	3.6985224359995676	0.5825323448447275	3.0637641139436374e-11	1.4130124289444628	0.20409340186969055	-0.2246248565235598	0.42871825839325034	71.27599250449327
4	2.0	perception	148	diff_vonmises	-0.0563124729614773	-3.2264670346372135	7.273593421846041	1.0206633241934062	0.043621626455297574	1.793195597770286	0.7798975033995451	-0.2849685191343619	1.064866022533907	50.07598431536849
5	2.0	wm	148	diff_vonmises	-0.055279642887730074	-3.167290230457312	4.302871403134841	0.5039010501433521	0.15200246647247337	1.5147352197692725	0.12405850768376869	-0.23497842799058086	0.3590369356743496	62.110069900516436
6	3.0	ltm	148	diff_vonmises	-0.007300335664038933	-0.41827842257826614	0.9999680543151734	122.40080366506425	0.9844420954038874	122.89543673835598	0.19215524347927726	-0.17897059670758075	0.371125840186858	88.41084811624407
7	3.0	perception	148	diff_vonmises	0.03955102664539666	2.266106902190691	4.684958836486878	1.776677029310918	0.24989511209313606	2.0998877901120396	1.0653966383389977	-0.3158273840957027	1.3812240224347003	60.69808751784231
8	3.0	wm	148	diff_vonmises	-0.013644182027888993	-0.7817540451062882	2.0366540274651896	1.6037651903515684	0.6418920507178975	2.273390157340444	0.21470258386126972	-0.2183469472247333	0.433049531086003	76.57596877200027
9	4.0	ltm	148	diff_vonmises	-0.233543095631886	-13.38103371412724	1.0583457595442782	171.76296893117777	1.0460585279015733	172.67874739132077	0.07635088601435314	-0.23346829727193708	0.3098191832862902	80.78097935900381
10	4.0	perception	148	diff_vonmises	-0.06696080591606493	-3.8365715717851545	1.8295297276261566	4.241642611927732	0.5093027662702219	5.300515183832009	0.7560475762439787	-0.48715812422766286	1.2432057004716415	84.55861938949278
11	4.0	wm	148	diff_vonmises	0.016183337207214366	0.9272369204104158	1.024685167768322	195.14687052055586	1.0106069934533384	196.63213194844852	0.008389342363315677	-0.3409033495406071	0.34929269190392276	79.20486953951306
12	5.0	ltm	148	diff_vonmises	0.18860454877581528	10.806244641823493	1.513351150805992	1.5721785626679623	0.2664725074157058	2.343385911116431	0.2063383411792103	-0.25183300884596566	0.45817135002517595	95.93013729783328
13	5.0	perception	148	diff_vonmises	0.03684590795275726	2.1111150180205063	2.4363138425834783	1.9758400865106782	6.2720462414658855e-15	2.606334719573626	0.7321116711671444	-0.4060333117777759	1.1381449829449202	88.11777792585283
14	5.0	wm	148	diff_vonmises	-0.05931382952968209	-3.3984320988092165	0.5073857668730402	173.9442749710579	0.49615673170772423	174.7874578234373	0.15771189845374067	-0.2968477078380527	0.45455960629179337	121.57110978369495
15	6.0	ltm	148	diff_vonmises	0.42441394407402877	24.317127761943205	0.8245704411684359	85.92256490764728	0.8082980178509407	86.66810250585814	0.03940256763895178	-0.18014164629405371	0.2195442139330055	91.17951364673104
16	6.0	perception	148	diff_vonmises	-0.1672926071377982	-9.585160332735988	1.6270439941895651	1.7937565110716893	5.162905732062107e-13	2.565897069201257	0.4078901188328753	-0.3768515931055224	0.7847417119383977	106.58076733914613
17	6.0	wm	148	diff_vonmises	-0.21842806104810902	-12.51500602528254	0.5792380181971937	93.56214858243018	0.5544454500349333	94.54327595870323	0.18535807612659738	-0.3295269091731594	0.5148849852997568	114.80327724699791
18	7.0	ltm	148	diff_vonmises	-0.006485716411056361	-0.3716041774722648	1.3703623805599952	84.35473119975588	1.3358582454064203	85.2065224417852	0.17995875115803983	-0.2638605224518571	0.4438192736098969	73.19531621106839
19	7.0	perception	148	diff_vonmises	0.02556692941794659	1.464877150757206	3.1175858912942265	1.3620488269669018	4.298517212551985e-12	2.231538654070659	0.5565335248872223	-0.35337376566713424	0.9099072905543566	77.79953348277425
20	7.0	wm	148	diff_vonmises	0.15013491052977648	8.602096730930414	2.3439872720324515	0.6976162669512446	1.984336258493225e-34	1.7742616155036763	0.11339495003580774	-0.27873883949441813	0.3921337895302259	89.80871250289891
0	1.0	ltm	149	diff_vonmises	0.17185425586488826	9.846523552419471	2.351486816241543	0.5801868433349515	0.005157296978245968	2.323734849256815	-0.04194718186364066	-0.3649382801540772	0.32299109829043654	89.1024176183943
1	1.0	perception	149	diff_vonmises	0.05183214603091124	2.9697632106769754	9.144686054656571	0.5958239324695487	1.4479969584681493e-17	2.500993188388909	0.3103985300559478	-0.39804542049270836	0.7084439505486562	44.90798083589624
2	1.0	wm	149	diff_vonmises	0.10024710032670518	5.743735757144743	5.3777557733834005	0.34133176492809647	6.274761310050983e-19	2.237024318762731	-0.0483873695863849	-0.35602691610848464	0.30763954652209974	58.828641221868594
3	2.0	ltm	149	diff_vonmises	-0.002711947652672088	-0.1553831547585211	2.56924691849604	1.0306594371076323	0.36050386142163987	2.0727911499308713	0.15915162130096633	-0.2722287453548973	0.4313803666558636	73.63132327509541
4	2.0	perception	149	diff_vonmises	-0.026950270575806467	-1.5441367607293175	7.393461097637205	1.0434342437488164	0.031198274339914216	2.282265491791165	0.7364815561057754	-0.36285134803166674	1.0993329041374422	49.71085157341622
5	2.0	wm	149	diff_vonmises	0.0870052926414275	4.985036063654435	6.151482574041935	0.39052869437850674	0.06086301818611207	1.7855472752088921	0.07613378313384406	-0.2846390763579237	0.36077285949176774	53.525012934706155
6	3.0	ltm	149	diff_vonmises	0.20342528409492783	11.655410224889117	1.1564622667956095	132.16792728173354	1.1356485355051	132.9265481249341	0.23345125877520445	-0.2513534445104888	0.48480470328569325	81.22128896664981
7	3.0	perception	149	diff_vonmises	0.013939714225556609	0.7986867927428686	4.94916346261992	1.8385569206421548	0.12683440024677406	2.8657771017702744	1.0698615059623915	-0.4430381354321193	1.5128996413945108	59.80584918226077
8	3.0	wm	149	diff_vonmises	0.08479226194015284	4.858238744538519	3.123760084918733	0.7713493227166445	0.2520929647040385	2.091317491745022	0.0953827976070184	-0.3051883166156313	0.4005711142226497	69.0176053314363
9	4.0	ltm	149	diff_vonmises	0.22111861770599567	12.669163566320268	0.7868415462034865	187.83652784270862	0.7735168463533735	189.44113901146645	-0.001158756237792602	-0.35581955152181877	0.35466079528402616	90.67355998097386
10	4.0	perception	149	diff_vonmises	-0.07739988223457597	-4.434686586850803	2.8763975858955364	2.1079190843099695	0.06764622185703485	4.04172639711849	0.6601614001911592	-0.603486703115998	1.2636481033071572	78.4039060725585
11	4.0	wm	149	diff_vonmises	-0.05309089104466635	-3.04188398744828	0.920254998484328	197.10987952932177	0.9036918910172422	199.39793785913508	-0.11859490239756099	-0.47640945987466665	0.35781455747710567	79.99745182689696
12	5.0	ltm	149	diff_vonmises	0.062334945463821935	3.571529291255153	1.5572884536215936	1.5355713983374202	0.17284009807550998	2.485639149709241	0.21365661685415832	-0.30085904828028576	0.514515665134444	98.57489735553233
13	5.0	perception	149	diff_vonmises	-0.02863236966406552	-1.640513939209365	2.400691281593401	1.9519759952634894	5.332039865269714e-20	2.7380265336165266	0.6874391265559747	-0.4265386251853406	1.1139777517413152	88.76971405449254
14	5.0	wm	149	diff_vonmises	-0.07263245653285934	-4.161533215000245	0.6256822942801712	167.84498952148687	0.6129914931982889	168.91792217665926	0.11631418592035914	-0.3014988609457987	0.41781304686615783	107.63233904723464
15	6.0	ltm	149	diff_vonmises	0.248492964475858	14.237598103160959	0.42242251437815126	139.87174978429493	0.4115788909377075	140.62855326992928	0.10493463506333	-0.26002111547554563	0.36495575053887563	129.77067217132353
16	6.0	perception	149	diff_vonmises	-0.11684448310620366	-6.694695741373117	1.8082650218043566	1.5377497520521322	2.4055073957532087e-19	2.4274242510646933	0.3599025963604068	-0.3662797846586802	0.726182381019087	101.67860374348378
17	6.0	wm	149	diff_vonmises	0.037107800255148614	2.126120341634495	0.685556806537579	168.62273382720304	0.6717102490449831	169.70258171175644	0.1430963488713317	-0.30721054799861136	0.4503068968699431	103.27932082449453
18	7.0	ltm	149	diff_vonmises	-0.0388650127399374	-2.2268012007205886	0.9139437923085768	154.82288075238787	0.8910242393849	156.57666901101396	0.11275218049071611	-0.4304252736819514	0.5431774541726675	86.92268976860157
19	7.0	perception	149	diff_vonmises	0.007067942823060768	0.4049632936011624	1.6063603896579621	4.036428538673421	0.3930669934039312	5.731652360895731	0.5218473437704938	-0.5581845241681032	1.080031867938597	89.70411467592663
20	7.0	wm	149	diff_vonmises	0.21867322610345166	12.529052948237764	11.310262172120487	0.4734004208150553	5.4230840945733065e-15	2.350094139063773	0.25355835795543336	-0.37402909886909247	0.6275874568245259	40.34181657639752
0	1.0	ltm	150	diff_vonmises	-0.132783270800597	-7.607921006816907	1.4109886181361158	100.07037963392796	1.3909329317245631	100.45173735790429	0.20028542805045646	-0.15687497932902517	0.3571604073794816	74.70042677291534
1	1.0	perception	150	diff_vonmises	0.010419031334876394	0.5969665221029737	13.971750802666381	0.5575028295326977	2.461253042840251e-19	0.9875199270204473	0.666203492928608	-0.1571686777864491	0.8233721707150572	36.26061361646006
2	1.0	wm	150	diff_vonmises	0.06991437868463082	4.00579882590875	4.0795440943100125	0.315203605248869	3.449347251231142e-20	0.7515529323361747	0.12534911845491725	-0.11954327473243884	0.2448923931873561	67.77032811829656
3	2.0	ltm	150	diff_vonmises	-0.034584595234255444	-1.9815513430910976	4.693037665179525	0.3537865893481383	1.4648698053405114e-14	0.4285009664622929	0.22836573149959716	-0.0681731699556861	0.2965389014552833	63.073534063234575
4	2.0	perception	150	diff_vonmises	-0.023952987492749572	-1.372405090064198	8.390870579014228	0.9047049135552203	1.7521542032529996e-16	1.0066781122409276	0.868575663475694	-0.16021774466694133	1.0287934081426353	46.91235105709205
5	2.0	wm	150	diff_vonmises	0.01317607502626774	0.7549334895528669	6.895384134777546	0.2665520301664929	0.29749478070854446	0.5073403814286829	0.16741277886364797	-0.08463348683652278	0.25204626570017075	49.626859197545514
6	3.0	ltm	150	diff_vonmises	0.1445724866971926	8.283393321460375	1.7303930258011813	83.95142297737935	1.7150551503889488	83.93473996714599	0.22226106337190288	-0.06891271666585475	0.2911737800377576	71.96817321826688
7	3.0	perception	150	diff_vonmises	0.024097372496675713	1.3806777414141458	5.323240601977674	1.5127261593896653	0.43110564819922276	1.4614524829711828	1.0141222610383551	-0.222982929393935	1.23710519043229	56.43777464374912
8	3.0	wm	150	diff_vonmises	0.0113591611507905	0.650831992749263	1.9555374486685624	31.06280169711216	1.893931911800555	31.242929641765663	0.21388580660256018	-0.12078673965985898	0.33467254626241916	64.90282647765218
9	4.0	ltm	150	diff_vonmises	-0.143908518110115	-8.245350723691564	1.8186016320102605	112.51681237591693	1.8023784299713494	112.8780789798846	0.12282617921376726	-0.14044320849985148	0.26326938771361874	63.87919265065773
10	4.0	perception	150	diff_vonmises	-0.0832135776605265	-4.7677867981322795	2.5010973801312657	2.2866438030768967	0.31273519097215247	2.816499234900464	0.7498526738707361	-0.3461873543178044	1.0960400281885405	79.2819059227119
11	4.0	wm	150	diff_vonmises	-0.04779486566344131	-2.738444084909922	1.3820999524673834	124.56966394965087	1.364831990656948	125.42846470087932	0.03444719642263294	-0.22511348911814721	0.25956068554078016	68.97762222837872
12	5.0	ltm	150	diff_vonmises	0.2027171164083523	11.614835205260796	0.9517507072866355	39.17683542793511	0.9102573796742014	39.32863811953218	0.25977190421710006	-0.1345961309276995	0.39436803514479957	95.38167110700934
13	5.0	perception	150	diff_vonmises	0.02635066583522963	1.5097819397182282	3.6096843528222298	1.3704920466549533	1.6005624788025222e-16	1.542883911072119	0.7502034577486353	-0.24482824784352242	0.9950317055921577	72.17346130054133
14	5.0	wm	150	diff_vonmises	-0.08632231414965427	-4.9459042785776175	0.48362833937994915	95.43302431429976	0.4709944329140979	95.65371431634482	0.17126155107806085	-0.15944478939050732	0.33070634046856817	127.5903210495385
15	6.0	ltm	150	diff_vonmises	0.10420764640798272	5.970658332169023	0.8914890598839125	51.98388275356177	0.8742277693196913	52.2466069287797	0.08753339217461686	-0.09151109775186583	0.1790444899264827	93.33019697314734
16	6.0	perception	150	diff_vonmises	-0.2024058965245272	-11.597003619417066	2.028086440934895	1.3489436636013656	1.6578216747489735e-11	1.7406579984052306	0.4247179682108991	-0.26488215250349906	0.6896001207143981	96.32717029277435
17	6.0	wm	150	diff_vonmises	-0.2571100070180179	-14.731318272711402	1.2065324257306314	2.350602297029139	0.34643273365121224	2.8105070846767677	0.2800879035628533	-0.22756861392118483	0.5076565174840382	103.59796607384125
18	7.0	ltm	150	diff_vonmises	0.07140313159783876	4.091098084573371	1.1324293581340545	94.75282774182635	1.112936945460365	95.05364903985077	0.23564375439808316	-0.14940051689398004	0.3850442712920632	85.10392400004167
19	7.0	perception	150	diff_vonmises	-0.026289404232176065	-1.506271908417053	3.58788359846405	1.2072946945655263	6.150542460406886e-17	1.8873733879439847	0.5738625560717946	-0.29971591533133113	0.8735784714031257	72.39789481454628
20	7.0	wm	150	diff_vonmises	0.3340655972851741	19.140548804957486	5.211695354723258	0.44898154062069595	8.455657416996584e-19	0.8926598353906613	0.25593740864104175	-0.14205939256955824	0.3979968012106	59.77636820863617
0	1.0	ltm	151	diff_vonmises	0.09075465588120674	5.199858753155281	1.0875844456918267	62.60254815418822	1.028949274374111	64.98757557577845	-0.1375663628696131	-0.5120541430431604	0.37448778017354734	73.74499426530252
1	1.0	perception	151	diff_vonmises	0.07517598250610767	4.307266518349279	6.761465509832525	1.0847987844534837	0.19888541445426722	3.320794981292443	0.4642981935412127	-0.5477481779444809	1.0120463714856935	50.02826505988597
2	1.0	wm	151	diff_vonmises	0.13635259829172464	7.81242840775854	3.732175302181607	0.4240517835710357	0.03451738285811492	2.8269816326125023	-0.1517204579172306	-0.4431810621128941	0.2914606041956635	68.14607105071306
3	2.0	ltm	151	diff_vonmises	0.0998520759186764	5.72110252576004	3.680055836117782	0.8259450993387808	0.47526661574183704	1.883317058047818	0.15060694825759063	-0.280994902835337	0.43160185109292765	61.55242928901791
4	2.0	perception	151	diff_vonmises	-0.030731348860785865	-1.7607765884672006	8.508988158192427	1.1145682972842463	7.831085171391138e-12	1.9358847101621415	0.9686603076288018	-0.3081055689525879	1.2767658765813898	46.578270032477036
5	2.0	wm	151	diff_vonmises	0.05097104938204257	2.920426006943942	5.92948529108527	0.4383256704843474	0.09618835457606671	1.7015225820300472	0.11853632322313301	-0.27189795882422896	0.39043428204736197	54.061484962561764
6	3.0	ltm	151	diff_vonmises	0.23701504650881858	13.579961846052221	5.3737718631381926	0.33871626492954043	0.01592071273106822	0.8058151733994353	0.17484189117267293	-0.1273627309167684	0.3022046220894413	58.51360541379199
7	3.0	perception	151	diff_vonmises	0.04604377610385806	2.63811404359638	6.29534627015298	1.402133636054419	3.0444578048439887e-18	1.8337996401805845	1.081195120467673	-0.29185360294980983	1.3730487234174829	54.288017829306
8	3.0	wm	151	diff_vonmises	-0.01392202703984699	-0.7976733916502433	5.0624861196634585	0.5159752997200715	0.25225682519251164	1.2471272862913088	0.19895585503205188	-0.19797981091863415	0.396935665950686	56.90535218474119
9	4.0	ltm	151	diff_vonmises	0.49404508776295447	28.306698417987644	0.5809476841042372	116.9277830602703	0.5700644440900343	118.0969081589473	-0.06361415187443953	-0.23804346136903654	0.174429309494597	101.60237657676149
10	4.0	perception	151	diff_vonmises	-0.0628712884431383	-3.602259480341453	3.5270626676536954	1.852032668389709	1.7875362312509706e-19	3.6558078054091476	0.746689621509373	-0.5806920539101939	1.3273816754195669	73.03142329776247
11	4.0	wm	151	diff_vonmises	-0.01611934755396325	-0.9235705833466212	1.1158893755455987	204.60277960243025	1.1002660933604194	206.50794775891393	-0.08908614320564823	-0.4202119726812761	0.33112582947562785	72.84289760234631
12	5.0	ltm	151	diff_vonmises	0.12192704129671911	6.985904874819301	1.7378056109089952	0.8993312401569806	2.4808833486043865e-13	1.754099923038514	0.1468352794624802	-0.26599171319935466	0.41282699266183487	103.52051217002224
13	5.0	perception	151	diff_vonmises	-0.006253270726123081	-0.35828602075956023	2.4288697834970314	2.092874791926385	7.086050312247519e-18	2.4864966494223633	0.8168765814482637	-0.38631771809325266	1.2031942995415164	88.25806106245744
14	5.0	wm	151	diff_vonmises	0.1107432464967023	6.345120633837981	0.6737963755673289	153.46079285085196	0.6578686480204401	154.30978363592055	0.23025701340623783	-0.300685506754629	0.5309425201608668	107.05790666573975
15	6.0	ltm	151	diff_vonmises	0.4710463789040062	26.98896946611977	0.8414818499682557	129.40545600031814	0.827804454720663	129.91285347649367	0.18109292654199294	-0.18425939985883133	0.36535232640082427	96.31891454136124
16	6.0	perception	151	diff_vonmises	-0.053204536445308176	-3.04839538926613	1.4021379140619916	2.1071648411412545	1.1186235593649515e-14	2.397103876764327	0.4947780692481227	-0.3284510494625726	0.8232291187106953	113.58847874956358
17	6.0	wm	151	diff_vonmises	0.05527436638969358	3.1669879093892117	0.6410149111141117	191.44070518733662	0.6285868424943494	192.15450633343775	0.258270881745986	-0.29199153180259607	0.5502624135485821	110.82523711894987
18	7.0	ltm	151	diff_vonmises	0.08980285053399384	5.145324323841998	1.358323575497958	4.76003674271231	0.8163858098439218	6.080584418101298	0.07678816655434018	-0.32526304829059577	0.40205121484493594	79.08968171692342
19	7.0	perception	151	diff_vonmises	0.043011898602627094	2.4644002587751754	1.0137294844267049	64.74056593454914	0.9415048997760307	65.89975808328953	0.5027962753331714	-0.43989259807354664	0.942688873406718	89.4822766067789
20	7.0	wm	151	diff_vonmises	0.26774138644622575	15.340451444349918	2.5643247716330277	0.6139510125797426	1.2257578855578548e-17	1.939488185196989	0.05857330086989837	-0.30650312716004763	0.365076428029946	85.8547957138677
0	1.0	ltm	152	diff_vonmises	-0.09861906315642473	-5.650456098397251	1.1406970018484301	358.0280881575775	1.1265783463220902	360.89536951747783	-0.10560762560527337	-0.64422872149499	0.5386210958897166	72.64554130349836
1	1.0	perception	152	diff_vonmises	0.03423430057050466	1.9614809372722233	10.836153909353294	0.8060139958394101	1.0647849233668842e-18	3.3180203493252227	0.517656481440684	-0.528079339469788	1.0457358209104721	41.21313126732326
2	1.0	wm	152	diff_vonmises	0.087717592867316	5.02584786034406	4.461923768503708	0.39352025919439293	2.1900544860036065e-07	3.2311349079843614	-0.19321540303791934	-0.5142082258410754	0.32099282280315605	64.72723015429625
3	2.0	ltm	152	diff_vonmises	0.027121538636632313	1.5539496977800284	4.136293770774192	0.5225699370916657	7.568576232375208e-13	1.984261750424674	0.09332641617894982	-0.3157005379656379	0.40902695414458773	67.2982780283591
4	2.0	perception	152	diff_vonmises	-0.0470750375293517	-2.6972009708518105	7.574313671351346	1.1926791081964911	0.10769391199810338	2.367822232243392	0.867791082974835	-0.38175609347900796	1.2495471764538428	48.60401582272658
5	2.0	wm	152	diff_vonmises	-0.037007192993460974	-2.120355970151425	3.738801250204173	0.6249046646293804	0.15913423683699393	2.1633838764572344	0.061831472365833307	-0.3316735054514234	0.3935049778172567	65.34180036237274
6	3.0	ltm	152	diff_vonmises	0.10902980891030106	6.246947891678108	3.698717169296116	0.3974450182281263	1.058709301646977e-19	1.0773775572779607	0.1212457522583055	-0.17129056855569877	0.29253632081400427	71.26945715800113
7	3.0	perception	152	diff_vonmises	0.06737112826165981	3.8600813104276495	5.388742592614935	1.643375220988478	0.09793999142667846	1.9756378543222017	1.1368945597296218	-0.3069978134687948	1.4438923731984166	57.87551179932072
8	3.0	wm	152	diff_vonmises	-0.09507280373651189	-5.447270400577734	4.114846927413766	0.543510338980302	0.14334011938710964	1.3266934056873274	0.18188017577747845	-0.20315003580089216	0.3850302115783706	64.124523301312
9	4.0	ltm	152	diff_vonmises	-0.242284845220168	-13.881899071096022	0.6350166662465654	98.81410034566557	0.6196502973954575	100.05627840205557	-0.04639661831197728	-0.26026672915251403	0.21387011084053675	98.81657522901789
10	4.0	perception	152	diff_vonmises	-0.035626936677529905	-2.041273108602299	2.4869695647418846	2.7304765080989832	0.2686129400732331	4.298254198320765	0.7253385075198063	-0.5567423118318444	1.2820808193516506	78.83984482608142
11	4.0	wm	152	diff_vonmises	0.1275077371308991	7.305655192864055	0.8984312601378245	187.2387207579291	0.8851846512930741	188.9565809769703	-0.0769847302285811	-0.3596646416151046	0.2826799113865235	81.51454561059441
12	5.0	ltm	152	diff_vonmises	0.31446736381171536	18.017652741016285	0.6947947827900297	141.21979599753584	0.6785403148961578	142.44233516671105	0.09435782815542382	-0.3152814706890634	0.40963929884448724	100.88755521442735
13	5.0	perception	152	diff_vonmises	0.06259697226216124	3.58654232091932	2.4640223294293278	2.257452483768026	3.5701244484759386e-23	3.2086562472338063	0.8084019913619025	-0.5011213163462536	1.309523307708156	87.62596590138023
14	5.0	wm	152	diff_vonmises	0.05534442290295853	3.1710018519266954	0.5145924188820825	175.70028103593532	0.5005401897130456	176.99820597989805	0.14161364845539737	-0.3943454231718153	0.5359590716272127	119.24947205440078
15	6.0	ltm	152	diff_vonmises	0.5784860139276723	33.14480710540178	1.0454080498104024	130.620603323147	1.0293565000744036	131.68608651547393	0.025257715399185088	-0.25124544549899497	0.27650316089818006	79.24101635695666
16	6.0	perception	152	diff_vonmises	-0.1579825783513767	-9.051734976128731	1.272199127890804	2.2253097040345646	4.654379208968886e-17	3.117692000439806	0.377014254011137	-0.4276312948291896	0.8046455488403266	117.94024486758104
17	6.0	wm	152	diff_vonmises	-0.2391520296558238	-13.702401961266206	0.393387173051554	146.90885036842622	0.3784905514490938	148.15854181123652	0.11995219132123225	-0.40290860970479336	0.5228608010260256	132.67558868703122
18	7.0	ltm	152	diff_vonmises	0.061913980970048604	3.5474098024370795	1.3492344806707097	85.6169777347464	1.3168598300906438	86.67682696214118	0.07638167573864507	-0.2836386920652121	0.36002036780385716	71.00804485169982
19	7.0	perception	152	diff_vonmises	0.03895630804046094	2.2320320361299664	2.0848812919123683	2.0210107582616885	0.25354020518793974	2.879720917418509	0.48786128392762695	-0.3505028638370121	0.8383641477646391	85.8528813281412
20	7.0	wm	152	diff_vonmises	-0.006984928622755774	-0.4002069302840326	0.5217291853591676	31.0650287813274	0.4705011321361335	32.36765339192507	-0.01701177638148277	-0.30274404394429855	0.2857322675628158	114.6578286580827
0	1.0	ltm	153	diff_vonmises	0.06795113049455515	3.893312990480716	0.9184439618476105	237.75307945949038	0.9022111353413432	240.84227846381478	-0.26358333217424956	-0.6164837567447563	0.35290042457050674	76.65845698095268
1	1.0	perception	153	diff_vonmises	0.10687434394005965	6.123448845994984	8.64439251474126	0.835542536452503	0.07260823447753975	3.7430426320951278	0.3252832658584439	-0.6070817633800756	0.9323650292385195	45.31601028736196
2	1.0	wm	153	diff_vonmises	0.07217082339128932	4.135083584304917	4.907209165432888	0.403958782996098	0.09490754792159012	3.5881352853875823	-0.2797125181932569	-0.5750658242068298	0.29535330601357296	56.834871324634065
3	2.0	ltm	153	diff_vonmises	0.01405384867408976	0.8052262149408712	2.5326231843548332	1.1425690169984286	0.3839788756618326	2.5845115915439307	0.09628950476235132	-0.3430844758273888	0.43937398058974014	72.15010341838487
4	2.0	perception	153	diff_vonmises	-0.019297643966398777	-1.1056735538207478	7.543442491380385	1.238431374506943	0.1542241361500942	2.811892602405981	0.8138522761701935	-0.45966058358066647	1.27351285975086	48.2784142490097
5	2.0	wm	153	diff_vonmises	0.10331757150578157	5.919660796822377	5.787851662874114	0.39700770833753085	0.07596762017646339	2.1847346050951217	-0.002598929341090739	-0.34902611418388013	0.3464271848427894	54.51257756040815
6	3.0	ltm	153	diff_vonmises	0.18988557585733942	10.879642087036787	3.3822600668391023	0.6328585531620222	0.24734461677453332	1.432161724028979	0.15603919728817572	-0.2094829838981139	0.36552218118628965	67.97629649663264
7	3.0	perception	153	diff_vonmises	0.0566869158289901	3.247921030614473	5.634697354722584	1.6531962683044004	0.08022298547708395	2.506901532459697	1.09567318791891	-0.39289285776657273	1.4885660456854828	56.60039111363267
8	3.0	wm	153	diff_vonmises	0.04814105162547873	2.7582790794613428	4.060162216487334	0.4432161051338504	0.13466058887411936	1.6650041059042622	0.04172155413033196	-0.2584802145999253	0.3002017687302573	63.41008657880391
9	4.0	ltm	153	diff_vonmises	0.4301033706562973	24.64310789295673	0.5534245421035595	163.07709559889537	0.5421490105650523	164.9424152218631	-0.1289948215201946	-0.36874480224269846	0.23974998072250386	102.30631449121648
10	4.0	perception	153	diff_vonmises	-0.060499403044641756	-3.4663604575188955	3.5191569115391412	1.843915839560575	0.047850884063381456	4.0215503598058	0.649981342750203	-0.6180379032743161	1.2680192460245192	71.48145145599378
11	4.0	wm	153	diff_vonmises	0.050689841912270266	2.9043140057584362	0.7662017260472636	70.2786804836195	0.7291510719901543	72.62373362159667	-0.18329408139029724	-0.45620832132860656	0.2729142399383093	85.57766177091486
12	5.0	ltm	153	diff_vonmises	0.07967519848764569	4.5650526052092175	1.8027067022115768	1.2335804164336455	0.13931374024617607	2.7808360938868613	0.0912144665851653	-0.37179981940679757	0.46301428599196287	91.91127595772863
13	5.0	perception	153	diff_vonmises	0.0018380521511727195	0.10531263078713879	2.6127579045279417	2.1808621981116665	1.2932218486105045e-14	3.5362278914186276	0.7561306322284294	-0.5557153802294352	1.3118460124578646	85.0907245707941
14	5.0	wm	153	diff_vonmises	0.008668997386694827	0.49669696286755366	0.5300146059401243	220.2237373790674	0.518442926000263	221.930663983087	0.05092741441908544	-0.43274339024817365	0.4836708046672591	114.16586963785707
15	6.0	ltm	153	diff_vonmises	0.24222115007279607	13.878249607976148	0.5812434184458402	127.76353106846685	0.5645959162348503	129.22478631911687	0.0231539378101715	-0.34930712896825433	0.37246106677842583	108.01134031339029
16	6.0	perception	153	diff_vonmises	-0.11914120536005517	-6.8262882332325825	1.2369185914117165	2.2980090584077786	3.866608789520335e-17	3.6147811532079777	0.3115729652212621	-0.500579846047931	0.8121528112691931	119.26330076724034
17	6.0	wm	153	diff_vonmises	-0.011180542204373652	-0.6405978809785041	0.5551129354410042	209.66470007429348	0.5420216573575151	211.22265722209448	0.11983218335108603	-0.4305958385672959	0.5504280219183819	113.62507367699129
18	7.0	ltm	153	diff_vonmises	0.08416628647603698	4.8223729923659375	0.9307042153073342	185.99050085483205	0.9125984937817156	188.007609750144	-0.015173098011779018	-0.4473166041484298	0.43214350613665076	82.68562727705958
19	7.0	perception	153	diff_vonmises	-0.0051040090185102815	-0.2924381753573488	0.9898602314647704	327.38737552380167	0.972293789234115	329.18708645292503	0.4840852920877836	-0.5731018845778593	1.0571871766656429	87.60583532487837
20	7.0	wm	153	diff_vonmises	0.3073148493636021	17.607843850233053	3.0555366657838565	0.941302297617389	0.24570579563489156	3.0684709271337582	0.0078779250977431	-0.45321447084308464	0.46109239594082774	68.50150542705236
0	1.0	ltm	154	diff_vonmises	0.06899978131895323	3.953396256901641	2.7294098919518244	0.8121740995696921	0.27085572543008435	1.9907645326641747	0.09592869559616057	-0.27829336745507804	0.3742220630512386	72.8267712371809
1	1.0	perception	154	diff_vonmises	0.03666415423669832	2.10070129717951	9.812828653267195	0.6454624314905294	0.06937458856206327	1.994580373988126	0.4559890148950206	-0.32378237840251284	0.7797713932975334	42.825099678270306
2	1.0	wm	154	diff_vonmises	0.18199702259181574	10.427661278458137	3.4177709603580664	0.43802874796791375	1.2619461766676612e-16	1.716798530988787	0.03551442620391371	-0.27290503716042225	0.30841946336433596	74.21859693261433
3	2.0	ltm	154	diff_vonmises	0.0296197132425034	1.6970845591831996	3.1050157985966917	0.9786061847797141	0.7238282612819756	1.4421957852300193	0.23663815225151835	-0.17914632262817104	0.4157844748796894	65.19869008595359
4	2.0	perception	154	diff_vonmises	-0.03968557958738978	-2.2738162178879655	7.6209226049200165	0.9911909983914645	1.8763185988724093e-19	1.3986811802991943	0.8498006856866429	-0.222606766030265	1.072407451716908	49.257964556512235
5	2.0	wm	154	diff_vonmises	0.04622920377536392	2.6487382665786043	6.657503896067399	0.3818976924236319	0.13330411784977458	1.119844199506507	0.182347270968071	-0.18103476791883452	0.3633820388869055	51.11734790405498
6	3.0	ltm	154	diff_vonmises	0.2029489684741485	11.628119350102308	1.6715070003623818	2.410106343974018	0.9255183864109705	2.6681773581631547	0.24087201915334122	-0.13851158636745672	0.379383605520798	79.71494085194354
7	3.0	perception	154	diff_vonmises	0.015451546886596036	0.8853084235504601	5.955925703258265	1.3625818354078578	1.299921181037354e-13	1.783576654549244	1.012325108798627	-0.2838563427876889	1.2961814515863157	55.83718109207402
8	3.0	wm	154	diff_vonmises	0.06580283577829318	3.7702247700886513	3.7936768890978922	0.8316891869774385	0.501249819582806	1.447769140177483	0.2635901263180814	-0.20963206738715404	0.47322219370523544	62.274353297898074
9	4.0	ltm	154	diff_vonmises	-0.024284585958354706	-1.3914042826363862	1.3234786830973868	109.02730105515808	1.303794248787631	109.82541175780655	0.07139230567018018	-0.21635015295609072	0.2877424586262709	72.01086251993337
10	4.0	perception	154	diff_vonmises	-0.09639341781914737	-5.522936013878288	2.995109344431335	1.975374039446979	2.5088677491947723e-18	3.164546678525497	0.7887960218677186	-0.5004174235036636	1.2892134453713822	79.40456048414285
11	4.0	wm	154	diff_vonmises	-0.06738236719637113	-3.860725253952831	1.290290998937141	224.81101935961973	1.2741132915896876	226.43033653406408	0.027116793164026376	-0.4029791565477723	0.43009594971179865	70.67866584474879
12	5.0	ltm	154	diff_vonmises	0.01364818517540022	0.7819834085634498	1.545842887199458	1.1246975668754977	3.046351099667947e-23	1.5691097989097282	0.24640516701535287	-0.22719390926358143	0.4735990762789343	109.05056024670003
13	5.0	perception	154	diff_vonmises	-0.036247326391039426	-2.076818820839725	2.3992684969931752	1.7721859083675573	1.85923761935952e-18	1.8975281784232358	0.717442083485071	-0.29359891114516223	1.0110409946302332	88.79393523320229
14	5.0	wm	154	diff_vonmises	0.009954863734813177	0.570371677632635	0.7024020328641201	136.31639006194862	0.6888081042497652	136.73204598656483	0.23572024938346914	-0.20395764324055854	0.4396778926240277	107.35368276521244
15	6.0	ltm	154	diff_vonmises	0.42740164250192186	24.48831027231935	0.6917166198206904	105.9749996721205	0.6792363078178362	106.1683556197804	0.1976428995702264	-0.13922718669377154	0.33687008626399795	109.75572258115221
16	6.0	perception	154	diff_vonmises	-0.07104280673719583	-4.070452990804892	1.6055398854003973	2.005191554234206	0.11256985197755333	2.183904631054461	0.5173981502332221	-0.2731026885286871	0.7905008387619092	102.99238428992382
17	6.0	wm	154	diff_vonmises	0.029505767856203496	1.6905559694532273	0.8132257623587147	145.15734479213464	0.7968088495189883	145.60990865774406	0.3179145977219946	-0.23364148635433502	0.5515560840763296	100.39908926253017
18	7.0	ltm	154	diff_vonmises	-0.03931843024131923	-2.252780109907135	1.6813685683890283	2.3572151162524677	0.565694008590132	3.40834226559662	0.211352697089367	-0.3024917251414204	0.5138444222307874	82.33203069335761
19	7.0	perception	154	diff_vonmises	0.034805313703715285	1.9941975798517337	2.8124936913891587	1.7385063949685873	0.10129779722899726	2.9164717838812892	0.5849584936223932	-0.42396779808310636	1.0089262917054995	78.56137537196616
20	7.0	wm	154	diff_vonmises	0.31788187075002383	18.2132895776995	5.22162339770022	0.6186097457267024	2.3574230650078365e-25	1.6662446866705496	0.28373124855313814	-0.26517507909905547	0.5489063276521936	59.719802128376585
0	1.0	ltm	155	diff_vonmises	0.02956319866647055	1.693846512495546	1.0014543473915811	115.70684728792135	0.9523555821526198	119.69329302984832	-0.24951937225488052	-0.831779340861516	0.5822599686066354	76.3424812272942
1	1.0	perception	155	diff_vonmises	0.041714398755110425	2.3900589935936027	8.360041298845017	0.9535555661239097	0.07818480845129766	4.548337534166939	0.3007016539852866	-0.7385720982490251	1.0392737522343118	45.94854199366159
2	1.0	wm	155	diff_vonmises	0.1608392333509235	9.21540925112771	3.7976686199791527	0.579176451575187	0.027720436341850816	4.412379010587426	-0.28904249978053287	-0.693727267303197	0.40468476752266413	67.77343383692937
3	2.0	ltm	155	diff_vonmises	0.021869313267556985	1.253019351080471	3.276079344240442	0.9126527201972796	0.20732605190122125	2.6669687407308165	0.11158143834392509	-0.39637677017506207	0.5079582085189871	68.49018942609285
4	2.0	perception	155	diff_vonmises	-0.06336762495016626	-3.6306974674124204	6.9418289800301665	1.2663062574663324	0.08907267161402756	2.779320668206899	0.8224543963882949	-0.4443932956671306	1.2668476920554255	50.78549418714877
5	2.0	wm	155	diff_vonmises	-0.013812790431122185	-0.7914145950019901	3.7598926193750404	0.7470954734933207	0.14496243183978982	2.6609985654631667	0.06821781962229156	-0.4087735905672294	0.47699141018952096	65.46021540351975
6	3.0	ltm	155	diff_vonmises	0.1048599246284431	6.008031121269706	2.7179166234398893	0.6221539960232783	3.979989654716378e-16	1.6696899958149833	0.11926070887754026	-0.26406173864866456	0.3833224475262048	83.40840313326538
7	3.0	perception	155	diff_vonmises	0.058799205305631534	3.3689463027359245	5.11245267301441	1.7351875506895111	3.7266029476682925e-18	2.5649565334185955	1.114186307807436	-0.40817030282627287	1.522356610633709	60.37293320395531
8	3.0	wm	155	diff_vonmises	-0.041332005843607786	-2.3681494936487817	3.2600548504657456	0.8262339516777235	0.132525167446051	2.0893062685566126	0.18920572478431857	-0.3111996074996522	0.5004053322839708	71.34073392963109
9	4.0	ltm	155	diff_vonmises	0.14978278865265898	8.581921633497357	0.1595465878525828	94.88246208947614	0.1461620621343426	96.7674500696271	-0.12909120967751875	-0.44343143790524664	0.3143402282277279	159.6796092200447
10	4.0	perception	155	diff_vonmises	-0.03853227957942631	-2.2077369949192542	2.7272209481268366	2.4292885812741467	0.08173659804402753	4.707691487083226	0.6945308882931597	-0.6931457811408284	1.3876766694339882	79.8973284096619
11	4.0	wm	155	diff_vonmises	0.2070189402502286	11.861311555609062	0.7799087545001787	311.1949448505792	0.7688890669835465	313.79202087477785	-0.11829793004038436	-0.5342395735890761	0.4159416435486918	87.64085825363176
12	5.0	ltm	155	diff_vonmises	0.1473331757370568	8.441569151992615	1.8157997083168311	1.0259497202913412	1.268245302179024e-15	2.4801408899343	0.10439275479142013	-0.38151166495753236	0.4859044197489525	101.46061511217033
13	5.0	perception	155	diff_vonmises	0.02951630137247596	1.6911594954790719	1.8909291393067682	2.805867694154337	3.812330072908163e-12	3.8520380330456088	0.7860493875102983	-0.5811967352094639	1.367246122719762	99.61680781691476
14	5.0	wm	155	diff_vonmises	0.07216787790393983	4.134914820311182	0.6177015541556272	194.43518010560743	0.6015229657599118	195.96315911322	0.18971990197206168	-0.4443333691872198	0.6340532711592815	109.01381597022925
15	6.0	ltm	155	diff_vonmises	0.6128135076877722	35.11162761911717	0.8681265038354277	184.23416006560376	0.8553622544065075	185.32871843306924	0.10464578113173673	-0.2813420885911846	0.3859878697229213	90.11541511948343
16	6.0	perception	155	diff_vonmises	-0.04668682341875074	-2.6749579407669506	0.532941989479481	91.02835389346076	0.4949239211084214	91.9178599547671	0.42951553581736235	-0.46679881857686656	0.8963143543942289	123.0827309723294
17	6.0	wm	155	diff_vonmises	0.011929345598020709	0.6835011551195537	0.5103112856917615	237.48882603215583	0.4994871322877751	238.8483295238038	0.14549792031746023	-0.41215555290312267	0.5576534732205829	119.49677812405788
18	7.0	ltm	155	diff_vonmises	0.0189135340069182	1.0836656742735697	2.922102575369329	1.3239093983536643	0.565473767690576	3.1661451381550325	0.03403140038843233	-0.4416540900638751	0.47568549045230746	63.83599609472702
19	7.0	perception	155	diff_vonmises	0.10827317180662452	6.20359577901444	0.9457186973292963	191.2738447166414	0.9209499572965447	192.5512527833559	0.4833097128870705	-0.4620663087337782	0.9453760216208487	91.14922384782247
20	7.0	wm	155	diff_vonmises	-0.056773915886259685	-3.2529057667134165	0.5121682695608616	69.35655365088623	0.47917215500331783	71.38751229516613	-0.06579859689640344	-0.44874532949739976	0.3829467326009963	112.87764155562016
0	1.0	ltm	156	diff_vonmises	0.13127877266703805	7.521719613478671	3.88987710936254	0.5563561671888396	1.7029994451241734e-18	2.5853730396424184	0.009745349403231574	-0.4112987327784794	0.42104408218171097	69.45458588443819
1	1.0	perception	156	diff_vonmises	0.014066915277579858	0.8059748761734248	7.833526404719583	0.8503458877893058	0.143509097572817	3.0337187756620727	0.37880922913346293	-0.5002866690990132	0.8790958982324761	47.01812796150912
2	1.0	wm	156	diff_vonmises	0.1824684283587876	10.454670839343752	2.8984335007155626	0.6038111377126262	3.0046834087089953e-11	2.7665485184769087	-0.05258525554673665	-0.43913211609822467	0.386546860551488	80.73182071067225
3	2.0	ltm	156	diff_vonmises	0.09438516626079284	5.407871675384003	3.7391003229749877	0.7610696170039226	0.3447792135403958	1.7414143870220553	0.18397777763593026	-0.26004708527088977	0.44402486290682003	63.40324080310941
4	2.0	perception	156	diff_vonmises	-0.05607011282504081	-3.2125808216971876	7.545379627875874	1.0627718502391976	7.661114188918862e-23	1.9191970538983076	0.8385109871209038	-0.30544937828356905	1.1439603654044728	49.506188312097635
5	2.0	wm	156	diff_vonmises	0.025044770437186524	1.4349596449248014	5.657249269260545	0.5038429873616398	0.05121641113414634	1.7651232567117896	0.1709053530698204	-0.27933525615976557	0.450240609229586	56.194830513814054
6	3.0	ltm	156	diff_vonmises	0.21125039599730291	12.103756111112796	2.878852765295629	0.6632719814458288	3.08244312196747e-12	1.358566168171336	0.20806734049442985	-0.21488245263340383	0.42294979312783365	81.00276500275191
7	3.0	perception	156	diff_vonmises	0.005990586919696544	0.3432353473048882	5.396939794951611	1.5980874506508047	1.012152404472921e-15	2.462940772774844	1.0510427511711176	-0.3919595749377483	1.4430023261088658	58.7225692590595
8	3.0	wm	156	diff_vonmises	0.012383090977637935	0.7094988503451821	3.278405022732953	1.0970211140721553	0.35591666709422337	2.231060060999478	0.2642776855085451	-0.31705655386957743	0.5813342393781225	67.26912598089001
9	4.0	ltm	156	diff_vonmises	0.17350317336792434	9.94099956610869	0.827624953378793	145.22209985896973	0.8118695011311471	146.61340025187556	0.011250421878521877	-0.3130511095384172	0.32430153141693907	88.84700606232869
10	4.0	perception	156	diff_vonmises	-0.06269860409319114	-3.5923653959015205	2.7614547650153587	2.181769136174396	7.679756464305901e-18	4.073837105858104	0.7141277641787153	-0.6429284449264915	1.3570562091052067	82.7479681464101
11	4.0	wm	156	diff_vonmises	0.008055062510019664	0.4615210855381821	1.0596479272315875	295.804411250708	1.045709381319084	298.2051423334471	-0.06505742578198692	-0.5332319299941872	0.4681745042122003	76.05707675579251
12	5.0	ltm	156	diff_vonmises	0.04244468075041231	2.4319010697787933	1.4839202304171795	1.213478402880693	1.0397361245399179e-17	1.9305154797265072	0.2149294928178737	-0.2804013097000443	0.495330802517918	110.95394010759664
13	5.0	perception	156	diff_vonmises	-0.02769652052382887	-1.5868937332128583	1.8235079378727501	2.238879030335768	2.58280453604338e-15	2.5764695586574202	0.6819621166652069	-0.38158751087936127	1.0635496275445682	101.31258512033521
14	5.0	wm	156	diff_vonmises	0.04836792012197605	2.7712776868151177	0.7308797693040131	153.90097418185533	0.7147767792159389	154.675875255164	0.25007948564933713	-0.2839896300857667	0.5340691157351038	103.29398462331702
15	6.0	ltm	156	diff_vonmises	0.5196463073681137	29.77354025175085	0.5972990099671459	139.5422681642176	0.5861301053945926	139.88320158635497	0.20509565837118515	-0.18948595158508574	0.3945816099562709	115.7663706013436
16	6.0	perception	156	diff_vonmises	0.010304947525092957	0.5904300012916094	1.6263802063554011	1.8953750588802765	0.032618105024640354	2.2576485559960924	0.4911642366141863	-0.31434721566923285	0.8055114522834191	105.30673748755056
17	6.0	wm	156	diff_vonmises	0.1513794446151647	8.673403281483333	0.7123597761348014	204.05920700145734	0.7005654598270068	204.80395824312572	0.24683729210097738	-0.27859517949274704	0.5254324715937244	104.61329728886949
18	7.0	ltm	156	diff_vonmises	-0.027943643479147195	-1.6010528355733984	2.854915007356393	1.1553204939442174	0.292718941028078	2.8002166398736006	0.15083573810408146	-0.39400866421182684	0.5448444023159082	71.10067159563931
19	7.0	perception	156	diff_vonmises	0.12445727306630074	7.130876476406246	2.254670920234856	1.8909285474975146	0.07454302066773963	3.2774726362191675	0.4871070701373932	-0.47274019644859805	0.9598472665859912	88.00010243603117
20	7.0	wm	156	diff_vonmises	-0.028242590598590023	-1.6181812438150656	1.0532076059870754	1.481953959339002	4.485032560546193e-33	3.1783312797298353	0.015419790088613827	-0.44241986996652044	0.45783966005513427	126.39671249928058
0	1.0	ltm	157	diff_vonmises	-0.047258074472243686	-2.7076882151744983	2.165177873152929	0.7883788168925563	0.23602005992837816	1.6014854234926637	0.10832013010859759	-0.2086244436306221	0.3169445737392197	82.22473082013511
1	1.0	perception	157	diff_vonmises	0.010396946680324261	0.5957011646051321	15.474718957648818	0.5229928852465582	2.3103731762816544e-15	1.5218927409225447	0.5714001225874782	-0.24221675257346617	0.8136168751609444	34.44133440149966
2	1.0	wm	157	diff_vonmises	0.0868654011557425	4.977020871934869	3.686522194056368	0.36616921198686847	6.642438342143629e-15	1.3739586142291937	0.050527143661011714	-0.21850326021343167	0.2690304038744434	71.38937380874998
3	2.0	ltm	157	diff_vonmises	0.002998546828609591	0.17180407795166738	3.7320693395607285	0.43225137664842317	7.306574801884652e-12	0.8468993392620248	0.18514725036333052	-0.13460479782044382	0.31975204818377434	70.94244757100068
4	2.0	perception	157	diff_vonmises	-0.029447586871310827	-1.687222444570963	8.25372926858592	0.9141732183203647	0.056885829951344766	1.3834054901304331	0.797917040252464	-0.221122991601922	1.019040031854386	46.98417631132838
5	2.0	wm	157	diff_vonmises	0.05634790146533528	3.228496938382739	7.184912156563503	0.27506436075259955	0.06825209864727916	0.9394941798522344	0.12873378412256511	-0.1506086237448028	0.2793424078673679	49.81957984380861
6	3.0	ltm	157	diff_vonmises	0.15382874429361032	8.813737815821018	1.3189961014316578	113.35390600070059	1.3037004133837877	113.58427300518427	0.2228194717370613	-0.12763403680813568	0.35045350854519697	79.06029475013435
7	3.0	perception	157	diff_vonmises	0.006083291785812557	0.34854694487366106	5.174694015844922	1.6551942122323813	0.3382534642143048	2.0116134037884743	1.0251739189554168	-0.309746312026268	1.3349202309816848	57.25767141540368
8	3.0	wm	157	diff_vonmises	0.07672940480043411	4.396271059615713	3.2275765060278876	0.9168616177345665	0.7513228821424738	1.5243739036465482	0.17716825484395798	-0.19995114543010475	0.37711940027406277	62.70621971378904
9	4.0	ltm	157	diff_vonmises	-0.06784546231510075	-3.887258649769148	1.5779604677745356	234.69908811732907	1.566730012742636	235.45982436456998	0.1157062827943065	-0.23586408823810956	0.35157037103241606	66.65490527593917
10	4.0	perception	157	diff_vonmises	-0.07318030171566574	-4.192922431801624	2.446713683104362	2.3257597310495695	0.2542024382302742	3.210551169840474	0.7050736609296057	-0.410291852445012	1.1153655133746176	80.5479928936924
11	4.0	wm	157	diff_vonmises	-0.05994628153373349	-3.4346689293859525	1.2005240232020429	226.475431675898	1.1882161027589848	227.85375718159437	-0.004271462817726501	-0.32716971964469366	0.32289825682696716	72.4931810402546
12	5.0	ltm	157	diff_vonmises	0.09340335927022156	5.351618278527829	1.4773407235210552	1.5225016388161654	0.26513479791078576	1.9849675685659043	0.2487219330967963	-0.205370179007343	0.4540921121041393	98.63870168472343
13	5.0	perception	157	diff_vonmises	0.007947297846481629	0.45534662513680535	3.0279459703550367	1.4498435228841196	4.1692800006771327e-16	1.9182418161709418	0.6492256566183969	-0.3030598264951938	0.9522854831135907	78.9642543833894
14	5.0	wm	157	diff_vonmises	-0.12336456593483854	-7.0682689695296155	0.5549537807592483	131.5586379733386	0.5432624952680707	132.17619632528746	0.13208200482409893	-0.21912514627909552	0.35120715110319445	117.06619469230273
15	6.0	ltm	157	diff_vonmises	0.13410009987982294	7.683369755396653	0.5882561171850538	111.5047918878317	0.5778616503024407	112.00324343731569	0.0887069292400895	-0.1622673505969061	0.2509742798369956	112.96132460439446
16	6.0	perception	157	diff_vonmises	-0.13244353135776926	-7.588455370608752	2.129993564978792	1.3055705933336141	2.6097305438826296e-10	2.074328466210347	0.36939722448449563	-0.3202593450675878	0.6896565695520834	94.11834351567266
17	6.0	wm	157	diff_vonmises	-0.13298479258482698	-7.619467354533231	0.7008083817611168	130.3457369889855	0.6827449160276332	131.16466930825294	0.21824289459298996	-0.2835747035136791	0.501817598106669	104.90645182972862
18	7.0	ltm	157	diff_vonmises	0.0047917585590919656	0.2745475418816583	1.0307340161871907	134.64147570713814	1.0110190348331995	135.44326165501542	0.22554517245288963	-0.2582050711287476	0.4837502435816372	85.9677522849966
19	7.0	perception	157	diff_vonmises	0.011678533687564987	0.6691306911988277	3.2077711925374217	1.3095748641254812	2.8092743118175395e-20	2.449853949844075	0.5009480353667708	-0.38844883251891676	0.8893968678856876	76.66914379097992
20	7.0	wm	157	diff_vonmises	0.2744908247554109	15.727165773550142	7.345403908950583	0.46741469748392117	1.9546798514384047e-16	1.41164665867075	0.2714609768671369	-0.22467033683524937	0.4961313137023863	50.188311917172655
0	1.0	ltm	158	diff_vonmises	-0.02022804034340756	-1.1589813394976136	0.981992403418586	90.26648682964799	0.9522480910239995	91.70394937315265	0.031066227685382586	-0.33410310139788457	0.36516932908326716	82.11320213551468
1	1.0	perception	158	diff_vonmises	0.02718735113449377	1.5577204761467036	11.207731881182035	0.6378603259933716	6.142790590364596e-18	2.1311652595949795	0.5025316452091748	-0.33918548545518756	0.8417171306643624	40.525508859033636
2	1.0	wm	158	diff_vonmises	0.10515092642863993	6.024704296251694	4.191340731914668	0.3754665567619865	1.033749391700732e-22	1.9299845739083674	-0.01104984598191433	-0.30709883476440714	0.2960489887824928	66.83827224944162
3	2.0	ltm	158	diff_vonmises	0.01966800162470954	1.1268934845523026	4.012096180608336	0.5252582402742602	0.11515095701672808	1.2941206247315635	0.1741727042386006	-0.19811814229069516	0.3722908465292958	65.396888630159
4	2.0	perception	158	diff_vonmises	-0.03351398203036519	-1.9202097250172068	8.030740519483869	1.002636132768227	0.008810739780782999	1.7243992212525159	0.8378803024736243	-0.2740840610370208	1.111964363510645	47.88669985756931
5	2.0	wm	158	diff_vonmises	0.031416014462725544	1.8000050378361283	5.933782690931752	0.3761977604215849	0.08470671468098724	1.3612194614307822	0.12178503847650166	-0.21685224349349175	0.33863728196999343	54.32398563954189
6	3.0	ltm	158	diff_vonmises	0.17121348623870503	9.809810157198998	2.0101132638387433	1.318167691747582	0.679414459955357	1.727453073145962	0.1973075144950714	-0.15494254066911595	0.35225005516418734	77.37485631245778
7	3.0	perception	158	diff_vonmises	0.028666703734690904	1.6424811365497036	5.458747303810987	1.580390000497069	0.13998726361309496	1.988442991252377	1.07342372937129	-0.3090999369191354	1.3825236662904254	57.16248849878761
8	3.0	wm	158	diff_vonmises	0.0015883723672230465	0.0910070329370843	3.0014536542695516	0.8814073670669988	0.5043723201547838	1.591213893578449	0.18352771131282852	-0.21158736801714453	0.39511507932997303	67.599598081561
9	4.0	ltm	158	diff_vonmises	-0.06270974773161497	-3.5930038793516257	1.1369603824891643	145.8584810984027	1.1227156285568676	146.80895932911056	0.04082017549394834	-0.23390497442416347	0.2747251499181118	76.5155688266513
10	4.0	perception	158	diff_vonmises	-0.0686178096030601	-3.9315108896875945	2.816880969410863	2.1207933999140565	0.11631289938321268	3.396230771724023	0.7346359171024766	-0.4887290050455859	1.2233649221480625	78.23939368794345
11	4.0	wm	158	diff_vonmises	-0.029242857218944356	-1.6754922995491837	1.1070314874489	188.89864323304946	1.0919687417232202	190.4818083310163	-0.03567345823213941	-0.3579495395205967	0.3222760812884573	74.63579568010792
12	5.0	ltm	158	diff_vonmises	0.14200705401723263	8.136404856273732	1.8381673355847212	1.038033782186281	0.08297149000423949	1.7145830975562286	0.21281400781594761	-0.23784435584891794	0.45065836366486556	96.4737705250401
13	5.0	perception	158	diff_vonmises	0.008129515287234637	0.4657869154456279	2.6615417283097758	1.791109091843444	5.506898883438925e-16	2.2799475562945903	0.732003345647702	-0.35752355571297834	1.0895269013606803	84.30680245112512
14	5.0	wm	158	diff_vonmises	-0.014607419739245979	-0.8369435006348841	0.5746445562992943	157.11138877624253	0.5626415876263742	157.85699190123515	0.16300319424463083	-0.26249783595438814	0.42550103019901897	115.19456736913205
15	6.0	ltm	158	diff_vonmises	0.2892955192715139	16.57541228630332	0.6545562635140656	98.27763286300966	0.6413090880354891	98.82620561149649	0.09742104896258397	-0.17071709044049221	0.2681381394030762	106.91491426360577
16	6.0	perception	158	diff_vonmises	-0.1325658742537772	-7.5954651022034145	1.7664328514626488	1.5817783282265385	3.9328084940030395e-15	2.1852205552769486	0.40894860964160545	-0.32567404325359695	0.7346226528952025	102.76383175533906
17	6.0	wm	158	diff_vonmises	-0.09261541987143886	-5.3064726764655035	0.6444491856842836	154.38355568062943	0.6300749704811716	155.2014494321068	0.19951229512921742	-0.2839538188936146	0.483466114022832	109.0845491854099
18	7.0	ltm	158	diff_vonmises	0.032899978180645766	1.885029895823499	1.0948024243922798	120.98389511476648	1.0722741712617434	121.97025015663357	0.16078562381421335	-0.27793530939483446	0.4387209332090478	81.46397074985532
19	7.0	perception	158	diff_vonmises	0.016779073825135046	0.9613701143186684	2.8844342988327565	1.4763637000530618	4.420353971454986e-12	2.5393272527967183	0.5413260067610011	-0.40119349650437885	0.9425195032653799	80.9376094629834
20	7.0	wm	158	diff_vonmises	0.25919666360658583	14.85087488852951	4.229001503537294	0.5190867116495044	7.739175247774855e-24	1.6567106649239869	0.1476967995871356	-0.263586398168817	0.4112831977559526	66.5304089389893
0	1.0	ltm	159	diff_vonmises	-0.01188756048808932	-0.681107044673995	0.9987997771344437	309.6547399682252	0.9852926634627738	312.09416705941436	-0.03504533577867619	-0.5427721147773141	0.5077267789986379	79.1872972334607
1	1.0	perception	159	diff_vonmises	0.05207987750717493	2.98395717871943	9.266322235845402	0.6663720342883089	6.838178602025137e-20	3.0128718392671185	0.31822828750128773	-0.47951343898930426	0.7977417264905919	44.60789925047865
2	1.0	wm	159	diff_vonmises	0.13329319473842996	7.637137496327428	5.702908333295658	0.3785610130038148	3.63900106477248e-19	2.7287606913253724	-0.08235881652848759	-0.4342918343902902	0.3519330178618026	57.0924857694298
3	2.0	ltm	159	diff_vonmises	-0.08642975211562601	-4.952060020587268	2.580196416585486	1.2139367042607183	0.35423358662763804	2.443851174688011	0.19150727758493746	-0.32193994781932983	0.5134472254042672	73.67496334843875
4	2.0	perception	159	diff_vonmises	-0.047196892525074294	-2.7041827478193	6.761434717245892	1.1297482556726548	0.047799782908289935	2.379866576793152	0.7513996958507291	-0.3777504347015094	1.1291501305522385	51.8293534915191
5	2.0	wm	159	diff_vonmises	0.007029560887098592	0.40276417066098835	4.716767497074286	0.5143456133402954	0.12895098870261137	1.9512429629224146	0.08044335264658953	-0.3074946586640241	0.3879380113106136	59.45812152507668
6	3.0	ltm	159	diff_vonmises	0.0773969119551761	4.4345164023772154	1.0626588832897643	71.1378146875097	1.0278405645616469	71.90918351557585	0.19888738256501526	-0.24187086223195475	0.44075824479697	84.60908185467247
7	3.0	perception	159	diff_vonmises	0.051757784848589686	2.9655026287703476	4.679306762549268	1.841517224408137	0.1214556755781167	2.5090156966529142	1.0920061636838985	-0.38417178867728236	1.4761779523611809	61.66851721738615
8	3.0	wm	159	diff_vonmises	0.02563587227501139	1.4688272854945927	2.1500751303098413	1.168158998057982	0.33713178924529213	2.1863973690026	0.15551551920980872	-0.26858605835614596	0.4241015775659547	79.78958004790937
9	4.0	ltm	159	diff_vonmises	0.08121492421352067	4.653272390909571	0.4660763292221497	126.78076571130192	0.4531637596667515	128.19339955440373	-0.03232908278926061	-0.3270000832963369	0.2946710005070763	118.55762951188771
10	4.0	perception	159	diff_vonmises	-0.07687521091334555	-4.404625134512747	2.376273111556512	2.8622547105491307	0.23195235593345145	4.584167664304175	0.7292491183564828	-0.5975537310544656	1.3268028494109485	81.16604125638764
11	4.0	wm	159	diff_vonmises	0.0250329816041831	1.4342841945483207	0.8820155921977977	197.3785098706696	0.8669512146370916	199.33785077595508	-0.05308388456892743	-0.41956032001696286	0.36647643544803543	83.70821063762583
12	5.0	ltm	159	diff_vonmises	0.13802323487512327	7.908148833087438	1.8104751081058166	1.255313021561037	0.13346986578725387	2.3803583453892876	0.17862703395521934	-0.3155919417956869	0.49421897575090623	93.4962755492358
13	5.0	perception	159	diff_vonmises	0.005249016333160032	0.30074648248530506	2.283608463688543	2.30633877826009	4.0538312363633927e-23	3.160742795365846	0.7852977774523944	-0.48966517492404443	1.2749629523764388	90.99003898303874
14	5.0	wm	159	diff_vonmises	-0.030592708859961727	-1.7528331015482872	0.5604884115093233	200.5461966321976	0.5492050283426076	201.6584468895969	0.1414623029109663	-0.33790056080083275	0.47936286371179904	114.62327727294267
15	6.0	ltm	159	diff_vonmises	0.3761940330512693	21.55433037184273	0.682829986458012	125.52965273302952	0.6697714533627683	126.45700141081247	0.053512493666076466	-0.2316917173085784	0.28520421097465487	100.9238997930247
16	6.0	perception	159	diff_vonmises	-0.17156257033775824	-9.829811202769873	1.4402660620424435	2.0673442889766167	1.0473489643940248e-20	2.8966847936074824	0.41271298958295904	-0.4120002828609663	0.8247132724439253	112.24586005287816
17	6.0	wm	159	diff_vonmises	-0.10802960397293417	-6.1896403701188385	0.6266866883594282	146.33520264944448	0.6104060509479907	147.4289147914826	0.15909332055951353	-0.3284105192829365	0.48750383984245005	108.76572712385958
18	7.0	ltm	159	diff_vonmises	-0.016999395463645112	-0.9739936143407022	1.3798560842143726	8.12455572239429	0.9922695950243262	9.523360863833723	0.10602566891107612	-0.3603285820354003	0.4663542509464764	75.81896061447733
19	7.0	perception	159	diff_vonmises	0.003037134196181919	0.17401497125608176	1.3043585106185278	11.25768526182716	0.837305409095241	12.453664360404172	0.6132490664816346	-0.48089900482787307	1.0941480713095078	86.14953449052283
20	7.0	wm	159	diff_vonmises	0.21131990630733027	12.10773875851001	4.048882553792212	0.5968305268354748	4.560476087163971e-24	2.187253877839122	0.11381249809757582	-0.34797173848857776	0.4617842365861536	68.03215928269788
0	1.0	ltm	160	diff_vonmises	-0.07184723763439553	-4.116543486124357	0.8956354603636756	118.45250650667447	0.8639491668682103	121.85501729415554	-0.3592135721123668	-0.6585386654742784	0.2993250933619116	75.07879346058894
1	1.0	perception	160	diff_vonmises	0.06688221233744278	3.832068491433276	11.316037240707898	0.9134396090175281	0.08223946646344192	4.003372144797093	0.5210661333136373	-0.6585921553925816	1.1796582887062188	39.70806981812032
2	1.0	wm	160	diff_vonmises	0.012480178989913661	0.7150615836898956	2.139290231939784	0.8971183121466324	0.19569635392859155	4.725042988447514	-0.4239145968906686	-0.6893077564682897	0.26539315957762105	73.62812551376899
3	2.0	ltm	160	diff_vonmises	0.18720862270740385	10.726263969591228	3.449521245335042	0.4698388026758695	9.632728162675583e-14	2.122675941264925	-0.0049301251193137885	-0.33749852475203546	0.33256839963272167	73.86396786777533
4	2.0	perception	160	diff_vonmises	-0.024272866613204484	-1.3907328136206214	8.321622228583557	1.2814708380122597	0.2472517081832912	2.8709793124539584	0.8747240808179916	-0.4880581933517387	1.3627822741697302	45.54941034137505
5	2.0	wm	160	diff_vonmises	0.09617713577327353	5.510543965465263	5.231419652001043	0.3954268676850556	0.035664730157672436	2.4335525148024275	-0.050069939600300484	-0.38544853497972387	0.3353785953794234	58.150801475613804
6	3.0	ltm	160	diff_vonmises	0.2137033241036751	12.24429853905694	4.928666348774541	0.303285566063861	0.020255448198717354	1.07128583147615	0.08699885178445907	-0.1690889886359658	0.2560878404204249	60.83383716961424
7	3.0	perception	160	diff_vonmises	0.0517070314428476	2.962594672825411	6.045073677854762	1.6269914103478584	0.15688272654134303	2.3415157928255987	1.1265781264542996	-0.3700691622480079	1.4966472887023075	54.15473189002222
8	3.0	wm	160	diff_vonmises	-0.05882044637828864	-3.370163326551508	6.170039912382695	0.35817121108981825	0.19584246923944687	1.5688821232874364	0.04624098278115513	-0.2589069103542352	0.3051478931353903	51.35766033549726
9	4.0	ltm	160	diff_vonmises	0.09967596982082154	5.711012389606439	0.7708705853544664	159.82845497389408	0.7581876243941666	161.67834037959085	-0.15988013800157574	-0.35641525838214605	0.1965351203805703	83.44762768500092
10	4.0	perception	160	diff_vonmises	-0.0007489143510056401	-0.042909631529402296	3.2607131989485025	1.9463157455873514	0.16234894793528318	3.9110322440310235	0.6089541476033824	-0.5720926454009262	1.1810467930043087	71.41563013845371
11	4.0	wm	160	diff_vonmises	0.21352379886085365	12.234012500327209	0.699803432330166	167.3089245530498	0.6864715656760384	169.60975030967026	-0.2237775276854066	-0.43085258001056204	0.20707505232515544	85.83246970403596
12	5.0	ltm	160	diff_vonmises	0.19038678028473774	10.908358985399982	0.6931834158601232	104.68588347539368	0.6684286872424311	106.40244611602404	0.015333616912709402	-0.3909707579491428	0.4063043748618522	98.07956699758466
13	5.0	perception	160	diff_vonmises	0.0627179215127886	3.593472202515538	2.7277102668575397	2.020576937880438	6.934592004307088e-15	3.6911620010223887	0.6654253426403521	-0.5821122358756372	1.2475375785159892	83.2633055881648
14	5.0	wm	160	diff_vonmises	0.053993200031588244	3.0935824842156294	0.4342189437295174	141.55911025138835	0.41596987436199645	143.77940284429874	-0.03678568715324104	-0.533811859990605	0.49702617283736394	123.72999559350434
15	6.0	ltm	160	diff_vonmises	0.16541505146303587	9.477584316771269	1.877259595660991	0.6729321575614412	1.3459045526393695e-38	2.5003329928802773	-0.0638761677142275	-0.3901183230074916	0.3262421552932641	99.90385475964254
16	6.0	perception	160	diff_vonmises	-0.05074357695053516	-2.907392796662989	1.218065371704732	2.0842730667141445	1.3366918272430334e-17	3.8859150169711927	0.17870726795709035	-0.5487109939443079	0.7274182619013982	120.01258267048084
17	6.0	wm	160	diff_vonmises	-0.10850824955840226	-6.217064742048728	0.28706283200006694	238.09046231794503	0.2771715216266633	240.18723483285373	-0.012783374792391555	-0.5639846580433385	0.551201283250947	143.72251856831502
18	7.0	ltm	160	diff_vonmises	0.1826856481305354	10.467116615491696	1.02393756902063	208.7486113329098	1.0087832411023	210.55342866960737	-0.022191981440727204	-0.4047396112383339	0.3825476297976067	78.3196724122173
19	7.0	perception	160	diff_vonmises	0.08384856189105704	4.804168714599041	2.1993065098715325	1.4267842771321744	0.0025701449235250202	2.9815140572968883	0.30359271247619196	-0.4637222028958796	0.7673149153720715	92.51759003945966
20	7.0	wm	160	diff_vonmises	0.25421062948393575	14.565196176793448	0.8930129978047415	158.32171828395767	0.8751234219570542	160.35718489185857	-0.10744501698405173	-0.4208428112249223	0.31339779424087055	81.20122892309718
0	1.0	ltm	161	diff_vonmises	-0.057643821491563475	-3.302747686472097	1.0370406462990605	39.786719780644866	0.980564729316201	40.578745884487525	0.15698203106859054	-0.23187768093988215	0.3888597120084727	85.26022821166933
1	1.0	perception	161	diff_vonmises	0.019198839636534307	1.1000124827218951	16.349196640319754	0.43957405256362736	1.2428790486091414e-21	1.517276891800736	0.46199555873251985	-0.24148211736918954	0.7034776761017094	33.49192376708427
2	1.0	wm	161	diff_vonmises	0.1433076209880992	8.210921854678501	4.41465560061575	0.3599164792807377	6.5510379187584186e-18	1.285133720550515	0.08739605536144093	-0.20449264896198927	0.29188870432343017	65.08250136716234
3	2.0	ltm	161	diff_vonmises	-0.12620965950787702	-7.231280823584516	2.4910889385410027	1.0086768898337561	0.5241683990099121	1.2863035292943386	0.2700169101142405	-0.143281624093204	0.4132985342074445	75.29558843697603
4	2.0	perception	161	diff_vonmises	-0.037375397468680925	-2.1414525325793576	7.448401658240988	0.8829460530942674	4.7817656850465424e-20	1.3510194578306334	0.7290371617208428	-0.2150211047286578	0.9440582664495005	49.831008203057394
5	2.0	wm	161	diff_vonmises	0.04819332843705396	2.761274320131004	6.405901914636639	0.32367714491779404	0.1980846690837352	0.9249398349908434	0.1421819833975183	-0.1512686071103781	0.2934505905078964	51.410311812543966
6	3.0	ltm	161	diff_vonmises	0.07346024439634956	4.208961965910386	1.2651676932416456	155.31030332674734	1.2520347011295951	155.509026183109	0.29609418546340294	-0.14562746953268224	0.4417216549960852	81.7079889979066
7	3.0	perception	161	diff_vonmises	0.007769388522002698	0.4451531717081392	4.5656148570156745	1.7738503846664573	0.3589697220242883	2.189476330593878	0.9816700168319126	-0.32603524446066234	1.307705261292575	60.4236325856686
8	3.0	wm	161	diff_vonmises	0.13582797088222515	7.782369471377338	2.645261746585518	1.2082036799426836	0.7426499475063387	1.8046962278623335	0.2077483158767589	-0.20329638989561544	0.41104470577237434	68.1766976304601
9	4.0	ltm	161	diff_vonmises	-0.07731011531099195	-4.4295433209895645	1.4612810555878402	201.183665804803	1.4486796061258675	201.92148105131005	0.13464592736038128	-0.22776345729945646	0.36240938465983774	69.98659473730919
10	4.0	perception	161	diff_vonmises	-0.1065752476312086	-6.106311889829877	2.1519402930521405	2.858251488119129	0.33458121740739877	3.67218003317896	0.7467173668151952	-0.4214885264635067	1.1682058932787018	83.50393709332798
11	4.0	wm	161	diff_vonmises	-0.0751548655155838	-4.306056603916243	1.2099758535116296	175.41650544138056	1.1923092942079772	176.7863782302588	0.05491625747433204	-0.34179976220908515	0.3967160196834172	73.99661027460854
12	5.0	ltm	161	diff_vonmises	0.0023798928827852366	0.13635781787681678	1.4238013368116536	1.5760822964919903	0.1827420561441246	2.0062001691262594	0.28137175445314383	-0.22540551461781208	0.5067772690709559	104.11689384823183
13	5.0	perception	161	diff_vonmises	-0.018652079940911042	-1.0686854597548245	2.751132743884333	1.5685421449114285	5.204918587879093e-18	1.9834744284397763	0.661811101570223	-0.3116940021762672	0.9735051037464902	82.90367758570088
14	5.0	wm	161	diff_vonmises	-0.17992896194475413	-10.309170131604413	0.6177853784149232	123.09392159904003	0.605112476132464	123.61839863732787	0.1557794753133379	-0.20055001963840624	0.35632949495174415	112.20689297089837
15	6.0	ltm	161	diff_vonmises	0.18252037287429712	10.457647040851299	0.5838970298186914	99.97978313776154	0.5720449476762537	100.46556558103543	0.09732248959772605	-0.16482560690702464	0.2621480965047507	113.91666500631385
16	6.0	perception	161	diff_vonmises	-0.16578329346762818	-9.498683029473845	1.9897859676519458	1.508802441799181	6.1420152562619214e-12	2.2011820878771413	0.4255759402545376	-0.3358223358732546	0.7613982761277922	97.22224638900741
17	6.0	wm	161	diff_vonmises	-0.12139122715827183	-6.955204986082833	0.8509195976543595	96.71530524268746	0.8237185724542162	97.43196410852224	0.2812863324721988	-0.27056841051545355	0.5518547429876524	96.50761109242832
18	7.0	ltm	161	diff_vonmises	-0.07729667320545151	-4.428773145074328	1.059729232401965	147.55418550944702	1.0392114878044074	148.40612552169492	0.2725663013294195	-0.2856596157378224	0.5582259170672419	85.19419672121626
19	7.0	perception	161	diff_vonmises	-0.007271063613710236	-0.4166012576367372	3.827441061163179	1.4143739014431584	3.092895325056692e-17	2.646610514317043	0.6401838743648471	-0.4207182292150367	1.0609021035798838	70.03402875049005
20	7.0	wm	161	diff_vonmises	0.27147060175186394	15.554119742258576	9.677677337431607	0.5730711697796456	1.0218961871155768e-18	1.4765474802047018	0.46635839568087734	-0.2349998274285148	0.7013582231093921	43.647253231599365
0	1.0	ltm	162	diff_vonmises	-0.161152041432858	-9.233331834020138	1.0848290839160901	268.51789128353875	1.0703917108588183	270.8582988856644	-0.1031085422477247	-0.5131281822967395	0.4100196400490148	74.06091004074122
1	1.0	perception	162	diff_vonmises	0.051363197235393857	2.942894423886086	8.640603069294341	0.786757910996215	8.454662779038954e-18	2.711519394794364	0.47693894336814535	-0.43155168657934595	0.9084906299474913	46.21397024535085
2	1.0	wm	162	diff_vonmises	0.021501991731077592	1.231973377315941	9.638797807022224	0.2558551492303344	2.2211205608493973e-18	2.4971921043636383	-0.08489093283354521	-0.39744046593263777	0.31254953309909256	43.72823225458626
3	2.0	ltm	162	diff_vonmises	-0.012601016776010871	-0.7219850788389703	3.310059537645857	0.5523380298432219	3.2956278567701233e-16	2.112753908301506	0.04617657577016998	-0.3357453026206343	0.38192187839080427	75.4463464315078
4	2.0	perception	162	diff_vonmises	-0.019347614099106014	-1.108536631526581	7.701073639969638	1.1875269353235782	0.09355191978436572	2.6681432321688057	0.8266484492236743	-0.4299198966684295	1.2565683458921038	48.223443040138164
5	2.0	wm	162	diff_vonmises	-0.000275932166665577	-0.015809748581837986	4.223647097688923	0.46218274284340677	0.10398259511066135	2.035331373004953	0.00756796803687243	-0.3182545891926996	0.32582255722957204	62.66141291236178
6	3.0	ltm	162	diff_vonmises	0.15593622623928863	8.934487636708404	3.2849870228255416	0.6536197986823012	0.40915480396243403	1.3421328687557745	0.1421013458218774	-0.19029715302367414	0.3323984988455515	66.14663278016664
7	3.0	perception	162	diff_vonmises	0.07193353208504143	4.121487793941767	4.914862293760225	1.9446746264737544	0.24575668198770204	2.2953444242707723	1.2107860103685941	-0.34884140194284297	1.559627412311437	59.38146266744866
8	3.0	wm	162	diff_vonmises	-0.19060393890236205	-10.92080125767475	6.451642617458142	0.32403733545961083	2.095234670533125e-20	1.1213940719412623	0.14298316595619245	-0.17847460930761389	0.32145777526380637	53.60838182762734
9	4.0	ltm	162	diff_vonmises	-0.1048215823733001	-6.005834271872999	0.45549242850411287	113.84440142826179	0.4438975169943507	115.11731300516163	-0.05618323171547601	-0.27922676476839925	0.22304353305292324	117.74484139686933
10	4.0	perception	162	diff_vonmises	-0.038405533871077646	-2.20047500075948	2.2455169494656855	3.342838050317937	0.43318230235618144	5.05920745981709	0.663277229235715	-0.5805924775899571	1.243869706825672	78.2794209661161
11	4.0	wm	162	diff_vonmises	0.05778306158524433	3.3107255561790163	0.7875750017717633	112.5264337547864	0.7719041043759961	114.05104881363262	-0.11801535272802965	-0.2984792805104828	0.18046392778245313	83.85789870773164
12	5.0	ltm	162	diff_vonmises	0.37306733948895787	21.37518402689156	0.8934069858175191	146.91087893747763	0.8753383393277112	148.12736370952075	0.11903045377066945	-0.31332387381798554	0.432354327588655	88.96838156243973
13	5.0	perception	162	diff_vonmises	0.062409983135318134	3.575828633136374	3.050780067643866	2.0623137837415366	3.74767977417805e-17	3.203561361664315	0.8537193920537735	-0.5068085491994626	1.360527941253236	78.66140799778117
14	5.0	wm	162	diff_vonmises	-0.006029225955686468	-0.34544920099156495	0.3995669328311488	166.01703631022917	0.3879982630984152	167.34893920241586	0.05083217456223821	-0.37528156080396613	0.42611373536620434	130.58976765337474
15	6.0	ltm	162	diff_vonmises	-0.6685749096320881	-38.30652061025906	0.00014339818114444822	5017.2334111995815	3.419346631241321e-30	5018.36595108303	-0.0657408979069487	-0.29474953398937487	0.22900863608242616	167.6345136388797
16	6.0	perception	162	diff_vonmises	-0.28017110436996134	-16.05262182191808	1.4808808081814064	1.6951083397769262	1.9766896854471266e-18	2.705155884494881	0.2980209803015132	-0.39285214616899644	0.6908731264705097	110.78548114990541
17	6.0	wm	162	diff_vonmises	-0.43231585485674356	-24.769873899881677	0.3907686597637569	85.1400118585135	0.36955594506394684	86.42313713512354	0.04417662382908105	-0.36145608405053764	0.4056327078796187	130.9412191904777
18	7.0	ltm	162	diff_vonmises	1.0928212988781572	62.61404818772313	0.00014644222351332505	6380.237598256418	7.907519365552446e-30	6381.137239868314	0.005523881718090706	-0.2918778135062894	0.2974016952243801	147.7387292452707
19	7.0	perception	162	diff_vonmises	-0.045511350821779414	-2.6076083220272115	1.7550166071759965	3.085689952402004	0.42227963075688985	3.9023910544413556	0.5638634457969153	-0.37607136615229325	0.9399348119492086	87.92310642559403
20	7.0	wm	162	diff_vonmises	0.031777494060197656	1.820716293151368	2.360534708454613	0.4291051487907351	1.638288789446304e-33	1.6656676419313035	-0.020627169981410065	-0.26292200585893294	0.24229483587752287	89.51204215326177
0	1.0	ltm	163	diff_vonmises	0.09203454812917404	5.273191177195319	0.5984548758464159	179.30015438949025	0.5795185211057522	182.4990265625811	-0.19518321994046062	-0.6402960197462875	0.44511279980582685	99.49966388561114
1	1.0	perception	163	diff_vonmises	0.006649323488118828	0.3809781724864158	7.697715361290863	0.7581203502012726	4.336137228434922e-19	3.560977263190293	0.25770385598620993	-0.5667469637868428	0.8244508197730527	49.00989223328281
2	1.0	wm	163	diff_vonmises	0.09415862538849201	5.394891839513954	5.237971095346456	0.46062047153271374	2.658731438534561e-18	3.540710296235508	-0.1541477733008344	-0.5635099956436728	0.40936222234283837	59.6296031126995
3	2.0	ltm	163	diff_vonmises	-0.013793623433810112	-0.7903164069500697	2.801119731005806	0.8131455611007674	0.003485872098055634	2.9652926415858323	0.03844062239592788	-0.46840805631880617	0.506848678714734	81.85049518157365
4	2.0	perception	163	diff_vonmises	-0.05489052077749586	-3.1449951758256667	6.3529711025626625	1.2559208412170288	0.07291065440882792	3.483833451675337	0.6402767514042462	-0.5543015846522769	1.194578336056523	53.00134992872026
5	2.0	wm	163	diff_vonmises	-0.018672154937519503	-1.0698356723342288	3.6274678681093055	0.7119688561283314	0.07207192564175735	3.004651934074254	0.005496579045965899	-0.4645616440095768	0.4700582230555427	68.33133571752916
6	3.0	ltm	163	diff_vonmises	0.11474561554532965	6.574439488378119	1.8838431067795443	1.4133346658101567	0.22593624715684102	2.9878740879215107	0.11458248269701266	-0.3786555734581101	0.49323805615512273	86.51350233038053
7	3.0	perception	163	diff_vonmises	0.03837443998412727	2.198693452268566	3.9095812651809867	2.4962535944030155	0.16668940022555662	3.942486078917388	1.159219451830341	-0.5871238519678224	1.7463433037981633	66.33611418838456
8	3.0	wm	163	diff_vonmises	-0.11100958424553432	-6.360380662771072	2.629907856923819	0.8359330113664873	1.5835470772028813e-12	2.745424184839041	0.07051457260214888	-0.4343106478168367	0.5048252204189856	84.80733377947075
9	4.0	ltm	163	diff_vonmises	0.11745971969170399	6.729946201124326	0.14108604231527286	106.73116649426117	0.12268984522708538	109.17433955095511	-0.10631427497608925	-0.6332889377796871	0.5269746628035978	163.20142443468336
10	4.0	perception	163	diff_vonmises	-0.0061923401033373866	-0.3547949532308363	0.954719926296966	269.0768508395788	0.926582506065957	271.84817034853666	0.5302312673226623	-0.8065418251674643	1.3367730924901267	88.31037634945014
11	4.0	wm	163	diff_vonmises	0.148824450880229	8.527012923789151	0.5246887535114149	190.14420389303007	0.5105882937989076	193.0856788566961	-0.22918138889500028	-0.5722770988459871	0.3430957099509868	104.04780720700393
12	5.0	ltm	163	diff_vonmises	0.24456732295413916	14.012675412085155	1.750974808874743	1.708499162509186	0.24936427898914595	3.247501610403798	0.15999321318809445	-0.3907039150538517	0.5506971282419462	88.88190949947062
13	5.0	perception	163	diff_vonmises	0.03687413535291934	2.1127323289164206	1.966964438218836	2.6842181458734893	1.1600880484189378e-13	4.142394956510809	0.7115803448108394	-0.632459238153532	1.3440395829643714	97.78443709285213
14	5.0	wm	163	diff_vonmises	-0.0366503780999624	-2.0999119826865464	0.5364107654912175	204.1306861193099	0.5231372304165782	205.90881945725656	0.062195952510876396	-0.45446759619376564	0.516663548704642	113.79879556065355
15	6.0	ltm	163	diff_vonmises	-0.008951442032188643	-0.512879849000418	0.0004062038349513458	2403.6629049476446	4.497070625448674e-26	2404.8571826137545	-0.034669793749856126	-0.34544903771342206	0.31077924396356593	179.97650468730785
16	6.0	perception	163	diff_vonmises	-0.14127540561737287	-8.094484490874267	1.5815115746174375	1.6373552563983196	1.698964471761735e-17	2.891762473216582	0.2721325076746708	-0.4292605762716774	0.7013930839463483	107.92510699288495
17	6.0	wm	163	diff_vonmises	-0.11217139068857371	-6.426947268568335	0.36145835058909526	171.81404025577322	0.3517856342968708	173.4379955598783	-0.054488323699061425	-0.3872141912040554	0.332725867504994	132.0128283628391
18	7.0	ltm	163	diff_vonmises	-0.04668001310976541	-2.674567738804911	1.8971813763361691	2.731649432990096	0.7099923781707629	4.711566970239648	0.015164459890517623	-0.46607897313646013	0.48124343302697775	71.38339090904492
19	7.0	perception	163	diff_vonmises	0.053942309127533034	3.0906666501976607	0.7890823485525599	251.83617926893538	0.7699975746279053	253.2576063990341	0.49436959143449144	-0.5221334960607429	1.0165030874952343	99.65153104295553
20	7.0	wm	163	diff_vonmises	-0.7347593801842788	-42.09861144220746	0.0005470202021852885	2243.7691914129573	1.3295163152008263e-30	2246.267192089117	-0.2021980150818763	-0.5928868673980787	0.39068885231620243	165.15149631620858
0	1.0	ltm	164	diff_vonmises	-0.1276962753597559	-7.316457637654421	1.083232174688589	216.7685095072061	1.059276407685857	219.50889828945748	0.008362360649968537	-0.6342288798271696	0.6425912404771381	76.99410909978914
1	1.0	perception	164	diff_vonmises	-0.0013972166720767868	-0.08005461837531422	15.750799724269287	0.6676942882944804	1.146131468064922e-16	3.3451499971162155	0.5161024495876801	-0.5323971574248632	1.0484996070125434	34.12415942102274
2	1.0	wm	164	diff_vonmises	0.06933023391151746	3.9723297957847277	2.401068161387248	0.739558821538387	0.050694996779498715	3.6535488038615687	-0.18570787146885814	-0.5549568198823013	0.36924894841344313	82.89587638971068
3	2.0	ltm	164	diff_vonmises	-0.01789416627447979	-1.0252602054330278	3.0970374656271913	0.6626207215340114	7.60827641144237e-17	1.9797076699421332	0.12683420566425269	-0.3141780966656973	0.44101230232995	78.05439341788517
4	2.0	perception	164	diff_vonmises	-0.07252121261892451	-4.155159408235262	7.0017472316088645	1.138135557774502	0.15025361968058334	2.2149859818227307	0.7709847451092906	-0.357985691107777	1.1289704362170676	50.21439967934347
5	2.0	wm	164	diff_vonmises	-0.09293957544354377	-5.325045422652764	3.0828007970708415	0.7877642897471419	0.20786137071542993	2.2895886440238056	0.08019489074245723	-0.33648108125374165	0.4166759719961989	70.19023496688072
6	3.0	ltm	164	diff_vonmises	-0.0962780307244143	-5.516324820339808	0.7493276234697526	108.31193483659807	0.7318854797361324	109.12118469094823	0.12535354214332273	-0.23285758145564017	0.3582111235989629	99.22908853149902
7	3.0	perception	164	diff_vonmises	0.047935732779860386	2.7465151761529136	4.688925669409743	1.8090398776077434	0.2102106008578019	2.285999523363753	1.071635281518711	-0.346073827984514	1.417709109503225	60.886669895544344
8	3.0	wm	164	diff_vonmises	-0.03224991699714031	-1.8477841335833571	2.549816066448428	1.0967664189699113	0.3478157541065336	2.068767082920556	0.2014831408052617	-0.2691123706478265	0.4705955114530882	74.7439426453166
9	4.0	ltm	164	diff_vonmises	-0.3132556262789726	-17.94822529451253	0.8809077223713545	165.41845666863864	0.8669470161625469	166.72490019713314	0.026937115066218098	-0.3003564195467767	0.3272935346129948	86.5485009969645
10	4.0	perception	164	diff_vonmises	-0.03613466263300308	-2.070363663000159	1.4949432933468083	7.263309661529159	0.6859071142415156	8.554061553447537	0.728535187966131	-0.538881364056121	1.267416552022252	86.09464384345921
11	4.0	wm	164	diff_vonmises	0.12571458078695633	7.202914902349025	0.8797509712699575	238.63445952647268	0.8671464710872797	240.52771088521763	-0.025624341511090165	-0.4135618622764561	0.3879375207653659	84.66753414366818
12	5.0	ltm	164	diff_vonmises	0.20125276260889086	11.530933912837709	1.3226270581777222	1.8126497250871352	0.2261870926357417	3.058272741711704	0.12533087288384126	-0.33372240446257107	0.4590532773464123	100.70885961856993
13	5.0	perception	164	diff_vonmises	0.07248662145031733	4.153177480265645	1.9459499888580796	2.6328650306297665	0.10000393848648662	3.6805928064242632	0.6901359616490321	-0.5014533799984155	1.1915893416474477	93.95407836601021
14	5.0	wm	164	diff_vonmises	-0.024504652320975002	-1.4040131564273246	0.4880326537920623	205.52038067611662	0.4757948377447921	206.9248149395327	0.12851759527652717	-0.41950614194921343	0.5480237372257406	121.65402516600722
15	6.0	ltm	164	diff_vonmises	0.6397812464227147	36.656765231640854	0.9650072515550927	126.44489060466766	0.9483709470483096	127.64225680091316	0.001850105608333763	-0.2703586788865824	0.27220878449491615	81.59063964934882
16	6.0	perception	164	diff_vonmises	-0.10063483700024166	-5.765951432100825	1.3956820502796805	2.1626441991026546	2.728201816283756e-10	3.364613172766007	0.36136349983759075	-0.4804825019050701	0.8418460017426608	113.77419960501263
17	6.0	wm	164	diff_vonmises	-0.22636521068519627	-12.969771200851433	0.4032097868947205	158.84662757337236	0.38750303991299656	160.3401592882548	0.11983167821195906	-0.46259843819361635	0.5824301164055754	131.2673621560346
18	7.0	ltm	164	diff_vonmises	0.022056359487453395	1.2637363100544112	1.466215341180242	118.70179558461857	1.436299403592583	119.91392959192729	0.11597551723031785	-0.3437451268408438	0.45972064407116164	68.45147138024561
19	7.0	perception	164	diff_vonmises	0.09709222841489	5.562974911693364	2.78183620188087	1.2731395671472407	4.045598186561236e-13	2.263178041982501	0.4382463172418964	-0.35713371576547864	0.795380033007375	82.43918259415506
20	7.0	wm	164	diff_vonmises	-0.03693746895285699	-2.116361076894218	0.5264969292255565	74.41063776087915	0.4997439168863155	75.92123562705207	0.00015409819602751895	-0.35921673280076405	0.35937083099679157	113.56563697161947
0	1.0	ltm	165	diff_vonmises	0.10554631103990673	6.047358165761703	0.9410475205156854	176.9290637586601	0.922073229156617	178.99300207605185	-0.03646305327297483	-0.45196137329889297	0.41549832002591813	81.61297356408448
1	1.0	perception	165	diff_vonmises	0.0800310210736016	4.5854397376399225	6.823562888275237	0.7249042272236698	0.02995826201924355	2.8033106701365784	0.2807627987755385	-0.4458453122209912	0.7266081109965297	51.53880032199933
2	1.0	wm	165	diff_vonmises	0.13791522577720655	7.901960367627794	5.485247028113251	0.35636789762795046	3.933395452557526e-14	2.3075505230669036	-0.042661210085421786	-0.3672524884265893	0.3245912783411675	58.23352043905655
3	2.0	ltm	165	diff_vonmises	-0.029857348725004736	-1.710700069393081	2.306999754724054	1.788396213163811	0.6872838702020664	2.8092956357072123	0.21250154921017317	-0.3009598140401913	0.5134613632503644	71.24771099781745
4	2.0	perception	165	diff_vonmises	-0.034692206155493455	-1.9877169947075504	6.8873068834011	1.1149372280066083	2.351762989813801e-18	2.2097369554157753	0.7928052562198814	-0.3516893671145625	1.144494623334444	51.853222947598084
5	2.0	wm	165	diff_vonmises	0.050265053416929835	2.879975417789717	5.547692986751285	0.46270949809200834	0.12939827302114135	1.7277521266369542	0.11232603038805272	-0.2762205792908376	0.3885466096788903	55.27638144348421
6	3.0	ltm	165	diff_vonmises	0.1775737634197399	10.174227196205662	2.179696623888296	1.4371642797983601	0.5539807572483826	2.07663760234214	0.24739126702424208	-0.21908092050895472	0.4664721875331968	76.79021982944172
7	3.0	perception	165	diff_vonmises	0.040463458310693014	2.3183853857062653	5.180369251803387	1.6533096525971671	3.0862427504190025e-13	2.397500753822418	1.0792537589025475	-0.38152785187120825	1.4607816107737557	59.965949344518975
8	3.0	wm	165	diff_vonmises	0.0405267453801877	2.3220114676860617	2.6635447634563394	0.9456248616012716	0.2962700738914142	1.9283989146138583	0.17448455088951154	-0.26067948733868446	0.435164038228196	74.22185113534132
9	4.0	ltm	165	diff_vonmises	0.4444920887445941	25.467520712019684	0.41764498920121107	146.1533856900647	0.4067467690105309	147.51057244189516	-0.018442254483261422	-0.33149467516894937	0.31305242068568795	124.81644138169793
10	4.0	perception	165	diff_vonmises	-0.10113136518318927	-5.794400401393022	3.1769590326487696	2.038694987258911	9.21974273979264e-15	3.9589726598558985	0.7492707992492578	-0.6276899972518192	1.376960796501077	77.04639136936845
11	4.0	wm	165	diff_vonmises	-0.036675964166926193	-2.1013779563379114	1.0163655095596944	198.86221092613027	0.9992729108920163	200.90168529769724	-0.05405802930393122	-0.4483441658425811	0.39428613653864986	77.81053147175143
12	5.0	ltm	165	diff_vonmises	0.0736264836868483	4.218486775645213	1.942072777065289	1.0076905693054878	1.8775084174030934e-11	1.8860568891820981	0.2105054561746118	-0.2896726301546337	0.5001780863292455	98.36707424912407
13	5.0	perception	165	diff_vonmises	-0.03723342101407937	-2.133317880940458	2.2778982387980458	2.235533045536136	5.806281503329731e-19	2.7360522333970247	0.8115075279943045	-0.422355313749528	1.2338628417438324	91.10038392195176
14	5.0	wm	165	diff_vonmises	0.001736550775408085	0.09949703034105378	0.6527686587874167	166.28369113532224	0.6399685539939645	167.09163839933004	0.18375479402594408	-0.27197323952732866	0.45572803355327274	108.01112265631733
15	6.0	ltm	165	diff_vonmises	0.3791996367788236	21.726538780320382	0.6380422231887358	133.17670374732992	0.6264263791195726	133.7427881003203	0.14046156987307512	-0.19846542182475524	0.33892699169783036	109.59785641241072
16	6.0	perception	165	diff_vonmises	-0.1403930590104737	-8.043929754231256	1.511744045887998	1.9586759960335598	1.5118119493738733e-18	2.3994238539123436	0.47054478133305905	-0.34042560371554337	0.8109703850486024	110.03035883824275
17	6.0	wm	165	diff_vonmises	0.01324038451926634	0.7586181520843126	0.7501534112460848	151.69709097432855	0.7352961723235398	152.44234980847526	0.21309430871200874	-0.2578408156826324	0.47093512439464114	101.40681422110183
18	7.0	ltm	165	diff_vonmises	-0.027984066072365307	-1.6033688795617702	1.6410973628371721	2.6382590001147332	0.5809823231523886	4.149931916279109	0.11976719421736837	-0.37537349414107624	0.4951406883584446	80.21679214373995
19	7.0	perception	165	diff_vonmises	-0.007565380904652593	-0.43346439624545824	1.0740296434919543	363.1078299657768	1.0572000196517854	364.4460877226086	0.6768121948792043	-0.5365520402445512	1.2133642351237555	86.08728422380179
20	7.0	wm	165	diff_vonmises	0.267752618620862	15.34109500055133	6.596366089634569	0.5647572914214043	8.942425457456259e-21	2.1285470931029957	0.227972275177851	-0.33876773476217803	0.566740009940029	53.01037306677958
0	1.0	ltm	166	diff_vonmises	0.036509626465241876	2.091847508057494	1.0239255283266047	3.5761549477054793	0.36915815826228954	6.64337201948291	-0.24045430902417908	-0.5879471822511569	0.34749287322697786	91.61136213537978
1	1.0	perception	166	diff_vonmises	0.03806873394159361	2.181177786259741	11.709183148680887	0.6848357733373356	1.980303472261308e-21	3.5387552279390846	0.361231567837508	-0.563210386856352	0.92444195469386	39.63035216514393
2	1.0	wm	166	diff_vonmises	0.05697729528857656	3.264558548106067	4.85518722314667	0.41320532913632463	0.022168231774666525	3.743616578486437	-0.25638581664025556	-0.5929948079539578	0.3366089913137022	60.38104052270779
3	2.0	ltm	166	diff_vonmises	0.0485623240284795	2.782416210178621	2.766416726184783	0.6750466911342292	2.661664116788595e-13	2.505606667673111	0.023240797846229067	-0.39711062709858036	0.4203514249448094	82.67045898253537
4	2.0	perception	166	diff_vonmises	-0.03592875970608705	-2.0585662942984797	7.211112063534803	1.2279155762147715	0.16105933170267359	3.179572542090424	0.7003640555835392	-0.5200278385140094	1.2203918940975487	49.127915275462186
5	2.0	wm	166	diff_vonmises	0.051475383234942156	2.94932220818066	4.429996176782256	0.49837220208756583	0.04110456001626427	2.692024399820511	-0.04123589359940538	-0.4235213789816637	0.3822854853822583	62.92477289862359
6	3.0	ltm	166	diff_vonmises	0.1499391586579974	8.590880974845687	2.0235619576804136	1.1715913248608585	0.28522194633605497	2.432681248385474	0.1040241213262898	-0.3048096044505344	0.4088337257768242	82.11119940514214
7	3.0	perception	166	diff_vonmises	0.03611978326980386	2.0695111382870017	4.563962527847411	2.1677468129768913	0.21327814368395964	3.404334285824598	1.1270519261301233	-0.518090457175897	1.6451423833060201	61.201226866397064
8	3.0	wm	166	diff_vonmises	-0.01203505367828135	-0.6895577819789186	3.0078505682306806	0.645300120575856	0.12623358541936444	2.4340199508802205	-0.014506009999956326	-0.36553786510461905	0.3510318551046627	72.29491094510283
9	4.0	ltm	166	diff_vonmises	0.04799518488634148	2.7499215309374425	0.5796547567610871	174.27163130615025	0.5653022483089156	176.56975505536423	-0.12317552017415778	-0.4690666036288782	0.3458910834547204	101.99464742048042
10	4.0	perception	166	diff_vonmises	-0.00943967539136559	-0.540853559898752	1.8847361939730256	4.212509054732029	0.44548561835246236	6.52659688088999	0.5521404580036924	-0.686414825371741	1.2385552833754334	82.29983198427158
11	4.0	wm	166	diff_vonmises	0.15147834688677217	8.679069964230699	0.5478849386325927	136.29417147484335	0.5301237823470499	139.0557287388917	-0.24198756805562738	-0.523041507167969	0.28105393911234167	99.94244622724847
12	5.0	ltm	166	diff_vonmises	0.1743024969794107	9.986797435512013	1.438894199436625	2.194787163079512	0.3162446068786979	3.8765461309489178	0.10137936655938029	-0.40691856946400656	0.5082979360233868	92.13709552174922
13	5.0	perception	166	diff_vonmises	0.04499288138592964	2.5779022115464905	2.293349502790685	2.2440525065504016	5.634510085102968e-13	3.918981587105756	0.6329680386350283	-0.6109224815884771	1.2438905202235053	90.79823976569998
14	5.0	wm	166	diff_vonmises	-0.06371550502054585	-3.6506295272218847	0.4826328706077044	221.31556436058742	0.4708391236530851	223.42013466187416	-0.021839936672698457	-0.49841465975764976	0.4765747230849513	117.3488587258693
15	6.0	ltm	166	diff_vonmises	-0.10376914958318904	-5.945534314778458	0.00035835188895260784	3007.217102106538	1.2195771456288685e-27	3008.8491183424535	-0.08821612520506505	-0.43124004632380775	0.3430239211187427	179.67138424823713
16	6.0	perception	166	diff_vonmises	-0.1040381400777613	-5.960946334846585	1.5258607681599856	1.7010501339666184	6.269326059104264e-19	3.442838535042581	0.19654452747742301	-0.5127471798410324	0.7092917073184554	109.62661694420109
17	6.0	wm	166	diff_vonmises	-0.09777583588600719	-5.6021427346319905	0.35021927658946894	205.8987706739989	0.34009789471217167	207.95210210286848	-0.06877753872132786	-0.49279528747975476	0.4240177487584269	133.67559215571885
18	7.0	ltm	166	diff_vonmises	0.0408845327842999	2.3425111759046326	1.0272208452136373	160.95539334465846	1.00408003468137	163.05677301658253	-0.016090664767816065	-0.4739674320252014	0.45787676725738535	78.60263057292511
19	7.0	perception	166	diff_vonmises	0.06711678662933475	3.8455086083409555	1.648126209867179	2.5272919709284927	0.16420052484451442	4.249894234795518	0.3674083576223499	-0.5294901603888776	0.8968985180112276	96.48420309720808
20	7.0	wm	166	diff_vonmises	0.03564378728433302	2.042238577254352	3.2339511093741495	0.6329951644700889	0.11438581333748965	3.1502909274158903	-0.1277081366128922	-0.48271282561015594	0.35500468899726373	69.2820259260339
0	1.0	ltm	167	diff_vonmises	-0.12559535462076304	-7.1960837462186245	1.066997832610952	485.11612036940653	1.0546104916513577	489.0008807962181	-0.23739216895094728	-0.8316588359452339	0.5942666669942867	73.37808407015291
1	1.0	perception	167	diff_vonmises	0.05982803820027078	3.427894085422981	9.588712081821255	0.8157888136445481	7.570826814263421e-20	3.9551477204276173	0.3642207632667436	-0.6294813056998333	0.9937020689665769	43.85129094713369
2	1.0	wm	167	diff_vonmises	0.08895600496098233	5.096803646609101	7.157191767279373	0.35927585569867576	0.02923198321466364	3.967809679999632	-0.2738300553175771	-0.6344141134637807	0.36058405814620365	49.650413704568564
3	2.0	ltm	167	diff_vonmises	-0.07450122289636106	-4.268605640524903	3.0942163343908935	0.7989103363869728	0.03389198578916413	2.9146548280860998	0.05278029596342371	-0.4508217550866576	0.5036020510500814	75.79810648604195
4	2.0	perception	167	diff_vonmises	-0.044607583642868244	-2.5558262770131566	6.582444324522344	1.3607132951019756	0.1619082369814928	3.342051734810068	0.7425688667573569	-0.5411293254951236	1.2836981922524804	51.354141972615764
5	2.0	wm	167	diff_vonmises	-0.03083136532428455	-1.7665071097074994	3.4415505229122214	0.6826111082809906	0.14889531942337397	2.8023022805495996	-0.03170277949355893	-0.42850985430453065	0.3968070748109717	67.15806526047547
6	3.0	ltm	167	diff_vonmises	0.02115656137894863	1.2121816760232336	1.9030916627731302	1.2911944551519776	0.4225208479050541	2.3687488148003983	0.09597790511163862	-0.26618710742585383	0.36216501253749245	80.19596701521982
7	3.0	perception	167	diff_vonmises	0.09099443265292405	5.213596950199955	4.423191494754718	2.159704236903689	0.2375678786451196	2.781162137054431	1.200085228537666	-0.4155549408577292	1.6156401693953952	62.28140496238129
8	3.0	wm	167	diff_vonmises	-0.12103710321673976	-6.934915178808509	3.9621400556323914	0.4668275025716284	5.335373984598377e-33	1.59485214960919	0.10323453197603122	-0.25369939906648187	0.3569339310425131	68.79566960028077
9	4.0	ltm	167	diff_vonmises	-0.06752282958028988	-3.8687731557317218	0.09499215086759295	93.06999378216767	0.0824950986215321	94.8884042472784	-0.12081891025301061	-0.4425933095153187	0.3217743992623081	168.96145778942065
10	4.0	perception	167	diff_vonmises	-0.024748611979888764	-1.4179910152545343	1.5416595869120489	8.180407954667032	0.7226827368968821	10.246470513254	0.6425970639021998	-0.6775268686115871	1.3201239325137868	82.57260853495117
11	4.0	wm	167	diff_vonmises	0.12080917917241116	6.921856093018927	0.6150436633113795	136.72539949848797	0.5996141017226685	138.73993099927605	-0.13525790982583175	-0.39716902261686826	0.2619111127910365	97.04493129237761
12	5.0	ltm	167	diff_vonmises	0.3382400712818875	19.379728546656274	0.7964320281561551	186.73236639389603	0.7798298121447123	188.60081430550258	0.031880453725506186	-0.4267161857530404	0.45859663947854656	91.20779158277819
13	5.0	perception	167	diff_vonmises	0.07467586079839907	4.278611655254701	2.166562863491688	3.1273315665368187	0.1300525839360041	4.8873097863820725	0.8107700801381417	-0.6645947945899014	1.4753648747280432	87.83023125284919
14	5.0	wm	167	diff_vonmises	-0.013895805019028751	-0.796170980527054	0.4101239061254563	221.62594550162336	0.398725378220552	223.5989404254127	0.014093783798060144	-0.5113642473295315	0.5254580311275916	127.93215000050924
15	6.0	ltm	167	diff_vonmises	0.6792402243387077	38.91759813012717	1.06881927440225	143.77865674480378	1.0500137322834155	145.54247995636325	-0.11080756794520141	-0.3767423477262142	0.26593477978101276	73.28874494712514
16	6.0	perception	167	diff_vonmises	-0.251447786127296	-14.406896913002232	1.1389169158567778	2.4566618762625922	3.39824622504209e-15	3.9527980407428216	0.2744373331180403	-0.5364832655169002	0.8109205986349405	122.62641415137392
17	6.0	wm	167	diff_vonmises	-0.41413393633693263	-23.728126705245764	0.31168501151112293	153.2552823948367	0.297918494320435	155.09054552413366	-0.006885585569868624	-0.49046099377696706	0.48357540820709843	139.0985586414325
18	7.0	ltm	167	diff_vonmises	0.003996705371929633	0.2289943497688319	1.3415474373145826	73.16556767424301	1.2994123117222165	74.53794603494148	0.013033645796692639	-0.34300062340494897	0.3560342692016416	69.33661949466335
19	7.0	perception	167	diff_vonmises	-0.006427821832486539	-0.36828706246352555	1.0265041596002755	186.9139724016762	1.0010090574887	187.94913871008617	0.5464092443220778	-0.42637387278130845	0.9727831171033863	88.47014180949589
20	7.0	wm	167	diff_vonmises	0.00275731357956243	0.15798243090303676	1.3427420978875384	1.3727360830066693	0.2484499924669317	3.161036694176556	-0.07890851240501784	-0.36368806097430584	0.284779548569288	92.77877806936479
0	1.0	ltm	168	diff_vonmises	0.15188399095618585	8.702311657392613	1.8084540877633635	1.2875022573635604	0.2682806471326156	3.1898812053719885	-0.027278452804111675	-0.4012982942080565	0.37401984140394484	83.46086004875858
1	1.0	perception	168	diff_vonmises	0.08890985515430831	5.094159457461335	6.456504956904513	0.6899329266542932	0.07174287391116636	2.793048561078372	0.20773352995849625	-0.446602767027317	0.6543362969858133	52.24794653460057
2	1.0	wm	168	diff_vonmises	0.1425659549724869	8.168427522175632	5.356161891048362	0.3559347998262498	8.465182862488288e-19	2.276089460229253	-0.042116451024350576	-0.36224375917383406	0.3201273081494835	58.949040097372546
3	2.0	ltm	168	diff_vonmises	-0.03974895885899655	-2.2774475826596468	1.7539773373988945	3.4116204969055595	0.9018052399819053	4.366720892141194	0.2144469291315474	-0.2918545416926518	0.5063014708241992	74.7790983244006
4	2.0	perception	168	diff_vonmises	-0.033167527859347366	-1.900359363223182	6.83557905264025	1.0571775904065464	1.0038531565045535e-17	2.231727970404483	0.7257426853367979	-0.3551892893078351	1.080931974644633	52.05328793538524
5	2.0	wm	168	diff_vonmises	0.0792153963470897	4.538707883144278	5.9972736363908385	0.42878890086222576	0.10931002968856894	1.745674770623964	0.10030861487884801	-0.28016282835409323	0.38047144323294124	53.50080489265608
6	3.0	ltm	168	diff_vonmises	0.18189235182445948	10.421664085250228	1.150462788139001	170.29360362237148	1.133131430325778	171.03565096423858	0.2775043985342549	-0.26243196697236115	0.5399363655066161	82.05393581198518
7	3.0	perception	168	diff_vonmises	0.020045624273369315	1.1485296685690594	4.905689168476978	1.7505208370936434	0.04560294226478364	2.8016611900286215	1.0361113509622828	-0.4374496735329894	1.4735610244952722	60.96027990836248
8	3.0	wm	168	diff_vonmises	0.12616412612302416	7.228671952805502	3.1605071627342984	0.8131749293037395	0.19212214452400045	2.098126526641636	0.1476220591964632	-0.30784186630541605	0.45546392550187925	70.57665389779879
9	4.0	ltm	168	diff_vonmises	0.39192740907634827	22.45578641557207	0.5974776453781415	195.4619618249663	0.5861186442393219	197.06124854700855	-0.0006330294769014699	-0.36608896657924106	0.3654559371023396	105.08216276346133
10	4.0	perception	168	diff_vonmises	-0.10838865646203961	-6.210212562368247	3.0514201188831134	2.057531148015323	3.5268395164925347e-13	4.065633435671024	0.7136021689692231	-0.6440223906758348	1.3576245596450578	78.64870801862745
11	4.0	wm	168	diff_vonmises	-0.05574955642977432	-3.1942142931524904	0.9866035143047656	194.4039414655536	0.9670331807898114	196.7521320615044	-0.06665133924562383	-0.51137668863473	0.44472534938910613	78.95269424390526
12	5.0	ltm	168	diff_vonmises	-0.009689487902823667	-0.5551667624748632	1.708957488058418	1.2091918913720283	9.687644923332464e-11	2.138600814546458	0.2265821517744978	-0.32178191734013933	0.5483640691146372	104.35242618393247
13	5.0	perception	168	diff_vonmises	-0.057910250946077095	-3.3180129697537004	2.204704786707013	2.150803336898961	4.4020849006982735e-15	2.783081493432777	0.7335665891202268	-0.4286310971244816	1.1621976862447083	92.56801443058401
14	5.0	wm	168	diff_vonmises	-0.05636030207318996	-3.2292074408762086	0.6726328897303041	169.03125021798786	0.6598664939981344	169.94348032365085	0.1579600559223735	-0.2789799282661942	0.4369399841885677	105.27633782669658
15	6.0	ltm	168	diff_vonmises	0.34207139443150514	19.599247193080135	0.49271990221141343	155.4393787168509	0.48215609610817894	156.08824395701114	0.14833887876999086	-0.24744069116571943	0.3957795699357103	123.2214951150226
16	6.0	perception	168	diff_vonmises	-0.11389890751411491	-6.525926691709683	1.6236807047892414	1.8486652420762015	1.434879208203991e-12	2.5074228079213174	0.44111387429765714	-0.36640161622300876	0.8075154905206658	106.71876823216027
17	6.0	wm	168	diff_vonmises	0.0632780722186421	3.6255664738522175	0.787844928064772	160.84063980427595	0.7722460803965745	161.72158202879075	0.21628297595881918	-0.2844450021185043	0.5007279780773235	98.3031359363739
18	7.0	ltm	168	diff_vonmises	-0.09387152887462646	-5.378442420956539	0.928426208336419	131.1542713324499	0.8987987609407248	133.0701143468958	0.12167829452959467	-0.46982913016024597	0.5915074246898406	86.33890136063084
19	7.0	perception	168	diff_vonmises	0.0010461629481537803	0.059940721612175174	1.026542323863529	332.85190775561654	1.0068950524358482	334.6308801786112	0.6250606375323855	-0.6177583319982745	1.24281896953066	86.94414508210357
20	7.0	wm	168	diff_vonmises	0.24898891938354464	14.266014226200204	10.989302916720762	0.587630460709797	1.635123699538987e-18	2.493402632333009	0.37098045719064565	-0.39683735383527835	0.767817811025924	40.92424284092971
0	1.0	ltm	169	diff_vonmises	-0.14760175249123983	-8.456957466482626	0.9549214671871846	86.7025908820251	0.9341648828376595	87.92799460509575	-0.06156168852425736	-0.2575526509787025	0.19599096245444514	78.71611891798187
1	1.0	perception	169	diff_vonmises	0.05286373427029704	3.0288688629891127	11.234698602435694	0.6638804777555242	9.627761292467074e-22	1.8207388661830213	0.58764451085104	-0.2897795904794959	0.8774241013305359	40.46686341600733
2	1.0	wm	169	diff_vonmises	-0.07039039188272515	-4.03307237315208	8.92815226357467	0.1907591106882051	7.666209066978192e-19	1.6571848975737982	-0.03971949058453342	-0.26374916412686733	0.2240296735423339	45.455279744318915
3	2.0	ltm	169	diff_vonmises	0.17507507351783352	10.031062810514468	3.4019900183329943	0.3528412633976902	3.0669224132102435e-20	1.2683293896941001	0.04622643153156514	-0.20158567562032584	0.24781210715189098	74.38889699867795
4	2.0	perception	169	diff_vonmises	0.0034042605928408984	0.19504976433248702	8.790809787799073	1.1010614925501556	0.20717446287365504	2.0114499437369777	0.8930983064117965	-0.3376928710497156	1.2307911774615121	44.77891983316937
5	2.0	wm	169	diff_vonmises	0.1337349956023084	7.662450821212896	7.2997245486159645	0.21564352093577988	0.02574996669636506	1.3256886948338935	0.011683280398230578	-0.2113852922669859	0.22306857266521649	49.6973068401652
6	3.0	ltm	169	diff_vonmises	0.24159858950021426	13.842579514675963	3.04716306299352	0.8222068950893298	0.9383664398730611	1.1670126010857753	0.15816877391995843	-0.13540923631894447	0.2935780102389029	62.99695640018638
7	3.0	perception	169	diff_vonmises	0.03085224320816519	1.7677033243390243	5.729000242978621	1.695118029587969	0.38047978836163787	1.982956253062189	1.1343613096027068	-0.31336794190353484	1.4477292515062417	54.44853089743734
8	3.0	wm	169	diff_vonmises	-0.05806525139524501	-3.3268938413136535	6.2317107994811245	0.32157692941069066	0.4550449406494067	1.0051329407140062	0.07365275462182003	-0.17693945128026822	0.25059220590208825	49.116132334480625
9	4.0	ltm	169	diff_vonmises	0.001885066098380478	0.10800633154039421	1.2782949244811161	168.26551077568644	1.2661352405970743	169.24188229284138	-0.008373336973164669	-0.23593590833235822	0.22756257135919356	69.92325427220078
10	4.0	perception	169	diff_vonmises	-0.0345596140315281	-1.9801200256076603	3.2090727940588955	1.8138319752275045	0.20961924674774823	3.0845090741882193	0.6354251536557678	-0.4397242754118969	1.0751494290676646	71.57244224725943
11	4.0	wm	169	diff_vonmises	-0.022880456844894596	-1.3109536105436759	1.0388276592550294	90.46864430539699	1.0191861967772353	91.784893972955	-0.1192998399825278	-0.27067922300989267	0.15137938302736487	71.66977345459111
12	5.0	ltm	169	diff_vonmises	0.26817915633994466	15.365533811657903	0.9233637692716998	108.05834373155199	0.9028743914803379	108.89635557814708	0.15048010041770254	-0.24079879509958602	0.39127889551728856	89.46463492754108
13	5.0	perception	169	diff_vonmises	0.0407147997166995	2.3327861874873212	4.203074099707008	1.4298722690774412	1.1639793746535092e-17	2.328971746232302	0.7586531230283664	-0.37041493919697643	1.1290680622253428	66.74452198452497
14	5.0	wm	169	diff_vonmises	-0.03358159060193644	-1.9240834108271476	0.34928336438393387	97.88767277330903	0.33543681545545484	98.98592172611218	0.007572185169735235	-0.29543001916414546	0.3030022043338807	136.14529526179464
15	6.0	ltm	169	diff_vonmises	-0.3076168039489128	-17.625144573575977	0.39186878324460533	84.63009714563152	0.37827863161138636	85.55645722077467	0.002572555261433962	-0.24023160179263492	0.24280415705406888	129.74088337480543
16	6.0	perception	169	diff_vonmises	-0.2163961495259278	-12.398586070717554	2.1571687826254924	1.1093516890229875	4.967451861838965e-19	2.190348581388971	0.2503379548296055	-0.34059286435781766	0.5909308191874232	93.51058518969499
17	6.0	wm	169	diff_vonmises	-0.3169808221066164	-18.161663293296264	0.4939924569746218	80.97348444193382	0.4698999126271146	82.16076620332741	0.07727542235693008	-0.3353523601379722	0.4126277824949023	120.53812765230523
18	7.0	ltm	169	diff_vonmises	0.39214842068913175	22.46844944820794	0.6153477794647271	130.2526182691231	0.6021412974513068	131.09347492603254	0.1021968874692547	-0.24350020442840759	0.3456970918976623	109.02093176474528
19	7.0	perception	169	diff_vonmises	-0.049724191229757846	-2.8489862971665474	2.6020237090944054	1.398042321411499	8.47637256897243e-18	2.489020235274843	0.44733347882062696	-0.3915055099227266	0.8388389887433536	85.26604832438176
20	7.0	wm	169	diff_vonmises	0.2622756581390088	15.027288280381205	6.234874705048424	0.29560947560496637	0.015663204835203757	1.3750491329755237	0.06576581078280913	-0.21826793797427488	0.284033748757084	54.09535848368506
0	1.0	ltm	170	diff_vonmises	0.018614668860587772	1.0665419627452764	0.9002639949241338	224.4885176090676	0.8853999470941987	226.7189945175478	-0.07788704924544732	-0.47361578940220994	0.3957287401567626	82.2377245912848
1	1.0	perception	170	diff_vonmises	0.041700363109061334	2.3892548103122504	7.925136047888054	0.7607760395731753	1.001492736575906e-14	2.784257206518823	0.39678821398714087	-0.4431281874296606	0.8399164014168015	48.293219389328044
2	1.0	wm	170	diff_vonmises	0.08522344608536246	4.882943776251986	5.826076567338465	0.3509913005705282	5.967536301818398e-16	2.4901444556605563	-0.06628197523355767	-0.3963159276422914	0.33003395240873373	56.46984450381129
3	2.0	ltm	170	diff_vonmises	0.004616507025235055	0.2645063686384633	3.584989996618203	0.677294865168921	0.12460393681773216	2.03562208165529	0.12473143842150175	-0.30935541243770437	0.4340868508592061	68.02419766903205
4	2.0	perception	170	diff_vonmises	-0.03278044391745653	-1.8781810870355498	7.482167777423013	1.127317004144929	0.008254032640135533	2.440692062885017	0.8165259781532916	-0.38781468929263585	1.2043406674459276	49.61884577737101
5	2.0	wm	170	diff_vonmises	0.014648729937382267	0.8393104006389426	4.747334935451629	0.4971723040602606	0.09379877116161245	1.9655249326515722	0.07649619910613187	-0.30923979304130106	0.3857359921474329	59.96024083232234
6	3.0	ltm	170	diff_vonmises	0.18019554861227077	10.324444422527574	3.3285453940092675	0.6669639515603497	0.22372327009236656	1.4031129706630208	0.18739603307299307	-0.20404330868668125	0.3914393417596743	69.28124775757965
7	3.0	perception	170	diff_vonmises	0.051138529213794824	2.930021894456907	5.1493212947173825	1.779307881866425	0.06281444383194876	2.3902444235163696	1.162578011081389	-0.3722951487274236	1.5348731598088126	59.42103510870581
8	3.0	wm	170	diff_vonmises	-0.07328183632783782	-4.198739936553582	3.2688293413869984	0.6742492752919633	0.16651563017033003	1.6290858723721822	0.15943520228737745	-0.24051542938975248	0.39995063167712996	70.53362477896101
9	4.0	ltm	170	diff_vonmises	0.20869782723731836	11.957504694248739	0.35465535469068105	114.87195211243069	0.3425958663036468	116.24512344450423	-0.04790549546943623	-0.32757888382041855	0.2796733883509823	132.80789212665
10	4.0	perception	170	diff_vonmises	-0.0564791472110858	-3.2360167656932903	2.688304687543042	2.450239502931368	0.16657416563322394	4.370471153064291	0.6906271211929043	-0.6116802680785643	1.3023073892714687	78.16535965363622
11	4.0	wm	170	diff_vonmises	0.03504512677110185	2.0079378564850705	0.8785163354075711	174.81886198995693	0.8637706320485639	176.72022398844496	-0.108917650606692	-0.38967591412182045	0.28075826351512845	81.39885061040147
12	5.0	ltm	170	diff_vonmises	0.24238453301551988	13.88761076103865	1.3675529878254988	2.212785821205389	0.40191641962604846	3.214270280959807	0.1718502972261966	-0.2855046593395945	0.4573549565657911	93.17454354414275
13	5.0	perception	170	diff_vonmises	0.017674179279202003	1.0126558790558462	2.4713692775955924	2.1936461772355274	1.867423493666541e-14	2.952507964803752	0.8142168205243681	-0.4607439770142115	1.2749607975385795	87.49448075928211
14	5.0	wm	170	diff_vonmises	0.019307615285130527	1.1062448683002568	0.563513761214648	167.09485416986817	0.5504594843427496	168.1439738745695	0.14212993261602946	-0.32315739895497586	0.4652873315710053	114.62299357228282
15	6.0	ltm	170	diff_vonmises	0.2901106586216378	16.622116330780457	0.613448787795467	97.00741348915908	0.5993405568697119	97.76118150475763	0.0591123901236692	-0.20163382474158986	0.26074621486525906	107.79054322275559
16	6.0	perception	170	diff_vonmises	-0.17752095209982513	-10.17120133046403	1.5543109733387384	1.7195972109784308	3.973399425997619e-15	2.403393612375526	0.37857600346241316	-0.3485194403946733	0.7270954438570865	108.7014492139716
17	6.0	wm	170	diff_vonmises	-0.12811444790265022	-7.340417159470519	0.5334026240477288	141.5840197287047	0.5201100938453289	142.57512558843734	0.1048589478303441	-0.29502371083042433	0.39988265866076844	117.02060241312495
18	7.0	ltm	170	diff_vonmises	0.04681260190821445	2.682164517366752	1.124814439777559	60.78917040108784	1.0791874405827577	61.991377272244044	0.09038947469601766	-0.30578008615334085	0.3961695608493585	78.59527929666763
19	7.0	perception	170	diff_vonmises	-0.0029819816714236223	-0.17085496435794056	0.9790765797817483	119.74356331773717	0.9387821244908062	120.76598733463535	0.5781942184055353	-0.44064104115421543	1.0188352595597507	91.25145003528567
20	7.0	wm	170	diff_vonmises	-0.34662866548825016	-19.86035959072875	0.0004571724771152621	2258.387533524153	1.879445551003464e-31	2259.837110268366	-0.06636589278946303	-0.39501115411877663	0.3286452613293136	176.56715090313776
0	1.0	ltm	171	diff_vonmises	-0.031256996090356315	-1.7908939562343316	1.5650571825014266	2.098873207106226	0.5719306563207897	3.3758728335992547	0.054276353954477496	-0.3016389070816305	0.355915261036108	80.61633365571876
1	1.0	perception	171	diff_vonmises	0.005427815640429822	0.3109909281717268	11.449611899050144	0.6807986612216045	9.926754477198956e-16	1.9713332477099788	0.5946595483732593	-0.3137474307513042	0.9084069791245635	40.086792733241225
2	1.0	wm	171	diff_vonmises	0.0886026827507964	5.076559775157213	3.072593911830557	0.456883632771973	1.1686397058739073e-17	1.8618599433252099	0.007012610374705519	-0.29567392440342477	0.3026865347781303	78.3703881182546
3	2.0	ltm	171	diff_vonmises	0.09251076175215904	5.300476207938994	5.3713390668994085	0.37693187305054465	1.4042423867122832e-14	1.098162502144708	0.16473319993065522	-0.17477065498898608	0.3395038549196413	58.86508406765691
4	2.0	perception	171	diff_vonmises	-0.03800203291965678	-2.1773560992135508	8.310538174252333	1.0047237657739236	2.07932149914806e-20	1.56729443376566	0.8875736768420178	-0.24944258765046923	1.137016264492487	47.138893835226156
5	2.0	wm	171	diff_vonmises	0.007122010957909657	0.40806116953414795	5.974708927785641	0.3806281988453486	0.049085258541534324	1.2476671337803618	0.15419501432804314	-0.1977539036066714	0.3519489179347145	54.80718330565614
6	3.0	ltm	171	diff_vonmises	0.20362363684409426	11.666775000271171	3.296851918090103	0.5182083700013848	0.22580364116259832	0.8665685144936957	0.18731641846478655	-0.12362012762540955	0.3109365460901961	70.50029473107156
7	3.0	perception	171	diff_vonmises	0.025264666274909253	1.4475587483588075	5.821762283023787	1.4910177130562048	0.09153743719756754	1.7872605881080976	1.0901583295374464	-0.27971566508251633	1.3698739946199627	55.76598774746998
8	3.0	wm	171	diff_vonmises	-0.03391487421054932	-1.9431791549815556	3.3754235137165227	0.8455539456576135	0.5353127866848781	1.439355991637977	0.22725109667759763	-0.19792733451820205	0.4251784311957997	64.76303788887887
9	4.0	ltm	171	diff_vonmises	-0.1098944609185617	-6.296488802498954	1.3003216853385287	132.3053657352772	1.2844348048103127	133.11578247014037	0.06274473653117951	-0.21570360104701436	0.27844833757819387	72.31917080155876
10	4.0	perception	171	diff_vonmises	-0.0552968476488289	-3.1682759906558053	2.9362318993600427	1.9966985242521853	0.07122231143318758	3.1937949131383245	0.7466492790713708	-0.4746538695079943	1.221303148579365	77.89792927370684
11	4.0	wm	171	diff_vonmises	-0.009581997209715748	-0.5490079994228435	1.1660843261139566	197.35355690907807	1.1518713820755506	198.85245605499352	-0.03375900531503362	-0.3446897109624487	0.3109307056474151	72.65201076094013
12	5.0	ltm	171	diff_vonmises	0.189765493304932	10.872761863590684	1.839781590979583	0.9344433859006532	0.03350238175375748	1.471892659851621	0.21609347749418603	-0.21491325518233095	0.431006732676517	99.12892132192522
13	5.0	perception	171	diff_vonmises	0.02001616672829024	1.146841875561212	2.6342550840706442	1.7456795803510248	1.4500330484231064e-16	2.0768132530124	0.730265368506329	-0.325070520970231	1.0553358894765599	84.74011382358276
14	5.0	wm	171	diff_vonmises	0.030689215752679386	1.758362539194931	0.601189778529107	142.13183093049972	0.5878944745823704	142.73752943329498	0.19800440345137815	-0.24477393616379928	0.44277833961517743	114.15910121103074
15	6.0	ltm	171	diff_vonmises	0.35268653383658416	20.207449879934174	0.7205498475581797	80.24898615700184	0.7057775843260141	80.63062360846902	0.11705097107480711	-0.1377647131483304	0.2548156842231375	103.81374512444418
16	6.0	perception	171	diff_vonmises	-0.10347646177394086	-5.928764538593607	1.8453142162298428	1.4846902083519502	9.090549628773114e-12	1.9259979282274604	0.4229155043851724	-0.28832771568206617	0.7112432200672385	100.73710780794306
17	6.0	wm	171	diff_vonmises	-0.0894110316251245	-5.122874754030364	0.5978619326974611	135.7145372779191	0.5829019313894045	136.41497560646647	0.20016292228604726	-0.26821129573614755	0.4683742180221948	114.05734106748892
18	7.0	ltm	171	diff_vonmises	0.054319451293730926	3.1122753045972216	1.1681185195507764	87.78506177131861	1.1395268841986073	88.59271712821821	0.169536508075943	-0.24163890593029258	0.4111754140062356	79.62711884370322
19	7.0	perception	171	diff_vonmises	0.042460117692807	2.4327855414265955	2.635458791505104	1.4037608453332804	6.132317174018763e-13	2.2858561109667166	0.489391033721023	-0.35942015521858983	0.8488111889396128	84.72275363417145
20	7.0	wm	171	diff_vonmises	0.029545298453941844	1.692820905865264	1.0674571569494842	1.0577384937912695	4.407783752001176e-33	2.0378305890573203	0.05055889438470956	-0.27999697297527676	0.3305558673599863	125.8117559438668
0	1.0	ltm	172	diff_vonmises	0.004843881457332839	0.2775339639668502	1.475988895069165	3.409043022898403	0.5055931737137568	6.860071437758458	-0.237550599960777	-0.6916803537303422	0.4541297537695652	77.61109437007335
1	1.0	perception	172	diff_vonmises	0.05865764102144447	3.360835266722215	11.527283449044578	0.7513887191731206	0.04265014216624381	4.033968045812801	0.3363176439766694	-0.6524991999362314	0.9888168439129008	39.55184797975727
2	1.0	wm	172	diff_vonmises	0.1106942884476202	6.342315544252383	3.6151868914855965	0.5571765790189024	0.07415708706417366	4.187111398696242	-0.31151185161651673	-0.6549058819961554	0.34339403037963867	66.32449777575701
3	2.0	ltm	172	diff_vonmises	0.004900783788881334	0.2807942274090331	2.807399647425206	0.8789397380382503	0.174408736853852	2.4576313393705647	0.09201326127698789	-0.35626370264770324	0.44827696392469113	74.19023314968615
4	2.0	perception	172	diff_vonmises	-0.045559570246656196	-2.610371091563199	7.097054919940409	1.225883596281023	0.16688295419555632	2.8098250765409114	0.7532549375639824	-0.4582393610646357	1.2114942986286181	49.60511588861502
5	2.0	wm	172	diff_vonmises	0.0398941442910522	2.285766095163219	4.589991265188837	0.5213357532937688	0.0849522285588289	2.462687585174645	0.005879036235495294	-0.3876516108514872	0.3935306470869825	60.72334843340036
6	3.0	ltm	172	diff_vonmises	0.11402052073804946	6.532894616174112	2.415442006237996	0.7945182241556603	0.1416149490081555	1.8240971674029054	0.1260176531578589	-0.25736219859218923	0.38337985175004813	81.3722817187656
7	3.0	perception	172	diff_vonmises	0.04775301257852773	2.7360460797847717	5.051635673328244	1.8041171453285942	0.11798044494362898	2.768705989120691	1.078808299687829	-0.42906014765122535	1.5078684473390545	59.32618799429949
8	3.0	wm	172	diff_vonmises	0.040499487832653405	2.3204497252524696	2.9626172494032756	0.7570741094784366	0.1921095353142105	2.2209913007451623	0.06786928000849696	-0.3249606345611989	0.39282991456969585	71.740699526627
9	4.0	ltm	172	diff_vonmises	0.06953895385015474	3.984288567368873	0.5785583649302993	145.494038012181	0.5641202586478855	147.499356358727	-0.12253615168545906	-0.40235730599879815	0.2798211543133391	101.13609374384262
10	4.0	perception	172	diff_vonmises	-0.03761190506919713	-2.155003419911702	2.501996318523716	2.6335633603767397	0.20950439287039224	4.694739208580538	0.6415259431100875	-0.6340166316991988	1.2755425748092861	79.40126118324952
11	4.0	wm	172	diff_vonmises	0.15142544537018843	8.676038930600608	0.7044988647931757	207.12739205898367	0.6900057682879777	209.71401826371005	-0.1590278559851015	-0.5151193448101843	0.3560914888250828	90.89110769437568
12	5.0	ltm	172	diff_vonmises	0.07952764973524767	4.55659868442439	2.021973804541624	1.0349082149376376	0.02869089712746278	2.6768820540190665	0.09904884259350022	-0.4044837039807715	0.5035325465742717	94.24615298494004
13	5.0	perception	172	diff_vonmises	0.029519187788043265	1.691324874908999	2.088415843126967	2.5198652946716233	0.04198586220054918	3.965701135986755	0.6763558435234207	-0.584464776461668	1.2608206199850887	93.07428034344969
14	5.0	wm	172	diff_vonmises	-0.013828660748173667	-0.7923238971885744	0.5271545108550879	246.1879783602677	0.5156994402582109	248.07376980009818	0.05792919810023989	-0.479951427255326	0.5378806253555659	114.54237571804211
15	6.0	ltm	172	diff_vonmises	0.35938612273464443	20.59130804826573	0.5853881844221844	124.51672197424168	0.5683590549074296	126.07318685508262	-0.003666937395394143	-0.356730330752864	0.35306339335746983	106.39928562299895
16	6.0	perception	172	diff_vonmises	-0.06377082752759468	-3.6537992733878655	1.2553526180723202	2.3455032404111225	1.7485682294890907e-11	3.8751734151452966	0.29637428949388434	-0.542593674019656	0.8389679635135403	118.64916757464889
17	6.0	wm	172	diff_vonmises	-0.024767892484338243	-1.4190957067863728	0.4866374714007668	241.02787750485908	0.4750894571769464	242.84407323127547	0.07892067255672686	-0.4891896349455003	0.5681103075022271	120.03494278251397
18	7.0	ltm	172	diff_vonmises	0.04294151268686896	2.460367442865071	1.1008758746789302	167.74239888331323	1.07738493325646	169.83281306586963	-0.006161406121982793	-0.4823559207298196	0.4761945146078368	76.04541186718333
19	7.0	perception	172	diff_vonmises	0.07695098935144304	4.408966919193826	1.6463147285867024	3.315460805698321	0.36618969264224777	5.01164708963792	0.406846981517488	-0.5148464271263222	0.9216934086438102	88.99780793667472
20	7.0	wm	172	diff_vonmises	0.21016882338247156	12.041786565046031	1.2818311856996756	4.03372287240336	0.5683015559545369	6.345722644483836	-0.05721372167526573	-0.49338389825358886	0.43617017657832313	82.90048407391234
0	1.0	ltm	173	diff_vonmises	0.2326599007750322	13.330430376341857	2.7892983330983827	0.5115024453758549	1.3727077657339236e-16	2.3827517136665968	-0.057933359499559856	-0.37801279837721385	0.320079438877654	82.30831609878953
1	1.0	perception	173	diff_vonmises	0.051357868837661844	2.9425891291844746	6.792984111262021	0.8160045129800999	0.1071738489309338	2.8010883101803405	0.33681036816897136	-0.4518898153735243	0.7887001835424956	50.719402353758284
2	1.0	wm	173	diff_vonmises	0.12993370923668437	7.444653155742016	4.119915192479223	0.40318323258132727	4.190776633978825e-15	2.391272437430816	-0.06560172165380995	-0.3804996754136714	0.31489795375986146	67.4354598433537
3	2.0	ltm	173	diff_vonmises	0.08571617200580971	4.911174891950313	3.224392770418683	0.8656905370356466	0.3882586389605791	1.9305341196872694	0.15422754121914267	-0.27562860712942416	0.42985614834856684	66.40485755197648
4	2.0	perception	173	diff_vonmises	-0.030987942523905614	-1.7754783224137638	7.752348405001446	1.0692309148970012	4.781195323189837e-22	2.1842109523872795	0.8195577614981161	-0.3476277542583489	1.167185515756465	48.83182310449118
5	2.0	wm	173	diff_vonmises	0.07246611439523311	4.152002512559077	6.10416556242148	0.4302699512975706	0.055095335436812456	1.8006905190227322	0.11203336966329658	-0.2864520164836487	0.3984853861469453	53.922571419501594
6	3.0	ltm	173	diff_vonmises	0.25732186404313795	14.743456786110977	2.8097767739263113	0.8864760013613746	0.297026866784992	1.5977845188233342	0.22437505316961381	-0.21607127874967272	0.4404463319192865	73.53621752484432
7	3.0	perception	173	diff_vonmises	0.013934516035376229	0.7983889583844265	5.6559203353576155	1.6250301718320777	2.8988727667065294e-17	2.5863850089031444	1.0926433369507655	-0.41161756436669616	1.5042609013174617	57.33179324026591
8	3.0	wm	173	diff_vonmises	0.03388822110470612	1.941652044505825	3.9395206824676445	0.7212312977771094	0.23396257936955414	1.9454866821534236	0.16397281074201325	-0.29703541003175793	0.4610082207737712	63.275022730620464
9	4.0	ltm	173	diff_vonmises	0.366616597892793	21.005583758701828	0.6974460152663867	187.22079295874872	0.6856602346919807	188.76567923757503	-0.014978609715534219	-0.33904881203140036	0.32407020231586614	96.04026624143864
10	4.0	perception	173	diff_vonmises	-0.06831572733981381	-3.914202850937822	3.1510274177314246	1.9502677723219888	2.5674654525329526e-16	4.056427213882886	0.6678569730425463	-0.643193468234663	1.3110504412772093	77.36981048898417
11	4.0	wm	173	diff_vonmises	-0.04052880721714381	-2.3221296022416915	1.0009856084531767	210.11343309015325	0.9841305249828947	212.48316215968072	-0.13228065785588683	-0.50058324129893	0.3683025834430431	76.30402289939451
12	5.0	ltm	173	diff_vonmises	0.07192086792017911	4.120762190744098	1.8060883931224585	1.03425729273381	9.928829066738173e-13	1.8566943168640642	0.20604558304993198	-0.2819636812426638	0.4880092642925958	101.74322755655362
13	5.0	perception	173	diff_vonmises	-0.03264604805553443	-1.8704807713633904	2.2304185709359308	2.0367746254396573	4.0885382498226446e-20	2.5768419578536044	0.7117966766696733	-0.3971558672035956	1.1089525438732688	92.0450393718244
14	5.0	wm	173	diff_vonmises	0.015497686167444354	0.8879520096128375	0.6782964362848132	159.0940839712163	0.6640768935364688	160.01027525966632	0.17611026448377487	-0.2879282051498322	0.46403846963360706	105.27380349465207
15	6.0	ltm	173	diff_vonmises	0.3685933433662031	21.118842931499817	0.5009318026665114	134.43730112058518	0.4895666803859849	134.9408255642113	0.1620984643270802	-0.21933541006459123	0.3814338743916714	123.28322010781196
16	6.0	perception	173	diff_vonmises	-0.05836800288645058	-3.344240224001025	1.7246235624292827	1.6066000156180493	9.986897170530031e-19	2.1711549304359323	0.4119452946114343	-0.3214832584116125	0.7334285530230469	103.91556282411236
17	6.0	wm	173	diff_vonmises	0.1206504580451756	6.912762042308771	0.6860967026363952	186.52973934731062	0.6742413323912663	187.3914114545971	0.18011788502148107	-0.27645609542854643	0.4565739804500275	104.8742634199152
18	7.0	ltm	173	diff_vonmises	-0.011944190058291301	-0.6843516800422083	1.4212560435396748	3.281399796805541	0.5447339676795179	5.002684063672586	0.09944278046153299	-0.41396172018064403	0.513404500642177	84.59160987833889
19	7.0	perception	173	diff_vonmises	0.04163769354752373	2.38566410893221	1.1122552148487994	10.498719879885599	0.647586422199923	12.058405913403426	0.498167192115472	-0.5354043522274038	1.033571544342876	93.77602217648828
20	7.0	wm	173	diff_vonmises	0.21674801183475836	12.418746295983274	6.130736430359776	0.5116018314215371	1.1481510989787313e-29	2.3129340930953797	0.12594057498876227	-0.3681125560511668	0.49405313103992904	55.02541557027587
0	1.0	ltm	174	diff_vonmises	0.11593007208546413	6.642303849144493	1.7892027172871057	1.3408958870326106	0.44871555191145496	2.385608309202115	0.08067608681482774	-0.2551818009948863	0.33585788780971404	81.07385064170043
1	1.0	perception	174	diff_vonmises	0.06544737067316705	3.74985811980075	7.95929952673555	0.6053232759323833	0.023615335681878773	1.8282419940755792	0.37197047023792557	-0.2911983284694594	0.663168798707385	47.89551384052373
2	1.0	wm	174	diff_vonmises	0.1625378371647797	9.312732080726496	4.371523741948371	0.35166305748069476	2.3523606705689424e-21	1.427949974272148	0.05645373266677606	-0.2272200188397576	0.2836737515065336	65.4116058318163
3	2.0	ltm	174	diff_vonmises	-0.003772259596685497	-0.21613455411780108	2.040648806307242	3.3126249458997004	1.2811297956192866	3.7389943259568157	0.25654103410332385	-0.19073518888388186	0.4472762229872057	68.83770333490207
4	2.0	perception	174	diff_vonmises	-0.02810750011338423	-1.6104411291603993	7.121067302377022	1.016177926631979	1.7182800857571877e-22	1.5162856326683967	0.8199268734248389	-0.2413236606622201	1.061250534087059	50.98723804792746
5	2.0	wm	174	diff_vonmises	0.0671702118231461	3.8485696464660144	6.558026638202963	0.37800757923433687	0.19316866079483258	1.0977557892154153	0.16823731434551514	-0.1798763472320362	0.3481136615775513	50.880985317584276
6	3.0	ltm	174	diff_vonmises	0.21113913112638594	12.097381103601185	1.4332868910185466	97.19352510621245	1.4107398389307548	97.42709833210395	0.2919632727700048	-0.151608979384811	0.44357225215481577	76.35798514293589
7	3.0	perception	174	diff_vonmises	0.016826545952558974	0.9640900668645668	5.692394538344802	1.4383571278797576	0.00871469348505147	1.9346502403257715	1.025449528942932	-0.3063695164875862	1.331819045430518	57.03151728644218
8	3.0	wm	174	diff_vonmises	0.09154991487028197	5.2454237368491325	3.749207879369172	0.7626503774618452	0.42771978394786647	1.396622563551525	0.24005334744212925	-0.20329616955779214	0.4433495169999214	63.2778072000535
9	4.0	ltm	174	diff_vonmises	0.1581246145833823	9.059873052760594	1.027478916646684	112.34546713115479	1.01111168939059	113.1681110691598	0.06441180061266749	-0.20751415193070955	0.27192595254337704	81.98431473867859
10	4.0	perception	174	diff_vonmises	-0.11607274298489904	-6.650478289541448	3.1112010801116545	1.9659054603025412	1.145929235516854e-15	3.2824120725891497	0.7920075636888432	-0.5198033749533637	1.311810938642207	77.8761190371905
11	4.0	wm	174	diff_vonmises	-0.09482563854475938	-5.433108878247774	1.2943511317763443	208.84470027981249	1.2771682362605021	210.4438655983726	0.024889906044364807	-0.39790999147229655	0.42279989751666136	70.53784284042763
12	5.0	ltm	174	diff_vonmises	0.0071224763918124896	0.40808783693242257	1.62317885504853	1.1111255584945166	2.2654004313602296e-14	1.5272057174943534	0.2618350420822159	-0.22341228998091164	0.48524733206312753	106.76500286863066
13	5.0	perception	174	diff_vonmises	-0.05553936581031782	-3.1821712577643924	2.561391282500301	1.7606828041798595	8.266967567035613e-19	1.8621538802265498	0.7561607979929601	-0.2900983562041239	1.046259154197084	85.94180123908424
14	5.0	wm	174	diff_vonmises	-0.021993697446105177	-1.260146039549484	0.7128582375985083	118.01977853456292	0.6987335610658634	118.3896321831102	0.21264899923628633	-0.18147822564311866	0.394127224879405	106.61338198356728
15	6.0	ltm	174	diff_vonmises	0.35958519627554214	20.602714121971893	0.6379717027997028	102.52151263685778	0.6256274478344501	102.6971240906253	0.19270801319212083	-0.13998222974859598	0.3326902429407168	114.15113510550509
16	6.0	perception	174	diff_vonmises	-0.12408790690915647	-7.109713354506914	1.8034260945605107	1.6376250470674099	4.0536284735655246e-11	1.7821300115363001	0.5097953572192431	-0.26210323676989983	0.771898593989143	101.79737798671094
17	6.0	wm	174	diff_vonmises	0.01545821918437217	0.8856907180526872	0.8825610484877059	119.19108143374949	0.8640968586770028	119.59280922134742	0.2927298348154821	-0.2047416234715307	0.4974714582870128	96.4752658151983
18	7.0	ltm	174	diff_vonmises	-0.05782387041442928	-3.313063729858184	0.9631467551777726	62.14380174737642	0.9147819773531222	63.22285230423034	0.2198819416728064	-0.31901237085142764	0.538894312524234	88.62121144521913
19	7.0	perception	174	diff_vonmises	-0.014264130061239593	-0.8172744509347132	2.02467938170043	3.4172803289922475	0.4448502764062925	4.662401804961547	0.6734649044928436	-0.49094334094198555	1.1644082454348292	82.10200081138441
20	7.0	wm	174	diff_vonmises	0.2939194549567914	16.84034428580965	8.554562800648526	0.5794553970581977	7.09405274701162e-19	1.6205305952893507	0.40772746832152307	-0.25791542996203254	0.6656428982835556	46.45099176913965
0	1.0	ltm	175	diff_vonmises	-0.07509608881689299	-4.302688947147548	0.9512753888528835	232.423018916072	0.9329272119318877	235.62793140006423	-0.24411182359186512	-0.6520156462857756	0.40790382269391046	76.40399718848812
1	1.0	perception	175	diff_vonmises	0.08149435227372137	4.669282439436599	15.335577432363037	0.6384780029333433	8.876183372320759e-16	3.658152055074764	0.40663837634573297	-0.5822129821468763	0.9888513584926093	34.59381514787728
2	1.0	wm	175	diff_vonmises	0.030480829574695688	1.746422890687603	3.778393697701751	0.5298268013586572	0.14781168685188398	4.066756898253191	-0.3514429666738632	-0.6449262729937225	0.2934833063198593	61.32224838941133
3	2.0	ltm	175	diff_vonmises	-0.042325925714356935	-2.425096907416896	2.4561288231700202	0.8910029217239953	0.1521065054683235	2.409664587888177	0.07570509769237638	-0.3429938191317269	0.41869891682410326	79.39063635886995
4	2.0	perception	175	diff_vonmises	-0.025238707157025135	-1.4460714004641648	7.17019504822694	1.2530342077241141	0.25531457804745417	2.92041903886851	0.7229077832808363	-0.48870234185306405	1.2116101251339004	48.69768448234052
5	2.0	wm	175	diff_vonmises	0.10359146508585824	5.9353537429965	5.716301169749674	0.34638626943332435	0.04931781374626524	2.2940680966986156	-0.06087758637942875	-0.3651808880739477	0.30430330169451897	55.22764826438663
6	3.0	ltm	175	diff_vonmises	0.07946814121719577	4.553189097494938	1.075826918341559	102.50310519393922	1.0533327743087202	103.40224173020788	0.1171145277730048	-0.24322509294026773	0.3603396207132725	81.52087668895993
7	3.0	perception	175	diff_vonmises	0.05831436587907703	3.3411670498528085	4.685962053653999	1.9929381099135384	0.32630674839516355	2.8203307297318676	1.0632792528401116	-0.42799141125219087	1.4912706640923026	59.62470474939437
8	3.0	wm	175	diff_vonmises	0.2128318595158996	12.194367296182296	0.8295529979977614	50.89142604633466	0.7920146661603749	52.247708941002344	-0.04497613942834988	-0.2855638774000706	0.24058773797172073	86.61453064495541
9	4.0	ltm	175	diff_vonmises	-0.01117659281957342	-0.6403715978977778	0.7218041654800007	183.39476344869368	0.7098837102088057	185.29266826301705	-0.12670167223831186	-0.374877169673411	0.24817549743509915	89.01401372457795
10	4.0	perception	175	diff_vonmises	-0.03592513853865821	-2.0583588166878974	2.239573788861547	3.142770952186909	0.4155494164058638	4.883032158397277	0.6070607548613443	-0.5675977490789973	1.1746585039403414	78.49756896843311
11	4.0	wm	175	diff_vonmises	0.06741245067998208	3.86244891059679	1.153803258312537	1.7997628166719102	0.2829091561963759	4.010763504356065	-0.1634140398965802	-0.4262864964517189	0.2628724565551387	93.03816473499779
12	5.0	ltm	175	diff_vonmises	0.09805534222712646	5.618157268325268	1.1678468690946937	3.7983962639789204	0.46899807467079563	5.731490739474794	0.0364262204662722	-0.440261755456619	0.4766879759228912	91.3247799216939
13	5.0	perception	175	diff_vonmises	0.04189383868154985	2.4003401440547196	2.0556344237024757	3.0966766834148522	0.23476675863341762	5.0167644618012215	0.6281847511551654	-0.6261695617385015	1.2543543128936667	85.89424402141839
14	5.0	wm	175	diff_vonmises	-0.1128747650254545	-6.467247649489417	0.4231394990558005	253.12545654842893	0.41370397081105387	255.39839652250987	-0.08457270607508605	-0.5178740925915157	0.4333013865164297	122.91347869594858
15	6.0	ltm	175	diff_vonmises	-0.4593780454431657	-26.320423204862333	0.00015122980112777635	6663.6480938180675	2.36528069612999e-31	6665.871765805782	-0.1935176849194704	-0.5142869655007871	0.3207692805813167	174.0502937268746
16	6.0	perception	175	diff_vonmises	-0.16427109788009586	-9.412040604509938	1.2734519411855953	2.1421896358296983	2.9762777348464363e-18	4.319823738572138	0.15353560538882827	-0.6216421976016311	0.7751778029904594	117.89063255862938
17	6.0	wm	175	diff_vonmises	-0.20846439526192084	-11.94413002725506	0.45501338326373286	134.6521012632718	0.4333958869564742	136.9371338966247	0.003318198956904439	-0.5694086991971279	0.5727268981540323	122.30568341631322
18	7.0	ltm	175	diff_vonmises	0.08294785404785092	4.752561956608999	1.005411217307202	227.35723711968944	0.9899727634702565	229.34215208389713	-0.010370700975087743	-0.4474474731214535	0.43707677214636576	79.46438577486967
19	7.0	perception	175	diff_vonmises	-0.0043299679547619775	-0.24808888923475428	2.4825490722006593	1.886524397820499	0.16821956478595415	3.7207038893567037	0.4115301943870179	-0.5156097126730771	0.927139907060095	80.3304013788005
20	7.0	wm	175	diff_vonmises	0.32427417575897494	18.579541676072733	1.1109298302964987	166.42601782176038	1.086096487883652	168.6834713218104	-0.034133288347170776	-0.5146882795188148	0.480554991171644	75.08337610430272
0	1.0	ltm	176	diff_vonmises	-0.018880787453751924	-1.0817894349835413	1.2842128357163571	2.551892099138665	0.3879450860134802	4.667115334054056	-0.047825551038016556	-0.4473611935033184	0.3995356424653018	89.19239161900185
1	1.0	perception	176	diff_vonmises	0.012636997039578601	0.7240465960871696	12.17368963020761	0.6226298343075621	2.46535987977717e-20	2.7540802612766235	0.41896727211737167	-0.43832548723112047	0.8572927593484921	38.86301309481712
2	1.0	wm	176	diff_vonmises	0.0957359552700329	5.485266184626116	4.335463551455255	0.42781823511818895	1.6799585338390796e-13	2.7187966770058627	-0.08912220906605639	-0.4326509867738294	0.343528777707773	65.69628966684755
3	2.0	ltm	176	diff_vonmises	-0.005350100120760516	-0.30653815689200964	3.1050416010548214	0.6240200071897034	5.16055907889264e-13	1.9106423373401487	0.11267375862393841	-0.30325079403047356	0.41592455265441197	77.95649150118618
4	2.0	perception	176	diff_vonmises	-0.0451546679471897	-2.5871718986886263	7.307183093918005	1.0805463730965474	0.08292835976636184	2.4014409144710807	0.7291689518211547	-0.3847807917821984	1.113949743603353	49.571588687289506
5	2.0	wm	176	diff_vonmises	0.007422194897652404	0.4252604423590167	4.658076171608795	0.4727318425689739	0.05546905022547958	2.0158478975059246	0.05576352865295475	-0.31684238313360436	0.3726059117865591	61.34341330727298
6	3.0	ltm	176	diff_vonmises	0.10453130464151474	5.989202582955067	0.964028487766478	127.83918540148518	0.9453511756706007	128.71786597062547	0.16213941441696988	-0.2533206133517769	0.4154600277687468	87.49696465957246
7	3.0	perception	176	diff_vonmises	0.024806688132680298	1.4213185336998462	4.563176040942965	2.0125788472969632	0.21898138558785665	2.869951629565459	1.0997936359028813	-0.4345279964584222	1.5343216323613036	61.35572953549044
8	3.0	wm	176	diff_vonmises	-0.0089299322840304	-0.5116474312125614	2.3032977613524843	1.1266677126443447	0.3494552721980894	2.3947598664520573	0.10813337884878305	-0.3070339909853264	0.41516736983410946	76.1787903026582
9	4.0	ltm	176	diff_vonmises	-0.05795130266569678	-3.3203650600296624	0.8281792698673505	183.87008602803635	0.8143974606507167	185.43706257885066	0.003705071364954904	-0.34939565879779977	0.3531007301627547	88.43438804744457
10	4.0	perception	176	diff_vonmises	-0.042200562426660405	-2.417914120126001	1.8816826072984916	3.974633314431758	0.42457551743763167	5.697585279874653	0.6499886829546135	-0.5923776946369319	1.2423663775915454	84.08774029531392
11	4.0	wm	176	diff_vonmises	0.04418983570923985	2.5318910835159385	0.8098423537876546	212.5022014089923	0.7964535087769591	214.6642870448053	-0.1117394114806558	-0.44180111312545733	0.33006170164480153	85.42807249081119
12	5.0	ltm	176	diff_vonmises	0.1641398836434483	9.404522582538002	1.6961404934871342	1.4527945650954623	0.19679700359469135	2.561402345809182	0.1865082348973574	-0.31397122734871946	0.5004794622460769	93.29898306257002
13	5.0	perception	176	diff_vonmises	0.027623941331887055	1.5827352518341224	2.3022196451384405	2.061213440510234	2.65322889570326e-16	3.0795409486205187	0.6668326732577767	-0.4785447230238308	1.1453773962816074	90.62795675460762
14	5.0	wm	176	diff_vonmises	-0.07104336549697655	-4.070485005382089	0.5270861275045405	201.5624529377833	0.5160124991753351	202.8913873292586	0.08663278822736942	-0.36523079325897356	0.451863581486343	116.18480298936684
15	6.0	ltm	176	diff_vonmises	0.1601099122245133	9.173622228674677	0.34191243424948803	84.54860183233045	0.3270201951323023	85.55286891187068	0.011549727780757024	-0.2747365898952925	0.2862863176760495	137.10806874524826
16	6.0	perception	176	diff_vonmises	-0.12517344523088028	-7.171910118841403	1.7468414852947824	1.5654977588915255	4.1601783564615715e-23	2.7179979679137807	0.3113252897496471	-0.4099760228243019	0.721301312573949	103.28720481451178
17	6.0	wm	176	diff_vonmises	-0.11266440769387748	-6.45519506220042	0.5012272757993887	180.98829945203298	0.48925390913147265	182.37878857157298	0.06441135775987306	-0.3733280078149086	0.43773936557478166	118.42928863778059
18	7.0	ltm	176	diff_vonmises	-0.0001120877807736298	-0.006422156773316601	1.1244009194291629	117.7102900802237	1.095555384082683	119.1826702009334	0.10531128198847739	-0.3733937488118073	0.4787050308002847	78.1821409753035
19	7.0	perception	176	diff_vonmises	0.0493651101531618	2.82841246697458	2.436361835952737	1.6210677496038564	5.942287460302583e-22	2.954131126133675	0.4708271934593176	-0.4629634800892565	0.9337906735485741	88.11688218159838
20	7.0	wm	176	diff_vonmises	0.08903108057921713	5.10110516267829	3.7458484990223675	0.5266387503896118	4.892349218417176e-26	2.3020528491783754	0.024210564134076684	-0.3661652552443057	0.3903758193783824	70.80732914884243
0	1.0	ltm	177	diff_vonmises	0.0021959903772993533	0.1258209804705942	3.800535331495109	0.9753281025611533	0.18780559600414506	4.5474679070202315	-0.13646532513804044	-0.7100563682769797	0.5735910431389393	62.65504562506476
1	1.0	perception	177	diff_vonmises	0.058542824404195684	3.354256759135891	14.760477751461977	0.7087686899630222	0.10801088984555243	4.431477286544277	0.2930907669818388	-0.7482613772856102	1.041352144267449	34.61339584747671
2	1.0	wm	177	diff_vonmises	0.13209394897750162	7.568425775627279	1.8789614183127794	1.3630382194676698	0.21209825693375817	5.323390175368659	-0.35869974165870955	-0.7348059353488311	0.37610619369012155	79.2384272043754
3	2.0	ltm	177	diff_vonmises	-0.03306093651570114	-1.8942521290996246	2.4077039843899763	1.1657050121888441	0.3386999503784836	2.4377584551320366	0.14285706529474085	-0.31714768391845316	0.460004749213194	75.5490513094874
4	2.0	perception	177	diff_vonmises	-0.06140591935039222	-3.5183000158981876	6.811800033533473	1.1558641985830689	0.20709023294143353	2.43844976112549	0.7071102721458129	-0.3988284351708858	1.1059387073166986	50.38155594375661
5	2.0	wm	177	diff_vonmises	0.03821186807249222	2.189378767864504	4.935734032922577	0.5026730753282965	0.09022272461484962	2.294297487018414	0.03406397235618491	-0.36285407831782834	0.39691805067401326	58.68349136314794
6	3.0	ltm	177	diff_vonmises	0.039424073610621384	2.25883302910169	0.7861709284118904	94.89622726554832	0.7619227293240735	95.90354832599836	0.14086094283933548	-0.2804420184215797	0.42130296126091515	96.60139014379115
7	3.0	perception	177	diff_vonmises	0.03335858676956915	1.911306232417259	4.947977773801418	1.696406385808076	0.12760299210608186	2.703158982048093	0.9760333109852415	-0.4181127211774122	1.3941460321626538	59.77480692461458
8	3.0	wm	177	diff_vonmises	0.129181948247278	7.401580423846451	2.924820934188528	0.9447986758875547	0.2493499652070528	2.5194967186935364	0.10321433632842103	-0.36210768716706965	0.4653220234954907	70.97113026717014
9	4.0	ltm	177	diff_vonmises	0.0008080155932207534	0.0462958832723087	0.8422890521969105	124.48745736417752	0.8200984004510937	126.47625806771933	-0.08417372871383577	-0.4138022264323169	0.32962849771848113	84.74867697479226
10	4.0	perception	177	diff_vonmises	-0.05752113383992966	-3.295718201835108	2.4122790285154823	2.5915442679413228	0.1722232280696017	4.33828802927779	0.6813265256085967	-0.5889971485754275	1.2703236741840243	82.0902924277321
11	4.0	wm	177	diff_vonmises	0.1409400286051911	8.075268803530545	0.768508110553269	222.71260007291446	0.7514698618267663	225.47719183792634	-0.08931530302950819	-0.5809370258487299	0.4916217228192217	89.66981468758229
12	5.0	ltm	177	diff_vonmises	-0.06910902975059528	-3.959655730953154	1.8544012551393734	1.1893458620087496	1.477238301238252e-16	2.8673583844718693	0.12973424923933385	-0.44199106269035665	0.5717253119296906	100.51850359708692
13	5.0	perception	177	diff_vonmises	0.018211621745829815	1.0434490641247205	1.3670731604544908	4.518896006622727	0.31494885200360706	5.901675970520581	0.595210836664704	-0.5544445685178115	1.1496554051825156	99.17334472402013
14	5.0	wm	177	diff_vonmises	-0.04823139781361363	-2.7634555347365675	0.563436554023201	294.7179900656982	0.5530707098213514	296.63488793796995	0.08353222906207236	-0.49058872371043805	0.5741209527725104	111.08307116953756
15	6.0	ltm	177	diff_vonmises	0.47894888916367956	27.441749951557888	0.6317197170960451	153.27345459540683	0.6151450178425923	154.94539146244063	0.033047512635462795	-0.39497081412673296	0.42801832676219576	103.46033150056999
16	6.0	perception	177	diff_vonmises	0.027652583635095193	1.5843763349234827	0.5194161517901755	202.21976190611164	0.4994983263986931	203.945100230042	0.32831194662143304	-0.6072054867639984	0.9355174333854315	120.81362984383667
17	6.0	wm	177	diff_vonmises	0.05228596276905024	2.9957649944447335	0.5903526914328167	241.799737351961	0.5751260626354141	243.72133366387635	0.19437312204836132	-0.5445805952747378	0.7389537173230991	110.90748177849058
18	7.0	ltm	177	diff_vonmises	0.017264538762598976	0.9891852063369341	1.2386995722249694	17.576981331298924	0.9832369784712474	20.054396486357327	0.0002111908987609823	-0.5754890191044626	0.5757002100032236	75.51217014486389
19	7.0	perception	177	diff_vonmises	0.12983905519886904	7.439229878861326	2.4317411394400548	1.8643690500475119	0.1596570345117164	3.885984642525967	0.360013936684105	-0.5406660630215081	0.9006799997056131	81.01607868123972
20	7.0	wm	177	diff_vonmises	0.29990323481182973	17.183189617038753	0.999314339252484	195.0645301455091	0.9753624659971192	197.61590281675174	0.02485244913039253	-0.5854599580619357	0.6103124071923283	80.66910223421169
0	1.0	ltm	178	diff_vonmises	0.07177402346972903	4.11234862348839	0.9339126952305548	159.5016343185358	0.9104596307490246	162.3540478287644	-0.21458919500193474	-0.5778675380704144	0.3632783430684796	77.31701728301226
1	1.0	perception	178	diff_vonmises	0.12018020908122308	6.8858187613538915	10.77651690958738	0.6972156849581608	0.07402797065241522	3.62039751467656	0.2823768854673103	-0.5929905410838677	0.875367426551178	40.630597866692426
2	1.0	wm	178	diff_vonmises	0.06354761022132994	3.641009863824617	4.575593564728092	0.4415187497683294	0.13295994707014502	3.561880722460384	-0.279580065844602	-0.5726867866767459	0.2931067208321439	57.40984389554572
3	2.0	ltm	178	diff_vonmises	-0.04470414153091659	-2.5613586364770233	1.8467071440318905	2.1101264578788532	0.6444008827416755	3.2987243029905935	0.13339762744354988	-0.3108516783225929	0.4442493057661428	76.37114732673953
4	2.0	perception	178	diff_vonmises	-0.01870586058685055	-1.0717668637866458	7.165680276376437	1.1907954854657399	0.19878938842937127	2.651780379178494	0.7380507851882726	-0.43619138536513824	1.174242170553411	49.17741831135561
5	2.0	wm	178	diff_vonmises	0.13494559184296268	7.7318128764967895	6.775869281695727	0.33113509597588453	0.0727958010372924	2.0045036906870015	-0.005654974307248484	-0.3227529450386446	0.3170979707313961	50.57551044578895
6	3.0	ltm	178	diff_vonmises	0.15378549516570778	8.81125982332458	1.1589691001272138	120.52360041239298	1.1384195653054565	121.3133967062554	0.17041164643810447	-0.2376761404570189	0.40808778689512337	79.90680654497541
7	3.0	perception	178	diff_vonmises	0.04804844918230417	2.7529733502948406	5.20673622264962	1.7111404436390696	0.17330375539747206	2.658919923832736	1.016558875599225	-0.4133802533799079	1.4299391289791328	57.93817771515543
8	3.0	wm	178	diff_vonmises	0.20422174667794427	11.701044169436047	4.010862237480952	0.4185733201807239	0.09490345251528035	1.7721443687138982	0.012855866877706457	-0.2756277638500618	0.2884836307277683	64.51750596044383
9	4.0	ltm	178	diff_vonmises	0.31369559761312454	17.973433795066178	0.730560503492353	190.29195527909422	0.7186280776482781	192.18860180412787	-0.11325085364792642	-0.3794725068006173	0.26622165315269086	89.27508091157915
10	4.0	perception	178	diff_vonmises	-0.07886794640666805	-4.518800467966046	3.310502710003798	1.8757528968201422	0.06671573528390633	3.798811275837682	0.6531521207377385	-0.575435762737466	1.2285878834752046	73.21784874830962
11	4.0	wm	178	diff_vonmises	0.1055779707431283	6.049172133136936	5.501276513350719	0.3782153153173446	0.00028770100981870733	2.7715916160841543	-0.09620857975075431	-0.4409945824027445	0.34478600265199016	58.12022211596144
12	5.0	ltm	178	diff_vonmises	-0.03423328513715108	-1.9614227572266862	1.915173411554142	1.1956526984343465	0.0787843784341197	2.8467954319500888	0.11138233619914667	-0.4056980122593651	0.5170803484585118	93.09682200195181
13	5.0	perception	178	diff_vonmises	-0.018165150113536734	-1.040786435727243	2.5278428802037025	2.1853113516862788	0.04186022311353207	3.666600477531429	0.6881004076019449	-0.5511866240127752	1.2392870316147202	84.71863501346087
14	5.0	wm	178	diff_vonmises	-0.08482613445806624	-4.860179496856438	0.5460954696499652	211.27485607866296	0.5342017881719349	213.08001611158318	0.015395068583814009	-0.43138576113605254	0.44678082971986655	111.02079922232959
15	6.0	ltm	178	diff_vonmises	0.16272495567818798	9.323453181813552	0.500172805998436	180.0801458247452	0.48773925743690577	181.81385375157316	-0.005725060864961051	-0.4136371187315184	0.4079120578665574	115.67943051620006
16	6.0	perception	178	diff_vonmises	-0.11343547998352874	-6.499374250096926	1.264962872052703	2.3467240426845244	4.205450020194504e-12	4.010461868071064	0.2794215951513055	-0.5651687815934596	0.8445903767447651	118.26388053034391
17	6.0	wm	178	diff_vonmises	-0.006743688534713702	-0.3863848913898575	0.6460037376584813	175.286746754341	0.6268868520160676	177.03074445726486	0.1642114808746271	-0.47326465058386624	0.6374761314584934	105.63520729106881
18	7.0	ltm	178	diff_vonmises	0.007343007076278663	0.42072331440546556	0.8788522606458881	256.88107969141083	0.8639125065858348	259.232114954188	-0.01078241394077395	-0.52035144885512	0.509569034914346	85.32551938450831
19	7.0	perception	178	diff_vonmises	-0.01862521821569846	-1.0671463962697036	1.0593381836500493	124.37707589024005	1.007165348718288	126.6054903638504	0.4592688401107594	-0.6586169854119799	1.1178858255227393	84.32878311775309
20	7.0	wm	178	diff_vonmises	0.3400813442941222	19.485225719188662	4.270435048851829	1.0337357617921203	0.2691090027895535	3.407586574311717	0.12632930750627414	-0.5363306634897282	0.6626599709960024	59.66233981470219
0	1.0	ltm	179	diff_vonmises	0.04587700810680235	2.6285589412072374	3.8732854813265947	0.40871772604619766	9.043406196040477e-15	1.3013945349836915	0.10161168449484276	-0.20698990931390876	0.3086015938087515	69.60539654199317
1	1.0	perception	179	diff_vonmises	0.0032333707736265233	0.1852584989297497	13.009651795094307	0.6232463343596847	7.89384922479533e-15	1.6112688006742237	0.6313792260420208	-0.2564413942726007	0.8878206203146215	37.57931222830118
2	1.0	wm	179	diff_vonmises	0.09378264311305408	5.373349641959635	2.6112211284576055	0.47337386370047185	9.724516045844459e-14	1.5477244767278355	0.03984553011990993	-0.24478417000608105	0.284629700125991	85.11219361198775
3	2.0	ltm	179	diff_vonmises	0.12620453025887327	7.230986939264529	5.586407857811953	0.3507818211472255	0.07204234004054103	0.8070225530988765	0.18474168673997737	-0.12714021375669304	0.3118819004966704	56.59877055916243
4	2.0	perception	179	diff_vonmises	-0.034273958529993105	-1.963753170975012	8.708018579197459	0.9443535048483517	7.745200864532244e-21	1.265749422719276	0.8934090347172926	-0.20145024744149903	1.0948592821587917	46.03107976671578
5	2.0	wm	179	diff_vonmises	0.039027164281604416	2.2360917996996483	7.781228015013417	0.30579492643451367	0.01555397135825439	0.9526091376614508	0.18047213955658906	-0.15153521189014488	0.33200735144673393	48.52332654459286
6	3.0	ltm	179	diff_vonmises	0.24273722253738234	13.907818382119855	2.578479525662364	0.7460909472086356	0.5629832135784657	0.9564332033022686	0.2004553812365141	-0.10705941344185355	0.3075147946783676	73.63454899457906
7	3.0	perception	179	diff_vonmises	0.0075634737208559975	0.43335512266315757	6.186178691858814	1.3875357098019852	0.11627968828383403	1.6859312715714654	1.04588361648333	-0.2654040948206414	1.3112877113039714	53.95858117125431
8	3.0	wm	179	diff_vonmises	0.04012310767243611	2.298884730579561	4.673602128704021	0.6923058038974018	0.6004356838057383	1.2325914613304891	0.2515816345633916	-0.1938719967904519	0.4454536313538435	56.1785284889105
9	4.0	ltm	179	diff_vonmises	-0.08270248020020353	-4.738503070735918	1.6654860859796219	153.97200972950898	1.6492499905845162	154.67326853542312	0.10080106297247937	-0.22142319068140992	0.3222242536538893	64.66890568486332
10	4.0	perception	179	diff_vonmises	-0.061352920888882945	-3.51526342773302	3.1441100530959396	1.7641940501095117	7.452069038505448e-14	2.7824516671423396	0.743695311741355	-0.44063578006476495	1.1843310918061198	77.46294863077728
11	4.0	wm	179	diff_vonmises	-0.04818436163478109	-2.7607605602050405	1.294846762685138	193.5404034065703	1.2790020654246987	194.9962634666601	-0.014424364710777127	-0.3529770653618911	0.338552700651114	69.45299759283682
12	5.0	ltm	179	diff_vonmises	0.10932234826412686	6.263709161993811	1.7171736973076523	0.9542470160956341	1.2006641608355266e-13	1.329178916347782	0.23719368947664984	-0.19707462705240442	0.4342683165290543	104.08810441343866
13	5.0	perception	179	diff_vonmises	0.0025745332176783115	0.14750988758920291	2.779876758696554	1.5097934044168995	9.202048978164663e-19	1.7223211612494653	0.6724252355895417	-0.27047193592573926	0.942897171515281	82.4679768811038
14	5.0	wm	179	diff_vonmises	0.015376068680123712	0.880983840874379	0.6397414402822608	110.97423962915661	0.6242102997752382	111.42050022855013	0.20658609113564097	-0.2067010698802605	0.41328716101590146	111.96761923576301
15	6.0	ltm	179	diff_vonmises	0.3379203212737893	19.361408220692972	0.6631857745801742	90.20474221231947	0.6504818312705126	90.42418495269929	0.1575205615304789	-0.12812249377288776	0.28564305530336664	111.16610982162263
16	6.0	perception	179	diff_vonmises	-0.05876614128131521	-3.3670518736888813	2.059901154923029	1.3592728515664119	6.6290309569980755e-09	1.739687068549988	0.4369225857893927	-0.2652811484131381	0.7022037342025308	95.66164823591114
17	6.0	wm	179	diff_vonmises	-0.020773603644320692	-1.1902398140971617	0.6808781383929527	142.50741500939097	0.6656411533375493	143.07934246317967	0.25430182570954685	-0.25070822632097567	0.5050100520305225	108.30104636368152
18	7.0	ltm	179	diff_vonmises	0.031249520769647942	1.790465651907235	1.0686559907583137	93.51095899741871	1.0412449955996874	94.30437221602052	0.2050352311959145	-0.24892685582588214	0.45396208702179663	84.20454561137981
19	7.0	perception	179	diff_vonmises	0.05329430717001298	3.053538872915546	2.7363698108478403	1.33409773776492	1.2598919138195143e-17	2.3449585135382587	0.4555931810137767	-0.36973098951536393	0.8253241705291406	83.12788326670139
20	7.0	wm	179	diff_vonmises	0.27864019945485463	15.964907431446631	3.392667374087169	0.5563171491575181	2.044288755895311e-31	1.4656620848742066	0.15728726886607297	-0.23282594885780675	0.39011321772387975	74.48796690836298
0	1.0	ltm	180	diff_vonmises	-0.09255941742257115	-5.303263972502987	0.9642905324224252	401.6857087828404	0.9506169095679865	405.4877748206358	-0.22111856615151737	-0.7936409417915442	0.5725223756400268	77.50537595550048
1	1.0	perception	180	diff_vonmises	0.03950527453627463	2.2634854994341764	11.364881437719843	0.7522288749283937	1.3970040934190877e-17	4.037054260151941	0.357438936812452	-0.6425171408988906	0.9999560777113425	40.23537833906204
2	1.0	wm	180	diff_vonmises	0.10402883420338917	5.9604131475203825	5.295904251175661	0.43203368297828276	0.020409901622486733	4.1622929126340305	-0.2897752968797204	-0.660534099783116	0.3707588029033955	57.9294232114523
3	2.0	ltm	180	diff_vonmises	-0.038879233424508525	-2.227615985928301	2.9965564045338278	0.7705726256114731	0.00901897654742482	2.7626879548861885	0.06068023652732479	-0.4344810666789216	0.4951613032062464	78.65919174618332
4	2.0	perception	180	diff_vonmises	-0.05547508557624038	-3.178488271645642	6.528361254197784	1.3160578879514753	0.16824787796767618	3.1918155858175057	0.716812410811565	-0.5169136786955639	1.233726089507129	51.50751928664215
5	2.0	wm	180	diff_vonmises	-0.034021634552398275	-1.9492960719888748	3.3719944551958516	0.7192554542121348	0.1401324488177632	2.8508118385494408	-0.01619873878428668	-0.434290475205837	0.41809173642155034	68.2020110986962
6	3.0	ltm	180	diff_vonmises	-0.000680943903699792	-0.03901521176716084	1.1938964466140816	3.493326345121226	0.5830819139656671	4.679068607668855	0.09292429641950317	-0.295554025172093	0.3884783215915962	89.13917195215492
7	3.0	perception	180	diff_vonmises	0.07036792766061178	4.031785268034939	4.366834347485208	2.1492208869851024	0.21714247919365898	2.9755202705903474	1.151537481159048	-0.4460763311025615	1.5976138122616095	62.70097832932558
8	3.0	wm	180	diff_vonmises	-0.05400688500042562	-3.0943665751727796	3.099142154524869	0.6380793302179697	0.0426595053109093	2.0068073599568756	0.09254797206787274	-0.3084411700341835	0.4009891421020562	75.57937369460288
9	4.0	ltm	180	diff_vonmises	-0.17239749252066527	-9.877648720072296	0.3543610205837067	139.1716420706944	0.3415225075196835	141.14344045583067	-0.10516023535357988	-0.4449256733923175	0.3397654380387376	131.58230963577014
10	4.0	perception	180	diff_vonmises	-0.019038331534710184	-1.090816045909717	1.3602324262113628	11.433959410924997	0.7761458733274906	13.49162405567798	0.6339217294913873	-0.6772161178063488	1.311137847297736	84.72628128298902
11	4.0	wm	180	diff_vonmises	0.16796691079663711	9.623795086497687	0.6436788029402871	192.90044512714982	0.6301631530511312	195.23404583625216	-0.13800592794752475	-0.4669317683139269	0.32892584036640216	95.6441666779443
12	5.0	ltm	180	diff_vonmises	0.25827944229064526	14.79832197824668	0.7654987171703087	99.40680389070249	0.734705746714603	101.22232675167443	0.05570166344551808	-0.4255343833618763	0.4812360468073944	94.331569943706
13	5.0	perception	180	diff_vonmises	0.06899034044292628	3.95285533455039	1.8246564929142488	3.5129764305008835	0.18538206007512092	5.204568527887976	0.7256664223011954	-0.6443435598608531	1.3700099821620486	92.7090984549069
14	5.0	wm	180	diff_vonmises	-0.027727625725754504	-1.5886759300040993	0.44984291093334117	249.23705991048524	0.4389788862785437	251.25260244108094	0.026802201980821394	-0.5174397952675989	0.5442419972484203	123.0731232718199
15	6.0	ltm	180	diff_vonmises	0.5667417738280239	32.471911714103626	0.8585090788459564	124.32762048140076	0.8393455850484209	126.04338505441235	-0.07925192032299577	-0.3558599623996468	0.276608042076651	83.50106634613451
16	6.0	perception	180	diff_vonmises	-0.16804338305054406	-9.628176623896408	1.2200275148760011	2.331131276608504	2.8026599916600453e-14	3.9244203874222245	0.2678155504593269	-0.5468082809261046	0.8146238313854315	119.80689769109087
17	6.0	wm	180	diff_vonmises	-0.28810976774201963	-16.507473728112114	0.3132156040811079	204.45342714808874	0.30249311338200907	206.3918729150887	-0.015013294455776816	-0.5114435207822652	0.49643022632648837	139.46881898188556
18	7.0	ltm	180	diff_vonmises	0.01489405696806268	0.8533666040974067	1.30300834525337	89.19028857450508	1.2624686476222937	90.8463406529011	0.012284238550982707	-0.4081743296410938	0.4204585681920765	70.3023549009365
19	7.0	perception	180	diff_vonmises	0.049344723131741146	2.827244376690334	1.452996260766578	4.355222775552424	0.5008378269291184	5.600129686781549	0.46783924085947315	-0.4438779026011599	0.911717143460633	90.4382872286669
20	7.0	wm	180	diff_vonmises	-0.016442505298336414	-0.942086158216171	1.2844856336384294	1.7502552331433334	0.27164252070845907	3.821701955321827	-0.09284202345274406	-0.42132315711577084	0.3284811336630268	92.99579099585526
0	1.0	ltm	181	diff_vonmises	-0.0008177572134923832	-0.04685403699949218	1.0252328806719573	458.9609021505758	1.0134735446945442	462.71812244713897	-0.27424149874514114	-0.7842386727030117	0.5099971739578706	73.79705092002379
1	1.0	perception	181	diff_vonmises	0.07795742694449917	4.466631545619247	8.174863622463139	0.882395848449627	0.01066945838836769	4.060507162304296	0.33671956713396367	-0.6463215367807731	0.9830411039147368	47.34185323124379
2	1.0	wm	181	diff_vonmises	0.11284949875882372	6.465799999047421	5.588675021666606	0.39826271239817784	0.03455421012046559	3.8504572817403884	-0.2678822068773349	-0.6127124984890703	0.3448302916117354	55.80278817315272
3	2.0	ltm	181	diff_vonmises	-0.007899297873598188	-0.4525964292738418	3.0288697573814276	1.0026973714980938	0.24916983872543272	2.8320522095843064	0.09085583973086342	-0.4122197604436958	0.5030756001745592	69.64777832604938
4	2.0	perception	181	diff_vonmises	-0.038979581184811624	-2.233365489077259	7.087076327502438	1.3062190835734782	0.0963204734402244	3.0011416718060713	0.836181557548499	-0.48146357473650825	1.3176451322850071	50.18178872181841
5	2.0	wm	181	diff_vonmises	0.017165866958023395	0.9835317283778137	4.1439273415942175	0.6109003214387315	0.13248391513344424	2.5138939269081777	0.024047711426218588	-0.39224897940784226	0.41629669083406085	62.597052845164995
6	3.0	ltm	181	diff_vonmises	0.15807159700938517	9.056835369530535	4.470202837054942	0.44040405470594857	7.699782624005042e-09	1.3577116339186472	0.14355582086257454	-0.21603940716881298	0.35959522803138755	64.6653896719371
7	3.0	perception	181	diff_vonmises	0.07867895824638678	4.507972244003987	5.361437379145799	1.725016006372894	1.0982115101348556e-22	2.4035581960254135	1.1695124679647	-0.3825039548197083	1.5520164227844082	58.92419307137706
8	3.0	wm	181	diff_vonmises	-0.0667697144246477	-3.825622835826087	4.0312622660457995	0.503502266650164	0.0367150819650113	1.5638271231904037	0.13065045071866777	-0.2440301361883353	0.37468058690700307	66.78114191356087
9	4.0	ltm	181	diff_vonmises	0.2603468596630142	14.916776268175447	0.0006826814679029346	1352.7066771177429	6.1583105463765234e-27	1354.4815483667155	-0.13548014733274272	-0.4294287497629625	0.2939486024302198	177.7655913809255
10	4.0	perception	181	diff_vonmises	-0.04864035677689081	-2.7868871573263956	2.9499990255319957	2.3369315708176837	0.1268173204843364	4.650924649526455	0.6790122376853792	-0.6770617605919056	1.3560739982772847	75.63070831697613
11	4.0	wm	181	diff_vonmises	0.1603697828172256	9.188511716856656	0.7492620713926557	180.79458030749979	0.7347577053777584	183.01501654147367	-0.14604805591399384	-0.44038741306482976	0.2943393571508359	87.48108758424502
12	5.0	ltm	181	diff_vonmises	0.24193534988711274	13.861874463552438	0.7395604606717083	45.92103083868014	0.6822948412228523	47.456000171199506	0.06980730990132322	-0.3716847512991679	0.4414920612004911	97.7707494909852
13	5.0	perception	181	diff_vonmises	0.03127614353851093	1.7919910242020365	2.312504514853603	2.607069439754243	3.7159203812290214e-16	3.818132828588358	0.8596211038425977	-0.5932895424782314	1.452910646320829	90.42550320361616
14	5.0	wm	181	diff_vonmises	0.06588773410410315	3.7750890858452886	0.5539497308904077	215.91664299757556	0.5410920564822397	217.47298548921637	0.12636557557846118	-0.4342882949027711	0.5606538704812323	113.90613379833273
15	6.0	ltm	181	diff_vonmises	0.5207589736065947	29.83729133122251	0.8994284715100986	159.56009928082287	0.8849519003522273	160.8033306529754	0.042438227195077616	-0.2919239400145379	0.33436216720961554	86.23822086648568
16	6.0	perception	181	diff_vonmises	-0.15743553281764688	-9.020391575844531	1.1192900363230303	2.610000620707737	6.747812204557274e-17	3.5609536522811145	0.38366968292014203	-0.465420039072296	0.849089721992438	123.6169410637445
17	6.0	wm	181	diff_vonmises	-0.11071977818843327	-6.3437759988218545	0.4655046401287738	175.11466385585513	0.4525946935566926	176.46302371105992	0.09884230622634504	-0.3938608318559602	0.49270313808230526	123.72099139803862
18	7.0	ltm	181	diff_vonmises	0.055886318184240974	3.202050164482234	1.1984760065789122	54.900251238467234	1.140939902912528	56.478765377980615	0.004842248709323371	-0.37458443116490336	0.37942667987422674	73.55998984737352
19	7.0	perception	181	diff_vonmises	0.014277825718125746	0.818059154271949	1.02781553823481	295.41745305572965	1.0101826493826893	296.60726422471686	0.5748624759354897	-0.4701091950166649	1.0449716709521546	87.94130634212362
20	7.0	wm	181	diff_vonmises	0.09375640018853411	5.37184603314256	1.5559951857184116	1.1459714943311015	0.1784366141065236	2.9424221515143096	-0.04782708087115228	-0.37575794632066917	0.3279308654495169	92.59708868182014
0	1.0	ltm	182	diff_vonmises	0.016662125393307574	0.9546694627542809	3.7051684557509907	0.6469156506863737	0.02739998456822303	2.8250077944934056	0.01490631601148279	-0.44203319456622286	0.45693951057770565	69.52301213171648
1	1.0	perception	182	diff_vonmises	0.019020352541224	1.0897859254630653	13.844271946122696	0.5918209847765403	0.0295023453454089	3.0058191670700687	0.3776606134341176	-0.4845536951516929	0.8622143085858105	36.21580894793294
2	1.0	wm	182	diff_vonmises	0.16587259585500505	9.503799679370982	3.4612848462606407	0.518654903523767	7.964921471887703e-12	2.945325048120765	-0.1006056520087264	-0.46840020268385313	0.36779455067512673	73.7415440610921
3	2.0	ltm	182	diff_vonmises	-0.008381547312007943	-0.48022728676727494	2.9242070307695114	0.8432295593547329	0.2440928586801934	1.8390058144854344	0.17611185014661057	-0.25966731879888433	0.4357791689454949	72.4293747512668
4	2.0	perception	182	diff_vonmises	-0.05723319235240126	-3.2792203698530122	7.293878017727196	1.026862284692047	0.06979358673352365	2.025785018226458	0.7406639391058418	-0.32337327157968787	1.0640372106855298	49.775753834693404
5	2.0	wm	182	diff_vonmises	0.027510311587047323	1.5762247470276574	5.384804485023254	0.46645740256080265	0.06903414155679528	1.838330732433426	0.10755867132058178	-0.29098055987012417	0.39853923119070594	57.0604323084456
6	3.0	ltm	182	diff_vonmises	0.09823090209104311	5.628216107579584	0.87378920734037	125.82349730138804	0.8555127402263871	126.60486027095561	0.19305383682842603	-0.24663695550604814	0.43969079233447417	93.22540379180919
7	3.0	perception	182	diff_vonmises	0.012134454210351935	0.695253012947918	4.948935017202588	1.7106849710336482	0.10866326659172681	2.5987260937011314	1.0154777453786736	-0.40202183810597253	1.4174995834846462	60.027390832744146
8	3.0	wm	182	diff_vonmises	0.07227511439890846	4.141059018882661	2.7250645420991138	1.1801861236671625	0.387106313011838	2.4518834712727444	0.1776718863634038	-0.3284219443147114	0.5060938306781152	71.15990888275454
9	4.0	ltm	182	diff_vonmises	-0.008047055121956463	-0.4610622959972373	0.9998141626028725	156.1481393997929	0.981753799151219	157.6589487784457	0.022831147833727528	-0.3493784283000032	0.37220957613373074	80.78328397660127
10	4.0	perception	182	diff_vonmises	-0.06850328552648008	-3.924949143446926	2.4327313371708423	2.4842855133879436	0.12791455291824858	4.070199813953717	0.7076288329007593	-0.5681724608832425	1.2758012937840018	83.24661922157662
11	4.0	wm	182	diff_vonmises	0.032263888470359006	1.8485846400323684	0.9466807704493541	257.7546542184253	0.9320066981459243	260.08257224545497	-0.046667847206023794	-0.508800968433313	0.4621331212272892	81.11127438003521
12	5.0	ltm	182	diff_vonmises	0.001663091271838012	0.09528811082136239	1.647748072763068	1.229671108687575	5.343787780075985e-16	2.2429615035925154	0.20694030994884316	-0.33608531924966073	0.5430256291985038	106.05745886832314
13	5.0	perception	182	diff_vonmises	-0.0068494590928359295	-0.3924450979670043	2.0112073927610203	2.112372220412061	3.1152241431227298e-21	2.88568845664733	0.6341049913238342	-0.43968772653902743	1.0737927178628617	96.76487655003066
14	5.0	wm	182	diff_vonmises	-0.04567806356267383	-2.6171602584715195	0.6180200977980826	232.12282473309693	0.6074279103744624	233.27441079353002	0.1584667367977488	-0.34233251032317114	0.5007992471209199	109.09931995589487
15	6.0	ltm	182	diff_vonmises	0.4240070910399588	24.293816800208905	0.5293150510611894	143.07108772863913	0.5173789665717866	143.90535792670846	0.1117175924828544	-0.26276884523336186	0.37448643771621626	117.79262465705938
16	6.0	perception	182	diff_vonmises	-0.030528485879932912	-1.749153395844883	1.3303301197037867	2.6572866549719087	0.15132132664062675	3.6359702058287793	0.4013927212970312	-0.4197330764225282	0.8211257977195594	107.81692152836203
17	6.0	wm	182	diff_vonmises	0.04776077120925701	2.7364906165803595	0.6620631178872414	221.97989331203848	0.6492547950625326	223.18364115879896	0.20967444746661812	-0.37089591927361454	0.5805703667402327	106.18131002318358
18	7.0	ltm	182	diff_vonmises	-0.04470567247095388	-2.5614463528798477	1.7060343962510374	3.1401851791726223	0.6443302661631426	4.906891450354782	0.12651817980344293	-0.43868514304857475	0.5652033228520177	77.48493397223615
19	7.0	perception	182	diff_vonmises	0.09848254304442894	5.64263407216124	2.852535120482347	1.505498974827492	1.802414039316509e-16	3.0993480760694845	0.4646633374791024	-0.49008718910789567	0.954750526586998	81.39458708994809
20	7.0	wm	182	diff_vonmises	0.22081480451206864	12.65175635254786	4.095616369737361	0.6805356535204914	1.8919227104201035e-22	2.554752342588153	0.1233744541754821	-0.40645459993075117	0.5298290541062333	67.63734215950046
0	1.0	ltm	183	diff_vonmises	0.004843881327569032	0.27753395653193175	1.4759904422905912	3.4090338067470687	0.5055925774811593	6.860062224215696	-0.23755057776474753	-0.6916803370915225	0.454129759326775	77.61108552532673
1	1.0	perception	183	diff_vonmises	0.058657640118454396	3.360835214984695	11.527283606089492	0.7513887157886965	0.04265014128765592	4.033968044985512	0.33631764723770086	-0.6524991997298436	0.9888168469675445	39.55184771677099
2	1.0	wm	183	diff_vonmises	0.1106942884476202	6.342315544252383	3.6151868914855965	0.5571765790189024	0.07415708706417366	4.187111398696242	-0.31151185161651673	-0.6549058819961554	0.34339403037963867	66.32449777575701
3	2.0	ltm	183	diff_vonmises	0.004900785070798151	0.2807943008574564	2.8073998556068003	0.8789396746399851	0.17440871311019074	2.457631277172677	0.09201326669808446	-0.3562637011495887	0.4482769678476732	74.1902314768044
4	2.0	perception	183	diff_vonmises	-0.04555957003772273	-2.610371079592193	7.097054913529806	1.2258835964789296	0.16688295390900879	2.8098250765656148	0.753254937289633	-0.4582393609907808	1.2114942982804138	49.60511591262781
5	2.0	wm	183	diff_vonmises	0.03989413551799074	2.2857655925038234	4.5899909739326565	0.5213357790689074	0.08495224355974991	2.462687610052166	0.005879032525165584	-0.38765161324456066	0.39353064576972624	60.72334984650493
6	3.0	ltm	183	diff_vonmises	0.1140205213552308	6.532894651535998	2.415441882705646	0.7945182816846605	0.14161498074672074	1.8240972247723837	0.12601765224438854	-0.2573621997954948	0.38337985203988334	81.3722824476506
7	3.0	perception	183	diff_vonmises	0.04775301238765288	2.7360460688484483	5.051635721825622	1.804117132571525	0.11798043857781206	2.768705977257328	1.0788083016778593	-0.42906014643793094	1.5078684481157902	59.326187779903506
8	3.0	wm	183	diff_vonmises	0.04049948840186301	2.3204497578657777	2.9626173580812374	0.7570740745399835	0.19210951842228977	2.220991264655348	0.06786928098062961	-0.3249606328336861	0.3928299138143157	71.74069884663427
9	4.0	ltm	183	diff_vonmises	0.06953895385015474	3.984288567368873	0.5785583649302993	145.494038012181	0.5641202586478855	147.499356358727	-0.12253615168545906	-0.40235730599879815	0.2798211543133391	101.13609374384262
10	4.0	perception	183	diff_vonmises	-0.03761190545724502	-2.1550034421452087	2.5019964733625732	2.633563144684128	0.20950434979187024	4.69473899304276	0.6415259493841076	-0.6340166268185412	1.2755425762026489	79.4012601352891
11	4.0	wm	183	diff_vonmises	0.15142501944779144	8.676014527044861	0.7046904798837916	201.80545587928702	0.6898175839378319	204.39208204718184	-0.15902777415361413	-0.5151193044687439	0.35609153031512975	90.89106005502956
12	5.0	ltm	183	diff_vonmises	0.07952764782647026	4.556598575059501	2.021973494475211	1.0349084332147152	0.028690971026779602	2.6768822725507504	0.09904883845047596	-0.40448369978874177	0.5035325382392177	94.2461542216437
13	5.0	perception	183	diff_vonmises	0.029519188043731718	1.6913248895588684	2.0884159076639595	2.519865190270955	0.04198583821333878	3.9657010314295826	0.6763558458617244	-0.5844647784381555	1.2608206242998798	93.07428006041232
14	5.0	wm	183	diff_vonmises	-0.013828639546381364	-0.7923226824153574	0.527190827252847	244.6237420582023	0.5156627898126838	246.50953351066664	0.057929169209458564	-0.47995152658661056	0.5378806957960691	114.54241305810338
15	6.0	ltm	183	diff_vonmises	0.3593879957252543	20.591415362722742	0.5854697458980207	123.32944778904714	0.5682777074004964	124.88591268162682	-0.003667032434456985	-0.3567303393671146	0.35306330693265764	106.39931794369792
16	6.0	perception	183	diff_vonmises	-0.06377082625656857	-3.653799200563434	1.2553526288294128	2.345503220477201	5.489137012402757e-12	3.875173393762174	0.2963742897556857	-0.5425936724735745	0.8389679622292602	118.64916719098993
17	6.0	wm	183	diff_vonmises	-0.024767877628058106	-1.4190948555842215	0.48656593151628863	244.03741876136627	0.4751598066546648	245.85361450214026	0.07892070831896092	-0.4891897432619956	0.5681104515809565	120.0349801669904
18	7.0	ltm	183	diff_vonmises	0.04294151194796933	2.460367400529241	1.1008103822265307	168.6760657032652	1.077448683516367	170.7664799314156	-0.006161456905125817	-0.48235592024999363	0.4761944633448678	76.04543197483454
19	7.0	perception	183	diff_vonmises	0.07695098869778498	4.4089668817419785	1.6463152397331526	3.3154586894631244	0.36618944797774605	5.011644972814176	0.4068469919515223	-0.5148464171583034	0.9216934091098257	88.99780503615321
20	7.0	wm	183	diff_vonmises	0.21016882332840597	12.041786561948301	1.2818256921909625	4.033778332696185	0.5683044609973176	6.3457781014429955	-0.05721377433827102	-0.4933839494876198	0.4361701751493488	82.90051089244935
0	1.0	ltm	184	diff_vonmises	0.12827167220640875	7.349425448512766	1.7132476439277984	1.0989471494631455	0.1632773410828456	3.1161462530366704	-0.063981061216135	-0.41472857049542117	0.35074750927928616	89.58343548982828
1	1.0	perception	184	diff_vonmises	0.026090244307673486	1.4948608852949112	8.41366782549395	0.69831756078325	2.7178623008356592e-17	2.688464563666304	0.36722208489999647	-0.4278823854897547	0.7951044703897512	46.851743976128546
2	1.0	wm	184	diff_vonmises	0.10394520089659551	5.955621312014383	4.65129927047447	0.4019359700582909	7.401566822907467e-18	2.4626228887098587	-0.05662452156397613	-0.3919080293486723	0.3352835077846962	63.36232917046638
3	2.0	ltm	184	diff_vonmises	0.03560879332967554	2.040233571344006	3.4469223788308536	0.6841356681556964	0.1359440129220625	1.9576651752897436	0.1292602781927754	-0.29507809464832524	0.42433837284110065	69.06960534922891
4	2.0	perception	184	diff_vonmises	-0.03608915023287863	-2.0677559945575177	7.522648293789151	1.0796927019045282	3.3774820942212907e-08	2.3892040982138534	0.7801546454395855	-0.3802532901882751	1.1604079356278605	49.58068355824949
5	2.0	wm	184	diff_vonmises	0.034145950443107684	1.9564188478529334	5.1682344723396385	0.47178516741078347	0.055436105806811894	1.9552872471133955	0.08769275427730971	-0.3087593539797872	0.3964521082570969	58.4151793584154
6	3.0	ltm	184	diff_vonmises	0.2021077149728163	11.579919074975368	2.6328531623364824	0.916101099958073	0.2783163434281841	1.7359801320578025	0.19849811535872985	-0.23299032119209498	0.4314884365508248	75.56510505413755
7	3.0	perception	184	diff_vonmises	0.02635461265526394	1.5100080758486918	5.0810804673822805	1.815452885852252	0.0633879669311185	2.7048368647616563	1.1293006418052631	-0.42143117863311647	1.5507318204383795	59.752234430610486
8	3.0	wm	184	diff_vonmises	-0.03511904281722488	-2.012172933966214	2.657346612184621	0.9673869890711404	0.28685929610230565	2.170159142867582	0.14003223492313066	-0.2972932084883306	0.43732544341146123	73.79168199276486
9	4.0	ltm	184	diff_vonmises	0.19655210665830597	11.261606165926139	0.5891748672690845	151.89840466053766	0.5758787439852725	153.44372742566637	-0.021747293477815788	-0.344287570651014	0.3225402771731982	104.94632781286407
10	4.0	perception	184	diff_vonmises	-0.05419305169082472	-3.1050331408185663	2.676289162381512	2.348287059231693	0.11646133797701728	4.381543736848932	0.6593721700260755	-0.6297951558482331	1.2891673258743086	79.58479821449478
11	4.0	wm	184	diff_vonmises	0.01783637680822591	1.021949112916367	0.8735631041111183	204.1226087019626	0.8589940606704413	206.3396913963084	-0.13098944039259663	-0.45281365145926245	0.3218242110666658	81.46085392708076
12	5.0	ltm	184	diff_vonmises	0.1665586529160206	9.543107853472321	1.909838834795529	1.124358558761179	0.09457300857899238	2.063243098530033	0.20388769555073205	-0.2859325565159169	0.489820252066649	93.67800514083751
13	5.0	perception	184	diff_vonmises	-0.0004252323283644633	-0.024364017727804912	2.2736989072985776	2.132052655964112	1.3147367479543168e-17	2.8669880344297094	0.7316484459098311	-0.443709359338238	1.175357805248069	91.18363480807704
14	5.0	wm	184	diff_vonmises	-0.006536800420572594	-0.37453107561815113	0.605959296454074	153.11707129994454	0.5914062137105431	154.17385677949446	0.1427705244523878	-0.3156116399307276	0.4583821643831154	110.36676682884094
15	6.0	ltm	184	diff_vonmises	0.288876379627585	16.551397353679576	0.4711555469477772	110.52315717667005	0.4588915786587128	111.20187235733341	0.0895943442268532	-0.222362493842299	0.3119568380691522	124.22003792342926
16	6.0	perception	184	diff_vonmises	-0.12023693885305348	-6.8890691378525135	1.731660091892506	1.5445293509225546	4.229483545779182e-17	2.2846026724517814	0.3664517780125414	-0.34073618073927353	0.707187958751815	103.69681369867897
17	6.0	wm	184	diff_vonmises	-0.004857348981175537	-0.27830559624352863	0.5860739476814157	173.52751156973952	0.5746853321642266	174.5545041988813	0.10547511475619586	-0.29237179527045676	0.3978469100266526	111.19789953825907
18	7.0	ltm	184	diff_vonmises	0.00860232418570144	0.49287686984400514	1.3743965759184344	4.6159473490210585	0.75308282367844	6.09499383448861	0.10053863675526742	-0.3665742813535401	0.4671129181088075	80.52117293445389
19	7.0	perception	184	diff_vonmises	0.02730374211113423	1.5643891878816076	1.3849485136293833	4.768821795404228	0.45562986049937576	6.065147381957875	0.5220732678942146	-0.483801152363554	1.0058744202577685	93.58388979096077
20	7.0	wm	184	diff_vonmises	0.08183408927849511	4.6887479359545505	3.4012467505770188	0.5586218714805251	1.7735391041765398e-38	2.2699403727044554	0.03143469182017894	-0.3608358891011654	0.3922705809213443	74.40312653211075
0	1.0	ltm	185	diff_vonmises	0.045877008224508124	2.628558947951282	3.8732853991605256	0.40871772959728986	9.021043511611932e-15	1.301394538788891	0.10161168298273895	-0.20698990989798577	0.30860159288072475	69.60539730181355
1	1.0	perception	185	diff_vonmises	0.003233370353378958	0.18525847485133787	13.009651671386637	0.6232463362186522	7.895061540701088e-15	1.6112688026843376	0.631379224077131	-0.25644139459252024	0.8878206186696512	37.579312407133585
2	1.0	wm	185	diff_vonmises	0.09378264240450962	5.373349601363028	2.6112211193993144	0.47337386488748623	9.726461840102952e-14	1.5477244786377318	0.039845529957864695	-0.2447841702813537	0.2846297002392184	85.11219375995432
3	2.0	ltm	185	diff_vonmises	0.12620452873114846	7.230986851732345	5.586407924243089	0.35078181763618516	0.07204233184204911	0.8070225495893305	0.1847416872379815	-0.12714021328508218	0.3118819005230637	56.59877032876821
4	2.0	perception	185	diff_vonmises	-0.03427395867100238	-1.9637531790542484	8.708018701725416	0.9443535002774799	7.703905129835652e-21	1.2657494165330279	0.8934090383587706	-0.20145024645693432	1.0948592848157048	46.03107943818429
5	2.0	wm	185	diff_vonmises	0.039027163781857124	2.236091771066238	7.78122803590321	0.30579492614177406	0.01555397064929501	0.9526091375402218	0.18047213983537302	-0.15153521186644184	0.33200735170181483	48.52332648698979
6	3.0	ltm	185	diff_vonmises	0.24273722120701088	13.907818305895185	2.5784790846543317	0.746091157949705	0.5629833867679511	0.9564334133071735	0.20045537741007255	-0.10705941661614582	0.3075147940262184	73.63455138519353
7	3.0	perception	185	diff_vonmises	0.007563473625987479	0.4333551172275919	6.186178723615007	1.3875357053146382	0.11627968427121395	1.6859312669308668	1.0458836177235502	-0.26540409418145333	1.3112877119050035	53.95858105884264
8	3.0	wm	185	diff_vonmises	0.040123109114289165	2.298884813191656	4.673602113529995	0.692305806062429	0.6004356844741916	1.2325914642124236	0.25158163442539916	-0.1938719970016323	0.4454536314270314	56.17852855894466
9	4.0	ltm	185	diff_vonmises	-0.08270281217997189	-4.738522091775528	1.665585202080313	152.13569581407586	1.6491535720867703	152.83695447853037	0.10080115968411008	-0.22142322355085753	0.3222243832349676	64.66888368605927
10	4.0	perception	185	diff_vonmises	-0.061352921158879185	-3.515263443202665	3.1441100588592055	1.7641940497375128	7.310267103582223e-14	2.7824516666569536	0.7436953128069104	-0.4406357800111258	1.1843310928180362	77.46294855753965
11	4.0	wm	185	diff_vonmises	-0.04818424882665396	-2.760754096775461	1.2952925842524046	183.2750338136428	1.2785638821352872	184.73089353525145	-0.014424149707238598	-0.352977064338436	0.3385529146311974	69.45293022689677
12	5.0	ltm	185	diff_vonmises	0.10932234822077276	6.263709159509804	1.7171736852440735	0.9542470212740628	1.4104625977328792e-13	1.3291789215986294	0.23719368915684913	-0.19707462752233676	0.43426831667918586	104.0881047418844
13	5.0	perception	185	diff_vonmises	0.0025745333050432935	0.14750989259484765	2.779876762005524	1.509793403796206	9.203907706981244e-19	1.7223211606762585	0.6724252359415772	-0.2704719358576176	0.9428971717991947	82.46797683123648
14	5.0	wm	185	diff_vonmises	0.015375994664014936	0.8809796000637301	0.6392932095110526	117.76065489288126	0.6246554346882305	118.20691552041271	0.2065860343734478	-0.20670101682052966	0.41328705119397746	111.96764682365934
15	6.0	ltm	185	diff_vonmises	0.33792019648493665	19.36140107081839	0.6634788472094468	86.24658211931475	0.6501926123713291	86.4660247751386	0.1575205124774186	-0.12812232354498132	0.2856428360223999	111.16599761557677
16	6.0	perception	185	diff_vonmises	-0.058766141262715545	-3.367051872623199	2.0599011461952066	1.3592728547202118	6.63011339202584e-09	1.7396870716074986	0.43692258513588467	-0.2652811486997112	0.7022037338355959	95.66164843048759
17	6.0	wm	185	diff_vonmises	-0.020773563079621252	-1.1902374899110866	0.6811406520103565	137.76246245191004	0.6653799347105516	138.33438989270164	0.2543019285225512	-0.2507083338165952	0.5050102623391464	108.30105222969438
18	7.0	ltm	185	diff_vonmises	0.031249472398764466	1.7904628804597607	1.0686994441495168	93.21254613735421	1.0412010702169547	94.00595943139734	0.20503516788422615	-0.2489268295610252	0.45396199744525134	84.20456071337784
19	7.0	perception	185	diff_vonmises	0.053294307379084895	3.0535388848944844	2.7363698339422418	1.3340977324956278	1.2606742577895495e-17	2.3449585082232467	0.4555931826351976	-0.36973098882696437	0.825324171462162	83.12788291226695
20	7.0	wm	185	diff_vonmises	0.2786401993724844	15.964907426727166	3.392667400181145	0.5563171478780734	1.459249185582504e-31	1.4656620835957788	0.15728726984978694	-0.23282594867649328	0.3901132185262802	74.4879666141698
0	1.0	ltm	186	diff_vonmises	-0.022387889289632253	-1.2827315685020668	3.436943404481539	0.571131157534712	7.383903336001866e-14	2.642249997645884	-0.016676525558802335	-0.4201093503602621	0.40343282480145976	74.00682457179039
1	1.0	perception	186	diff_vonmises	0.01675670619432683	0.9600885434756508	16.613486553701108	0.560137486115643	2.1648255731769647e-17	2.8325375746822345	0.4529630868367454	-0.450812356504203	0.9037754433409484	33.223564885089615
2	1.0	wm	186	diff_vonmises	0.1025062228465298	5.873173942933653	3.388268587012064	0.49039746856379757	0.01978611240757764	2.9413043155471468	-0.13340645946017443	-0.4614053436819122	0.3279988842217378	72.61820816650399
3	2.0	ltm	186	diff_vonmises	0.012762315465758773	0.7312268130025152	3.0683252913786063	0.5894939284438261	4.957133218132718e-12	1.680097655483498	0.12366339670625781	-0.2665502595591273	0.3902136562653851	78.42990367423727
4	2.0	perception	186	diff_vonmises	-0.047350266707883025	-2.712970441180508	7.501255512074231	1.042912191657462	0.14517305165716687	2.181844820860273	0.7197235885254538	-0.3550378019376371	1.0747613904630908	48.54883356207901
5	2.0	wm	186	diff_vonmises	0.042227794046755314	2.419474377026743	5.5137189103908515	0.398436601440219	0.03116866393499584	1.8874121801333426	0.05403380861638041	-0.2988684080186194	0.3529022166349998	57.07609200292043
6	3.0	ltm	186	diff_vonmises	0.09349384229044089	5.356802573703993	0.9114723236868879	151.86962079287787	0.8965952221244561	152.69273752407977	0.16511091000928246	-0.24326631588587766	0.4083772258951601	90.33129167352513
7	3.0	perception	186	diff_vonmises	0.011355112573242577	0.6506000263427355	4.707555349898007	1.9058322741270768	0.2533352022811744	2.80050820137947	1.034968872996702	-0.42680000332913265	1.4617688763258345	60.081445950456924
8	3.0	wm	186	diff_vonmises	0.07590104836068712	4.348809731685727	2.7308505907841836	1.0110754677773686	0.3873229722815907	2.370026077477654	0.09200503142615768	-0.3240741396885229	0.41607917111468057	69.945819030562
9	4.0	ltm	186	diff_vonmises	-0.04214633851882174	-2.414807319058139	1.0944720842927274	251.42046056713528	1.0819752174153157	253.00476954360286	0.02319474319034498	-0.37334972841445335	0.39654447160479833	76.89849410638487
10	4.0	perception	186	diff_vonmises	-0.046089415974479936	-2.6407290155605367	2.0021285512193328	3.34791982695949	0.36867778204575335	4.847960159166768	0.6495953033721933	-0.5400069558303751	1.1896022592025683	83.74684168886489
11	4.0	wm	186	diff_vonmises	0.036883540568282754	2.1132712080621556	0.8568438099394533	210.00982008944845	0.8416907720084886	212.26665765826493	-0.09599622616256909	-0.4706367659019115	0.3746405397393424	83.78725747084908
12	5.0	ltm	186	diff_vonmises	0.05361924647029303	3.072156523419527	1.6603739097091608	1.3466317022998566	0.09898318850942389	2.504515396850874	0.18142881775609332	-0.3377441663723017	0.519172984128395	99.22595537509608
13	5.0	perception	186	diff_vonmises	0.022708302361836796	1.3010898852402077	2.2744062053042584	1.9064389073350465	1.3509379071294774e-21	2.979584199055621	0.5881837403865194	-0.46297491668293506	1.0511586570694544	91.1697866968039
14	5.0	wm	186	diff_vonmises	-0.1079899887704606	-6.1873705862125465	0.5409982799686138	230.66004618977203	0.530955706467355	232.1167333239557	0.06733352468705789	-0.38026081351369356	0.44759433820075145	113.67055433682457
15	6.0	ltm	186	diff_vonmises	0.22118712953926528	12.673089005213322	0.3702897639638885	113.77838949555711	0.35723607555094933	114.93655372607941	0.01495104444376949	-0.3123830745849716	0.3273341190287411	133.15004903945766
16	6.0	perception	186	diff_vonmises	-0.05917003553030262	-3.3901933095254657	1.7415238318981465	1.6325078657502077	2.9644692370160644e-12	3.060375753262495	0.28721298996050326	-0.46329082025493584	0.7505038102154391	103.45869055981048
17	6.0	wm	186	diff_vonmises	-0.038325953324134174	-2.195915371288276	0.5461000134633383	221.05123630465366	0.5340464806357539	222.63251123032327	0.10061011659708186	-0.4275261554923375	0.5281362720894194	114.01745389703441
18	7.0	ltm	186	diff_vonmises	-0.014282082391662848	-0.81830304370039	1.0637149719541144	182.08789486759903	1.0431850548466062	183.79330901424962	0.10689474376869157	-0.4236986493682373	0.5305933931369289	80.0745404325584
19	7.0	perception	186	diff_vonmises	0.08580648776304395	4.916349603663362	2.6468297086225236	1.4345235428981011	1.105214866330124e-15	3.051048375450952	0.3885561913766981	-0.4811982715635021	0.8697544629402002	84.5325160340486
20	7.0	wm	186	diff_vonmises	0.20182833597146382	11.563911837313293	4.705072664605368	0.569535595696556	0.029366483764675856	2.501109030816301	0.06816947597087836	-0.3941177850950822	0.4622872610659606	61.80498365266985
0	1.0	ltm	187	diff_vonmises	0.20597606194939058	11.801559030425269	1.7616004905992166	0.72149287203528	3.3647444347759044e-26	3.675784678849523	-0.2404140058331462	-0.5748515626200559	0.3344375567869097	102.82066301580753
1	1.0	perception	187	diff_vonmises	0.02150269766749494	1.2320138244932595	9.539710815318866	0.8185150959876508	0.06979292945425064	3.7472896500216697	0.3558525539150529	-0.6094981921646919	0.9653507460797448	43.21809250002562
2	1.0	wm	187	diff_vonmises	0.08199826505223712	4.6981545148882615	3.258615631286843	0.5545600185346938	0.023503030219449658	3.902899391859545	-0.25524519411849195	-0.6113206336112216	0.35607543949272963	73.37100499501108
3	2.0	ltm	187	diff_vonmises	0.1588922164733878	9.103853401404175	3.5273037833481937	0.5784593113789223	0.03870899339052993	2.301493200055051	0.03438996467083	-0.35770441480896625	0.39209437947979625	70.7914396162565
4	2.0	perception	187	diff_vonmises	-0.04233776114417029	-2.4257750275939247	7.86599282956126	1.168238626326442	0.11121897921119056	2.9768029441345334	0.7568509537861636	-0.4833674765121785	1.2402184302983421	47.525840520734334
5	2.0	wm	187	diff_vonmises	0.05948148952255749	3.40803830879417	4.7163139027437575	0.5344008809824664	0.019170131599367875	2.7161373250144742	0.008488004385520831	-0.4290382689732571	0.4375262733587779	61.975635679715566
6	3.0	ltm	187	diff_vonmises	0.2549767227698323	14.609090088788628	2.9735889219754976	0.6476698477684302	6.837261198994777e-15	1.9521508971580726	0.11133820598215227	-0.30959145439659724	0.4209296603787495	79.67935904290664
7	3.0	perception	187	diff_vonmises	0.009972259545469354	0.5713683841644427	5.370710774062589	1.8643539484314573	0.052681673418852	3.344201916297782	1.118386247927571	-0.5245591286829949	1.642945376610566	58.134507355697224
8	3.0	wm	187	diff_vonmises	-0.015372742344734805	-0.8807932558953495	3.9593257169378737	0.687595176040341	0.13948945180641767	2.697810997100715	0.034466421447804874	-0.4183953431707336	0.4528617646185385	63.8136818749133
9	4.0	ltm	187	diff_vonmises	0.20389493181599902	11.682319057164433	0.6977760199819754	211.51824717211076	0.6833916264582975	213.9814897965426	-0.11348526532965764	-0.5046596598622841	0.3911743945326265	93.03908065995603
10	4.0	perception	187	diff_vonmises	0.0006241334482070133	0.03576021243520882	2.635164665461636	2.3554331210243045	0.12618581618061767	4.983127126902224	0.5354468991239192	-0.7152764655681862	1.2507233646921054	79.32144525475567
11	4.0	wm	187	diff_vonmises	0.24848886976510198	14.237363493516312	0.6032476086432037	211.0897185242153	0.5892847241525153	214.32932948298114	-0.2960804686207936	-0.6074216274236726	0.31134115880287894	93.95227655932865
12	5.0	ltm	187	diff_vonmises	0.11824728759955246	6.775070518323991	1.8544814119191866	1.1329568101711223	0.0372285642727959	2.543036294810623	0.13836501185156158	-0.3761305204893667	0.5144955323409283	97.79221802963792
13	5.0	perception	187	diff_vonmises	0.025463294416984323	1.458939302592234	1.9678781341611997	2.2909590891164284	7.388537601025486e-17	3.6040788812584053	0.5966733182598654	-0.5507474288862048	1.1474207471460702	97.77067235921331
14	5.0	wm	187	diff_vonmises	0.004721199905442933	0.2705048288194434	0.958926307786807	3.6476025716223783	0.2889766662265806	5.548721559992201	0.06325850185355475	-0.4699629997361665	0.5332215015897213	107.59624324393293
15	6.0	ltm	187	diff_vonmises	0.29659948547977666	16.993898723742944	0.3061634625896192	124.08376222593208	0.29236248977519286	125.27891439076178	0.05688069605550439	-0.3658592479467693	0.42273994400227366	141.82004172655206
16	6.0	perception	187	diff_vonmises	0.023958708950407696	1.3727329054406714	1.5623322947623435	1.6755750826393185	6.192704162076726e-15	3.0938109754063294	0.25151146406237057	-0.45969720058764696	0.7112086646500175	108.55291347764451
17	6.0	wm	187	diff_vonmises	0.18201991659842523	10.428973008413005	0.47462244204806153	254.73040031739708	0.46537628453960295	256.53541538142537	0.004310959804939785	-0.44360730407959537	0.44791826388453515	119.09128916801058
18	7.0	ltm	187	diff_vonmises	0.03028618492478529	1.7352705737429357	1.5408397845245136	3.399492314061963	0.5812363045483998	5.82411372184598	-0.029295817331967955	-0.532742045634566	0.503446228302598	78.45519539278857
19	7.0	perception	187	diff_vonmises	0.154524571784578	8.853605794322643	1.7535216102650044	1.9167974333376827	2.4252560487819635e-17	3.7962030315270154	0.3087782902557602	-0.5768085702665507	0.885586860522311	103.07881706445045
20	7.0	wm	187	diff_vonmises	-0.10308142438081724	-5.906130563217773	3.3705604712385373	0.5102362378225648	2.1347977285368665e-10	3.2586587881497158	-0.16173567110382714	-0.5182100409039313	0.35647436980010416	74.74759072461686
0	1.0	ltm	188	diff_vonmises	0.030620127138029064	1.7544040531630618	1.0393635734618116	266.3907420699159	1.025579094896392	268.6934238640747	-0.10541020274901314	-0.49754052118571224	0.3921303184366991	75.56262908735516
1	1.0	perception	188	diff_vonmises	0.07448750042717191	4.267819400955867	7.589658419116953	0.8117287362243629	3.8573979679634344e-17	2.8583355023214234	0.4214533342462672	-0.45491800009666394	0.8763713343429311	49.360534773673095
2	1.0	wm	188	diff_vonmises	0.08481894193542071	4.859767395664797	6.358407696784168	0.30564353401849675	2.4900645526769206e-15	2.4510287462128555	-0.08918906137691351	-0.39009243779806485	0.30090337642115134	54.00743029643243
3	2.0	ltm	188	diff_vonmises	0.023762054878767227	1.3614654571116092	3.4196994712375797	0.8562475998183768	0.35082883487822913	2.0820250932161506	0.14728441353340316	-0.30581723777412145	0.4531016513075246	65.12751394338002
4	2.0	perception	188	diff_vonmises	-0.024163542903338466	-1.3844690264445858	7.782576192047527	1.1505204778551539	1.1179490735261366e-19	2.2661958093050494	0.8976386045097058	-0.36067604624770033	1.2583146507574061	48.7378922648285
5	2.0	wm	188	diff_vonmises	0.038344683114388975	2.1969885092210415	5.208734388706245	0.4643238536914095	0.12284124119352988	1.804776346273516	0.08791805856668672	-0.2869190708768115	0.37483712944349823	56.9180687845971
6	3.0	ltm	188	diff_vonmises	0.21131344291917661	12.10736843364745	4.356704455449289	0.5022183861886741	0.21933277727382053	1.0604039124922395	0.19681316461309015	-0.16245754385859076	0.3592707084716809	61.67066596149613
7	3.0	perception	188	diff_vonmises	0.06106562952599942	3.498802845149233	5.697733527901201	1.5749263390486248	3.384239557108795e-14	2.008782654960946	1.143604805020097	-0.31969122510383224	1.4632960301239293	57.12236511982471
8	3.0	wm	188	diff_vonmises	-0.0546558713033387	-3.1315507512914977	3.9871260441183862	0.5299330754916783	0.179364559141794	1.2748068323419193	0.1659116388408505	-0.19387214779832346	0.359783786639174	64.4015028201714
9	4.0	ltm	188	diff_vonmises	0.4629888282884844	26.527305822637334	0.28988065678447245	101.10308391678886	0.27929506138337684	102.30961216859012	-0.058387373551145316	-0.28572097160085086	0.22733359804970554	139.23915392337491
10	4.0	perception	188	diff_vonmises	-0.07319341141594611	-4.193673562298371	3.496641426726465	1.8835082892594248	0.010223298312335885	3.7627433233500134	0.7397083522510355	-0.5916076571443728	1.3313160093954082	72.95869252656465
11	4.0	wm	188	diff_vonmises	0.00335571656906704	0.19226839664966222	0.9944318925694915	183.76968642548078	0.9801892911482161	185.507435068356	-0.09162883290554902	-0.3679455627343735	0.2763167298288245	76.75917089647999
12	5.0	ltm	188	diff_vonmises	0.2186249569183544	12.526287327651156	1.333664654934008	1.9262108193553849	0.34530772170231466	2.8692422008896847	0.15114241087367775	-0.26836539793687414	0.4195078088105519	96.01603268103204
13	5.0	perception	188	diff_vonmises	0.004116504271356622	0.2358583210963106	2.6214599059985866	2.171040435933636	5.377546712797254e-14	2.7340685173238333	0.8803834695540342	-0.42818792445898285	1.308571394013017	84.94910952095825
14	5.0	wm	188	diff_vonmises	0.06849530126327706	3.9244916788628714	0.6026412212820131	170.03209772549835	0.5897651529386598	170.93319658325996	0.1766766357127807	-0.29927250293245145	0.47594913864523214	112.03587885440028
15	6.0	ltm	188	diff_vonmises	0.38600162055169546	22.116263742822408	0.8137751719182714	106.5956519894245	0.7988870135176958	107.24722687461475	0.10534837823499998	-0.18585148334147839	0.29119986157647837	95.0735368544573
16	6.0	perception	188	diff_vonmises	-0.173857474010502	-9.961299497607163	1.3921655657034475	1.9856821566271343	6.069677515601279e-20	2.427679027520742	0.43585585244601593	-0.3355874327624027	0.7714432852084186	113.80816622991762
17	6.0	wm	188	diff_vonmises	-0.07773614289133549	-4.453952903299419	0.6050099533051859	167.8904515155442	0.5930117003437265	168.68568326686577	0.17108216349409133	-0.2717828649033933	0.44286502839748465	112.13394694569016
18	7.0	ltm	188	diff_vonmises	0.09432536374252332	5.404445243482906	1.0537788455853847	76.87069731625027	1.0209714555456746	78.01600545234811	0.07949321361756034	-0.2862928260723354	0.36578603968989576	80.95202006665741
19	7.0	perception	188	diff_vonmises	-0.01936941307603628	-1.1097856209023884	1.0611557512082426	250.27303433909896	1.0404909545621002	251.26720653825257	0.6263191149506042	-0.4439658605124137	1.070284975463018	87.40177520231714
20	7.0	wm	188	diff_vonmises	0.21347801679942816	12.23138938143012	2.9604690498971395	0.5328596845967806	1.5742355442763027e-30	1.8082029165312097	0.05857585017296113	-0.2868552127897239	0.34543106296268505	79.86083054911035
0	1.0	ltm	189	diff_vonmises	0.1449659266756736	8.305935771719053	1.4628404068140484	0.8986203881462361	1.6759749397961025e-15	2.582870328863273	-0.027708517427333657	-0.3905163955716511	0.3628078781443174	111.5386018306547
1	1.0	perception	189	diff_vonmises	0.018155237391486685	1.0402184785902888	10.460035104782747	0.5410853642753162	4.191725826099459e-28	2.406485940221337	0.30640005496319084	-0.38300413230112723	0.6894041872643181	41.95173930515389
2	1.0	wm	189	diff_vonmises	0.10003968728460703	5.73185186521655	4.957996132230307	0.38676894020331287	4.655731875469017e-19	2.2774133445167823	-0.028603704126608454	-0.3624451039987436	0.3338413998721351	61.325158550359475
3	2.0	ltm	189	diff_vonmises	-0.0399763694507074	-2.290477249781251	2.4961820874061442	0.8827160635480981	0.15237161291226517	2.0475021596800898	0.14244305265072138	-0.2893060296531716	0.431749082303893	79.78566203338963
4	2.0	perception	189	diff_vonmises	-0.03595623946612499	-2.0601407685706863	7.048098807111807	1.0284094720809298	0.042887654034791764	2.456101885162151	0.6606067636599875	-0.3905844107151591	1.0511911743751465	50.76332434068999
5	2.0	wm	189	diff_vonmises	0.06621274918846597	3.7937110784573664	5.726003548879795	0.4029148892501684	0.02295820775120427	1.9268679945779341	0.06165529351162691	-0.3054061123977189	0.36706140590934583	56.23148307311598
6	3.0	ltm	189	diff_vonmises	0.1621832903110122	9.292418042365975	1.0372062580364583	220.42882241020015	1.0236030841439114	221.38854294091604	0.233418155911437	-0.29607232709005515	0.5294904830014922	85.03195083094604
7	3.0	perception	189	diff_vonmises	-0.001228426341402652	-0.07038364480506873	4.152967162090341	2.259547996089475	0.25083785342060444	3.5196316969703423	1.0644589755300728	-0.5241135626049157	1.5885725381349887	63.48436570056816
8	3.0	wm	189	diff_vonmises	0.06802711850042756	3.8976667825108207	2.0825874045841224	1.2732203169887655	0.34585679579887274	2.8523655715812626	0.05028206920125056	-0.3576607176415597	0.40794278684281027	78.06906654326386
9	4.0	ltm	189	diff_vonmises	0.10020736683326746	5.741459195665451	0.8399053214279377	185.18808896391658	0.8233332917877412	186.97974848649145	0.03383235224194436	-0.41018382251357366	0.444016174755518	88.7521643448058
10	4.0	perception	189	diff_vonmises	-0.06062058126177025	-3.473303457929278	1.9100061347707118	3.6936566141479856	0.3502688235585171	5.667154880746056	0.6111096236065365	-0.6333418906134405	1.244451514219977	85.03396844144191
11	4.0	wm	189	diff_vonmises	-0.029821807070105604	-1.7086636825704502	0.7910103000853389	161.9889316261877	0.7717761471825919	164.45510287143415	-0.1405507155811776	-0.49837377035857955	0.35782305477740195	86.12164138243878
12	5.0	ltm	189	diff_vonmises	0.09262325149203422	5.306921395272366	1.4514615732469232	2.016590161753702	0.2776744337875502	3.0240878196335337	0.23299845938489117	-0.3161632952051024	0.5491617545899936	96.6950611273054
13	5.0	perception	189	diff_vonmises	-0.014666569046302562	-0.8403325062903496	2.248199893877994	1.9793975356304914	4.561011434885167e-19	2.93221326260503	0.6288100679968645	-0.45446237549499097	1.0832724434918555	91.68880271217864
14	5.0	wm	189	diff_vonmises	-0.13704032846709388	-7.85183244425099	0.6088705106582344	196.21924778943517	0.5978173712600278	197.4500649916589	0.08428610070848208	-0.32343095869013183	0.4077170593986139	107.68002903783541
15	6.0	ltm	189	diff_vonmises	0.19825565128904848	11.359212083479857	0.28937893010096055	123.12928145499605	0.27827364663660387	123.99855423904921	0.06425229824838397	-0.2859063759031475	0.35015867415153146	144.7354601016391
16	6.0	perception	189	diff_vonmises	-0.12657969647095382	-7.252482379832655	2.0120923557917902	1.3486677256226223	5.242700038304389e-16	2.4674189389777212	0.3055814670974335	-0.38021752686413945	0.685798993961573	96.72178582523418
17	6.0	wm	189	diff_vonmises	0.011862298321852384	0.6796596291672606	0.6282014510368871	174.6743498117229	0.6156405676432071	175.97312581127844	0.06734777774045853	-0.32741365852986704	0.39476143627032556	105.2460226145389
18	7.0	ltm	189	diff_vonmises	-0.06953995260176016	-3.9843457916206453	0.9608278112664771	157.20744826817872	0.9365757381948682	159.0183194916666	0.127084183056148	-0.44902573152676695	0.5761099145829149	84.87225381415902
19	7.0	perception	189	diff_vonmises	0.02428168429789928	1.3912380297387104	2.1997237137056387	2.054467276271708	0.04469351749486961	3.7819635496125423	0.4931565974572406	-0.561534380649201	1.0546909781064415	90.3242266643235
20	7.0	wm	189	diff_vonmises	0.17482063656912672	10.01648464720138	17.01774574503514	0.4202718792424243	1.4825875937502485e-13	2.4714657877002657	0.2930915505485521	-0.39334599679494414	0.6864375473434963	32.82428132201875
0	1.0	ltm	190	diff_vonmises	0.11797202895667128	6.759299359812401	0.9881957068103101	168.03286101433147	0.9647813968361941	170.505574437661	-0.08274897789880242	-0.5349335046480554	0.452184526749253	78.62594561510687
1	1.0	perception	190	diff_vonmises	0.04217437636280434	2.4164137691849885	5.905732735920366	1.015218467596437	0.09221175588908893	3.2295103058002996	0.3988769886148369	-0.5139199954336764	0.9127969840485133	54.50338169565234
2	1.0	wm	190	diff_vonmises	0.16205014313973692	9.284789271397797	3.995962304608819	0.47631764252555175	4.0380811639676607e-13	2.687698784882284	-0.06176017279875223	-0.4276367599822156	0.3658765871834634	68.49658041070225
3	2.0	ltm	190	diff_vonmises	0.07449256911732302	4.2681098155091854	3.8916345490108544	0.91274519981346	0.4194416701118557	2.190746648614222	0.1834990710719845	-0.33349778965103505	0.5169968607230195	60.88820343603058
4	2.0	perception	190	diff_vonmises	-0.04723386924719176	-2.7063013579368587	6.934429008823681	1.244293021498646	2.0241460079126144e-19	2.266705487517771	0.9209580030291171	-0.3607561675195792	1.2817141705486963	51.679135630693054
5	2.0	wm	190	diff_vonmises	0.004916311714370193	0.28168391200413834	4.87453642399707	0.5910585269878423	0.11573770992795854	1.918674308735882	0.16390470315721717	-0.3016812010800726	0.4655859042372898	59.19457792932539
6	3.0	ltm	190	diff_vonmises	0.22862146671932876	13.099045149108148	4.954451707933316	0.45863858305038663	3.394518650931906e-14	1.1104314933706088	0.2190324462965342	-0.17671097956834042	0.39574342586487465	61.34600941824999
7	3.0	perception	190	diff_vonmises	0.049997273903593153	2.864632781835458	5.143610339314771	1.7011223558827353	1.0111435097330663e-19	2.252047541108614	1.1390682021258447	-0.3583734837014694	1.497441685827314	60.18025630227879
8	3.0	wm	190	diff_vonmises	-0.07617619521735486	-4.36457448531908	3.5128347132974107	0.8061357706921837	0.1958632980577462	1.6104789435937048	0.2681784048065623	-0.23697590929035345	0.5051543140969157	68.4423987615574
9	4.0	ltm	190	diff_vonmises	0.5364944004181467	30.738864876361433	0.2153668308234622	128.7892670637686	0.20556616209134218	130.0361111349491	-0.0216176260513663	-0.33769401654563325	0.31607639049426695	148.52014823162395
10	4.0	perception	190	diff_vonmises	-0.06852342676037906	-3.926103151143524	3.1222548432495305	2.1417591927052078	6.824093330975066e-17	4.3290889703788675	0.7459599630886302	-0.6862105271209468	1.432170490209577	77.73206493085013
11	4.0	wm	190	diff_vonmises	0.03557061124752893	2.0380458991839836	1.0360878048544662	228.45670474213463	1.0214998754493343	230.5088220932079	-0.08076705246520532	-0.44635121648671117	0.36558416402150584	76.1494425248722
12	5.0	ltm	190	diff_vonmises	0.19670729723826882	11.270497931178198	1.767027433852295	0.9423331796089965	7.473980547406039e-15	1.6888628379870125	0.18213329534390676	-0.2556295295619203	0.4377628249058271	102.68658343157122
13	5.0	perception	190	diff_vonmises	-0.014944955484956016	-0.8562828742988702	2.017842142236188	2.54251139611255	6.299719246419967e-17	2.707332863217265	0.8878084070220404	-0.40757906833200686	1.2953874753540473	96.61104761997339
14	5.0	wm	190	diff_vonmises	0.11209906292162924	6.422803192780811	0.7373477273641765	127.3240708770293	0.718418790695083	127.97879664044896	0.2712120381631493	-0.2670509049111036	0.5382629430742529	103.85400341643609
15	6.0	ltm	190	diff_vonmises	0.541357101163875	31.017477106126787	0.8345445893562893	122.70308388374298	0.823194934544602	123.00340478598277	0.1733438260385327	-0.13709026307234318	0.3104340891108759	98.3288604279185
16	6.0	perception	190	diff_vonmises	-0.09318335831460094	-5.339013152281922	1.4160002396229052	2.0005773441608636	5.436442504589864e-17	2.0333748620427237	0.5132624416981748	-0.2743309966937615	0.7875934383919363	113.11226061894524
17	6.0	wm	190	diff_vonmises	0.056661710692088765	3.2464768826479773	0.6655265958885533	137.7457402038631	0.6525537737712831	138.276143023631	0.1936942416665488	-0.21377594698974178	0.4074701886562906	108.76200568608058
18	7.0	ltm	190	diff_vonmises	0.00793747540839818	0.45478384089009516	3.3973354980681374	0.8143782293862212	0.36097917607761854	2.0388060290060275	0.12135918493502074	-0.299970612477337	0.4213297974123577	64.87542526026428
19	7.0	perception	190	diff_vonmises	0.04333499338768376	2.4829122263416092	1.0055704737298599	296.67776385010603	0.9889248556483029	297.55126708791585	0.637696224391064	-0.4269953695224231	1.064691593913487	90.21993024540635
20	7.0	wm	190	diff_vonmises	-0.22441505233497577	-12.858035358001603	0.0479398382453917	25.08281001299595	7.418328094372177e-09	26.400174329211925	-0.01603105037279029	-0.39871330397890414	0.38268225360611385	175.8852931796967
0	1.0	ltm	191	diff_vonmises	-0.0788090494801698	-4.515425922651404	1.0410968423274625	83.74289969344899	1.0170944665254111	84.75903008381955	0.028698591710117682	-0.24064163411138217	0.26934022582149986	79.77406117728157
1	1.0	perception	191	diff_vonmises	0.056854471702468136	3.2575212749973925	15.010675971250699	0.5292242547995486	7.183849328632874e-21	1.6931867010591286	0.5413656958392014	-0.26947903305094534	0.8108447288901467	34.967668966306064
2	1.0	wm	191	diff_vonmises	0.019010255960159646	1.0892074339805662	6.383693411319278	0.23268761169450225	0.03227790514965221	1.4898375948056632	-0.01527063585021926	-0.23721125271087012	0.22194061686065086	52.87381172397724
3	2.0	ltm	191	diff_vonmises	-0.026761648902476464	-1.533329534922813	3.421234422343155	0.47300309353753345	0.08985424853545566	0.9839904958552551	0.16260151934189196	-0.14822893189512287	0.3108304512370148	71.4349480774651
4	2.0	perception	191	diff_vonmises	-0.008360833291567895	-0.4790404608193124	8.234070997868342	0.9891517813433064	0.196079507605394	1.6034521768670726	0.8062624621570069	-0.26555058033698603	1.071813042493993	46.367914429994585
5	2.0	wm	191	diff_vonmises	0.1239871570117077	7.103940810596724	7.75321726375337	0.22819617904102552	0.1243995376137389	1.0643799111976981	0.058026383912130386	-0.1750236703523439	0.23305005426447428	47.097242712654435
6	3.0	ltm	191	diff_vonmises	0.1660100045120025	9.511672615485498	1.5242733828058814	100.65710553244115	1.5065602297665526	100.90445371609245	0.20343525421280617	-0.12707502693123907	0.33051028114404524	72.88133917521665
7	3.0	perception	191	diff_vonmises	0.02192061959132761	1.2559589868948595	5.276083075434311	1.6424171720489695	0.4231785731425799	1.962216389957252	1.0092601381406303	-0.3041279343273632	1.3133880724679936	56.22141313292042
8	3.0	wm	191	diff_vonmises	0.10610669022005735	6.079465527711334	4.165942097305244	0.502941018205114	0.5872105349575075	1.1506612922886847	0.09256155744614308	-0.18051469917997837	0.27307625662612145	57.18206868489645
9	4.0	ltm	191	diff_vonmises	-0.025644035336937068	-1.469294994490838	1.4749603048579383	219.82201523267915	1.4643782431198906	220.6729965604474	0.046163614738247816	-0.23315821708783346	0.2793218318260813	66.97765713237828
10	4.0	perception	191	diff_vonmises	-0.07396170257681693	-4.237693403253475	2.779557521297799	1.9927994684590746	0.2430699235527484	2.907966878873977	0.6677107138411216	-0.3904859961470008	1.0581967099881224	76.21864488705492
11	4.0	wm	191	diff_vonmises	-0.09142483915805015	-5.238257426418656	1.1577115031620506	138.13075217331402	1.1406717211548505	139.41523909884322	-0.03494429261778009	-0.293015781837326	0.2580714892195459	72.70416243500719
12	5.0	ltm	191	diff_vonmises	0.08482206335920597	4.859946240073764	0.8534886068604215	104.66107206487473	0.8325169603191196	105.38372217092324	0.1949817851919775	-0.23594370951667365	0.43092549470865116	94.78799782266327
13	5.0	perception	191	diff_vonmises	0.009607592247249396	0.5504744870500005	3.7109014663694655	1.3987787581821434	1.3416177857723598e-17	2.149855004286551	0.6898195243876888	-0.34154271395069247	1.0313622383383811	71.1530689582055
14	5.0	wm	191	diff_vonmises	-0.17554984806943935	-10.058265388541697	0.5103669447488937	122.93736224416224	0.4983351803020073	123.8277833841966	0.057220340697597294	-0.24717691988278112	0.3043972605803784	118.088529648898
15	6.0	ltm	191	diff_vonmises	-0.07918498353750218	-4.536965357511779	0.6386565628583467	115.78190282892653	0.6259976668157302	116.65765177226848	0.04131307510970572	-0.21782548409168	0.25913855920138573	104.10892643882312
16	6.0	perception	191	diff_vonmises	-0.19479705720656232	-11.161049239504479	2.023161396998048	1.3420981299638557	6.820706075603961e-14	2.434990186904429	0.30965559246822644	-0.37534896574622734	0.6850045582144537	96.43886113620981
17	6.0	wm	191	diff_vonmises	-0.19891142828736122	-11.396785337784934	0.7294101226922646	60.60930255522573	0.6856046957699119	61.649515884067405	0.21302437040936084	-0.32705546943041774	0.5400798398397786	102.68554317379557
18	7.0	ltm	191	diff_vonmises	0.0724254917814421	4.149675008236063	0.8891532955938043	181.87191641813698	0.8753770667317808	182.81551558182034	0.17747454529769868	-0.2751772377286983	0.45265178302639697	91.24909797645665
19	7.0	perception	191	diff_vonmises	-0.03999739505500313	-2.2916819281691088	3.6891458609480523	1.2953915783376286	5.063821505869304e-16	2.6329394026977444	0.5336264602274131	-0.4184501612010851	0.9520766214284981	71.36541099371178
20	7.0	wm	191	diff_vonmises	0.3104749895305049	17.78890654446635	7.743760807521894	0.48788903566153885	0.05595916655151493	1.5468684638633978	0.2721258634212669	-0.24787775341652188	0.5200036168377887	48.2046774437554
0	1.0	ltm	192	diff_vonmises	-0.11871477254344288	-6.801855432594823	0.9734169364301892	215.75829549888243	0.9557520745935769	218.05219082433422	-0.04156986383539163	-0.5050682866609577	0.4634984228255661	80.121623394018
1	1.0	perception	192	diff_vonmises	0.0034799362345981147	0.1993856592171195	11.167349897425995	0.7460762755462366	6.515244358649008e-20	2.824135487693928	0.5334859028503758	-0.4494751226315025	0.9829610254818784	40.59162701332346
2	1.0	wm	192	diff_vonmises	0.06051875149499478	3.467469042064242	3.8593618688882665	0.45136305199399257	4.623138767975546e-22	2.8076255243557635	-0.10658782920505788	-0.44669622096922584	0.34010839176416796	69.7370622695602
3	2.0	ltm	192	diff_vonmises	0.05256442239255863	3.0117195556365663	2.804651951567357	0.603206512507439	5.156669144598063e-26	2.0387055404065566	0.055645152311202484	-0.32307746688406985	0.37872261919527234	82.09460956007698
4	2.0	perception	192	diff_vonmises	-0.04798918003435361	-2.7495774782619367	7.604218426744414	1.1266871568117358	0.07659977774403534	2.371561027466094	0.8107390196526416	-0.3801219281168758	1.1908609477695173	48.683346737200566
5	2.0	wm	192	diff_vonmises	-0.06193007453459923	-3.5483318957631518	3.5181298519836033	0.6202390115597597	0.12238918919427287	2.1182005273351994	0.0646934191431171	-0.32277381287570617	0.38746723201882327	68.20605245877888
6	3.0	ltm	192	diff_vonmises	0.09756503115299768	5.590064513129163	2.707726882450789	0.5921096858747618	0.11792229002309476	1.362142906791163	0.12250759754143431	-0.19786386299707054	0.32037146053850485	78.31046266548262
7	3.0	perception	192	diff_vonmises	0.048717587949785826	2.791312177580125	4.920316617587864	1.8697604910575694	0.1826416867601515	2.3397527705453727	1.1641517053048407	-0.3577316063624739	1.5218833116673145	59.757214594325575
8	3.0	wm	192	diff_vonmises	-0.1256944327945828	-7.201760507420361	3.838848478189277	0.6152334811712755	0.12200861755441367	1.5350342579970249	0.18750133616220405	-0.2337247674358109	0.42122610359801493	66.56183324931484
9	4.0	ltm	192	diff_vonmises	-0.24360129955051119	-13.95732634814641	0.7530165492489299	147.02773736394008	0.7395704979787862	148.31421708088044	0.0015846444668881077	-0.2865800121229469	0.28816465658983503	92.94816521406788
10	4.0	perception	192	diff_vonmises	-0.024805414448080387	-1.4212455569478404	1.8948588520099416	4.176662134567842	0.4823963045604675	5.760284675431306	0.6828917741117031	-0.5721108939573017	1.2550026680690047	82.82745823494164
11	4.0	wm	192	diff_vonmises	0.11772177431928936	6.74496082528684	0.864141390766255	177.77330526733542	0.8503869770900995	179.56165641260586	-0.09374988880735913	-0.3680830297269537	0.2743331409195946	82.52478197003052
12	5.0	ltm	192	diff_vonmises	0.3224996573810737	18.47786926235059	0.7942403068350359	124.60348489408072	0.7745913476257948	125.67479934017281	0.14743011011870522	-0.2965013747012648	0.44393148481997	95.88002037880034
13	5.0	perception	192	diff_vonmises	0.06645416363315221	3.807543107251383	2.452299644390916	2.1263222952915855	1.0453972576775372e-22	3.0715628333809284	0.750176064541606	-0.47966994858710926	1.2298460131287152	87.82998612437228
14	5.0	wm	192	diff_vonmises	0.0017830040751691076	0.10215860836181645	0.48047746838930905	169.89906233931833	0.4674364896451874	171.1479380150543	0.11179162118329344	-0.37359613272631087	0.4853877539096043	122.50958419088914
15	6.0	ltm	192	diff_vonmises	0.3804583811884942	21.79865952248019	0.7281121933219084	74.98372871679705	0.7090781136871805	75.93035182274124	0.0012239356392171885	-0.2113842942769546	0.2126082299161718	94.8345708677304
16	6.0	perception	192	diff_vonmises	-0.1622478107048726	-9.296114788626697	1.5869806323496187	1.6618488193525989	1.2463510381084078e-17	2.6247733707586356	0.3271282328629306	-0.38658064457012725	0.7137088774330578	107.74811116294408
17	6.0	wm	192	diff_vonmises	-0.30076228979927827	-17.232409842189217	0.33609699781142843	131.76521555623077	0.3222393972159148	133.04858346586556	0.0545791993351088	-0.3808215710925076	0.4354007704276164	138.11914536153995
18	7.0	ltm	192	diff_vonmises	0.038154045610932975	2.186065784856102	1.3306284604876073	74.96510581013835	1.2935855555438078	75.97564758833491	0.10322242494416756	-0.27748592049597853	0.3807083454401461	72.36018966686427
19	7.0	perception	192	diff_vonmises	0.04762849857803611	2.7289119530663117	2.3509825107404727	1.4789081255446463	4.463052212232451e-12	2.3347502159703946	0.4689490350255466	-0.363956735354719	0.8329057703802656	89.69172118463399
20	7.0	wm	192	diff_vonmises	-0.4327791191475213	-24.796416988542365	0.0004579919230064641	2058.3380929217547	2.0385202931462668e-23	2059.694248008816	-0.06578683869309998	-0.36585637601194776	0.3000695373188478	174.69198322791345
0	1.0	ltm	193	diff_vonmises	0.11995305204620153	6.872803621960451	3.0963745389165926	0.47566179854544544	0.6018332797964706	0.5181770238040286	0.1794025075242012	-0.061140912693907375	0.24054342021810857	69.37865181239093
1	1.0	perception	193	diff_vonmises	0.05040302852103051	2.887880808932564	3.323651409071962	40.257078246575766	3.2176783006345846	40.012629213277414	0.6707992787854309	-0.1553976181482355	0.8261968969336664	53.007396690089536
2	1.0	wm	193	diff_vonmises	0.1499707211825275	8.59268937429204	2.5222955597812016	0.39806120173069975	1.672635375782577e-14	0.4144390123659815	0.16985294246038996	-0.06444022267314284	0.2342931651335328	86.5964300558739
3	2.0	ltm	193	diff_vonmises	0.1528486665903072	8.757583499826874	3.8334615572468143	37.96990912738297	3.781893538974974	37.857205325847126	0.2954658937179815	-0.06552016694203111	0.3609860606600126	49.232986107431685
4	2.0	perception	193	diff_vonmises	-0.018464602670601186	-1.0579438034114366	8.297672057590688	0.9834860925589173	2.0538067429079124e-20	0.5572253497241135	1.0234449236631094	-0.08868509981774154	1.1121300234808509	47.1751438417121
5	2.0	wm	193	diff_vonmises	0.053845656398625236	3.0851288567528217	4.31987464948258	23.637639332494672	4.243169226622978	23.5215111686788	0.2751335371168082	-0.05480466489176283	0.32993820200857105	46.77345014763699
6	3.0	ltm	193	diff_vonmises	0.2934883060570961	16.8156412735154	2.9660126314893134	30.191247272014213	2.929049402946328	30.010750296536347	0.25695952445470027	-0.03151074792119157	0.28847027237589185	58.66295735248019
7	3.0	perception	193	diff_vonmises	0.011055334695519456	0.6334240191578119	7.212904673383057	1.0940768817459656	1.1368615096669978e-14	0.9813537838730474	0.9940865388763364	-0.15618668062524727	1.1502732195015837	50.655960151492025
8	3.0	wm	193	diff_vonmises	0.05866609114827054	3.3613194233256993	6.050960914734113	0.5966195948163714	1.3282635964017762	0.607221427641833	0.32777651309438255	-0.09804627246903759	0.4258227855634201	49.021773649372705
9	4.0	ltm	193	diff_vonmises	-0.20338013526395068	-11.652823387424178	2.7788024182999003	24.813275640915435	2.706193657157324	24.98102450933957	0.13291969092681555	-0.10906169076807082	0.24198138169488637	52.754333395469246
10	4.0	perception	193	diff_vonmises	-0.09737946523569456	-5.579432369246221	3.351759391342151	1.7342733882332415	1.8593534553811917e-17	2.3516610562047613	0.8349022912342952	-0.3727950468292899	1.2076973380635851	74.96509286520813
11	4.0	wm	193	diff_vonmises	-0.07975015998946719	-4.569347582889551	1.7552832204077446	160.91476121433678	1.7375693287144491	161.7859386618392	0.05940642854872635	-0.2649963524018766	0.32440278095060293	61.48705457680859
12	5.0	ltm	193	diff_vonmises	0.11449525312222855	6.560094778185758	1.4975372890568366	0.8899454525540332	3.196175594323656e-17	0.728725300154056	0.2691017443859682	-0.09671176638328757	0.3658135107692557	110.48290001410231
13	5.0	perception	193	diff_vonmises	-0.025956216968450147	-1.4871816844180457	3.6826278041028315	1.2268717117328782	1.418415603865959e-22	0.737565042840606	0.7839358443060013	-0.11681655600988308	0.9007524003158843	71.43537806870523
14	5.0	wm	193	diff_vonmises	0.09469094475300625	5.425391492453706	0.8598748322251663	52.23696891665519	0.839009545382424	51.95258615626818	0.29643422403298203	-0.07026018104572618	0.3666944050787082	106.70251620928951
15	6.0	ltm	193	diff_vonmises	0.37459647522224426	21.46279705071151	0.9777902037880819	34.79128002324817	0.9606916021819476	34.41907731647681	0.23721557751011524	-0.023063393785712316	0.26027897129582755	106.06762142571631
16	6.0	perception	193	diff_vonmises	-0.08605845085262195	-4.930786025289259	2.0342517213256524	1.3981961074616274	0.14134410898617378	0.9192358089913943	0.5610699869442054	-0.11392134293285011	0.6749913298770556	93.5301032119159
17	6.0	wm	193	diff_vonmises	-0.012456823121040166	-0.7137233909765833	0.9386503514903549	81.70835978529925	0.9188844311024441	81.56940105725853	0.3524547365533408	-0.11305700984064426	0.46551174639398507	99.2323328606256
18	7.0	ltm	193	diff_vonmises	0.057980353557669895	3.3220295535308124	0.9795571939017662	51.4811712355178	0.9455029811406355	51.70522932373042	0.25837475499609397	-0.14718400947196653	0.4055587644680605	93.03324028809911
19	7.0	perception	193	diff_vonmises	-0.0014750454365924845	-0.08451387810678125	3.152602676926817	1.3451163093911647	3.2805816824604594e-13	1.958054834970058	0.5945247949676312	-0.3099787496782894	0.9045035446459206	77.35082818478818
20	7.0	wm	193	diff_vonmises	0.38070896314157565	21.813016810813902	4.063994834442696	0.4931453848053792	1.2239865744018411e-39	0.7584232227039738	0.2617396265083178	-0.12059391670107288	0.38233354320939067	67.8997561645341
0	1.0	ltm	194	diff_vonmises	0.059448569604423934	3.4061521364232012	1.6923438256346706	2.525819442341971	0.45545120893789576	5.966300008172749	-0.24534026180097412	-0.6875335097436157	0.4421932479426416	75.3411326830016
1	1.0	perception	194	diff_vonmises	0.07051280726819875	4.040086258087184	9.010772395197861	0.8719800924612515	0.09307097073821496	4.156211739152486	0.3045075996918072	-0.6810299599697845	0.9855375596615917	44.168617677038355
2	1.0	wm	194	diff_vonmises	0.12926353793118184	7.406255168385948	3.6618765809913625	0.5459054028223038	0.07000571138073934	4.094840564181662	-0.2982988871665417	-0.6408633277872234	0.34256444062068175	66.21831369445198
3	2.0	ltm	194	diff_vonmises	0.02477857376541551	1.419707699111893	2.8464406711379096	0.9688545507835177	0.2765273402484023	2.479036179774204	0.10528177886126688	-0.3514196615098236	0.4567014403710905	71.21413880306207
4	2.0	perception	194	diff_vonmises	-0.04319290709249859	-2.474771281300849	7.289715244467991	1.216540729786519	0.13355402200373845	2.716722821403835	0.7940046389450715	-0.44023792834045455	1.234242567285526	49.24838013584804
5	2.0	wm	194	diff_vonmises	0.050517000821415824	2.8944109407260394	4.8919547229402776	0.5139762140732566	0.0861447211297777	2.369838424581196	0.030176978834141943	-0.37448196507357834	0.4046589439077203	59.00264892459117
6	3.0	ltm	194	diff_vonmises	0.15616146385924115	8.947392801719255	3.3556496425599587	0.5503308449219311	0.0030523091885672816	1.5059699786996004	0.1435737224957693	-0.2384841934512316	0.3820579159470009	74.74716254320214
7	3.0	perception	194	diff_vonmises	0.047247018054666384	2.707054729110785	5.512472746650552	1.6472684575560372	0.02239754820337773	2.592802187634558	1.0822983316088044	-0.40877704567836204	1.4910753772871663	57.783580898051895
8	3.0	wm	194	diff_vonmises	0.030370258190718407	1.7400876170507844	3.4278004789491163	0.6898489176703015	0.17083186675620526	2.0726635854945012	0.09858850221667731	-0.31167852006358404	0.41026702228026135	68.07837980787531
9	4.0	ltm	194	diff_vonmises	0.2427626335788913	13.909274327551351	0.5201114925692741	160.76842465569376	0.5081893037375264	162.72749892286376	-0.127372829181013	-0.3942958017796485	0.2669229725986355	106.55931902748748
10	4.0	perception	194	diff_vonmises	-0.04819638796811745	-2.761449618348231	3.0443810671734526	2.090643183302138	0.05668698976469565	4.274911753554775	0.6612656415729155	-0.646633250137593	1.3078988917105083	76.51575526620766
11	4.0	wm	194	diff_vonmises	0.1371259316181466	7.856737143519331	0.7560216981878063	212.71265457771597	0.7411077409697782	215.33326172443844	-0.16067066170273137	-0.5239624617140741	0.36329180001134276	87.59278380697319
12	5.0	ltm	194	diff_vonmises	0.06288790645591531	3.60321162233747	2.016905416348424	0.9787149231382665	1.8406749874452028e-19	2.4854440173965195	0.11188393701844512	-0.3865844728133748	0.49846840983181995	96.62665452745378
13	5.0	perception	194	diff_vonmises	0.012236220431081022	0.7010837878926914	2.1452690701289976	2.402503443155623	1.8236747567380032e-22	3.6359370426951423	0.7141745099665407	-0.5609674133078976	1.2751419232744383	93.80920885826455
14	5.0	wm	194	diff_vonmises	0.023417335197282715	1.3417144742474525	0.5739842357232603	226.56314455772383	0.5612681784962477	228.24939751551142	0.10794165645476994	-0.44808540641837524	0.5560270628731452	111.04515610877797
15	6.0	ltm	194	diff_vonmises	0.42512053966898566	24.35761270735677	0.6536592210469672	148.75740430334943	0.6386359830948762	150.0745102378706	0.06521182025549876	-0.32737618026621895	0.3925880005217177	103.0253065590334
16	6.0	perception	194	diff_vonmises	-0.04270840945095974	-2.4470116112566305	1.0058587720499264	3.569827930697103	0.13462344079118985	4.803238193516773	0.35309650748120547	-0.5014578386292419	0.8545543461104473	120.05502670844324
17	6.0	wm	194	diff_vonmises	0.04267587350158253	2.445147438674865	0.5454608359885058	248.782965993459	0.5340649494317885	250.34463942077636	0.13760444625638257	-0.4444768008100084	0.582081247066391	115.02142436289228
18	7.0	ltm	194	diff_vonmises	0.044955414791075364	2.5757555337886138	1.2451151905740419	10.56219154121441	0.9037011593005917	12.677987951840887	-0.008210926632169269	-0.48392084196027496	0.4757099153281057	76.74446966728965
19	7.0	perception	194	diff_vonmises	0.07587571901349817	4.347358466993979	0.9339838974492309	113.95912930208166	0.8891286908787787	115.65910074009545	0.4278252337103581	-0.5348632715409618	0.9626885052513199	90.7754675407696
20	7.0	wm	194	diff_vonmises	0.2173414935947197	12.452750296047054	1.6471280857769324	1.9529060756773884	0.36602672867580294	4.204834987534699	-0.03813188312388072	-0.47807620812690255	0.43994432500302183	82.66728467620422
0	1.0	ltm	195	diff_vonmises	0.13274254729809085	7.605587721996315	2.635041287072738	0.4468973623241875	2.788136532297297e-12	1.2201439578541802	0.0774076431168067	-0.19279488059520425	0.2702025237120109	84.72025210582686
1	1.0	perception	195	diff_vonmises	0.02877125621020652	1.6484715521343933	10.147415763476786	0.589696399110215	4.462890951916433e-20	1.4710123106580975	0.5054651413458447	-0.23411887945468088	0.7395840208005257	42.60818296830186
2	1.0	wm	195	diff_vonmises	0.10445527500518106	5.984846405675233	4.104275552497953	0.33668582794788826	1.3062601570811374e-20	1.215219921650509	0.06911154841493208	-0.19333676937521138	0.26244831779014344	67.56114002617463
3	2.0	ltm	195	diff_vonmises	0.06532159514884209	3.742651713090884	4.183291115928926	0.5191320126643791	0.34352516226214586	0.9295120986227825	0.20642019749047485	-0.13960742228766002	0.3460276197781349	61.685468753250746
4	2.0	perception	195	diff_vonmises	-0.02015740218375071	-1.1549340710767049	8.07309956096167	0.9675238937993659	4.377736280408877e-13	1.3988204246536116	0.8559945191125108	-0.22262908020197555	1.0786235993144864	47.83510544138417
5	2.0	wm	195	diff_vonmises	0.06922549204531589	3.9663285289130537	7.203886605316575	0.3114064799351143	0.11428068356604212	0.9429996579404853	0.15953143802070652	-0.1527252066741191	0.3122566446948256	49.385231694453154
6	3.0	ltm	195	diff_vonmises	0.24668748003108118	14.134151464498725	1.5688841432828513	70.3992216854718	1.541716856271729	70.57844584750787	0.2517391350860869	-0.1263772983851048	0.3781164334711917	73.07876324862835
7	3.0	perception	195	diff_vonmises	0.00839454488534134	0.48097199286319037	5.82375987917703	1.4909391840751463	0.13689448581670075	1.8716421321020245	1.061378555336013	-0.2931650391661803	1.3545435945021933	55.41877371514812
8	3.0	wm	195	diff_vonmises	0.0602878846858627	3.4542413482713217	4.258697469180747	0.6692600028617292	0.5635019734880602	1.2278470507151042	0.21474230194755378	-0.18709594911514196	0.4018382510626958	58.48654988034343
9	4.0	ltm	195	diff_vonmises	-0.013606532438886093	-0.7795968825560199	1.4592454578411986	126.6082141040802	1.4415091335311523	127.32928921369916	0.09191703161994269	-0.2108629642786326	0.3027799958985753	69.1390555352553
10	4.0	perception	195	diff_vonmises	-0.08418454434430231	-4.823419091160447	3.2277029342955785	1.7706949680972937	5.830179825322042e-18	2.927098316376797	0.7429327860822794	-0.4639618806844885	1.206894666766768	76.42374264392748
11	4.0	wm	195	diff_vonmises	-0.08510999656858415	-4.8764435977527905	1.2954702964572715	174.8803728537357	1.2782815313093143	176.31351143260818	-0.016322062866052534	-0.34693805559420454	0.330615992728152	69.38608197379799
12	5.0	ltm	195	diff_vonmises	0.10182946176460093	5.834398389200422	1.7943076186472637	1.0074212731302534	0.060335082109281034	1.3492211014737892	0.25870864353845296	-0.18853052601095033	0.4472391695494033	99.39249564154704
13	5.0	perception	195	diff_vonmises	-0.020727438944383995	-1.1875947716283013	3.0365234096651275	1.497086279405971	1.839879992177131e-20	1.6837248904362783	0.7193191826371534	-0.2656982031659422	0.9850173858030957	78.84781578029106
14	5.0	wm	195	diff_vonmises	-0.028556588054659344	-1.6361719728256823	0.6537265395228752	102.82751560238492	0.6387964284962915	103.22057464779007	0.1844297922399747	-0.18108984741969536	0.36551963965967005	110.7614182627078
15	6.0	ltm	195	diff_vonmises	0.2499983277659228	14.3238490663156	0.6155142669834823	87.7210183063869	0.6028111382491277	87.91867574446444	0.15849297027991227	-0.12949024682451604	0.2879832171044283	115.46581163608613
16	6.0	perception	195	diff_vonmises	-0.12527041060218225	-7.177465825375924	2.093865757430863	1.297623934453473	3.2290646846610384e-13	1.6257059017294215	0.42945648352189275	-0.24829164095625922	0.677748124478152	94.89635380981422
17	6.0	wm	195	diff_vonmises	-0.033530871020261505	-1.921177392858505	0.7744924922797656	111.90477099019536	0.7564931598033783	112.40820016799024	0.23592370954767006	-0.21324903111615434	0.4491727406638244	101.65834994203382
18	7.0	ltm	195	diff_vonmises	0.023024329460849043	1.3191969042253724	0.924539207230623	122.45595053664715	0.9038825091796189	123.27682572246532	0.21588269457712528	-0.26170940773678275	0.47759210231390803	90.79690009264368
19	7.0	perception	195	diff_vonmises	-0.004203434138307834	-0.24083903558624883	2.8766988962125715	1.556144536992254	6.75694867568598e-15	2.6556977395107704	0.572337794911394	-0.4195111208308606	0.9918489157422546	81.04923641384616
20	7.0	wm	195	diff_vonmises	0.274152779389104	15.707797200776803	8.0192411692658	0.4571207196027952	3.573422077820213e-17	1.3601035986876844	0.29134234734052683	-0.21646715584766507	0.507809503188192	48.00196042199707
0	1.0	ltm	196	diff_vonmises	-0.09925212500969631	-5.686727870760444	1.039472696803817	202.68699255139828	1.024059480505343	204.2087897284121	0.06231359456528196	-0.36649482633739083	0.4288084209026728	80.17212975562896
1	1.0	perception	196	diff_vonmises	0.013219756283411831	0.7574362412310489	11.509943474869141	0.6443215356643274	1.0391960940999435e-20	2.1486113105580498	0.5201454697829403	-0.3419621107717247	0.862107580554665	39.97805058968589
2	1.0	wm	196	diff_vonmises	0.08574581600388256	4.912873367927781	4.673855600737623	0.37378747602242035	5.981700637015215e-16	1.9710043397787982	-0.0010545726947071565	-0.3136678320225845	0.31261325932787737	63.20593701677589
3	2.0	ltm	196	diff_vonmises	-0.034021673959626436	-1.9492983298567308	3.5622339449074563	0.5293731890902623	7.328097496473903e-15	1.4413834143507567	0.15246430704628255	-0.22909582940008433	0.3815601364463669	72.65793239276425
4	2.0	perception	196	diff_vonmises	-0.03862904671753872	-2.213281343528655	7.687670598109891	1.028285779195831	0.033290904263856294	1.9027102008486019	0.8046373007210779	-0.302664667185395	1.1073019679064728	48.7677511601421
5	2.0	wm	196	diff_vonmises	-0.021676434155616434	-1.241968192010046	4.782963053506743	0.42521586450084975	0.09958599886154561	1.4797982593659051	0.100532458232031	-0.23242272881872847	0.33295518705075944	59.88979884555991
6	3.0	ltm	196	diff_vonmises	0.09284031954525565	5.319358478589075	1.1713713691017456	80.42856559655158	1.1473800274807158	80.91313753923822	0.17950736228718966	-0.17086456190941313	0.3503719241966028	81.3647441238399
7	3.0	perception	196	diff_vonmises	0.03918352044138386	2.2450503477558836	4.883162249672449	1.7977887125493026	0.24946208938846398	2.1374178587443287	1.109461536860992	-0.3244729499071448	1.4339344867681367	59.52155307179902
8	3.0	wm	196	diff_vonmises	-0.04876608806055716	-2.7940910292332397	2.611201557818935	0.9334442433050252	0.45319402792647906	1.6219343302250373	0.17826609888530603	-0.20394745885581297	0.382213557741119	72.40449731019498
9	4.0	ltm	196	diff_vonmises	-0.17902362835612132	-10.25729833792432	1.0105460349667523	161.67266631731323	0.998245955706103	162.62436408287496	0.05114781814524605	-0.23209597129516268	0.28324378944040873	81.79389596852369
10	4.0	perception	196	diff_vonmises	-0.05832200991528293	-3.3416050208658516	2.106484155552411	3.303839293186013	0.4054341940906712	4.526478152539151	0.7209890383518307	-0.498840515766514	1.2198295541183448	81.86613079497823
11	4.0	wm	196	diff_vonmises	0.0015577439871271284	0.0892521560242657	1.0059307020958328	158.57145704972743	0.9905185836910143	160.0427533388729	-0.03772182568169313	-0.323073997052866	0.28535217137117286	78.24863208378713
12	5.0	ltm	196	diff_vonmises	0.24725872867729012	14.16688160097906	0.8829328783796997	38.86778638894	0.8244124219340578	39.62521276678056	0.20043244039374564	-0.24501665935923622	0.44544909975298186	94.10686755094574
13	5.0	perception	196	diff_vonmises	0.03713762528452699	2.1278291899417296	2.709265516810745	1.8668772094172434	7.586783252884094e-17	2.524308015995338	0.7513602971123708	-0.3966435096943341	1.1480038068067049	83.54722833760377
14	5.0	wm	196	diff_vonmises	-0.04945067107488387	-2.8333147466805038	0.4898234944820753	162.27729012370233	0.47859170058494155	163.1405458108193	0.13025097642414352	-0.2888671726534007	0.4191181490775442	122.81931744535781
15	6.0	ltm	196	diff_vonmises	0.1824133250325154	10.451513651311222	0.5958709814139466	68.05081665956685	0.5792319855167289	68.76813929804243	0.026359501126126617	-0.17812809012933606	0.20448759125546268	107.74217120859197
16	6.0	perception	196	diff_vonmises	-0.19011308675359156	-10.892677501185274	1.7482572356665322	1.5527966438392318	2.9197620046672434e-12	2.3207337279300586	0.36888395652699923	-0.34698534657698726	0.7158693031039864	103.2044244209759
17	6.0	wm	196	diff_vonmises	-0.24779401172141727	-14.19755106025246	0.5379887824811648	119.21205255055033	0.5208633416749264	120.190069298686	0.13808418772665831	-0.3108198074467481	0.4489039951734064	117.60576102746128
18	7.0	ltm	196	diff_vonmises	0.03697358097914277	2.1184301435900585	1.2190133251744928	99.16275455256456	1.1933487311292672	99.98951836939537	0.1572331931529689	-0.2438422882298621	0.401075481382831	77.4602676753237
19	7.0	perception	196	diff_vonmises	0.002623386128811887	0.15030895321408447	2.8379099808635964	1.4475235643923572	2.3800282599698247e-13	2.3167903001354477	0.5496449187887638	-0.36558051359371213	0.9152254323824759	81.6082186883998
20	7.0	wm	196	diff_vonmises	0.15098185422855748	8.650623030355765	2.814371026646529	0.5456587900833283	2.402979241640372e-35	1.6212695148231362	0.08648628167049677	-0.2567950380008493	0.34328131967134606	81.9486741442374
0	1.0	ltm	197	diff_vonmises	-0.018247314645264575	-1.045494116620917	6.1753166505898465	0.7554029618641703	0.22548572642501605	4.624362214181921	-0.1781406168352475	-0.7802626334238092	0.6021220165885617	49.80916938133717
1	1.0	perception	197	diff_vonmises	0.061321755438850115	3.513477778979513	15.053924724709402	0.9133956325716021	0.18805265901142837	4.833036587169105	0.4807633903039261	-0.8551248257657976	1.3358882160697236	34.02707959470814
2	1.0	wm	197	diff_vonmises	0.05353973182846284	3.067600670033163	0.692000750729616	254.2123382085362	0.6761561052566891	258.76293942495226	-0.5070985965796524	-0.833177451033194	0.32607885445354157	83.4007757923778
3	2.0	ltm	197	diff_vonmises	0.07962730860737972	4.562308717188591	3.278146159708508	0.5539361956967148	0.05113449844869212	1.8087250997455058	0.0786644727636383	-0.27801338248312285	0.35667785524676116	73.14221852394579
4	2.0	perception	197	diff_vonmises	-0.05264102193373103	-3.016108386058384	7.737997887976276	1.1780435096497734	0.3111278741841674	2.306711606623535	0.7956062345317007	-0.3941198388749345	1.1897260734066353	46.934620434035025
5	2.0	wm	197	diff_vonmises	0.05191814682372112	2.9746906931397605	5.171838277973656	0.4365905119956825	0.0703413610694832	2.2563693445047313	0.0006483008555094871	-0.3577252879525677	0.3583735888080772	57.687468091830226
6	3.0	ltm	197	diff_vonmises	0.06313944787747962	3.617623884165826	2.36392420537226	0.4785272880323176	1.4507123703936295e-11	1.2153110652786459	0.07942704902845532	-0.1910090210912795	0.2704360701197348	89.44850431986532
7	3.0	perception	197	diff_vonmises	0.04277665696146881	2.450921905571075	5.879947969155526	1.4349710016074422	0.15887905133710853	2.1177792779378017	0.9630174843396975	-0.33386041231564134	1.2968778966553387	54.84885683423187
8	3.0	wm	197	diff_vonmises	0.07342445091481312	4.206911150484268	4.4329041938852765	0.5695975106952583	0.26011411161133446	1.841630278552024	0.08920654976767689	-0.2909692293261878	0.3801757790938647	59.02030595192326
9	4.0	ltm	197	diff_vonmises	-0.04108062754129499	-2.353746577865095	1.0729136816155829	142.89240785098082	1.0539010979362948	144.62956905950958	-0.10052144365160842	-0.37350403046889014	0.2729825868172817	73.54988256183503
10	4.0	perception	197	diff_vonmises	-0.023207831224271145	-1.329710780802667	2.84281975773228	2.0811901287311336	0.1592249050464022	3.5211983211978435	0.6686665509281663	-0.4982440101306036	1.1669105610587698	76.66083138300607
11	4.0	wm	197	diff_vonmises	0.16938195757375082	9.704871294639892	0.8011866108268784	194.0666919822391	0.7842187417120634	196.5353534702842	-0.11331422789510981	-0.5084304225610481	0.3951161946659383	86.5489748018185
12	5.0	ltm	197	diff_vonmises	-0.08517951643685744	-4.880426792797155	2.51487180703257	0.8538674611449781	2.6775922158295586e-29	2.6864296677173503	0.07743097653779257	-0.4242556470807473	0.5016866236185399	86.73252104749403
13	5.0	perception	197	diff_vonmises	0.06469796627917784	3.706920410876609	1.4077824893737447	4.800803818507067	0.39196066122032447	6.386310008102806	0.55325726857843	-0.5630727007503409	1.116329969328771	94.68109658187731
14	5.0	wm	197	diff_vonmises	0.0005837985685065901	0.03344919406120667	0.4872338714877568	260.8330877009011	0.4755433988057199	263.11824360837153	0.01480389724305553	-0.5632995516343797	0.5781034488774353	117.96812253459908
15	6.0	ltm	197	diff_vonmises	0.5109821479496639	29.277120484045152	0.813588100969631	82.41794524228597	0.7765662385592799	84.48705851407406	-0.03633228912589814	-0.4462733268998669	0.40994103777396873	88.67756972835952
16	6.0	perception	197	diff_vonmises	0.09638745759339849	5.522594518097932	0.5277390363245148	31.716020846853436	0.4051606973896056	33.83369914707011	0.2370190218355992	-0.667153279226786	0.9041723010623852	124.05373237921447
17	6.0	wm	197	diff_vonmises	0.0023257338505107117	0.1332547339049737	0.45362961541059565	213.5838050400468	0.43611825459513703	215.8423671359744	0.16198928980134042	-0.6639213609005026	0.825910650701843	125.39432419097243
18	7.0	ltm	197	diff_vonmises	0.14075666088499644	8.064762607064456	1.2090403948059025	221.03379535626476	1.1888020201392626	223.26405805718824	-0.014500305482627596	-0.5281129377923932	0.5136126323097656	72.18868552719647
19	7.0	perception	197	diff_vonmises	0.1677783489799882	9.612991290226384	2.8731853858771577	1.1199553141044587	7.799940968832377e-16	2.938267579122393	0.24793322472775403	-0.46535371694792327	0.7132869416756773	81.09111733517616
20	7.0	wm	197	diff_vonmises	0.3669894142349267	21.026944561639596	1.0256026366422764	281.35140957107586	1.0106459857570593	283.6548541106489	0.0030162972332448135	-0.5258164226960815	0.5288327199293263	78.97024889997402
0	1.0	ltm	198	diff_vonmises	0.002001179235751272	0.11465912425776346	0.6931493172084932	163.44672676781877	0.6762378184948528	166.39661567940146	-0.2995986466341094	-0.5479845967973098	0.24838595016320042	85.521932789674
1	1.0	perception	198	diff_vonmises	0.06176218953492736	3.5387127938383984	9.673277522568863	0.7722644353857848	9.965604002398103e-17	3.2722848777227713	0.4241019047730328	-0.5208003097485296	0.9449022145215624	43.65801396821976
2	1.0	wm	198	diff_vonmises	-0.013470141376481132	-0.7717822503169102	7.0327558347787855	0.3059164187621856	0.04438847321009527	3.4552339923846436	-0.2571444475457993	-0.554976915426421	0.29783246788062173	49.54941366174049
3	2.0	ltm	198	diff_vonmises	0.13969012341737336	8.003654511477082	2.581126286947234	0.5972470952341855	2.1154269390650684e-17	2.617172395762403	-0.057892088039011136	-0.4144813318256396	0.3565892437866285	85.60013684192364
4	2.0	perception	198	diff_vonmises	-0.00935634523408435	-0.5360790935803755	7.910808623228144	1.2989784098949866	0.1849938855868381	3.440520974090774	0.7794074641591889	-0.5722365181127232	1.3516439822719122	46.834122521448506
5	2.0	wm	198	diff_vonmises	0.10878054723720777	6.232666249815493	4.77290425065674	0.3980623009708898	0.020363512706148258	2.656888032406397	-0.0948156236408853	-0.42018628521408447	0.32537066157319916	61.32068106738802
6	3.0	ltm	198	diff_vonmises	0.22338982536004143	12.7992941792949	4.306844562221919	0.5053285479312051	0.18969211674978828	1.5588295365254001	0.10720176275583104	-0.24260225695250037	0.3498040197083314	61.25948121486499
7	3.0	perception	198	diff_vonmises	0.05526848495319646	3.166650927900452	5.0795505317603515	2.082485639633033	0.23181850237258267	3.0436256848616656	1.2183479125026522	-0.4706628901269987	1.6890108026296509	58.19973829556798
8	3.0	wm	198	diff_vonmises	-0.18907685048314485	-10.8333055363103	9.274820393845712	0.24929183018202986	0.03761223601165517	1.711926118774133	0.015762543456860845	-0.2753495751662814	0.29111211862314224	43.94364935807164
9	4.0	ltm	198	diff_vonmises	0.14029432338986803	8.038272619882946	0.4622133671685673	144.14178197933876	0.44957954435224384	146.27189327513898	-0.16774982288269769	-0.42053143859426356	0.2527816157115659	111.48427766741833
10	4.0	perception	198	diff_vonmises	0.0015617504221728394	0.08948170784327825	2.5021936536896763	2.816981351500119	0.34170322892423144	5.202325666674993	0.5291095889604684	-0.6713684484254407	1.2004780373859092	75.60432312697941
11	4.0	wm	198	diff_vonmises	-0.5683095804350198	-32.561740415777216	0.00019593834362772878	2384.517470093731	1.59157266056157e-28	2386.8627664891987	-0.29890392943946154	-0.4476198151222661	0.14871588568280458	170.97653260595865
12	5.0	ltm	198	diff_vonmises	0.2883955003720161	16.523845001880087	0.8390858634585421	144.11798621230753	0.8178622236777819	145.846241738556	0.05322595745477798	-0.403158944574896	0.45638490202967397	89.51990902499188
13	5.0	perception	198	diff_vonmises	0.06068163524915551	3.4768015937288985	2.9364292399082315	2.0620210290525227	1.1534679625875022e-16	3.9166390376949654	0.7106303897818238	-0.6195967835937212	1.3302271733755449	80.21022591683982
14	5.0	wm	198	diff_vonmises	-0.012549068154998285	-0.7190086421034245	0.3841839438059647	100.83654949092087	0.36248660341871325	103.04158091550319	-0.0891411058044298	-0.5104789731807902	0.42133786737636036	129.14648544778487
15	6.0	ltm	198	diff_vonmises	-0.44700161097298363	-25.61130574430067	0.000175406300872127	5771.083257347089	1.4280649290974407e-31	5772.827020991037	-0.11641518629301117	-0.43862789218371745	0.3222127058907063	174.36030527356172
16	6.0	perception	198	diff_vonmises	-0.1972664030096153	-11.302532332177757	1.5894531012536388	1.4680462883206609	5.285844435534914e-16	3.1869465112122386	0.1514118728176963	-0.47979753366164307	0.6312094064793394	107.63897425243591
17	6.0	wm	198	diff_vonmises	-0.3067976145422629	-17.578208477953115	0.22437909357858418	129.87671425169373	0.2119865295275867	131.92635625281946	-0.11804315781115449	-0.48654283459539016	0.3684996767842357	149.6837905039751
18	7.0	ltm	198	diff_vonmises	1.0545841411517791	60.42322042942562	0.00014684302451844746	7517.433762931028	6.3764145746886026e-31	7519.11893361365	-0.0925131984181462	-0.443880391868106	0.3513671934499598	149.75691005722612
19	7.0	perception	198	diff_vonmises	-0.004401895353586569	-0.2522100256187576	0.7706331776043438	129.80284669420325	0.7376631016347364	131.28811840222764	0.3836982437362835	-0.4929105279344288	0.8766087716707123	100.22830713162227
20	7.0	wm	198	diff_vonmises	0.04538652392319971	2.6004562675688865	3.156613209720564	0.5096499344970941	0.16238506678881892	2.645678420656878	-0.1485069595456745	-0.40518829802335854	0.25668133847768404	67.46432911150893
0	1.0	ltm	199	diff_vonmises	0.18718946864721464	10.725166522781846	0.8815163709798084	92.39430028491734	0.8426161118925618	95.03606304783337	-0.1380967849856667	-0.5442953410033375	0.40619855601767085	82.3056401998943
1	1.0	perception	199	diff_vonmises	0.15867059208323334	9.091155259211163	4.603911540889088	0.9608308903073544	0.18035814480202847	3.7333016656549574	0.09131425881300226	-0.5913450202202241	0.6826592790332263	58.921743032774344
2	1.0	wm	199	diff_vonmises	0.12185528070950594	6.981793296036606	6.493538049837676	0.3370055566954485	0.029163935538394508	2.885335503285383	-0.13724439624632745	-0.4599525668831995	0.32270817063687207	52.273705113322336
3	2.0	ltm	199	diff_vonmises	-0.053342158557494475	-3.056280555462081	1.2858556721634444	119.28019531259984	1.255292086667477	120.46314577638117	0.20545153164072616	-0.3468127722530401	0.5522643038937662	75.07410855469996
4	2.0	perception	199	diff_vonmises	-0.02649639876010527	-1.5181318212496995	6.369839282602747	1.175334499176623	0.06668810488540591	2.717901936673274	0.6960771936184698	-0.4313095017570518	1.1273866953755216	53.14316014996811
5	2.0	wm	199	diff_vonmises	0.10398186494982682	5.957722007524381	5.999348087670244	0.426246052440596	0.11319336415967138	2.005337803058568	0.05076555883815381	-0.32301953469993483	0.37378509353808864	53.162735345246006
6	3.0	ltm	199	diff_vonmises	0.17728071857349717	10.157436963307893	1.1406637201160315	144.58877033536623	1.1177616796484062	145.5565274719314	0.2655901986186038	-0.3095581793739104	0.5751483779925142	81.45760309616838
7	3.0	perception	199	diff_vonmises	0.038574640350170955	2.2101640882998437	4.872334035434237	1.780885046401952	0.02013476748902495	3.07605028011539	1.0235747413367806	-0.4839654995761895	1.5075402409129701	61.49584392088815
8	3.0	wm	199	diff_vonmises	0.21708358961019594	12.437973486214235	3.6919919437524333	0.5828854957338359	0.006367045890600197	2.1475171779234947	0.0848615250297296	-0.33949128898569436	0.42435281401542396	70.91846489361203
9	4.0	ltm	199	diff_vonmises	0.5762116635333455	33.01449642667294	0.5146095501706753	215.10499628719649	0.5028412913111148	217.20329564168196	-0.045084613557698106	-0.4737664239153112	0.4286818103576131	112.26528374112141
10	4.0	perception	199	diff_vonmises	-0.12091303143438648	-6.927806389323	3.3114707642438814	2.0257261856294475	7.6054420799266095e-19	4.5048388124147385	0.686005977067624	-0.7151020817835213	1.4011080588511453	75.4269222794689
11	4.0	wm	199	diff_vonmises	0.06738692960067155	3.860986660463678	4.486273908946603	0.5916829932069839	0.037810455301914604	3.3623592917688665	-0.07144916440749671	-0.5295787525180697	0.458129588110573	62.60107117078593
12	5.0	ltm	199	diff_vonmises	-0.05429252679032261	-3.1107326441864394	1.7640977811594567	1.236608075461579	4.881155931992928e-10	2.569379264855018	0.18222319731110537	-0.391574330961422	0.5737975282725274	102.85454058081244
13	5.0	perception	199	diff_vonmises	-0.07045639066857895	-4.03685382503449	2.204660909861575	2.403459745765915	1.2982467585649405e-16	3.402763311512126	0.7731747714779732	-0.5255748291517628	1.298749600629736	92.5657547158005
14	5.0	wm	199	diff_vonmises	-0.057364180161560197	-3.286725418485484	0.6576458569854725	181.11026087136443	0.6441340237446359	182.35826934211087	0.12326546330206156	-0.3391933823883555	0.46245884569041706	104.54514938216957
15	6.0	ltm	199	diff_vonmises	0.328919385899701	18.845692612087706	0.5023569812371113	217.62269065645665	0.4927595424650255	218.67108572816647	0.13295939090987474	-0.3320831190007034	0.46504250991057816	120.50979566911116
16	6.0	perception	199	diff_vonmises	-0.11322135586816495	-6.487105841994609	1.080423755114396	3.547669477512841	0.1689145234986141	4.477610329713046	0.42821348065294007	-0.45172176022100075	0.8799352408739408	115.92369594899299
17	6.0	wm	199	diff_vonmises	0.08546727536062601	4.896914164646321	0.7769072091277993	231.44640307215644	0.7642900244477324	232.58565816223833	0.2194706778550568	-0.3431047936475302	0.562575471502587	97.99685471598735
18	7.0	ltm	199	diff_vonmises	-0.10465966069794003	-5.996556843263179	0.8626061823918612	237.57694083615849	0.844278393183682	240.17923046164458	0.018615552596855878	-0.585469336698413	0.6040848892952688	86.93296143603874
19	7.0	perception	199	diff_vonmises	-0.014654965147039999	-0.8396676518367099	1.0818483348555814	624.5756404403776	1.0693155212272585	626.848894010845	0.6631764491274623	-0.7394315544606158	1.4026080035880781	83.77877883360793
20	7.0	wm	199	diff_vonmises	0.26505626677493793	15.186605419697571	11.537170361035392	0.6507068042924958	4.515012545410937e-15	3.1607674855955334	0.36868969171096355	-0.5030517692136098	0.8717414609245734	39.92845763839463
0	1.0	ltm	200	diff_vonmises	-0.026506228415246018	-1.5186950190033333	0.8970566209629028	310.2719166078605	0.8841098741294945	312.6900443006505	-0.007703155190526445	-0.5374222993128086	0.5297191441222822	84.44067850803685
1	1.0	perception	200	diff_vonmises	0.018584573602157307	1.064817631453855	7.207878035711155	0.7120183101143862	8.074122760910473e-23	2.901740497929599	0.2866000268392659	-0.46182593316737547	0.7484259600066414	50.67033202713
2	1.0	wm	200	diff_vonmises	0.11019588876291303	6.313759345808011	6.219085924379584	0.4025116262027443	4.520474324460577e-21	2.6038259394998757	-0.02274713289276098	-0.4144102162419679	0.3916630833492069	54.62344596649592
3	2.0	ltm	200	diff_vonmises	-0.12526900812491856	-7.177385469347852	2.739695707317333	1.0295526874404124	0.14233670481133007	2.5604920243242586	0.1725699824690533	-0.3704495149614029	0.5430194974304562	76.7017521688156
4	2.0	perception	200	diff_vonmises	-0.056548389094222676	-3.2399840333625716	6.230874248708585	1.1605299788376637	0.014809500176532485	2.7538381551874127	0.6856202187236928	-0.43643134453086996	1.122051563254563	54.324636493497366
5	2.0	wm	200	diff_vonmises	-0.04011497373796913	-2.298418690463767	4.095831999051438	0.6027461018272766	0.10988263399235024	2.205011475531006	0.07890050888481737	-0.34222225610293633	0.4211227649877537	63.90285816863749
6	3.0	ltm	200	diff_vonmises	0.03444590491548656	1.9736049731663166	1.0062808520110447	161.78646297844426	0.9885940294992511	162.78906378904995	0.20100208562881505	-0.2943708290914486	0.4953729147202637	85.80173699401328
7	3.0	perception	200	diff_vonmises	0.053729545577071755	3.078476196722011	3.981504611767473	2.2804342493514302	0.19567989036119518	3.079168173485781	1.1585686715937855	-0.4541377301263609	1.6127064017201465	65.7546154925958
8	3.0	wm	200	diff_vonmises	-0.05895881719710333	-3.378091390477359	2.0566781083033763	1.1310217021267226	0.15955084428289174	2.2756108820966663	0.17124486316786425	-0.305187529467565	0.47643239263542925	87.07039888203806
9	4.0	ltm	200	diff_vonmises	0.08758821228739554	5.018434899163663	0.18391736422281035	93.37716776430244	0.16683581822308663	94.93008976249003	-0.01602658125661094	-0.4375863920523919	0.421559810795781	157.99766678851262
10	4.0	perception	200	diff_vonmises	-0.05808233820525178	-3.3278728434123837	1.3878284637984004	9.476769744222707	0.6887760744215595	11.44275154429618	0.685092963487977	-0.6753545329141454	1.3604474964021223	86.63930312420098
11	4.0	wm	200	diff_vonmises	0.027941550277836742	1.600932903972638	0.7442380278828907	172.8584127821284	0.728796230838686	174.8847296496686	-0.0783416810389923	-0.42084581328867543	0.3425041322496831	90.61745123493324
12	5.0	ltm	200	diff_vonmises	0.2610264053771003	14.955711369578786	1.2858314220587521	3.6743580725009877	0.5680624715050037	4.808638280219945	0.20301109418408436	-0.3238885154538127	0.5268996096378971	89.85632703795713
13	5.0	perception	200	diff_vonmises	0.0221828762986137	1.2709851893713502	2.2037759729683466	2.4751697031457076	1.2033428548453034e-20	3.4285259613237375	0.8079434494293747	-0.5291723384447056	1.3371157878740803	92.58806698619443
14	5.0	wm	200	diff_vonmises	-0.055895361969853626	-3.2025683352286602	0.5292036473769305	170.28656446252543	0.5163420394954862	171.43434841144034	0.1240184925725103	-0.3441733645050231	0.4681918570775334	117.5396741917606
15	6.0	ltm	200	diff_vonmises	-0.12979150304875417	-7.436505341352971	0.0003316261525309496	2226.6793714098544	1.9823036947722946e-25	2227.569509189489	-0.024139490127311092	-0.25918068044120446	0.23504119031389337	179.50089591076627
16	6.0	perception	200	diff_vonmises	-0.22111103936599993	-12.668729359422798	1.5784811821810545	1.7508692337647003	5.504256279605796e-15	2.5919132014913706	0.3696971227508077	-0.3792271186246008	0.7489242413754085	107.93274626166965
17	6.0	wm	200	diff_vonmises	-0.2246796654552616	-12.873196572997768	0.517903140902071	125.85487859787982	0.5034166374803993	126.97124417771339	0.06515016103819704	-0.30460809744482376	0.3697582584830208	117.10505471184113
18	7.0	ltm	200	diff_vonmises	-0.06683800203868298	-3.829535427903327	1.826432855418293	3.388203700256356	0.939466242146196	4.646102892671416	0.11999916251096332	-0.34021023771559317	0.4602094002265565	70.94270038462506
19	7.0	perception	200	diff_vonmises	-0.0070602893750398065	-0.4045247833308385	1.0146243881379893	170.32759127849044	0.9840558624367161	171.28923411633858	0.65924797687547	-0.4537625600089932	1.1130105368844632	89.93895253180983
20	7.0	wm	200	diff_vonmises	-0.5170788623027152	-29.626436485371823	0.00025338848230310995	5134.461510997456	2.7622246292913166e-30	5136.071775833582	-0.04921017959463825	-0.4633268056953739	0.41411662610073563	172.4925089287829
0	1.0	ltm	201	diff_vonmises	-0.057276193709815335	-3.281684166146172	0.8815234711200629	261.5917124541378	0.8664431765479864	263.95271093740206	0.005307070450569995	-0.5280654626505239	0.5333725331010939	85.58459435623246
1	1.0	perception	201	diff_vonmises	-0.0025921001434868903	-0.14851639829705393	10.521257186311644	0.657165892053048	1.7350179011610096e-23	2.9338330173142833	0.3728542037269062	-0.4669340263014654	0.8397882300283717	41.830736717292126
2	1.0	wm	201	diff_vonmises	0.13119945408372638	7.517174993417955	4.340745798363938	0.49200345645766136	6.756355356619877e-16	2.8309662685541124	-0.05516561401057085	-0.4504951567540215	0.39532954274345067	65.65493677520601
3	2.0	ltm	201	diff_vonmises	-0.07171137561177834	-4.108759165632281	3.161345109779625	0.7468654261434653	0.0212029290887584	2.142662129468235	0.15564093300012238	-0.3336195789069745	0.4892605119070969	76.02126847892447
4	2.0	perception	201	diff_vonmises	-0.06445534578564674	-3.6930192805738953	6.605823492870876	1.1171381017038322	0.038887978224565835	2.4825890658284773	0.7112983040560441	-0.39363523204157813	1.1049335360976222	52.49667414909899
5	2.0	wm	201	diff_vonmises	-0.05461624113294785	-3.1292801097867176	3.8887228610888456	0.627417182575644	0.10867693038257153	2.1639865123108897	0.09218657848839207	-0.33367111076069933	0.4258576892490914	65.60819949065214
6	3.0	ltm	201	diff_vonmises	0.011101503517066869	0.6360692977775713	0.881558114916602	140.59793409981677	0.8637643148234815	141.55183306564788	0.17575930225901004	-0.27717416254572846	0.4529334648047385	91.70013346673568
7	3.0	perception	201	diff_vonmises	0.038301516791956335	2.1945152611285503	4.193445424822446	2.1196730614457837	0.19003221759806832	2.89638734084264	1.1196728581281468	-0.4320546523282284	1.551727510456375	64.22080971760488
8	3.0	wm	201	diff_vonmises	-0.049638748539862707	-2.8440907916453106	2.0551941420428066	1.3643700834428116	0.2946319017376366	2.5229314946012225	0.18791291173475688	-0.3103061667286558	0.4982190784634127	82.60790698105089
9	4.0	ltm	201	diff_vonmises	-0.13062436519551113	-7.48422482727835	0.6029007178048587	134.48764014016095	0.5866154642166928	135.9828644782889	0.021017593374338617	-0.35273844555035083	0.37375603892468945	105.75662877210502
10	4.0	perception	201	diff_vonmises	-0.04782315629823155	-2.7400650188831492	1.365283402508778	9.322071460203396	0.687168262646576	11.066701881967132	0.6930913050440961	-0.6311650126077072	1.3242563176518032	87.57206565762868
11	4.0	wm	201	diff_vonmises	0.0709884305511116	4.067337464836248	0.808892738316483	226.67025901708715	0.7957635763417209	228.7561126347291	-0.06335618966600975	-0.4408173252533416	0.37746113558733185	87.30561560219317
12	5.0	ltm	201	diff_vonmises	0.2117128503981648	12.130252796499432	1.6674984354134779	1.5680600399804783	0.23037311821076595	2.656196529465807	0.19906002101003462	-0.31307246364403785	0.5121324846540725	92.71430678917392
13	5.0	perception	201	diff_vonmises	0.031726973987398134	1.8178217061992619	2.098237585819171	2.3661745983362144	4.547753866198814e-14	3.2817965438171295	0.7341631316633626	-0.5034056089878964	1.237568740651259	94.81656747093476
14	5.0	wm	201	diff_vonmises	-0.04878552315584744	-2.7952045781678074	0.5377894764976954	199.90616262315922	0.5262151226302403	201.09430960081195	0.13547748616503696	-0.3580258135088741	0.49350329967391104	116.70396773156341
15	6.0	ltm	201	diff_vonmises	0.34624709369879586	19.838497137611764	0.5452471614298905	94.0885802387602	0.531089038326329	94.98531835058414	0.02386455005590804	-0.22368266811077397	0.24754721816668201	112.37136492652792
16	6.0	perception	201	diff_vonmises	-0.1562506789341625	-8.952504448981191	1.5975479261097223	1.7716140809665113	2.588583284431222e-21	2.702509177019448	0.3671824948018454	-0.3974581706272752	0.7646406654291206	107.44197691811375
17	6.0	wm	201	diff_vonmises	-0.16980984875970945	-9.729387653686167	0.4976394742112636	154.80025887937265	0.48449675805688747	156.02444174477424	0.08120249396581869	-0.3445220082525271	0.4257245022183458	119.70218372683877
18	7.0	ltm	201	diff_vonmises	-0.04145910312289407	-2.3754316313394814	2.0190152448522865	2.5874306481432066	0.8406355094592657	3.8888992457780067	0.13142020669955756	-0.3514805276584444	0.48290073435800196	70.32265639157188
19	7.0	perception	201	diff_vonmises	0.04516402581208679	2.5877080648524835	2.109393662093517	2.192704786965253	0.1804619218054651	3.24471259767568	0.554495294307552	-0.41970403681204016	0.9741993311195921	87.42067257248388
20	7.0	wm	201	diff_vonmises	-0.4730478524770684	-27.1036454546632	0.00032965064670720685	3921.229121034735	2.1082219234642842e-20	3922.8631272224047	-0.054314181925064986	-0.4657722325089253	0.4114580505838603	173.68790570770085
0	1.0	ltm	202	diff_vonmises	0.04674845035327615	2.6784889040195856	1.0148875804975441	201.64946481005853	0.990515214019303	205.1860880444897	-0.2726713709429305	-0.7312962620100336	0.45862489106710314	74.00362654542522
1	1.0	perception	202	diff_vonmises	0.08985566249493233	5.1483502263115835	9.122612814279696	0.9149135371947525	0.11184572592510687	4.2529652710718535	0.3318395855386511	-0.7025544065611975	1.0343939920998486	43.75915337655047
2	1.0	wm	202	diff_vonmises	0.12354603188631631	7.078666202674618	3.490194802761133	0.5691888972449402	0.10823972144728797	4.205164643857944	-0.3376463058658305	-0.6573425168912602	0.3196962110254297	65.40673473775777
3	2.0	ltm	202	diff_vonmises	0.013512397561417575	0.7742033513720926	2.76797812227138	1.0391291754208272	0.3481449461377189	2.4671793233959223	0.11014138197776091	-0.3409042397769679	0.4510456217547288	70.55578476823419
4	2.0	perception	202	diff_vonmises	-0.03751034293330233	-2.149184338166596	7.440844837098836	1.2305010197583888	0.16006705404735264	2.6260720126812895	0.8275946895630282	-0.4288306351123772	1.2564253246754054	48.61863019804454
5	2.0	wm	202	diff_vonmises	0.06117777497640873	3.5052283061492795	5.15620568113488	0.46962039532058325	0.09624698129355062	2.233249201630331	0.02343349780402937	-0.3548118207468517	0.37824531855088106	57.30276313601328
6	3.0	ltm	202	diff_vonmises	0.15526076626333504	8.895786630856255	3.701424403696664	0.46794160925086925	0.02752340175374593	1.2628430200526677	0.13822759399327378	-0.1968724116892683	0.33510000568254206	70.10228507442906
7	3.0	perception	202	diff_vonmises	0.057206881032083524	3.2777128422453887	5.78444786826713	1.5413264461191496	0.02899962691803788	2.3032649634569626	1.0664781112540425	-0.36304396984774767	1.4295220811017901	56.3431084730085
8	3.0	wm	202	diff_vonmises	0.03569922265349656	2.0454147899431723	3.8211952158388938	0.558213873702562	0.17220944192275328	1.7246238495053947	0.09491237490883953	-0.2637893358397654	0.3587017107486049	64.86498583200586
9	4.0	ltm	202	diff_vonmises	0.27436748773652064	15.720099082910005	0.5392888839683188	149.63418657337886	0.5280780198176218	151.41855437860727	-0.13458644364823158	-0.3482762644121351	0.21368982076390353	102.74988238677946
10	4.0	perception	202	diff_vonmises	-0.05496937755542337	-3.149513336386913	3.337782658925143	1.9189054597487003	0.031262961656336644	3.940765388427894	0.687937386293427	-0.6090206207896112	1.2969580070830382	73.94167796816382
11	4.0	wm	202	diff_vonmises	0.10855875715706315	6.219958614285337	0.8025171954341012	198.0931380197197	0.787224187735498	200.48473494975738	-0.14182773468904486	-0.4824088305764569	0.34058109588741203	85.12239658445347
12	5.0	ltm	202	diff_vonmises	0.044076426381724876	2.5253932076919132	2.136884387289202	0.899439585536211	2.392852696829662e-13	2.4507830067558585	0.09280067705418038	-0.3833274669045672	0.4761281439587476	93.98793017769574
13	5.0	perception	202	diff_vonmises	0.013583526201155367	0.7782787222315746	2.3106289910290836	2.331263084901867	2.3230747118092367e-20	3.5852257474984963	0.7408263205476063	-0.5577009186449229	1.2985272391925293	90.46297501887682
14	5.0	wm	202	diff_vonmises	0.03687892524640838	2.1130067695976598	0.5556095482258394	236.95351373953855	0.5436444017400428	238.6476022802573	0.10175213514748549	-0.45159752209407245	0.5533496572415579	112.79618058280658
15	6.0	ltm	202	diff_vonmises	0.44459404718216017	25.473362500177966	0.76705506319891	157.752185952248	0.751195817621189	159.17374999527286	0.059246512454706135	-0.3391335901056003	0.3983801025603064	94.26003184036921
16	6.0	perception	202	diff_vonmises	-0.05744733933195538	-3.2914900879769373	0.5646484655608719	23.86661163737077	0.41953734756054545	25.106232760877457	0.3588111615759715	-0.5174776960749605	0.876288857650932	124.00984909065342
17	6.0	wm	202	diff_vonmises	0.010209012337113556	0.5849333199135955	0.5511371637840332	234.83455412346478	0.5383237992424597	236.38101209205382	0.1732770691156702	-0.45989663578265905	0.6331737048983292	115.26789549200701
18	7.0	ltm	202	diff_vonmises	0.07462030152486307	4.275428343368275	1.0733464276760636	171.2423093280824	1.0517526438851992	173.24505813389456	-0.008663866108648222	-0.45841137071976235	0.4497475046111141	76.95248097196531
19	7.0	perception	202	diff_vonmises	0.049256389689691725	2.8221832432710383	0.9945283109051788	149.79359922016448	0.9593310294122592	151.46164770166212	0.44211933376210055	-0.528964145305924	0.9710834790680245	87.74531738664828
20	7.0	wm	202	diff_vonmises	0.30050896406841726	17.217895346968813	1.295159545184211	4.556126703922586	0.6386670000336443	6.6341265847863005	-0.0034866580071801767	-0.46214104128704214	0.45865438327986197	82.0146081320267
0	1.0	ltm	203	diff_vonmises	0.0062088893365907245	0.35574315445043014	0.9059439370080596	108.81656524697087	0.87622857748648	110.99946795355794	-0.07850489038192165	-0.4626872050871551	0.38418231470523345	82.2480175475356
1	1.0	perception	203	diff_vonmises	0.042957027950299875	2.461256401977696	10.735032838205457	0.6765204176043804	2.983070115629155e-15	2.835990392996633	0.42185482340230146	-0.4513618891924512	0.8732167125947526	41.41807759465851
2	1.0	wm	203	diff_vonmises	0.10220495887216804	5.855912788683387	4.774235791612417	0.3695192177585421	4.2419168812176004e-21	2.6676304023458766	-0.11195952734618264	-0.424544272141037	0.3125847447948544	62.52120178177117
3	2.0	ltm	203	diff_vonmises	0.014839665705568321	0.8502502143140918	3.3500326731066727	0.6833895787534752	0.15878172957132244	1.8413062627245755	0.13504997778636296	-0.27478178799855607	0.40983176578491903	69.54291297697517
4	2.0	perception	203	diff_vonmises	-0.035952617801236195	-2.0599332624577475	7.646939962057852	1.0946157108109253	0.07286708196430465	2.226650412537355	0.8058386276133993	-0.35660474152318283	1.162443369136582	48.590149619853264
5	2.0	wm	203	diff_vonmises	0.03998871885803993	2.291184818700893	5.339211832123744	0.4335719277106881	0.07772036345333341	1.8480906264396826	0.07186535157221852	-0.2929728209255779	0.36483817249779643	56.99120877428115
6	3.0	ltm	203	diff_vonmises	0.16220065202216905	9.293412795140387	2.490777964706083	0.8560529700620207	0.32044368480044955	1.5398788135142523	0.1742636554455526	-0.19899653188894506	0.3732601873344977	76.50699907377117
7	3.0	perception	203	diff_vonmises	0.0372458121553576	2.1340278410390505	5.305562199986917	1.6836191647304979	0.10859905062214967	2.3429276092305202	1.0922475548160921	-0.3643133842285882	1.4565609390446803	58.11158137426989
8	3.0	wm	203	diff_vonmises	0.003570210574162246	0.20455799787247508	3.095922343415107	0.771682194661719	0.30316914918650373	1.8035980737907753	0.13460655363833784	-0.25769088234409304	0.3922974359824309	68.96327180674828
9	4.0	ltm	203	diff_vonmises	0.04359223231970259	2.497650931472741	0.7879350836714429	156.9448645409243	0.7751298146734606	158.33335852600712	-0.03123898913830203	-0.29688341059615553	0.2656444214578535	89.12525323600644
10	4.0	perception	203	diff_vonmises	-0.057477726003808266	-3.293231116027557	2.77205378046267	2.2435244473973057	0.13225707175332688	3.928186389163226	0.6937351966591245	-0.5614288915521815	1.255164088211306	78.10244258159412
11	4.0	wm	203	diff_vonmises	0.018447562972656525	1.0569675006350299	0.9245020418592598	195.79770496683741	0.9096943196152578	197.78952353946949	-0.09476966373684093	-0.41754099014530155	0.3227713264084606	80.12247609406796
12	5.0	ltm	203	diff_vonmises	0.1319598928414683	7.560744924814738	1.808478134841488	1.1403769124129775	0.10152671720356614	2.188431871998966	0.16890034346516192	-0.2992516808628022	0.4681520243279641	95.27691865523579
13	5.0	perception	203	diff_vonmises	0.012205743345035835	0.6993375794904451	2.4435416920486137	2.0370560348611493	2.684808387771242e-18	2.876222022378203	0.7267250982430173	-0.4488292787613536	1.1755543770043708	87.9924725196081
14	5.0	wm	203	diff_vonmises	-0.008975564307918675	-0.5142619535919998	0.5590974065342623	201.29141098730238	0.5479458661147047	202.45390528927481	0.12537624121717528	-0.3406917574962449	0.4660679987134202	114.19068973762988
15	6.0	ltm	203	diff_vonmises	0.2999586303524939	17.186363547722657	0.5907284135261556	115.04703546523751	0.5770844344311976	115.93308520067023	0.06515269266112256	-0.23771458699101444	0.302867279652137	109.77712754379783
16	6.0	perception	203	diff_vonmises	-0.11818911003402006	-6.77173718935664	1.5700143850080535	1.7940589719918008	2.915087379905071e-17	2.6974290961984004	0.3695946993253146	-0.39473051256285546	0.76432521188817	108.2852616817216
17	6.0	wm	203	diff_vonmises	-0.059754449823126506	-3.423677781991397	0.5769555703041369	175.01842413903157	0.5634840884287241	176.1732345309977	0.1461341335187285	-0.34640498992748014	0.49253912344620865	112.98571374889033
18	7.0	ltm	203	diff_vonmises	0.033941207378570294	1.9446879343703665	1.077177778736434	128.06112429561557	1.0525754241465353	129.4777174289132	0.09412093809802968	-0.3542408853959458	0.44836182349397546	79.74474561047631
19	7.0	perception	203	diff_vonmises	0.02967869039744382	1.7004637012489747	2.175349887080218	2.1295999047018697	0.18603651933658902	3.434622404912976	0.5028593426268831	-0.44962183139222067	0.9524811740191038	85.56486710408947
20	7.0	wm	203	diff_vonmises	0.2135933802192658	12.237999218497013	3.859660234805213	0.5371868602554827	1.5337777150095798e-15	2.1355900301729385	0.06512385348607747	-0.3397098059740028	0.40483365946008026	69.72617152471159
0	1.0	ltm	204	diff_vonmises	-0.015214504810323775	-0.8717269130130414	0.9251913385658923	113.48592857307852	0.8985869104396952	115.16793884510892	0.03231441488500053	-0.3870500708622675	0.41936448574726803	84.57035415898872
1	1.0	perception	204	diff_vonmises	0.06530767385830114	3.7418540818975123	16.129526625524207	0.43062348262047534	1.6104438385545266e-24	2.4012120997851563	0.3021721683805656	-0.38216477509287033	0.6843369434734359	33.72427936278365
2	1.0	wm	204	diff_vonmises	0.12495433517754655	7.159356037536493	6.855663165360091	0.3041333886050265	8.057907359551873e-14	2.161366680417493	-0.03255323563829554	-0.34399184536773036	0.3114386097294348	51.976995399781
3	2.0	ltm	204	diff_vonmises	-0.15756246839084828	-9.027664448459046	1.1934501850915018	43.34690058202389	1.1277797373370517	44.11269489202014	0.24870916704476898	-0.25825718174899936	0.5069663487937683	80.87093933353896
4	2.0	perception	204	diff_vonmises	-0.03525274132378841	-2.0198332941195067	6.552551920677344	1.0122859423324049	0.11613998998909059	2.0730123089892185	0.6431095387717793	-0.3312186597063732	0.9743281984781526	52.052916184085404
5	2.0	wm	204	diff_vonmises	0.08488034081935295	4.863285292580928	6.200420405781211	0.347344630140584	0.12615865667011905	1.5518108455557857	0.058401188951193506	-0.2511593503680826	0.30956053931927613	52.25035112489675
6	3.0	ltm	204	diff_vonmises	0.05224914821307141	2.993655675762499	1.1579500768674225	224.62238517842235	1.1451734048532256	225.26448060551328	0.29688259444839105	-0.2464391816065863	0.5433217760549773	82.39300699485108
7	3.0	perception	204	diff_vonmises	0.022973393421217212	1.3162784841293573	3.9964105796227303	2.130607882056258	0.3637353677168907	2.9738943205282693	0.978263704467129	-0.43014966072159966	1.4084133651887285	63.64488589535637
8	3.0	wm	204	diff_vonmises	0.2595838135181789	14.873056944502656	3.439206472916407	0.6335590743837106	0.15760506554627454	1.8126092996345318	0.11252959388782297	-0.27237656235690916	0.3849061562447321	68.54807877624012
9	4.0	ltm	204	diff_vonmises	0.015286054365134898	0.8758264005297587	0.9769038116198638	204.8631472270843	0.9639329849894063	206.25772560470082	0.03687321487547024	-0.3264279306901692	0.3633011455656394	82.1813837110613
10	4.0	perception	204	diff_vonmises	-0.10679800605898661	-6.119075007592527	2.047365462218529	3.316037402875575	0.3693156785489479	4.635492552519885	0.7031716869826232	-0.5174414828323489	1.220613169814972	83.42822887201237
11	4.0	wm	204	diff_vonmises	-0.06466399896741147	-3.7049742272709905	0.9482090241896848	165.32935321723713	0.9283270779112565	167.26109832393442	-0.00913368596508235	-0.4311566966193361	0.42202301065425374	82.07816366377239
12	5.0	ltm	204	diff_vonmises	-0.04348476088490419	-2.491493271840577	1.2357959332158301	2.491224931985709	0.2833635525086326	3.5787910600061514	0.2196912224206624	-0.3411876465395306	0.560878868960193	102.32412447722402
13	5.0	perception	204	diff_vonmises	-0.028757136155067437	-1.6476625325684318	2.5264442069194124	1.8866959438209627	2.957158712523064e-20	2.880021593821862	0.6604120231872714	-0.4512190266982972	1.1116310498855686	86.53898713705397
14	5.0	wm	204	diff_vonmises	-0.22506288259267593	-12.895153297608694	0.6181810440196783	160.9278666773448	0.6053583510239754	162.08166242530052	0.08342919358835132	-0.30415692234580227	0.3875861159341536	107.04589064506285
15	6.0	ltm	204	diff_vonmises	0.11848674644866677	6.788790499745302	0.4514300426156529	156.16272694347643	0.4411775403996921	157.3202186910374	0.023561648506849053	-0.30200382957011307	0.3255654780769621	123.14699901544698
16	6.0	perception	204	diff_vonmises	-0.18352050051511468	-10.514950133644522	1.7293174659872286	1.7994747667216247	6.49742475160628e-13	3.09391645188418	0.3574006874763425	-0.4656628831946653	0.8230635706710079	103.72268307568804
17	6.0	wm	204	diff_vonmises	-0.09863043846262909	-5.65110785543343	0.8001003413466745	121.75632960156084	0.774368872262789	123.03945216388018	0.214953682345687	-0.37087046675146773	0.5858241490971547	96.4020126566785
18	7.0	ltm	204	diff_vonmises	-0.10484818509407771	-6.0073584954971215	0.9769784997878239	209.9659107272647	0.9586171624041597	211.64201141698152	0.17160914551023154	-0.43450640714160826	0.6061155526518398	84.97692221064301
19	7.0	perception	204	diff_vonmises	-0.024660859083276244	-1.412963144638589	3.0118984009896326	2.0927590626360284	0.1886656716753855	3.911534582655342	0.6285031826552395	-0.5571845377616532	1.1856877204168927	73.64532054091691
20	7.0	wm	204	diff_vonmises	0.24819255749584565	14.22038605106998	12.551980893052695	0.6189039161504606	2.473936634031129e-06	2.334723810355779	0.49405245903361966	-0.37158248850094383	0.8656349475345635	38.265725437180635
0	1.0	ltm	205	diff_vonmises	0.16394559252302351	9.393390521340793	2.0073522801588886	0.9640957783821449	0.16609440092332425	3.1349149999997286	-0.08659970289859253	-0.43483708062496523	0.3482373777263727	83.24240001966427
1	1.0	perception	205	diff_vonmises	0.04178627385799423	2.3941771336409134	7.391250492091813	0.7799729742218303	0.035311130851367695	2.9119643491935814	0.35053850951351134	-0.4643464919247455	0.8148850014382568	49.481978432777765
2	1.0	wm	205	diff_vonmises	0.11939755750850425	6.840976129407826	4.491335657057043	0.405745014815429	2.701727097027672e-19	2.5799371455599265	-0.07843267254110031	-0.41056803766996575	0.33213536512886543	64.50931847764295
3	2.0	ltm	205	diff_vonmises	0.06019039563694608	3.448655637219655	3.374547792060765	0.8095906718725147	0.27550285547123504	2.0687606363901523	0.14103172169843498	-0.30493264472178283	0.4459643664202178	66.77054688002067
4	2.0	perception	205	diff_vonmises	-0.035130768602752147	-2.012844771988402	7.532609547166957	1.111410671584196	1.272513974836264e-21	2.3697084010284883	0.8181741014314363	-0.37715046314379497	1.1953245645752313	49.54741778698357
5	2.0	wm	205	diff_vonmises	0.04551059094170681	2.607564784106115	5.360005185356271	0.48222104170794866	0.0676056123185413	1.9623010919395711	0.10006720410057152	-0.3106136209069788	0.4106808250075503	57.170351044518696
6	3.0	ltm	205	diff_vonmises	0.22580617292385405	12.93774069653808	3.4385635369347156	0.6722178153942787	0.1372156990373372	1.4601948663387312	0.21014675029356422	-0.21747946252677433	0.4276262128203385	70.03538981964061
7	3.0	perception	205	diff_vonmises	0.02939408889001345	1.6841572360301533	5.396461064889017	1.6994884945583273	1.2539452750038637e-18	2.581624069316684	1.1236669268666863	-0.4108467003559743	1.5345136272226607	58.72487662063557
8	3.0	wm	205	diff_vonmises	-0.022845154920705654	-1.3089309592789589	3.121644180946112	0.8439248550537007	0.24463274422959833	2.018237648406008	0.16116758267721887	-0.2915352912634741	0.452702873940693	69.99756955819922
9	4.0	ltm	205	diff_vonmises	0.36568293114817463	20.952088594763477	0.5023506954185119	170.12210405950594	0.4915080920861948	171.68310427181768	-0.03809153854188452	-0.35199931195094614	0.3139077734090616	113.49904585942684
10	4.0	perception	205	diff_vonmises	-0.06196297835545339	-3.5502171458279497	3.1580154609119813	1.978555334499843	5.1979518300134786e-14	4.137119093373607	0.6756101173598148	-0.6560317149246644	1.3316418322844792	77.28678550571257
11	4.0	wm	205	diff_vonmises	0.013250938838001464	0.7592228700034711	0.9195646291103048	208.54566187958983	0.9042439179760451	210.83881669972217	-0.1337534631584134	-0.4733842334400613	0.3396307702816479	79.42695140752957
12	5.0	ltm	205	diff_vonmises	0.13568215123863003	7.774014621229236	2.0023049759877622	0.954554783890012	5.330141606706755e-14	1.8761666385823226	0.19417496847510052	-0.2896169159036514	0.4837918843787519	96.93587554519775
13	5.0	perception	205	diff_vonmises	-0.013382114729196029	-0.766738694942787	2.209868453389318	2.2035000029359066	1.5075489636238353e-17	2.8304952928277225	0.7565524787991549	-0.43595716563595477	1.1925096444351095	92.46419567366777
14	5.0	wm	205	diff_vonmises	0.028952016149380835	1.658828333754123	0.6467937872271565	149.6074453546001	0.6312292664834874	150.60078881763948	0.17253705375200212	-0.30883191185838754	0.48136896561038967	107.60329690206504
15	6.0	ltm	205	diff_vonmises	0.36515271425858914	20.921709404763675	0.5497753300396808	126.34001101458905	0.53805225561271	126.93648217423733	0.1271287501908347	-0.21225412013898293	0.3393828703298176	117.33570079059123
16	6.0	perception	205	diff_vonmises	-0.09410384220727912	-5.391752994442155	1.6209336630373943	1.6896060408456068	2.0406822355857492e-16	2.279986627144004	0.4042449602596514	-0.3328816630905422	0.7371266233501936	106.8073611328268
17	6.0	wm	205	diff_vonmises	0.05739093246407827	3.288258212512027	0.6302333576834916	176.9787221452548	0.6185736940419105	177.8957637446352	0.14466548882520414	-0.2801809163403046	0.42484640516550876	108.53655734230048
18	7.0	ltm	205	diff_vonmises	0.013400326335995348	0.7677821431505398	1.820158065686443	1.9950002393715283	0.50005334911394	3.57496761478668	0.08989789790633695	-0.3780199019099546	0.46791779981629156	78.66934183781669
19	7.0	perception	205	diff_vonmises	0.03403293841354306	1.949943735524673	0.9046696632377084	207.63735650049398	0.8803174802880395	208.98185736874183	0.5345083549695175	-0.5013317439338927	1.0358400989034102	93.44845540750757
20	7.0	wm	205	diff_vonmises	0.09907921963643049	5.676821122617178	2.857691944234423	0.6313634855855134	1.3021389028501042e-37	2.3701725479588793	0.024929420481563103	-0.3758995048419853	0.4008289253235484	81.319117116587
0	1.0	ltm	206	diff_vonmises	0.011045089498195658	0.6328370125908794	0.9704219987723501	209.79752128863532	0.9527987328168082	211.96022930569708	-0.01812625298690307	-0.482187443285337	0.46406119029843396	80.82924629085497
1	1.0	perception	206	diff_vonmises	0.056622834695183644	3.24424945210095	10.312517206407527	0.6070259848418325	4.734585859084063e-18	2.829755435360034	0.3173610333703038	-0.45036956443157466	0.7677305978018785	42.25953220219694
2	1.0	wm	206	diff_vonmises	0.141212040858289	8.0908539576089	5.392987077199615	0.37205865418713546	2.3959157195627735e-24	2.551207329985118	-0.0701779729493146	-0.4060303091893375	0.3358523362400229	58.742376639103526
3	2.0	ltm	206	diff_vonmises	-0.0786854653052918	-4.508345071016288	2.3651898072360638	1.38725732395596	0.47529259534843493	2.419935495935792	0.20529140095433318	-0.2899632234967023	0.49525462445103546	74.28331710559533
4	2.0	perception	206	diff_vonmises	-0.04338599475807514	-2.4858343896144186	6.914955997872612	1.0789962721686392	0.0494960611997215	2.1871374666622914	0.7441116253151678	-0.34742486742604733	1.0915364927412152	51.260885035162715
5	2.0	wm	206	diff_vonmises	0.033717111518705586	1.9318481873937636	5.28028950871819	0.4540051160520719	0.12025190204983567	1.777101833944868	0.0874451608289269	-0.28277599699842	0.3702211578273469	56.59797242189654
6	3.0	ltm	206	diff_vonmises	0.09869947042779727	5.655063095689061	1.0831942404694204	156.12480044343192	1.067262458765562	156.81826915907388	0.22125020686915775	-0.23214219556533244	0.4533924024344902	84.11220289146695
7	3.0	perception	206	diff_vonmises	0.03934669954476226	2.254399821684195	4.770015183365739	1.7763985680202867	0.13108875714193113	2.491144849034884	1.051967881225497	-0.38219131942656426	1.4341592006520612	60.96968252277691
8	3.0	wm	206	diff_vonmises	0.06964527974308901	3.9903805922869666	2.262120781012932	1.1597559312698165	0.3798492877004824	2.2023974243378523	0.1497454634436055	-0.2721188670353286	0.4218643304789341	76.96829892408627
9	4.0	ltm	206	diff_vonmises	0.0810783412638086	4.645446764337621	0.6805549161311661	144.15193348966207	0.667060971126264	145.52815047498444	-0.012725136645364898	-0.3030355598874088	0.2903104232420439	97.415209737032
10	4.0	perception	206	diff_vonmises	-0.08701475252022363	-4.985578074784158	2.565221653737548	2.496085672356222	0.15608372971300669	4.1142139186481055	0.7327103711023651	-0.5704809202920675	1.3031912913944326	80.44290792865678
11	4.0	wm	206	diff_vonmises	-0.0064125126110169475	-0.36740990868568685	0.9444862421759368	201.99076449745763	0.9285506064128839	203.97669049840457	-0.039898555316540296	-0.43381560195489755	0.39391704663835725	81.23837327143926
12	5.0	ltm	206	diff_vonmises	0.06337731313601315	3.6312525595725855	2.0122431053263163	1.0178779472729511	7.659340532358982e-09	2.060319683292738	0.19911648417307082	-0.31848993723444086	0.5176064214075117	96.73214540974351
13	5.0	perception	206	diff_vonmises	-0.011460623215412625	-0.6566453408327944	2.3044322934095645	2.160964891637927	2.025859917235979e-21	2.9464888608910855	0.7447159863970507	-0.4568553786159958	1.2015713650130464	90.58519523799097
14	5.0	wm	206	diff_vonmises	-0.052015502948364566	-2.9802687881915797	0.5848011103068906	190.47478885715554	0.5732540904224882	191.5226334406602	0.14242248850118244	-0.31772573088578504	0.4601482193869675	112.33810927816349
15	6.0	ltm	206	diff_vonmises	0.33362034578927335	19.11503777342049	0.6061069533475952	136.39488877470717	0.5942231547614079	137.26872911779415	0.07569299181199085	-0.23828726014012247	0.3139802519521133	108.68647690113582
16	6.0	perception	206	diff_vonmises	-0.1459756984304823	-8.363791431541111	1.5143077847596016	1.9985195211494236	2.536420032560362e-15	2.8371159504366443	0.41909169830406073	-0.4094150036309727	0.8285067019350334	109.95063514506197
17	6.0	wm	206	diff_vonmises	-0.056812879513185324	-3.255138218090778	0.6927274139900979	161.23579879653354	0.6766565671907364	162.29203869233183	0.19765405643609313	-0.3270022202492804	0.5246562766853735	104.0885573261035
18	7.0	ltm	206	diff_vonmises	-0.0312571106212724	-1.790900518372447	1.106888469355229	82.16555898685203	1.0644728225459013	83.66960987143499	0.12133638691813786	-0.3840503763610901	0.5053867632792279	79.38063251906922
19	7.0	perception	206	diff_vonmises	0.006399482333240263	0.36666332876319974	1.805911837927935	4.0002267502980695	0.5125743226058805	5.3871628085791965	0.5977923819980062	-0.5041290490764603	1.1019214310744665	83.64014078711958
20	7.0	wm	206	diff_vonmises	0.2647834540330348	15.170974400989131	5.9977050647701295	0.5811434550164263	3.732602636489984e-17	2.204474181007185	0.20400245481069063	-0.3508495378098036	0.5548519926204942	55.639384008354256
0	1.0	ltm	207	diff_vonmises	-0.11084552245510734	-6.350980614600246	0.9150800103465662	252.5157066498518	0.8997040719681351	255.6955728632749	-0.286840228059134	-0.6305652408090126	0.34372501274987854	76.17301378237323
1	1.0	perception	207	diff_vonmises	0.07623348315349822	4.36785684227711	12.931662535387295	0.7127307784434265	1.6684166523715748e-17	3.558871032412411	0.44556766808358605	-0.5664119166290614	1.0119795847126474	37.70080191800798
2	1.0	wm	207	diff_vonmises	0.010991457565343737	0.6297641291913354	4.347127380168117	0.44591882564401814	0.1235893742477423	3.930500935669515	-0.3464861562555423	-0.6296560531775547	0.2831698969220124	58.504144249496704
3	2.0	ltm	207	diff_vonmises	0.045980361841930995	2.634480674027022	2.828926904958585	0.600870196119683	6.720810233134804e-10	2.312038342958275	0.012533370946071654	-0.36664421320707713	0.3791775841531488	81.74248365317354
4	2.0	perception	207	diff_vonmises	-0.017334612472754363	-0.9932001341836607	7.609287231050278	1.287449511190323	0.245344253979941	3.1035243870883367	0.7700642996449149	-0.5225513871593382	1.292615686804253	47.391147953454606
5	2.0	wm	207	diff_vonmises	0.11026995491543483	6.318003023752282	5.432162274386929	0.34861594814517805	0.03411797958947924	2.4150802871618247	-0.08171447648493807	-0.38319453933189174	0.30148006284695367	57.01737987486132
6	3.0	ltm	207	diff_vonmises	0.1384210681610559	7.930943001321198	2.587186694184095	0.7931075741636723	0.37996371255116873	1.6853753450730102	0.09846940736583054	-0.22299822432269348	0.321467631688524	72.40576319580214
7	3.0	perception	207	diff_vonmises	0.060611870819600906	3.472804386355282	4.965014726911528	1.9773340161964874	0.3024943400652845	2.765985548128258	1.1256059047533726	-0.4253015455803997	1.5509074503337723	58.316521945656945
8	3.0	wm	207	diff_vonmises	-0.039908899627543	-2.286611513669437	4.588108914246097	0.3327121034973851	0.13019281548895328	1.6381157453981745	-0.020193880046904145	-0.2594658765351954	0.23927199648829128	59.37878955344715
9	4.0	ltm	207	diff_vonmises	0.0058550528712486265	0.33546981834850087	0.6472777240573521	185.37199746633937	0.6366648882405752	187.28769955976927	-0.14835179291139156	-0.3696150475840376	0.22126325467264607	92.73949886874738
10	4.0	perception	207	diff_vonmises	-0.017019891357615186	-0.975167942562535	2.431238239801407	2.853582247128259	0.3821086854915519	4.759855818609965	0.5837395429757897	-0.5892326473385536	1.1729721903143433	76.32353207229744
11	4.0	wm	207	diff_vonmises	0.07742698977999694	4.436239734796383	0.566864949522301	81.72063009307439	0.5444392467730773	83.88321638666538	-0.20644489449502856	-0.4020082516626058	0.19556335716757722	96.67372455654598
12	5.0	ltm	207	diff_vonmises	0.1900676654202934	10.890075050487432	0.7978966554181592	168.04818203054137	0.7796032199688175	169.94077109224483	0.019780169648342394	-0.4275043898083659	0.4472845594567083	90.80603781391068
13	5.0	perception	207	diff_vonmises	0.05680291425698426	3.254567250968691	2.616924960742383	2.318124195664369	0.08509679031451282	4.266995184047469	0.6651291794437564	-0.6228296306562886	1.287958810100045	81.4903939748819
14	5.0	wm	207	diff_vonmises	-0.0582508390381338	-3.3375272299809624	0.3724700691455169	224.21925709070712	0.36249471904581937	226.53208986924756	-0.1046757061227126	-0.5294273784080055	0.42475167228529287	129.561201586119
15	6.0	ltm	207	diff_vonmises	-0.5540816445926904	-31.74653974082883	0.00019387592330128312	5205.176874402037	4.06663189042238e-29	5207.30167412599	-0.17755360750356886	-0.49877558194680205	0.3212219744432332	171.41045784475784
16	6.0	perception	207	diff_vonmises	-0.18368846956705528	-10.524574051409532	1.3260000433736339	1.9080922057992387	3.124076727002688e-17	3.9700982032511702	0.1355018098206573	-0.5777490441033641	0.7132508539240214	116.02690863713278
17	6.0	wm	207	diff_vonmises	-0.27513706608620025	-15.764192674351289	0.3489322971681723	150.3534821365903	0.3330138822662985	152.61580310554928	-0.05571701526465489	-0.5584504839710434	0.5027334687063885	134.3225743738011
18	7.0	ltm	207	diff_vonmises	0.15485928384404082	8.872783382681995	0.9652272442021271	182.79619713204644	0.9485761942637164	184.58395689011707	-0.01572169117988409	-0.3980283181378681	0.382306626957984	81.00870079782513
19	7.0	perception	207	diff_vonmises	-0.0041748423684107305	-0.2392008478423356	2.1798264986906393	1.9248918914574757	0.14986938075709558	3.565015825729338	0.3903790892007004	-0.48392163963570317	0.8743007288364035	85.92812637433772
20	7.0	wm	207	diff_vonmises	0.27592647461663006	15.809422451456543	1.0261498266042937	98.5188242662555	0.9923248558004083	100.64493415019622	-0.09355123706920665	-0.457531876893718	0.36398063982451134	76.57236460315977
0	1.0	ltm	208	diff_vonmises	0.08334658483083401	4.7754075476358775	2.74856563421313	0.537796936644022	0.10456753966792706	2.4643736155922022	-0.09930396332170294	-0.3708677258283585	0.27156376250665554	74.9701231540316
1	1.0	perception	208	diff_vonmises	0.05431783495656532	3.1121826952993623	11.448346499787718	0.6804019896928337	0.0403514037663238	2.699932888157661	0.4607400533877455	-0.43573512170273576	0.8964751750904812	39.78211742602139
2	1.0	wm	208	diff_vonmises	0.05927546737067393	3.396234109005039	4.418905538819625	0.3491262806630928	0.029518268325407705	2.597823955992731	-0.1424448937639921	-0.4100199143577596	0.2675750205937675	63.02536587419101
3	2.0	ltm	208	diff_vonmises	0.0840117381170655	4.813518023666199	3.4326122731081115	0.5659589734276649	0.14382335504185273	1.617359537661396	0.10422569240845636	-0.24337102005513095	0.3475967124635873	68.98350361387267
4	2.0	perception	208	diff_vonmises	-0.022259939842360438	-1.27540060518236	8.19895592246506	1.0827774111324129	0.1379775440309051	2.1743381984133316	0.8213683473515293	-0.3555605755883339	1.1769289229398632	46.58247913876261
5	2.0	wm	208	diff_vonmises	0.10226907289592124	5.859586251652047	6.759636243304362	0.33002995882571534	0.03467417568225912	1.7485036491180228	0.04746536420222708	-0.2786332329850459	0.32609859718727296	51.506379384504754
6	3.0	ltm	208	diff_vonmises	0.22399216474993916	12.833805684170525	2.4869577153042584	0.8876683297855431	0.44632872188764	1.5058626570311215	0.16503146751604308	-0.18486919356652154	0.3499006610825646	74.04089661917655
7	3.0	perception	208	diff_vonmises	0.02304575614200424	1.3204245626245377	5.766879643822906	1.612544943120994	0.1522298198725454	2.3439612105809973	1.0761310696659936	-0.3683245335932121	1.4444556032592057	55.42712347120124
8	3.0	wm	208	diff_vonmises	0.05107875619193518	2.9265971525756065	4.774009071621619	0.50288261809318	0.28043735291202904	1.627878760871531	0.08911608514733016	-0.26135703134441746	0.3504731164917476	56.90966740100163
9	4.0	ltm	208	diff_vonmises	0.08717442840338843	4.994726828979525	1.0483103053263148	194.03336524444762	1.0353943427147203	195.4871384528048	-0.03425188375318555	-0.3233834681706611	0.28913158441747555	76.66851493609798
10	4.0	perception	208	diff_vonmises	-0.04831858726203224	-2.768451122149027	3.2308378012755625	1.8219279266381696	0.0637960261474432	3.4774544385970683	0.6551236566141103	-0.5257867493196546	1.180910405933765	74.26406624187817
11	4.0	wm	208	diff_vonmises	-0.029364842054325612	-1.6824815157811277	0.9472777035120378	174.5300703907416	0.9309802958284317	176.59380350131727	-0.13764100988412764	-0.4243048983120872	0.28666388842795953	77.47987334173183
12	5.0	ltm	208	diff_vonmises	0.08647538447248325	4.954674562044423	1.5820425915006033	1.3910331590356253	0.18199511804927565	2.4535995088129066	0.1577267351275446	-0.29882338812569453	0.4565501232532391	96.55725971435521
13	5.0	perception	208	diff_vonmises	0.005831188358362872	0.33410248248001156	2.7508930075885702	1.7595438033785182	2.4143733847966222e-20	2.6986795712247136	0.66690752530859	-0.4250349703768309	1.091942495685421	82.90877625229592
14	5.0	wm	208	diff_vonmises	-0.029143497506316337	-1.6697994073619653	0.5447608340799321	196.25507112579191	0.533806911024542	197.5571503014085	0.07454027144283515	-0.3474315116881854	0.4219717831310206	113.8229854078143
15	6.0	ltm	208	diff_vonmises	0.19078117833819927	10.930956329311503	0.49783048913573025	120.75830801654156	0.48424193319451514	121.74564567033315	0.06555182342853527	-0.2779067682703378	0.34345859169887305	119.67717408521582
16	6.0	perception	208	diff_vonmises	-0.08066048796107393	-4.6215055336353235	1.7210178023307274	1.5664111273508152	5.4601350371455957e-17	2.701048014773503	0.3077162621286916	-0.406280508441202	0.7139967705698935	104.00725935424475
17	6.0	wm	208	diff_vonmises	-0.005097542852755026	-0.29206769134994065	0.5661327077167617	201.18006278653826	0.5537697701504931	202.4881392007968	0.13275009088509648	-0.37681552484740166	0.5095656157324981	113.28559575233326
18	7.0	ltm	208	diff_vonmises	0.05943574859085949	3.4054175464568788	0.9224285372536664	220.85844009694898	0.90823571692626	222.45043612649675	0.08024569798065784	-0.3832274484504872	0.463473146431145	85.75990064457426
19	7.0	perception	208	diff_vonmises	0.0350232568874964	2.0066848044560355	2.594693372579344	1.5194070440159615	3.940496337892388e-14	3.1082858987843487	0.4204960990119917	-0.4895964632253665	0.9100925622373581	85.38632924334428
20	7.0	wm	208	diff_vonmises	0.2668179100614238	15.287540145020767	5.403113389846793	0.48452908027465813	0.02796425449528115	2.2209478970444017	0.07436716061601095	-0.35143964493961755	0.4258068055556285	57.75625736142044
0	1.0	ltm	209	diff_vonmises	-0.10996605117115105	-6.300590621826599	0.9246956045706473	273.6925616406781	0.9052926571992346	277.6007256905148	-0.25457315999138075	-0.8002785103701839	0.5457053503788032	78.65228504636676
1	1.0	perception	209	diff_vonmises	0.0229068851720232	1.312467842147736	12.923337386384675	0.776948746103336	7.417372542825742e-16	4.206091544767766	0.43345935678447967	-0.6694202604402444	1.102879617224724	37.710618802246984
2	1.0	wm	209	diff_vonmises	0.054076983162689815	3.0983829040221407	2.888479723222894	0.6853188331435465	0.06766661510694733	4.696919978601714	-0.35972325012132284	-0.7233577913425148	0.36363454122119193	73.68781269895368
3	2.0	ltm	209	diff_vonmises	0.06260220088704287	3.5868418990576947	2.449210551085203	0.7699465264256298	3.130456098348818e-19	2.7931112734141843	0.003763016571104061	-0.44119345813391103	0.4449564747050151	87.88993452615938
4	2.0	perception	209	diff_vonmises	-0.05938643674020336	-3.402592185534303	6.921238639868911	1.2999868493186868	0.18535138054139047	3.109755400873769	0.7470131997488505	-0.5087332925540922	1.2557464923029427	49.997353181019974
5	2.0	wm	209	diff_vonmises	-0.05141587104210919	-2.9459124107017627	2.869923643370552	0.8670626632078742	0.16796415199231776	3.070221191878456	-0.020288501119711255	-0.4539744502662253	0.43368594914651404	72.31773505844183
6	3.0	ltm	209	diff_vonmises	0.01867127167675311	1.069785065220105	2.0009311287574043	0.8077140632348978	0.10326883751594994	2.0036806711181963	0.06415721238907268	-0.28204882995057895	0.34620604233965163	89.53480525658793
7	3.0	perception	209	diff_vonmises	0.06120210218425777	3.506622152486367	4.634958107193525	2.0377043654638016	0.1911929468448436	2.8728709541157214	1.1479133233954253	-0.4367609940882759	1.5846743174837012	61.20718478494567
8	3.0	wm	209	diff_vonmises	-0.0948750827446877	-5.435941822225067	3.8568050989864675	0.5898072293447366	0.04020255175714378	2.0198182331621166	0.10995610349859242	-0.3145486764617482	0.42450477996034064	67.99552472166638
9	4.0	ltm	209	diff_vonmises	-0.2680678182017774	-15.359154606242074	0.49290027538240716	140.91863836256226	0.4782904979650116	142.92664055529693	-0.1034153689576911	-0.42335132264373243	0.31993595368604133	111.91803681613418
10	4.0	perception	209	diff_vonmises	0.0006540964318628876	0.03747696494030989	1.4389254082906406	9.010867074139227	0.7201143377096982	11.033426542183395	0.6242341009722088	-0.6639728731220914	1.2882069740943	84.49036347430538
11	4.0	wm	209	diff_vonmises	0.2475091018855161	14.181226929113558	0.6860206256736634	220.67728697271252	0.6732526181960041	223.13222153170494	-0.14955946848738222	-0.4891390396308424	0.33957957114346016	92.1895619886509
12	5.0	ltm	209	diff_vonmises	0.27050452617358295	15.498767688932414	0.7046984818906932	107.63877628262868	0.6778904951984196	109.45054423210104	0.041817984886780124	-0.42293684186727987	0.46475482675406	98.10456521750794
13	5.0	perception	209	diff_vonmises	0.08769381596079798	5.024485543950701	1.7947065653871508	3.3641619222592416	0.1662470127264502	5.063065739966744	0.6801305279401575	-0.6363579301543107	1.3164884580944682	94.01706449583509
14	5.0	wm	209	diff_vonmises	-0.0038716121294930478	-0.2218270349316088	0.4532697547764446	211.05672055574362	0.439725350028195	213.2075894719126	0.02280870260912593	-0.5477501569333256	0.5705588595424516	122.65888666633832
15	6.0	ltm	209	diff_vonmises	0.5881696487393208	33.6996385104552	0.8383711375188335	141.47550744213342	0.8213971882353956	143.21296862046637	-0.07624404321627054	-0.360590927151776	0.28434688393550545	84.68498140079564
16	6.0	perception	209	diff_vonmises	-0.10449471216923785	-5.987105988731652	1.2257115693582585	2.273794498477413	4.155533638410762e-21	3.9661627978190794	0.24162380339326628	-0.5560194611028663	0.7976432644961325	119.68786264700837
17	6.0	wm	209	diff_vonmises	-0.27248958683009256	-15.612503286627884	0.220488742645077	212.3263989862511	0.2107151292812828	214.41682460011157	-0.044614041637089485	-0.5578796760012281	0.5132656343641386	151.43612596165752
18	7.0	ltm	209	diff_vonmises	0.04496712042655358	2.5764262172980343	1.3231606439024248	105.88454574709498	1.2880445212566924	107.57790253546283	0.005811538449655984	-0.41865759753025955	0.42446913597991554	69.50860094289501
19	7.0	perception	209	diff_vonmises	0.10962637008496878	6.281128329207935	1.981867690006807	1.7722451397785859	0.09374197675283634	3.0128982748284843	0.383745263433945	-0.41870253996641205	0.802447803400357	92.55781136787724
20	7.0	wm	209	diff_vonmises	-0.09699520578824523	-5.557415924669345	0.6167269834985732	50.82685901956185	0.5719454808843543	52.94969943232758	-0.121952257455467	-0.4279874815871514	0.3060352241316844	99.4931063694616
0	1.0	ltm	210	diff_vonmises	-0.06347219329461612	-3.6366887922200672	0.7208848948087977	121.06752345637176	0.6936749084177402	124.3787962479642	-0.3101960250668654	-0.6249080010833659	0.31471197601650047	85.61110201887314
1	1.0	perception	210	diff_vonmises	0.035306342836309235	2.0229044345624674	12.25490972766948	0.7759232660789426	1.2502407368994598e-15	3.7199327816445282	0.4801034349037602	-0.5920456901440005	1.0721491250477606	38.73027995969116
2	1.0	wm	210	diff_vonmises	0.0015794468025598586	0.09049563575211253	3.5017203550755536	0.5013928920822922	0.05711901453493344	4.159129636466559	-0.34202769210489553	-0.6506064700243769	0.30857877791948135	67.91153400370229
3	2.0	ltm	210	diff_vonmises	0.19326350730539243	11.073183302494739	2.180238978516014	0.6764241845783798	3.542158481569344e-22	2.6420347863917297	-0.05293459968050085	-0.4157983213146635	0.36286372163416264	93.02973479276397
4	2.0	perception	210	diff_vonmises	-0.0324041726673739	-1.8566223324537037	7.851981310584801	1.2682914710999296	0.1993212087734458	3.1980024856423617	0.7786116780446029	-0.5333116219230671	1.31192329996767	46.95279876802795
5	2.0	wm	210	diff_vonmises	0.03786055246111257	2.169249866055392	3.6901259296886	0.5538418570666754	0.06115166837986053	2.830230672735652	-0.07101747421753685	-0.4402577592131645	0.36924028499562767	67.7341637555574
6	3.0	ltm	210	diff_vonmises	0.19850461591765942	11.373476705947306	3.956608955011127	0.4179859544206799	7.712022534318515e-15	1.5460791012405617	0.07336941388749049	-0.24594923813814312	0.3193186520256336	68.84612324703318
7	3.0	perception	210	diff_vonmises	0.044882251598338155	2.5715635916290696	5.132213900950379	1.9872096593798918	0.2017151734747025	2.9790748045535356	1.172802604386649	-0.4617498289730703	1.6345524333597194	58.14206909438707
8	3.0	wm	210	diff_vonmises	-0.11543760459263663	-6.614087540258088	5.608890962159426	0.4019223095890699	0.08013608212456863	1.9815032862170845	0.029255666937821	-0.3157977543929635	0.3450534213307845	55.41050860311256
9	4.0	ltm	210	diff_vonmises	-0.04607463373455459	-2.6398820556010643	0.6168162000311505	187.0072437918376	0.6047476632769647	189.16645728073877	-0.14774242892043787	-0.4244493320948628	0.2767069031744249	96.57157982631466
10	4.0	perception	210	diff_vonmises	0.016220189921384336	0.9293484253959571	2.2098930978832296	3.286132079846232	0.39002253021229527	5.4969383044694995	0.5557178207262685	-0.6528777572644731	1.2085955779907416	78.72108893306728
11	4.0	wm	210	diff_vonmises	0.2772486927231079	15.885179968553503	0.6172860781798369	151.6282959490449	0.6021896755449905	154.19649231248104	-0.24941805525146066	-0.47646617466073593	0.22704811940927527	91.69220717782417
12	5.0	ltm	210	diff_vonmises	0.2544670386321836	14.579887338816594	0.7493877274846205	96.82448558554596	0.7196140824553966	98.56876755713704	0.04723488338235882	-0.40711215026301417	0.454347033645373	95.20739679116721
13	5.0	perception	210	diff_vonmises	0.07833497860635248	4.488263662391592	2.469561649833986	2.16073468750146	2.5905782280159533e-13	3.945343630990199	0.636278375345236	-0.6188665459236249	1.2551449212688608	87.52781667911185
14	5.0	wm	210	diff_vonmises	-0.004918560548365855	-0.2818127607009153	0.4230291700234691	137.50111910408108	0.40447167867309053	139.8019240830952	-0.05746856790080557	-0.5441789431468642	0.48671037524605865	124.66440142164687
15	6.0	ltm	210	diff_vonmises	-0.275043511380495	-15.75883238456079	0.0001531122220533189	6481.142927161929	1.2587593487929353e-31	6482.90720223559	-0.12285228748760346	-0.4387218198564824	0.31586953236887894	177.83832183369464
16	6.0	perception	210	diff_vonmises	-0.08878946437956928	-5.087261574176478	1.4415069291094245	1.6959154728771688	9.026785848980643e-18	3.536314013844822	0.15430950063174165	-0.5226868660541506	0.6769963666858922	112.28510501829803
17	6.0	wm	210	diff_vonmises	-0.21738743052061668	-12.455382288024756	0.16911657507867983	188.51306574128517	0.15993600974142796	190.7319581430033	-0.11569579035959521	-0.5501427050553787	0.43444691469578345	158.09181494343449
18	7.0	ltm	210	diff_vonmises	0.12245208861463258	7.015987870180407	1.0579164527989136	162.55701272130293	1.0376944575226752	164.392835808744	-0.021346065782203993	-0.4149934642426345	0.3936473984604305	77.12477382793949
19	7.0	perception	210	diff_vonmises	0.09793888557896456	5.6114847938893515	1.8169258403393673	1.6654006889527848	2.0135422981698983e-19	3.145642801410142	0.30987994105121963	-0.4792334153291741	0.7891133563803937	101.45743032654087
20	7.0	wm	210	diff_vonmises	-0.008165381722204393	-0.4678419107955753	1.7348659691816448	1.1119696475463037	0.26995587110378577	3.387244298132636	-0.16730626421428763	-0.43729342599280824	0.2699871617785206	80.79172125164112
0	1.0	ltm	211	diff_vonmises	-0.17516679835423365	-10.036318256516722	1.5903573680175684	184.9937659178327	1.5734521945264541	185.47725731426584	0.322009005796005	-0.22646506572473868	0.5484740715207437	70.67335059561907
1	1.0	perception	211	diff_vonmises	-0.02738051667376714	-1.5687880462944361	11.68870946755114	0.673731280412873	1.8014090714064786e-20	1.1223867426359757	0.7297572034061577	-0.17863339808737128	0.908390601493529	39.67555323943671
2	1.0	wm	211	diff_vonmises	-0.34801851423292035	-19.939992057959905	0.0005229881935900651	1826.6438443088946	1.7855167437453255e-25	1827.1239463319648	0.07565199441580717	-0.2284334565268864	0.30408545094269357	176.53635346917568
3	2.0	ltm	211	diff_vonmises	-0.07026227177777795	-4.025731631867832	5.155083751292635	0.3809550052965532	5.977172050717945e-19	0.5922182620945046	0.24150124694582453	-0.09424328552106656	0.33574453246689107	60.110240887997605
4	2.0	perception	211	diff_vonmises	-0.052294139002766214	-2.996233458128972	7.300618200337868	1.027332637042577	6.345475202333226e-14	1.1559775485409534	0.903097180147171	-0.1839790454761761	1.087076225623347	50.340744334340116
5	2.0	wm	211	diff_vonmises	-0.13472660821744428	-7.719266038972113	4.221839923537908	0.48147456219060364	0.30829996412418453	0.7124066172269865	0.23047561667932065	-0.10567412131879766	0.3361497379981183	62.52232288996336
6	3.0	ltm	211	diff_vonmises	0.024105154074836026	1.3811235930006829	1.3723733791340549	43.501042937667464	1.3454465305774352	43.53930035940795	0.19515110362813104	-0.07435856731166668	0.2695096709397977	80.08481888569978
7	3.0	perception	211	diff_vonmises	0.05054711745228104	2.89613649656777	5.164067328088899	1.5399727425756977	0.2612986426758221	1.2811694021772828	1.098174564841023	-0.19304960426547788	1.291224169106501	58.428831049288846
8	3.0	wm	211	diff_vonmises	-0.11931618602101164	-6.836313886601798	2.687050322985708	1.0532998769892075	0.8452978719373551	1.092266738954681	0.3063835664691331	-0.10246276184625255	0.4088463283153857	70.86991781601287
9	4.0	ltm	211	diff_vonmises	-0.3668895609606209	-21.02122339045131	1.4473791209617466	89.9400247305836	1.4319753939997997	90.18287470833025	0.14307464456960162	-0.10539602797052616	0.24847067254012778	73.9589400276072
10	4.0	perception	211	diff_vonmises	-0.07369349058221276	-4.222325987947872	2.0211381595830358	3.5948132909282595	0.5156407343741575	4.134763794593085	0.8339982548522946	-0.39319834230837525	1.22719659716067	82.64506376943686
11	4.0	wm	211	diff_vonmises	0.004184268081700287	0.23974090143272755	1.3053486908495036	105.64886030275116	1.2870917837837679	106.41813633741961	0.046875691554632226	-0.2014082251540099	0.24828391670864214	71.74349627628246
12	5.0	ltm	211	diff_vonmises	0.4146856638169262	23.759738361290783	0.9419075290661214	79.90785135936328	0.9223738578446108	80.00477036019885	0.2650662012100753	-0.12528692902948446	0.39035313023955975	96.0020116622247
13	5.0	perception	211	diff_vonmises	0.05849480142892631	3.3515052453332945	3.006421100998001	1.7246542722993392	2.640208262088966e-15	1.6864074047208752	0.8624887859158645	-0.2656323371487439	1.1281211230646084	79.24948080829708
14	5.0	wm	211	diff_vonmises	0.0019026530076194017	0.10901398721446418	0.5053332375010564	101.17663635164048	0.4910802049364596	101.2855732132378	0.24275506241565026	-0.1728929736280964	0.41564803604374667	126.94494084991332
15	6.0	ltm	211	diff_vonmises	0.5396855661303381	30.92170520339686	1.4667957833705765	43.222231864754804	1.4456973185034225	43.422688735054535	0.07605142752993288	-0.0738937558190722	0.14994518334900508	72.17767697234677
16	6.0	perception	211	diff_vonmises	-0.23969478161966	-13.733499358116458	1.670703288487655	1.5913035492679029	2.4141411744376008e-11	1.688887667218473	0.46712667105216343	-0.24275171653901564	0.709878387591179	105.26719147600407
17	6.0	wm	211	diff_vonmises	-0.3764589179647278	-21.56950715944059	1.2387252423511173	1.292644893776508	0.005121871191363173	1.6629944804251788	0.2332607058332355	-0.2213979678023881	0.4546586736356236	118.26773267480432
18	7.0	ltm	211	diff_vonmises	-0.00959041533011014	-0.5494903221928752	1.839179550479674	40.87504638033221	1.7984440063935034	40.99647448024757	0.21234944353293272	-0.10207472226846104	0.31442416580139376	67.63364703871628
19	7.0	perception	211	diff_vonmises	-0.012301658496928823	-0.7048331128852695	3.1571910297026973	1.2010273225093993	3.949720567558154e-12	1.429615685476851	0.5821950033905002	-0.22606460929780858	0.8082596126883088	77.29473440293708
20	7.0	wm	211	diff_vonmises	-0.2394477002131205	-13.719342636325587	0.0002827729798155892	3310.0745760584987	3.1049166903391058e-30	3310.3955327236963	0.09789587385387222	-0.20003849223382986	0.2979343660877021	178.35014338597142
0	1.0	ltm	212	diff_vonmises	-0.09294874823619753	-5.325570984958174	0.9256386823901736	279.5980223829576	0.9110511635031022	283.115226713698	-0.3664256781671327	-0.6895803302807906	0.3231546521136579	73.80956786531448
1	1.0	perception	212	diff_vonmises	0.06720584442710285	3.8506112442857976	8.101604136524625	0.9546217530216047	2.900367901987127e-15	3.7419211890696795	0.4706412459459647	-0.5955451559758361	1.0661864019218008	47.74932725515228
2	1.0	wm	212	diff_vonmises	0.013918015150408492	0.7974435273175442	7.051653617570227	0.29940291952707243	0.018875523663536422	3.6539422148203355	-0.28144221171413153	-0.5826703477887751	0.3012281360746436	50.3012091231609
3	2.0	ltm	212	diff_vonmises	0.1467388884100942	8.407518996339547	4.092380815613366	0.5164944515805732	0.03396375398636289	2.630589601948086	-0.030967452292463504	-0.412793843315019	0.3818263910225555	65.75325372419763
4	2.0	perception	212	diff_vonmises	-0.01758274837918855	-1.0074172743679928	8.12208271623535	1.336493898146012	0.11814712321055659	3.285177395810656	0.908306045525244	-0.5354147713756763	1.4437208169009201	46.767371083595066
5	2.0	wm	212	diff_vonmises	0.048055825321135254	2.753395971918964	3.85742197356483	0.5830804133140031	0.09839259068558852	2.710817294459198	-0.03542434966072938	-0.42126383707478354	0.38583948741405416	65.22367976381858
6	3.0	ltm	212	diff_vonmises	0.24429124723244897	13.996857438406279	6.250111963675629	0.33689778844183327	0.08704665253983727	1.215860098027615	0.11799646406312905	-0.19437660642327192	0.31237307048640095	52.968548157625776
7	3.0	perception	212	diff_vonmises	0.07616342649893382	4.363842891643763	5.855758794342986	1.7548634402151302	0.027817986660992104	2.3956440634924014	1.2623866511330983	-0.37765620919558845	1.6400428603286867	56.035064342529836
8	3.0	wm	212	diff_vonmises	-0.18428030244748267	-10.558483577635092	8.70566030374886	0.30185842040498345	0.006336537510746881	1.3512018252283293	0.13341292741610494	-0.21504731824676718	0.34846024566287215	45.939220619139775
9	4.0	ltm	212	diff_vonmises	0.29345376767585146	16.81366237003887	0.051505855501628894	83.31396794428457	0.041366740134743375	85.15793776283276	-0.16825183913509711	-0.4127140862830885	0.24446224714799136	171.9089164773583
10	4.0	perception	212	diff_vonmises	-0.010630271363044006	-0.6090696841812024	3.268702815825354	2.1133578344719144	0.14941395571050034	4.6513174520661975	0.5981154157016021	-0.6859966893048289	1.284112105006431	71.31795108096344
11	4.0	wm	212	diff_vonmises	0.38728224642425463	22.18963820045531	0.7521092699122788	143.7058945167922	0.7376353803921747	145.85656325019193	-0.23040107412499822	-0.4011425901641168	0.17074151603911858	80.94963293545896
12	5.0	ltm	212	diff_vonmises	0.3814355061532672	21.854644659018554	0.7219896426488627	136.40576216714098	0.7034872029816227	137.9465192723649	0.0418364660386743	-0.36087768380179597	0.40271414984047027	96.73427320776483
13	5.0	perception	212	diff_vonmises	0.06004651913614966	3.4404121209529093	2.7378966891930405	2.3365965425510424	4.258319461019355e-15	3.7510496852819792	0.8549598533132259	-0.5909179050668039	1.4458777583800297	83.10683260583608
14	5.0	wm	212	diff_vonmises	0.11370206768524888	6.514648600275582	0.6023104385834516	12.17602074141917	0.3967974403835448	13.966922909209082	0.05951180070197548	-0.46669440347597246	0.526206204177948	117.74259545407975
15	6.0	ltm	212	diff_vonmises	0.3485117663395313	19.96825332190465	0.7615713959848547	86.32127173483131	0.7389781064235867	87.62263722883942	-0.007678725542540121	-0.2862397607453193	0.2785610352027792	92.23158725240401
16	6.0	perception	212	diff_vonmises	-0.180359598238592	-10.333843773746478	1.2083000789599605	2.0271240487203532	3.933155837568442e-17	3.119373921006848	0.2751843264267836	-0.4276110755912202	0.7027954020180038	120.21297215913772
17	6.0	wm	212	diff_vonmises	-0.22919698095994012	-13.132019686144856	0.24186453015689824	160.64289513837124	0.23169393662837903	162.15481841581862	-0.012609766905015363	-0.4144823674920879	0.4018726005870725	149.2373052399189
18	7.0	ltm	212	diff_vonmises	0.29235627644271106	16.750780754327316	0.8922966268977371	99.9022207355863	0.8705050400255695	101.2596031039119	-0.015462199757891426	-0.29772617942731117	0.28226397966941974	84.40332783338764
19	7.0	perception	212	diff_vonmises	0.009630777748876782	0.5518029184391434	0.8705285418849529	238.54167778511	0.8526270448835334	239.62798037396553	0.47373952245321505	-0.42596898336534395	0.899708505818559	95.48446189851094
20	7.0	wm	212	diff_vonmises	-0.09476145829011925	-5.42943162052882	2.0014246750842455	0.4176014397634626	3.4916542945098e-11	2.073649958991223	-0.11451652155270106	-0.3260951327659446	0.21157861121324353	96.97786214670055
0	1.0	ltm	213	diff_vonmises	0.05437871138869152	3.115670657932008	3.711597121754155	0.5916834945768686	0.03464027371396312	3.7545578573735177	-0.18181397282853407	-0.5881938587586123	0.40637988593007823	68.4203744954307
1	1.0	perception	213	diff_vonmises	0.04687404850202601	2.685685147857609	11.946547995729302	0.7170650944390777	0.06566831425191155	3.9397857169979624	0.308945546963427	-0.6449763765339503	0.9539219234973774	38.68209741485478
2	1.0	wm	213	diff_vonmises	0.12130242677172236	6.9501170987144185	3.030506709906043	0.6561440200938531	0.08001131818896619	4.176441080737284	-0.2866896790577296	-0.6430548881758279	0.3563652091180983	71.75815836317602
3	2.0	ltm	213	diff_vonmises	0.03113373113518296	1.7838313945410291	2.7346056314034706	0.8626805630106394	0.17982104006955435	2.3294899142554963	0.09550607692574681	-0.33491103304681274	0.43041710997255955	75.00158563231173
4	2.0	perception	213	diff_vonmises	-0.04795526574741259	-2.7476343327550206	7.1817267519721355	1.1671620268628509	0.15505343261418045	2.7334996928293505	0.7194680971442785	-0.4451905274291219	1.1646586245734003	49.38694459436158
5	2.0	wm	213	diff_vonmises	0.06150914921543188	3.5242146514846655	5.155511185177095	0.48408425030795793	0.04778320837562741	2.4462496589774156	0.018437900258602036	-0.386884589928073	0.40532249018667504	58.430865695811235
6	3.0	ltm	213	diff_vonmises	0.14419159794599015	8.261570003552466	1.6139839740213955	1.5710379432565968	0.31653613849971807	2.718306983073639	0.13230675749762777	-0.29755185986420957	0.42985861736183734	89.47434484694611
7	3.0	perception	213	diff_vonmises	0.023377581895798555	1.339436777850699	4.987156848402869	1.8414572856305131	0.1109892312899118	3.0924379798384725	1.046208185472232	-0.4797776796328094	1.5259858651050413	59.66638835764962
8	3.0	wm	213	diff_vonmises	0.08055994322130396	4.615744744394262	3.144774360094619	0.8172222849481686	0.19435850947352923	2.6070235028043807	0.05051773528740455	-0.3874130591061024	0.43793079439350696	69.50154097370768
9	4.0	ltm	213	diff_vonmises	0.12119705928359759	6.944079986346974	0.7416320849607322	181.98656779127364	0.7259546747070103	184.21442887518893	-0.10052996590488306	-0.4574480397013758	0.35691807379649276	90.19365311217791
10	4.0	perception	213	diff_vonmises	-0.03713539930355785	-2.1277016506269217	2.489526684999677	2.5301900465876472	0.16304586435130458	4.702486488283133	0.6123757830390948	-0.650947719574141	1.2633235026132357	80.71719252631965
11	4.0	wm	213	diff_vonmises	0.15708396615625184	9.000248289929091	0.6839525463468035	155.7659688353778	0.6626475159912546	158.7237660773632	-0.18895219924529272	-0.5859945842026093	0.3970423849573166	92.28431856087943
12	5.0	ltm	213	diff_vonmises	0.02106747318714925	1.2070772986286773	1.9009918883292405	1.119136038027339	4.079956701156235e-15	2.675686547432753	0.1340069127304876	-0.4133488477105199	0.5473557604410075	99.37002078988189
13	5.0	perception	213	diff_vonmises	0.012333968305086216	0.7066843285295655	2.028225470401225	2.2948827367941997	1.5734129222108495e-12	3.6702537458271927	0.6097906409285574	-0.5634705922195127	1.17326123314807	96.37519794304859
14	5.0	wm	213	diff_vonmises	-0.04133762915767756	-2.368471685811856	0.5699910136236197	244.55296118902987	0.5580993630855166	246.44509876920733	0.06079415018282219	-0.47083503163087315	0.5316291818136953	109.87471678460855
15	6.0	ltm	213	diff_vonmises	0.33107314710259933	18.969094039092802	0.4204228743013283	135.85956835436502	0.4057667473038192	137.31547645864478	0.03252183422659627	-0.3899160595536717	0.42243789378026797	126.94151649875326
16	6.0	perception	213	diff_vonmises	0.0015386813898278179	0.08815994965245773	1.2109437817202549	2.6597653850588903	0.0795828339686843	4.256105406132359	0.28145555013444457	-0.5345945947384328	0.8160501448728774	114.92150024381905
17	6.0	wm	213	diff_vonmises	0.0922704961692134	5.286710004073958	0.5382499172914792	277.0073257385828	0.5275957721707315	278.87185122989484	0.08455563613321715	-0.486786039413559	0.5713416755467762	113.97818530861724
18	7.0	ltm	213	diff_vonmises	-0.00031062959246059814	-0.01779776463986105	1.0271270741370229	103.0003655292123	0.9850257483966356	105.46593698408125	-0.015634764823055036	-0.5559052771129416	0.5402705122898865	79.06234948796572
19	7.0	perception	213	diff_vonmises	0.12207201642526241	6.994211337819199	2.042501884722312	2.067861277408439	0.1195625972253283	4.076496217230024	0.351824660797026	-0.561059088457135	0.912883749254161	89.29889840219937
20	7.0	wm	213	diff_vonmises	0.18259400264259718	10.46186571582142	2.20244794722556	1.4058728533671936	0.27737655266892647	4.0629363044584395	-0.06863024187915456	-0.549593987740961	0.48096374586180646	76.35805303738371
0	1.0	ltm	214	diff_vonmises	-0.14982719545024903	-8.58446595558096	0.6908300561311645	60.147155646231056	0.6566580341063337	62.93681457446464	-0.37958163983811843	-0.49590668942936134	0.1163250495912429	76.58187151858922
1	1.0	perception	214	diff_vonmises	0.0791011372281455	4.532161317857892	10.452597112944673	0.9381011474307136	0.1165049897288664	3.59042730814236	0.554531016680466	-0.5972450498253893	1.1517760665058554	41.13149394373659
2	1.0	wm	214	diff_vonmises	-0.043194520182834394	-2.4748637045690636	3.1526010535070044	0.509436963858881	0.1580639348360289	4.005991147387952	-0.39895130586705424	-0.6268901310548707	0.22793882518781644	64.38558670155155
3	2.0	ltm	214	diff_vonmises	0.30592349400671	17.528125060480217	3.675684788351014	0.4080278509070752	0.044933893528835214	1.938659831447319	-0.02311579316426493	-0.30199563928694245	0.2788798461226775	68.79609788495273
4	2.0	perception	214	diff_vonmises	-0.004451588809366181	-0.2550572509043494	9.008475320134885	1.3100169961869614	0.29860952179541084	2.955845271898288	0.9252515685321866	-0.5171285601907798	1.4423801287229665	43.61722930947124
5	2.0	wm	214	diff_vonmises	0.1945700091993844	11.14804034694633	6.548633638281787	0.29124519825244277	1.048956037902836e-11	2.358473515753557	-0.08417483798144798	-0.37536212097739474	0.29118728299594676	53.2043596265768
6	3.0	ltm	214	diff_vonmises	0.27221821939735297	15.596955078034606	5.3068058847760105	0.30602134630170696	0.19421210010411086	0.9569031631179691	0.09065537544638105	-0.15330082330507327	0.24395619875145433	55.806680896308166
7	3.0	perception	214	diff_vonmises	0.03492564386107893	2.0010919900168154	6.864870406723969	1.5674049379586075	0.18231142563094432	2.3783902851094534	1.1557390385259287	-0.3836352984766688	1.5393743370025974	50.733789188114685
8	3.0	wm	214	diff_vonmises	-0.05447014131666503	-3.120909206926075	9.767453883331527	0.26697357417923645	0.3056547867240114	1.5400077932025815	0.003294027511051345	-0.2814801134708887	0.28477414098194004	40.43038172118574
9	4.0	ltm	214	diff_vonmises	0.2742222855263307	15.71177960909015	0.9873280943519906	223.29744895726333	0.9758187376180777	225.23987510712467	-0.16793756482323374	-0.39518058724933525	0.2272430224261015	73.77708637115305
10	4.0	perception	214	diff_vonmises	0.00986460481741312	0.5652002226021918	4.238683788267754	1.49434638760474	0.08819359862500936	3.579394801550707	0.5646017309054635	-0.552392803199559	1.1169945341050225	64.32536427483274
11	4.0	wm	214	diff_vonmises	0.25995666665906386	14.894419855853561	74.27630192118386	0.07440389148044803	0.020230613833314745	2.4325396961859007	-0.13966978233051108	-0.39407719837747324	0.25440741604696215	15.639187883443498
12	5.0	ltm	214	diff_vonmises	0.16273399388922552	9.323971033160351	0.7347713504110512	91.2484864834117	0.7069275339286745	92.88202950835111	0.017641904679322806	-0.3710237994800565	0.3886657041593793	95.25947251301733
13	5.0	perception	214	diff_vonmises	0.044472156887857946	2.548066895517914	3.3678014498978848	1.6950704831903913	3.4604901714015604e-13	3.4264918142468113	0.6396495008229068	-0.543935210804993	1.1835847116279	74.78359774792187
14	5.0	wm	214	diff_vonmises	0.08734890484491802	5.004723592703631	1.0069705340706923	1.4088654589098846	3.10094615530878e-14	3.7684545228971555	-0.11648683226734519	-0.5352686380037377	0.4187818057363925	128.21268580833427
15	6.0	ltm	214	diff_vonmises	-0.26515270750947945	-15.192131066759941	0.026440294180764524	50.64379559523836	0.0027768997157749955	52.50845811689532	-0.10548347157493154	-0.48527221147515753	0.379788739900226	176.3752915010987
16	6.0	perception	214	diff_vonmises	-0.0186010433059933	-1.065761275973488	1.4084512803362428	1.5600032847056151	4.991942708523541e-17	3.5180394054782194	0.09058790574902753	-0.5210192624463497	0.6116071681953772	113.39051209692104
17	6.0	wm	214	diff_vonmises	-0.006073921819063654	-0.348010085324771	0.2373231847945273	223.29919466552448	0.22802270864657584	225.50756851569875	-0.07183926044314859	-0.564474221666373	0.49263496122322437	149.8843478967731
18	7.0	ltm	214	diff_vonmises	0.281002813879749	16.10027526660981	0.8218486807064932	188.94601489648082	0.8064597467751676	190.88409379839953	-0.035665538102463756	-0.4178895223986885	0.38222398429622473	87.51546814581295
19	7.0	perception	214	diff_vonmises	0.0725333398279887	4.155854246131913	1.814581464909737	1.5620250463435306	1.001155687839813e-13	3.3720988355216006	0.22295698342768067	-0.5165262208688577	0.7394832042965384	101.52481962339422
20	7.0	wm	214	diff_vonmises	0.26773723022635176	15.34021331049241	0.9452780652461503	174.82425931406712	0.9287195919602717	176.96046851284922	-0.15088276081142027	-0.436867451261417	0.28598469044999675	77.18010193237731
0	1.0	ltm	215	diff_vonmises	0.013959087490913166	0.7997967990831863	4.275046220311004	0.614205429372973	0.055115846450000436	3.930048553223471	-0.1708167940637691	-0.6183095925719526	0.4474927985081835	63.053872349090824
1	1.0	perception	215	diff_vonmises	0.04607199590118669	2.6397309188820253	13.56532265527345	0.7142791755453722	0.07612792301816455	4.106161316205548	0.33504883396901686	-0.6785522997564618	1.0136011337254787	36.27968946346408
2	1.0	wm	215	diff_vonmises	0.11481624328341725	6.578486159687094	2.2559755208190713	0.9616531780683626	0.14734866757275591	4.698537605081146	-0.328535335993576	-0.6884062728309529	0.3598709368373769	77.11924665173527
3	2.0	ltm	215	diff_vonmises	0.024767720458858385	1.4190858504524082	2.765669980523404	0.8196167805404011	0.15292938943591253	2.249951884505411	0.09746191798101927	-0.3267446546697148	0.4242065726507341	75.51426906930868
4	2.0	perception	215	diff_vonmises	-0.05219316916242783	-2.9904483124194727	7.167047744811925	1.1661547112068966	0.18401842330732157	2.6512174017955785	0.7192317197604885	-0.43464321285062096	1.1538749326111095	49.25270454636177
5	2.0	wm	215	diff_vonmises	0.05229148071789443	2.996081149625075	5.001305689520606	0.48897683698009614	0.055669060834742184	2.435063276762094	0.014647104627311502	-0.384723084623959	0.3993701892512705	59.06761271254888
6	3.0	ltm	215	diff_vonmises	0.10721909179719172	6.1432014432048305	1.2709951360142864	2.396047181697056	0.4296216212055592	3.5037364699702183	0.1209867375867052	-0.2903142182099649	0.4113009557966701	93.29224386106583
7	3.0	perception	215	diff_vonmises	0.026106035277282624	1.495765641207934	4.9852269022509725	1.8091524363824396	0.13415766731654755	2.9673918628876033	1.028360501770909	-0.45960758361631204	1.487968085387221	59.46303558359699
8	3.0	wm	215	diff_vonmises	0.08974649723757008	5.142095517795267	3.1123064579350257	0.8398217168644648	0.21821902608301008	2.5739767032518945	0.05810351802328084	-0.38006787216613175	0.4381713901894126	69.29094454328666
9	4.0	ltm	215	diff_vonmises	0.04952261025424607	2.8374365580395926	0.8107507607090543	176.729943764823	0.7942458208132833	178.88851793635735	-0.09603824269493089	-0.4460383042074767	0.3500000615125458	86.12157841379872
10	4.0	perception	215	diff_vonmises	-0.0355809858085846	-2.0386403177467742	2.381899613084969	2.6694907262691925	0.20471457343761096	4.664807873299156	0.6274139947112611	-0.6226026533706489	1.25001664808191	81.30619821250309
11	4.0	wm	215	diff_vonmises	0.16400359946177065	9.396714074113477	0.698891716827666	185.8061104643079	0.6806140208525213	188.69543379881011	-0.16453232333380896	-0.5800722908860649	0.415539967552256	91.93913100832486
12	5.0	ltm	215	diff_vonmises	0.0018760099556277975	0.10748745278199763	1.904023038470133	1.1198445214620896	3.28141291685255e-17	2.7504999132689303	0.1230012893319195	-0.4253115376296076	0.5483128269615272	99.2975369539665
13	5.0	perception	215	diff_vonmises	0.023579768604461877	1.3510212229307486	1.7976288535264757	2.7314756446287327	0.10156555197715357	4.1695856470873505	0.5881119244530308	-0.5617156319784344	1.1498275564314653	96.87774253339617
14	5.0	wm	215	diff_vonmises	-0.046584338457149176	-2.669085985003621	0.5529745041886679	260.4817896881406	0.541619218426566	262.4705300165208	0.05030707960645486	-0.49196075165664865	0.5422678312631035	111.28149634527195
15	6.0	ltm	215	diff_vonmises	0.35512342277051134	20.347073330990337	0.4625942814798491	130.1545853197826	0.44647023433219807	131.75350816297626	0.010635386302276117	-0.4011239429270237	0.4117593292292998	121.0540861688554
16	6.0	perception	215	diff_vonmises	0.017974966332696195	1.0298897077532392	0.935269188916594	4.490524469264153	0.21056810335226578	6.232810861507884	0.2683092594353269	-0.5669171157956547	0.8352263752309816	117.1236076705948
17	6.0	wm	215	diff_vonmises	0.0678233568728572	3.885992101224323	0.5223787314932404	296.3702811996078	0.511808893503002	298.35832780831686	0.09207616283782727	-0.5258354793599729	0.6179116421978001	115.86119375809392
18	7.0	ltm	215	diff_vonmises	0.01651823887008355	0.9464253722447332	1.0671608199125144	116.85707267626763	1.0291778138404397	119.30374886568073	-0.013722847702304364	-0.5572472825099499	0.5435244348076456	77.43389340971456
19	7.0	perception	215	diff_vonmises	0.1372882295080164	7.86603612763275	2.4258150166707773	1.5946209502620055	0.03198765892324677	3.584870595608949	0.33433277088044466	-0.5452310926236534	0.8795638635040981	86.40095904400218
20	7.0	wm	215	diff_vonmises	0.21991294444189238	12.600083576815388	0.930603168146747	82.60175209082051	0.8815085995941426	85.23179246552598	-0.06743249407135465	-0.5670713376930365	0.49963884362168187	82.28379602159706
0	1.0	ltm	216	diff_vonmises	0.06181973893721226	3.5420101317028236	2.9515408553554487	0.8082970744390063	0.22188738485178783	3.090999794475917	-0.08221584427414985	-0.46002666750961285	0.377810823235463	68.94262130230163
1	1.0	perception	216	diff_vonmises	0.06044821986896765	3.463427877570693	10.164484819738378	0.7723676669798832	0.11673473679090941	3.182944377453174	0.4020156821180718	-0.5291800023866857	0.9311956845047575	41.634232550983796
2	1.0	wm	216	diff_vonmises	0.13794386847572176	7.903601473366582	3.3096359586010413	0.503528643577026	0.06416390368791006	3.042363442615962	-0.16713944490679078	-0.47146883136188217	0.3043293864550914	70.36694173918224
3	2.0	ltm	216	diff_vonmises	0.04400752817911583	2.521445631466378	3.0969692970440925	0.8045120194033137	0.33755818775272095	1.7966058034311927	0.14691225008622233	-0.25451196254221303	0.40142421262843536	68.49394543507097
4	2.0	perception	216	diff_vonmises	-0.03756056319582238	-2.1520617472550336	7.918293813561614	1.0695007524419253	0.10243090145731547	2.028564192899316	0.8236680471798652	-0.3274494109898339	1.151117458169699	47.61706623517665
5	2.0	wm	216	diff_vonmises	0.07035618898392682	4.0311126914038224	6.253998081700077	0.39457048888484214	0.0684483400594418	1.762864829154038	0.08500817816860817	-0.2815656783333176	0.36657385650192575	52.99473871976346
6	3.0	ltm	216	diff_vonmises	0.18590652155658377	10.65165906915011	2.616255329561817	0.7253889870273668	0.22916249872499742	1.3485834954091314	0.17262120832551464	-0.18338941793140134	0.356010626256916	77.16502811505529
7	3.0	perception	216	diff_vonmises	0.02719365638983639	1.5580817406665879	5.922504792068802	1.4727330716055986	0.043775371907673506	2.1855441241918387	1.0333721266702796	-0.34413965208544656	1.377511778755726	55.55161515521573
8	3.0	wm	216	diff_vonmises	0.06836638728730815	3.917105452119602	4.2664838811154375	0.6346749271328386	0.2736395208819217	1.7236443773164756	0.1513788048199845	-0.2678429828345449	0.4192217876545294	60.475217220235635
9	4.0	ltm	216	diff_vonmises	0.09023661483028662	5.170177187323037	0.9707403433311895	162.7691574985604	0.9565078422575313	164.20095065854798	-0.03794446957363817	-0.3117037573839774	0.2737592878103392	79.63164727241914
10	4.0	perception	216	diff_vonmises	-0.06490139225518698	-3.718575860745262	3.2251645735699626	1.8494638672384038	6.059335801377037e-20	3.4890280438047006	0.7066827023173641	-0.5533019756007218	1.2599846779180859	76.45644586667598
11	4.0	wm	216	diff_vonmises	-0.0036160113633002832	-0.20718218978845324	1.0043326165132476	219.88371875057157	0.9886653096401256	222.05829671475635	-0.08652175990346223	-0.468896536469277	0.38237477656581476	77.37312855139797
12	5.0	ltm	216	diff_vonmises	0.014325222201111787	0.8207747727108128	1.8071301008767682	1.033745749764127	1.4505770093974915e-19	2.088767462909097	0.16903535656579527	-0.3189293263936152	0.4879646829594105	101.73058116789508
13	5.0	perception	216	diff_vonmises	-0.007569380659717268	-0.43369356532975023	2.3384259970265995	1.9744647371210233	1.8831763895089418e-16	2.755318168293014	0.6800578297434636	-0.42810906304394203	1.1081668927874055	89.93610947091668
14	5.0	wm	216	diff_vonmises	0.004796574962747261	0.2748235014835381	0.6051295840688902	222.10914323907778	0.5942065086718422	223.29284433920688	0.1461289072116827	-0.3459283429444824	0.4920572501561651	109.93964047872788
15	6.0	ltm	216	diff_vonmises	0.3833959969213663	21.966972505804993	0.6223093624648918	163.91660158616378	0.6108288291283007	164.79158417281099	0.12257550118215477	-0.26060717217994345	0.3831826733620982	108.80642291625509
16	6.0	perception	216	diff_vonmises	-0.03164877362344402	-1.8133411553883039	1.4402960074433915	2.1483160881428227	0.03711209438238415	3.0611734961711266	0.40251904633682034	-0.41835063840389725	0.8208696847407175	110.34290911088458
17	6.0	wm	216	diff_vonmises	0.052462801812942696	3.0058971253129	0.6438732095986722	230.7869789667177	0.6314531096341077	231.93374164593467	0.23293637859229221	-0.37401288014432765	0.6069492587366199	108.32745277258377
18	7.0	ltm	216	diff_vonmises	0.015119835498885573	0.8663027610182229	1.0151417039640864	142.39824119538983	0.9903149897444021	144.12891433302698	0.08039924163655598	-0.41793821669344666	0.49833745833000265	81.59271426134279
19	7.0	perception	216	diff_vonmises	0.06680475098044675	3.827630282602047	2.4597552350851246	1.8038328129028052	0.11608326684214682	3.4112771665671136	0.4452965461756011	-0.48437828775279673	0.9296748339283978	82.6334999578996
20	7.0	wm	216	diff_vonmises	0.3046477996681923	17.45503315893442	3.70866399788227	0.716638770537095	0.0745439214695923	2.4907174965058827	0.10204310605784161	-0.38404272739087436	0.486085833448716	68.06306938138718
0	1.0	ltm	217	diff_vonmises	0.059603681420337576	3.415039388827663	0.8287712804109152	68.58900632373876	0.7992879733997361	69.90452667087254	-0.013152078932577638	-0.28749253336	0.2743404544274224	88.09201774251218
1	1.0	perception	217	diff_vonmises	0.03755507917269606	2.1517475358751432	9.57933263218988	0.6731752316820886	8.727751617292707e-18	1.9826220790062952	0.5042208713796039	-0.3155441002376151	0.8197649716172191	43.86324034160768
2	1.0	wm	217	diff_vonmises	0.04967111921330655	2.8459454946136393	5.406052343924942	0.3017706587550858	5.731860031042324e-20	1.7290077832889308	-0.0024242679655737676	-0.2751746380012083	0.2727503700356345	58.66999002901824
3	2.0	ltm	217	diff_vonmises	0.07582267992624019	4.344319551144871	4.518302941011145	0.43527301363077053	0.0711354455602204	1.2792802240067513	0.13914048225271805	-0.19951437498211244	0.33865485723483046	62.419747698977034
4	2.0	perception	217	diff_vonmises	-0.01769680409103535	-1.0139521852861746	8.37524621506359	1.0220827281598919	0.010112143579673901	1.8434219381036487	0.8649925340806492	-0.29312719926958325	1.1581197333502324	46.87203384365188
5	2.0	wm	217	diff_vonmises	0.06137780546101418	3.5166892086911283	6.367847018177626	0.33469722959197123	0.059531386081074715	1.3626644465657487	0.09972187589464543	-0.21725593591799353	0.31697781181263895	52.79225713837067
6	3.0	ltm	217	diff_vonmises	0.2345313661909976	13.437657446181369	2.9119751291250853	0.8229906650020576	0.6070756419061137	1.2248054806564277	0.20299361613907396	-0.1507511363988418	0.35374475253791576	68.35885647466793
7	3.0	perception	217	diff_vonmises	0.02779888480608038	1.5927587745587557	5.681664952867823	1.6082399333867667	0.14626671283038153	2.035672789491436	1.1191300471901013	-0.3180467971023111	1.4371768442924124	56.0154060458475
8	3.0	wm	217	diff_vonmises	-0.022276114119660267	-1.2763273230083145	3.8915501920761897	0.5985002816440596	0.391360714030117	1.325032022964382	0.15298788190401402	-0.19951275923028783	0.35250064113430185	61.82980578786868
9	4.0	ltm	217	diff_vonmises	0.017905324602875073	1.0258995305564984	1.07375589821412	134.36717395000676	1.059151624970724	135.35519248953912	0.020170561786727603	-0.23336583602868544	0.25353639781541304	77.96189118208301
10	4.0	perception	217	diff_vonmises	-0.06011812238283977	-3.444514684787687	3.128949577478155	1.9109055848701988	0.08393643344926083	3.35463690179777	0.7020896038863729	-0.49948918586978736	1.2015787897561603	75.04652465423322
11	4.0	wm	217	diff_vonmises	-0.04669393150985222	-2.6753652043874596	1.0926313938031336	167.94110564715518	1.0774661769096674	169.50947373202806	-0.08116605599992965	-0.3416790404340695	0.26051298443413984	73.2664229831959
12	5.0	ltm	217	diff_vonmises	0.19815733642807604	11.35357905688272	1.6131780242645029	1.3951005236211929	0.2834013961085111	2.057121065159025	0.2054939850656996	-0.22293645190192402	0.4284304369676236	93.21707230312782
13	5.0	perception	217	diff_vonmises	0.009082932941335832	0.5204137231388901	3.0231543226381907	1.6833882989919449	2.454875152869825e-17	2.197113350608948	0.7575890410542492	-0.3470604490001316	1.1046494900543808	79.02839912017143
14	5.0	wm	217	diff_vonmises	-0.0022472241563232893	-0.12875645977717162	0.5588279539222254	133.59542153155076	0.5456355161826585	134.36013826749905	0.13659019444180842	-0.25525859783513916	0.3918487922769476	116.1211949484787
15	6.0	ltm	217	diff_vonmises	0.17385196023325578	9.960983581441779	0.5877689926139954	97.26970988071513	0.5752089651469819	97.79731637095153	0.09315974358627344	-0.17155826781769257	0.264718011403966	113.08425760954529
16	6.0	perception	217	diff_vonmises	-0.15540700374176677	-8.904165421177028	1.9094339776800882	1.361279851907694	1.9404704686194482e-13	1.9671796057880155	0.36974315893550413	-0.29809636879249996	0.667839527728004	99.12703205569736
17	6.0	wm	217	diff_vonmises	-0.10647534118359378	-6.100587672035403	0.605352318204505	148.42853593861577	0.5922771198758375	149.2463355229423	0.15130414958166938	-0.2661705120511808	0.4174746616328502	111.55398119893961
18	7.0	ltm	217	diff_vonmises	0.11303345411263098	6.476339864439413	0.9308617103087856	115.3888582971971	0.9103653747776154	116.34445891747121	0.13964543284959774	-0.2626309989711242	0.4022764318207219	88.37341318033577
19	7.0	perception	217	diff_vonmises	-0.008427523723186949	-0.48286154108499	2.5955223372167144	1.5912358743418173	0.005097257317705444	2.653760975593314	0.534036099797605	-0.4148726692455765	0.9489087690431814	85.16457079265774
20	7.0	wm	217	diff_vonmises	0.24127945251314695	13.824294312230483	5.473428402072661	0.40790758122652926	1.0750981738927778e-21	1.5412155214380723	0.12581920396667526	-0.24528553177973905	0.37110473574641434	58.29881320696475
0	1.0	ltm	218	diff_vonmises	0.027934027861443507	1.6005019012615658	1.2559447957151275	4.022872309709573	0.5436855566373457	6.267645211131442	-0.031219237897287755	-0.485472888522801	0.45425365062551326	84.88048207396102
1	1.0	perception	218	diff_vonmises	0.03703054928268326	2.121694186948949	10.061522706255506	0.6114504379875833	6.910833630385174e-17	2.924468595661816	0.2982100183659061	-0.46544363152475376	0.7636536498906599	42.788396973853594
2	1.0	wm	218	diff_vonmises	0.14600385589135292	8.365404735210802	4.77406331832163	0.42406236855138574	2.805757424766449e-19	2.7025783528899257	-0.07141542929192102	-0.43010311025609965	0.35868768096417863	62.52582753660366
3	2.0	ltm	218	diff_vonmises	-0.060821330495409213	-3.4848055417572765	2.4943944530984234	1.197871496774684	0.3521717483726598	2.357456544220945	0.18756741404266775	-0.3061149821266753	0.49368239616934306	74.83839444320199
4	2.0	perception	218	diff_vonmises	-0.0495676660424054	-2.8400180645437576	6.801660631185621	1.0848670003746064	0.038813923272717404	2.3291326599204902	0.7211317690737069	-0.36958510024693175	1.0907168693206386	51.749235592192406
5	2.0	wm	218	diff_vonmises	0.024822869069196212	1.4222456330707771	5.058961274822948	0.4909394347763788	0.09451160268801223	1.941491243695723	0.08945174839756725	-0.3068990148673749	0.3963507632649422	58.21861848236966
6	3.0	ltm	218	diff_vonmises	0.10264550872249242	5.881154435772094	0.9958470726630946	156.02082080319227	0.9788480175718245	156.8674913707664	0.2163341749252652	-0.2653478317443074	0.4816820066695726	87.12756094754508
7	3.0	perception	218	diff_vonmises	0.02945499509900352	1.687646904751426	4.578072751991747	1.8904770884369622	0.12194821135560992	2.7958850559285904	1.0628103700415688	-0.42789662259869915	1.4907069926402678	62.217338161195784
8	3.0	wm	218	diff_vonmises	0.05032623313420373	2.883480757381315	2.1237187068810344	1.3607787886347569	0.36749314034174474	2.601604297781076	0.14960748354988496	-0.3156959641688778	0.46530344771876275	78.87793146660985
9	4.0	ltm	218	diff_vonmises	0.0980568471070687	5.618243491594633	0.6351857140458249	158.0359937310204	0.6214530256115771	159.60243152448632	-0.010548966586384267	-0.34985808751056346	0.3393091209241792	101.30888262331396
10	4.0	perception	218	diff_vonmises	-0.07639253687085813	-4.376969948997699	2.349397854193701	2.7790368692812235	0.18927575618751685	4.596342277804795	0.7026980405814371	-0.6134951014115251	1.3161931419929622	82.57733193267643
11	4.0	wm	218	diff_vonmises	0.02001003803316396	1.1464907271965536	0.8804471803220209	208.06318863608436	0.8642910924900081	210.3001059037265	-0.06571022194520992	-0.47725282301441396	0.41154260106920404	83.64594658561933
12	5.0	ltm	218	diff_vonmises	0.07445057194435147	4.265703554746434	1.9659107532794768	1.072077395359511	1.6206121999004232e-08	2.1388486183878617	0.20692763796368813	-0.329675748688266	0.5366033866519542	97.8035091667845
13	5.0	perception	218	diff_vonmises	-0.010976385105936976	-0.6289005408804458	2.1315542223822046	2.250724891812426	1.518068329936918e-18	3.0782220069437365	0.7165880455505761	-0.47292702045674534	1.1895150660073215	94.1032986851881
14	5.0	wm	218	diff_vonmises	-0.05196842800336907	-2.9775715925225272	0.5990794270043365	214.69450493968392	0.5883026397564916	215.8133156574544	0.14301511569824754	-0.33086896214405215	0.4738840778422997	110.64581103711686
15	6.0	ltm	218	diff_vonmises	0.3428259678694002	19.6424810664042	0.5201292912725988	141.79467734623367	0.5091299160723426	142.64893759280181	0.07990332913701792	-0.2503135372703795	0.33021686640739745	117.78780969436718
16	6.0	perception	218	diff_vonmises	-0.12131198862831874	-6.9506649527417	1.5728319081937745	1.8876850138081824	3.668161439605533e-19	2.771872009911679	0.4003652638052628	-0.4049393585620995	0.8053046223673623	108.1975561931962
17	6.0	wm	218	diff_vonmises	-0.018658156633604303	-1.0690336285995465	0.6618612101410919	181.57050686972926	0.6482701862471818	182.69746354748995	0.15959675520552707	-0.3292457878264319	0.48884254303195895	105.45045526190447
18	7.0	ltm	218	diff_vonmises	-0.04672010608216093	-2.676864896911309	1.5027340255876351	4.481204147828975	0.7696796328117501	6.137078054061024	0.1152105827709673	-0.4142406581766752	0.5294512409476425	77.97470503281221
19	7.0	perception	218	diff_vonmises	0.031885154787132594	1.8268847984240504	1.7245104741426351	3.840815084547596	0.441229073319255	5.29401978540409	0.5625069081683192	-0.5115702027740574	1.0740771109423766	86.58668959247717
20	7.0	wm	218	diff_vonmises	0.21198446512023247	12.14581517372753	5.65867831916011	0.5801134564648304	1.2503754819809885e-26	2.3991908936902746	0.15531115345981444	-0.38183655810352596	0.5371477115633404	57.31705875963729
0	1.0	ltm	219	diff_vonmises	0.006246685345313109	0.3579087062326624	0.942917816946301	414.4982084521362	0.9299464210506218	418.2137021574151	-0.19832272794437245	-0.7763029483481318	0.5779802204037594	78.79754453329747
1	1.0	perception	219	diff_vonmises	0.04937833326092132	2.8291700952412473	8.663006616926031	0.7742379063301381	1.1868968279748508e-13	4.066556220952398	0.24798691602983325	-0.647212497173284	0.8951994132031172	46.15523711080016
2	1.0	wm	219	diff_vonmises	0.14309109204746628	8.198515660237796	5.504626305234784	0.43811226846464446	1.0086723107532875e-18	3.884754699901425	-0.21848913439432216	-0.6182712970951958	0.39978216270087363	58.13066209822097
3	2.0	ltm	219	diff_vonmises	-0.055217332889458175	-3.1637201305348643	2.6547507296080424	1.2215662340444864	0.25528069342101223	3.0555634093784616	0.1280332002134269	-0.42649959664935905	0.554532796862786	73.89740226036403
4	2.0	perception	219	diff_vonmises	-0.05944603863096785	-3.4060071223261077	6.316366451741241	1.2913769029577913	0.09306557733422892	3.0508233128266347	0.7350056146369015	-0.4855549422685119	1.2205605569054134	53.073615896545505
5	2.0	wm	219	diff_vonmises	-0.01047699239088737	-0.600287445988524	3.9291831341473347	0.6867411697546923	0.13076415559356513	2.650844915390259	0.044043390601363974	-0.4104387548085235	0.45448214540988746	64.33435402595876
6	3.0	ltm	219	diff_vonmises	0.07084386249986428	4.059054325647345	2.5023245787601973	0.8490635496671544	0.08953764202591147	2.02408511526751	0.14906516097004563	-0.2957130508213526	0.4447782117913982	82.0983875201016
7	3.0	perception	219	diff_vonmises	0.06431557111879456	3.6850107820804183	4.61718966119437	1.9473776654638233	0.04878142221393069	2.890382132203563	1.1353493416369862	-0.44913692275489225	1.5844862643918785	62.833298635271234
8	3.0	wm	219	diff_vonmises	-0.01308847503796318	-0.7499143799376201	2.4734245736883285	0.9582794838312818	0.12964801096844442	2.3279820913909597	0.14119055244941997	-0.3327384966259186	0.47392904907533856	80.7260408151011
9	4.0	ltm	219	diff_vonmises	0.1575513494014448	9.027027377293775	0.035087113422619554	109.85040055266232	0.023441171480227126	111.83358348413127	-0.1165322040826311	-0.5088643551862368	0.39233215110360575	175.74898510239427
10	4.0	perception	219	diff_vonmises	-0.04802407833992723	-2.751577003883463	2.1802218446638855	3.371647582779546	0.26691004433012694	5.703495330107189	0.6674570241849114	-0.7157601792728803	1.3832172034577916	82.56293006085718
11	4.0	wm	219	diff_vonmises	0.1582314838599855	9.065996211269574	0.7063435873624043	231.17172014348097	0.6929131546975595	233.69200374325172	-0.12200226312216955	-0.5140737207660528	0.3920714576438833	92.16154545369625
12	5.0	ltm	219	diff_vonmises	0.17366353227201478	9.950187454520416	1.714870081574441	1.3926465420044403	0.14111772400705436	2.9457790617613226	0.11716073147978001	-0.3871761554991248	0.5043368869789049	94.18415447293083
13	5.0	perception	219	diff_vonmises	0.024016817799294397	1.376062297234243	2.0144936579850055	2.776603962798431	1.6920045834317685e-10	4.019338762148386	0.7989129239854061	-0.6140991639248898	1.413012087910296	96.68747062922347
14	5.0	wm	219	diff_vonmises	0.01382755752396676	0.792260687097662	0.5639145418227473	229.84420088036228	0.5515896804647167	231.41613068214744	0.1306255639427647	-0.4371738600340507	0.5677994239768154	112.86236816995677
15	6.0	ltm	219	diff_vonmises	0.5272680014429817	30.21023115498065	0.7792466501894041	151.7079602691801	0.7652189373611127	152.93849240048985	0.04090765678321162	-0.288999727429724	0.32990738421293564	93.01490557526003
16	6.0	perception	219	diff_vonmises	-0.13341168139158974	-7.643926281482114	1.2209978388465008	2.4745654004511253	1.1635763561145616e-19	3.5334231531626497	0.38539847403130856	-0.47991497766810826	0.8653134516994168	119.82703869375048
17	6.0	wm	219	diff_vonmises	-0.07764979134524158	-4.449005324153809	0.5028288203230366	198.1227760335888	0.490993394222904	199.55445969260526	0.08719113340102069	-0.39658654654212455	0.48377767994314524	118.85799494584421
18	7.0	ltm	219	diff_vonmises	-0.01841853596139057	-1.055304375397612	2.3957249904803666	1.7486463554350888	0.6351772616041536	3.5723645566331608	0.03253876976468717	-0.4374510866023079	0.4699898563669951	67.4731767309238
19	7.0	perception	219	diff_vonmises	0.0471032640942766	2.698818233892159	0.9972573792130606	295.8220896769632	0.9791727341381932	297.12846531399066	0.5717697894432945	-0.49674602627214526	1.0685158157154397	89.00750643130118
20	7.0	wm	219	diff_vonmises	-0.08363791275070741	-4.792099407898948	1.5880373239369998	0.9332941106018647	3.354689498488696e-32	3.041568946775909	-0.06558582566638782	-0.46660853377796085	0.40102270811157303	107.77121831477822
0	1.0	ltm	220	diff_vonmises	-0.03781098269514816	-2.1664097276741803	2.5479888455291655	0.972641994768119	0.06984015817456692	3.3603504007921696	0.006856610954936171	-0.5032305961527439	0.5100872071076801	80.93226567159928
1	1.0	perception	220	diff_vonmises	-0.00917485615422684	-0.5256805352768275	14.412847810289255	0.5813827919148571	1.00838758144731e-20	3.073543475052367	0.38304784016268634	-0.4891696368621614	0.8722174770248478	35.70117866706008
2	1.0	wm	220	diff_vonmises	0.14157067048054048	8.111401921372279	3.452854005571694	0.5715449043542665	2.821381383496744e-17	3.1418139262704767	-0.0948358049317991	-0.4996291815276946	0.4047933765958955	73.82591756806991
3	2.0	ltm	220	diff_vonmises	-0.03763121789705301	-2.1561099634383067	2.998416013572523	0.734471469338181	0.019094228205691385	2.0418502875453335	0.14969251789633842	-0.3178414566009538	0.4675339744972922	78.20006116830265
4	2.0	perception	220	diff_vonmises	-0.06888467293180774	-3.946801032131646	6.751492397511772	1.0795198125685888	0.07698711170218385	2.3878336362824855	0.6868344221118325	-0.3804405890050457	1.0672750111168783	51.574027108091855
5	2.0	wm	220	diff_vonmises	-0.0359713870686617	-2.0610086622657815	4.009616134043317	0.60404930902667	0.08656080077804143	2.2022629075712965	0.08355818353878541	-0.3414565624227863	0.42501474596157174	65.17847914368701
6	3.0	ltm	220	diff_vonmises	0.015245769639724372	0.8735182557848922	0.788306633280173	196.68899312483964	0.7753297542740274	197.72853786390186	0.17667797194642532	-0.30197482129641884	0.47865279324284415	96.79865442446157
7	3.0	perception	220	diff_vonmises	0.01523251762846194	0.8727589714694949	4.138811518205015	2.130818481899054	0.21275347785592127	3.1384959106895125	1.0580125448374131	-0.46732267654356174	1.525335221380975	64.18235282211342
8	3.0	wm	220	diff_vonmises	0.011010703651434287	0.6308668486964694	1.8118374957077565	2.0068558022840786	0.45199029617447267	3.440464398123666	0.15690833682432725	-0.36512856532082894	0.5220369021451562	81.35636309863958
9	4.0	ltm	220	diff_vonmises	-0.10431719710600368	-5.976935124808336	0.8175230386204208	124.08972618150823	0.7945649876162776	125.78321357115372	0.03155944729245164	-0.38756092720394086	0.4191203744963925	90.21277980736974
10	4.0	perception	220	diff_vonmises	-0.04597581018732377	-2.634219883428227	1.3548983916941306	8.580830279518771	0.6446820102248161	10.308066182105067	0.6710186809283294	-0.621773057027656	1.2927917379559855	88.78698039087934
11	4.0	wm	220	diff_vonmises	0.08934469455435191	5.119073919849834	0.800413595908316	270.8066686749662	0.7877401843584624	273.2186481152882	-0.07131267069709679	-0.5100920605652348	0.438779389868138	87.84318681318655
12	5.0	ltm	220	diff_vonmises	0.10321784798668124	5.913947060059736	1.9444215707614994	1.1144470357241723	3.0753599601464e-13	2.26656373147785	0.2044687768255659	-0.349165611658982	0.5536343884845479	98.30043012709729
13	5.0	perception	220	diff_vonmises	0.02351704833232123	1.3474276160471774	1.9422948159692206	2.291789737891151	6.333038904473689e-17	3.2897235719584095	0.6379203311288398	-0.4996980437907038	1.1376183749195437	98.37411986810221
14	5.0	wm	220	diff_vonmises	-0.07417389928877684	-4.249851379275332	0.5632291107239145	225.75500274981707	0.552184693564903	227.10827625162975	0.12258198293520195	-0.3821008782102595	0.5046828611454615	113.14489188273616
15	6.0	ltm	220	diff_vonmises	0.35681033594796474	20.44372633646342	0.4309082802791449	133.27714548337832	0.419964828297734	134.2770147326998	0.03714264999086936	-0.27533165234689605	0.3124743023377654	125.94362961743644
16	6.0	perception	220	diff_vonmises	-0.07895186013876258	-4.523608370658254	1.6488901147689319	1.776509742678485	3.630588675626204e-13	2.9506992439900084	0.3453758538004475	-0.43948856806360087	0.7848644218640484	106.01611390129338
17	6.0	wm	220	diff_vonmises	-0.046588907800280806	-2.66934778908021	0.5422075400828215	200.31740200085662	0.5301357371691783	201.75724846762913	0.09093240361012533	-0.3899690694297533	0.4809014730398786	114.43970339090669
18	7.0	ltm	220	diff_vonmises	-0.041454968153074985	-2.375194715020434	1.9010484231601656	2.94029938123214	0.7401182181771079	4.611574238332801	0.12336116561736965	-0.42649166203695804	0.5498528276543277	72.8585477152964
19	7.0	perception	220	diff_vonmises	0.09951629066226826	5.7018634477451355	2.5267454827269202	1.5888283351880155	1.0396437468958108e-17	2.9917804509649755	0.46607280868159107	-0.47013821832208186	0.936211027003673	86.52588557344626
20	7.0	wm	220	diff_vonmises	-0.4524542201884009	-25.92371723967822	0.00035552496289389143	3792.4497701364958	1.5649468452489335e-29	3794.4161288396895	-0.09834653591929055	-0.5275267331238638	0.42918019720457323	174.21386873159616
0	1.0	ltm	221	diff_vonmises	0.044092313012316524	2.526303444575498	0.8340906124812675	207.65720840702548	0.8147395457248743	210.9510599993387	-0.24227330456989193	-0.6538315040215323	0.4115581994516404	81.98883069436181
1	1.0	perception	221	diff_vonmises	0.0632829835095561	3.6258478700935513	9.621370679817767	0.7687674388151539	0.029607239457480755	3.840298819211985	0.3086936608357693	-0.6156310706240254	0.9243247314597948	43.392326181857555
2	1.0	wm	221	diff_vonmises	0.10447687635348345	5.986084071764751	4.6688354443615365	0.4388603311488852	0.03816515847445563	3.7990894447381356	-0.2610788943611615	-0.6012677323647546	0.3401888380035931	60.69874018999184
3	2.0	ltm	221	diff_vonmises	0.011199258493317809	0.6416702453431516	2.78133952934504	0.9356707014378923	0.2042783904972806	2.584435033360119	0.0874321630091609	-0.3713689827167922	0.4588011457259531	73.52773042588532
4	2.0	perception	221	diff_vonmises	-0.0390998776358192	-2.2402579680103956	7.116967951605239	1.233058015257653	0.12970103812186096	2.9323418457828483	0.7583959247150481	-0.47434334291838637	1.2327392676334346	49.782580967354875
5	2.0	wm	221	diff_vonmises	0.049703520354073265	2.8478019432309813	4.709986140122533	0.5172923727054094	0.07838778526883639	2.4766196162340495	0.00880214574620547	-0.390400497364856	0.39920264311106146	60.16369422701035
6	3.0	ltm	221	diff_vonmises	0.15401803256137173	8.824583234675089	2.896563428315675	0.7163672268159356	0.11780725897128648	1.7786579488853251	0.1424927710988838	-0.26166633247181625	0.40415910357070006	75.7036464366636
7	3.0	perception	221	diff_vonmises	0.04871396462359862	2.791104576281799	5.069784756704451	1.8392520087018587	0.08444303723904904	2.870495089943979	1.1104272470143266	-0.4462879650387375	1.556715212053064	59.54867811142657
8	3.0	wm	221	diff_vonmises	0.017853255406347145	1.022916185352811	3.0611232459534543	0.704255236796147	0.14966247634190538	2.18551037122584	0.06484497103406811	-0.3246774134377491	0.3895223844718172	71.87715344556958
9	4.0	ltm	221	diff_vonmises	0.2087443302543897	11.960169120861552	0.4451092191763052	167.6237152361451	0.43367358632070524	169.68205673464956	-0.12797878102393412	-0.43034568463751555	0.30236690361358143	116.77785493478129
10	4.0	perception	221	diff_vonmises	-0.04092297013477954	-2.344713473862781	2.659548208998488	2.473328117178447	0.1637402929582141	4.7569841333151555	0.6254548160483873	-0.6685175798177067	1.2939723958660938	78.26176908070201
11	4.0	wm	221	diff_vonmises	0.13963249477583245	8.000352633537716	0.686057659027264	175.38485029624675	0.6697508116031019	177.99837663813503	-0.18412080100745243	-0.5115895944654945	0.32746879345804203	91.10525683852734
12	5.0	ltm	221	diff_vonmises	0.11866104315358078	6.798776965319911	1.8016135947279839	1.256323369381861	0.11124504447360205	2.8136077642551256	0.1093659625931061	-0.38469660049913956	0.49406256309224567	93.74565043176716
13	5.0	perception	221	diff_vonmises	0.019167733063688016	1.0982302073826864	2.2217672033394877	2.388896633416254	1.6854035571580855e-16	3.7563021619051615	0.71499010581918	-0.582402600115825	1.297392705935005	92.21943141282702
14	5.0	wm	221	diff_vonmises	-0.0029595893938441156	-0.1695719813589494	0.5434914278931702	239.48079794210108	0.5320422445493761	241.24044787815257	0.07051851040296242	-0.4525761100417718	0.5230946204447342	113.15528501397691
15	6.0	ltm	221	diff_vonmises	0.3013468284112182	17.26590143761581	0.5173404765647875	128.7030368900642	0.5025145051872437	130.08773431803152	0.01486476353987598	-0.33863377565079134	0.3534985391906673	114.67985697685131
16	6.0	perception	221	diff_vonmises	-0.0918861912848647	-5.264690956154514	1.309644056255708	2.1795089595769213	1.2402753421462765e-19	3.5184666818864576	0.3101028718280542	-0.49658985913648457	0.8066927309645388	116.70395843185833
17	6.0	wm	221	diff_vonmises	-0.011761085448336607	-0.6738605586824151	0.4987473474855864	238.472241686074	0.4881731988222816	240.11977454748546	0.06793841358189212	-0.437778322318259	0.5057167359001511	118.42123304774489
18	7.0	ltm	221	diff_vonmises	0.035180881511377445	2.0157160301517565	1.0601697177787823	121.90708829322224	1.029448555592099	123.95988712866716	-0.007399031273727985	-0.4683534210312814	0.46095438975755343	77.66544579783306
19	7.0	perception	221	diff_vonmises	0.05168055712129685	2.961077805935081	0.9045912689464534	202.7076367758513	0.8792674246471943	204.36804272066604	0.4487538611554527	-0.5361651587871776	0.9849190199426303	92.06622967440805
20	7.0	wm	221	diff_vonmises	0.1594317440298195	9.134766053318717	2.4498664638472656	0.9391693191289887	0.17218562729085105	3.2299716178670073	-0.05920895210200505	-0.4646602819860733	0.40545132988406823	76.77539498124733
0	1.0	ltm	222	diff_vonmises	-0.0902139417839098	-5.1688781174569405	1.051832322781006	143.1743821863801	1.0129216974389004	146.90699849906852	-0.23387206223712553	-0.7909883788885352	0.5571163166514097	74.25196994415745
1	1.0	perception	222	diff_vonmises	0.06379328682162061	3.6550860961463947	17.28153526614384	0.6962487895798286	0.043892612450296756	4.257924304838272	0.4380187959547448	-0.6944251102729943	1.132443906227739	32.353172253694055
2	1.0	wm	222	diff_vonmises	-0.026313535214299622	-1.5076545118482385	0.7106453708832959	183.29011111250887	0.6901631013235175	187.4176500554262	-0.45124635355173837	-0.7603754614471221	0.3091291078953837	82.93709482088411
3	2.0	ltm	222	diff_vonmises	-0.03234781063717557	-1.8533930259985503	2.7251684447423843	0.7766410840666053	0.07734904926597777	2.2910574059376385	0.08796995360135607	-0.342407800399251	0.43037775400060707	78.75193450297522
4	2.0	perception	222	diff_vonmises	-0.04820612713204025	-2.7620076313369935	6.943288726018074	1.2525308493759837	0.2862028334769231	2.725487968014606	0.7252376866243078	-0.45654758374062454	1.1817852703649323	49.311409666903785
5	2.0	wm	222	diff_vonmises	0.019371840915448347	1.1099247258540352	4.149348952732967	0.4980712313084775	0.1124074776088796	2.4421105462074326	-0.04287793821767244	-0.3825811843528286	0.3397032461351562	62.54634833194601
6	3.0	ltm	222	diff_vonmises	-0.01282509979348441	-0.7348240900007603	0.8958329711712761	133.63845687301594	0.8805237039849916	134.54916798179028	0.09933454991786306	-0.2382900110736852	0.33762456099154825	89.09297254175195
7	3.0	perception	222	diff_vonmises	0.05990887759487316	3.43252584155209	4.704221955888944	1.875430875770702	0.31015482475302625	2.5937019553555536	1.0242809471202559	-0.3933848854153724	1.4176658325356284	59.727203518354685
8	3.0	wm	222	diff_vonmises	0.1116118560677674	6.39488829630468	2.1933394991817288	0.9388708003303058	0.33519768757420637	2.248485676072006	0.025381129211990816	-0.2910637631658686	0.31644489237785944	76.41727736398673
9	4.0	ltm	222	diff_vonmises	-0.17716267316445522	-10.150673459578893	0.789266210415847	149.70651013839426	0.7739031397187267	151.51424900202107	-0.10068107888469768	-0.36607842204596963	0.26539734316127195	86.2398067372313
10	4.0	perception	222	diff_vonmises	-0.028977592447205304	-1.6602937476750348	1.918748577231395	4.088892003122173	0.5287379783139822	5.605091331355721	0.6438721914392149	-0.5435449098270831	1.187417101266298	81.36565633137036
11	4.0	wm	222	diff_vonmises	0.14328950535925356	8.20988390560242	0.6954578838402962	187.12756606985175	0.6809578351384787	189.37191596936032	-0.1136227175470097	-0.455913144341654	0.3422904267946443	92.73659965796901
12	5.0	ltm	222	diff_vonmises	0.026516486407580635	1.5192827586703843	2.525958721822236	0.8354734284331262	0.01030138585507818	2.8403127406467097	0.03862834539383608	-0.44423594517906717	0.48286429057290325	85.64917944764713
13	5.0	perception	222	diff_vonmises	0.07015762186606206	4.019735633600095	1.1451103641826286	11.700101882795602	0.6453035778393327	13.588724947540637	0.5915206091467264	-0.6410465004976929	1.2325671096444193	92.9278718690897
14	5.0	wm	222	diff_vonmises	-0.08170549879027289	-4.68138024369389	0.418722930870294	281.616218633439	0.409281389852406	283.97290806769865	-0.05259687152704373	-0.5614353103004035	0.5088384387733598	124.80968161287014
15	6.0	ltm	222	diff_vonmises	0.4501079432048173	25.78928547095019	2.7054424738469343	0.6862762538708098	0.16932532012159435	2.997145097506393	-0.1374513281451366	-0.4453313147794279	0.3078799866342913	72.29515495576325
16	6.0	perception	222	diff_vonmises	-0.08771078358612404	-5.025457717270243	1.049557597295537	2.916677606058583	0.029805127324735337	5.186110776000548	0.17376309033913184	-0.675480122805268	0.8492432131443999	124.12299824517245
17	6.0	wm	222	diff_vonmises	-0.19934946757466765	-11.42188314020851	0.6428235721608253	6.12593050685231	0.19685564447965095	8.53106273021909	0.03923860832681747	-0.6409020533925279	0.6801406617193454	128.71601557812915
18	7.0	ltm	222	diff_vonmises	0.08438958253768082	4.835166914280022	1.1810073801919199	216.30321123381054	1.1628253392827619	218.2670725348843	-0.0016178093602832178	-0.4643246329853987	0.4627068236251155	73.30749222860976
19	7.0	perception	222	diff_vonmises	0.06134911067899358	3.5150451187873006	2.969850583819392	1.3252540164538253	0.04502168759494421	3.0036878731118564	0.3630937229902091	-0.4576329794715829	0.8207267024617919	77.67601084486748
20	7.0	wm	222	diff_vonmises	0.3305738671490196	18.940487404957196	1.0573063180984759	235.31890400378037	1.040107430275315	237.5447592308605	-0.015362803028295957	-0.5062213755840688	0.4908585725557728	77.34285565309227
0	1.0	ltm	223	diff_vonmises	-0.08559361840344518	-4.9041530877707	0.8798110004280991	386.27703350092514	0.866097046925134	390.20987073511714	-0.23371388305342577	-0.8039180639331818	0.570204180879756	81.1073976731264
1	1.0	perception	223	diff_vonmises	0.00439426109710096	0.2517726149424118	8.644197674782397	0.8766036456768922	9.053586705738084e-17	4.066331081096836	0.36519861897828443	-0.647176660388161	1.0123752793664456	46.208362128206346
2	1.0	wm	223	diff_vonmises	0.09081677456597843	5.203417891621603	4.927025713048497	0.4899903838828239	6.043603492280816e-17	4.135026366905311	-0.2365536622358682	-0.6580877387302942	0.42153407649442604	61.52096185170572
3	2.0	ltm	223	diff_vonmises	0.019408699057683224	1.1120365418447866	2.5822775205656265	0.8264244588754588	8.297532886928294e-20	3.240480274270148	-0.019347864596132247	-0.5129012528562659	0.4935533882601336	85.5925511795376
4	2.0	perception	223	diff_vonmises	-0.06551248905547506	-3.753589128275718	6.4353913121486706	1.3463731652940851	0.10161572476425049	3.5020433360440117	0.7184324105302619	-0.5596869517410034	1.2781193622712652	52.416242319255616
5	2.0	wm	223	diff_vonmises	-0.07576860713500519	-4.341221408420614	2.884690305169178	0.9636588137541976	0.1505632478154114	3.2896771818659656	0.011927345530827305	-0.48700609796798544	0.49893344349881275	73.09113032944896
6	3.0	ltm	223	diff_vonmises	0.048067483268591435	2.7540639231059885	2.6034393141618866	0.6561704827955964	1.8043579213527319e-12	2.0759429904917006	0.06560700754214532	-0.32822688043733	0.39383388797947533	85.24246658322645
7	3.0	perception	223	diff_vonmises	0.07162135266358652	4.103601230641565	4.299751478773005	2.2605142173717736	0.1272429502102315	3.1731284182591857	1.2363870981869969	-0.4807150346514103	1.717102132838407	64.13047276956638
8	3.0	wm	223	diff_vonmises	-0.18636114866760953	-10.67770728386411	3.739392056895702	0.7126137460543439	1.82530824185424e-23	2.1621181217529646	0.18388438416476965	-0.3438134631113173	0.5276978472760869	70.87031176418091
9	4.0	ltm	223	diff_vonmises	-0.02703999197427133	-1.5492774181933657	0.0004759318574606533	3016.750261415992	2.851001366356343e-28	3018.855978132234	-0.10660560993125046	-0.5636104676067362	0.4570048576754857	179.9535712389762
10	4.0	perception	223	diff_vonmises	0.007772025152171593	0.4453042394889537	1.0092227196571173	279.04342418751935	0.9819368863743133	281.5328869373348	0.5986312977236281	-0.766399528162971	1.365030825886599	86.53849284948768
11	4.0	wm	223	diff_vonmises	0.2882967628301285	16.51818775745043	0.6904210152432729	194.40468299621892	0.6759059599687889	196.8953028654841	-0.15991348773798109	-0.49328073985262577	0.3333672521146447	91.54474200672243
12	5.0	ltm	223	diff_vonmises	0.3769117175248799	21.595450663202683	0.7736344994605131	181.23672733819004	0.7567599541987222	182.9142347026836	0.08842708286272938	-0.40733580379379575	0.4957628866565251	94.3443215663259
13	5.0	perception	223	diff_vonmises	0.083749943140725	4.7985182764241605	2.0743507685054356	2.8213516927304028	1.8382021162459658e-20	4.3568912297275215	0.7944687081949089	-0.6699339876077112	1.4644026958026202	95.33066985195279
14	5.0	wm	223	diff_vonmises	0.024603139208565866	1.4096560394236606	0.4968154188058322	155.43958872211215	0.4783666118636911	157.31125755560933	0.08064338340602006	-0.501435812756645	0.582079196162665	119.21018275644846
15	6.0	ltm	223	diff_vonmises	0.6501637470443615	37.25163869805316	0.8868595108779033	133.4752850221122	0.871518152206509	134.80598808931217	-0.03187594196273125	-0.286452745996435	0.25457680403370375	83.69104397370319
16	6.0	perception	223	diff_vonmises	-0.17197020999868765	-9.853167234903273	1.293000718435086	2.047044544439348	6.782000268247686e-15	3.2741091964936593	0.2899287415324253	-0.4600036654317273	0.7499324069641526	117.18626201454764
17	6.0	wm	223	diff_vonmises	-0.3710869451074819	-21.26171578706157	0.15101284224904457	135.69157195978215	0.1401650420848293	137.37438022712743	-0.05663791052390721	-0.4477443437855406	0.3911064332616334	159.15773675279397
18	7.0	ltm	223	diff_vonmises	-0.06053549647497833	-3.4684284587453305	2.9632471998117085	1.3336117648861041	0.7662754241333772	2.8021653181278254	0.034457069365152915	-0.3798230908544137	0.4142801602195666	60.84950364227484
19	7.0	perception	223	diff_vonmises	0.07097460469467064	4.066545301614027	0.8472385529939925	148.35846975644645	0.8197182557678164	149.29700781812488	0.4908566635168512	-0.40610309632202224	0.8969597598388734	97.73254869057737
20	7.0	wm	223	diff_vonmises	-0.66137626292307	-37.89406853562658	0.0827035595656971	80.17176599516972	0.0676912546582762	82.1700432885774	-0.1414482472651848	-0.4809710833329799	0.3395228360677951	160.5035624524117
0	1.0	ltm	224	diff_vonmises	-0.0411984374035907	-2.3604965857596567	0.930241546689327	354.0475020933099	0.9155010916816534	357.94602715056703	-0.2769065161394195	-0.794000867692894	0.5170943515534745	77.73049166653095
1	1.0	perception	224	diff_vonmises	0.03208126715069993	1.8381212091667938	8.636794836963297	0.8956561691347188	6.1219398617338195e-18	4.12534548569589	0.37740260793363467	-0.6565690934481224	1.033971701381757	46.22582893557353
2	1.0	wm	224	diff_vonmises	0.09613186244204311	5.507949994661262	5.029868080010366	0.43725054949955644	1.2279140697845524e-13	4.079462541665596	-0.26897584086627097	-0.6492503586097401	0.38027451774346915	60.879554231585814
3	2.0	ltm	224	diff_vonmises	0.04422743565707503	2.534045401836806	3.736261138523097	0.6389611369358731	0.004317286081790018	2.7829560365557224	0.028340528748735327	-0.4408270398288274	0.46916756857756275	70.56795830507673
4	2.0	perception	224	diff_vonmises	-0.05252442262041658	-3.009427737511342	6.9850374269039195	1.3195402960237348	0.09494513089328911	3.2155322186143467	0.8030402740893895	-0.5156371327978456	1.3186774068872351	50.50065619118351
5	2.0	wm	224	diff_vonmises	-0.029950178616155836	-1.7160188303686978	3.300892200937155	0.8098536908588824	0.14409118111701846	2.9518356459118986	0.020052969736156	-0.44673948836060856	0.46679245809676456	69.07502185479086
6	3.0	ltm	224	diff_vonmises	0.13656412326498743	7.824547895988116	3.6419315078788475	0.49783778934954576	1.1480712942815444e-17	1.6543000693045569	0.10025095445979632	-0.2630404436636041	0.3632913981234004	71.83573666164423
7	3.0	perception	224	diff_vonmises	0.07233497986752585	4.14448905757301	5.0289998034821854	1.8996816850889267	0.024258173196098763	2.68992350075196	1.2137796461873664	-0.4225811845918555	1.636360830779222	60.525254272255324
8	3.0	wm	224	diff_vonmises	-0.14190811165617684	-8.130735876570176	4.351911255046076	0.5764496058283025	1.3081501372187586e-18	1.8391824601456255	0.17125648424825124	-0.2926379818547825	0.46389446610303375	65.56055736672673
9	4.0	ltm	224	diff_vonmises	0.08198450215420273	4.697365958917023	0.0003043144611936024	3682.0691090444534	8.860073909604713e-30	3684.0190435353293	-0.13199642707650128	-0.4886598654553609	0.3566634383788596	179.70041158265352
10	4.0	perception	224	diff_vonmises	-0.011081923251071834	-0.6349474311743122	2.1553044461149304	3.5206615926309905	0.32048051335090266	5.955518100438029	0.6268161089602444	-0.7244018297197024	1.3512179386799468	81.29689248132419
11	4.0	wm	224	diff_vonmises	0.2674342164716124	15.322851901211434	0.7254485627752884	203.49827764526052	0.7118701694604688	205.90826234814165	-0.16419135242509242	-0.4750133768328304	0.310822024407738	88.66129656879275
12	5.0	ltm	224	diff_vonmises	0.32711958071959896	18.74257137132208	0.7187376540974987	103.12002576752634	0.6923010142801986	104.69550591607238	0.0737146261430901	-0.3828494972266778	0.4565641233697679	98.21488481397887
13	5.0	perception	224	diff_vonmises	0.062420584932905726	3.576436071393395	2.1409159904755115	2.718527515874113	5.7313276692267905e-21	4.051984361860719	0.8161943084559141	-0.6247026542447374	1.4408969627006516	93.89825728344186
14	5.0	wm	224	diff_vonmises	0.06608220230743146	3.786231293145493	0.5449731137707278	159.22607847658	0.5265684744572173	160.94737759066484	0.1172777992388987	-0.4713154349487656	0.5885932341876643	114.69595293285744
15	6.0	ltm	224	diff_vonmises	0.5759304389528557	32.998383445115536	0.8736772169464924	141.90668351714828	0.8586745778346119	143.14934701504748	0.014797655746619398	-0.2818368816400607	0.2966345373866801	86.5129759619191
16	6.0	perception	224	diff_vonmises	-0.13993953273891832	-8.01794461297283	1.2031615204260968	2.2877844814747617	8.340858686247118e-19	3.3581151649330847	0.33425896133987787	-0.4561488926366589	0.7904078539765368	120.4712958404123
17	6.0	wm	224	diff_vonmises	-0.19939688901617367	-11.424600188665233	0.29366761466967667	179.18435262129765	0.28342107899447927	180.70294344295232	0.012871158488763967	-0.4235464491504395	0.43641760763920345	142.97344517446462
18	7.0	ltm	224	diff_vonmises	0.002402697852826611	0.13766444641210981	2.494946670450715	1.5074739649449858	0.7108298231019058	3.027207178079012	0.019719993271100633	-0.3728685412595339	0.3925885345306345	65.15692059945115
19	7.0	perception	224	diff_vonmises	0.06502392256048962	3.725596330101553	0.8943924267973674	191.54861192062052	0.8717885455820903	192.58872855817748	0.49515482534685873	-0.4215971806512293	0.916752005998088	94.5882729657439
20	7.0	wm	224	diff_vonmises	-0.4244029408578627	-24.316497324095817	0.18705652625367808	52.07351670309245	0.16236864800847647	53.964025702126754	-0.130838840721065	-0.43945171498104774	0.30861287425998274	153.8969545509111
0	1.0	ltm	225	diff_vonmises	0.00024733603531714907	0.014171310945171316	3.4446697303233176	0.482274624542774	1.3871579150526955e-13	2.605134508920636	-0.07315896446325992	-0.41427222682652354	0.3411132623632636	73.9172338805553
1	1.0	perception	225	diff_vonmises	0.02727496707862734	1.5627404999636112	15.638795856881652	0.5950694495945016	1.7747901421780897e-15	2.854127675067332	0.47641152189719443	-0.45424852770231966	0.9306600495995141	34.261531529574086
2	1.0	wm	225	diff_vonmises	0.06348120247005505	3.6372049799496113	3.4587105802990137	0.4631589591130587	0.0399688601222725	3.017272998852523	-0.17094803295733674	-0.471031200067416	0.30008316711007926	70.28369429818875
3	2.0	ltm	225	diff_vonmises	0.06110361323358691	3.5009791512842545	2.949133914161829	0.5556527473766255	7.678622867478537e-15	1.7380537060850656	0.08373342878861084	-0.2756307381188911	0.35936416690750195	80.03492229119198
4	2.0	perception	225	diff_vonmises	-0.03646625711374217	-2.089362627256341	7.801625627413331	1.077412295485013	0.17529566067942887	2.3170205181375123	0.7439840614048365	-0.38181436558901893	1.1257984269938555	47.42754235956696
5	2.0	wm	225	diff_vonmises	0.07408476887512867	4.244744582747036	6.029559828137678	0.35283927113830055	0.009033868176501118	1.9457240370430045	0.025333143706933015	-0.30894115388783716	0.3342742975947702	55.14249438200426
6	3.0	ltm	225	diff_vonmises	0.14521089158722264	8.31997122727961	0.973754089078209	97.06034246712584	0.9513582829488834	97.88158808455228	0.13937130591423852	-0.2323231019512111	0.3716944078654496	86.83389565131063
7	3.0	perception	225	diff_vonmises	0.01531414870889425	0.8774360878553593	4.987709901873118	1.86896515904514	0.25545590375018407	2.7595974115782136	1.0606099035408003	-0.42566899134886077	1.486278894889661	58.46847160593043
8	3.0	wm	225	diff_vonmises	0.06035739542954597	3.4582240205151886	3.3544022473089656	0.7147689320916429	0.3169881701402562	2.0985789176041627	0.051301609149481286	-0.3130418375344146	0.3643434466838959	65.03168831114067
9	4.0	ltm	225	diff_vonmises	-0.00927521141970232	-0.5314304684404874	1.08544009734399	276.22153171608454	1.0742821629529447	277.8758329406137	-0.010096913548053976	-0.37942507667958836	0.3693281631315344	76.22489818192042
10	4.0	perception	225	diff_vonmises	-0.03281482988912646	-1.880151258086693	2.263514596474542	2.7908851021179544	0.3100324668549119	4.380240064125526	0.6227841734055282	-0.5385175827867033	1.1613017561922314	80.79215910161619
11	4.0	wm	225	diff_vonmises	0.036387842888387846	2.0848698230897504	0.8146233495998692	179.19683657103667	0.7987192019077396	181.45934125076508	-0.14221148695931163	-0.45470287043132274	0.3124913834720111	84.10199340364485
12	5.0	ltm	225	diff_vonmises	0.08669035788917338	4.966991631528275	1.4691632958223897	1.7327689005878466	0.22905746813384179	2.9757485817575127	0.15339390777167927	-0.33722604768539477	0.49061995545707404	96.81577092325406
13	5.0	perception	225	diff_vonmises	0.030396799219808486	1.74160830600158	2.468436854292268	1.832060026308843	8.384795851306616e-20	3.0314123450023365	0.589216374545354	-0.47477242041721696	1.063988794962571	87.54683255971167
14	5.0	wm	225	diff_vonmises	-0.0999193450958138	-5.7249567657013305	0.5106481418302188	218.43090694292806	0.500264815320873	220.0434532512625	0.02629743687151631	-0.4008943201418447	0.427191757013361	115.60674599312271
15	6.0	ltm	225	diff_vonmises	0.11869567274205975	6.800761094586031	0.3285071980714911	92.47064611345048	0.3127433003291171	93.75523081281854	-0.010502157893533592	-0.3360432141649845	0.3255410562714509	138.34333448631082
16	6.0	perception	225	diff_vonmises	-0.06506702404107137	-3.728065863029652	1.7622330988769326	1.532838056585716	2.1216754575578565e-15	3.0852444433824124	0.24124790053174	-0.46945256791404527	0.7107004684457853	102.90207081375216
17	6.0	wm	225	diff_vonmises	-0.05541856366665386	-3.1752498047763145	0.4839163449216878	238.57372618850292	0.4733817086307667	240.28593158399934	0.05415435955337955	-0.4493691982096486	0.5035235577630282	119.7396974529573
18	7.0	ltm	225	diff_vonmises	0.025249979511050475	1.4467172587749941	1.0108065936338417	203.51174570129237	0.9934641364973562	205.24375938986188	0.07779968309986884	-0.4173996556395565	0.49519933873942534	81.56555279754011
19	7.0	perception	225	diff_vonmises	0.07622038042522088	4.367106111246711	2.4273040554745906	1.4619875835652296	2.6954660014341613e-17	3.108276667061265	0.35205593579626704	-0.4880987077432175	0.8401546435394845	88.28099683254081
20	7.0	wm	225	diff_vonmises	0.20787294143925222	11.910242219439269	3.8277779620818597	0.6407243250827773	0.1220446430330799	2.627840004354178	0.010128172107731426	-0.40657884179899934	0.41670701390673076	65.09926525012136
0	1.0	ltm	226	diff_vonmises	-0.04185789761820263	-2.3982808728137117	2.719247325431042	0.8645365984842561	0.3580336016916659	1.5253936690575183	0.19868701456168597	-0.20021102998781637	0.39889804454950234	73.28238533517074
1	1.0	perception	226	diff_vonmises	0.0013397711180353669	0.07676323057695017	15.635237902114845	0.5182160277696639	3.732463522373258e-15	1.3857021553318691	0.5901876219858077	-0.22054134767413822	0.8107289696599459	34.25181542962321
2	1.0	wm	226	diff_vonmises	0.16071843546945824	9.208488042345628	2.8353244686989445	0.4744015222584389	1.0250028070922136e-13	1.2714036057881775	0.09847079743734918	-0.20131361230246486	0.299784409739814	81.63688492374496
3	2.0	ltm	226	diff_vonmises	-0.009271695741120318	-0.5312290348956141	4.007322797682044	0.5283425350023663	0.3407817396652974	0.7008691846722392	0.2541894051758131	-0.10121331773924896	0.3554027229150621	64.00210412894432
4	2.0	perception	226	diff_vonmises	-0.04444532307411861	-2.54652943124241	7.95425042539934	0.8990536336520302	1.4459570765161868e-20	1.0542867610842306	0.8266059426261813	-0.16779482677442703	0.9944007694006083	48.20615798415389
5	2.0	wm	226	diff_vonmises	0.024373593644324305	1.39650404738667	6.937663717389545	0.3286931884788533	0.1646489245474285	0.7489894696544274	0.19904322370364144	-0.1217810282435227	0.32082425194716413	50.16669029209305
6	3.0	ltm	226	diff_vonmises	0.12339249212215997	7.069869022201025	1.2631325586397113	93.25277770657085	1.247091106401669	93.3384565172925	0.24074159028360498	-0.10165629234263385	0.3423978826262388	82.80129784032783
7	3.0	perception	226	diff_vonmises	0.008607011980899462	0.4931454607240735	5.547924242165463	1.3971067694502761	0.19626339306370977	1.608637813187542	0.9714088169719834	-0.2499262067008771	1.2213350236728606	56.434367807227005
8	3.0	wm	226	diff_vonmises	0.07303641714473946	4.1846784531504975	2.9594608043700754	1.3042424195675644	0.9855677265587562	1.691670613415936	0.2741664736562577	-0.18173244166381725	0.4558989153200749	64.14160150986174
9	4.0	ltm	226	diff_vonmises	-0.11856816813649439	-6.793455618818656	1.76651050694045	166.43203114083505	1.752129565081532	166.96683178116388	0.14060112644784795	-0.1927187793237266	0.33331990577157455	64.16099710746332
10	4.0	perception	226	diff_vonmises	-0.09367257404275199	-5.367043148776396	2.735280392579077	2.00073670917574	0.06906946294760061	2.683908893667824	0.7854403382649597	-0.3947467256787269	1.1801870639436867	81.02789676127239
11	4.0	wm	226	diff_vonmises	-0.054912879040626084	-3.1462762099402717	1.354814253803967	185.09547470334684	1.3375313848521184	186.35154278658032	0.06895511588462	-0.3314898987317818	0.4004450146164018	70.15427593471642
12	5.0	ltm	226	diff_vonmises	0.019922755092380583	1.1414897830661759	1.5582928070914932	1.1055578015812242	5.617975139421709e-17	1.359573832111174	0.27369531591166585	-0.19466820820470263	0.4683635241163685	108.67312813578796
13	5.0	perception	226	diff_vonmises	-0.01054326003962404	-0.6040843025793906	2.6566744869218017	1.5226515510602199	1.022434683374307e-17	1.6543010478238567	0.6665078222261527	-0.2587099772918247	0.9252177995179773	84.38301504008788
14	5.0	wm	226	diff_vonmises	-0.05074947050998645	-2.907730472745857	0.6370329999252732	128.9844209003846	0.6248239314283953	129.26757760567358	0.22235196248512068	-0.179342999487627	0.4016949619727477	113.64502863805266
15	6.0	ltm	226	diff_vonmises	0.3686672014675282	21.123074688988595	0.7437339249622601	81.91976854820209	0.7302258181170156	82.1008294669907	0.15861979423517525	-0.11229521526078923	0.2709150094959645	105.55525678906417
16	6.0	perception	226	diff_vonmises	-0.08932224492838267	-5.11778765103015	1.644928562315849	2.053482002605918	0.19261320054986042	2.36302617574087	0.4889571417422245	-0.27230309204696873	0.7612602337891932	98.59825207693943
17	6.0	wm	226	diff_vonmises	-0.06579140731146184	-3.76956996717291	0.8164963427186467	125.67317064125201	0.7967256592666799	126.11245969725702	0.34134723601530936	-0.24080341749350076	0.5821506535088101	100.58994773750564
18	7.0	ltm	226	diff_vonmises	-0.03811612898406866	-2.1838933221634043	1.1505154478959365	93.04863570672357	1.1213967644428118	93.70501504204633	0.26571088267210996	-0.2390157459632789	0.5047266286353889	82.53958859483996
19	7.0	perception	226	diff_vonmises	0.03434999486369109	1.9681097319855552	3.603971231016144	1.259538362411007	3.470005712009876e-15	2.2518951037779544	0.5560630639653372	-0.3577229120543992	0.9137859760197364	72.22317147038319
20	7.0	wm	226	diff_vonmises	0.33363877877252873	19.116093905564856	5.003415094654108	0.6103759322768595	5.072783657221668e-19	1.326361120706971	0.3183695778310893	-0.211073054075695	0.5294426319067843	61.038189434547945
0	1.0	ltm	227	diff_vonmises	0.03259771390991384	1.86771142881296	1.574419374173729	2.78651574620699	1.5743578862807128	2.089066323964795	0.31113181419941394	0.013343346934814405	0.2977884672645995	108.1811336668277
1	1.0	perception	227	diff_vonmises	-0.052078340094048575	-2.9838690914359223	9.746258935566733	1.2245099371074526	9.745773597722797	0.5871970188509339	0.7830674947692082	2.6786614634408052e-09	0.7830674920905467	43.48054761074337
2	1.0	wm	227	diff_vonmises	0.0951996052364587	5.4545355913606155	1.0749537000075235	2.3483518860727686	1.0749002894107775	1.475392669038361	0.31063752543040246	0.03618361620404993	0.27445390922635254	125.43890815255962
3	2.0	ltm	227	diff_vonmises	0.07526322481238054	4.312265134293702	0.412797248439867	2.4160627951676266	0.4128948434533147	1.533552059045608	0.2034447734431073	0.08913494970929459	0.11430982373381271	156.69127826075217
4	2.0	perception	227	diff_vonmises	-0.0351997391171152	-2.0167964913722516	5.790836552632701	8.359068324588435	5.555182597609425	7.5102692854691515	0.9482757709817466	-0.005029004740886828	0.9533047757226335	49.27567384105518
5	2.0	wm	227	diff_vonmises	-0.5283911749317963	-30.274584255550714	0.697893149677318	2.5181617816757274	0.6978962109289443	1.659968758006194	0.24385828086562455	0.060390319080146554	0.183467961785478	138.78872572224438
6	3.0	ltm	227	diff_vonmises	0.25012659102380824	14.331198009659033	3.1898491666145916	2.298228368595652	3.1898178627191047	1.8254216325259771	0.3206247054505651	0.0005435888034920678	0.320081116647073	76.87639094194503
7	3.0	perception	227	diff_vonmises	-0.016150002674919495	-0.9253269923978772	6.159601489332094	1.2128548570431363	0.22540958621071336	0.9506045077938641	0.9871752324880105	-0.14830394275183878	1.1354791752398494	53.866361997230996
8	3.0	wm	227	diff_vonmises	0.06755913562384701	3.8708533387983635	4.062349749732774	23.20834162836248	3.9758632621993755	22.870162061448983	0.4691869542540452	-0.04117667047317508	0.5103636247272203	51.28563036186043
9	4.0	ltm	227	diff_vonmises	-0.11610377491450748	-6.652256288138159	3.166071676250323	10.006859711515489	3.0085695051814447	9.902225119174126	0.26144150717542924	-0.05737522506940129	0.31881673224483054	54.820884107872445
10	4.0	perception	227	diff_vonmises	-0.10899526850354412	-6.24496887214827	2.8398440533332425	1.8454884352933134	9.49477267816069e-15	1.95910571828711	0.8594989398671923	-0.3078016022102028	1.167300542077395	81.57763209867136
11	4.0	wm	227	diff_vonmises	-0.040998218560844	-2.349024891091277	1.9127352591122933	111.66620437226618	1.889245433838346	112.25229546307635	0.12669273307997742	-0.21199859038344826	0.3386913234634257	61.02902543571048
12	5.0	ltm	227	diff_vonmises	0.1348247666946474	7.7248901054392825	1.4827213418026022	0.9731552989551999	7.675610057722943e-14	0.2975396838069379	0.37121620476495076	-0.025782002599576085	0.39699820736452684	110.92312920091183
13	5.0	perception	227	diff_vonmises	-0.017918502059830227	-1.026654543224744	3.7003558052703056	1.0222800340266103	7.021913698533853e-23	0.4034414923438161	0.6889025659334342	-0.06374969289742312	0.7526522588308574	71.2532065993131
14	5.0	wm	227	diff_vonmises	0.010169774792432518	0.5826851742049162	1.0133088135158437	18.79743166600758	0.9875355204243608	18.14507844027047	0.31300966532995744	-0.0016732760278510561	0.3146829413578085	111.77618395249651
15	6.0	ltm	227	diff_vonmises	0.3931366846833707	22.525072804122576	0.9948455960147288	2.138067834263205	0.9187833290300147	1.6036993438215943	0.20522176322138652	0.016306973940358585	0.18891478928102795	120.69022178453011
16	6.0	perception	227	diff_vonmises	-0.10117124211147727	-5.796685181083871	1.365998079072271	42.02741492854875	1.3234403465912148	41.510925006568726	0.5300208754404245	-0.07337771649299674	0.6033985919334213	87.24793275019164
17	6.0	wm	227	diff_vonmises	-0.0887571805017154	-5.085411844229135	1.0998281922181958	48.72536899586609	1.0739620467821809	48.45077424244048	0.3339890650516715	-0.06798673274242528	0.40197579779409676	94.70900817003758
18	7.0	ltm	227	diff_vonmises	-0.017811937876997155	-1.0205488653011487	1.2581753776531843	18.654452526422546	1.1803118271765125	18.36346571097779	0.3767792828078056	-0.07233249997404712	0.4491117827818527	89.5424081375576
19	7.0	perception	227	diff_vonmises	0.006076472388902596	0.3481562222118958	3.3449262280620453	1.2210051839549745	1.1109992494733464e-18	1.557007667939265	0.6025633162585464	-0.24674793131982167	0.8493112475783681	75.04368680843601
20	7.0	wm	227	diff_vonmises	-0.03616703919077092	-2.072218703115418	0.00022014876774517557	5556.951579975807	1.1816031994757666e-29	5556.77867372946	0.2222326055909889	-0.16717340623324617	0.38940601182423507	179.9499694790134
0	1.0	ltm	228	diff_vonmises	0.05654663181588127	3.2398833487301792	1.5415467094758992	1.2650257582231335	0.4879198644890236	1.8171471028498172	0.11283721221554371	-0.160504015274127	0.2733412274896707	87.04768510201018
1	1.0	perception	228	diff_vonmises	0.03421826213755345	1.9605620027541153	10.62343607588875	0.5360641113901031	5.2566374412636106e-20	1.2120427081316456	0.49555889214749577	-0.19290258782980566	0.6884614799773014	41.626361795156896
2	1.0	wm	228	diff_vonmises	0.10137738937461137	5.808496549219628	4.717309518195939	0.3010144788421834	1.6404698182520367e-23	0.9228378599931751	0.10614517905985882	-0.14685398743725608	0.2529991664971149	62.907634224923214
3	2.0	ltm	228	diff_vonmises	-0.00012694294153722634	-0.00727329478905902	3.565072194212317	0.6197296287231372	0.5312048413381223	0.8232219471751578	0.23931217372423266	-0.11087764988349154	0.3501898236077242	65.09390526705229
4	2.0	perception	228	diff_vonmises	-0.01751699487149845	-1.003649875889169	7.849937904413655	0.9371365841090016	2.3307550475142387e-17	1.2372566665096758	0.8327948306784914	-0.1969153579091893	1.0297101885876807	48.520712930572245
5	2.0	wm	228	diff_vonmises	0.0723722762198581	4.146625981152881	7.077684715375011	0.30169377899317557	0.24399111341504084	0.7459255096920734	0.16482565719022443	-0.1244632929656239	0.2892889501558483	48.96909687986971
6	3.0	ltm	228	diff_vonmises	0.21262517025699557	12.182524873976407	1.6628762639217218	100.98688879852696	1.644823810845102	101.04751000235302	0.2806400256528576	-0.10716058305819054	0.38780060871104816	72.3036424779838
7	3.0	perception	228	diff_vonmises	0.008556192332748307	0.4902337093686725	5.51909269477538	1.514495402592386	0.22291400105211814	1.7963800639583654	1.0308062686403283	-0.279316618505769	1.3101228871460973	56.36548147153849
8	3.0	wm	228	diff_vonmises	0.08937073684645443	5.120566033276155	3.8206631161380975	0.7420811262969282	0.7318399191200903	1.1638074749598135	0.2181607783789421	-0.16428680618510588	0.382447584564048	59.97963089210404
9	4.0	ltm	228	diff_vonmises	-0.03930038003518004	-2.251745909276018	1.5898859610158842	136.16696348066006	1.5740423543623623	136.73926677018844	0.11559253429198435	-0.18615945689250424	0.3017519911844886	67.19277389898258
10	4.0	perception	228	diff_vonmises	-0.10017777057091058	-5.73976345474304	3.087444414748201	1.8232334546528346	0.03598366155606744	2.7514905993281245	0.7599624962195628	-0.4206731981149863	1.180635694334549	77.04700371710138
11	4.0	wm	228	diff_vonmises	-0.09160585121389778	-5.248628653259711	1.3551020207468034	183.65505432553417	1.339402121942499	184.88713571784047	0.02122487367743986	-0.31302086811079377	0.33424574178823363	68.90316057270127
12	5.0	ltm	228	diff_vonmises	0.08010190817290049	4.589501269251673	1.5927549835985326	1.251002962836168	0.19147033669019245	1.4806055204770237	0.2791783836831107	-0.169570093578182	0.44874847726129274	99.758891507888
13	5.0	perception	228	diff_vonmises	-0.02402431480344591	-1.3764918439311165	3.256481567435117	1.420663840261341	9.026505271951147e-23	1.5515885925768946	0.7277010397289689	-0.24549634524393077	0.9731973849728996	76.08259210774952
14	5.0	wm	228	diff_vonmises	-0.0770682535374453	-4.415685662139793	0.648913507459996	93.29087130480823	0.6344694007244136	93.56490362537347	0.18138180354502254	-0.1542526217104525	0.33563442525547504	112.26225499540016
15	6.0	ltm	228	diff_vonmises	0.19525782418490745	11.18744924270265	0.6690724307659488	76.8827307661002	0.6554400167408267	77.04237911999039	0.1552897486527769	-0.11348311654381504	0.26877286519659194	111.54467689199518
16	6.0	perception	228	diff_vonmises	-0.1604543036404482	-9.193354403308282	2.1238795764699443	1.3067514254615182	2.4630262165838913e-12	1.6021408868531872	0.4440028140386574	-0.24499545474760956	0.6889982687862669	94.23572635198342
17	6.0	wm	228	diff_vonmises	-0.08331973283399478	-4.773869041545491	0.859989161413364	88.96483731693918	0.8365481276928408	89.38413752563916	0.2676997887074677	-0.2004159111570587	0.4681156998645264	97.50437349991493
18	7.0	ltm	228	diff_vonmises	0.004030338017618582	0.23092135842066755	0.929557238984687	114.07647764160065	0.9080704271610757	114.73744379461472	0.25204958946918765	-0.2406193037541069	0.49266889322329455	91.91609584051685
19	7.0	perception	228	diff_vonmises	-0.026238586249346798	-1.5033602524775678	3.273508135003819	1.5217991650488296	3.393975779392677e-16	2.570901750617081	0.6378661573455127	-0.40766949271704794	1.0455356500625606	75.88290216373122
20	7.0	wm	228	diff_vonmises	0.2803719306505551	16.064128320211413	9.16657731617512	0.4863978514627719	2.3228503745668225e-19	1.202904929806011	0.38759703945263957	-0.19144825932805326	0.5790452987806929	44.85368135178288
0	1.0	ltm	229	diff_vonmises	0.0418260244643555	2.3964546756185	1.0868964738436802	66.5742710176896	1.0105177352856227	69.85600006267276	-0.1705584485700058	-0.707041837683704	0.5364833891136982	74.52740128841427
1	1.0	perception	229	diff_vonmises	0.10833798521878239	6.2073093139869275	14.242679578514934	0.6409184982804172	0.08912897652704632	4.086069930762347	0.24658699166043596	-0.6816355414467506	0.9282225331071866	35.30564756612216
2	1.0	wm	229	diff_vonmises	0.13381292674730683	7.666915946913928	3.881441932559259	0.553830914494459	0.12430352616597418	4.0834977935087124	-0.31425520772997956	-0.6450915562388189	0.3308363485088393	62.023936810655044
3	2.0	ltm	229	diff_vonmises	-0.09694640928484843	-5.5546200909697125	1.25306434572942	25.599104823761735	1.1304485677430622	26.68371347439054	0.18317738103497128	-0.3117996501291467	0.49497703116411795	77.6014270406643
4	2.0	perception	229	diff_vonmises	-0.042538811386963395	-2.43729435797605	6.547794516427786	1.1639928744791608	0.21916699005093662	2.417612217899248	0.6901339080481445	-0.3942589920685238	1.0843929001166681	51.24843159817868
5	2.0	wm	229	diff_vonmises	0.08649941826714654	4.956051597044313	5.997561591753464	0.3855337995548827	0.10789094031506917	1.9663714816413715	0.020499176023620058	-0.3167916510992728	0.3372908271228929	53.11252193107518
6	3.0	ltm	229	diff_vonmises	0.06469251397105767	3.706608016632718	1.0102766776127803	145.187870386079	0.993284845027094	146.0079441388559	0.18742127861569458	-0.24891114650087687	0.43633242511657144	86.07231295159983
7	3.0	perception	229	diff_vonmises	0.049352749206309374	2.8277042368891503	4.857557689488487	1.6775948190404208	0.1781069079412358	2.5653534826142304	0.9483634979042087	-0.39452286696011685	1.3428863648643254	59.85047470983187
8	3.0	wm	229	diff_vonmises	0.23396412322607923	13.405156818333058	3.195251443725993	0.6419053667230413	0.14269914890556903	1.989668221304146	0.07230754127490385	-0.29766325512389263	0.3699707963987965	70.83282108730603
9	4.0	ltm	229	diff_vonmises	0.13114379373127455	7.513985890136254	0.7598059985171245	197.77752095365565	0.7482452213669019	199.59326448186422	-0.09689705308185381	-0.3680717370153843	0.2711746839335305	88.11414215993508
10	4.0	perception	229	diff_vonmises	-0.09235330041932195	-5.291454338130924	2.8459713702951044	2.155584134390817	0.09592830039050164	3.80612224098631	0.7045757003074118	-0.5568967353260887	1.2614724356335005	78.13783377493559
11	4.0	wm	229	diff_vonmises	0.052412416490512814	3.003010258988262	1.9582450727291951	1.4616500487004682	0.2701045942638309	3.8933041511564244	-0.052702778841567266	-0.5060499704319609	0.4533471915903936	80.46285142806241
12	5.0	ltm	229	diff_vonmises	-0.11802867327181021	-6.762544840003271	2.034366918227332	1.1292875595467253	3.0718968389133274e-15	2.852551271571619	0.13460107686009165	-0.44393281954011554	0.5785338964002071	96.21845535610564
13	5.0	perception	229	diff_vonmises	-0.015480905501803598	-0.886990548294202	1.6717120602705928	3.70364781001975	0.2822808044426839	5.1292714528484025	0.6521077717991193	-0.5576151459163176	1.2097229177154367	92.83247659354566
14	5.0	wm	229	diff_vonmises	-0.09334595742397772	-5.348329395001797	0.5638924129610352	257.3938446294211	0.5532189015197371	259.17658265914025	0.05995768384937605	-0.4464104286813715	0.5063681125307475	110.53418859611814
15	6.0	ltm	229	diff_vonmises	0.3584559843812091	20.53801504625064	0.6432504108549999	135.94521364569863	0.6240329581205998	137.75646265725587	0.0066771422852554	-0.4127468204664506	0.419423962751706	101.57448825886044
16	6.0	perception	229	diff_vonmises	-0.06703928677351692	-3.8410681936897215	0.49696270674037907	246.4353568854132	0.480589543770224	248.13906779320834	0.33859492739676966	-0.6179446431684816	0.9565395705652513	123.14061010166677
17	6.0	wm	229	diff_vonmises	-0.004760731721011058	-0.2727698350079865	0.7069354778318321	104.96229295131343	0.6691733721622628	106.72517743630011	0.26372178382548483	-0.5136117723817382	0.777333556207223	102.98461153375382
18	7.0	ltm	229	diff_vonmises	-0.03198928422511151	-1.8328509757433118	0.9879175563109032	214.63237356300766	0.9674704996406284	217.09293680910204	0.006088293016631496	-0.5582359473638121	0.5643242403804436	80.7170935924255
19	7.0	perception	229	diff_vonmises	0.017671211343800088	1.012485828883449	1.7400733697413238	5.473626803287423	0.6554104248532394	7.703179387218909	0.46828182083001035	-0.6515532600434055	1.1198350808734159	79.45448464278016
20	7.0	wm	229	diff_vonmises	0.379453030923311	21.741057195352838	2.4676211083846007	2.3228596319607395	0.5237821035825645	4.730963363842447	0.1701434657142007	-0.5946963682378882	0.7648398339520889	70.10019305723145
0	1.0	ltm	230	diff_vonmises	-0.004136089570661981	-0.2369804760870082	0.9584073024691656	82.65713370286196	0.9382678752483651	83.53458380925828	0.026598056457086017	-0.2059045599749325	0.23250261643201853	83.35257875758876
1	1.0	perception	230	diff_vonmises	0.07969264193714845	4.566052041245875	12.19139785242503	0.49635014152736706	2.670213559464723e-25	1.529868198182337	0.4402989199393121	-0.2434860860021942	0.6837850059415063	38.83820328695009
2	1.0	wm	230	diff_vonmises	0.006399023314200738	0.36663702890951877	9.289094295023332	0.20090436806999834	0.05563160422420267	1.2547839695696437	0.029803319058513716	-0.20317345252893687	0.2329767715874506	43.73590087131933
3	2.0	ltm	230	diff_vonmises	-0.08404177550809273	-4.815239039399644	2.6368037549819414	0.766163045304371	0.37559557016264516	1.2403115265605482	0.1883214322091129	-0.15797928989378346	0.34630072210289636	74.44632630426341
4	2.0	perception	230	diff_vonmises	0.005508475954887127	0.31561242376432846	8.05884096031136	0.9770419328192186	0.13879480595081997	1.6899688925118832	0.7806074860447336	-0.2753027532200989	1.0559102392648325	47.07370228190942
5	2.0	wm	230	diff_vonmises	0.15227658869521937	8.724805850885613	7.633605412964891	0.22870136413617986	0.18168088108521777	1.045207614703225	0.049798657191731405	-0.17535886670781656	0.22515752389954796	46.81847404122743
6	3.0	ltm	230	diff_vonmises	0.17195979723369212	9.852570627415966	1.6500869238701075	126.76794260561454	1.6335203463554766	127.00135260080165	0.2497708387926707	-0.14070912059448126	0.39047995938715196	70.45014121688416
7	3.0	perception	230	diff_vonmises	0.02293291652759345	1.3139593289569158	5.007365940651964	1.7645019033909157	0.4368756937859506	2.153577792115362	1.025057187843562	-0.32913012837255157	1.3541873162161135	57.407913466839204
8	3.0	wm	230	diff_vonmises	0.15688491804322624	8.988843673132681	4.263025577051143	0.4163654849944498	0.4705799240346723	1.083488524399313	0.07001145329509156	-0.1717708144716399	0.24178226776673145	57.55475857798635
9	4.0	ltm	230	diff_vonmises	0.029145667566544096	1.6699237426543052	1.3448483899500112	171.1376757218554	1.3320459235066007	172.0120112293812	0.042954433802535164	-0.22886234845308095	0.2718167822556161	70.19674622029387
10	4.0	perception	230	diff_vonmises	-0.09287635769869752	-5.3214233126827395	2.838710486685666	2.005406101384701	0.23602543818181151	3.027182684923053	0.6708446561117479	-0.41131644539735046	1.0821611015090984	75.50771368767678
11	4.0	wm	230	diff_vonmises	-0.1355591134861069	-7.766965077288886	1.1445127534167245	130.55402787168615	1.1270019401752431	131.81790815766777	-0.0359578065488364	-0.2867806907832353	0.2508228842343989	73.07132923932684
12	5.0	ltm	230	diff_vonmises	0.08920664507956677	5.111164267580648	0.9098930626042687	115.99784848852876	0.8900407906925264	116.68653528262273	0.2176406279661407	-0.23427026561832243	0.4519108935844631	92.21681790424893
13	5.0	perception	230	diff_vonmises	-0.007206497940069844	-0.4129019170357237	3.993309747027521	1.3996642598793778	7.232611317833751e-16	2.1319683739216853	0.735734261477482	-0.3389477331855633	1.0746819946630453	68.52423698506027
14	5.0	wm	230	diff_vonmises	-0.247119813918975	-14.158922371615525	0.5931903929816811	96.71540449073336	0.5783291047548295	97.53126415079014	0.058334638870860545	-0.21776200028976156	0.2760966391606221	109.51072899846376
15	6.0	ltm	230	diff_vonmises	-0.14056909086353708	-8.054015636471656	0.6554873520484013	147.6631563219916	0.6450845825607218	148.49619452688427	0.0636210109171671	-0.21743305893841125	0.28105406985557835	103.79613720530617
16	6.0	perception	230	diff_vonmises	-0.24913984738722844	-14.27466176382162	2.15258733401493	1.2838133805380174	3.443255588276649e-14	2.2958123725715947	0.32688094886605024	-0.35604478827456093	0.6829257371406112	93.58774720597455
17	6.0	wm	230	diff_vonmises	-0.20577496973935983	-11.790037295497548	0.8167017592347657	82.52778311570898	0.7852616292358617	83.4778050356481	0.20969251166529546	-0.29463602261096433	0.5043285342762598	96.5627118041008
18	7.0	ltm	230	diff_vonmises	0.0908163608907903	5.2033941897792335	0.7655411976890825	157.75559414469052	0.7499056230995464	158.7248939149354	0.18588286818391708	-0.2928452707363185	0.4787281389202356	98.84287463483966
19	7.0	perception	230	diff_vonmises	-0.07911803701645845	-4.533129604402888	3.691352628087946	1.5188484522035148	0.010983903702827199	2.947214501537997	0.6430643465942649	-0.4634937628616093	1.1065581094558743	70.96060253693483
20	7.0	wm	230	diff_vonmises	0.26887827846403617	15.405590558732568	11.092574185906784	0.4941246569100373	0.05488431343741297	1.548759254410985	0.38843605266388814	-0.25102616263300026	0.6394622152968884	40.3969353266406
0	1.0	ltm	231	diff_vonmises	0.0005259103392762776	0.03013244284282392	6.280849682232604	0.5488771777856966	0.08589153215572168	4.149715507261798	-0.1814454464605738	-0.6702959225837825	0.48885047612320864	51.709604851980714
1	1.0	perception	231	diff_vonmises	0.04604790028277635	2.638350341642355	13.359483314486967	0.8558832264621503	0.13837626460850214	4.4961566413072855	0.41772907575722695	-0.768261592333119	1.185990668090346	36.251441342759904
2	1.0	wm	231	diff_vonmises	0.08670812384668387	4.9680095459126346	0.6775815050785045	171.2474219501032	0.6551895252124179	175.39993747707922	-0.41662052251363235	-0.770713331656065	0.3540928091424327	86.95154020100179
3	2.0	ltm	231	diff_vonmises	0.0929638983286753	5.326439021316382	3.317597456949756	0.5863920804146127	0.05103058990885187	1.987054592740608	0.07393265328038773	-0.3058385050751302	0.37977115835551795	72.65256973693724
4	2.0	perception	231	diff_vonmises	-0.053389162238899564	-3.05897366802817	7.699773007340724	1.1706831544354028	0.22444591707520647	2.4978077766172	0.7821355994392465	-0.41689138313158347	1.19902698257083	47.42939775957865
5	2.0	wm	231	diff_vonmises	0.044590338745714636	2.5548382171881174	4.777110283229499	0.500778638586907	0.06344224608185609	2.431788647751958	0.011766615380183865	-0.38338039038978555	0.3951470057699694	60.17639601646445
6	3.0	ltm	231	diff_vonmises	0.11429016532697353	6.548344113088001	2.3214775384304707	0.602240118625689	5.976094927196486e-10	1.5552677231525724	0.09218235533434152	-0.24425692952129768	0.33643928485563923	90.24645018895035
7	3.0	perception	231	diff_vonmises	0.031216721793117144	1.7885864089796717	5.668729500501424	1.5854580410682282	0.09919996268770069	2.530732161422523	1.025705470326999	-0.3970594481430647	1.4227649184700637	56.227224442925774
8	3.0	wm	231	diff_vonmises	0.056290453153069034	3.225205392549733	4.030988149802215	0.6820521950061249	0.2244803157182524	2.2240854515016495	0.08906771846802647	-0.34467558974174056	0.43374330820976703	62.03852249584321
9	4.0	ltm	231	diff_vonmises	0.005371320273044611	0.3077539820585132	0.9319789021107421	161.993131291778	0.9143015187418475	163.9910545872225	-0.10549471591195214	-0.41648589698993277	0.3109911810779806	79.42149737501879
10	4.0	perception	231	diff_vonmises	-0.020667816608802642	-1.184178663434777	2.728645962353257	2.2329206352933713	0.13979372526881007	4.049917049730064	0.6472461885215992	-0.5761867730329004	1.2234329615544997	78.31540070433394
11	4.0	wm	231	diff_vonmises	0.1918607491914352	10.992811182887259	0.745596096656032	226.10768229788187	0.7305923175686224	228.87996009862457	-0.15759111886778499	-0.5579461510794665	0.40035503221168156	88.73037300248606
12	5.0	ltm	231	diff_vonmises	-0.0018019096082579713	-0.10324181561725326	1.9393604431966065	1.033370310267417	3.65385416428382e-17	2.697374015141917	0.09395684957929851	-0.41848081504540485	0.5124376646247033	98.44361839365155
13	5.0	perception	231	diff_vonmises	0.04601594370540114	2.636519364631072	1.800321932497309	2.7217202545988832	0.11471111737766794	4.167284444349152	0.5758321958751421	-0.5534898034784466	1.1293219993535888	96.14134633054235
14	5.0	wm	231	diff_vonmises	0.0005732335184589269	0.032843861283131076	0.5349591413491377	249.57687266936094	0.5225912241650742	251.68073721487065	0.05136131461939897	-0.5251622498323236	0.5765235644517226	113.31544454144071
15	6.0	ltm	231	diff_vonmises	0.4505555970195342	25.8149341452164	0.616688872981695	124.38556638265754	0.5970146772095483	126.07690001444912	0.015289628356235596	-0.3929836334351968	0.4082732617914324	104.30149044190242
16	6.0	perception	231	diff_vonmises	0.07697276030530069	4.410214302965843	1.0134618038868504	3.642984766332326	0.12967518867166725	5.455947692656861	0.2696611546709491	-0.5943181268627227	0.8639792815336718	119.00072172363488
17	6.0	wm	231	diff_vonmises	0.06505368680809874	3.7273016958699374	0.4708787734388478	281.4959407602695	0.4592291448985209	283.5724846437651	0.1127736665973913	-0.579373163039925	0.6921468296373163	122.36317122337964
18	7.0	ltm	231	diff_vonmises	0.08665344891182035	4.964876902899802	1.141371012967848	152.3733001098794	1.1123167597721177	154.70183800220582	-0.018785868965025543	-0.5393101286709019	0.5205242597058763	74.46086616117233
19	7.0	perception	231	diff_vonmises	0.18410188739889372	10.548261148349324	2.424757553920246	1.3526095605291821	6.740882246090786e-16	3.1998105980624576	0.2736331228331673	-0.5031329494295614	0.7767660722627288	88.30803222165903
20	7.0	wm	231	diff_vonmises	0.2531244590948369	14.502963197666	0.8990537916344044	252.18609806583856	0.8839250244938363	254.66490808012293	-0.06548553128959611	-0.5326626353072221	0.467177104017626	82.92147178540748
0	1.0	ltm	232	diff_vonmises	0.15487752843909455	8.873828720977498	2.8306546691334007	0.5636008075131489	5.421597227865969e-20	1.6422893406307613	0.09566967648963315	-0.26013665031124766	0.3558063268008808	81.70476047143146
1	1.0	perception	232	diff_vonmises	0.013506341032944718	0.7738563378520971	8.405654636881545	0.6244315440491722	0.0015319558312482417	1.8691677078888438	0.41286097187789805	-0.2973745699968943	0.7102355418747923	46.844404539216754
2	1.0	wm	232	diff_vonmises	0.18789669063471606	10.765687357844532	3.1680113800033998	0.47846017938821317	2.613220958999322e-16	1.6094178824299847	0.06705740095759988	-0.2555742787835664	0.3226316797411663	77.15230361703718
3	2.0	ltm	232	diff_vonmises	0.05747902500759463	3.293305543462087	3.4097478906957503	0.8853397933013798	0.611127516700194	1.429427380914961	0.24065671993807414	-0.19393683966635647	0.4345935596044306	63.84007503129976
4	2.0	perception	232	diff_vonmises	-0.04081981886770468	-2.338803341607965	7.015009123487506	1.0440484161832584	1.5112589791343816e-21	1.5869406531136856	0.8293423688318518	-0.25256857608593625	1.081910944917788	51.376683136294275
5	2.0	wm	232	diff_vonmises	0.04053626126753738	2.3225566878695205	6.443152476618283	0.41361629778280257	0.09252822927464043	1.1917916592095532	0.20237959640818426	-0.19047342436349454	0.39285302077167883	52.3834723878542
6	3.0	ltm	232	diff_vonmises	0.2422940285122361	13.882425234973562	1.4643997785587475	5.56826360881982	1.0780188457912419	5.897102721676236	0.2752868801224997	-0.16735391526073345	0.44264079538323314	80.07537873032567
7	3.0	perception	232	diff_vonmises	0.0031033503932082324	0.17780887988109623	5.523649822378459	1.5287657695232086	7.949899459040969e-15	2.145079861097012	1.0561950962173685	-0.3413777981940162	1.3975728944113848	58.02794565107399
8	3.0	wm	232	diff_vonmises	0.030750214758322392	1.76185752477277	3.027911930633889	1.1378292482126142	0.5323788818779349	1.8670996178365347	0.27714250315344263	-0.24328891199714303	0.5204314151505857	67.73886685362484
9	4.0	ltm	232	diff_vonmises	0.12538669715932937	7.184128554314562	1.037234049524771	120.52337325623054	1.0198684354814673	121.41496361015534	0.08688185263366677	-0.23071337918591617	0.31759523181958293	82.16100737395189
10	4.0	perception	232	diff_vonmises	-0.094452593166022	-5.411734952479263	2.880575012175085	2.088616677626876	6.983933862253827e-16	3.5838206738871907	0.7660544803994931	-0.5661757269707747	1.3322302073702676	80.9929960505541
11	4.0	wm	232	diff_vonmises	-0.0735873780539797	-4.216246187926654	1.2507257884897816	249.70877475812244	1.2354412238497674	251.51929525925104	0.002095543434009528	-0.4380077483980571	0.44010329183206665	71.19190820124521
12	5.0	ltm	232	diff_vonmises	0.049439591618924486	2.8326799406147303	1.5713757988921702	1.1329891614573353	1.969010738176761e-17	1.5011643763773757	0.2658769939396528	-0.21712854767214268	0.4830055416117955	108.27184187764237
13	5.0	perception	232	diff_vonmises	-0.049432488065072264	-2.8322729369594537	2.2036957739722984	1.8650035648221808	1.8082619614701413e-19	1.912800658868182	0.7154868599809411	-0.2920017735851638	1.0074886335661049	92.58831958840784
14	5.0	wm	232	diff_vonmises	0.011466369952565508	0.6569746046176256	0.7512375825022137	120.99393313914499	0.7362987162358898	121.35319072504299	0.24028251815571622	-0.18721162873102593	0.42749414688674214	104.31375281826797
15	6.0	ltm	232	diff_vonmises	0.4312756132546489	24.71027244640773	0.5728608975445465	108.25990010765949	0.5620618133564577	108.34788915431403	0.1977730695217481	-0.1314777144437187	0.3292507839654668	120.12992591990019
16	6.0	perception	232	diff_vonmises	-0.07623242539356061	-4.367796237096947	1.9079450492505665	1.4911500807341493	2.916721476164011e-09	1.5944179146026558	0.4938327906781956	-0.23729763030948126	0.7311304209876768	99.19471505885565
17	6.0	wm	232	diff_vonmises	0.07349141271862905	4.210747779231504	0.8179497722828004	132.71189757719722	0.8031206876734025	133.123062382018	0.25069942654157273	-0.19515401836800805	0.4458534449095808	99.62209973437336
18	7.0	ltm	232	diff_vonmises	-0.05630261359180126	-3.225902134366117	1.9255231909247719	1.7385533046458301	0.40476497390294297	2.836944596488022	0.22660941188957806	-0.3129677872634053	0.5395771991529834	82.27223882298432
19	7.0	perception	232	diff_vonmises	0.03518248428351755	2.0158078622309055	2.2442197050905626	2.2702112921954725	0.17701923803180783	3.4333538873815064	0.6079437519530833	-0.45315593630897527	1.0610996882620585	85.10271082115963
20	7.0	wm	232	diff_vonmises	0.2568243944350146	14.714953877129483	6.890040407235359	0.5524809538507025	2.143108064904532e-30	1.6778421853903935	0.3001602826792063	-0.2670362897797235	0.5671965724589298	51.848230789215506
0	1.0	ltm	233	diff_vonmises	-0.15913088205990183	-9.117527932226443	1.6981773162217388	74.03747282343717	1.6768171385180128	74.04914991998426	0.2600907520824336	-0.08836052795979832	0.3484512800422319	72.2149910923066
1	1.0	perception	233	diff_vonmises	-0.01611077771705092	-0.9230795678604292	14.645503153203114	0.594768869762099	3.635000359854984e-21	0.5630719725918151	0.8104232878277519	-0.08961568775432044	0.9000389755820724	35.401009431142654
2	1.0	wm	233	diff_vonmises	-0.4306069590767784	-24.671961384061955	0.00018238953662314856	4353.353859665813	3.6930957306194606e-32	4353.377898320102	0.12254783007676906	-0.13018804785917837	0.25273587793594743	174.75910548118037
3	2.0	ltm	233	diff_vonmises	0.0511123527104345	2.928522091291951	6.608162966703671	0.23902146049205636	1.21368805509519e-20	0.10058463098480021	0.22410353984206324	-0.016008104059663898	0.24011164390172715	52.95967794410686
4	2.0	perception	233	diff_vonmises	-0.02825157724874688	-1.618696140941014	8.693406149871462	0.8997957859077603	8.784765125126033e-13	0.7100043130570127	0.9290963388808235	-0.11300066672524348	1.042097005606067	46.080323487105574
5	2.0	wm	233	diff_vonmises	-0.028459029180411113	-1.6305822610772112	9.518374891606635	0.20749967111738715	0.056271866299236147	0.1328862320422575	0.22945816125855703	-0.02124775933357533	0.25070592059213237	43.89435838506543
6	3.0	ltm	233	diff_vonmises	0.1875113105799583	10.74360670719839	2.1539581710281053	45.45595382689866	2.134010314287604	45.32819102502794	0.20508055098560973	-0.03388776447378872	0.23896831545939845	67.54170655733913
7	3.0	perception	233	diff_vonmises	0.019420029724323964	1.1126857412223707	5.6354594529323565	1.4101177806861962	0.4807920375359261	1.1902521050203154	1.0134582877205325	-0.18286612599699595	1.1963244137175284	54.99182681772032
8	3.0	wm	233	diff_vonmises	-0.01892008286463903	-1.0840408961816048	2.4267843037719343	33.89464231130341	2.3714465805720737	33.898063766919414	0.2639339532787055	-0.09199628376647784	0.35593023704518334	60.138747054790684
9	4.0	ltm	233	diff_vonmises	-0.15599966992930586	-8.938122692383127	2.1810642668165925	93.76325370553002	2.1629165168874662	93.95773966830156	0.1493563224000738	-0.11007969389294203	0.2594360162930158	59.85097233063894
10	4.0	perception	233	diff_vonmises	-0.07143620023024774	-4.0929927776446755	2.6031624764467884	2.0969333335812608	0.2795114096254934	2.4464034539524255	0.7604553710227832	-0.30860534005890805	1.0690607110816912	78.85596115403126
11	4.0	wm	233	diff_vonmises	-0.017113987967365896	-0.9805592811677403	1.5224479605225674	92.08821667485618	1.5010902842654796	92.78567807731683	0.04097602980966997	-0.19453573941210855	0.23551176922177852	66.10388560968374
12	5.0	ltm	233	diff_vonmises	0.28336845656253995	16.235816608169735	0.9561280607353282	50.62914876305378	0.93075777334027	50.53959903949917	0.27345281032890156	-0.09023188732491416	0.3636846976538157	98.17869247414288
13	5.0	perception	233	diff_vonmises	0.04284478898329757	2.454825582871556	3.849329865723997	1.2573382447580481	1.0143723526802184e-18	1.2204762710362358	0.75225298306248	-0.19381555258346272	0.9460685356459427	69.83016242644504
14	5.0	wm	233	diff_vonmises	-0.03622427264553025	-2.0754979385200802	0.4746473820614988	71.33277551519294	0.459483446054351	71.2924104358138	0.21072787428323636	-0.12166138523732162	0.332389259520558	130.95356683866368
15	6.0	ltm	233	diff_vonmises	0.16724534817200273	9.582452593451753	1.178496268024588	25.652049521243427	1.1527755730048108	25.69126619291802	0.10794580856806135	-0.04658912529621562	0.15453493386427697	85.9290413214338
16	6.0	perception	233	diff_vonmises	-0.1759565670937742	-10.081568672083762	2.1648037261887643	1.2266012230732466	9.267003986022056e-13	1.407004803449435	0.4397521033541476	-0.2151892109694898	0.6549413143236374	93.36441110811201
17	6.0	wm	233	diff_vonmises	-0.2911058160687094	-16.67913465244867	1.4307138016758074	1.3833561554688778	0.09448875805767329	1.6546260852556751	0.2935120901011108	-0.20576312880780862	0.4992752189089194	108.22279396703611
18	7.0	ltm	233	diff_vonmises	0.10270023478033133	5.884290007915652	1.2367192028617455	73.57054041215665	1.216795642681891	73.64969997958117	0.23940434120579468	-0.10027931965269588	0.33968366085849055	83.8496175363884
19	7.0	perception	233	diff_vonmises	-0.008916471363812664	-0.5108761772957229	3.3950073278214217	1.051995555487063	8.231161669824009e-18	1.5188820770639493	0.4969947546014641	-0.24090634625819635	0.7379011008596604	74.47854463753396
20	7.0	wm	233	diff_vonmises	0.3332338374278298	19.092892475563257	3.0506434812132306	0.46204679033182844	1.075892522319006e-27	0.709265843739205	0.1926342650896657	-0.11219880563267243	0.3048330707223381	78.63373752637625
0	1.0	ltm	234	diff_vonmises	0.292905785692822	16.78226531516207	3.527223583168338	0.44861977070489495	1.2196348393994713e-17	2.4496465195213424	-0.06803498014868892	-0.3895954115042386	0.3215604313555497	73.01959080167197
1	1.0	perception	234	diff_vonmises	0.052772245143734256	3.0236269221657275	5.293763829138299	1.1409103273153278	0.2504633663227457	3.1924269726155687	0.37723598876815156	-0.5141715687221535	0.8914075574903051	55.403902920738176
2	1.0	wm	234	diff_vonmises	0.15175657588647873	8.695011311652031	3.367687158453262	0.47145912429470954	5.90596992905465e-18	2.5534417839801558	-0.07679192880322439	-0.4060012355421337	0.3292093067389093	74.77953645957396
3	2.0	ltm	234	diff_vonmises	0.15466793031532103	8.861819633091415	3.7450733298892964	0.8485172023183768	0.482509298507788	1.934277828325255	0.15830193204841575	-0.2902877947175637	0.44858972676597947	61.04660188766127
4	2.0	perception	234	diff_vonmises	-0.03504025854394258	-2.0076589276151333	7.91847429506581	1.1226610382574016	9.265456836359601e-21	2.1099912808612316	0.9033177945732059	-0.335815378088243	1.239133172661449	48.30601426738724
5	2.0	wm	234	diff_vonmises	0.06092354005474293	3.49066171813299	6.156925351769951	0.46451272134217275	0.045498323267569876	1.8105046601952415	0.1481511458256221	-0.2875891105480628	0.4357402563736849	53.94108167009574
6	3.0	ltm	234	diff_vonmises	0.28799101601738186	16.50066975548047	4.516065925894899	0.509609971907218	0.02565129032885063	1.1746987809802814	0.226595422240193	-0.18432160977126286	0.41091703201145585	63.66156573996551
7	3.0	perception	234	diff_vonmises	0.013165399525409367	0.7543218284094937	5.8206511129085055	1.5952596568267803	4.029937147980879e-19	2.492243410691175	1.1025703161024119	-0.3966396707916276	1.4992099868940394	56.49774318886264
8	3.0	wm	234	diff_vonmises	0.011134815516717878	0.6379779347647153	5.28753946940065	0.649465269102708	0.1877997811147638	1.7809246710123536	0.24110937158523288	-0.2834795488059604	0.5245889203911933	56.307947977915575
9	4.0	ltm	234	diff_vonmises	0.5476425726598532	31.37760809509611	0.6270069560209491	182.13126920169785	0.6159670318857672	183.61639521387036	-0.017569988578330253	-0.32874525673805266	0.3111752681597224	101.52427256879383
10	4.0	perception	234	diff_vonmises	-0.05739059594791437	-3.2882389315560974	3.1628645618181994	1.993032001443932	7.999530886534229e-21	4.278342447053046	0.6641374974390456	-0.6785119603610217	1.3426494578000674	77.22335112967971
11	4.0	wm	234	diff_vonmises	-0.04316883127683032	-2.473391838674722	1.0780267808332122	257.83978950608775	1.0631577395116538	260.29268331245584	-0.1472167254626271	-0.5272851150385662	0.38006838957593914	73.135132103026
12	5.0	ltm	234	diff_vonmises	0.08666783642511294	4.965701246689156	1.638027181737297	1.016624773633567	1.1885496315713005e-15	1.717997455748574	0.1911142638362241	-0.2558787637975689	0.446993027633793	106.30794594402894
13	5.0	perception	234	diff_vonmises	-0.03642691425224435	-2.087108447338548	2.0583483439076025	2.137624021178511	2.0032375391657625e-17	2.4407485984041912	0.7336195669572305	-0.37016921397136526	1.1037887809285958	95.6950013215862
14	5.0	wm	234	diff_vonmises	0.08119240119683337	4.651981917111486	0.7564410327702514	63.675032228946066	0.718765750678493	64.44398511757126	0.23625164513905972	-0.27416223374766435	0.5104138788867241	102.04791908288755
15	6.0	ltm	234	diff_vonmises	0.458389319114763	26.263773359151394	0.5757241828391213	128.83627545032806	0.5640729387651849	129.12475797227935	0.20855735090546546	-0.18312924877343306	0.3916865996788985	118.18658889870835
16	6.0	perception	234	diff_vonmises	-0.004037891384428985	-0.23135413446001787	1.6864975773562882	1.6531555043402484	7.492933997280352e-15	1.914561475573893	0.4642096631822149	-0.27834734544419343	0.7425570086264084	104.96944186715415
17	6.0	wm	234	diff_vonmises	0.19079348874656987	10.931661663755222	0.7001075174539525	185.0137398755379	0.6887116945586786	185.67899760095028	0.2138885284347367	-0.24753506855850738	0.4614235969932441	105.42088149063323
18	7.0	ltm	234	diff_vonmises	0.019753717291212572	1.1318046304810774	2.5508053734987834	1.0776591715984085	0.2155865515527588	2.7649624698284208	0.10302416376826873	-0.3869764781440921	0.4900006419123608	76.15003293941226
19	7.0	perception	234	diff_vonmises	0.07873957790652916	4.511445494685663	0.8563998187648779	110.60338508595858	0.8127587882070461	112.03298482369414	0.4837079149177015	-0.508221751949181	0.9919296668668824	96.13573838226614
20	7.0	wm	234	diff_vonmises	0.03723846029314383	2.13360661036264	1.4648151712875737	0.9843360646185404	2.8115069860477287e-34	2.6992673450422453	-0.009316118172988053	-0.40715125706394956	0.3978351388909615	111.55732864635519
0	1.0	ltm	235	diff_vonmises	0.16190730248995802	9.27660510502256	2.0543578711015416	1.567643646294801	0.3429167983314694	5.0492204514838726	-0.27784814551640546	-0.6784812782813878	0.40063313276498236	72.81991534055061
1	1.0	perception	235	diff_vonmises	0.07392003667557147	4.235306122962502	5.770364742501449	1.255242645964894	0.20197277665947697	4.479916009147721	0.3105506852801687	-0.7299031016465691	1.0404537869267378	53.332734468506345
2	1.0	wm	235	diff_vonmises	0.14326363202670905	8.208401472845681	3.561565037742381	0.5402082569174788	0.048882835520783964	3.9738609804178866	-0.2741130189307575	-0.6212999660997872	0.3471869471690297	68.40729730595174
3	2.0	ltm	235	diff_vonmises	0.10363422546114215	5.9378037320306625	3.3597935888943145	0.9287500326604688	0.34588118088200015	2.5015213845427633	0.10228246033591804	-0.37007862933360514	0.47236108966952317	64.93745619716347
4	2.0	perception	235	diff_vonmises	-0.039912719443429084	-2.2868303729982267	7.878342401676945	1.2214560879748892	0.04982939551586846	2.681852662980588	0.8961400498918846	-0.42838866977894435	1.3245287196708289	48.010965701073445
5	2.0	wm	235	diff_vonmises	0.05061100956416152	2.8997972449226994	4.873315160299253	0.5640593165428283	0.087343084885746	2.391306244703702	0.06792552364553589	-0.3772473316188771	0.44517285526441297	59.2496676894105
6	3.0	ltm	235	diff_vonmises	0.2327885995862221	13.337804275051388	4.570138348831895	0.4503217255849755	1.7728216369242676e-16	1.3476390945306558	0.15763170430589837	-0.21444350486432268	0.3720752091702211	63.93983384508306
7	3.0	perception	235	diff_vonmises	0.046486079333023234	2.6634561518925524	5.660777290484651	1.6508051265014183	1.0527499141833968e-17	2.5858871493582405	1.1171791470298136	-0.4115382068902132	1.5287173539200267	57.308315857034756
8	3.0	wm	235	diff_vonmises	-0.024158389876770197	-1.3841737797705052	4.634003065163562	0.6000088590245021	0.11663134054466037	1.8760291241438705	0.16512841586621768	-0.29334375219998665	0.45847216806620433	60.65339574917536
9	4.0	ltm	235	diff_vonmises	0.5665578750247983	32.46137508882129	0.4669149908663586	196.2443111246963	0.4572625590802514	198.18200658220172	-0.11088469701533654	-0.4063903295290672	0.29550563251373063	114.16860211887573
10	4.0	perception	235	diff_vonmises	-0.04364928039234758	-2.5009195452646544	3.3797645832313234	1.9606066114911416	2.847119996075972e-19	4.553223028375629	0.6486447148556647	-0.7230748096343572	1.3717195244900218	74.64996777523712
11	4.0	wm	235	diff_vonmises	0.1425011422019833	8.164714023967225	0.8153520306301605	234.93732419464473	0.8011930970238872	237.67831064152264	-0.19769732179358357	-0.5435245127704427	0.3458271909768591	82.9801296573581
12	5.0	ltm	235	diff_vonmises	0.109629397032354	6.281301760517916	1.8050081804139504	0.9680218969558934	1.6630915356191064e-15	2.208185437809244	0.11780504153596766	-0.3387492399254527	0.45655428146142035	101.75750274972376
13	5.0	perception	235	diff_vonmises	-0.0020543272207662407	-0.11770427948874572	2.0222829422343804	2.547544267188541	6.305982421844623e-18	3.4003579672364435	0.7818784732566046	-0.5180070926015024	1.299885565858107	96.50949192182426
14	5.0	wm	235	diff_vonmises	0.09770688863808467	5.598192348316988	0.6655524996051009	125.82860894436021	0.6416846063731313	127.20530380096162	0.19444997497722483	-0.4022764585717038	0.5967264335489286	105.5681410724388
15	6.0	ltm	235	diff_vonmises	0.4953028177307734	28.378761036910795	0.7100991016752534	162.7892293975987	0.6971694205765999	163.64450787036952	0.1583152278440778	-0.2615552017142946	0.4198704295583724	102.58295404452795
16	6.0	perception	235	diff_vonmises	-0.00718865279627186	-0.4118794656112952	1.2146856361858909	2.5046201055515898	0.022773989213798564	3.1898117281717067	0.4370501718739538	-0.4119267723526889	0.8489769442266426	118.94835735897782
17	6.0	wm	235	diff_vonmises	0.13965187771038964	8.00146319388242	0.5850104059898602	238.0171956960254	0.5743853072741378	239.16730428521265	0.17780985562627194	-0.36045881655964607	0.538268672185918	112.75769487712827
18	7.0	ltm	235	diff_vonmises	0.05987942729590254	3.4308384637156752	2.514741246159073	1.2788643492523155	0.39659477241441804	3.3124500189522097	0.002405191072834878	-0.4490574520607544	0.4514626431335893	70.34144672539608
19	7.0	perception	235	diff_vonmises	0.09448041013157743	5.413328747204449	0.8893609208203503	270.6969147484108	0.8709220496670256	272.23043412990893	0.46501595344608404	-0.5163577585179908	0.9813737119640749	93.1338761637355
20	7.0	wm	235	diff_vonmises	0.08656009614592669	4.9595281834082225	1.6627362111708877	1.0349821880717296	0.09238607235658969	3.1279005102981006	-0.06758068248092314	-0.4375020370862818	0.3699213546053587	95.78120096998023
0	1.0	ltm	236	diff_vonmises	0.07499245542945747	4.2967511914308485	1.0238062797787533	74.49965751059358	0.988906695964272	75.70944803428414	0.08070097572690571	-0.30016237821233993	0.38086335393924564	82.16444889350547
1	1.0	perception	236	diff_vonmises	0.032688158983927386	1.8728935498316845	7.8229828756716655	0.6841609625903323	4.919226130983796e-17	1.9326706266419444	0.44279665723120326	-0.3075939632758685	0.7503906205070718	48.6061880720344
2	1.0	wm	236	diff_vonmises	0.16133124563282777	9.243599478349426	3.9133871487512804	0.4125531585520904	1.8452158353312715e-16	1.592224546178066	0.05999967327197692	-0.25328537572293647	0.3132850489949134	69.2344626135982
3	2.0	ltm	236	diff_vonmises	0.025666906759095397	1.4706054304519722	3.5064372421632704	0.8799211744215568	0.5880052791537462	1.4672700569806896	0.2428185063669081	-0.2033705487097424	0.4461890550766505	63.264727008727675
4	2.0	perception	236	diff_vonmises	-0.0377176187526818	-2.1610603678121554	7.034214310077245	1.0843879282152042	2.4489716010398076e-19	1.614002808767949	0.8685468303890944	-0.25687565120435096	1.1254224815934455	51.30289262163234
5	2.0	wm	236	diff_vonmises	0.02406334819982156	1.3787282928035025	5.998229154222417	0.42690075020399215	0.13901293021451616	1.1960679659454128	0.18986950699145763	-0.19160875026756632	0.38147825725902396	53.68659453864896
6	3.0	ltm	236	diff_vonmises	0.21146351946137068	12.115967186119088	2.7829414315457477	0.879969707879355	0.5214049847631534	1.166703310555654	0.2594908145663394	-0.13957984301544496	0.39907065758178434	71.91756681000012
7	3.0	perception	236	diff_vonmises	0.028326663419340578	1.6229982616158323	5.554623765537336	1.4993528894207901	2.976528086874939e-17	1.8689024447816063	1.0771907388038828	-0.2974244745737952	1.3746152133776781	57.867751609934345
8	3.0	wm	236	diff_vonmises	-0.012289326883296665	-0.7041265634695609	2.6958933493678945	1.141568893501015	0.5856932608604483	1.6887747806810387	0.25918157892900984	-0.20018708049500802	0.45936865942401783	70.64898413738808
9	4.0	ltm	236	diff_vonmises	0.17462779991444724	10.005435920752825	0.7980953693952676	99.55482321472827	0.7834757406974355	100.32187223822639	0.04746310936832643	-0.18845041882033797	0.2359135281886644	93.08752458883754
10	4.0	perception	236	diff_vonmises	-0.09575994019667297	-5.486640419694524	3.076551708184209	2.0240833640282294	3.378706562245527e-17	3.4131710933372847	0.8014549887789114	-0.54036245965626	1.3418174484351715	78.32659646393688
11	4.0	wm	236	diff_vonmises	-0.06014501626204041	-3.446055590560618	1.2487292007558282	194.73461625111997	1.2319554987962305	196.2734069916064	0.007136844658305108	-0.37334532945430254	0.38048217411260765	71.42575549342422
12	5.0	ltm	236	diff_vonmises	0.12204034097819268	6.992396468387913	1.825138114956073	0.9568252243274956	1.5066010170856472e-14	1.3639877190223537	0.24988475399830645	-0.2049516584795836	0.4548364124778901	101.23287984361122
13	5.0	perception	236	diff_vonmises	-0.029553194520280567	-1.693273317141228	2.416104687233194	1.9286745333660598	1.996128727687286e-17	1.9529283885811195	0.8032020825051618	-0.3019400805256576	1.1051421630308194	88.48759002717202
14	5.0	wm	236	diff_vonmises	0.03641554592341604	2.086457090076569	0.7072174107628835	122.3202146131624	0.6926475211659627	122.66950977295683	0.2407833913997095	-0.191535379104808	0.4323187705045175	107.62369759592553
15	6.0	ltm	236	diff_vonmises	0.4164994395280342	23.86366005452061	0.7313210706700192	99.65995824080663	0.72003074473917	99.80864588785263	0.17179153761265908	-0.1127152993863092	0.2845068369989683	107.04049473904936
16	6.0	perception	236	diff_vonmises	-0.12820343947949384	-7.345516001235873	1.7316476213685996	1.6338314199453345	4.265626666207911e-18	1.6752023235340787	0.5056263531046661	-0.24242363926271887	0.7480499923673849	103.69592476387182
17	6.0	wm	236	diff_vonmises	-0.008351211480256178	-0.4784891716398798	0.7877871768764383	115.79671325874304	0.7715043371011915	116.18234445054824	0.24504782788073243	-0.19061230927829165	0.4356601371590241	101.72449956614079
18	7.0	ltm	236	diff_vonmises	-0.007084882846570979	-0.40593388545314985	2.032074307960146	1.512116753936983	0.49594392783080093	2.386092596961118	0.20064651444772352	-0.25591157081186	0.4565580852595835	78.69516449231
19	7.0	perception	236	diff_vonmises	0.0022516645982089095	0.12901087835639077	1.8222014102059108	3.5604138094044155	0.4814917135612227	4.453992116106607	0.6523357083807502	-0.4173665796529671	1.0697022880337173	85.36462853893786
20	7.0	wm	236	diff_vonmises	0.25964030610118877	14.876293731082914	3.9499064111622086	0.59561374129106	5.029107400046961e-48	1.5356022746431548	0.21039684694600522	-0.2442300454553631	0.45462689240136833	68.90271936319036
0	1.0	ltm	237	diff_vonmises	0.07104886516505929	4.070800113151952	2.1845903196223366	1.1881184325471985	0.31852572522323447	3.502514874076417	-0.1010824981267392	-0.4711645747689428	0.3700820766422036	74.39845288523367
1	1.0	perception	237	diff_vonmises	0.03918617264641204	2.245202307910402	8.464426235407618	0.8685946056548194	0.08516645329666543	3.0922327627286954	0.4573726093377175	-0.5021942985868281	0.9595669079245456	45.82588430582112
2	1.0	wm	237	diff_vonmises	0.11406947215161672	6.5356993255727165	3.749635958008091	0.4349950477321224	2.0067304748055885e-15	2.8305138788844215	-0.1277245348761854	-0.45031158461243864	0.32258704973625324	70.77463900719775
3	2.0	ltm	237	diff_vonmises	0.09890881164997581	5.6670574641980025	4.071310248000732	0.6208252924353416	0.21280477985473847	1.8034800550887236	0.13080163770927422	-0.2778783202857575	0.4086799579950317	62.51595425644726
4	2.0	perception	237	diff_vonmises	-0.03876132408941387	-2.2208602786621836	8.186229075844526	1.0992363218100822	0.01681463559059366	2.1042966368881517	0.8937195267700706	-0.33467516645759	1.2283946932276606	47.361814590116694
5	2.0	wm	237	diff_vonmises	0.032314089221306054	1.8514609311900216	5.339397834648951	0.4759761917418353	0.0723913723794032	1.8658479619445911	0.108557801549864	-0.2952680575608526	0.4038258591107166	57.22558932005691
6	3.0	ltm	237	diff_vonmises	0.22143681107417618	12.687394703386063	4.328831182856363	0.42631924927731585	9.465848306390767e-22	1.0615331468061306	0.17318344496210586	-0.16888878081004446	0.34207222577215035	65.74216996466595
7	3.0	perception	237	diff_vonmises	0.03617345491491037	2.072586297031129	5.912075704231605	1.528681340820081	1.61928126554238e-22	2.130307691100535	1.109514101760892	-0.33903838781965495	1.448552489580547	56.04736046172184
8	3.0	wm	237	diff_vonmises	-0.0300491928220786	-1.7216919264799113	4.055978564100718	0.6758777844029442	0.25705168124294814	1.6217389511113158	0.19526719196985798	-0.24721474528587967	0.44248193725573765	62.57511168805854
9	4.0	ltm	237	diff_vonmises	0.18736347788032975	10.73513651743565	0.6871422095525475	125.02943652671334	0.6735901113745225	126.36368620645655	-0.05031455228199633	-0.27783712347440037	0.22752257119240404	94.59038242928335
10	4.0	perception	237	diff_vonmises	-0.04920871877663459	-2.8194519011473296	3.259601370367246	1.906907982716412	5.308551351278367e-17	3.751204669006403	0.7119837708308039	-0.5950921220855325	1.3070758929163364	76.04088773116072
11	4.0	wm	237	diff_vonmises	0.03473136848316123	1.9899608307988224	0.996227748236002	228.8376469022852	0.9825312958177893	230.90937779690935	-0.1076275423086912	-0.43930867313313016	0.33168113082443895	76.73990524399167
12	5.0	ltm	237	diff_vonmises	0.146140264325666	8.37322036278693	1.834569692282675	0.9352230015601923	6.016194329390171e-16	1.8487841106086917	0.1635989167861277	-0.2825679792691517	0.4461668960552794	100.98091102105107
13	5.0	perception	237	diff_vonmises	0.0080711209450077	0.4624411660885818	2.27874852167868	2.1224714149726385	2.5929188732732976e-18	2.6994015900701194	0.7544583256366088	-0.4172022877707956	1.1716606134074043	91.08691780714105
14	5.0	wm	237	diff_vonmises	0.07144573180983241	4.09353889692697	0.6401649128045688	145.03000116119367	0.6232710756048601	146.0259418794422	0.19616623734959404	-0.3229453934744644	0.5191116308240584	108.73587682819473
15	6.0	ltm	237	diff_vonmises	0.4384221668691185	25.1197398065808	0.708713611598774	122.54630592333127	0.6954154664104563	123.1611199357233	0.13622706892324743	-0.19863499725153133	0.33486206617477876	103.39306032817618
16	6.0	perception	237	diff_vonmises	-0.05794226059817479	-3.3198469877225802	1.5295163080486691	1.8571943607123031	8.014396693233829e-19	2.4162147350813252	0.4294372173780197	-0.3463476559059402	0.7757848732839598	109.54068407270128
17	6.0	wm	237	diff_vonmises	0.032842780290388715	1.8817526981147177	0.5841371578558529	193.16565393082695	0.572460647987469	194.08997383434928	0.18529603517094984	-0.31359312376664583	0.49888915893759567	113.89945559785052
18	7.0	ltm	237	diff_vonmises	0.056182566542876226	3.2190239451197122	1.7576531800006352	2.3254713166083767	0.6508450834155537	3.708683103048358	0.08856369523471752	-0.3412242105345156	0.42978790576923315	76.34328501199334
19	7.0	perception	237	diff_vonmises	0.06835107690392143	3.916228231768816	1.829624403731808	2.495389304976732	0.2568905572034053	3.6816043808383925	0.4744443978469606	-0.4289110859629748	0.9033554838099354	89.95961633049924
20	7.0	wm	237	diff_vonmises	0.10010480572217843	5.735582876857877	1.8675304811163445	0.736519579285667	3.3730415861516414e-22	2.246239686119339	0.006995379561736181	-0.3487986696677225	0.3557940492294587	100.17547873351455
0	1.0	ltm	238	diff_vonmises	0.07800697491688686	4.469470435320493	1.5374256257762564	3.0998148523978535	0.4190215185397193	6.856045261659558	-0.2257386223409228	-0.7520288633793837	0.5262902410384609	79.95832387064118
1	1.0	perception	238	diff_vonmises	0.021833947530877935	1.2509930436293903	7.0247183854560795	0.9632524408852858	0.060433380131175586	4.324035042252848	0.2685644775762004	-0.6929528687778471	0.9615173463540475	50.24580783718983
2	1.0	wm	238	diff_vonmises	0.1545941861715288	8.857594404888316	3.9887168146053518	0.5628975734460754	5.736468612075423e-15	4.0656110809536905	-0.21494649924284553	-0.6469138295555785	0.431967330312733	68.55920281327326
3	2.0	ltm	238	diff_vonmises	0.04286709157796183	2.456103427418009	3.377811517745764	0.9095956999784203	0.18368357304880673	2.8075177604809545	0.10451294072142692	-0.4214764483346286	0.5259893890560555	68.01568225184849
4	2.0	perception	238	diff_vonmises	-0.06477070940405169	-3.7110882849204736	6.803261738317202	1.2579909604217083	0.02948250424636865	2.9670193111814678	0.7967442175573589	-0.4708079183947169	1.2675521359520758	51.809331367145035
5	2.0	wm	238	diff_vonmises	-0.015601968437043588	-0.893926943538919	3.7649465099469728	0.7877508975313064	0.12159385398209088	2.796153046313553	0.08518279509643234	-0.42982737858139625	0.5150101736778285	66.09606080693541
6	3.0	ltm	238	diff_vonmises	0.14607707867710293	8.36960009179847	2.774097145921834	0.7096647314186031	3.3852862491126326e-17	1.9521935128759376	0.13365588663157402	-0.3089705062761783	0.4426263929077523	82.5489139211985
7	3.0	perception	238	diff_vonmises	0.04769721441032694	2.732849080242305	4.679270454580762	1.9342956152443251	1.8067539716051455e-19	3.014166376648002	1.1390810772130815	-0.4795798815420812	1.6186609587551626	63.16979681942394
8	3.0	wm	238	diff_vonmises	-0.07353062981403742	-4.212994753283166	3.0510260761053583	0.9590777824321893	0.09598445770460423	2.433926977174042	0.2087863259883534	-0.36349864200937804	0.5722849679977314	74.60451319820734
9	4.0	ltm	238	diff_vonmises	0.24190526504591248	13.860150729124342	0.053567753185489946	144.9319251298089	0.04368982128640119	147.01747394724424	-0.11333217401382711	-0.5397630792303971	0.42643090521657	172.49972403650384
10	4.0	perception	238	diff_vonmises	-0.03150882277690434	-1.8053225625422973	2.5784477331747375	2.5636678833131237	0.0765111342082645	5.243642448160909	0.6389196021635246	-0.7711175694230483	1.410037171586573	82.05481253771973
11	4.0	wm	238	diff_vonmises	0.22646842767763803	12.975685098892379	0.7412084625591141	328.27332762018307	0.730465891721237	331.1268046405796	-0.15555921775568038	-0.5764960612173553	0.4209368434616749	89.12103439438778
12	5.0	ltm	238	diff_vonmises	0.17581383470257694	10.07339070846835	1.8717530970289724	1.0434790531006126	3.941922887901724e-15	2.368972404952418	0.14009107945307647	-0.3647927902055053	0.5048838696585818	100.02631439401699
13	5.0	perception	238	diff_vonmises	0.016335614165171382	0.9359617474184438	1.7582371187332702	2.96326751133946	1.1888978786416908e-15	3.893939408604992	0.7939681611819795	-0.5777468626506421	1.3717150238326217	103.01407856673092
14	5.0	wm	238	diff_vonmises	0.07127281635878296	4.083631571369236	0.6543162147806161	159.33970625709028	0.6350044906664104	160.73835587265998	0.20391834372719586	-0.4138107122340724	0.6177290559612683	106.44617116217586
15	6.0	ltm	238	diff_vonmises	0.5727245073809333	32.81469709663664	0.742406740523706	150.58748024541967	0.7295936744472312	151.44383256258354	0.11970784491821718	-0.24108535368253747	0.36079319860075465	99.17648481657992
16	6.0	perception	238	diff_vonmises	-0.05223087736606494	-2.9926088333408987	1.198950103043152	2.5805212535620057	0.04965060600567221	3.3103152505112754	0.42453991060394214	-0.4121275132108829	0.8366674238148251	118.06173856150632
17	6.0	wm	238	diff_vonmises	0.0669572833744294	3.8363697450162793	0.535982918631542	215.36520716841767	0.5257972087280647	216.56895494499022	0.1090263990019551	-0.3465219328341256	0.4555483318360807	116.08369114681582
18	7.0	ltm	238	diff_vonmises	-0.010116796429334786	-0.5796497375939044	3.436008651673472	1.0690753461976557	0.44944142889732985	2.992508673867288	0.045599326289755826	-0.45028959367913907	0.4958889199688949	61.82970617079462
19	7.0	perception	238	diff_vonmises	0.10920092815311007	6.256752302084538	0.8958661319661343	247.45099431664426	0.876171299225176	248.72074647205662	0.5247508353768353	-0.48230095338364265	1.007051788760478	93.93692674442076
20	7.0	wm	238	diff_vonmises	-0.34956629929042576	-20.02867360934838	0.46796153917905137	2.8319485861955083	4.80040910514568e-13	5.008231848933113	-0.11524876634531844	-0.5296525874656859	0.41440382112036744	151.85861117277392
0	1.0	ltm	239	diff_vonmises	-0.09163059284468296	-5.2500462442819735	0.934555283210791	257.6818634967582	0.9170077590885046	260.3090856827492	0.003622430776914598	-0.5903386842253191	0.5939611150022337	82.99259382933289
1	1.0	perception	239	diff_vonmises	-0.02630397812676612	-1.5071069310681318	9.672993032645746	0.7678148983286575	1.0423723812950508e-19	3.1235365523760126	0.4422757694738215	-0.49712627851230545	0.9394020479861269	43.66011645329661
2	1.0	wm	239	diff_vonmises	0.11528695670840337	6.605456052298947	3.640812193896854	0.5825539907777821	1.037419224253333e-24	3.0903133717318623	-0.06653626030513643	-0.4915459617640267	0.4250097014588903	71.85249144050772
3	2.0	ltm	239	diff_vonmises	-0.028602763609063196	-1.6388176372096996	3.0260379635518393	0.7206597068586363	4.114599251649033e-16	2.3810156657936283	0.09535191160165729	-0.3778342583349356	0.4731861699365929	78.98846509002877
4	2.0	perception	239	diff_vonmises	-0.0747419052339716	-4.28239572267333	6.652501192229999	1.1630230860848094	0.015783057120463826	2.6029795511358014	0.751491238399461	-0.4128444210240973	1.1643356594235583	52.561831369324835
5	2.0	wm	239	diff_vonmises	-0.10817735717601111	-6.198106005064687	3.2214963033151927	0.8213664298300339	0.13829991410434622	2.4449255413191904	0.11540275876359063	-0.3657562797619621	0.48115903852555275	70.89997269700314
6	3.0	ltm	239	diff_vonmises	-0.03667871227606921	-2.1015354113934475	0.9968921818846919	4.247079916775927	0.5276415019501118	5.268448634988526	0.12157006009063553	-0.27682342397804277	0.3983934840686783	97.63153794689427
7	3.0	perception	239	diff_vonmises	0.05041421254914898	2.888521606541708	4.346790109814162	2.07234633424526	0.1198292686806053	2.701441738610945	1.1839827429935783	-0.40953721579818353	1.593519958791762	63.982002369275136
8	3.0	wm	239	diff_vonmises	-0.1584958579431132	-9.081143730445431	3.214553049225528	0.8303215949402191	1.162154256579441e-16	1.8771862700785458	0.2667742533729261	-0.2978507508072875	0.5646250041802137	76.58091953815978
9	4.0	ltm	239	diff_vonmises	-0.21934214445414535	-12.567379146571364	0.49498716607867205	111.2429469147358	0.47680443193307603	112.68002352576264	0.02882121557078321	-0.36518158199467265	0.39400279756545586	118.18399153190609
10	4.0	perception	239	diff_vonmises	-0.023791993783708283	-1.363180830007975	1.0125820127113834	170.40859883266208	0.971802712398574	172.242602947944	0.6984748209130913	-0.658417404084771	1.3568922249978623	88.3428848456538
11	4.0	wm	239	diff_vonmises	0.14647222056401313	8.392240054227258	0.8165053618539411	232.2726644970588	0.804164159023588	234.29220023637083	-0.06746859677960515	-0.4250402134052713	0.35757161662566617	86.61710335046598
12	5.0	ltm	239	diff_vonmises	0.33447186435748066	19.16382619355579	0.8190952320422542	65.01726211301198	0.7785833369696225	66.09301312644097	0.18074529581088683	-0.3102060058297944	0.49095130164068124	95.68092894959474
13	5.0	perception	239	diff_vonmises	0.06039629675920069	3.460452902521851	2.034892492289667	2.551580994895133	8.52198690179694e-20	3.4092153655929405	0.7874654323510506	-0.5198716744640849	1.3073371068151354	96.22115094248196
14	5.0	wm	239	diff_vonmises	0.008333243933313273	0.47745970703184815	0.5429700371855983	166.1875288981889	0.5281473797042351	167.3577925346457	0.1678374825792872	-0.3717380737619127	0.5395755563411999	117.09953442783646
15	6.0	ltm	239	diff_vonmises	0.5995415612176267	34.35120110045429	0.8567244907044635	99.39268607508542	0.8416019085725582	100.20056813359389	0.035083047110720855	-0.1921520425479475	0.22723508965866834	88.92245345459634
16	6.0	perception	239	diff_vonmises	-0.16114233225579286	-9.232775539151762	1.518183693919734	1.788735386873433	1.731723315228033e-14	2.568061845523695	0.3717455891938329	-0.3712494606719235	0.7429950498657564	109.8142725459888
17	6.0	wm	239	diff_vonmises	-0.28229821758640705	-16.17449643176692	0.3315779190504832	132.22193910899588	0.3191185971612728	133.3848254230817	0.04852198113063011	-0.3452299435542372	0.3937519246848673	138.67567605625334
18	7.0	ltm	239	diff_vonmises	-0.05702169731613504	-3.2671025968869913	2.8990313654761626	1.4239578126014654	0.8493332273440847	2.4913315060965773	0.13459121963393494	-0.3103939594998085	0.44498517913374347	62.29328680339171
19	7.0	perception	239	diff_vonmises	0.06639761952422883	3.8043033684537453	1.900943209429859	2.1809743997091253	0.18994777516797967	2.915546284089744	0.5349688435986232	-0.3596292480912239	0.894598091689847	91.73205249645576
20	7.0	wm	239	diff_vonmises	-0.5347020137547999	-30.636168685296123	0.0006827824505054361	1806.858885589598	2.963257141378774e-23	1808.3321677812153	-0.03810249015327827	-0.43079077046672865	0.3926882803134504	171.96312356308724
0	1.0	ltm	240	diff_vonmises	0.12112117645953695	6.939732220790766	1.3131527083756247	3.0355211360050895	0.47756969485104844	5.189054492889558	-0.044861152125931225	-0.4586792911241699	0.41381813899823866	85.33365315579607
1	1.0	perception	240	diff_vonmises	0.0546601907978978	3.131798240099364	6.979223869122232	0.7088775877131953	0.018219687638311687	2.8926564868194964	0.2638997092400858	-0.45982124287812964	0.7237209521182155	51.131337489897135
2	1.0	wm	240	diff_vonmises	0.14707151515633282	8.426577105052191	4.860181727824801	0.4058622270850568	1.1500051915306237e-20	2.475341106797838	-0.04735918288159424	-0.3939419544657483	0.34658277158415407	61.95891512399345
3	2.0	ltm	240	diff_vonmises	-0.018956037814198242	-1.0861009630439535	2.503438564404561	1.4072470930714334	0.5084483367916013	2.555551181384247	0.19545462524791712	-0.3145851480486386	0.5100397732965557	71.66548656585402
4	2.0	perception	240	diff_vonmises	-0.04181327832634109	-2.395724375705183	6.7566871855234885	1.1186377735156168	4.399760376791401e-22	2.3540340158817865	0.7620361216370087	-0.3746546116830842	1.1366907333200928	52.369272677011764
5	2.0	wm	240	diff_vonmises	0.04126966245901694	2.3645774808311657	5.3381943586446585	0.4954246946573098	0.10023404899693415	1.892427516499056	0.11265534073069894	-0.30031959812054926	0.4129749388512482	56.736711987356955
6	3.0	ltm	240	diff_vonmises	0.1764601360275306	10.110421046681909	2.0196648136601216	1.5628030569336844	0.47357274519128767	2.3578691854452845	0.24084992696411855	-0.25126386474207746	0.492113791706196	80.10521723192701
7	3.0	perception	240	diff_vonmises	0.030626962483100997	1.754795689587199	4.974043447401746	1.7512372781645744	3.1385289518245607e-16	2.685757650905777	1.0868326866779197	-0.42737918788651985	1.5142118745644395	61.223842625885254
8	3.0	wm	240	diff_vonmises	0.02486644441199272	1.4247423163038528	2.409358967659665	1.1564884105740363	0.3040507226289966	2.3403111501286618	0.1735219980373004	-0.30608343930572496	0.47960543734302535	76.88283242233533
9	4.0	ltm	240	diff_vonmises	0.3848559717954474	22.05062290428498	0.42166413978792167	167.12386066620957	0.4106448239180392	168.67193033551152	-0.017298359262504448	-0.3796724098985962	0.36237405063609174	124.69275841782559
10	4.0	perception	240	diff_vonmises	-0.08924707493105115	-5.113480727437043	3.0132833809114192	2.106406176089241	6.571599677155765e-15	4.201309418974556	0.7144171084582515	-0.6653206984360593	1.379737806894311	79.1553804102567
11	4.0	wm	240	diff_vonmises	-0.007448986716865286	-0.42679550052539245	0.939479439493232	217.4131661407341	0.9233395579947864	219.69863465315302	-0.08057526147115368	-0.4885627143361866	0.4079874528650329	80.43954148922921
12	5.0	ltm	240	diff_vonmises	0.08218009195135742	4.708572428809806	1.9136602338435837	1.0566674913238001	3.3989642480494474e-12	1.976439328979896	0.2161728113897331	-0.30300659468593055	0.5191794060756636	99.04870388424823
13	5.0	perception	240	diff_vonmises	-0.03416499057386183	-1.9575097669865233	2.1045777516481627	2.322044013276715	2.550717390050485e-16	2.9030120798884385	0.7732667758330429	-0.44367355483489884	1.2169403306679418	94.67964032542235
14	5.0	wm	240	diff_vonmises	-0.005304272435908913	-0.30391242396515716	0.6586180244937159	167.38343863871393	0.6451967466684142	168.28331277702105	0.18034093168594012	-0.2896355989318149	0.469976530617755	107.04267080856002
15	6.0	ltm	240	diff_vonmises	0.38690088594929717	22.16778785476714	0.5594519482650235	154.81826085628506	0.5496690153533147	155.40578850745405	0.13479440930495912	-0.21278624984354444	0.34758065914850356	116.51374041398313
16	6.0	perception	240	diff_vonmises	-0.11773341941400682	-6.7456280400661806	1.5688894154008568	1.8513849362558839	2.856971153130015e-19	2.3894497179710843	0.4437772198109757	-0.3445442623484154	0.7883214821593911	108.31942713164074
17	6.0	wm	240	diff_vonmises	0.04425609669217282	2.535687558184386	0.7165422149578959	164.64379012963994	0.7031942294595909	165.48489563677316	0.17917112035450344	-0.26735695335167087	0.4465280737061743	102.65514406788864
18	7.0	ltm	240	diff_vonmises	-0.04438189366784121	-2.5428951939656947	1.8570552330890948	2.167105267273544	0.5117887355747087	3.830311196113555	0.11526026942674272	-0.40505526056367636	0.5203155299904191	78.15843706389245
19	7.0	perception	240	diff_vonmises	0.0167984662413077	0.9624812179199228	1.0010101369501592	303.54475391257415	0.9817490912994151	304.95691376754877	0.6291574399304949	-0.5407921190998088	1.1699495590303037	88.92068534181064
20	7.0	wm	240	diff_vonmises	0.2209446849630933	12.659197954232829	6.248528671587306	0.5651276055275948	1.5292559852283346e-31	2.329240655504573	0.18054289329936296	-0.3707081031355712	0.5512509964349341	54.49350898079496
0	1.0	ltm	241	diff_vonmises	0.10208175360890508	5.848853647084621	4.0800419398916405	0.5182927104975593	0.11489090107736147	3.783436436646426	-0.2704260089139857	-0.5988341622911015	0.3284081533771158	61.278941559536605
1	1.0	perception	241	diff_vonmises	0.06522895003720346	3.737343539201472	8.918275802589312	1.0121778560335606	0.166651387152333	4.23049900843014	0.39801690419392854	-0.7130066019326322	1.1110235061265608	43.87250845660685
2	1.0	wm	241	diff_vonmises	0.09915567870024082	5.681201904279031	2.0701186549911172	0.9893074652436216	0.1784068422344004	4.674967556270482	-0.36125007795830866	-0.672446301756717	0.3111962237984084	77.11729170701292
3	2.0	ltm	241	diff_vonmises	0.14077016046031315	8.065536075755322	3.4534181208883004	0.6388082288296848	0.17856310549795334	2.0686326863871565	0.0624504194700522	-0.31252320456880783	0.37497362403886003	67.30261357022354
4	2.0	perception	241	diff_vonmises	-0.03489572594406734	-1.9993778196402288	8.269379608799808	1.1942153867072436	0.1698643738897891	2.6131244496845287	0.8586898293376491	-0.4325010029451603	1.2911908322828094	46.1394237565064
5	2.0	wm	241	diff_vonmises	0.0886671799361598	5.080255191669009	5.801891498566601	0.4308002115823525	0.034333866202953686	2.3351456975554887	0.019678344834738626	-0.37063647413111145	0.3903148189658501	55.475606302608924
6	3.0	ltm	241	diff_vonmises	0.23237264140100694	13.313971626584639	3.958534260256831	0.4199483240519631	1.2681934634185169e-18	1.2771966693383239	0.1177563403022823	-0.20315514431603934	0.32091148461832164	68.82757714157785
7	3.0	perception	241	diff_vonmises	0.03207194098423301	1.8375868591892028	6.494452662423292	1.4902168969594272	0.0012316152437671093	2.4592953074929977	1.0915634364016704	-0.39108170965817	1.4826451460598404	53.41085084062823
8	3.0	wm	241	diff_vonmises	0.02603829050284289	1.4918841515484718	5.898256791746942	0.47864614969954744	0.165619386780315	1.9192297049570701	0.09489248812773549	-0.3117109593423379	0.4066034474700734	53.0624011998614
9	4.0	ltm	241	diff_vonmises	0.2520843053168857	14.443366776144808	0.7908767920924721	192.5902448830138	0.7782886533114838	194.59890792096726	-0.1386259847606084	-0.39856283910425105	0.25993685434364266	84.62358613893494
10	4.0	perception	241	diff_vonmises	-0.023147429868032757	-1.326250038013341	3.588128642292346	1.7312244761586444	1.8587062692699302e-18	3.925887659011524	0.6289616570977234	-0.6238657660191056	1.252827423116829	72.39095637013475
11	4.0	wm	241	diff_vonmises	0.14647213057926048	8.392234898480712	0.763785396688707	189.78592861851467	0.7476715399603372	192.54621473947697	-0.22671229673858306	-0.5344037851264964	0.3076914883879134	84.56058545905364
12	5.0	ltm	241	diff_vonmises	0.05270250382122755	3.0196310387284324	1.938905426198448	0.9466281322616912	3.4450842639066147e-15	2.3982312484093797	0.09757744741379454	-0.3717713896118413	0.46934883702563585	98.44719838441932
13	5.0	perception	241	diff_vonmises	0.020242532209646103	1.1598116622703503	2.2504808764732815	2.143968951097767	1.4673295942385488e-23	3.3962924931319605	0.6467487690103308	-0.527359636158413	1.1741084051687438	91.64231810423098
14	5.0	wm	241	diff_vonmises	0.053036428074656694	3.0387634891269792	0.5748405347811876	143.75299058556197	0.5543124651984614	145.6046999347525	0.08065410051662525	-0.47215894501531963	0.5528130455319449	110.41517193571116
15	6.0	ltm	241	diff_vonmises	0.3766199064945084	21.578731122747033	0.5733388577041892	133.25894095268512	0.556515872627658	134.59492116456758	0.07889408950384791	-0.3519507769395709	0.4308448664434188	111.11210883097687
16	6.0	perception	241	diff_vonmises	0.04837502542992447	2.771684790972703	1.3093364448393212	2.1828708487243467	5.994792966131055e-17	3.56538220883792	0.3038594022603054	-0.5039289545137168	0.8077883567740222	116.73337871351642
17	6.0	wm	241	diff_vonmises	0.12911130883296362	7.397533083538962	0.4977017202085446	282.37275168058176	0.4874608198529368	284.0844856362753	0.12148719667221997	-0.4860621941466121	0.6075493908188321	119.71182555844754
18	7.0	ltm	241	diff_vonmises	0.09526702747288032	5.458398600952907	1.0042883796931605	161.77155960281692	0.98054808724556	164.0156254507317	-0.03160979252321283	-0.4995182652329042	0.4679084727096914	79.19102243865592
19	7.0	perception	241	diff_vonmises	0.1370282806664177	7.85114215611983	1.9304481563185314	1.8975830489978927	0.09086904423249648	3.736458292611593	0.308276044311502	-0.5224187927097158	0.8306948370212178	93.05649697792538
20	7.0	wm	241	diff_vonmises	0.2291796177838629	13.131024849436688	0.844385108561171	117.35598787012997	0.8164825938963332	119.69775763022587	-0.09333243419445836	-0.48902118709706777	0.3956887529026094	84.99635051640749
0	1.0	ltm	242	diff_vonmises	-0.06599949578114812	-3.7814925582512697	1.006419626359966	275.65869642377197	0.9884874098075833	279.0186926714792	-0.20551388052901132	-0.7062417866793638	0.5007279061503525	75.66671519440499
1	1.0	perception	242	diff_vonmises	0.0824886588906441	4.726252012128203	16.35615828700266	0.6036591708746517	1.2394228386363934e-18	3.79690627399443	0.3618295955313857	-0.604296401962838	0.9661259974942237	33.48779222955369
2	1.0	wm	242	diff_vonmises	0.07162379200747618	4.103740994751223	4.227598696462402	0.5039643477331326	0.12462477212050506	4.098252113790801	-0.3366489665051931	-0.6537940674245646	0.3171451009193715	59.49586644531087
3	2.0	ltm	242	diff_vonmises	-0.10155763971624059	-5.818824133050773	2.197122597461991	1.281451919837897	0.29385755224028137	2.7560486236267243	0.12356554451738477	-0.354907416289832	0.4784729608072168	79.1478596299923
4	2.0	perception	242	diff_vonmises	-0.035863573755145435	-2.0548314144259785	6.690732708098099	1.2493771002727012	0.24710183652594203	2.8557229477895776	0.6901312393892329	-0.47183485223955046	1.1619660916287833	50.358817692303006
5	2.0	wm	242	diff_vonmises	0.06535332070572686	3.7444694536030836	5.08563936887457	0.4033581852190967	0.08710445405151315	2.288027219986885	-0.04361225462145585	-0.3638188531783239	0.32020659855686806	57.49241457159417
6	3.0	ltm	242	diff_vonmises	0.027210549079430667	1.5590496204849646	1.03418936718118	157.07103651140193	1.0184690227155102	158.0094162417751	0.1420305911667512	-0.2596836978617567	0.4017142890285079	83.58261499278083
7	3.0	perception	242	diff_vonmises	0.0625012069319722	3.5810553716758116	4.394853162150627	2.0503716318647305	0.33386004459232715	2.871832647786308	1.0381006303415243	-0.42806306608729	1.4661636964288143	61.32301923782114
8	3.0	wm	242	diff_vonmises	0.2532025690116317	14.507438566236459	0.7972494437035128	90.67037717597971	0.7746273151592336	92.02131240401427	-0.0119685632605524	-0.295525152909935	0.2835565896493826	89.81233161183079
9	4.0	ltm	242	diff_vonmises	-0.07334389795775624	-4.20229580601761	0.6698966421348126	176.12709489753152	0.6577887486049935	177.9953935931836	-0.11094182360830729	-0.3733289078595128	0.2623870842512055	93.52898482887878
10	4.0	perception	242	diff_vonmises	-0.0501919133753125	-2.8757848020916326	1.982632228284488	3.8935309161265628	0.48966377061748495	5.560964126032627	0.636674034079967	-0.5713942342780586	1.2080682683580255	80.92775409088128
11	4.0	wm	242	diff_vonmises	0.0692973758142917	3.9704471654908606	0.6705799747677683	51.725859588345024	0.6225642193859213	53.93592862853946	-0.12443284168653612	-0.44452018134590254	0.3200873396593664	95.23213883088962
12	5.0	ltm	242	diff_vonmises	0.058168761546239095	3.3328245361023767	1.6904918044473025	1.6255728652273524	0.22317056788266448	3.5787826582541014	0.05396128423384128	-0.44357298740831197	0.49753427164215325	89.38478504827765
13	5.0	perception	242	diff_vonmises	0.03737778649857951	2.141589413909677	1.5753720150657953	4.950884719330936	0.41483414381615763	6.821702269440495	0.6338597874111946	-0.6382961580773898	1.2721559454885845	89.97724695204533
14	5.0	wm	242	diff_vonmises	-0.12733746124327278	-7.295899103150223	0.4488358076104402	245.14146819230714	0.4386236199664573	247.32022491381068	-0.04934251822845681	-0.5095075038862547	0.46016498565779784	120.70787302859618
15	6.0	ltm	242	diff_vonmises	-0.41876718699850235	-23.993592413579904	0.0001461819176870629	6619.605915963955	1.1073334003875635e-28	6621.816476508243	-0.19780707401264408	-0.5058249445814909	0.3080178705688468	175.03972057524007
16	6.0	perception	242	diff_vonmises	-0.16824886348929233	-9.63994978580918	1.2156187832921772	2.410896281908233	4.1968455943949827e-20	4.534769469857609	0.19925467594440938	-0.6407467103589624	0.8400013863033717	119.96779104358117
17	6.0	wm	242	diff_vonmises	-0.1978875215858931	-11.33811980517565	0.719828452546928	6.963921076028787	0.3160526718000396	9.17578792865322	0.05386365092787293	-0.5626372950873375	0.6165009460152104	116.39707080621137
18	7.0	ltm	242	diff_vonmises	0.041163825609090765	2.358513476013436	1.067868723589043	213.46104375006695	1.050195249338086	215.47857590199004	0.0010595400334096894	-0.464182612270406	0.4652421523038157	77.3298398768442
19	7.0	perception	242	diff_vonmises	-0.004211030382535248	-0.24127426832063031	2.3622915765613466	2.3060350260416733	0.2868284706347098	4.131397925146201	0.45615646321584535	-0.5311825963970283	0.9873390596128736	79.00848284086484
20	7.0	wm	242	diff_vonmises	0.3358198777755919	19.241061673140567	1.1411718694057345	110.95881242767754	1.1012048924310363	113.22134614967912	0.011857338556680475	-0.5314002612591437	0.5432575998158242	75.29224614154526
0	1.0	ltm	243	diff_vonmises	-0.009912837840078136	-0.5679637712340561	1.0917756416271147	252.85770790470426	1.0753725586637406	255.39153940177013	-0.12383617234397093	-0.5535194641517407	0.42968329180776976	73.52474516396643
1	1.0	perception	243	diff_vonmises	0.05143775747216489	2.9471664107725624	8.63390130337144	0.88045011378238	0.038862163757346975	3.1289195189893073	0.4987515600744157	-0.5012257269208343	0.99997728699525	45.795854015134296
2	1.0	wm	243	diff_vonmises	0.10144863787442254	5.812578787555447	4.4928461980572445	0.37361293653851013	1.9233675105174855e-13	2.8499237530294117	-0.14765506207895096	-0.45354115276619994	0.305886090687249	64.49839395338529
3	2.0	ltm	243	diff_vonmises	0.06742416506720665	3.86312009554434	4.214516842551261	0.615534477554785	0.2003343153389983	1.8816808079627225	0.12463611495569932	-0.29203511176217345	0.41667122671787277	61.65208292795569
4	2.0	perception	243	diff_vonmises	-0.03545098389534391	-2.031191756789457	8.10493356757568	1.1500139410449435	0.027817201011943366	2.152490401092738	0.9325461942202449	-0.34264303500311083	1.2751892292233558	47.525626739547874
5	2.0	wm	243	diff_vonmises	0.013711029459903464	0.785584120832005	4.824868566328456	0.5071830657069036	0.11613257443231206	1.88210667231196	0.0961866934436913	-0.2966438132313412	0.3928305066750325	59.172003997627
6	3.0	ltm	243	diff_vonmises	0.20484856484873418	11.73695820514442	5.110804565989086	0.34500215827550157	1.806148867509536e-21	0.9013372023481562	0.15920817821645847	-0.14344126046959665	0.3026494386860551	60.37981310753179
7	3.0	perception	243	diff_vonmises	0.058405537311205485	3.3463907881259325	5.929583268113367	1.5019228880094178	8.691048842083495e-19	1.8609863278207714	1.129090754390011	-0.29617508933944603	1.425265843729457	55.96964374878178
8	3.0	wm	243	diff_vonmises	-0.06874966119850795	-3.9390654296288226	4.389999510005188	0.5387573075860383	0.20591220147453734	1.260343779664979	0.19182160289893782	-0.19430055606272645	0.38612215896166424	61.35775261864106
9	4.0	ltm	243	diff_vonmises	0.21620621972356804	12.387703894638586	0.44265347826875023	103.50897462434764	0.4320031948959031	104.6803324650385	-0.07042013530448799	-0.24672873120727523	0.17630859590278725	117.39515787137913
10	4.0	perception	243	diff_vonmises	-0.05147840933529154	-2.9494955909590628	3.3978027062124636	1.8898172465626306	0.010502956061874659	3.624613395441658	0.7448904963847556	-0.5693715443508629	1.3142620407356185	74.0351971233394
11	4.0	wm	243	diff_vonmises	0.05845013933286356	3.348946295724691	0.9990592158726482	211.17419507464803	0.9863167607711301	212.93777048979925	-0.08871911833675483	-0.37503417444450093	0.2863150561077461	76.74053541456797
12	5.0	ltm	243	diff_vonmises	0.2502834036789476	14.340182712972757	0.7110458347974753	28.974624060809763	0.6400692353390219	29.95065473415661	0.12483944716026052	-0.2759641212622199	0.40080356842248044	103.42346809849965
13	5.0	perception	243	diff_vonmises	0.02584165093993919	1.4806175345087924	2.4780246896256894	2.1837727767895583	7.120981641640672e-19	2.7724117154735275	0.8390134114542509	-0.4322275707489087	1.2712409822031596	87.3822244293749
14	5.0	wm	243	diff_vonmises	0.09720215865128079	5.569273450279431	0.6096225060848515	172.129825577188	0.5955192144868603	173.1171251820446	0.1982193223614388	-0.3288322554909211	0.5270515778523599	111.51632165517717
15	6.0	ltm	243	diff_vonmises	0.4837557404972905	27.717162245720623	0.9180369131518452	128.50031298605003	0.9043477211863741	129.1950617071504	0.11004537243724855	-0.19419037736958877	0.3042357498068373	89.12121533196421
16	6.0	perception	243	diff_vonmises	-0.12047522463436089	-6.902721907439405	1.3509246142897533	2.09271277459617	3.4081255476455885e-12	2.586014254822374	0.43948684910564784	-0.35448622121441553	0.7939730703200634	115.2562545752698
17	6.0	wm	243	diff_vonmises	-0.07605041244786948	-4.3573676634921	0.5298718521015963	163.43004349252	0.5167108056681866	164.31924015754913	0.18121170674306342	-0.31668949202883034	0.49790119877189376	119.57306893741492
18	7.0	ltm	243	diff_vonmises	0.09207429998850894	5.275468790963006	1.1868240998740416	90.87071141278048	1.157721400266563	91.98144581396352	0.07804225434011158	-0.2848441511001827	0.36288640544029427	75.92939168416112
19	7.0	perception	243	diff_vonmises	0.030092004014713358	1.7241448271338047	1.4025362168193194	5.371019431871124	0.6360382887064825	6.303736611424375	0.51689663206566	-0.391346347438582	0.908242979504242	89.09148144505144
20	7.0	wm	243	diff_vonmises	0.10170851438348863	5.8274686147195265	1.636749859428887	0.7044288138948116	1.4737359417995017e-12	1.9498698798677159	0.011399023174184009	-0.298146143077953	0.309545166252137	106.33609177147548
0	1.0	ltm	244	diff_vonmises	0.10724771703396947	6.144841548459758	0.9532639969672649	54.89763251675086	0.9182335139913766	56.08572055021779	-0.022009413132536793	-0.2600443790254463	0.2380349658929095	81.37284871845637
1	1.0	perception	244	diff_vonmises	0.0884732226120021	5.069142255589122	8.960005473172822	0.6692072998170296	0.05071858699155163	1.9459682280487525	0.46175179879516776	-0.3127956688265634	0.7745474676217312	44.940653818486226
2	1.0	wm	244	diff_vonmises	0.03740616851195944	2.1432155834904307	7.030971027455165	0.22324044453471317	6.05337628085837e-15	1.5507492927770175	-0.015175430637295567	-0.2468092343921435	0.23163380375484793	51.31475755296324
3	2.0	ltm	244	diff_vonmises	0.054851663047618106	3.142768791902212	2.9702335198479135	0.9006912527094529	0.6513783900326299	1.497525644523512	0.17429105799180045	-0.19034726669705945	0.3646383246888599	66.03433491110633
4	2.0	perception	244	diff_vonmises	-0.00461612028677898	-0.2644842101571548	8.506772655725584	1.0101463893806522	0.03509169814022171	1.6387177758388047	0.8869316921475316	-0.2613004995656859	1.1482321917132174	46.3728819457352
5	2.0	wm	244	diff_vonmises	0.11253019087733235	6.447505005072702	7.252353323144052	0.2986568426296633	0.14784646950081826	1.19298363929778	0.09594361780571511	-0.1962810409638689	0.29222465876958403	48.539683546091425
6	3.0	ltm	244	diff_vonmises	0.24421449120905905	13.992459642213829	1.6761228793534353	27.768279849751597	1.6056509045393559	28.022904935173162	0.2170767670715339	-0.13564118023550353	0.3527179473070374	69.93677834232466
7	3.0	perception	244	diff_vonmises	0.027231413546393198	1.5602450663837077	6.231195778432735	1.4064306454202933	0.11883655535608781	1.8033254802672019	1.0477182723618963	-0.2844148632969886	1.3321331356588848	53.71454860632704
8	3.0	wm	244	diff_vonmises	0.07524743251214204	4.311360302141233	5.381833358100155	0.4331396601510397	0.40934669473910373	1.0826234886344461	0.14161687026280945	-0.17926364251139776	0.3208805127742072	53.53245578415272
9	4.0	ltm	244	diff_vonmises	0.12676835660866906	7.263291809486095	1.1652910616029697	126.82592223409188	1.150718827505312	127.74056476149549	0.0050190755915764385	-0.21697372622315925	0.22199280181473569	74.04948383490776
10	4.0	perception	244	diff_vonmises	-0.0877961933769981	-5.0303513378164215	3.6912711551696673	1.6301044805005334	3.7596742658362894e-21	2.9727085521595047	0.7261467244913149	-0.47237529398613115	1.198522018477446	71.3425378862994
11	4.0	wm	244	diff_vonmises	-0.10750342840061301	-6.159492730541955	1.2470723266060428	165.718811756838	1.2299618166153892	167.21122302751385	-0.053375824416093565	-0.3469972436033544	0.2936214191872608	69.52469055585755
12	5.0	ltm	244	diff_vonmises	0.07055872508660409	4.042717155286258	1.595665710548394	1.2570182703023294	0.19972597962101107	1.8925926347709114	0.20114141509052125	-0.2222117587021963	0.42335317379271753	97.02793500264741
13	5.0	perception	244	diff_vonmises	-0.023746711704860077	-1.3605863580023942	3.399481748759405	1.550222802073552	1.4536167926956702e-20	1.9673531792196168	0.7763462409877104	-0.3118991476412226	1.0882453886289332	74.42500653580922
14	5.0	wm	244	diff_vonmises	-0.010104138932230748	-0.578924516430644	0.6033177097223895	121.15396957233138	0.5895425146555582	121.81725733846262	0.14092493001984252	-0.22618477891387911	0.36710970893372163	112.33548907884918
15	6.0	ltm	244	diff_vonmises	0.19077103033776768	10.930374891716276	0.6855848470673426	112.87177186906264	0.6724860219547707	113.350235145174	0.14786980499991031	-0.17688063004205645	0.32475043504196677	106.48460311801514
16	6.0	perception	244	diff_vonmises	-0.14740392837344363	-8.445622979447005	1.810724899469761	1.515485478164158	4.3038801487473978e-19	2.0213167729796675	0.41431911914823455	-0.30201632805177164	0.7163354472000062	101.60197525270222
17	6.0	wm	244	diff_vonmises	-0.03415660099117326	-1.957029079306592	0.7622033353538988	131.178825791072	0.7443696959597628	131.84099567447274	0.2525887399912321	-0.2563364604684235	0.5089252004596556	101.75461304743759
18	7.0	ltm	244	diff_vonmises	0.07905737556030332	4.529653958986082	0.8162304503865466	172.3208953107025	0.8014925281066374	173.42884631816187	0.14819627857302464	-0.30327921688837733	0.451475495461402	94.25510049562806
19	7.0	perception	244	diff_vonmises	-0.04216034499971816	-2.4156098312993346	2.3394240210154686	2.3424164305964315	0.26149824893123763	3.6940830158209845	0.5766220414506522	-0.47109794554780665	1.0477199869984588	80.99386352569906
20	7.0	wm	244	diff_vonmises	0.31938873414603175	18.299626490593504	7.764060317224936	0.4717252784585432	1.075127623392412e-14	1.5972561124904185	0.26110936941817064	-0.2542111127059395	0.5153204821241102	48.795302438898716
0	1.0	ltm	245	diff_vonmises	-0.0027521308424877794	-0.1576854819423333	1.1882697309325447	102.75544645824723	1.1607493579735488	104.09016454276971	0.02796133750818086	-0.32365205281626075	0.3516133903244416	74.15287345746498
1	1.0	perception	245	diff_vonmises	0.03882864237789935	2.2247173324764455	9.671969381551227	0.7743437221555179	0.061354861866324294	2.04554929129019	0.6017732353564154	-0.33058114495689567	0.932354380313311	43.240332163947215
2	1.0	wm	245	diff_vonmises	0.10274811309317831	5.887033233171992	3.5466186198183456	0.377958407119231	1.53802765226586e-15	1.7926333362960047	-0.013328407522964492	-0.28508052030329634	0.27175211278033184	72.82124870158933
3	2.0	ltm	245	diff_vonmises	0.09326365610861996	5.343613876983422	4.772067333040526	0.5146768891896403	0.35302807094678423	1.1386266794191358	0.18518528640382237	-0.17994439265245105	0.3651296790562734	57.42648774545171
4	2.0	perception	245	diff_vonmises	-0.029803582335158608	-1.7076194821752428	8.523640371190323	1.0341419494979225	6.72489566199486e-20	1.4221154823273547	0.9593090283356155	-0.22633666183129098	1.1856456901669064	46.53862464017939
5	2.0	wm	245	diff_vonmises	0.0322701815947923	1.8489452095023469	6.71705508429781	0.35977709899509974	0.09778158805596267	1.149948005659459	0.1631739910349907	-0.18476262759375797	0.3479366186287487	51.18085992271213
6	3.0	ltm	245	diff_vonmises	0.23426006205838137	13.422112864418	4.26977220590307	0.39878421147850285	0.26992280019521386	0.6337593674278363	0.1879017460506291	-0.09496378652679098	0.2828655325774201	62.42278990545063
7	3.0	perception	245	diff_vonmises	0.03611321215957177	2.0691346414039877	6.508285313673512	1.295263440148469	4.0227183017815256e-13	1.4521987387080573	1.0597252670416109	-0.23112173779448325	1.290847004836094	53.371225058490865
8	3.0	wm	245	diff_vonmises	-0.014204257619789655	-0.8138440127304876	4.457628987939445	0.5932433529357847	0.49482041928484954	1.0434464121895983	0.22726074217360986	-0.16005702445192405	0.3873177666255339	58.4228839596895
9	4.0	ltm	245	diff_vonmises	-0.11268828389232373	-6.4565630676022066	1.3638605893192495	79.10036017788683	1.342255722571809	79.79135186604452	0.02776250019690707	-0.18000854437772595	0.20777104457463302	69.52681970241665
10	4.0	perception	245	diff_vonmises	-0.06725730987905762	-3.853559997473539	3.379384485687025	1.7839782174791445	1.7345793595460121e-18	2.9447031024812262	0.7809965839032631	-0.4672135951896426	1.2482101790929057	74.6481937647817
11	4.0	wm	245	diff_vonmises	-0.04093996560820244	-2.3456872427607403	1.2819600641721578	236.72230638965553	1.2700665523028234	238.08513785169666	-0.020397509139797876	-0.32758027965836334	0.30718277051856546	69.52872997393209
12	5.0	ltm	245	diff_vonmises	0.16313958453480568	9.347209665362081	1.7605189797059948	0.863606154310234	1.396483699447717e-14	1.36869990141803	0.19448411067882615	-0.20564280451402805	0.4001269151928542	102.88766811202723
13	5.0	perception	245	diff_vonmises	0.006253423181871538	0.35829475583050935	2.8202993457339094	1.7264894630983463	1.7687934881409036e-17	1.8843767019944844	0.7914862859570515	-0.29603218032554124	1.0875184662825927	81.870276236698
14	5.0	wm	245	diff_vonmises	0.0829013733022713	4.749898806058666	0.6488223414543008	131.62261991064167	0.6343582043238923	132.09795005555804	0.23229343401829539	-0.22470242809445118	0.45699586211274656	111.30782911652784
15	6.0	ltm	245	diff_vonmises	0.40489781909643396	23.198936168277175	0.8973731402309961	89.13735223453361	0.8827270526240373	89.41289697189049	0.16073863842420621	-0.12328028801107749	0.2840189264352837	94.88054957937067
16	6.0	perception	245	diff_vonmises	-0.09897275368278151	-5.670721072811256	1.6779531708961164	1.6849938373202116	2.8843282777156137e-14	1.8659403939739991	0.4843258045892042	-0.26972216455916714	0.7540479691483714	105.1848048225546
17	6.0	wm	245	diff_vonmises	-0.04927168049802763	-2.8230593420540293	0.6692984118613027	133.6456509537783	0.6532183174959378	134.1409593122178	0.2722214059291943	-0.24555403450094637	0.5177754404301407	110.01752848149019
18	7.0	ltm	245	diff_vonmises	0.08587365584487346	4.920198051270183	1.1193492306617059	99.34229223786949	1.0960072217662487	100.1187737645539	0.15437086923866872	-0.22845257227568183	0.38282344151435055	81.17668230515082
19	7.0	perception	245	diff_vonmises	0.024238972520320444	1.3887908251479415	2.7438696737806483	1.4720448415008751	0.053492379451052	2.329488539385417	0.5250555331352963	-0.3484142946272714	0.8734698277625677	81.06337988098267
20	7.0	wm	245	diff_vonmises	0.30039087361910494	17.211129262622414	2.7305771948122346	0.561528724298564	1.2444964922469574e-26	1.4150511462685271	0.12320212004810191	-0.22373203907147932	0.34693415911958125	83.18018632692642
0	1.0	ltm	246	diff_vonmises	0.06232182785127408	3.570777707418873	2.7428628682288223	0.5430325444508154	5.45172435082834e-16	1.6891053794407427	0.06896566326013426	-0.26742891665464325	0.3363945799147775	83.03046260587817
1	1.0	perception	246	diff_vonmises	-0.009361549909105203	-0.5363772994928075	12.65991889270014	0.621740407710706	5.851363317574533e-17	1.910596677197414	0.5690536447545667	-0.3040809054221047	0.8731345501766714	38.111621909165365
2	1.0	wm	246	diff_vonmises	0.11271373880374057	6.458021526594271	2.58777577468264	0.5371107091605389	6.969322763621488e-13	1.8910783631706183	0.022016387821627015	-0.2991482683049881	0.3211646561266151	85.49921866576662
3	2.0	ltm	246	diff_vonmises	0.12324633315572037	7.061494730286042	5.25462329252237	0.3781161249590193	9.815494162026623e-08	1.0488603604336346	0.16972484656640013	-0.1669221095434361	0.3366469561098362	59.52700276495787
4	2.0	perception	246	diff_vonmises	-0.04196604704491066	-2.404477378520841	8.341483678251098	0.9652663567291354	3.080461960178103e-20	1.5405105265972654	0.8491019896081604	-0.2451798029645909	1.0942817925727513	47.05365879997623
5	2.0	wm	246	diff_vonmises	0.02764697772298177	1.5840551398190623	6.667637906381135	0.3628333656671704	3.208194169046054e-15	1.2391535843832326	0.16892016383906266	-0.19721682615213243	0.3661369899911951	52.72306225320315
6	3.0	ltm	246	diff_vonmises	0.23121619574717583	13.247712171383869	2.3631148656689125	0.8317475592510448	0.3678554535617185	1.2293519897008327	0.2008422481371131	-0.14796336015412184	0.34880560829123497	78.57522912217212
7	3.0	perception	246	diff_vonmises	0.0011553820773545856	0.06619851675747536	5.7951103626805045	1.5267588557211031	0.08979279450345667	2.0618585663689464	1.0733341688763711	-0.3231921292857196	1.3965262981620907	55.81993664959012
8	3.0	wm	246	diff_vonmises	0.017272023459732763	0.9896140478936337	3.6380764272927926	0.9068551387059974	0.5260365262169823	1.6904718339589309	0.23649858308728505	-0.243492380015365	0.47999096310265005	62.467470821808035
9	4.0	ltm	246	diff_vonmises	-0.050272231126226086	-2.880386670238964	1.4191165918821846	163.82238192197204	1.4023527414161303	164.76302418294026	0.09792800005595836	-0.265828773956553	0.3637567740125114	69.67539747148518
10	4.0	perception	246	diff_vonmises	-0.05443899951561818	-3.119124913159655	2.942988504441252	1.9126793091444068	0.013567904873772978	3.2069873441995473	0.7217111244969586	-0.5000639976445199	1.2217751221414785	79.59805291578661
11	4.0	wm	246	diff_vonmises	-0.02960788097272197	-1.6964066200626633	1.1657569983731355	219.68594826025264	1.1507936423393812	221.45700130801762	-0.04447742727015225	-0.40602853541954786	0.3615511081493956	72.53010175220882
12	5.0	ltm	246	diff_vonmises	0.11188598329064864	6.410594629225417	1.735733089809025	1.0146726261862014	2.679452038908874e-12	1.5074227470725874	0.24036139049511784	-0.224989609635469	0.46535100013058683	103.586121627323
13	5.0	perception	246	diff_vonmises	0.0012337833368626999	0.07069057803580023	2.401321756876757	1.6809815159022286	1.006413467601806e-21	2.0107124892988204	0.6474527243131635	-0.3120738094125352	0.9595265337256986	88.7568232231479
14	5.0	wm	246	diff_vonmises	0.0024881381259919365	0.14255981346492783	0.6505749867604468	132.67001184131854	0.6360418600608001	133.28717799613142	0.1981740133320642	-0.23777447047181255	0.43594848380387674	109.62211918673013
15	6.0	ltm	246	diff_vonmises	0.3680677143819116	21.088726609110168	0.5398715272711511	95.93641901371254	0.5273392537640135	96.24500585518614	0.14809316259454874	-0.1586837071997209	0.30677686979426966	120.6878448128046
16	6.0	perception	246	diff_vonmises	-0.04670090896577363	-2.675764983163495	2.0463767107761934	1.3552120179072193	1.8774271635315934e-11	1.8585705946938107	0.41305479212860374	-0.28396685047912873	0.6970216426077325	95.96497932414712
17	6.0	wm	246	diff_vonmises	0.022233156354667123	1.2738660243768927	0.6485594668587276	164.639717662219	0.6356831819802271	165.37299508842918	0.2029991937881661	-0.26607177367849033	0.46907096746665644	109.15297677115917
18	7.0	ltm	246	diff_vonmises	0.004388037808463015	0.2514160467687659	1.2853970234970908	6.539563082528999	0.8652958251252887	7.562685856300149	0.191229200873003	-0.29510433033684114	0.4863335312098441	82.50128196387806
19	7.0	perception	246	diff_vonmises	0.07711689107085419	4.4184723875300485	2.4187202488574155	1.4836854333119966	9.235721056222383e-17	2.6081488377967403	0.44241280974760194	-0.408301127649446	0.8507139373970479	88.43725619448824
20	7.0	wm	246	diff_vonmises	0.12190001560763739	6.984356416896485	2.0694774587502067	0.7344768220863698	5.663567228179683e-36	1.9126676595492214	0.08238523928586122	-0.2982451803256471	0.38063041961150834	95.4263205067596
0	1.0	ltm	247	diff_vonmises	0.18150420495994005	10.399424908082027	0.7877367953546456	116.12315772539336	0.7652294825631516	118.58666748000479	-0.2325809522161748	-0.4704716282793413	0.2378906760631665	81.58459189303395
1	1.0	perception	247	diff_vonmises	0.1321134626230271	7.569543825158803	8.038783239748195	0.7822349492733548	0.08721060298796302	3.267956663592469	0.3035360661980048	-0.530656369007234	0.8341924352052388	46.8336886900137
2	1.0	wm	247	diff_vonmises	0.007373078865271323	0.42244630099715297	6.14219921216772	0.33024205144786134	0.12474856425213195	3.0568654987998025	-0.2297877768505015	-0.5017310992608651	0.2719433224103636	50.70865786692755
3	2.0	ltm	247	diff_vonmises	0.032232206269506083	1.8467693836378103	2.1424775019260114	1.4587717566958778	0.5354689024947192	2.739493285143782	0.09026257496484502	-0.3149203375490716	0.40518291251391664	73.66907612105385
4	2.0	perception	247	diff_vonmises	0.001626986284930449	0.09321944745218394	7.787344482933062	1.2242842947893346	0.17321022717709286	2.8588933821461873	0.8026155594718536	-0.4716146162196162	1.2742301756914698	47.398010086642216
5	2.0	wm	247	diff_vonmises	0.17175174213562802	9.840649948390714	7.078158148642635	0.3100710641511631	0.057991544404868846	2.0460340958474057	-0.021937993103561038	-0.32883608212047294	0.3068980890169119	49.7229483376704
6	3.0	ltm	247	diff_vonmises	0.223226184787976	12.789918265158445	2.697531370621031	1.0381218592273878	0.5755670063378889	1.7813419819192535	0.17478151959729282	-0.22053613493205643	0.39531765452934925	69.19613979731491
7	3.0	perception	247	diff_vonmises	0.0455530503537957	2.609997529219415	5.7798828401221405	1.6750975796286764	0.12490195006097712	2.671201856182928	1.088488793302121	-0.4201905626155396	1.5086793559176606	55.48735513857463
8	3.0	wm	247	diff_vonmises	0.11049780078557755	6.331057630490946	5.332920378072082	0.30198065470454816	0.11542093343652458	1.6245734818636917	-0.018264099616948692	-0.26033749715082255	0.24207339753387386	55.71057152810309
9	4.0	ltm	247	diff_vonmises	0.5444575293842789	31.195118557839187	0.725637590772349	199.5217145689037	0.7136867461660219	201.48010775298957	-0.10755955694129682	-0.39500538402860386	0.28744582708730704	90.12290386565118
10	4.0	perception	247	diff_vonmises	-0.07234270395866534	-4.144931615395877	4.114236639622214	1.582426850040472	0.007247825244029153	3.842178483991927	0.6195163308734876	-0.6072675172768656	1.2267838481503532	67.20098603000955
11	4.0	wm	247	diff_vonmises	0.21146385307050541	12.115986300514514	13.420414096028424	0.19669010863623632	5.682149124461999e-33	2.5796743636403137	-0.12588954742630587	-0.410567926540168	0.2846783791138621	36.99599758376348
12	5.0	ltm	247	diff_vonmises	0.047885454810333815	2.7436344606965535	1.262956788091826	2.692562092008397	0.3921701750750966	4.205366685579165	0.09832661556549416	-0.37152103169794487	0.469847647263439	93.65871134754792
13	5.0	perception	247	diff_vonmises	-0.022188006563785962	-1.2712791319135037	3.059009720154377	1.9275685308054016	1.1477623523323905e-13	3.352538151914436	0.7429324487319173	-0.530760921256917	1.2736933699888344	78.5515332995663
14	5.0	wm	247	diff_vonmises	-0.042124284102168334	-2.413543694064276	0.5367963428848346	159.15521473983523	0.522251597947875	160.88616224389727	0.0002146632128230408	-0.4078283913324121	0.40804305454523515	111.63542176508794
15	6.0	ltm	247	diff_vonmises	0.08336687835960352	4.776570281185798	0.4736814163197818	157.87323460218852	0.4602093661896094	159.39640766957496	0.030816516924062398	-0.39202947675259026	0.42284599367665265	120.58238825290951
16	6.0	perception	247	diff_vonmises	-0.14230276843879786	-8.153348044570572	1.4045668148353334	1.9103945988382067	6.160769221931142e-14	3.3684149741225915	0.2591839550674848	-0.48817785347160314	0.747361808539088	113.44069128164921
17	6.0	wm	247	diff_vonmises	0.02407157667381229	1.3791997496350046	0.5985886429871834	184.3006113671972	0.5835927197996252	185.89380731998165	0.1044771791508694	-0.4189792518840889	0.5234564310349583	108.74241248682469
18	7.0	ltm	247	diff_vonmises	0.10630262993579458	6.09069204646207	0.7407847521203219	214.1945964005562	0.7255372705735994	216.43499898831325	-0.0252094647090928	-0.4885365739305527	0.4633271092214599	93.00033342075812
19	7.0	perception	247	diff_vonmises	-0.05115149472197571	-2.9307647633549143	0.9765879947923569	391.630737993888	0.9602870029270426	393.8271375313202	0.4767516492014181	-0.6586198898662659	1.135371539067684	87.4211312033224
20	7.0	wm	247	diff_vonmises	0.2986394722352008	17.110781355091337	6.604353533162332	0.6330854200254753	0.15403016384008725	2.932446539857423	0.09455955524731519	-0.4813677802681795	0.5759273355154947	50.297377351891924
0	1.0	ltm	248	diff_vonmises	-0.10824115344082207	-6.201761261787053	2.5807809336092835	1.147996439925221	0.2357558309443393	2.774696458387054	0.13797483352801754	-0.38509501096923865	0.5230698444972561	75.58243914164242
1	1.0	perception	248	diff_vonmises	-0.025075673769884052	-1.4367302754612585	17.59439419911026	0.5846961841768357	1.7596365882773054e-16	2.4131760617827838	0.5867241293417866	-0.3840688987837625	0.9707930281255491	32.28970053579266
2	1.0	wm	248	diff_vonmises	0.08646866855824312	4.954289768502892	2.302385315749578	0.6761666155151349	1.1385582064232428e-17	2.5614166019447686	-0.028091397924273454	-0.40386488390187364	0.3757734859776002	90.61431926487762
3	2.0	ltm	248	diff_vonmises	0.00821585076315872	0.4707335738383312	3.1762153828982744	0.5711112055219322	1.1213407979446018e-12	1.390466722986279	0.16502395232623485	-0.2206263364908648	0.3856502888170996	77.05992924729605
4	2.0	perception	248	diff_vonmises	-0.06829859183427106	-3.9132210587903993	7.635396261882504	0.9808081757058498	0.06853401792043438	1.6713181757609712	0.7777696504909031	-0.26699019448922706	1.04475984498013	48.731855677761274
5	2.0	wm	248	diff_vonmises	-0.07736856461941481	-4.432892219677653	3.7639914999845456	0.579179594030022	0.1389300694212628	1.6180818081451716	0.1361777279318444	-0.24631208379264594	0.38248981172449037	66.44664012632208
6	3.0	ltm	248	diff_vonmises	-0.034541094347686575	-1.9790589258856242	0.7780020048368287	112.6374483804272	0.7623518546155557	113.20145634918752	0.16941205233715806	-0.1963008421595731	0.36571289449673117	99.7177681796282
7	3.0	perception	248	diff_vonmises	0.016376724525965898	0.9383171975862297	4.829202233644153	1.7198191896871113	0.221407662321655	2.1848787246523	1.035250162434581	-0.3324723063846684	1.3677224688192493	59.938389579695894
8	3.0	wm	248	diff_vonmises	-0.003707680318712818	-0.2124344340459644	2.01839744240147	2.1830119733102573	0.764581221030289	3.0084597205131374	0.23926731459434003	-0.2655870783543514	0.5048543929486915	74.34147037191653
9	4.0	ltm	248	diff_vonmises	-0.1796184446705981	-10.291378802329366	1.2723793232363525	185.50764065550095	1.2575297316703846	186.51848321255022	0.10974311541058057	-0.2762653234223933	0.38600843883297387	73.92958370167327
10	4.0	perception	248	diff_vonmises	-0.05237171906037231	-3.0006784680041827	1.7605460262464296	4.224172310428252	0.48084003045890467	5.260908097624758	0.7376129039113988	-0.4812143923143699	1.2188272962257687	86.4420256448451
11	4.0	wm	248	diff_vonmises	0.04886759320744312	2.7999068457486604	1.0307422334378271	223.94658579572948	1.0163158861168524	225.688424616753	0.00928391655027383	-0.40011284704686645	0.4093967635971403	78.95289114912396
12	5.0	ltm	248	diff_vonmises	0.11800735071421294	6.761323147444522	1.7648976548249755	1.0575073316761583	1.0950067071553105e-14	1.8123241534914338	0.21722771727284146	-0.27361829995386994	0.4908460172267114	102.80139726507218
13	5.0	perception	248	diff_vonmises	0.0424550376922686	2.432494478835821	2.156347337064664	1.931517780299674	3.2874172956529084e-15	2.561919527190927	0.6348430538564462	-0.39377250991202206	1.0286155637684682	93.57468103994736
14	5.0	wm	248	diff_vonmises	-0.05033652631908955	-2.8840705134330205	0.5441078775183098	187.04077631216848	0.5326011123889542	187.96005986215036	0.1720468087656144	-0.31470584536018364	0.48675265412579805	117.72067204655478
15	6.0	ltm	248	diff_vonmises	0.46597931668644466	26.698648186523297	0.6868729499119515	90.22431157899683	0.671534119825483	90.93150069680075	0.06610391808239058	-0.188182458096545	0.25428637617893557	102.05288391239068
16	6.0	perception	248	diff_vonmises	-0.06335053868188449	-3.629718496352247	1.6628665116325723	1.8587341398650425	0.051554727146844066	2.7496758802271524	0.39665603721846765	-0.3845464388449524	0.78120247606342	102.97742510931403
17	6.0	wm	248	diff_vonmises	-0.12081873089292172	-6.92240336629127	0.5450312459753871	153.25450520480814	0.5289546418166052	154.35379543039673	0.18575801547367377	-0.36512497627683693	0.5508829917505107	117.49183519911149
18	7.0	ltm	248	diff_vonmises	-0.00255356320370178	-0.1463083942920173	1.4454545957420653	17.899728736328424	1.262452518217525	18.918426699287128	0.19167325327225182	-0.30818120429206664	0.49985445756431846	72.84425804666864
19	7.0	perception	248	diff_vonmises	0.10297647392167672	5.900117344851061	2.837322740705289	1.2522299821447014	5.852217304102717e-16	2.269812125387789	0.433128498113067	-0.35852557390119927	0.7916540720142662	81.61231467461826
20	7.0	wm	248	diff_vonmises	-0.07314233176022893	-4.190746913606795	0.9353488976672315	1.4307456221091228	8.41611592815279e-34	2.6846921041026435	0.044073327842175714	-0.3546849294398813	0.398758257282057	131.28436738748655
0	1.0	ltm	249	diff_vonmises	0.04169939030002504	2.3891990724601984	1.0314844482323513	213.939184086983	1.0146065287295032	216.20581575122023	-0.0991642393480987	-0.4896973262590265	0.3905330869109278	76.0638345165751
1	1.0	perception	249	diff_vonmises	0.09187307901509437	5.263939678436837	9.073802527277875	0.731637589287673	0.04714768378421672	2.974983360912957	0.37029747943476427	-0.47871845605559427	0.8490159354903586	44.560110344577595
2	1.0	wm	249	diff_vonmises	0.10863913987533777	6.224564204788263	5.42577780767188	0.334932431875861	0.039294939753307286	2.645126737773046	-0.1343808071431854	-0.420297913284199	0.2859171061410136	56.68409874227123
3	2.0	ltm	249	diff_vonmises	-0.016917807695961382	-0.9693189795925307	2.6073317629621875	1.191876870974322	0.5124194454478564	2.222402316844557	0.16643521159098795	-0.280112859429508	0.44654807102049593	70.3501947214177
4	2.0	perception	249	diff_vonmises	-0.025100820839554585	-1.4381710964205014	7.623008153140496	1.1120196487032987	0.08025814618806505	2.1647325705088827	0.8304266641280322	-0.34699218479714916	1.1774188489251813	48.64426074494989
5	2.0	wm	249	diff_vonmises	0.07272864880090052	4.167044625980795	5.923331579719187	0.39204879048647345	0.11643549775573223	1.7146378219140155	0.06631134327989618	-0.27576524011279624	0.3420765833926924	53.55518123047622
6	3.0	ltm	249	diff_vonmises	0.17396224381428332	9.967302365184247	2.6027095714365225	0.8995988623973932	0.47167897450718016	1.4559952515646195	0.19127798827439774	-0.17914859739919667	0.37042658567359443	72.79419592569047
7	3.0	perception	249	diff_vonmises	0.04883724915193071	2.7981682594344885	5.635446543750315	1.5337698293528763	0.06830412182110669	2.105824591586848	1.058658009405196	-0.32981127049228076	1.388469279897477	56.76076779782983
8	3.0	wm	249	diff_vonmises	0.05275169662847046	3.0224495789658516	3.508318105504967	0.5932259136030639	0.2656350014766642	1.489220666117751	0.1205705748276425	-0.22111137291275593	0.3416819477403984	66.05222098324202
9	4.0	ltm	249	diff_vonmises	0.26186343876504065	15.003669850019303	0.6662675472185187	136.02461017139407	0.6544910141024527	137.33721096440235	-0.05746560918763066	-0.27045614012406816	0.2129905309364375	95.50821035805731
10	4.0	perception	249	diff_vonmises	-0.08327728800528275	-4.771437131998136	3.4026215328270712	1.8439468141535376	0.013399177207147398	3.5124808443778064	0.730059038860957	-0.550289894405045	1.280348933266002	73.88289348551532
11	4.0	wm	249	diff_vonmises	-0.030629428952204014	-1.7549370078571014	1.003005891050513	178.84908682860288	0.9864456528274642	180.72222237581207	-0.07472897978409776	-0.40366955414269867	0.3289405743586009	77.43581929817123
12	5.0	ltm	249	diff_vonmises	0.06405791531011729	3.6702481916761807	2.066821677388409	0.9156482732270271	0.012228453989280155	1.9992117303304786	0.15972910325645945	-0.30658419287732486	0.4663132961337843	94.70346044795676
13	5.0	perception	249	diff_vonmises	-0.010821180455064491	-0.6200079694246509	2.630066942151401	2.027821508334976	3.655860496529824e-15	2.8165664812016167	0.7827772796970728	-0.4418749262150003	1.224652205912073	84.81035332541327
14	5.0	wm	249	diff_vonmises	0.0016944525770985941	0.09708498125281517	0.5751798886119904	179.11072799568257	0.5629051724084417	180.2018963353517	0.13263545361022722	-0.3245371583586305	0.4571726119688577	112.95923163272163
15	6.0	ltm	249	diff_vonmises	0.3201708793090086	18.34444010739865	0.7029743336456852	152.6951262459999	0.6909203771972269	153.60752872059462	0.09270871599280639	-0.2446270520098235	0.3373357680026299	100.94402649985776
16	6.0	perception	249	diff_vonmises	-0.1393213383077324	-7.982524681147386	1.4089336500562466	2.095896679128075	5.4647383036719945e-19	2.8859286262047545	0.41483299512966737	-0.40709445268731337	0.8219274478169807	113.30068017208797
17	6.0	wm	249	diff_vonmises	-0.03888046167202676	-2.227686359327293	0.6753077078155078	172.3013001782066	0.6599145534082022	173.32494770971118	0.22119295489314794	-0.3343002408769209	0.5554931957700688	106.02205722364575
18	7.0	ltm	249	diff_vonmises	0.04037049291217857	2.313058860730636	0.9954084240375183	151.52819519895792	0.9749904234797309	153.0257191832229	0.08136546850352033	-0.36463625812687184	0.44600172663039217	82.65026284830415
19	7.0	perception	249	diff_vonmises	-0.014107552808930324	-0.8083032352096371	1.337666374893384	10.518927405223646	0.8250819431242775	11.953825868311888	0.5657105692703284	-0.5158343281029689	1.0815448973732973	84.90733090128413
20	7.0	wm	249	diff_vonmises	0.32164298823210824	18.428785735675806	5.3044005789793305	0.5583536606685164	0.014489209149878553	2.112816571995435	0.15839693089678664	-0.33441663049453446	0.4928135613913211	58.769466887830845
0	1.0	ltm	250	diff_vonmises	0.1582373563343907	9.06633267926829	1.1980817125348961	6.789803644341017	0.745372050792153	8.983633142018796	-0.06226181995003088	-0.47392761473862877	0.4116657947885979	79.65662196340409
1	1.0	perception	250	diff_vonmises	0.07945909465627495	4.5526707677350675	5.323815675460373	1.0112338226349313	0.16234873667574898	3.157772356730996	0.31919515298575774	-0.5032540906064377	0.8224492435921954	56.19562103266813
2	1.0	wm	250	diff_vonmises	0.16732953213100327	9.587275979005188	4.374233870323734	0.41349657302377235	1.23598675496932e-18	2.457573062999371	-0.05743350909692446	-0.391081929113175	0.33364842001625056	65.39347435463964
3	2.0	ltm	250	diff_vonmises	0.04550976077111986	2.607517218835207	2.8595628694228146	1.3913752169222147	0.676784231660495	2.437189586154652	0.20383366300890482	-0.30741968373217876	0.5112533467410836	65.75890339243529
4	2.0	perception	250	diff_vonmises	-0.03809816281397753	-2.1828639364431686	7.019643194679326	1.170537925876775	3.1017075772236444e-21	2.138978270465462	0.8730826409179278	-0.34042799464570145	1.2135106355636291	51.35704130424031
5	2.0	wm	250	diff_vonmises	0.04304928702423268	2.4665424575358315	5.583703957282117	0.49563367484550885	0.11911139617619898	1.737026747839925	0.1453088216187159	-0.2769397028628358	0.4222485244815517	55.404168538382436
6	3.0	ltm	250	diff_vonmises	0.22265756761518699	12.757338900998972	4.063296948226193	0.5797459746348207	0.0889608066261935	1.17786211380675	0.24505988685200436	-0.1804135690252509	0.42547345587725527	65.88822025131782
7	3.0	perception	250	diff_vonmises	0.038855251120665006	2.226241901135067	5.291801423749668	1.6251558343461034	3.7364952178243926e-20	2.309671219088096	1.0847328173278585	-0.36755880392855206	1.4522916212564105	59.314562315556145
8	3.0	wm	250	diff_vonmises	-0.0023340690421164135	-0.1337323052054133	3.3366630037496914	0.8281450006712476	0.26024829811610234	1.72773278919792	0.2252428713442418	-0.24990609645782375	0.47514896780206556	68.5029508894641
9	4.0	ltm	250	diff_vonmises	0.6009180642545987	34.430068914959726	0.41629354948930436	164.57267611968842	0.4067837817752775	165.87396971430104	-0.010770790710211031	-0.32253305171365554	0.3117622610034445	124.32319568071648
10	4.0	perception	250	diff_vonmises	-0.09137448021568474	-5.235372071560376	3.1892215874164447	2.0841691078638354	1.062824579356987e-17	4.173671947691152	0.748928434152729	-0.6618611308209215	1.4107895649736504	76.89525083924406
11	4.0	wm	250	diff_vonmises	-0.03155461373790949	-1.8079461913477408	1.088760911650773	222.26237966733436	1.0722791161910477	224.38108764621936	-0.06544360286898154	-0.4719614261732481	0.40651782330426656	74.81041555023415
12	5.0	ltm	250	diff_vonmises	0.08753905982479464	5.015618670503956	1.7595744968204001	1.00059058616629	5.164355288279137e-12	1.7569944394092034	0.1979462494391075	-0.26548619712968424	0.46343244656879173	102.95752087775253
13	5.0	perception	250	diff_vonmises	-0.04168039219775665	-2.3881105613814615	2.1217335879145507	2.333842227584471	3.599559312352532e-17	2.5799474996715106	0.8369751560736127	-0.3926971492867744	1.229672305360387	94.31199040663597
14	5.0	wm	250	diff_vonmises	0.06832102633625714	3.9145064610696796	0.7197912192371321	142.117308854241	0.703958136266743	142.78771329513452	0.23781738800231977	-0.25733266971195334	0.4951500577142731	104.45973169589155
15	6.0	ltm	250	diff_vonmises	0.4743753420870736	27.17970500666397	0.7191926201629155	135.1690486240262	0.7079633745102718	135.51337095592828	0.19095954402230575	-0.16464173832419426	0.3556012823465	105.90895867822832
16	6.0	perception	250	diff_vonmises	-0.0866980787160314	-4.967434002321591	1.4690721640523159	2.010675971159456	6.951386316390249e-17	2.144646421785541	0.5186854938892089	-0.2957812075303567	0.8144667014195657	111.40648243172073
17	6.0	wm	250	diff_vonmises	0.0846693459186682	4.85119617527291	0.7450941560706518	183.04096564558057	0.7336765465957387	183.60340956513943	0.23520878897365094	-0.22885628375608036	0.4640650727297313	103.05975326110868
18	7.0	ltm	250	diff_vonmises	-0.0033863888419707654	-0.19402578843511914	2.5484807416937016	1.135265704814272	0.3175238493613771	2.6152916816240475	0.11900519398299125	-0.35308449197828723	0.4720896859612785	73.77540325421046
19	7.0	perception	250	diff_vonmises	0.023746994623328403	1.3606025680365756	1.0366447061037052	365.6383043302824	1.021078715273201	366.85944422866413	0.6516512739197537	-0.5043138428162877	1.1559651167360414	87.83464283750928
20	7.0	wm	250	diff_vonmises	0.199827170357112	11.44925349350423	2.7511240206627376	0.7360757008453754	6.818304909763095e-37	2.2227280281055957	0.10491395228365435	-0.35188755759157214	0.4568015098752265	82.88968316968956
0	1.0	ltm	251	diff_vonmises	0.11380119418644637	6.520328130432097	2.787597738541701	0.4338136029134037	0.06798270565787823	2.4166944463758675	-0.13882574676374632	-0.36939938772287845	0.23057364095913213	75.83569089013747
1	1.0	perception	251	diff_vonmises	0.058397615847685394	3.3459369216986645	11.407352054257732	0.7032718335860962	0.04226735371248674	2.7413551074879448	0.4816484018794399	-0.4427183061421655	0.9243667080216054	39.85358452145417
2	1.0	wm	251	diff_vonmises	0.02257228647424803	1.2932967489346454	4.5695844096177645	0.3355622250352236	0.04541274130879802	2.702065731233508	-0.17252170568314862	-0.4272500493483593	0.2547283436652107	61.08896551224805
3	2.0	ltm	251	diff_vonmises	0.12475696316584224	7.14804745427183	3.5482463465332064	0.4966810303101502	0.08828826096917884	1.6398407162091764	0.07297587430163366	-0.2510225650484011	0.32399843935003475	69.1332685131222
4	2.0	perception	251	diff_vonmises	-0.015983004981493867	-0.9157587293761691	8.378451262908055	1.1182196986148165	0.17418845766414034	2.3170057827786446	0.8352134404067573	-0.3840507395159399	1.219264179922697	45.87416104181787
5	2.0	wm	251	diff_vonmises	0.12262507557393951	7.025899292859495	6.972117691060151	0.30711375935543966	0.018837778480780745	1.8334151348268393	0.019954734526656415	-0.29175211147055763	0.31170684599721404	51.002000435973855
6	3.0	ltm	251	diff_vonmises	0.24140410841332424	13.831436569202047	3.008740734354603	0.6765449009595224	0.3689721487360043	1.3135595195734648	0.15152056892559346	-0.18042380056032187	0.3319443694859153	69.5819884510513
7	3.0	perception	251	diff_vonmises	0.024332860853768106	1.3941702304000094	5.900885581102249	1.6320077674967965	0.1768330295663855	2.379244411321494	1.0963234095277807	-0.37565809239209386	1.4719815019198745	54.639695043150795
8	3.0	wm	251	diff_vonmises	0.031913342530964305	1.8284998371796033	5.5554999495709465	0.4189768817125868	0.27026622807870687	1.5859137655630815	0.05942203865824641	-0.2624511904934256	0.321873229151672	53.037647130893816
9	4.0	ltm	251	diff_vonmises	0.11089520054461961	6.353826959463572	1.0477217678887722	212.51924435894577	1.0357580041779653	214.05362755266856	-0.05559216712458692	-0.3361385036569189	0.28054633653233196	75.87875420069221
10	4.0	perception	251	diff_vonmises	-0.035763582177924524	-2.0491023190643642	3.3591659638645393	1.76057293329622	0.07933504520684888	3.48511032312202	0.6296181497178059	-0.5254564689030246	1.1550746186208305	72.41740688748169
11	4.0	wm	251	diff_vonmises	-0.02673466374159872	-1.5317833990950367	0.8924244172209495	152.89447050893455	0.8756158817951261	154.98175999878922	-0.17412474668407896	-0.4146058487263993	0.24048110204232032	78.01241812490721
12	5.0	ltm	251	diff_vonmises	0.1133596747585624	6.495030930641315	1.357698233209515	1.955253763939764	0.31914746429962537	3.1068838603504534	0.13413895656846597	-0.30730145746687265	0.4414404140353386	95.57609917790845
13	5.0	perception	251	diff_vonmises	0.014552469158304642	0.8337950642651535	2.9419747851967513	1.7085322970613666	3.923238424949179e-16	2.790127784282056	0.6625301581934052	-0.44098205394222195	1.1035122121356271	80.12786548459576
14	5.0	wm	251	diff_vonmises	-0.024206501935489688	-1.3869303976788177	0.5087185167358867	168.7734548988286	0.4961773718357251	170.24344039590628	0.03408810067067236	-0.37226884707779284	0.4063569477484652	116.39428391542164
15	6.0	ltm	251	diff_vonmises	0.11170722947116536	6.400352789797182	0.4612964699089098	109.16860457792848	0.4461908322515744	110.2974039204863	0.03858376328306079	-0.302990797164453	0.3415745604475138	122.88154788174447
16	6.0	perception	251	diff_vonmises	-0.08475629430755031	-4.856177950991317	1.745834227603474	1.4764323069802598	1.9876624269387456e-17	2.767583993528709	0.26086581406309745	-0.4191186025200526	0.6799844165831501	103.33245121690304
17	6.0	wm	251	diff_vonmises	-0.020524854134057843	-1.1759875170031544	0.5042340618898391	179.99493074408406	0.4910170988870296	181.45793176312682	0.08594961467867535	-0.40314825408443156	0.4890978687631069	118.69442052684494
18	7.0	ltm	251	diff_vonmises	0.10558454460026345	6.049548787405901	0.8796009953724172	251.47070041561048	0.86764901856675	253.09467997673798	0.058998164157586075	-0.38225261599125204	0.4412507801488381	87.29536560694797
19	7.0	perception	251	diff_vonmises	0.03062035561964788	1.754417144195516	2.424146554232852	1.5265442730986287	9.25472357425454e-14	3.149499973971319	0.3822302711839597	-0.4943300815671009	0.8765603527510606	88.33981749737106
20	7.0	wm	251	diff_vonmises	0.2643376390091408	15.145431081676481	4.483472941438108	0.5244444510233708	0.10129501689665239	2.3251458604346165	0.02049136912506233	-0.36532929800293995	0.3858206671280023	61.07329535648063
0	1.0	ltm	252	diff_vonmises	-0.06372363992681498	-3.6510956230178406	1.2024494651002477	104.09254886465615	1.1837858344279009	104.67537395570041	0.1399920362628535	-0.1808981563071157	0.3208901925699692	78.6803235249545
1	1.0	perception	252	diff_vonmises	0.05493375820924732	3.1474724981820104	10.842738319613025	0.5122705056057806	9.22122266017811e-26	1.1949376444891342	0.4746327602640958	-0.19018023255302335	0.6648129928171191	41.20113128809544
2	1.0	wm	252	diff_vonmises	0.04449089360323426	2.549140430230915	8.892508387568228	0.21924549097790755	1.9875274509724527e-21	0.829415203921973	0.12487761500921365	-0.1320055247264213	0.2568831397356349	45.5568799598183
3	2.0	ltm	252	diff_vonmises	-0.13627424480956332	-7.807939083920544	2.998446096771304	0.7456715571775301	0.4696790885281615	0.9314271833437204	0.2636782354858734	-0.1161839349586084	0.3798621704444818	71.02662114530048
4	2.0	perception	252	diff_vonmises	-0.009406281727245948	-0.538940243882219	7.791161933895135	0.9229977085020419	4.62246509864707e-18	1.320387310867767	0.7998285968844052	-0.21014599465222208	1.0099745915366274	48.71369061932711
5	2.0	wm	252	diff_vonmises	0.06267266364013376	3.590879117422675	6.302140790594713	0.2951358686602008	0.3876645153101232	0.7435600088157348	0.12116151151780385	-0.12673846228932695	0.2478999738071308	50.29377085119796
6	3.0	ltm	252	diff_vonmises	0.13599160565384355	7.79174505317266	1.714500812385002	119.36096202463546	1.6991338800301132	119.41589139955225	0.28090455281053295	-0.10606084461377563	0.3869653974243086	71.19882929074234
7	3.0	perception	252	diff_vonmises	0.02887831614477479	1.654605634540102	4.850170888963603	1.7084341062079036	0.42476830831536255	1.843719457196263	1.0282981638391568	-0.2756228708506749	1.3039210346898318	58.66072122815132
8	3.0	wm	252	diff_vonmises	0.07398862856370259	4.239236148661248	2.0178002906519956	2.0137494693000044	1.185875986244538	2.352062585097376	0.15882042508286198	-0.1352922779668889	0.2941127030497509	69.57147320852667
9	4.0	ltm	252	diff_vonmises	-0.08530165045325319	-4.887424556471614	1.4424391982289597	120.91824226381429	1.427741474748015	121.44084901024604	0.09531722811401977	-0.16048556347507237	0.25580279158909214	70.49730250521975
10	4.0	perception	252	diff_vonmises	-0.10777161935259699	-6.174858940194233	2.509836867552065	2.407410248076239	0.31740546913892725	3.1671552466362654	0.7468420307381031	-0.3925578978519235	1.1393999285900267	78.65426829802092
11	4.0	wm	252	diff_vonmises	-0.09876124247256209	-5.658602373145978	1.2775449427402366	130.46694693775478	1.2604520899412694	131.44405057361857	0.026161681617928423	-0.24479745122647145	0.2709591328443999	71.43645698549909
12	5.0	ltm	252	diff_vonmises	0.15272993264652224	8.750780545963051	1.0004610348127605	56.64209667242559	0.9654691180368811	56.955562346006005	0.270399693272239	-0.1695946125694059	0.4399943058416449	91.34303008603837
13	5.0	perception	252	diff_vonmises	-0.0011806595488110326	-0.06764680918869218	3.667736377124406	1.4595106506130064	6.374182672822641e-18	1.7802224896649967	0.7866436950232824	-0.28263358654406995	1.0692772815673524	71.57696505694906
14	5.0	wm	252	diff_vonmises	-0.16669712315209997	-9.55104161358785	0.5460578488343815	85.78934091757715	0.5317985725011632	86.16386233875133	0.1352681931943316	-0.1659408109656706	0.3012090041600022	119.77611603570072
15	6.0	ltm	252	diff_vonmises	-0.041455537752615186	-2.3752273506701	0.7171807704941089	78.08628260992415	0.7035663502420374	78.51032713019747	0.08175493503184583	-0.1307870344082822	0.21254196944012804	102.2326476447812
16	6.0	perception	252	diff_vonmises	-0.2619376779283345	-15.007923440750623	2.0177312040425557	1.3912678780506451	1.203773797163464e-16	1.9046832735977657	0.4184330290017844	-0.29038415169491877	0.7088171806967032	96.5193070478677
17	6.0	wm	252	diff_vonmises	-0.23580885272856122	-13.510852033168545	0.8723606648187407	56.35771010787848	0.8324047801759227	56.91110307463687	0.25815430429439346	-0.22464394029995916	0.4827982445943526	96.2469995856674
18	7.0	ltm	252	diff_vonmises	0.060434724730910376	3.4626546631160644	0.9399421080143437	107.8190458235894	0.9202769211276082	108.33290606978768	0.2353185637026698	-0.20178215478278894	0.43710071848545873	91.98515622184757
19	7.0	perception	252	diff_vonmises	-0.07246616381411806	-4.152005344052613	3.520704591056885	1.6161553178467363	0.06879651231133121	2.5251048666365805	0.7282535016882528	-0.38216844089427515	1.110421942582528	71.4190279017229
20	7.0	wm	252	diff_vonmises	0.28263520513890344	16.193804396273404	9.592033273338526	0.4696202171309082	4.418753356919765e-28	1.0754204974067356	0.40110355382724155	-0.17115848539710266	0.5722620392243443	43.83501654644698
0	1.0	ltm	253	diff_vonmises	0.0983327060889135	5.634049046995115	2.3816558063653073	0.6482973230262067	0.021728416955306026	1.6452498380598788	0.10372161849581063	-0.2530211772325266	0.3567427957283372	87.63369394682462
1	1.0	perception	253	diff_vonmises	0.022504560112867958	1.2894163142657895	9.285567628945186	0.5368927181708733	1.0580516418112172e-21	1.7629421810031716	0.3627671729604121	-0.28058095695571766	0.6433481299161298	44.56316586899888
2	1.0	wm	253	diff_vonmises	0.1600966148736854	9.172860346593534	3.985277548835877	0.402117818485334	6.885005271984337e-22	1.4712032905143169	0.07439447970486629	-0.23404267420764494	0.30843715391251125	68.58974060817636
3	2.0	ltm	253	diff_vonmises	-0.039043631508815325	-2.2370353023191165	2.6658418836133335	1.0691435644835303	0.5574085832044048	1.5800915219973675	0.24731028222503126	-0.1876716628803325	0.43498194510536375	71.44083850360698
4	2.0	perception	253	diff_vonmises	-0.03724374639448769	-2.133909481659721	6.870173029839223	0.9913492288352922	2.0439640489035443e-22	1.6598591422086466	0.752116005515342	-0.2641736916537113	1.0162896971690532	51.920495501372415
5	2.0	wm	253	diff_vonmises	0.05103226820323803	2.923933587025208	6.283122082005687	0.38415880751608644	0.12113570800239581	1.1790837091821516	0.16480512970285735	-0.18935741809400344	0.3541625477968608	52.601737878808734
6	3.0	ltm	253	diff_vonmises	0.17452538930986802	9.999568225333054	1.2554919704569172	165.8439446318809	1.2410034662576368	166.19507240094623	0.3047786147973852	-0.18297768396799263	0.48775629876537785	80.83620947481995
7	3.0	perception	253	diff_vonmises	0.0023890668299479294	0.13688344633071511	4.90280063231795	1.7145344903101518	0.13132678168910622	2.389415528021765	1.0394307128634706	-0.36775725295940526	1.4071879658228759	60.170363496702095
8	3.0	wm	253	diff_vonmises	0.07312263715756799	4.189618495995136	2.540426821992094	1.2836360160627351	0.5716681191267081	2.0805446468263087	0.22231040381338962	-0.2462026924562244	0.468513096269614	71.2980644906784
9	4.0	ltm	253	diff_vonmises	0.05173383280170395	2.964130277573095	1.1128490195006275	146.52247308038676	1.096486918955086	147.4694436830494	0.10780851382391177	-0.2524094501697043	0.36021796399361605	79.5501548796478
10	4.0	perception	253	diff_vonmises	-0.10448910747287254	-5.986784863284468	2.7635218829086736	2.140920949503995	0.0430126508473849	3.4956004789234023	0.7571360382625814	-0.5280723814585329	1.2852084197211142	81.07786765024215
11	4.0	wm	253	diff_vonmises	-0.08011786159590076	-4.590415333058376	1.174956765411823	218.11296485041103	1.1587101487145568	219.85304286451685	0.011263826673683752	-0.4142410825983589	0.42550490927204265	73.80458705827272
12	5.0	ltm	253	diff_vonmises	0.03530258187686853	2.0226889474595953	1.6956687464065012	1.1556202355082823	0.0031061973796126705	1.5985725937752395	0.2840797750470382	-0.23547655697576253	0.5195563320228007	104.560263796116
13	5.0	perception	253	diff_vonmises	-0.04434858766837688	-2.5409869007639236	2.389225518529479	1.7828636253011925	2.224011484985228e-18	2.0458936895140636	0.6973539944353039	-0.31701062144426656	1.0143646158795705	88.98131207782095
14	5.0	wm	253	diff_vonmises	-0.07660512895931607	-4.389150578424211	0.6871565551789307	123.07889094935368	0.6733028618149639	123.56163623714902	0.189753856126039	-0.19823060104800483	0.38798445717404384	107.29499082336201
15	6.0	ltm	253	diff_vonmises	0.32509026298315136	18.626300029732587	0.505137846882702	115.93107701957697	0.4948411402889248	116.20755158705592	0.15515006830309375	-0.15988585938938904	0.3150359276924828	124.28601947389393
16	6.0	perception	253	diff_vonmises	-0.1303297016936678	-7.467341852246182	1.9736658151268898	1.4527867083591728	7.34789106139702e-11	1.8444704437670392	0.4498821570671516	-0.27920176446235717	0.7290839215295088	97.61283046230444
17	6.0	wm	253	diff_vonmises	-0.0015909396161754936	-0.0911541254670189	0.8313203277040714	126.70564336441477	0.8144190641946354	127.28704830868826	0.2307219070361839	-0.22178401668512038	0.45250592372130427	97.40927671497454
18	7.0	ltm	253	diff_vonmises	-0.08210428763139149	-4.704229161206899	1.0076514081431618	81.78312892457757	0.9680703150414643	82.89169396171991	0.24086085197217244	-0.3321835107829383	0.5730443627551107	86.52540553449666
19	7.0	perception	253	diff_vonmises	0.003757307258985169	0.21527784827371793	2.645843731199499	2.012283180055917	0.10586891553036884	3.2906457102561744	0.645344174322499	-0.47242944364679385	1.1177736179692928	80.7760230543876
20	7.0	wm	253	diff_vonmises	0.23974149957626578	13.736176099857444	10.825908331075057	0.5380175050060514	1.0758531285532927e-17	1.6913087431221565	0.4284357375574779	-0.26918014648672245	0.6976158840442004	41.23487560098931
0	1.0	ltm	254	diff_vonmises	-0.018880799573288795	-1.0817901293818537	1.2842128596661657	2.5518919946929093	0.38794507598287076	4.667115229624501	-0.04782554896036384	-0.44736119396185847	0.39953564500149463	89.19239151352465
1	1.0	perception	254	diff_vonmises	0.012636996571545494	0.7240465692708479	12.173689495740065	0.6226298365731691	2.4648346615926362e-20	2.754080263102047	0.41896727008295714	-0.43832548752164563	0.8572927576046028	38.863013312222336
2	1.0	wm	254	diff_vonmises	0.09573595421643154	5.485266124259205	4.3354635627678935	0.4278182343103518	1.6840299136128766e-13	2.718796676048767	-0.08912220906461893	-0.4326509866228666	0.3435287775582477	65.69628957684151
3	2.0	ltm	254	diff_vonmises	-0.005350098072028026	-0.3065380395082846	3.1050416295406333	0.6240200046675882	5.147843570276983e-13	1.9106423342841043	0.11267375960697512	-0.30325079359085455	0.41592455319782967	77.95649113323259
4	2.0	perception	254	diff_vonmises	-0.04515466822370406	-2.5871719145317322	7.307183153745652	1.080546367717477	0.08292835680556787	2.40144091008242	0.7291689529476193	-0.38478079104713075	1.11394974399475	49.57158850834918
5	2.0	wm	254	diff_vonmises	0.007422198231528863	0.4252606333760673	4.6580759467300625	0.47273186031470893	0.055469062014799245	2.0158479169258885	0.05576352605219376	-0.31684238523560515	0.3726059112877989	61.34341443102127
6	3.0	ltm	254	diff_vonmises	0.10453119247148274	5.9891961560856455	0.9635995578572875	133.9784357290107	0.9457753221746968	134.8571162981201	0.16213931823877203	-0.25332071449163784	0.4154600327304099	87.49701773938935
7	3.0	perception	254	diff_vonmises	0.024806688060044477	1.42131852953812	4.563176139194612	2.012578807442544	0.21898136700798526	2.869951588181837	1.0997936396399446	-0.43452799259856834	1.534321632238513	61.35572909246727
8	3.0	wm	254	diff_vonmises	-0.008929935600267615	-0.5116476212189577	2.3032975326118827	1.1266678915980388	0.3494553338970351	2.394760045514309	0.1081333760033637	-0.30703399403261744	0.41516737003598114	76.1787917398737
9	4.0	ltm	254	diff_vonmises	-0.057951302281244226	-3.3203650380021537	0.8280449002000155	187.53574155302482	0.8145313580414507	189.102718062067	0.00370512727372585	-0.34939571207152653	0.3531008393452524	88.4343774954124
10	4.0	perception	254	diff_vonmises	-0.04220056310862583	-2.4179141591997415	1.8816823408865146	3.9746344136717155	0.4245756402903611	5.697586379233529	0.6499886746648214	-0.5923777024399431	1.2423663771047644	84.08774183556292
11	4.0	wm	254	diff_vonmises	0.044189812679580144	2.5318897640136333	0.8097111637776089	216.74957790158933	0.7965833898120938	218.91166353470345	-0.1117394126082587	-0.4418011590568156	0.3300617464485569	85.42808106519215
12	5.0	ltm	254	diff_vonmises	0.1641398836434483	9.404522582538002	1.6961404934871342	1.4527945650954623	0.19679700359469135	2.561402345809182	0.1865082348973574	-0.31397122734871946	0.5004794622460769	93.29898306257002
13	5.0	perception	254	diff_vonmises	0.027623941583067968	1.5827352662257286	2.3022196484739093	2.0612134389317154	2.64834999440083e-16	3.0795409470071378	0.6668326736302392	-0.47854472284323657	1.1453773964734757	90.62795668984353
14	5.0	wm	254	diff_vonmises	-0.07104313041299416	-4.070471536062066	0.5267479031138935	214.67736676688438	0.5163487007077251	216.00630116770287	0.08663273071413613	-0.3652306483264347	0.45186337904057083	116.18477891883184
15	6.0	ltm	254	diff_vonmises	0.160110316708921	9.173645403924118	0.3414641607396345	89.97115285854677	0.32746453127771297	90.97541996230667	0.01154964740195652	-0.27473636843605753	0.28628601583801405	137.10797190661785
16	6.0	perception	254	diff_vonmises	-0.12517344444731676	-7.17191007394652	1.7468414783075856	1.5654977641661438	1.6894263188941205e-22	2.7179979733252884	0.3113252895864708	-0.4099760233486266	0.7213013129350974	103.28720500146268
17	6.0	wm	254	diff_vonmises	-0.11266434012392725	-6.455191190727449	0.5010767017106939	185.65206504830456	0.4894030008607927	187.0425541793971	0.06441142984078851	-0.37332805369584676	0.4377394835366353	118.42930467080876
18	7.0	ltm	254	diff_vonmises	-0.00011081953542651462	-0.006349491667539797	1.1235927773720198	124.6635986111657	1.0963468762258128	126.13597874521649	0.105310444252396	-0.3733939459943514	0.4787043902467474	78.18229517628436
19	7.0	perception	254	diff_vonmises	0.049365110313193156	2.8284124761437015	2.4363618117635935	1.621067759579314	5.94465879578194e-22	2.9541311360805196	0.4708271921571663	-0.46296348132183796	0.9337906734790042	88.11688261652387
20	7.0	wm	254	diff_vonmises	0.08903108062782818	5.1011051654634985	3.745848459919869	0.526638752383963	4.76728266556612e-26	2.302052851168349	0.024210563051031364	-0.36616525554441137	0.39037581859544274	70.80732952872364
0	1.0	ltm	255	diff_vonmises	-0.05031234330342837	-2.8826849286997356	0.9113322879984704	227.16096434393188	0.8968332413285693	229.21127933625573	-0.0332772606728895	-0.44792169717013053	0.41464443649724103	82.98691723212059
1	1.0	perception	255	diff_vonmises	0.026840986786259027	1.5378752608190533	8.540198285654425	0.7171564380114293	1.841695618240287e-20	2.562792795674081	0.41502788160283594	-0.4078811100981722	0.8229089917010082	46.49938327170511
2	1.0	wm	255	diff_vonmises	0.06535321549662514	3.7444634255655886	6.569541316768035	0.3371893248314258	2.2195221834608367e-18	2.3327196543138715	-0.033593022007320894	-0.37126319960053716	0.33767017759321627	53.11923364291334
3	2.0	ltm	255	diff_vonmises	-0.043329605595174854	-2.482603528569957	3.344464037033118	0.6087754718982614	2.501113952766644e-12	1.9913505822904976	0.10699132402054234	-0.31640553995260307	0.4233968639731454	75.05071681983412
4	2.0	perception	255	diff_vonmises	-0.03401134308738944	-1.9487064144788622	7.304774217855264	1.1133026288418202	0.033315177860495725	2.497804348758284	0.7675006302284586	-0.39711547653261803	1.1646161067610765	49.973870122158104
5	2.0	wm	255	diff_vonmises	-0.014064277910189533	-0.8058237661529337	4.372152913071676	0.48982733785974036	0.08764927125686571	1.9509438937216526	0.056939655102008324	-0.3050590387984345	0.3619986939004428	62.4092528150272
6	3.0	ltm	255	diff_vonmises	0.11865467850565899	6.798412297855905	1.8778603638779066	1.6724858211225275	0.6337653631144358	2.4350246699385196	0.16826055855264044	-0.2247973027109066	0.393057861263547	77.9365145440238
7	3.0	perception	255	diff_vonmises	0.051444303130692134	2.9475414493803074	4.6144664395476385	2.016721968864976	0.20620662395702752	2.5846534692854988	1.175045018385597	-0.3905007200473226	1.5655457384329194	61.3572866584434
8	3.0	wm	255	diff_vonmises	-0.1055566569189194	-6.047950940964482	3.2422401857294183	0.6181048233923299	0.10709749664026018	1.566040895641761	0.14641018963495767	-0.23464263569421578	0.38105282532917345	72.23232722436441
9	4.0	ltm	255	diff_vonmises	-0.053168610917050635	-3.046337008120195	0.5380816393254207	122.84371788113658	0.5241666248977481	124.17080866901787	-0.01250719832738767	-0.30529051435631693	0.29278331602892926	110.71996961828596
10	4.0	perception	255	diff_vonmises	-0.04768135098598148	-2.7319401729786854	1.9669823172523473	3.977310696632377	0.4501716511286154	5.72257652200626	0.6723400587826973	-0.600393253694361	1.2727333124770583	82.09143654527986
11	4.0	wm	255	diff_vonmises	0.01981883519538992	1.1355356115611765	0.8144128811312897	141.92266592823577	0.7984612477843674	143.68234242152533	-0.10148416495904655	-0.35642357860382035	0.2549394136447738	84.65382113309113
12	5.0	ltm	255	diff_vonmises	0.29573434563126577	16.944329861734683	0.9141744258809087	74.79110848162902	0.8785110876202686	75.81932172062506	0.18047022962376502	-0.29439036397328966	0.4748605935970547	90.25296795143458
13	5.0	perception	255	diff_vonmises	0.03838677691039476	2.1994003060758573	2.60895712824321	2.1125060655941756	1.0749625820675365e-16	3.0319122133816045	0.7939554555288704	-0.4756267337533086	1.269582189282179	85.15214275620815
14	5.0	wm	255	diff_vonmises	-0.03709802233693185	-2.1255601081882505	0.48459018526684916	170.9520037989688	0.4729047736060751	172.08653615393183	0.09788550851893518	-0.3359801014241306	0.4338656099430658	121.85602624610414
15	6.0	ltm	255	diff_vonmises	-0.2725146277923104	-15.613938028077913	0.0002465369312776642	2880.576397880776	1.2523548725348715e-25	2881.4607416868425	-0.027716467083905627	-0.253764977794674	0.22604851071076837	177.8731186882059
16	6.0	perception	255	diff_vonmises	-0.2224493209727418	-12.745407247289094	1.6784363536753768	1.55172615483006	4.1204338681964856e-19	2.4247083921415995	0.33373559490826066	-0.3608283212404415	0.6945639161487022	105.07259556644159
17	6.0	wm	255	diff_vonmises	-0.2835062585109168	-16.24371207822041	0.45930174504501936	108.32630138473728	0.4429563828791834	109.46318145071433	0.05974375200748483	-0.3189333139299535	0.37867706593743833	123.71786479931714
18	7.0	ltm	255	diff_vonmises	0.03879929723872812	2.22303597985271	1.1723362897028666	80.43826765961275	1.1394555274795795	81.48483429628712	0.10659714742551074	-0.2774126315213117	0.3840097789468224	77.37280583930837
19	7.0	perception	255	diff_vonmises	-0.016228004905344602	-0.9297961909938427	1.8214497493905277	2.8268085024083986	0.31955952388372594	3.7510983181531	0.5766955891732389	-0.40647551057877435	0.9831710997520133	89.1513325508316
20	7.0	wm	255	diff_vonmises	-0.45255753468997856	-25.929636724581115	0.0002625882044147725	3794.995473362602	2.1598790363196902e-32	3796.3736743459363	-0.06073595736495463	-0.3779382174327566	0.31720226006780194	174.2160776689789
0	1.0	ltm	256	diff_vonmises	-0.1204574003092011	-6.901700648835081	1.1812070957920568	72.51171011132594	1.1559216500835052	72.88343620730699	0.20232386827986204	-0.15306578245995706	0.3553896507398191	82.28894759408325
1	1.0	perception	256	diff_vonmises	-0.02537123214646062	-1.4536645230388339	14.208990876826283	0.5951581447217589	4.174389332006218e-18	1.020861111508817	0.7239957539443386	-0.1624750921065109	0.8864708460508495	35.95747023676637
2	1.0	wm	256	diff_vonmises	-0.3183366506850168	-18.239346548581832	0.00034847740605330034	2504.8187383682043	2.621407543168974e-30	2505.280783475619	0.06539613677648504	-0.21244545758372624	0.2778415943602113	177.10243965017438
3	2.0	ltm	256	diff_vonmises	0.06510010550682671	3.7299612913975397	4.667997311641378	0.3268059408934719	1.4900703535828285e-20	0.5150720908353302	0.1911717578959704	-0.08195217734408063	0.273123935240051	63.247807793481684
4	2.0	perception	256	diff_vonmises	-0.03745375611551706	-2.145942152331424	8.326503180513473	0.9254006782221312	4.586834606005306e-16	1.0583389193967467	0.8798625190851805	-0.16843980908387607	1.0483023281690567	47.09283404786561
5	2.0	wm	256	diff_vonmises	-0.030508924370884986	-1.74803260393553	6.929314683485862	0.2841439380193311	3.372758127867711e-13	0.542891642269246	0.20618018609955013	-0.08640360815652072	0.29258379425607084	51.69732673535421
6	3.0	ltm	256	diff_vonmises	0.16796010747253892	9.623405284740201	1.513744787062421	60.53874193001488	1.4926222556850297	60.57803712224171	0.20655870453700587	-0.07757372546071029	0.28413242999771615	76.0754334193989
7	3.0	perception	256	diff_vonmises	0.012622825454994853	0.7232346241015082	5.442395711626724	1.5405502986174155	0.31991485166004874	1.5594492080919746	1.0641317483321742	-0.24022906306749106	1.3043608113996652	56.38422596451409
8	3.0	wm	256	diff_vonmises	-0.0355752038860438	-2.038309037987715	1.8565845734627147	23.243233023344125	1.7598215673707587	23.4648053746865	0.26136927092085394	-0.1449669971579315	0.4063362680787854	67.10990520630162
9	4.0	ltm	256	diff_vonmises	-0.14290754039965348	-8.18799892549545	1.8236149036096136	147.51029504018626	1.8091645496785211	147.90218664912973	0.15703249198513447	-0.15983879890963237	0.31687129089476684	64.22137644139653
10	4.0	perception	256	diff_vonmises	-0.06380448060550822	-3.6557274527199364	2.425284579105636	2.380182637311527	0.2747219726427224	3.0310806437216886	0.7547675047420357	-0.378009964949761	1.1327774696917967	80.88433130050015
11	4.0	wm	256	diff_vonmises	-0.018960046526008953	-1.0863306453119914	1.3441270525902322	143.36070953444536	1.32739786089208	144.3822884020377	0.022088580002922242	-0.25975387517248905	0.2818424551754113	69.36720247443546
12	5.0	ltm	256	diff_vonmises	0.2435117678277673	13.952196558300647	1.6436410129088979	1.1766408043500374	0.2705258451176697	1.2884562997945566	0.2748639696652766	-0.13425191451560967	0.4091158841808863	96.39567217409723
13	5.0	perception	256	diff_vonmises	0.0337917893068276	1.9361269094765272	3.145240726166309	1.4176993220543506	9.977060827347016e-19	1.5331235184580594	0.7097910041769464	-0.2422359698181737	0.9520269739951202	77.4426407461151
14	5.0	wm	256	diff_vonmises	-0.03713691276516946	-2.1277883655897214	0.5343068282187492	92.25913718450624	0.5197355836648	92.46501139675225	0.20070248935829227	-0.1662657471558724	0.36696823651416466	123.30985681846563
15	6.0	ltm	256	diff_vonmises	0.21317436760154373	12.21399156393881	0.7824630217053009	43.66751758510917	0.7645627835638109	43.823617993290505	0.10292129253014792	-0.07910832717834815	0.18202961970849607	102.2379749305799
16	6.0	perception	256	diff_vonmises	-0.14367533501116114	-8.231990316267726	2.186805557180626	1.2189907935112663	1.927036630226306e-13	1.5510438627008394	0.416707536494043	-0.23849135240928196	0.655198888903325	92.91879490165809
17	6.0	wm	256	diff_vonmises	-0.2222905648094858	-12.736311189162835	0.6355393634365211	68.47712745975268	0.6084808867154486	68.9555886267748	0.22356377103091418	-0.22466367079906746	0.44822744182998164	112.86321817018245
18	7.0	ltm	256	diff_vonmises	0.05394593068028772	3.090874149885788	1.2447379677483523	80.61992220840445	1.220576309825915	80.92697771993159	0.2404477201113302	-0.15122640681045674	0.39167412692178694	81.09043713753965
19	7.0	perception	256	diff_vonmises	0.01710029678651519	0.9797748342884446	2.892292722132077	1.213748903533755	1.095686807690015e-16	1.8331822260360522	0.48674687272530887	-0.28936642664114803	0.7761132993664569	80.82566342022523
20	7.0	wm	256	diff_vonmises	-0.17667839266732974	-10.122926230993105	0.0003118495972273281	3203.9637466147014	1.8829552031715523e-30	3204.4678064925156	0.07880883501132985	-0.2392312823489533	0.31804011736028315	179.09057151650464
0	1.0	ltm	257	diff_vonmises	0.05301858998385743	3.0377414418096103	1.7529997460842275	1.420629334072856	0.3564342839771784	3.3291034233002073	-0.05674083220067416	-0.39710071997507324	0.3403598877743991	80.40656569691771
1	1.0	perception	257	diff_vonmises	0.06576441671774556	3.7680235200664147	11.970281118322523	0.5838617122634564	0.009307840103113167	2.662446848945855	0.3693558937808473	-0.4247817913969272	0.7941376851777745	39.106350770548175
2	1.0	wm	257	diff_vonmises	0.1044542841094928	5.984789631534358	5.213298683216729	0.33397363878628655	0.016778926149726727	2.464053643682044	-0.10266333787719123	-0.3905675371789974	0.28790419930180616	58.807153858227196
3	2.0	ltm	257	diff_vonmises	-0.022927280555692077	-1.3136364115535129	2.5205898098707276	1.0388714836449626	0.4024402349660415	1.9766113082862533	0.1632360282584291	-0.2527723116706225	0.41600833992905156	73.58437744632144
4	2.0	perception	257	diff_vonmises	-0.02735023560713618	-1.5670530689773277	7.52377033030234	1.0539528087076198	0.10412575026994303	2.1220776281971085	0.7588069001100948	-0.34176228508630946	1.1005691851964041	48.78049423907902
5	2.0	wm	257	diff_vonmises	0.09297253875173617	5.326934081090977	6.448114208233558	0.3542097599632475	0.0791551504472581	1.680456852692611	0.062225108843430466	-0.269635007896678	0.33186011674010846	51.97945836919382
6	3.0	ltm	257	diff_vonmises	0.16609898374597942	9.516770750056681	1.167559753392847	124.90300407470104	1.1485910195721751	125.534111236343	0.20698032044621328	-0.2135195811767563	0.4204999016229696	80.99913840197539
7	3.0	perception	257	diff_vonmises	0.02557549421026877	1.4653678772096728	5.1833455792311005	1.693708181407313	0.16752977136034464	2.4791778526323562	1.0335667920120488	-0.38439251208973846	1.4179593041017873	58.205645819755546
8	3.0	wm	257	diff_vonmises	0.11550244567610658	6.617802660679971	3.627930805396971	0.6331553278886106	0.2663806493754154	1.7723859599127945	0.09960484080044962	-0.2673183228102045	0.36692316361065413	64.57756685247384
9	4.0	ltm	257	diff_vonmises	0.10491840731414001	6.0113819323347295	0.949928251400404	197.62856406137934	0.937698788283988	199.07018019204662	-0.016410832266558373	-0.3191036524146931	0.3026928201481347	81.44079378857506
10	4.0	perception	257	diff_vonmises	-0.07859200814411126	-4.502990370115369	2.9391334473226864	2.0303941390474423	0.08568582810031232	3.6257173471138664	0.6866808860277672	-0.5358383069620681	1.2225191929898354	77.22498728931299
11	4.0	wm	257	diff_vonmises	-0.04546507376495981	-2.604956841983161	0.971008398950882	175.18425911683022	0.9528778908564037	177.24315585882326	-0.08251213392126289	-0.44018804635623354	0.35767591243497066	78.76490669638724
12	5.0	ltm	257	diff_vonmises	0.022043739029554962	1.2630132110813084	1.6645900778900071	1.317029824174784	0.11138232236598065	2.3768934895739284	0.1861652849784971	-0.3156189258360028	0.5017842108144999	98.53238163650872
13	5.0	perception	257	diff_vonmises	-0.016467325041145116	-0.9435082247277099	2.5739710878739555	1.8706664847721106	2.4140428096027758e-17	2.7586639169135068	0.6824476401295118	-0.4325375367252703	1.114985176854782	85.73097599113947
14	5.0	wm	257	diff_vonmises	-0.07821915809521408	-4.481627635922314	0.5838653038790036	179.27335153795192	0.571891515825904	180.45371780147508	0.09815260620600696	-0.32399332678108017	0.42214593298708714	110.7622159105157
15	6.0	ltm	257	diff_vonmises	0.22584818111286137	12.940147588473188	0.5092579177921416	159.32222437689293	0.49865865742574655	160.29640715633687	0.07569242776001062	-0.2783683296802657	0.3540607574402763	118.57935016822486
16	6.0	perception	257	diff_vonmises	-0.11297548323049834	-6.473018377558563	1.6429661644756404	1.7646896126147218	1.229832557829265e-14	2.834297436149476	0.3567083602728574	-0.42087271321282216	0.7775810734856796	106.1676899640164
17	6.0	wm	257	diff_vonmises	-0.0144871031124277	-0.8300498657129461	0.6834163713334587	167.9461358993955	0.6670042603793304	169.1486512366271	0.1900807272930365	-0.3573123868046437	0.5473931140976802	104.20164032394969
18	7.0	ltm	257	diff_vonmises	-0.017683078896375812	-1.0131657895591877	0.9390799656803918	221.64473885205746	0.9234828575010691	223.33152253595324	0.10539504369407382	-0.41338632894116145	0.5187813726352353	85.43102287337348
19	7.0	perception	257	diff_vonmises	0.008257748483847782	0.4731341364050323	2.450165373649651	2.107268373633777	0.17562866783209857	3.808238289246875	0.510287245098537	-0.5209118058679636	1.0311990509665006	81.03122256437356
20	7.0	wm	257	diff_vonmises	0.27599032199628787	15.813080636843903	8.024136032550626	0.5306301635002744	8.688481866955689e-13	2.295377943819948	0.2243722016460395	-0.365320682783443	0.5896928844294824	47.9839627211891
0	1.0	ltm	258	diff_vonmises	-0.0322149261561805	-1.8457793060747463	1.020885473304589	146.5470487978054	1.0048840817699176	147.37089604327883	0.16081525581538614	-0.24033876995067338	0.4011540257660595	85.02068607824393
1	1.0	perception	258	diff_vonmises	0.02202122206848856	1.261723084244743	9.733757876484308	0.5280031067857014	2.8155313389173505e-29	1.5011630428002678	0.40933173083253227	-0.23891751637241096	0.6482492472049433	43.51204570798413
2	1.0	wm	258	diff_vonmises	0.10937209294381624	6.266559322193242	5.757614773658972	0.3284320282584692	8.380097311592906e-22	1.1639774502322136	0.12163813763896122	-0.18524970262422372	0.30688784026318494	56.81360297201371
3	2.0	ltm	258	diff_vonmises	-0.14573661834197946	-8.350093151504284	2.751726131713244	0.9197357148926631	0.37922767468610163	1.3175991646012535	0.2775289544529856	-0.1670665420691808	0.4445954965221664	74.04989591626165
4	2.0	perception	258	diff_vonmises	-0.03552721406321815	-2.0355594236802244	6.78250586655961	0.9813196623152864	8.320836199865279e-19	1.5975919301977948	0.7450407981699931	-0.2542633689575309	0.999304167127524	52.260226142454115
5	2.0	wm	258	diff_vonmises	0.011204018769507664	0.6419429890781471	5.638499577048071	0.3708931694382757	0.19592679112591518	1.0010884165394678	0.15078337963308014	-0.16079355332214032	0.3115769329552205	54.628593209542714
6	3.0	ltm	258	diff_vonmises	0.09076651239697443	5.2005380814685	1.360977215315854	178.46981264377263	1.3486704929260669	178.698503528649	0.3024393852147824	-0.15383168932095614	0.45627107453573856	78.4269602965995
7	3.0	perception	258	diff_vonmises	0.02385214372398134	1.366627167723585	4.441140138739787	1.8863966339293678	0.3046659252883832	2.2383843430280423	1.0628103168475505	-0.33094537125718876	1.3937556881047393	61.75141807235278
8	3.0	wm	258	diff_vonmises	0.032704540166844744	1.873832122476281	1.2736141308129794	48.53677878122411	1.2279351634100013	49.04651954844327	0.2104424756398906	-0.18788383251157104	0.39832630815146164	78.53518226711083
9	4.0	ltm	258	diff_vonmises	-0.09371351568189028	-5.369388931905368	1.1445585453947658	138.45112508700214	1.1300858764642832	139.14445577037378	0.11951225664191867	-0.1986285959399332	0.3181408525818519	79.58906562912514
10	4.0	perception	258	diff_vonmises	-0.10466711046945269	-5.996983683729192	2.1214770886409675	3.203076420618677	0.3727305668843034	4.214181463727002	0.7715016837222012	-0.47111282937921367	1.2426145131014148	82.84406894773906
11	4.0	wm	258	diff_vonmises	-0.07940813437735998	-4.549750958830431	1.152243446044404	196.24201347648093	1.138419847106605	197.52572221258734	0.032921264455211485	-0.31067447835326334	0.3435957428084748	75.3249373108543
12	5.0	ltm	258	diff_vonmises	0.15646454553556452	8.964758102620333	1.5916374181627464	1.7120274058867984	0.3943330831611325	2.0918802365120146	0.2935323732179012	-0.1926939879642497	0.4862263611821509	92.30514655263596
13	5.0	perception	258	diff_vonmises	-0.010171957734838625	-0.5828102475917062	2.777517268295278	1.7331370008093305	1.5743840699974262e-18	2.050709164646824	0.7595798212256307	-0.32217945800028847	1.0817592792259192	82.50777153566199
14	5.0	wm	258	diff_vonmises	-0.12951303498077946	-7.420550296328858	0.5807143367941663	110.46823115837324	0.567384857452089	110.90604415244432	0.16436492904884403	-0.19185131901124208	0.3562162480600861	116.55515365439898
15	6.0	ltm	258	diff_vonmises	0.1454819514386427	8.335501812761422	0.5828460512589608	87.08803179675114	0.5715204676202619	87.47969576335353	0.0843357168699832	-0.1362409141582832	0.2205766310282664	114.27170274178653
16	6.0	perception	258	diff_vonmises	-0.22416991993501864	-12.843990306062146	1.961320479073965	1.4435943694096258	1.1181270383495437e-13	1.9089859264177569	0.4321528333109932	-0.28926025174438486	0.721413085055378	97.84677446323957
17	6.0	wm	258	diff_vonmises	-0.18043300122200645	-10.338049454899794	0.8017201544043342	117.44011091714567	0.7842607598964804	118.04412246135665	0.2099732961941143	-0.22053344005532338	0.4305067362494377	98.78280089276896
18	7.0	ltm	258	diff_vonmises	-0.036321062243486295	-2.08104357398373	1.1423338201435107	96.19116367477562	1.1148957376013333	96.85948233499076	0.2495693472913061	-0.23618309856761677	0.48575244585892285	82.5446252245491
19	7.0	perception	258	diff_vonmises	-0.039628338439108686	-2.270536541676976	3.036910226400533	1.8091719034514908	0.08928521091033156	2.698290976039924	0.7245522318241282	-0.39734733831058394	1.121899570134712	76.3373928929764
20	7.0	wm	258	diff_vonmises	0.24323686522583102	13.936445799432535	9.937892388584958	0.4850835597826194	3.3344240003980485e-19	1.2821042241767842	0.3979502973758815	-0.20405322343178528	0.6020035208076668	43.056633629530126
0	1.0	ltm	259	diff_vonmises	0.009011915742887686	0.5163447373949683	3.1660482225800344	0.7183603035960405	0.17055644645758852	2.856079264021785	-0.05014142845737346	-0.4311762520699958	0.38103482361262236	68.8111459864198
1	1.0	perception	259	diff_vonmises	0.04617169016786321	2.6454429796042414	13.319040643079271	0.6568297588936363	0.060536102391793696	2.956104264378177	0.44739238637847134	-0.4835993011376115	0.9309916875160829	36.77920949421659
2	1.0	wm	259	diff_vonmises	0.11748129139024822	6.731182168407839	3.2386189810344996	0.503471145947546	0.06608260214866798	2.9623234852687705	-0.1587768334431081	-0.45808563700281046	0.29930880355970235	71.02089828072101
3	2.0	ltm	259	diff_vonmises	0.02472820355980545	1.4168216989172304	3.164089199759847	0.6752857836255997	0.19312743647885458	1.6471187745081826	0.14076838837374633	-0.24079853542090024	0.3815669237946466	70.79705611431189
4	2.0	perception	259	diff_vonmises	-0.038887367403704166	-2.2280820286068583	7.811846167009155	1.0557773323414879	0.14074183083570546	2.0198628767139137	0.7888485191416597	-0.3289226607508121	1.1177711798924719	47.70634964710342
5	2.0	wm	259	diff_vonmises	0.06806614358905691	3.8999027553844066	6.248110716496088	0.37164078115150173	0.056969670123967565	1.7325356021982588	0.07087058988035899	-0.2762305141414999	0.3471011040218589	53.17990254569824
6	3.0	ltm	259	diff_vonmises	0.15029556853066814	8.611301756326515	1.4484161473657255	2.3409629771145553	0.6717209191489062	2.9739812621484054	0.16248607432477347	-0.19625604402310304	0.3587421183478765	84.83585587278878
7	3.0	perception	259	diff_vonmises	0.024134175696015128	1.3827864094088729	5.486966734912025	1.584227840665209	0.14835389417309502	2.2818251708340496	1.024131944744549	-0.3562371146542833	1.3803690593988323	56.813201861688725
8	3.0	wm	259	diff_vonmises	0.0774554238267804	4.437868885671553	3.760939423963573	0.6932014285586581	0.3270623902960269	1.8044992180282275	0.12735284389244078	-0.27314161947325905	0.4004944633656998	62.84885293703624
9	4.0	ltm	259	diff_vonmises	0.0018002262803028302	0.1031453680298873	1.0954573077893208	187.81737300868932	1.0815918266570417	189.2196415809472	-0.01250348683259972	-0.32122102088178295	0.30871753404918323	75.75837010629968
10	4.0	perception	259	diff_vonmises	-0.05908603067001101	-3.3853801855721706	2.8543411404338146	2.0499600245680263	0.09703578589583894	3.5144245287589917	0.6899551720195999	-0.5135576693894761	1.203512841409076	78.08181828726231
11	4.0	wm	259	diff_vonmises	0.0037569695561160184	0.21525849932458616	0.9718524761185611	215.32563636641692	0.9567654837545807	217.40964784708225	-0.07875223731304004	-0.44711253372909	0.36836029641604995	78.83044047647334
12	5.0	ltm	259	diff_vonmises	0.021162031714351354	1.2124951031543307	1.8842909615984924	1.0192755243114153	3.5435486863582583e-20	2.114422117967309	0.17065526088582128	-0.32481238418344777	0.49546764506926905	99.78024332426352
13	5.0	perception	259	diff_vonmises	0.006538156187667583	0.3746087553506967	2.4189430474063363	1.8834586984626915	1.0649225641744447e-16	2.7895372160996654	0.6446705386916456	-0.4353416004670579	1.0800121391587034	88.4376766406067
14	5.0	wm	259	diff_vonmises	-0.040833612340636566	-2.33959364939179	0.5631165471718599	210.19626041623005	0.5521100403354132	211.4777688408029	0.10712477349631655	-0.3567990052797434	0.46392377877605995	112.89685719510926
15	6.0	ltm	259	diff_vonmises	0.3126537077568125	17.913737903582007	0.5658900022203311	123.74277431131908	0.5516100638840875	124.76704644453578	0.07030545139808098	-0.2763459112196891	0.3466513626177701	112.17741517011953
16	6.0	perception	259	diff_vonmises	-0.05037541049871173	-2.8862984128151994	1.5818345786759096	1.8593481056071008	0.0012289116886850821	3.011750520038187	0.35184395349527425	-0.4435867455385315	0.7954306990338058	107.89468450232775
17	6.0	wm	259	diff_vonmises	-0.0024981871707424387	-0.1431355813172697	0.6118233247882827	210.53849880858056	0.5981820972151332	211.85241147435093	0.19537904312778664	-0.4002462532892075	0.5956252964169941	110.11592888041741
18	7.0	ltm	259	diff_vonmises	0.012434195470944544	0.7124269221258054	1.0316298527006933	197.16668441807553	1.0137996354279732	198.81396096780767	0.0964726679222423	-0.40526610901560645	0.5017387769378487	81.19092021937499
19	7.0	perception	259	diff_vonmises	0.06405989356614666	3.67036153739746	2.945144060445268	1.398102487952521	1.0895358713525445e-16	2.9882985987671824	0.430453961149402	-0.47309593421927276	0.9035498953686747	80.08579335500559
20	7.0	wm	259	diff_vonmises	0.3019017681610652	17.297697143166086	3.50571230243634	0.785961880306507	0.13794885889688496	2.537532843240644	0.10052044284511269	-0.3851077111253788	0.48562815397049147	68.05251195467312
0	1.0	ltm	260	diff_vonmises	-0.12888736793105784	-7.3847022149994075	1.074266270376985	172.74240989976008	1.0567166539895587	174.09831525915993	0.0919650285271345	-0.3396986319393598	0.4316636604664943	79.7700104757304
1	1.0	perception	260	diff_vonmises	-0.009246573048327614	-0.5297896106285884	11.856128439101905	0.6888496137256624	4.666212598159961e-20	1.9956743299522053	0.6178724249661778	-0.3176214343663709	0.9354938593325487	39.39238568721558
2	1.0	wm	260	diff_vonmises	0.055665372902119474	3.1893909323133447	3.151524154170474	0.46967396896856944	3.961512563678706e-28	1.915928031714128	0.01140832306346895	-0.30435027245379903	0.315758595517268	77.36392820171605
3	2.0	ltm	260	diff_vonmises	0.040088879033608714	2.2969235740362737	3.3652814096292474	0.4769223782246643	9.804945627831471e-26	1.3562010058752858	0.11744182974530273	-0.2154481585472474	0.3328899882925501	74.80979859408401
4	2.0	perception	260	diff_vonmises	-0.04330064710925296	-2.480944329545543	8.065899294632056	1.0127599362997795	5.867194141559029e-11	1.7451379441038442	0.850497825943726	-0.27774721881276054	1.1282450447564867	47.86791222735886
5	2.0	wm	260	diff_vonmises	-0.0660138144647363	-3.7823129583890553	4.221922986929832	0.4728406803514146	0.09831788570281962	1.4084897459543846	0.12764382292765022	-0.2181426231416209	0.3457864460692711	63.810697386914285
6	3.0	ltm	260	diff_vonmises	0.11316004237811073	6.483592837787284	2.2969090710888165	0.7724557042040108	0.39773099242718085	1.20079459707828	0.159443233314012	-0.14228899942890513	0.30173223274291716	78.2303365476186
7	3.0	perception	260	diff_vonmises	0.036942890724717924	2.116671721539332	5.138269684506049	1.7147253055841665	0.2171894999618024	1.9287874872078887	1.1316560132103737	-0.2953534694395093	1.427009482649883	58.42486329593089
8	3.0	wm	260	diff_vonmises	-0.09972061372237769	-5.713570296746603	3.1376632559229503	0.8066842969187369	0.40957806002699276	1.3737501247340744	0.22603835026991825	-0.18658612026022398	0.41262447053014223	68.63112056047137
9	4.0	ltm	260	diff_vonmises	-0.22967427408681576	-13.159366567905433	1.119515372369821	153.64684077141914	1.1066885036225287	154.45836340768648	0.07479348767679284	-0.2110755048791333	0.2858689925559261	78.66702977143026
10	4.0	perception	260	diff_vonmises	-0.044492914327391414	-2.5492562091966797	2.132602642155153	3.1994914621004225	0.39312719506543714	4.337005812025869	0.7312824306009639	-0.48318537678818396	1.214467807389148	81.90408787330404
11	4.0	wm	260	diff_vonmises	0.03954932061082725	2.2660091536101605	1.0606739997371615	165.05778768464046	1.0463022652235316	166.43317222296827	-0.035555721197205514	-0.3060064368468396	0.2704507156496341	76.0970368230424
12	5.0	ltm	260	diff_vonmises	0.3141433071136059	17.99908565989167	0.8479925535749515	78.73179467475242	0.8216253847825518	79.34982533135398	0.2060486176003451	-0.21841240332676115	0.42446102092710625	96.0583917095662
13	5.0	perception	260	diff_vonmises	0.05347983645223146	3.064168917762757	2.7008185628070773	1.8298696565854782	1.8368080992013307e-16	2.341217513910388	0.7556019277871167	-0.36752896928788725	1.1231308970750038	83.6776425696238
14	5.0	wm	260	diff_vonmises	-0.007580842402605109	-0.4343502748230876	0.4980714820242782	132.3626651058373	0.4843367875910592	133.09678109080582	0.16030847292425676	-0.2745520797407739	0.43486055266503065	123.17949992548546
15	6.0	ltm	260	diff_vonmises	0.30806006886627624	17.65054178254712	0.7485723362834452	64.52908636066103	0.7316565516644047	65.0926792514153	0.04455159656034979	-0.14365884062228673	0.18821043718263653	97.04945742036813
16	6.0	perception	260	diff_vonmises	-0.1692245915963515	-9.69585488829596	1.8062039508859389	1.4579156588576596	4.069220552273554e-14	2.0826448581939863	0.3755436073127072	-0.3123824099903573	0.6879260173030646	101.70229708160993
17	6.0	wm	260	diff_vonmises	-0.2845751735702995	-16.304956399781013	0.4548339923253615	102.59227342818379	0.4370375034896812	103.47102344441788	0.1315480482902096	-0.3018402134367726	0.4333882617269822	126.68784472532725
18	7.0	ltm	260	diff_vonmises	0.04954587822906555	2.8387697147945654	1.3270034763929324	78.22572685192384	1.297409804922019	78.8696767567686	0.16425970906550802	-0.2065219214269618	0.3707816304924698	75.00053222145553
19	7.0	perception	260	diff_vonmises	0.025876814533360118	1.4826322600043256	2.5764328696976033	1.365844047259615	7.373713518462818e-17	2.049358260663712	0.4930698044738598	-0.32142714998182675	0.8144969544556866	85.69631471298226
20	7.0	wm	260	diff_vonmises	-0.3200962140190673	-18.34016210140889	0.00035290480447045317	2726.5793343951273	1.9070249909719285e-22	2727.4937936782303	0.007612632905079408	-0.29866704276588507	0.3062796756709645	177.0710968378727
0	1.0	ltm	261	diff_vonmises	0.0739452100559774	4.236748451415839	1.0099721107461246	371.3784212285909	0.99715528316655	374.4898630006426	-0.16138211463271546	-0.6623068763687172	0.5009247617360018	76.19549919718318
1	1.0	perception	261	diff_vonmises	0.14478160983530663	8.29537519467284	7.198041448631974	0.6947505928500038	1.1232786481408397e-14	3.541960264687586	0.16596982807990768	-0.5637200759633316	0.7296899040432393	50.70749120283199
2	1.0	wm	261	diff_vonmises	0.09371226237533786	5.369317122729479	8.727444923954733	0.3126385095468121	0.042475178085425024	3.0438663213487516	-0.14242095543911126	-0.4906466512862089	0.3482256958470976	44.940229175119384
3	2.0	ltm	261	diff_vonmises	-0.1104396335471897	-6.327724893225391	1.2448395568524795	69.7083380993006	1.1861881868421673	71.14415342471871	0.2127143955515436	-0.40531692888547965	0.6180313244370232	76.38045759250451
4	2.0	perception	261	diff_vonmises	-0.027998701805782567	-1.6042074453166577	6.18944074799462	1.2618105865407288	0.08401135199725515	2.9473858106707715	0.715362952330516	-0.46784553585813177	1.1832084881886478	53.703604124393195
5	2.0	wm	261	diff_vonmises	0.06652827259879819	3.8117892382069773	5.17466809372876	0.46777574737006467	0.14458888510092824	2.1133984343783094	0.026436692376517856	-0.3384786935528136	0.3649153859293315	56.282541524604795
6	3.0	ltm	261	diff_vonmises	0.11494219310966516	6.585702553161505	1.206171873411872	77.3790292013854	1.1661363334050483	78.29718080506014	0.23102133320159624	-0.2881408015740874	0.5191621347756836	79.08322264564876
7	3.0	perception	261	diff_vonmises	0.07502709530904647	4.298735910334139	4.612123748696791	1.8972948353415717	0.08263082964780143	2.821867024184959	1.0885761405458942	-0.4349915560543102	1.5235676966002045	62.44128527140211
8	3.0	wm	261	diff_vonmises	0.20991392743459655	12.027182103017807	0.7708129383473293	44.54512750372954	0.7228131313051434	45.75075481958238	0.059818026903554866	-0.2920343506632994	0.3518523775668543	95.43467132072715
9	4.0	ltm	261	diff_vonmises	0.4607242922595424	26.397557465623642	0.1906429390388877	130.78149896093797	0.17892528193972596	132.63406635136215	-0.08567067436571563	-0.4640984611424024	0.37842778677668676	152.36164214190327
10	4.0	perception	261	diff_vonmises	-0.11368173608933901	-6.513483685639182	3.1955272170154254	2.185007772079461	0.06717887518757376	4.48025807687535	0.7213430098660497	-0.6766241711389589	1.3979671810050087	74.43476000626072
11	4.0	wm	261	diff_vonmises	0.006306581728174646	0.3613405161787282	1.3703224540014973	2.1935164852429887	0.37890291016867195	4.448784961566663	-0.09838958570050071	-0.45967530101936066	0.36128571531885995	86.05589858018305
12	5.0	ltm	261	diff_vonmises	0.07003762901938011	4.012860549913459	1.877185169512231	1.3203087297304814	0.13713868084992686	2.842428393985242	0.1390182540361895	-0.38226455120923625	0.5212828052454257	90.9501608551781
13	5.0	perception	261	diff_vonmises	-0.03159047535592435	-1.8100009107065025	2.349678691680847	2.612139533524765	0.016291378533422822	3.7997320005840334	0.8695005406705348	-0.5814266993651793	1.450927240035714	89.07481356047211
14	5.0	wm	261	diff_vonmises	-0.04017988998546395	-2.302138117467047	0.5737721778417427	194.97604011424528	0.5616176793668556	196.31086137321182	0.10220202419287716	-0.36391989726984164	0.4661219214627188	111.55541376382129
15	6.0	ltm	261	diff_vonmises	0.2983472630905602	17.0940390043683	0.6313772158327015	157.13368532309934	0.6184369075929705	158.4076300747088	0.04296847409681703	-0.30940924947592485	0.3523777235727419	104.09243952854692
16	6.0	perception	261	diff_vonmises	-0.2157728619532984	-12.362874323382934	1.241534832783071	2.5577919346178835	1.4502696733918682e-18	3.5289856128764123	0.42763614854778453	-0.4790588381967519	0.9066949867445364	118.92915412588916
17	6.0	wm	261	diff_vonmises	-0.06232390205991435	-3.57089655081979	0.7189753863825274	139.88778176251105	0.6997425908792558	141.08372867973762	0.1727181216497229	-0.3424630968926792	0.5151812185424021	101.22720952394948
18	7.0	ltm	261	diff_vonmises	-0.028318406941706592	-1.6225252002937607	1.0124463882849366	100.40384776491963	0.9759222178887197	102.397564103543	0.02185367320193876	-0.4587802406351056	0.48063391383704435	80.44280873147224
19	7.0	perception	261	diff_vonmises	-0.0547884574910201	-3.1391473802673713	1.1913445466971375	577.9200905770421	1.178076523464491	579.5905397754927	0.7930322571457111	-0.6482361446569982	1.4412684018027093	81.2671681045693
20	7.0	wm	261	diff_vonmises	0.2822632233449209	16.1724914094225	8.107534143104095	0.5828402531104142	0.0030275125733774657	2.662149630067831	0.22621835740448049	-0.4235009074356332	0.6497192648401137	47.66451971162792
0	1.0	ltm	262	diff_vonmises	-0.10974372976346233	-6.287852543470628	1.1715918124558509	276.72448966307616	1.1427758580644334	281.25118734887445	-0.1862211662680835	-1.0196968340011878	0.8334756677331043	71.63067069410295
1	1.0	perception	262	diff_vonmises	0.0324997837103173	1.8621004416892046	16.548861732176743	0.7679301947595951	0.03474334695463184	4.871184925422933	0.4341014555104853	-0.7897156080702553	1.2238170635807406	33.08613681269233
2	1.0	wm	262	diff_vonmises	-0.0587897097501986	-3.368402247485485	0.6164964567734357	253.24933821691462	0.6006967044576239	257.9360764486796	-0.4872842203296557	-0.8585007222705556	0.37121650194089995	90.25206373554641
3	2.0	ltm	262	diff_vonmises	-0.03089466898543054	-1.770134142318891	3.0384821126977672	0.7530040429105221	1.924366658286265e-15	2.564374408899456	0.08863328857417474	-0.4069926626696285	0.49562595124380326	78.82200826516706
4	2.0	perception	262	diff_vonmises	-0.07932063989328592	-4.544737894162312	6.369078917205735	1.3412995761467799	0.2763295708014952	2.796418864565476	0.7457489721057761	-0.4599854717006383	1.2057344438064144	51.454293118561196
5	2.0	wm	262	diff_vonmises	-0.09299210540107596	-5.32805516751736	2.5855015824281753	1.0560308350298837	0.2711074835521586	3.0847166163224062	0.0025775543984827287	-0.43429881473054116	0.4368763691290239	72.69809010581844
6	3.0	ltm	262	diff_vonmises	-0.17390453985208945	-9.963996171689356	0.7284951025277778	115.2598432195779	0.7114063800311	116.27460192939425	0.08474459303541693	-0.2619281574886223	0.34667275052403923	98.62879795903433
7	3.0	perception	262	diff_vonmises	0.07655772327513163	4.386434432795513	4.587092120219505	1.8633470897478817	0.25118087481400975	2.3971300091276775	1.059966460876369	-0.3605831871852441	1.420549648061613	61.11777021175459
8	3.0	wm	262	diff_vonmises	-0.0013003351435426694	-0.07450371567753304	2.6655582290967668	0.8601989313965622	0.21253506982966205	2.0108797312071274	0.13493060808677154	-0.28198167587447603	0.4169122839612476	75.61108711447025
9	4.0	ltm	262	diff_vonmises	-0.4695974483528942	-26.905951860733488	0.6608857741498384	132.8634228373357	0.644599032142431	134.55781231978736	-0.05293168976495366	-0.35824723414579474	0.3053155443808411	97.30184102128199
10	4.0	perception	262	diff_vonmises	-0.017927105660685547	-1.027147493242369	1.1088032133470058	128.69689017518854	1.0579981282405528	130.15994996835443	0.7105563293468364	-0.5751191419053487	1.2856754712521852	85.21847462699054
11	4.0	wm	262	diff_vonmises	0.22020881460344316	12.617035688356102	0.7572658803371853	247.9267066695198	0.7448467169181748	250.09402176220485	-0.047482547050336166	-0.46359412402624045	0.4161115769759043	91.05565500760002
12	5.0	ltm	262	diff_vonmises	0.22039629554996495	12.627777555330919	0.6194287787194662	73.41303320246762	0.5824793158670712	75.44381245360833	-0.019127856478519334	-0.45444875601653667	0.43532089953801734	103.56994535213343
13	5.0	perception	262	diff_vonmises	0.10930841041411071	6.262910582012399	0.8495266842358399	276.3784734915361	0.8262989318470876	278.16630889697853	0.6734597881492306	-0.6631422357379861	1.3366020238872167	96.32520595676215
14	5.0	wm	262	diff_vonmises	-0.016758144739559097	-0.9601709660460984	0.42846658649054875	259.3790056548524	0.41671676092105275	261.6411297448992	0.03858750976335301	-0.5943710620752753	0.6329585718386284	126.05683643405305
15	6.0	ltm	262	diff_vonmises	0.7550396139849666	43.260583246525435	1.12428768842546	194.88058674782002	1.1062376334538842	197.02610785437682	-0.11869918590902273	-0.46995123638668446	0.3512520504776617	72.00742280600164
16	6.0	perception	262	diff_vonmises	-0.0857979198510964	-4.9158586984695285	0.43652156014949983	136.85973930724958	0.40800902964997426	138.80865396627766	0.2716108963691397	-0.6679879391933046	0.9395988355624443	129.55678962915175
17	6.0	wm	262	diff_vonmises	-0.2970152903340845	-17.017722586995838	0.28741231769248177	120.68204932334204	0.2632796085017495	122.95884118019914	0.053897275116074894	-0.6662014681304704	0.7200987432465453	144.4658827786377
18	7.0	ltm	262	diff_vonmises	0.06372595262867246	3.6512281310735464	1.502881337788472	147.11037006735307	1.4749586857221515	148.72852243385253	0.026403866342427307	-0.43042445977323496	0.45682832611566226	65.39100430821429
19	7.0	perception	262	diff_vonmises	0.11762416966289023	6.739368490414345	2.527740783914445	1.4072193873276888	0.11016856850770948	2.5713541123191583	0.37920560770130285	-0.3674216315717905	0.7466272392730933	81.96403749192586
20	7.0	wm	262	diff_vonmises	0.18348574845942173	10.512958987523911	0.8253758106547032	168.9920349562223	0.8078323256186011	170.93899151314366	-0.02804022639571002	-0.42256745272736396	0.39452722633165394	87.65613131352794
0	1.0	ltm	263	diff_vonmises	0.6024627205636394	34.51857120226601	0.00015329370106088598	5389.529448788044	8.158214509235745e-31	5391.0897825212705	-0.11684365335827351	-0.3798159227430915	0.262972269384818	169.31794392734093
1	1.0	perception	263	diff_vonmises	0.015161261012532809	0.868676268114371	11.550291200476446	0.6654342083377406	3.1530054859165384e-19	2.2618802630987065	0.5320284861924212	-0.3599894244713723	0.8920179106637934	39.90381926146193
2	1.0	wm	263	diff_vonmises	-0.033247614192865996	-1.9049479721304765	4.750460422051109	0.32776737769648645	1.3460694982172433e-18	2.3138360766273727	-0.09171065586830385	-0.36823776777363937	0.2765271119053355	62.68164242607833
3	2.0	ltm	263	diff_vonmises	0.28104574167943075	16.102734848355354	3.509924397743716	0.40095904500900126	4.465989813380206e-15	1.7110425188679874	0.014546727254528657	-0.2720644234753695	0.2866111507298982	73.20370363310536
4	2.0	perception	263	diff_vonmises	-0.01501745950095256	-0.8604370484132211	8.76463356773084	1.0891253977300825	0.14481257189910296	2.4473063212104584	0.8190627538935791	-0.4039860259166597	1.2230487798102387	44.986181975716306
5	2.0	wm	263	diff_vonmises	0.10940615380868898	6.2685108659970155	5.72520646815171	0.3387192783020268	1.498859160921721e-22	1.9340758575631951	0.007744724228384459	-0.3078143734365148	0.31555909766489926	56.97765955976536
6	3.0	ltm	263	diff_vonmises	0.31028898654290454	17.778249358300027	3.638698264821087	0.5678031620833602	0.2514091081482879	1.336081005551791	0.14526994721734315	-0.19900191726644795	0.3442718644837911	65.68166399344162
7	3.0	perception	263	diff_vonmises	0.002147908745481712	0.12306610589534142	5.694666760280477	1.85034534912795	0.22467845960355526	2.771582308915452	1.1737413840322204	-0.43754403082225696	1.6112854148544773	55.18073653654454
8	3.0	wm	263	diff_vonmises	-0.02961577231848186	-1.6968587608693835	7.098967205665611	0.38026771449738794	0.24051307346326048	1.735370669504891	0.05025494335147068	-0.2956776684415606	0.3459326117930313	47.65797222996156
9	4.0	ltm	263	diff_vonmises	0.0752085758667049	4.309133980351648	1.13898824469656	227.11924098481498	1.125208656621633	228.7488182927091	-0.011618107700329006	-0.37838292660616446	0.36676481890583545	74.32876923573875
10	4.0	perception	263	diff_vonmises	0.0005806127274581489	0.03326665881493146	2.9844158949956014	1.9686119266573074	0.1576985251340036	3.8701125721522636	0.5688361189224	-0.5576431960334951	1.1264793149558952	74.47502963973008
11	4.0	wm	263	diff_vonmises	0.01334152421557179	0.7644130298238498	0.7870428454354278	128.3239224624833	0.77016727657059	130.53871410416988	-0.24634836259563286	-0.4144490435441348	0.16810068094850195	78.44129335353054
12	5.0	ltm	263	diff_vonmises	0.22524817616819698	12.905769837456939	1.9151814482989353	1.1497679426404521	0.18129064156731123	2.132077506819677	0.17433037868980178	-0.274946309087091	0.4492766877768928	89.26572254036378
13	5.0	perception	263	diff_vonmises	0.034890544090741375	1.9990809213145952	2.9881375248331477	1.5867719559860785	1.2754644570173469e-20	2.633250135204051	0.6178283409985039	-0.4164627911998974	1.0342911321984012	79.49445802644436
14	5.0	wm	263	diff_vonmises	-0.03140960261908915	-1.799637666256865	1.1812616418904136	1.2176519146163964	0.04657677979978982	2.6740911431107293	0.011788389398213472	-0.3629237222585777	0.3747121116567912	116.97905874196756
15	6.0	ltm	263	diff_vonmises	0.02619958246901749	1.501125500479643	0.6564765164873848	1.578763094472191	7.264989015454823e-17	2.5040676729677402	0.03762191669511522	-0.2811921038881287	0.31881402058324393	144.21621930277897
16	6.0	perception	263	diff_vonmises	-0.0856930101832928	-4.909847817274263	2.3601899539283457	0.9946447349792235	1.9973580751660246e-15	2.237629290504051	0.21050037071578848	-0.3510800428580669	0.5615804135738554	89.51462093005193
17	6.0	wm	263	diff_vonmises	-0.05253609790119832	-3.010096681824766	0.3373434162042459	142.2450096487028	0.32612240043105856	143.74875170317634	-0.03489914744902478	-0.37465084856903097	0.3397517011200062	136.23902449132015
18	7.0	ltm	263	diff_vonmises	0.18757172803281316	10.747068372255905	0.7883392439601092	119.49980495741016	0.7663689183837811	120.94475954446264	0.07188856644952324	-0.34860754895628787	0.4204961154058111	93.43617797355759
19	7.0	perception	263	diff_vonmises	0.04948814176223366	2.835461658921101	1.4792824900606536	1.9509448825283222	7.977357129652076e-16	3.382699703317761	0.2995931023419127	-0.49488797570143866	0.7944810780433513	111.09507225953475
20	7.0	wm	263	diff_vonmises	0.03270164209522724	1.8736660752038714	6.494940771159856	0.27943495520966677	4.475297571509308e-15	2.080354213413153	-0.052917902050960974	-0.3310980212519745	0.27818011920101354	53.4271104997928
0	1.0	ltm	264	diff_vonmises	0.20983509180958726	12.022665154429498	0.6533652089257165	66.37424710127742	0.6191806340044125	68.77498815279459	-0.2154526087186568	-0.45239056266260214	0.23693795394394535	91.11940047666226
1	1.0	perception	264	diff_vonmises	0.10492522346219867	6.011772468851027	9.678948454877444	0.6502111861359462	0.023672827084855293	3.0723172595806836	0.2954357294772385	-0.49152465393201356	0.786960383409252	43.33823078382454
2	1.0	wm	264	diff_vonmises	0.012100574411799313	0.6933118434800992	6.436868273358774	0.3257757704701847	0.09470799628339414	3.0502992161171507	-0.2097325767761527	-0.4963260203339449	0.2865934435577922	50.4619919224331
3	2.0	ltm	264	diff_vonmises	0.014177676462549294	0.8123210246060413	2.155670784726641	1.215213597530656	0.3614878525003331	2.6228123275866326	0.07574816985138688	-0.3287044965319442	0.4044526663833311	77.1851794121421
4	2.0	perception	264	diff_vonmises	-0.0028743678261358677	-0.16468914520577843	7.503026144249057	1.213548175979422	0.17667691878575814	3.0206762761031274	0.7332600432899268	-0.49772676787116216	1.2309868111610889	48.14415404528725
5	2.0	wm	264	diff_vonmises	0.17413415471774227	9.977152134404726	7.006876897050273	0.3128107632590952	0.030971073252217672	2.2075577378006135	-0.03830981805704814	-0.3523029358218441	0.31399311776479594	50.49109150593421
6	3.0	ltm	264	diff_vonmises	0.2111260916009253	12.096633993825437	1.4275402956618657	6.644337858225696	1.0247781282884842	7.581028418898196	0.1671496873471141	-0.27244411183652295	0.43959379918363706	76.76609441405935
7	3.0	perception	264	diff_vonmises	0.03719371440035298	2.1310428595551794	5.134214095880837	1.9242364276938988	0.19684525051398918	3.116675867635041	1.0941136049003743	-0.4845577745469517	1.578671379447326	58.03659020970625
8	3.0	wm	264	diff_vonmises	0.14880628641124524	8.525972176379286	4.208821540166217	0.345645583483855	0.09268388702334207	1.9489751720572113	-0.06640708994146083	-0.306257161898703	0.23985007195724217	62.3681253795298
9	4.0	ltm	264	diff_vonmises	0.38953388649663834	22.318647673585424	0.7159594132964805	209.7856985998462	0.7034101918285618	211.94803866511418	-0.11473630668189116	-0.4374175056595142	0.32268119897762304	90.98836267869856
10	4.0	perception	264	diff_vonmises	-0.05640554059366565	-3.2317994171708815	3.2744786007121354	1.9210489044060801	0.11344011557290944	4.214182057336134	0.573214823673766	-0.6278028328857137	1.2010176565594797	72.16713383457093
11	4.0	wm	264	diff_vonmises	0.2310890162997284	13.240425325804324	11.989457114119997	0.22186023231109164	3.4672830214691546e-31	2.7813705115140266	-0.13955365910809958	-0.4426688654658014	0.30311520635770184	39.16264089622217
12	5.0	ltm	264	diff_vonmises	0.07495803882895749	4.294779265477012	0.808111347062193	48.55496861823751	0.7463118101174802	50.14833281278781	0.10549142480217277	-0.3949093777674664	0.5004008025696391	94.12297241819917
13	5.0	perception	264	diff_vonmises	-0.010976898486323144	-0.628929955409858	2.892996143196001	1.9401323922760727	9.278339624997092e-14	3.52792642791288	0.6830256040820414	-0.5576654862961312	1.2406910903781725	80.81792696519625
14	5.0	wm	264	diff_vonmises	-0.1055545597202765	-6.047830780333443	0.5339129780388256	176.95493439501777	0.5206159294693858	178.8528803568172	-0.03407337989219883	-0.4283987150220767	0.3943253351298779	110.44892848271625
15	6.0	ltm	264	diff_vonmises	0.003443758259354834	0.19731281392435074	0.3520947097348303	149.40970063736373	0.3394104031316248	151.0542309359232	-0.013878832750748415	-0.42366374851805944	0.409784915767311	135.0482062751094
16	6.0	perception	264	diff_vonmises	-0.15167045426178485	-8.690076906032262	1.5829908587860975	1.656217338481796	8.765168438955866e-15	3.3449748354880917	0.2088438794043146	-0.5011088568769523	0.7099527362812669	107.87560346712299
17	6.0	wm	264	diff_vonmises	-0.0016779969773676796	-0.09614214483887716	0.5493817376015254	181.68865551703524	0.5351256991854082	183.50933194899216	0.02582114835898608	-0.44034211568618886	0.46616326404517494	111.15851741440964
18	7.0	ltm	264	diff_vonmises	0.07801885367067746	4.470151037778569	0.7636741377339302	230.79677832029336	0.7487343541729599	233.1188450929299	-0.024076100784583332	-0.506720584818634	0.4826444840340507	91.55573911765723
19	7.0	perception	264	diff_vonmises	-0.03656773452773728	-2.095176854794163	0.8973955531092266	298.64421869268693	0.8774514934608487	300.86750380912264	0.4270938841294907	-0.651304060282186	1.0783979444116767	91.0487640295569
20	7.0	wm	264	diff_vonmises	0.24328803528258708	13.939377627722102	8.506197551137129	0.5545559423099877	0.1350493684455342	3.060857005547581	0.08013866119508917	-0.5098140117241436	0.5899526729192328	44.7745000469738
0	1.0	ltm	265	diff_vonmises	-0.008122841733128137	-0.4654045489609732	1.9116481860370127	0.7090660866073313	2.81574477162657e-16	1.5463268986007475	0.10979660999147187	-0.23832611928561562	0.3481227292770875	99.11521170667834
1	1.0	perception	265	diff_vonmises	-0.029298042383396512	-1.6786541765640275	15.49879906285706	0.5684361784028907	1.1199929452462569e-17	1.5841471988447142	0.6330127854145027	-0.25212485728128536	0.885137642695788	34.41053061306272
2	1.0	wm	265	diff_vonmises	0.07764044348510006	4.448469731220222	2.166960665586396	0.601810772900293	9.964764551166148e-20	1.6641516600801105	0.06094064764924034	-0.2605842161812058	0.32152486383044615	93.34600168191162
3	2.0	ltm	265	diff_vonmises	0.11361554062235467	6.509690964758081	3.5732870600238176	0.4176629867566089	2.739274475052366e-19	0.9738775139662073	0.14676612774225178	-0.15475970195897262	0.30152582970122443	72.54763444881965
4	2.0	perception	265	diff_vonmises	-0.044547483776788216	-2.5523828083374696	8.4791288368777	0.9096125023283465	7.860935288171799e-22	1.4278886010462937	0.8126448412448914	-0.22725548413153374	1.0399003253764252	46.66730148788852
5	2.0	wm	265	diff_vonmises	0.0016064221567852958	0.09204120970010048	6.059423743757321	0.34773007508265197	7.26548291716803e-17	1.0660574955173039	0.16413007960122716	-0.1696664988954481	0.33379657849667527	55.3504029190683
6	3.0	ltm	265	diff_vonmises	0.18227639582713884	10.443668185751065	1.0932023922801821	81.29511874243417	1.0724451419375198	81.63665853642652	0.19517347798327123	-0.14468319414819497	0.3398566721314662	85.76748430671381
7	3.0	perception	265	diff_vonmises	-0.008935820915195538	-0.5119848249254331	5.256445784067439	1.6937723004240244	0.24897210246453166	2.1777822911120226	1.0702692918250931	-0.3369862028546755	1.4072554946797686	57.37371157005279
8	3.0	wm	265	diff_vonmises	0.009822637628790508	0.5627956798160867	2.69295455182679	1.4061222651047145	0.8079621313151762	2.118022713484259	0.21909062821230252	-0.2382741087510229	0.4573647369633254	66.54997619222641
9	4.0	ltm	265	diff_vonmises	-0.07481509982934158	-4.286589464071198	1.584159745633507	217.93332274494102	1.5701330663752968	218.76779795921195	0.1543936695646977	-0.2669713120395869	0.4213649816042846	67.06263254210555
10	4.0	perception	265	diff_vonmises	-0.04910453403314923	-2.8134825550559652	2.314713796162106	2.496522857797942	0.23427478151785378	3.5549739242659775	0.7004381020961645	-0.4532876434584867	1.1537257455546512	82.74946432574964
11	4.0	wm	265	diff_vonmises	-0.01996789550752622	-1.1440761383394893	1.1570702949183	189.49067703151815	1.1410956823810567	191.10280891788827	-0.030400274197305066	-0.3711533905068123	0.3407531163095072	73.16374291144288
12	5.0	ltm	265	diff_vonmises	0.14412285341264447	8.257631231927162	1.8865991003358271	0.9727624719192571	1.5657496870679743e-16	1.3749619638566672	0.26555668775544516	-0.2077010645798965	0.4732577523353417	99.68199171712473
13	5.0	perception	265	diff_vonmises	0.019781378454238736	1.1333894983789	2.542542810953004	1.5348239128046024	3.910685906993983e-19	1.9265886842773992	0.6069335457935561	-0.3009726010033908	0.9079061467969469	86.26051919931453
14	5.0	wm	265	diff_vonmises	-0.06258380170854945	-3.585787703783514	0.5885908538841159	120.83072066461332	0.5744528996169836	121.4327574255084	0.16573849305729382	-0.2287248351818505	0.3944633282391443	114.77816230632796
15	6.0	ltm	265	diff_vonmises	0.2800389839135755	16.04505187737983	0.4646097719766746	78.56705119285914	0.4514249799997057	78.91548859911882	0.10942831301008837	-0.15470226840422008	0.26413058141430845	127.21710553535121
16	6.0	perception	265	diff_vonmises	-0.06893321715641212	-3.9495824113212126	2.235330345275393	1.2175321148069667	0.01574381745383473	1.8869467212912938	0.3664728899382144	-0.2879252464365863	0.6543981363748007	91.25594358400642
17	6.0	wm	265	diff_vonmises	-0.0666305917674649	-3.817651694734867	0.5959404773255385	151.2273261548679	0.5826382048314821	152.05447103991088	0.16340079512379901	-0.2768731716454802	0.4402739667692792	112.74873603067574
18	7.0	ltm	265	diff_vonmises	0.00048561420259558987	0.027823644280338206	1.1230458639587164	80.50053606956739	1.0885601999182524	81.31838990759552	0.22627400405073317	-0.26193676564245827	0.48821076969319144	82.38689182795733
19	7.0	perception	265	diff_vonmises	0.07257060442778003	4.157989350425201	2.3268332833691185	1.410076117644909	6.292196628317425e-20	2.448035844468998	0.4069169096386136	-0.3820286049945387	0.7889455146331523	90.14563225274867
20	7.0	wm	265	diff_vonmises	-0.261392674637061	-14.976697052339913	0.00035677864527150824	3099.692139682196	2.719486936943125e-31	3100.7317284517258	0.010570073469864383	-0.34145005806851714	0.3520201315383815	178.0338700801033
0	1.0	ltm	266	diff_vonmises	-0.08411473786625631	-4.819419474585739	0.9973731914444921	119.4024611095602	0.9759815358244762	120.59602292569164	0.08130156941257383	-0.29605532334139184	0.37735689275396567	83.0684782180222
1	1.0	perception	266	diff_vonmises	0.011862562119289466	0.6796747436470518	13.096813549108754	0.5885822224789539	1.793129556874844e-20	1.8706819068383107	0.5434605041764466	-0.297728272422347	0.8411887765987937	37.457086501863074
2	1.0	wm	266	diff_vonmises	0.08453939859942172	4.843750742321047	4.227278496385996	0.3698631875516029	4.821690608602235e-16	1.7074835883763557	0.021292871753900156	-0.27169205342801345	0.2929849251819136	66.54600527121889
3	2.0	ltm	266	diff_vonmises	-0.018489916340536296	-1.0593941698627056	3.619735002236673	0.4871145830860934	2.4545025024710728e-12	1.172367112510123	0.16792701018243772	-0.18633358747074985	0.35426059765318757	72.06121757072015
4	2.0	perception	266	diff_vonmises	-0.03443252355678938	-1.9728382777888174	7.94369790538557	0.9769110337765153	0.040131616841891586	1.6701563002426993	0.8034534980811283	-0.26605198996319834	1.0695054880443267	47.94459246001722
5	2.0	wm	266	diff_vonmises	0.01269480120240965	0.7273585306556757	5.738381972628455	0.3463548484003598	0.07450733787816963	1.2310959686292235	0.11226840875113955	-0.19540392911990778	0.3076723378710473	55.386679272070126
6	3.0	ltm	266	diff_vonmises	0.12012587786379858	6.88270581189966	1.231169493836499	117.03114852405233	1.215336706108819	117.40433843863924	0.19852444281443127	-0.15212197072274058	0.35064641353717185	80.27552475014204
7	3.0	perception	266	diff_vonmises	0.02492141143900841	1.4278916949642335	5.004711006123807	1.7340511214366678	0.285785131430007	2.0815956245330063	1.0721827815465457	-0.3175839812610868	1.3897667628076324	58.556319739461316
8	3.0	wm	266	diff_vonmises	-0.001633278506173486	-0.09357996517317252	2.4391131636712324	1.1748628131264325	0.6745619587810777	1.8302809589888136	0.1704875786968315	-0.20300711506843877	0.3734946937652703	70.55830918214122
9	4.0	ltm	266	diff_vonmises	-0.12045871802717147	-6.901776148513371	1.2585013685673738	183.5535942253177	1.246241803842043	184.4172745481858	0.0775067332566266	-0.2305865870415751	0.3080933202982017	73.85504015729288
10	4.0	perception	266	diff_vonmises	-0.06489428033850189	-3.7181683779349575	2.2606154623639023	2.80057999236388	0.33636862627486075	3.872264354613094	0.7162178185201199	-0.4594138842196287	1.1756317027397487	81.2452843903742
11	4.0	wm	266	diff_vonmises	-0.028911080567484385	-1.6564828976795443	1.0876476485749178	169.49677017301602	1.0724157836728603	170.92771976621341	-0.02402677190518432	-0.3240401029527291	0.3000133310475448	75.6487733827274
12	5.0	ltm	266	diff_vonmises	0.18080419766687086	10.359317444560787	1.5106563379421034	1.6434850355282347	0.33506801299086636	2.2719617909591907	0.22329742237162364	-0.22384881664689743	0.4471462390185211	94.17020198509493
13	5.0	perception	266	diff_vonmises	0.024732636424071648	1.417075683330838	2.826509057079003	1.6832837395061242	6.1895352773101406e-18	2.2558267516016572	0.706383400172908	-0.3552891168965523	1.0616725170694603	81.77989962676423
14	5.0	wm	266	diff_vonmises	-0.07733536348329846	-4.430989934703147	0.5096428212252249	152.1538343545383	0.4984993814205622	152.91199172935154	0.1302298033626883	-0.25948757083163265	0.38971737419432095	121.05064893458945
15	6.0	ltm	266	diff_vonmises	0.14763989820460444	8.459143054864935	0.574280249184272	78.08731178533085	0.5598324493265788	78.7153323264763	0.05076514081992656	-0.1727800671809252	0.22354520800085176	111.79200958920069
16	6.0	perception	266	diff_vonmises	-0.16530278284039143	-9.471151798521996	1.909179297788579	1.4364812816248627	2.2482423833262218e-13	2.2051417920567196	0.369489096099091	-0.3351333743651505	0.7046224704642414	99.13091641807398
17	6.0	wm	266	diff_vonmises	-0.19355060054928094	-11.089632533696271	0.6111890223805522	104.95765900403211	0.5904609171570159	105.87249198598471	0.17051395990818108	-0.2979902885001984	0.46850424840837945	111.39015853853174
18	7.0	ltm	266	diff_vonmises	0.0328507880584717	1.8822115094291922	1.13249557981074	114.51171502337222	1.1099861490247442	115.33220048821379	0.18397708208473063	-0.24857654739507673	0.43255362947980736	81.06477551794458
19	7.0	perception	266	diff_vonmises	0.005975745667242079	0.34238500617655915	2.9619832635289063	1.3929500680496973	1.9002986121718713e-15	2.376934759507888	0.5273590198885826	-0.3758784089499056	0.9032374288384881	79.85540889002158
20	7.0	wm	266	diff_vonmises	0.24609457023775064	14.100180235708912	4.892496230058346	0.4702668156990302	2.508988884902413e-20	1.4955278464971085	0.16505973499127327	-0.23799795954019798	0.4030576945314712	61.7408210802038
0	1.0	ltm	267	diff_vonmises	0.0005643873752401153	0.032337014611724904	1.7847281700919184	1.6100485510647187	0.38632341338082854	3.7507326490028574	-0.0714210918378313	-0.44533290096673017	0.3739118091288989	78.70223628968091
1	1.0	perception	267	diff_vonmises	0.02051900479269127	1.1756523744299185	10.809427795847114	0.7376740846455973	0.0026366000399945244	2.804356811123452	0.5083082592742858	-0.44640589425517213	0.9547141535294579	41.235585446376064
2	1.0	wm	267	diff_vonmises	0.0879115127794059	5.036958652870359	3.5934259382149825	0.4442246829320939	1.9560102484772716e-12	2.7218304742997574	-0.11119516489415748	-0.43294919336809745	0.32175402847393997	72.33177061902734
3	2.0	ltm	267	diff_vonmises	0.09529695898092581	5.4601135500383755	4.47002543866374	0.4685625245067298	0.023035889203512034	1.6529511097092013	0.11340465228655205	-0.26009976184558825	0.3735044141321403	63.78089902200912
4	2.0	perception	267	diff_vonmises	-0.04083008612340975	-2.3393916120270473	8.104186647089886	1.0855700325852886	0.048491020598931164	2.1052910346187232	0.8609909002959495	-0.33628726989595475	1.1972781701919042	47.39044646762008
5	2.0	wm	267	diff_vonmises	0.013733235688666487	0.7868564440190283	4.972102422592929	0.4727750968545289	0.06640603202139521	1.8467128280923901	0.09497762975387708	-0.2909473467513326	0.3859249765052097	59.32753876157983
6	3.0	ltm	267	diff_vonmises	0.19514661746773396	11.181077567155103	3.857612128468514	0.44074188880350007	3.350174761239345e-10	1.0889505684796235	0.15889467321058687	-0.17316370071069134	0.33205837392127824	69.74440929863269
7	3.0	perception	267	diff_vonmises	0.034284832557615524	1.9643762068640853	5.715044159476019	1.5855247696641885	0.047316769841643305	2.147515554444024	1.1176882984484091	-0.33723514383958075	1.4549234422879898	56.54792615402991
8	3.0	wm	267	diff_vonmises	-0.04543486454383083	-2.603225981110093	3.655947447786374	0.7236084238497792	0.29332376325073173	1.66619626840844	0.18144443481825395	-0.24765416358713668	0.42909859840539066	64.86843097273129
9	4.0	ltm	267	diff_vonmises	-0.023414526623092156	-1.3415535547998843	0.8759777686904027	104.4951974107621	0.8567509042903585	105.77735064539024	-0.02003944519266554	-0.2789696954189278	0.25893025022626226	84.89642992194632
10	4.0	perception	267	diff_vonmises	-0.03997920732696702	-2.290639848113708	2.898800253168193	2.111713291829458	0.08965282528782244	3.772525861358593	0.7007503630411892	-0.5554091296218606	1.2561594926630497	77.61275465000094
11	4.0	wm	267	diff_vonmises	0.05359514094979775	3.070775378832181	0.9631429304733377	222.9086508798447	0.9501884406820373	224.86076720044022	-0.10049422624686599	-0.4108105485274294	0.3103163222805634	78.09712441018166
12	5.0	ltm	267	diff_vonmises	0.18432409712430733	10.560992827782284	1.763429777685791	1.0578292904033095	0.07050664585593557	1.988850665356219	0.1663110571907659	-0.27975735203778584	0.44606840922855173	98.40143937814918
13	5.0	perception	267	diff_vonmises	0.02729595815945452	1.5639432003024267	2.3713627693915837	2.0296444322776406	1.1050553055706311e-18	2.724459202955293	0.7258020233144208	-0.4235056367282172	1.149307660042638	89.31340043902836
14	5.0	wm	267	diff_vonmises	0.04094204647767946	2.345806467799491	0.5836494845085436	167.9578164439868	0.5698181896049967	169.0262415994563	0.1609846190796631	-0.3332884448996136	0.49427306397927673	112.96498164028857
15	6.0	ltm	267	diff_vonmises	0.38230584647834026	21.904511486385285	0.665549700810935	108.57118040893684	0.6516367937982437	109.29069687532646	0.08914323172286487	-0.20361931558968216	0.29276254731254703	104.67192485710021
16	6.0	perception	267	diff_vonmises	-0.08276185798847853	-4.741905167400897	1.618395488383625	1.7034476867701582	1.5448693486860592e-14	2.449635726346473	0.3828083955424808	-0.35951221325922433	0.7423206088017051	106.88530714625065
17	6.0	wm	267	diff_vonmises	-0.05056605167928526	-2.8972213478634545	0.5158779791429914	181.70954584892235	0.5040052372125255	182.7708151573817	0.14118377075888588	-0.3370501338091749	0.4782339045680608	119.60943123587818
18	7.0	ltm	267	diff_vonmises	0.05962055260990838	3.4160060367854355	1.1555291386316309	74.92219114865578	1.1159220642410437	76.16787009332829	0.10023595230924442	-0.3208396702664196	0.421075622575664	77.51474654997631
19	7.0	perception	267	diff_vonmises	0.06816327481151813	3.9054679644903807	2.4128678571015674	1.519402678401951	1.9411750618086495e-14	2.6279225536296433	0.458707027632849	-0.4112130773440022	0.8699201049768512	88.54065286341748
20	7.0	wm	267	diff_vonmises	0.0371060701827726	2.1260212157890974	1.6801540328562987	0.7422470376793088	1.420879317714845e-29	2.193481427953837	-0.004654721256428795	-0.33714248544789727	0.33248776419146847	105.13896334460472
0	1.0	ltm	268	diff_vonmises	-0.08252422909079914	-4.728290034473521	0.9736020633632076	299.38044640791855	0.9604972763357486	301.7563764813715	-0.04995168675296213	-0.5213755274400995	0.4714238406871374	79.83684377606485
1	1.0	perception	268	diff_vonmises	0.024980310662842703	1.4312663719065348	7.956787674354173	0.7727248267501787	1.5130325958262328e-17	2.8018565266481277	0.40890678683828013	-0.4459292111200966	0.8548359979583767	48.197494441454495
2	1.0	wm	268	diff_vonmises	0.070047295528804	4.013414400106071	6.838420098393977	0.3492868577454842	2.664829403083884e-16	2.5606419087238272	-0.050322116047153864	-0.4075384069104787	0.35721629086332485	52.040751432739626
3	2.0	ltm	268	diff_vonmises	-0.05610084930497574	-3.2143418922745477	3.342759454670119	0.6434910785551424	1.7577840031666696e-13	2.2301072652710725	0.09308119518835273	-0.3543730592871159	0.4474542544754686	75.06709764022219
4	2.0	perception	268	diff_vonmises	-0.03973599912358261	-2.2767050445168215	7.076473368310513	1.16087579221954	0.0321219200513461	2.683688153623671	0.7675546113831292	-0.4263181335870109	1.19387274497014	50.77928164983149
5	2.0	wm	268	diff_vonmises	-0.04053935400577666	-2.32273388871777	3.944612391321153	0.5710789740564043	0.1088483142908834	2.1532327547061363	0.05474286602299627	-0.3333072780472748	0.38805014407027105	64.9237846456891
6	3.0	ltm	268	diff_vonmises	0.09714342203662213	5.565908090156604	2.2401786124962872	1.098177804814699	0.4262314049371749	1.9443908217646224	0.15334216774785497	-0.23198864220567114	0.3853308099535261	76.71491550341042
7	3.0	perception	268	diff_vonmises	0.06422738014396906	3.679957811431773	4.538385563579941	2.0600590395125473	0.1836642134458891	2.5869965930279872	1.205338963719388	-0.3902271356316603	1.5955660993510483	62.08928226888102
8	3.0	wm	268	diff_vonmises	-0.1511971662864083	-8.662959502548894	3.812054935969961	0.5489842736313096	3.230751968721166e-16	1.4852439597469562	0.17470078489843863	-0.23618306422782476	0.4108838491262634	70.17567086523437
9	4.0	ltm	268	diff_vonmises	-0.021997647177713107	-1.2603723425008277	0.30631648950148194	118.83804348505743	0.294207594209771	120.21443973308541	-0.030251859993093433	-0.35023524583101917	0.31998338583792574	140.74688755630797
10	4.0	perception	268	diff_vonmises	-0.04151771752288823	-2.378789989077838	1.780718210006269	5.053555293121342	0.5400815506092996	6.903095210333158	0.674455345654734	-0.6314074993519686	1.3058628450067027	82.97367283370366
11	4.0	wm	268	diff_vonmises	0.05454886806535919	3.1254199173610377	0.7737961208857222	141.99414106004093	0.7583930051586482	143.7548804396087	-0.10301911073333514	-0.35431598425195077	0.2512968735186156	86.84814969966436
12	5.0	ltm	268	diff_vonmises	0.3424730253469831	19.622258949458995	0.9031856142565389	127.88689144411049	0.8816594832032819	129.01377181834587	0.16474260457223266	-0.3103323748969764	0.47507497946920907	89.82351291598823
13	5.0	perception	268	diff_vonmises	0.050145544609505426	2.873128067509657	2.5374132427300364	2.2768884022353286	2.2029185287247426e-15	3.2610753547572187	0.8346337736677751	-0.5105529054526043	1.3451866791203795	86.34646964060389
14	5.0	wm	268	diff_vonmises	-0.015930042229685814	-0.9127241872261687	0.4760599756180229	184.8849511603929	0.46467186225580837	186.0839250222564	0.1036740089935222	-0.3573053117663889	0.4609793207599111	122.8361518251832
15	6.0	ltm	268	diff_vonmises	-0.3692937361792907	-21.15897248369103	0.0001688541748663904	3998.8200751335557	2.522312405597201e-29	3999.7532333854115	-0.041048428906265144	-0.2559759952841887	0.21492756637792354	176.12763780682937
16	6.0	perception	268	diff_vonmises	-0.2409101480517679	-13.803134725238111	1.5428250429568844	1.6835583021548697	1.8674316567551636e-16	2.53798848612823	0.33785406812331137	-0.37003287397755863	0.70788694210087	108.96347616490547
17	6.0	wm	268	diff_vonmises	-0.3472849070288203	-19.89795946134458	0.39878898773705324	99.5697660676703	0.3819820653823046	100.72672774275503	0.046141500450858075	-0.32804502094968235	0.37418652140054043	130.33455049881564
18	7.0	ltm	268	diff_vonmises	0.002805242700027107	0.16072856722143686	1.3162543892926941	53.97290891883735	1.266700493928424	54.975014072612886	0.09464457747009547	-0.27150465471808527	0.36614923218818074	72.7859885849146
19	7.0	perception	268	diff_vonmises	-0.015899219823461437	-0.9109581934350741	1.3618907268396805	5.868845731494572	0.628235121672562	6.666145552716695	0.5924179872760869	-0.3933685202805995	0.9857865075566863	90.97950206646937
20	7.0	wm	268	diff_vonmises	-0.49554171741752184	-28.392448980688478	0.00027631471099032835	3598.682536432342	1.066921962381114e-31	3600.0505011862806	-0.0594524050433165	-0.3759624375303474	0.3165100324870309	173.09104061260868
0	1.0	ltm	269	diff_vonmises	0.07874850446692433	4.511956948921875	0.9483040985737903	64.23364362663628	0.9051296859671907	66.25748353201236	-0.12772523081391896	-0.41665009287546617	0.2889248620615472	78.35162361418037
1	1.0	perception	269	diff_vonmises	0.09863159083032061	5.651173881238602	9.34294776109062	0.7537350323671251	0.09860758248424532	2.870432576800248	0.4030442175017229	-0.4711055556964071	0.87414977319813	43.541865075177924
2	1.0	wm	269	diff_vonmises	0.0708051078394839	4.056833847171086	4.787827470882333	0.3418625702995073	0.08404922465542239	2.6054636393266453	-0.1605823005740889	-0.41476114504903594	0.25417884447494704	58.35240681356527
3	2.0	ltm	269	diff_vonmises	0.03396521268086482	1.9460633368777784	2.697618094591249	0.9791995223067045	0.48272504405479116	1.9192846168974542	0.1359444357668405	-0.24946035060028815	0.38540478636712866	69.71265998769701
4	2.0	perception	269	diff_vonmises	-0.01392300185654972	-0.7977292445331087	8.088711913982694	1.100906580176253	0.13730001608308565	2.1194452179639587	0.8433788317727278	-0.34587870652482083	1.1892575382975485	46.92293761286248
5	2.0	wm	269	diff_vonmises	0.11912552253278763	6.82538967341932	6.978726634363289	0.321055538310996	0.08666605863183657	1.6441539050003604	0.047000628262428845	-0.26567924771889834	0.3126798759813272	49.86020196582004
6	3.0	ltm	269	diff_vonmises	0.21582836883833403	12.366054633629394	2.5205380006453324	0.9599123351759784	0.603121407194082	1.4633383226682823	0.17897200495586252	-0.1677514028579807	0.34672340781384325	71.58823318135003
7	3.0	perception	269	diff_vonmises	0.03613822753089778	2.0705679166039204	6.040386740599441	1.4777828569903226	0.10987923362995411	2.1085470557418073	1.0428028768293118	-0.3321018547737767	1.3749047316030885	54.512622971729456
8	3.0	wm	269	diff_vonmises	0.08491017686761784	4.864994772223855	5.168807794278258	0.41900088017554965	0.25171039561205943	1.3842808040580972	0.09086625740415061	-0.22406314338229222	0.3149294007864428	55.42669784134591
9	4.0	ltm	269	diff_vonmises	0.2288306718563583	13.111031720512397	0.9245230620216242	169.88807172412015	0.9126082981621553	171.2519022181817	-0.05826352993568662	-0.2878685050428942	0.22960497510720757	80.44820683539655
10	4.0	perception	269	diff_vonmises	-0.07430921084642295	-4.257604160447794	3.690380311075032	1.6524172849680492	2.006613111111557e-17	3.2951097659950395	0.6910438883285823	-0.523675554628088	1.2147194429566703	71.3526205104159
11	4.0	wm	269	diff_vonmises	-0.07090817005660258	-4.062738877239247	1.0328959847704644	152.53430133600173	1.0135562119047583	154.4666023022989	-0.10835585824424498	-0.41147841321950196	0.303122554975257	75.12122139941084
12	5.0	ltm	269	diff_vonmises	0.028421186276858603	1.6284140224191317	1.815846534762655	1.0913805531224854	0.09032687186939257	2.185100952407823	0.15109887112336917	-0.30313680999341613	0.4542356811167853	95.53880313704767
13	5.0	perception	269	diff_vonmises	-0.01592645753957023	-0.9125187996116835	2.930285673819532	1.788764135622188	2.5831086750794412e-17	2.671288666034744	0.7307836486591409	-0.4218548105792358	1.1526384592383767	80.28984390994304
14	5.0	wm	269	diff_vonmises	-0.014439164760376036	-0.8273032004635735	0.5637261472973081	168.34897511823718	0.5510800320484586	169.55785009519107	0.09121721508988401	-0.33107337859936514	0.42229059368924915	112.60163458493118
15	6.0	ltm	269	diff_vonmises	0.22178556824053797	12.707377017093537	0.6175905930469336	137.66459252518212	0.6037900695191226	138.66510244808956	0.09353071192608553	-0.27479533504435416	0.3683260469704397	107.93730166756737
16	6.0	perception	269	diff_vonmises	-0.10724836872203124	-6.144878887435256	1.516044860448692	1.8644889735816985	7.42941184263529e-14	2.8594434811890688	0.35773488203989123	-0.4159037938433877	0.773638675883279	109.92581327766483
17	6.0	wm	269	diff_vonmises	-0.00035884579809504323	-0.020560349726849652	0.662880920485566	187.9257240516092	0.6480424720881521	189.07238530653566	0.2152401388555134	-0.3610289550998935	0.5762690939554069	106.48511498818148
18	7.0	ltm	269	diff_vonmises	0.05612036673196861	3.215460158468194	0.8747843339777619	224.2613671855438	0.8609431998540348	225.91487109684064	0.07065530574504919	-0.39289858924454535	0.46355389498959454	87.87726653870169
19	7.0	perception	269	diff_vonmises	-0.013568786608943508	-0.7774342058060912	1.9912763934052506	2.951392309759779	0.3623379603014207	4.654599424236004	0.48833447550123177	-0.5291807104183719	1.0175151859196037	83.11015043689517
20	7.0	wm	269	diff_vonmises	0.33793915002996855	19.362487028955524	5.623792276430387	0.5967633736526856	0.08121218289329322	2.2695547759343495	0.1595939982249278	-0.3604534505600058	0.5200474487849336	55.71873299244564
0	1.0	ltm	270	diff_vonmises	-0.03512985378665203	-2.012792356886835	2.7050791143672566	0.887980199594873	0.10405127937524768	2.9385643318472217	0.030421300238284488	-0.43585236213191597	0.46627366237020046	77.25961527994195
1	1.0	perception	270	diff_vonmises	0.02491068306523405	1.4272770044259238	17.684614257086352	0.4828604572515243	6.198159960698475e-19	2.8174682899427825	0.35539673786051224	-0.4484140053490629	0.8038107432095751	32.206531010480546
2	1.0	wm	270	diff_vonmises	0.1528749683907198	8.75909048198411	4.275348803088976	0.444018891087097	2.1454339601575536e-22	2.7736764735126607	-0.08748806025080197	-0.441375857396721	0.35388779714591906	66.16171345050867
3	2.0	ltm	270	diff_vonmises	-0.09428132141980411	-5.401921804271142	2.232944746590468	1.1927183696705543	0.3199081785581413	2.1642098453738305	0.19500461733608193	-0.26988928994739336	0.4648939072834753	79.59063223099895
4	2.0	perception	270	diff_vonmises	-0.05520378603183169	-3.1629439527672023	6.754350453269301	1.0283997763846118	0.12260768761089322	2.139179371448821	0.6615204977364328	-0.3431544939893795	1.0046749917258124	51.23439845818794
5	2.0	wm	270	diff_vonmises	0.03528040736554891	2.021418441548216	5.400794634499396	0.4234968099024023	0.07433412254795142	1.819784671146775	0.07104151340161885	-0.28859194492503304	0.3596334583266519	56.74229612715365
6	3.0	ltm	270	diff_vonmises	0.03258480491585159	1.8669717979354337	0.9365921107618372	230.81202876149985	0.9250758389113946	231.6450188833059	0.23260647442776872	-0.2700060148301837	0.5026124892579524	90.16956888116428
7	3.0	perception	270	diff_vonmises	0.012015558756366151	0.6884408052312406	4.137866219388613	2.073519626394606	0.2922272967021818	3.0247183649201475	0.9926058080086806	-0.44641093842781104	1.4390167464364916	63.30766019603345
8	3.0	wm	270	diff_vonmises	0.1413975446942806	8.101482544494704	2.306136102275393	1.2908365865389777	0.3956067775268248	2.658906290636839	0.12066987454391331	-0.3348684047797434	0.4555382793236567	75.06593298440254
9	4.0	ltm	270	diff_vonmises	-0.04660129109049493	-2.670057299345965	1.0131475144099849	241.48693733601817	1.000455992535451	243.0578264237868	0.0424985508932707	-0.37002846940591283	0.41252702029918353	80.63860231417905
10	4.0	perception	270	diff_vonmises	-0.07586736028597815	-4.346879547184982	1.7367143309169293	4.380070907758067	0.45769912429293025	5.818694742739073	0.6841209524976422	-0.5503675094170666	1.2344884619147087	86.47782955779206
11	4.0	wm	270	diff_vonmises	0.014030822443312906	0.8039069090992632	0.879821876296299	199.3006618364167	0.8621068728258703	201.54875149453204	-0.03602367510137583	-0.48911034276623866	0.45308666766486283	84.63362500670863
12	5.0	ltm	270	diff_vonmises	-0.015434266053904135	-0.8843183047707425	1.6933936804414664	1.3177734923435866	0.027756585690686893	2.4685529038556675	0.21059622347900947	-0.3612743279750963	0.5718705514541058	102.98441308887517
13	5.0	perception	270	diff_vonmises	-0.002606864378645847	-0.1493623266594008	2.1586210852337815	2.019964814382881	1.2164633601502444e-11	3.0432176678114478	0.6067319908074946	-0.4697916745920456	1.0765236653995403	93.52594108842928
14	5.0	wm	270	diff_vonmises	-0.15008369329871984	-8.599162199752524	0.5805025756848415	221.00912414522566	0.5699664557993118	222.33676148641183	0.0945542910889472	-0.3563780286875904	0.4509323197765376	110.56227954862963
15	6.0	ltm	270	diff_vonmises	0.26666007901833116	15.278497092375412	0.3998035732145718	145.88420231711737	0.3890895036982023	147.02824684253602	0.027596533751541585	-0.31140790888479764	0.3390044426363392	129.53424039095924
16	6.0	perception	270	diff_vonmises	-0.09094913949664392	-5.211001843504277	1.5493190826004846	2.056643749755681	0.05243892448161475	3.4204117254016717	0.3351947843645806	-0.47522666497935095	0.8104214493439316	105.75117303645318
17	6.0	wm	270	diff_vonmises	-0.03878680197685731	-2.2223200540836023	0.6650053460095777	196.77831874198185	0.6498534066986299	198.2437948513457	0.16393914814786115	-0.406403891099302	0.5703430392471631	104.41328418626938
18	7.0	ltm	270	diff_vonmises	-0.07694283192270816	-4.408499532955639	1.0656966452553798	176.92545589682297	1.0426963721831852	178.72057512001666	0.13789364697608164	-0.45403517024749007	0.5919288172235717	80.5043150805513
19	7.0	perception	270	diff_vonmises	0.05720924250342405	3.2778481445866423	3.1995593810731604	1.4738756271296412	9.00366831924751e-20	3.2064564890955376	0.49086633608462027	-0.5086582740630772	0.9995246101476974	76.7687144109843
20	7.0	wm	270	diff_vonmises	0.23818915809600172	13.647233484675223	8.130392465763403	0.5810818509037177	1.545637099888168e-15	2.5199223460054925	0.24904446959547744	-0.40105804119170846	0.6501025107871858	47.66961062910332
0	1.0	ltm	271	diff_vonmises	0.018076774808343667	1.0357229037264997	2.301993012532972	1.4537646679614007	0.2283156494272417	4.972720412557718	-0.1655892383050287	-0.6996810411871308	0.5340918028821021	75.66989519123271
1	1.0	perception	271	diff_vonmises	0.03343927611646809	1.9159293914462354	11.404642066630847	0.6953446338548729	0.025247940445925033	4.111487982737237	0.255104713941839	-0.6600109037295898	0.9151156176714288	39.87656025932603
2	1.0	wm	271	diff_vonmises	0.1571090665120151	9.001686434378602	4.074330993036268	0.5404907114527812	0.0129887626494359	4.134251693192529	-0.24680727117350754	-0.6532967835964058	0.4064895124228982	66.58419264619573
3	2.0	ltm	271	diff_vonmises	-0.025978767746917944	-1.488473748848985	2.607715739364581	1.0965786101655826	0.22381763107346253	2.7199140515159064	0.12762822778735272	-0.38047778887344647	0.5081060166607991	75.488699708882
4	2.0	perception	271	diff_vonmises	-0.06478561178119048	-3.7119421282352385	6.4956560942741115	1.214948941595142	0.1227274774259982	2.8310436063526554	0.7019899803718884	-0.4536157532495735	1.1556057336214618	52.09318272108118
5	2.0	wm	271	diff_vonmises	0.003362482824711695	0.19265607454120753	4.12985291169642	0.6420809757089571	0.10219359391282754	2.608265242090502	0.043738987893080394	-0.40623000781579016	0.44996899570887056	63.57888910302103
6	3.0	ltm	271	diff_vonmises	0.061122260435369224	3.5020475572461103	1.4700138359761588	1.8178520821011177	0.28560229469237985	3.0638259423237137	0.1420241148251744	-0.3286914259317333	0.4707155407569077	94.04058546106032
7	3.0	perception	271	diff_vonmises	0.0357997570731784	2.051174987886739	4.532201345264925	1.9508628347860764	0.08898554315001936	3.131295392925083	1.061308548769896	-0.4820747662774216	1.5433833150473177	62.81483909213628
8	3.0	wm	271	diff_vonmises	0.04335039223505689	2.4837945153054557	2.2543757472399077	1.278880726837685	0.2452606940502017	2.9595089258887888	0.11591133541303034	-0.3944096041347491	0.5103209395477795	79.49234463513079
9	4.0	ltm	271	diff_vonmises	0.06132546861634869	3.5136905283787643	0.48657330344249783	61.83783514871061	0.45035556867130433	63.997495474682154	-0.0965198865416994	-0.46803352332585035	0.37151363678415095	115.06810696325458
10	4.0	perception	271	diff_vonmises	-0.043913656543087605	-2.516067182905972	2.0593835531248748	3.428674357260987	0.2667445142015862	5.643456509323744	0.6480220845602944	-0.6923853449919554	1.3404074295522497	84.64073752911597
11	4.0	wm	271	diff_vonmises	0.1721987164061095	9.866259687640243	0.6984379241453661	276.38332759627895	0.6855436566502745	279.25284958496195	-0.1296309508977771	-0.588863329492618	0.4592323785948409	93.0261019147215
12	5.0	ltm	271	diff_vonmises	0.06245814651199356	3.5785881913469746	1.920419439446116	1.1276403785339235	3.2640042187516948e-12	2.681216356466386	0.1408485197035076	-0.4145385182750305	0.5553870379785382	98.89189888273737
13	5.0	perception	271	diff_vonmises	0.016685201578639446	0.9559916307810588	1.7363062688380215	2.9394266942479583	0.06532746501829025	4.226250284473823	0.6743890547920504	-0.5862289274455491	1.2606179822375996	100.43722610379396
14	5.0	wm	271	diff_vonmises	-0.02112779796218749	-1.2105336536384443	0.5785390296372398	270.2691545027324	0.5675254890245278	271.9936206417515	0.114432071798376	-0.4589401370973789	0.5733722088957549	110.58374198548587
15	6.0	ltm	271	diff_vonmises	0.46348660060382285	26.555826075464683	0.5814438800410772	193.62973087721087	0.5706902476022068	194.9515214445863	0.04942060792401293	-0.3305632709339861	0.379983878857999	108.91775893503768
16	6.0	perception	271	diff_vonmises	-0.04173709340395821	-2.391359301190112	0.855763959680369	5.742572003714659	0.27604153693848027	7.079865086073164	0.34768882008452806	-0.5129986589219238	0.8606874790064518	117.97699956239894
17	6.0	wm	271	diff_vonmises	0.0343332469019593	1.9671501444628765	0.5477312716143622	244.78194341757947	0.5363090982559336	246.45299661021326	0.10203180945038781	-0.4487071062888148	0.5507389157392026	113.68395818119066
18	7.0	ltm	271	diff_vonmises	-0.012278205053165483	-0.7034893295425827	2.1914141263600144	2.1638586821729886	0.5819426766837681	4.412432258971995	0.022707527304985486	-0.5222809774806401	0.5449885047856255	70.38115915353828
19	7.0	perception	271	diff_vonmises	0.11056181023834014	6.334725101983184	1.4284978785086049	4.82888403715592	0.4825854584657766	6.5274939256028475	0.4413970227349384	-0.5338705956353731	0.9752676183703115	90.37121695917799
20	7.0	wm	271	diff_vonmises	0.06645779055554814	3.8077509145972908	1.9778692274030563	1.2115973307840728	0.1424386318621612	3.6982163552691265	-0.05441539741540624	-0.5142511417975679	0.4598357443821617	85.83192645977988
0	1.0	ltm	272	diff_vonmises	-0.05917067408198396	-3.390229895841808	1.070833467701017	428.43629058557207	1.0570330948316675	431.98396717498434	-0.13894967911323874	-0.7791748203443447	0.640225141231106	74.87534853975592
1	1.0	perception	272	diff_vonmises	0.0888141588911861	5.088676465469259	13.767470950568631	0.5872275891854821	9.100977288122418e-27	3.854947351588726	0.2475348144184637	-0.6135339263634084	0.8610687407818721	36.52152637403847
2	1.0	wm	272	diff_vonmises	0.1311416460575268	7.513862837494736	7.048957420720795	0.38356063185499334	0.05798316099980304	3.836622042109667	-0.24810472079846368	-0.6186572527940412	0.37055253199557747	49.28379188595605
3	2.0	ltm	272	diff_vonmises	-0.1752891017484199	-10.04332572482372	1.8024324737405393	2.646113391844992	0.5601624093537485	4.187903002122838	0.20100603916658066	-0.407140570563258	0.6081466097298387	79.25016995240819
4	2.0	perception	272	diff_vonmises	-0.05003594814337157	-2.866848652550638	5.8557815058585305	1.2951948215182578	0.20833261265545272	2.967409555483583	0.645725753748931	-0.4772435970059844	1.1229693507549154	53.88474276666665
5	2.0	wm	272	diff_vonmises	0.013982925009230528	0.801162588276837	4.379648366342581	0.510021080402863	0.14546508707551495	2.3422251225303334	-0.01696306078978177	-0.36936957854905167	0.3524065177592699	60.402608250985736
6	3.0	ltm	272	diff_vonmises	-0.031537403446261186	-1.8069601142721035	1.033825420484946	228.49781280237013	1.0210554242674663	229.5327023180199	0.19285449363690077	-0.2987928853550734	0.4916473789919742	84.22669830260776
7	3.0	perception	272	diff_vonmises	0.07585945148988937	4.346426406548066	3.912996759030959	2.2627243022048122	0.33810172976792835	3.0756691529210913	1.0515797800180071	-0.4421530141669575	1.4937327941849645	64.6178495911362
8	3.0	wm	272	diff_vonmises	0.2623532281850095	15.031732716633678	0.731043558805882	111.41685106793791	0.7114582246374132	112.71528899970285	0.04394193978130545	-0.3073292484312997	0.35127118821260517	96.46501941758757
9	4.0	ltm	272	diff_vonmises	-0.08942990467375032	-5.123956100063169	0.4291047969578307	156.45945520557325	0.41754650484657796	158.29913306334873	-0.09237336914846139	-0.402359713747547	0.3099863445990856	120.82005764772529
10	4.0	perception	272	diff_vonmises	-0.07193402801731091	-4.121516208767733	1.6275230198723427	6.344893556625394	0.638002257476625	8.068587040326342	0.6871381584903329	-0.6139927262190854	1.3011308847094183	83.68755001423168
11	4.0	wm	272	diff_vonmises	0.05327803791050039	3.0526067130096717	0.6664498451918514	103.73920671067336	0.6405115185250184	105.88147534311094	-0.0738073780038917	-0.4499821406085953	0.3761747626047036	96.95338872934994
12	5.0	ltm	272	diff_vonmises	0.08217123332355337	4.7080648668243565	1.7066162925031918	1.6920039960181066	0.23005188130911852	3.6255252242003215	0.0759289929476602	-0.44676561783154256	0.5226946107792028	89.08592119379949
13	5.0	perception	272	diff_vonmises	0.026532260277704882	1.5201865348550914	1.0000200247903321	29.89642665433042	0.7826183802487754	31.662739202424568	0.706823759920999	-0.6607624785952226	1.3675862385162216	93.62451405118225
14	5.0	wm	272	diff_vonmises	-0.12780049221042755	-7.322428823352052	0.4694384196212426	252.9932057877292	0.4594233661710574	254.91886964464567	0.01018783198188089	-0.47842245416484985	0.48861028614673074	120.0206707345638
15	6.0	ltm	272	diff_vonmises	0.4572211823399079	26.19684405205817	0.8277509610303321	59.63095663168888	0.7843489812135563	61.66375051844718	-0.11696212655761329	-0.4117856304256948	0.29482350386808154	84.69614534355543
16	6.0	perception	272	diff_vonmises	-0.22258622359656954	-12.753251189838691	1.1878956331290158	2.697454747949015	9.45215600605876e-22	4.515591952665443	0.29797833410092467	-0.6241876518899703	0.9221659859908949	120.86973201840301
17	6.0	wm	272	diff_vonmises	-0.22299909579599747	-12.776907024344194	1.0100866279654523	3.405172580991901	0.23922822712508754	5.344986151506683	0.10477401942050024	-0.5050216783369054	0.6097956977574056	109.67087448317052
18	7.0	ltm	272	diff_vonmises	-0.016472323081296716	-0.9437945913342335	1.1712776519180657	164.56878930096252	1.147380179665422	166.47555494922608	0.026383300332120996	-0.4568117441234847	0.4831950444556057	74.36502729197304
19	7.0	perception	272	diff_vonmises	-0.023631595688834776	-1.353990696129784	1.337324880021398	17.584925365402547	0.9858377926342292	19.21199943026478	0.5948152627259482	-0.5696208153713378	1.164436078097286	81.3669300751312
20	7.0	wm	272	diff_vonmises	0.3177007867118361	18.202914226574155	2.3596982143864094	1.855529969157673	0.4834671431546784	4.013137733193771	0.07910950560391738	-0.5064787517189542	0.5855882573228716	71.2614632041701
0	1.0	ltm	273	diff_vonmises	-0.06026069913832774	-3.452683731133816	2.0732149453070896	1.7594787772972318	0.5405125491365315	3.1415136688137	0.12856093768747356	-0.34882222487211956	0.4773831625595931	74.98792127769693
1	1.0	perception	273	diff_vonmises	-0.007112731369274221	-0.4075294882697199	13.726674389098747	0.6312518217717547	4.547903567592233e-17	2.1230463670296356	0.586024352340895	-0.33789332372495245	0.9239176760658474	36.58402079859388
2	1.0	wm	273	diff_vonmises	0.12270417579069824	7.03043140143834	2.68469044191556	0.5625081783672248	1.586079404705942e-16	2.092881717706312	0.012522438461905594	-0.33148293611099616	0.34400537457290176	83.9239064153632
3	2.0	ltm	273	diff_vonmises	0.032483564996752055	1.8611711778527844	4.822272384714643	0.4467513313505051	0.013870931433097053	1.0820093212019535	0.2053704587691662	-0.17080419954912257	0.3761746583182888	61.827162289096776
4	2.0	perception	273	diff_vonmises	-0.05594454413566339	-3.2053862657568724	7.914614280917296	0.9833131546405897	1.079219236475485e-18	1.4480269408714463	0.8545385682878712	-0.23046050051709963	1.0849990688049709	48.31982111790967
5	2.0	wm	273	diff_vonmises	-0.02642854629259313	-1.5142441612317052	5.186993864856233	0.4537088234320545	0.10507454854700288	1.2750053591131523	0.17633250008135454	-0.20075257748762326	0.3770850775689778	57.94426644060019
6	3.0	ltm	273	diff_vonmises	0.08495660000041097	4.867654621804676	2.14348340262336	0.7350678970475585	0.2126860531710894	1.0909017950834135	0.18300969991270027	-0.13849428802342226	0.32150398793612256	85.79410439147401
7	3.0	perception	273	diff_vonmises	0.025634712592045802	1.4687608405550914	5.558263852151845	1.4585160366064551	0.083924865632744	1.7373793505062638	1.0373802089993207	-0.27097050149975593	1.3083507104990766	57.11419019208236
8	3.0	wm	273	diff_vonmises	-0.011948272010457507	-0.6845855586735062	2.562716105766634	1.3877155683623017	0.7200865270039915	1.9594874547000842	0.2647154898476649	-0.21290715036092522	0.47762264020859013	70.01151439763413
9	4.0	ltm	273	diff_vonmises	-0.1644977603601534	-9.425027407991202	1.3575508038046835	133.80086543344635	1.3408662196731835	134.5720130008915	0.09001789971318175	-0.21705487118331845	0.3070727708965002	71.62853622176402
10	4.0	perception	273	diff_vonmises	-0.06654747940653405	-3.8128897072281616	2.6055382581649558	2.2644104767268924	0.11619797027654498	3.2727673727282505	0.7841563101614604	-0.46301678700775156	1.2471730971692119	81.45486714060502
11	4.0	wm	273	diff_vonmises	0.004528520174065053	0.25946509341377644	1.171854884900047	240.22639620418377	1.1587773262271	241.73828132928827	0.021543413498108066	-0.3629580529036147	0.3845014664017228	74.1836409074707
12	5.0	ltm	273	diff_vonmises	0.1260507469946703	7.2221758072659545	1.6875376740815418	1.0139227619532203	4.650554841792562e-16	1.5624852590065177	0.22309968754710727	-0.23253474004571176	0.455634427592819	104.89131272867917
13	5.0	perception	273	diff_vonmises	0.019273692833243875	1.104301254976416	2.309328203187125	1.8754607826431402	2.6691250138959956e-16	2.1807864204065432	0.7076030650340346	-0.33667728142110187	1.0442803464551365	90.48737607638017
14	5.0	wm	273	diff_vonmises	0.01622664161488147	0.9297180802040547	0.6145051905540303	163.69586207572277	0.6021341924059466	164.2775902207975	0.22887492116451824	-0.25326418962355035	0.4821391107880686	113.53602417570703
15	6.0	ltm	273	diff_vonmises	0.4872140463201	27.91530857363313	0.8316744216294473	94.84178170187927	0.8176834776917734	95.24215382080656	0.13041410988810043	-0.14070868824780902	0.27112279813590945	96.57624649175787
16	6.0	perception	273	diff_vonmises	-0.07814245671748055	-4.477232970695344	1.6728885487529077	1.8179929735450309	0.028852830957183537	2.241611517524841	0.4742627033469645	-0.3168971218475061	0.7911598251944707	104.11241342153674
17	6.0	wm	273	diff_vonmises	-0.07589275151985057	-4.348334357722502	0.6431098549440547	163.59166491282565	0.6287177457698998	164.28136547368265	0.26010108776087293	-0.28738964009043855	0.5474907278513115	110.88217623472734
18	7.0	ltm	273	diff_vonmises	0.008184608748390563	0.46894353824863033	1.8284386576970109	2.8862833162166384	0.9161633764602348	3.7210641803647233	0.19780146928830988	-0.25962276063820117	0.45742422992651105	73.70274111691384
19	7.0	perception	273	diff_vonmises	0.06909338331880271	3.9587592564470007	2.9721854381911084	1.3002919922529534	2.3176566787970144e-21	2.1828801892029155	0.49970580886365257	-0.3451962429562335	0.8449020518198861	79.70966279189213
20	7.0	wm	273	diff_vonmises	0.1160392241889253	6.648557803997793	1.5116319307617594	0.9546447257255027	1.2116680514753577e-33	1.9362517066921126	0.10727150956231518	-0.28795518326949837	0.39522669283181355	110.0442179334438
0	1.0	ltm	274	diff_vonmises	-0.05643690891266175	-3.2335966894597785	1.0859594606080747	314.7840597711632	1.0729165366786624	317.1852928892063	-0.08301069426087793	-0.5324640314633129	0.44945333720243497	74.62000618121778
1	1.0	perception	274	diff_vonmises	0.05791043752426694	3.3180236598965274	9.929420879506841	0.7393355925953092	1.0629352560016513e-15	2.9292448033386083	0.4507974176424448	-0.4662037878002904	0.9170012054427352	43.077963332191814
2	1.0	wm	274	diff_vonmises	0.09028985311912542	5.173227516581998	5.924732715457715	0.3176468405764463	1.0712816113174261e-20	2.6955801144154306	-0.12768368779232458	-0.42901274737284495	0.30132905958052036	55.98834625807066
3	2.0	ltm	274	diff_vonmises	-0.018617317881016573	-1.0666937404356907	3.4738427745451643	0.6913351532546868	0.16050202155542764	1.9300807757588143	0.13343394270325415	-0.2900129098739584	0.42344685257721254	68.27556065862973
4	2.0	perception	274	diff_vonmises	-0.032928537656480496	-1.886666233253935	7.595440192349185	1.1448203966270416	0.08324370094412901	2.278660238788404	0.8431029462939483	-0.3654943164585869	1.2085972627525352	48.69384655622008
5	2.0	wm	274	diff_vonmises	0.017290847859714836	0.9906926065644726	4.823465475696404	0.462956121510159	0.1212268386706115	1.8624085396500147	0.060427438878906836	-0.2942929056249308	0.35472034450383766	58.87608807261395
6	3.0	ltm	274	diff_vonmises	0.14111003318316154	8.085009348346153	3.0683323088042673	0.6250210748851358	0.27768147307836794	1.2295797571288916	0.16122067754649827	-0.1728017144983939	0.33402239204489215	70.85898706900116
7	3.0	perception	274	diff_vonmises	0.06027154523862917	3.4533051669052637	5.330091890543468	1.6551494732809433	0.12193821829691309	2.0664129103825695	1.1144615302040384	-0.3204750781520089	1.4349366083560473	57.979175357966
8	3.0	wm	274	diff_vonmises	-0.039003631130083226	-2.2347434494388425	3.459198486048582	0.5881806013028614	0.23140671570930646	1.3871180285803963	0.1428510949949756	-0.2047926164872578	0.3476437114822334	67.48176743326522
9	4.0	ltm	274	diff_vonmises	-0.016391750864647572	-0.9391781433742238	0.6146184623660973	114.94484177790467	0.6020126534763459	116.16636227899377	-0.05038272523511722	-0.25460503903346066	0.20422231379834344	100.06995531987442
10	4.0	perception	274	diff_vonmises	-0.058820619043779034	-3.3701732195553746	2.763909677820655	2.3526157321361545	0.18853853874245194	3.933372173799613	0.7207365836476276	-0.5459238418417246	1.266660425489352	76.96080937310856
11	4.0	wm	274	diff_vonmises	0.03437942520844259	1.969795966529431	0.9284559903399573	166.9432767902965	0.9136057584509057	168.62918989295812	-0.07679535767586998	-0.35466754143332224	0.27787218375745226	80.11095901693218
12	5.0	ltm	274	diff_vonmises	0.22265545863916716	12.757218065573943	0.7943135751562089	44.41119184699092	0.7406740019311625	45.52544466239216	0.12913600115241053	-0.29949957882255607	0.4286355799749666	96.39540088392451
13	5.0	perception	274	diff_vonmises	0.030354280908082048	1.7391721861876333	2.6417729868907376	2.1053804529001425	1.3029749008935292e-19	2.974609675383138	0.8080581261848137	-0.4669207189427589	1.2749788451275725	84.61861198942572
14	5.0	wm	274	diff_vonmises	0.017911938914898576	1.0262785027198278	0.5164435744080591	191.9362495934853	0.5050162108112135	193.09017351310257	0.12481053182150958	-0.34913452863697714	0.4739450604584867	118.87754689659769
15	6.0	ltm	274	diff_vonmises	0.39224040894666107	22.473719987129137	0.8447375685398474	105.31160252066503	0.827847727895553	106.28525898102828	0.03867367835382396	-0.23029796214298948	0.26897164049681344	89.48266031240394
16	6.0	perception	274	diff_vonmises	-0.1821001165420798	-10.4335681267016	1.3871954326630502	2.0288918969431267	6.613572973191973e-18	2.8679076744877987	0.3818472498805034	-0.40413880474969294	0.7859860546301963	113.96571206351938
17	6.0	wm	274	diff_vonmises	-0.1748930832568417	-10.020635536647152	0.5335732551481975	139.7168030574294	0.5172511961329767	140.83294504097375	0.1488300659880437	-0.35063540524532755	0.49946547123337126	117.89315578646783
18	7.0	ltm	274	diff_vonmises	0.07092042963459434	4.0634412993167865	1.1518037860396486	114.26475880766431	1.1280734038187064	115.40974657156988	0.08630200498792817	-0.29338567045880204	0.3796876754467302	77.2087968266062
19	7.0	perception	274	diff_vonmises	-0.005680037598967392	-0.3254421818964532	1.867690158203574	3.0828652993329966	0.4428197046617673	4.119881795632053	0.5530350082836082	-0.41250516099814294	0.9655401692817511	84.74546861673642
20	7.0	wm	274	diff_vonmises	0.22943177364575382	13.145472316102522	3.013569681710712	0.5533483495518022	0.027686579341042735	1.8931624553977255	0.05364395409615402	-0.29336659368156104	0.34701054777771506	77.2428795418351
0	1.0	ltm	275	diff_vonmises	-0.08261219629655565	-4.733330184098929	2.6474619813778695	1.0721490113168068	0.12803765177247378	3.343452191169117	0.05106069122554169	-0.4894002110174655	0.5404609022430071	77.17535030679483
1	1.0	perception	275	diff_vonmises	-0.025241828440499832	-1.446250236833929	15.724554095321535	0.6205092737137317	6.242750180303012e-18	2.9903531383832602	0.4971988987466286	-0.47592948356403697	0.9731283823106656	34.168148722525075
2	1.0	wm	275	diff_vonmises	0.10709166124201522	6.135900210212208	2.637143464644563	0.6805243808837406	1.9149473315842172e-14	3.175776426544439	-0.09164037387497037	-0.503321163092692	0.41168078921772167	84.68706434589353
3	2.0	ltm	275	diff_vonmises	0.010728717034046301	0.6147102056409673	2.9424798032839847	0.6640748993273807	4.2834546406045976e-13	1.8893326863138578	0.129434441420182	-0.2995003002998951	0.4289347417200771	80.12538222642436
4	2.0	perception	275	diff_vonmises	-0.07437615672683832	-4.261439876851384	7.177019932489172	1.057114909091346	0.07519902401615859	2.141023295222875	0.7417644548987128	-0.34187151606353994	1.0836359709622527	50.1193697646103
5	2.0	wm	275	diff_vonmises	-0.0821916437398597	-4.709234297536814	3.33211350403446	0.7203318589305617	0.13847605141869995	2.166019811338781	0.10656572451276913	-0.32561424531244376	0.4321799698252129	69.83080260283774
6	3.0	ltm	275	diff_vonmises	-0.03152844455440236	-1.8064468075794786	0.7023827424852997	134.84998414462925	0.6868904996666313	135.74101388735698	0.14676871611035835	-0.2651238180112845	0.41189253412164284	102.82658734064643
7	3.0	perception	275	diff_vonmises	0.018881429558685672	1.0818262248862496	4.501911834437065	1.9226106858702152	0.18341523707055454	2.669079539683618	1.0699768885388758	-0.4037738911279706	1.4737507796668465	62.15115528880196
8	3.0	wm	275	diff_vonmises	-0.03064476844714015	-1.7558158961768042	2.0775099946687856	1.7476244898229978	0.47736045874722316	2.92357763769496	0.21347304221595131	-0.3255594036425602	0.5390324458585115	77.8406805022197
9	4.0	ltm	275	diff_vonmises	-0.18895858994049172	-10.82652970633335	0.9566526820279426	146.6145401378212	0.9376124854347353	148.0343747422316	0.061858503413311894	-0.33932392243373144	0.40118242584704333	83.96256357654825
10	4.0	perception	275	diff_vonmises	-0.03675455272569634	-2.1058807490734566	1.432291832472838	7.294851011537323	0.625912248978272	8.76283072841339	0.7027234805425779	-0.5736776654414659	1.2764011459840439	88.28252749374005
11	4.0	wm	275	diff_vonmises	0.10739080720185845	6.153040011169615	0.8788007299745915	260.3182704509909	0.8658593863360018	262.4808946029433	-0.04147767261159174	-0.4683946888488961	0.4269170162373044	84.3565583748356
12	5.0	ltm	275	diff_vonmises	0.1434729422742485	8.22039406663853	1.8668604565768792	1.072884248965285	2.6235489515811604e-20	2.099883952034471	0.19663935010049355	-0.32151735655326613	0.5181567066537597	100.17009018419617
13	5.0	perception	275	diff_vonmises	0.046089894654024785	2.640756441878196	1.9590926800456228	2.2254475338404296	8.003357748355694e-13	3.088725556657688	0.6421821838202143	-0.4690481459551117	1.111230329775326	97.97247218467837
14	5.0	wm	275	diff_vonmises	-0.03895187889519371	-2.2317782647993036	0.5511704077078742	206.5806014665201	0.5391987640234558	207.8153026631958	0.15147829491436937	-0.3746169587844932	0.5260952536988626	115.5270640260329
15	6.0	ltm	275	diff_vonmises	0.4809354680034164	27.555572534744805	0.6129591343525851	108.58565971721102	0.5990061967223832	109.47903089417127	0.04984090265091368	-0.22862995155468724	0.2784708542056009	106.89081321213803
16	6.0	perception	275	diff_vonmises	-0.05895588262231151	-3.377923251727122	1.657063985994076	1.775896072808947	3.391429866592607e-11	2.832932890285936	0.36631062799793374	-0.4211555548982632	0.7874661828961969	105.78929214861864
17	6.0	wm	275	diff_vonmises	-0.09661416233680607	-5.5355837430907835	0.4793956276694767	176.61403716204035	0.4662019516896083	177.96575999383853	0.10856116256592685	-0.3969864028295156	0.5055475653954424	122.3439887932469
18	7.0	ltm	275	diff_vonmises	-0.013021205379902952	-0.7460601124414808	2.217849063689715	2.2581184422343776	0.789595494319687	3.6155610839205132	0.14897056601134162	-0.36970568175240026	0.5186762477637419	69.0687148922515
19	7.0	perception	275	diff_vonmises	0.1257097671513672	7.202639101345654	2.466237193284134	1.4299776223860001	4.365835159001652e-15	2.5684938788195253	0.4272594594357107	-0.4027615389228812	0.8300209983585919	87.57403781559651
20	7.0	wm	275	diff_vonmises	-0.411009325762523	-23.549099706710145	0.0007891504878711881	1627.0709531669477	2.289767444554556e-19	1628.7363618378229	-0.06066849154404963	-0.4693669292825007	0.40869843773845105	175.18707455451533
0	1.0	ltm	276	diff_vonmises	0.031527661418593166	1.8064019372028262	2.9249176886811132	1.175825534385613	0.2758903431600137	4.899659079751824	-0.2492391840205127	-0.7355280050410233	0.48628882102051063	66.28656517360778
1	1.0	perception	276	diff_vonmises	0.0523608101547634	3.0000534337536857	10.07978133406349	0.9366613158303034	0.12203023686725391	4.48583366634649	0.3673240773484402	-0.7486097475355332	1.1159338248839734	41.62666946938802
2	1.0	wm	276	diff_vonmises	0.1166722323982726	6.684826502790527	2.1879047626567374	0.9982858416353615	0.15023714835980548	4.946873073818746	-0.3662310269076512	-0.7224045230195799	0.3561734961119287	77.48118202377367
3	2.0	ltm	276	diff_vonmises	0.06752640608778797	3.8689780745167592	3.3364969827627333	0.7224006074438613	0.15165795536370777	2.261756663020076	0.08591127208794191	-0.3401178143941086	0.4260290864820505	69.22289263783156
4	2.0	perception	276	diff_vonmises	-0.05196419692770553	-2.977329169744206	7.5565876877256875	1.2146565839927679	0.1589208743639502	2.6144050220326944	0.8238232810335291	-0.4275109574472398	1.2513342384807689	48.25862898994828
5	2.0	wm	276	diff_vonmises	0.026438453700513436	1.5148118138914533	4.331016379380962	0.58271066169538	0.09960055792257876	2.482787821873741	0.032275343503063936	-0.3886311571912306	0.4209065006942945	62.188849524283114
6	3.0	ltm	276	diff_vonmises	0.1408489070032484	8.070047920316757	2.8925387746269977	0.5313914929987595	2.018188740051391e-20	1.4672491642025784	0.10733415197819143	-0.2324724834647843	0.33980663544297574	80.81564983796386
7	3.0	perception	276	diff_vonmises	0.04523435334057057	2.59173753541819	5.79158095566524	1.5616341763366457	0.006364421209230156	2.423909691290962	1.0753815939043638	-0.38435187270859145	1.4597334666129553	56.55322340555358
8	3.0	wm	276	diff_vonmises	0.005216278536809176	0.2988707449238422	3.791155765511429	0.6914222305941211	0.1887528139335334	2.044030786731045	0.1267665793336501	-0.3115740316467772	0.4383406109804273	64.87679105151884
9	4.0	ltm	276	diff_vonmises	0.08521121832770838	4.882243177345499	0.6291293335175432	110.38314942143917	0.6108804847397469	112.29799315289688	-0.13048549884143412	-0.3764482316556954	0.2459627328142613	95.83974399721055
10	4.0	perception	276	diff_vonmises	-0.030174315910513064	-1.7288609513668485	2.968518502157784	2.1213566028397373	0.06859532132607646	4.173731318617469	0.6704171112749421	-0.6250871326062121	1.2955042438811541	77.14242414004315
11	4.0	wm	276	diff_vonmises	0.1884136659317189	10.795307860475317	0.7706141039041688	278.9043391451292	0.7587641681080529	281.5509469948705	-0.15172040515881235	-0.5335329950826164	0.38181258992380407	87.0565153446185
12	5.0	ltm	276	diff_vonmises	0.06958785459212677	3.9870903734989285	1.899950517254122	0.9926571737705377	1.5174269124891406e-15	2.5323096953229065	0.09339517356630983	-0.39192309979746925	0.4853182733637791	99.384884920367
13	5.0	perception	276	diff_vonmises	0.03438181827580851	1.9699330791895886	2.047996355390151	2.4223344258063757	1.130875140408372e-15	3.672247330626239	0.6832128100678068	-0.5633632773833361	1.246576087451143	95.92361429425
14	5.0	wm	276	diff_vonmises	0.04845610623845967	2.776330379101278	0.5734702535918109	206.72692659624977	0.5584843970768039	208.52903075191338	0.11979361822134393	-0.48180123521806806	0.601594853439412	111.32208020167143
15	6.0	ltm	276	diff_vonmises	0.5128332225822695	29.383179248057182	0.7396683701121607	160.13091470321677	0.7243885335179612	161.50474698496515	0.06955426711701307	-0.33423890901448594	0.403793176131499	96.48685380625739
16	6.0	perception	276	diff_vonmises	0.012296031070422273	0.7045106850969242	0.8045665272829668	6.05181468871325	0.2578951567622341	7.363349065997667	0.35107712318427065	-0.5219500619623405	0.8730271851466112	121.34288462205274
17	6.0	wm	276	diff_vonmises	0.04702695360099959	2.694445964694825	0.49385274443344457	273.6060294198836	0.4830797758015822	275.28872007871456	0.1400193142543884	-0.4917587093672324	0.6317780236216208	120.63480182635269
18	7.0	ltm	276	diff_vonmises	0.0797209010012106	4.567671166349626	1.2384913905639878	24.047922975854373	1.0753883584272725	26.12043533359367	-0.008907176895746716	-0.485590161343445	0.4766829844476983	73.67671902660476
19	7.0	perception	276	diff_vonmises	0.13636623169003845	7.813209543942342	1.8189850572226676	2.356431505858928	0.2307330094501133	3.9525470620662126	0.3657827971488602	-0.4783521030951306	0.8441349002439908	89.8714621441076
20	7.0	wm	276	diff_vonmises	0.18516551231995082	10.60920236731083	0.7876888252574994	157.27202078174125	0.7677173029335361	159.48925698672812	-0.0597871337876299	-0.47048310354096046	0.41069596975333056	89.01598755234699
0	1.0	ltm	277	diff_vonmises	-0.02280447321640169	-1.3066000693189426	0.9686149330640664	292.20488782559414	0.9558259598801679	294.2871757509789	0.01494511354064798	-0.47421240423267363	0.4891575177733216	81.63604093957298
1	1.0	perception	277	diff_vonmises	0.0668925547974561	3.8326610707418216	7.725068519976381	0.6116462310117275	3.071129072444393e-21	2.6109992654763854	0.2509248191909008	-0.4155533095212516	0.6664781287121524	48.91882067037707
2	1.0	wm	277	diff_vonmises	0.09105692974602488	5.217177769866469	8.660941892000688	0.3061129772973	8.110145550079041e-18	2.237002998362941	-0.0021441150061013436	-0.35603007428099187	0.3538859592748905	46.162103998656704
3	2.0	ltm	277	diff_vonmises	-0.1717916818198401	-9.84293832373115	2.0737405363009285	1.8243940776996472	0.4671311341120411	3.0126975762437667	0.23707274781067644	-0.3353397896532881	0.5724125374639646	78.36221662138001
4	2.0	perception	277	diff_vonmises	-0.039542222903522606	-2.2656024849373853	6.268412769143331	1.1178225828407928	0.042223846364097345	2.5322190340404953	0.672035455427432	-0.40085622542348537	1.0728916808509175	53.83723642145921
5	2.0	wm	277	diff_vonmises	0.013971516002207595	0.8005089003259878	4.812705071285327	0.46775650908238037	0.13798719668467782	1.8681202352924018	0.05771845992700536	-0.29573856893909245	0.3534570288660978	58.59588853246996
6	3.0	ltm	277	diff_vonmises	0.0460189631459015	2.6366923658282335	1.172083451357693	247.0705123104985	1.1599421067399491	247.86501538687475	0.2614825615735299	-0.26921367148418796	0.5306962330577178	80.7176394977657
7	3.0	perception	277	diff_vonmises	0.054642103969261654	3.130761941153736	3.937150331253938	2.259243650454494	0.28345084513029517	2.990894782306756	1.1025488963957963	-0.4330084871382266	1.535557383534023	65.13494821277465
8	3.0	wm	277	diff_vonmises	0.09679812379167885	5.54612395804808	0.8702021207163186	38.88964358984814	0.8117125108595092	39.937767597071925	0.11348568656091729	-0.27497274066535127	0.38845842722626855	91.67408091165402
9	4.0	ltm	277	diff_vonmises	0.0900609647033395	5.1601131763780295	0.395675281111968	124.24759832874723	0.38198491132721274	125.66432755581334	-0.007352274202126807	-0.35892283703682537	0.35157056283469856	129.30469374178787
10	4.0	perception	277	diff_vonmises	-0.09123079460365767	-5.22713949241447	1.8620149079872759	4.503849852151878	0.48314527174840366	6.193469124291585	0.716241223623683	-0.6077439319840908	1.3239851556077737	83.31584867894824
11	4.0	wm	277	diff_vonmises	-0.045828213532442166	-2.6257632180332617	0.8115303479859488	150.5952655083068	0.7940115109797424	152.41545738152615	-0.04681019835251021	-0.38758710891075765	0.34077691055824744	87.63867193188852
12	5.0	ltm	277	diff_vonmises	0.18184145793188305	10.418748080002606	1.2037281878940176	4.68683354105754	0.6282786187576009	5.815578537000291	0.2046189937307472	-0.3241096164894392	0.5287286102201865	90.07007524866935
13	5.0	perception	277	diff_vonmises	-0.0007794068134263915	-0.04465672093307262	2.475572766913592	2.2419923047617076	7.983070460912517e-19	3.226410861680912	0.8002371159369707	-0.5042041452173024	1.304441261154273	87.42110000046293
14	5.0	wm	277	diff_vonmises	-0.1214146073430724	-6.956544571996142	0.5273404172952197	174.17204198754592	0.5159743351541519	175.26890813391842	0.09728094281675936	-0.3166390817443361	0.41392002456109545	117.03911468447963
15	6.0	ltm	277	diff_vonmises	-0.022390095530036912	-1.282857976765845	0.3148436636831378	26.503507671978777	0.2738026233129084	27.524912936913488	-0.015520206330772446	-0.265945875665222	0.25042566933444954	141.87972729145224
16	6.0	perception	277	diff_vonmises	-0.2561408866880675	-14.675791767964919	1.6112667187318614	1.8224940804435639	1.3623497448228284e-14	2.776878201262617	0.38250037963990663	-0.4090944270844238	0.7915948067243304	106.92852051379874
17	6.0	wm	277	diff_vonmises	-0.20652309674970334	-11.832901815729972	0.6700240242648748	145.7236359163804	0.6544674153662337	146.84277803133813	0.12245353640343382	-0.3083582172772612	0.430811753680695	103.93765110391436
18	7.0	ltm	277	diff_vonmises	-0.05361324304878834	-3.07181255270467	1.1635959639481572	101.68860063042838	1.1311306392609197	103.00179777761652	0.13328648143167499	-0.34740021756831574	0.4806866989999907	77.66595704195103
19	7.0	perception	277	diff_vonmises	-0.04919232210581796	-2.8185124411114715	1.1368171243997114	134.3180299605242	1.0909649251014533	135.50335065376325	0.7257365310571018	-0.5176280275988869	1.2433645586559887	84.73253026108648
20	7.0	wm	277	diff_vonmises	0.22248322843904025	12.747350002001976	9.670889973298987	0.48417160205645005	8.789549069277043e-14	2.0292657517511374	0.2694940567055414	-0.3229676728793336	0.592461729584875	43.65521464322697
0	1.0	ltm	278	diff_vonmises	0.011522621467978857	0.6601975790420256	0.9108398190282083	252.6616537597771	0.8957513362387252	255.71381299951375	-0.25658529271198915	-0.6088410605969798	0.3522557678849907	77.10550291677293
1	1.0	perception	278	diff_vonmises	0.09895735572849865	5.669838835017712	10.736938944692897	0.7197358619313069	0.019621072548287127	3.5682228334481816	0.3501418886967915	-0.5709104765823215	0.921052365279113	41.189795007761205
2	1.0	wm	278	diff_vonmises	0.050746374402993406	2.907553078882235	5.1742049450804855	0.39570364770928373	0.10451178299978416	3.608984192423266	-0.2864899010100317	-0.5820616323497574	0.2955717313397257	55.14941986875536
3	2.0	ltm	278	diff_vonmises	-0.012118626888143143	-0.6943461741843605	2.475665875425088	1.044379429677939	0.28776303140622184	2.543939040816115	0.08308906690620466	-0.3454801882429826	0.42856925514918726	74.94212126351366
4	2.0	perception	278	diff_vonmises	-0.017551859492027273	-1.0056474714997956	7.407696518338181	1.2488462132918128	0.18880088936549286	2.9189864630708575	0.7753742797634395	-0.4812512874392472	1.2566255672026867	48.4233989469416
5	2.0	wm	278	diff_vonmises	0.11092168672764247	6.355344505966192	5.821112932743253	0.3702334360584347	0.06333399370717525	2.234248168575369	-0.030521909019725624	-0.3565128128871283	0.3259909038674027	54.52288699632524
6	3.0	ltm	278	diff_vonmises	0.1608141180423251	9.213970249943852	2.579499210975739	0.9132370823002841	0.4131496985453458	1.7587301801877637	0.1425728140129663	-0.22680575477974807	0.36937856879271436	72.6150570799617
7	3.0	perception	278	diff_vonmises	0.05852805497694677	3.3534105332887028	5.195114741823202	1.8086779416694967	0.1830547853739188	2.667458528037325	1.0949186963906417	-0.4138626067209939	1.5087813031116355	57.99390465047222
8	3.0	wm	278	diff_vonmises	0.0704798327399714	4.038196956788322	3.4499368004869755	0.45122798188348406	0.14497081231142067	1.7297015365513195	0.0031793851087354996	-0.2637888633956947	0.2669682485044302	67.5549277849037
9	4.0	ltm	278	diff_vonmises	0.26692511078838593	15.293682294236431	0.5773402480914028	195.86194775944668	0.5677417763713957	197.75753060885359	-0.13703293588547183	-0.37068376284551974	0.2336508269600479	99.40157823535972
10	4.0	perception	278	diff_vonmises	-0.05102575813728819	-2.9235605877219304	3.014752114473261	2.1477212772488476	0.16836553840043939	4.199577256424482	0.6252313276841444	-0.6038852015801058	1.22911652926425	73.90002483001274
11	4.0	wm	278	diff_vonmises	0.05229164265645449	2.9960904280211067	1.2815783816437254	1.6835131440242042	0.3206584623069215	3.9550822080036756	-0.18206576644715955	-0.43295049308391054	0.250884726636751	86.93886236501714
12	5.0	ltm	278	diff_vonmises	0.10555397249818728	6.0477971349860935	1.405409537839426	2.180577995068414	0.33382352492979367	3.87184904622248	0.07113974190681116	-0.39756316236046846	0.4687029042672796	91.61638631225492
13	5.0	perception	278	diff_vonmises	0.016365478077768048	0.9376728235699804	2.7082583275635224	2.14184523438196	0.007181543455915338	3.735902320284728	0.7238127926276922	-0.5844488132631535	1.3082616058908456	83.26002940818367
14	5.0	wm	278	diff_vonmises	-0.036535525032659326	-2.0933313866659486	0.47946865345032985	214.37883582517543	0.4681262659222437	216.289264702509	-0.007495165299012285	-0.46090202491714294	0.45340685961813065	118.21835847241896
15	6.0	ltm	278	diff_vonmises	-0.23219420101684185	-13.303747745677287	0.0005571989292946222	1943.5585671612448	2.9045971059020654e-17	1945.293596629433	-0.1037602877701147	-0.4484687290062084	0.3447084412360937	178.43204122763944
16	6.0	perception	278	diff_vonmises	-0.15626075364557165	-8.953081687424747	1.2816428763865975	2.154934700697208	1.8304620650911594e-21	3.781623043162973	0.24744506187855342	-0.5364237014839163	0.7838687633624697	117.60948355463894
17	6.0	wm	278	diff_vonmises	-0.09390518838062165	-5.380370968590558	0.5120343007744564	179.76042925257659	0.4968980933275433	181.5715060307495	0.06306544304160866	-0.47069282448167016	0.5337582675232788	116.78241276454334
18	7.0	ltm	278	diff_vonmises	0.09256037814189505	5.303319017665543	0.9321843882674938	195.4892942031763	0.9152161871137133	197.4687127156903	-0.013575103980812742	-0.4395027251289143	0.42592762114810157	82.62923038978914
19	7.0	perception	278	diff_vonmises	-0.01758914874850663	-1.0077839885172437	0.9910104254975483	149.98902369032328	0.9536196902198039	151.7987458750474	0.4608062741806904	-0.5672247879324654	1.0280310621131559	87.8162286605089
20	7.0	wm	278	diff_vonmises	0.3045096258324917	17.44711638130964	2.7593921014051346	1.1395185761233124	0.34236376113647776	3.309412219819438	-0.009171322596227771	-0.47042700340851745	0.4612556808122897	68.84860205479737
0	1.0	ltm	279	diff_vonmises	0.28342375208036613	16.238984807967164	1.1043685748607586	160.78094384816094	1.0712030091086626	164.35514607136997	-0.2695550866987375	-0.7602725974120155	0.49071751071327796	71.27524714202588
1	1.0	perception	279	diff_vonmises	0.15345224239174632	8.792165845865561	2.757857517682229	3.247726450023158	0.6089372539729866	6.5058520903489745	0.2880878399312341	-0.8454837778353022	1.1335716177665363	66.13112561832182
2	1.0	wm	279	diff_vonmises	0.21816042492928722	12.499671605228789	3.7699193762572425	0.5190071499137301	0.05239563250061046	3.6032863532499753	-0.21767407759150625	-0.5642332161133471	0.34655913852184084	66.6642576152002
3	2.0	ltm	279	diff_vonmises	0.1134575366663355	6.500638004931812	2.4543188965194007	2.964375157348024	1.1103349985862985	4.2625475862415705	0.1830960210256387	-0.4004779601419391	0.5835739811675777	63.086249743590315
4	2.0	perception	279	diff_vonmises	-0.03410611708576753	-1.9541365645935063	7.375238491752188	1.3393953708684314	1.0228748947024913e-18	2.4417589168463096	1.0361816973229274	-0.38861744207715565	1.4247991394000832	50.07962538618045
5	2.0	wm	279	diff_vonmises	0.061794649961019084	3.5405726392546506	5.539841474183544	0.5329855695961567	0.12966206583735088	1.9576508530594492	0.13471832152812213	-0.31283086798771453	0.44754918951583667	55.347420994109626
6	3.0	ltm	279	diff_vonmises	0.2570639746185081	14.72868081049863	6.443010862377084	0.3710326708171626	1.0186174152971772e-13	0.9776097465269251	0.21220626621146396	-0.15559049172969797	0.36779675794116196	53.647887113144435
7	3.0	perception	279	diff_vonmises	0.058014671526582066	3.323995828310941	5.569640050635716	1.581427094741932	5.083700231948698e-22	2.3408867505650064	1.0794350742281895	-0.3725425959547411	1.4519776701829306	57.78633590484347
8	3.0	wm	279	diff_vonmises	-0.0030372542561304576	-0.17402185018442157	5.767196993615243	0.49703939074052955	0.07719614921255406	1.3520682193438673	0.23275162337257635	-0.213962157835543	0.44671378120811933	55.506641018836376
9	4.0	ltm	279	diff_vonmises	1.20920415243488	69.28229450421247	5.262022084654107	0.6089252551497276	6.514270967989473e-15	2.258720302567684	0.18304296886789972	-0.3594719149372573	0.542514883805157	59.44887524580176
10	4.0	perception	279	diff_vonmises	-0.09873614728968177	-5.657164525080828	3.8710908079160253	2.032465676571485	5.4066498495349835e-28	5.083494770155231	0.7257515663832453	-0.8083969293626498	1.534148495745895	69.62470758681962
11	4.0	wm	279	diff_vonmises	-0.050483203426583044	-2.892474492643584	1.1296732053162193	184.77283435569734	1.105742016199099	187.46357708438043	-0.14692528623466217	-0.5902599610287815	0.44333467479411937	71.97947614296149
12	5.0	ltm	279	diff_vonmises	0.059813509203164424	3.4270616352082293	1.5111151126876419	0.9265470521423923	1.417449590359754e-15	1.7464751735004485	0.12515901003235624	-0.25832962808713333	0.3834886381194896	110.10020572037914
13	5.0	perception	279	diff_vonmises	-0.0668907057675575	-3.8325551291324387	1.8868015282561985	2.867739331645739	4.988406066070303e-16	2.904012061508952	0.9659164029274985	-0.42938499749026016	1.3953014004177586	99.71248983149606
14	5.0	wm	279	diff_vonmises	0.15350628693806775	8.795262370275479	0.804085036760841	127.1208042809547	0.7828169572799399	127.83445682547196	0.30195266310825986	-0.2837931767244708	0.5857458398327307	99.46783000326855
15	6.0	ltm	279	diff_vonmises	0.5755017342510201	32.97382047504295	0.8483649015182938	150.34441367218696	0.8357634715806845	150.6004394249037	0.28209673895785414	-0.1727331224054094	0.45482986136326353	99.33961232840136
16	6.0	perception	279	diff_vonmises	0.007983095245846466	0.4573976650379548	0.5842260725436142	84.28791823597282	0.5487166044902523	83.9489809750911	0.6511445704759744	-0.2890296247840247	0.9401741952599991	123.41077331206047
17	6.0	wm	279	diff_vonmises	0.21690339522523497	12.427649108464015	0.7607454228974764	190.37239712777568	0.7491990543989295	190.78260512565174	0.29905716828120177	-0.22342866140801654	0.5224858296892183	103.79183257089397
18	7.0	ltm	279	diff_vonmises	0.04532680398569683	2.5970345671971864	4.169179750847157	0.6687781339920104	0.14706906930749633	2.6759359424276328	0.03516595872009237	-0.41784219434948994	0.4530081530695823	62.15259938138436
19	7.0	perception	279	diff_vonmises	0.060234153510189264	3.4511627786769576	1.0536584169782568	437.89166957476186	1.03930733138445	439.3245782752942	0.6832267028467527	-0.5608316187910063	1.244058321637759	86.70164501798845
20	7.0	wm	279	diff_vonmises	0.19652085414909393	11.259815529049096	1.7946073055138918	0.9158645258583675	1.9382948820564087e-24	2.6334464835660585	0.023282806316315907	-0.4069062360163286	0.4301890423326445	101.96687944400367
0	1.0	ltm	280	diff_vonmises	-0.05673832060348482	-3.2508663072398423	5.050232170353841	0.6311347726814966	0.08575415760661034	4.026302127038718	-0.1467239936295871	-0.6411070513225106	0.49438305769292346	57.42906804122009
1	1.0	perception	280	diff_vonmises	0.05260918754855465	3.014284410144383	18.270984287774372	0.6577369902356744	0.07064878267997263	4.150238712875447	0.4057432745097109	-0.6890046890797367	1.0947479635894477	31.35550068972168
2	1.0	wm	280	diff_vonmises	0.03642690328066483	2.087107818713347	0.7074969000146105	152.55203946489007	0.6828635206459829	156.54926651763677	-0.40829477811534076	-0.7431987323398026	0.33490395422446184	84.75940557929994
3	2.0	ltm	280	diff_vonmises	0.0012434599295554644	0.07124500595716277	2.6107816298408233	0.7469214418865574	0.06792290573143486	2.134201249858494	0.08840123284463458	-0.3189670064159559	0.40736823926059046	80.87967072219644
4	2.0	perception	280	diff_vonmises	-0.05048988262352217	-2.892857182438733	7.053179927906201	1.178206083734072	0.26943134815688563	2.6296719791933603	0.6863968942336912	-0.44001094278677083	1.126407837020462	49.031891023093664
5	2.0	wm	280	diff_vonmises	0.05992514998060963	3.4334581805773987	5.1269820517881834	0.4243087806456803	0.04937394372767006	2.3927025774156334	-0.02701455287183746	-0.3787669537885154	0.3517524009166779	58.38208927080825
6	3.0	ltm	280	diff_vonmises	0.02881340481646416	1.6508864893853148	0.8300603870801708	139.13623836232395	0.8136949096856847	140.1839068048746	0.11387648433387909	-0.2756864780405426	0.3895629623744217	92.78447681538512
7	3.0	perception	280	diff_vonmises	0.033061330401595465	1.8942746970989792	4.6464668074714846	1.9263875700738806	0.28226559707981325	2.9446027042375813	0.9968855441650719	-0.44843720368084555	1.4453227478459174	60.0589185313672
8	3.0	wm	280	diff_vonmises	0.14244839535489484	8.161691852246435	2.721232514821776	0.8527424375362247	0.2739897882237051	2.5340731848561444	0.007442722077677044	-0.3615040705868324	0.36894679266450947	71.18698049731555
9	4.0	ltm	280	diff_vonmises	-0.04613351572559962	-2.643255745177272	0.947473355148234	195.86818306133472	0.9314735467002565	197.93409309871544	-0.08355867730982425	-0.43929685423006504	0.3557381769202408	79.69842914407056
10	4.0	perception	280	diff_vonmises	-0.029147179457011375	-1.6700103675971663	1.9155870882690098	3.8177459124919517	0.45858890273327085	5.445574490189527	0.6170819685087265	-0.5586972285822678	1.1757791970909943	82.69855040471273
11	4.0	wm	280	diff_vonmises	0.15273061730832857	8.750819774194948	0.6801510134377106	87.86294997046097	0.6450228179091919	90.52740497540546	-0.14322044995335048	-0.5382814754359604	0.3950610254826099	94.2845474483023
12	5.0	ltm	280	diff_vonmises	-0.02535003005711144	-1.4524497328022667	2.1544021028019085	1.0226020229849844	1.670172469766418e-14	2.918582838357922	0.08716633489001246	-0.45708609185666	0.5442524267466724	93.61927657345493
13	5.0	perception	280	diff_vonmises	0.05420509268228337	3.1057230388103	0.9467544634533467	22.275619982677092	0.7051551553770269	24.052498224582582	0.5189849065774084	-0.5996382080204605	1.118623114597869	96.22958868473427
14	5.0	wm	280	diff_vonmises	-0.1201784336721768	-6.8857170379086305	0.4855364314394463	276.5935343880877	0.47531389031102333	278.9593599457582	-0.04604311138896833	-0.5457588946444787	0.49971578325551036	116.09243435373146
15	6.0	ltm	280	diff_vonmises	-0.05164019621191931	-2.9587652961704376	0.0014782546106472812	741.0053208053642	6.85304872449749e-17	743.1750088501252	-0.1709147710847958	-0.5195895260990113	0.3486747550142155	179.83904554515323
16	6.0	perception	280	diff_vonmises	0.0028080118713636314	0.1608872290517683	0.8288129036437696	5.503826283836492	0.22533122778937967	7.859836847732159	0.15409746396717927	-0.6617147894969135	0.8158122534640928	119.04757766629575
17	6.0	wm	280	diff_vonmises	-0.049602158165067044	-2.8419943175987172	0.45452590761939804	177.9596743943591	0.43603008844888125	180.42999229441776	0.02928248857988791	-0.6315649876642979	0.6608474762441858	122.88002868236805
18	7.0	ltm	280	diff_vonmises	0.04334967843302576	2.4837536174616637	1.088318775503645	247.41917118307475	1.0703254514394958	249.80873360644986	-0.012764064132340991	-0.5484926816941567	0.5357286175618157	76.28458633539793
19	7.0	perception	280	diff_vonmises	0.11882799536143172	6.808342622210161	2.871581639279274	1.2783465608442455	1.8737255785808493e-18	3.3099465643239916	0.28975817346668187	-0.524177536404257	0.8139357098709389	81.11699990301994
20	7.0	wm	280	diff_vonmises	0.29735837306098406	17.03737977927102	1.048320654051516	277.7428170794062	1.0317229094354494	280.36719654876174	-0.04369007681005144	-0.5885059901211491	0.5448159133110977	77.14315325676625
0	1.0	ltm	281	diff_vonmises	0.20931021419457263	11.992591882328266	1.7033629180107035	1.313016592966079	0.23218992957225856	3.9265242102628797	-0.16330331284649835	-0.5090384864352576	0.34573517358875927	84.05514634606644
1	1.0	perception	281	diff_vonmises	0.10816229214431206	6.1972428423301	5.8874494692177715	0.8309912600168972	0.1130477510710663	3.5212919875366016	0.1601809731607854	-0.5652800000013529	0.7254609731621383	53.820998951193246
2	1.0	wm	281	diff_vonmises	0.10248044850680792	5.871697182047853	6.078795588600635	0.3448872488184583	0.01976420182940349	3.0201703339550656	-0.15859905172112226	-0.4801937188252221	0.32159466710409984	54.294936696675194
3	2.0	ltm	281	diff_vonmises	-0.013527867268142094	-0.7750897002777127	1.8748940776147978	2.315896244590907	0.6413058722437646	3.674427071256673	0.1443191932839396	-0.3528901195819604	0.49720931286590003	75.89594378829966
4	2.0	perception	281	diff_vonmises	-0.025518112891682668	-1.4620801698317938	6.8002216868404135	1.1765885410948924	0.0821658293216047	2.8684874265494376	0.7047295683912042	-0.45812181286028275	1.162851381251487	51.28627368871335
5	2.0	wm	281	diff_vonmises	0.10661212667223928	6.108424903233425	5.929507639962863	0.43189150708160845	0.07088010763105393	2.2169443021141193	0.031609149296140504	-0.35392191969749753	0.38553106899363804	54.116243768619796
6	3.0	ltm	281	diff_vonmises	0.20415557910539223	11.69725304678819	1.0963012038950792	75.31665852317725	1.0542015712505635	76.39438892710754	0.2160333997847914	-0.3169462619221175	0.5329796617069089	82.48737148085445
7	3.0	perception	281	diff_vonmises	0.029947104585586106	1.715842701390958	4.923486978860995	1.8679854845875992	0.055355256575920754	3.2540765899452864	1.0594711155258065	-0.5076461999870634	1.56711731551287	60.67053469470477
8	3.0	wm	281	diff_vonmises	0.1491298648033624	8.544511852589228	3.360063610602724	0.6314163571809075	0.07806020312560148	2.357481486097614	0.03579458939207897	-0.36104391091063365	0.3968385003027126	70.8709603269032
9	4.0	ltm	281	diff_vonmises	0.48500182516341733	27.78855763800566	0.5454393404585471	245.85684371863687	0.5347423306582748	248.09814387975425	-0.07323373597779437	-0.4852850049769053	0.41205126899911093	107.64243439591641
10	4.0	perception	281	diff_vonmises	-0.08631135191628309	-4.945276188871411	3.28734084116355	1.9415121655606384	5.515997577357818e-14	4.505140029970226	0.6221268300508058	-0.7151468614499118	1.3372736915007177	75.70979727394104
11	4.0	wm	281	diff_vonmises	0.1190218595862803	6.819450224092559	5.153961444792864	0.4495772703134997	1.0900927701302355e-22	3.3438485554525035	-0.13600970073040852	-0.5321768062573463	0.3961671055269378	60.11935371245079
12	5.0	ltm	281	diff_vonmises	0.01366892826274981	0.7831718999226526	1.6333876309176947	1.4613951629889919	0.10780457721314299	2.832652645807366	0.1659259468628621	-0.3781966110029443	0.5441225578658064	99.01006776116816
13	5.0	perception	281	diff_vonmises	-0.043491383349832755	-2.491872711130957	2.223781538843065	2.3048414317322776	4.535859543860795e-15	3.458121224104332	0.7168407123915318	-0.5355392584444452	1.2523799708359769	92.18532901263893
14	5.0	wm	281	diff_vonmises	-0.05375279695699801	-3.07980840265964	0.6279228971281879	200.6174371397462	0.6151979369355844	202.0804139211549	0.09141720366248052	-0.3766120998407807	0.4680293035032612	105.74480860960105
15	6.0	ltm	281	diff_vonmises	0.2793188251944448	16.003789822194094	0.4213316855460316	177.57584266107182	0.41043310106491876	178.70510886584944	0.0963755731311835	-0.348700477436946	0.4450760505681295	128.7530370693473
16	6.0	perception	281	diff_vonmises	-0.09512232668366066	-5.450107856438408	1.455125990358527	2.0010049062342343	2.096454493976122e-19	3.138781326049433	0.3513694546715965	-0.453205482450156	0.8045749371217525	111.84908176832776
17	6.0	wm	281	diff_vonmises	0.10494820180227186	6.013089030757437	0.6755136666979914	200.19925851869968	0.6620843060638227	201.55671019627854	0.13514294219196188	-0.3665848936373095	0.5017278358292714	103.08669103574735
18	7.0	ltm	281	diff_vonmises	-0.05904292099266842	-3.3829101830042694	0.8678496387919244	220.9448775611565	0.8490366547586725	223.4839187606096	-0.0018040730508488423	-0.5646207710607136	0.5628166980098648	86.22714745380611
19	7.0	perception	281	diff_vonmises	0.008838177173179146	0.5063902506120295	0.9487740486537584	464.2986014250505	0.9345523692465962	466.49308047069417	0.5319264838335869	-0.6800254787419746	1.2119519625755615	89.11679713493552
20	7.0	wm	281	diff_vonmises	0.23327865499135012	13.365882381492797	11.438248000377913	0.5252567360503669	1.0645713851916557e-18	3.129196578382256	0.20243483385642436	-0.4980271032744141	0.7004619371308385	40.10911741335059
0	1.0	ltm	282	diff_vonmises	0.1376317296176564	7.885717234177403	2.6446294119131486	0.48061194878962027	4.408375732964303e-25	2.47295954952926	-0.10085905184071531	-0.39210677888392576	0.29124772704321045	84.56224340189976
1	1.0	perception	282	diff_vonmises	0.02089291539627995	1.197075873930739	11.099846604904803	0.7308545775813879	0.04749541608909864	2.79551807568026	0.49362237329720215	-0.4521428883449537	0.9457652616421559	40.36189318781504
2	1.0	wm	282	diff_vonmises	0.06125952797314526	3.50991240782483	3.4106207001889497	0.4362291697010543	4.201660453534235e-15	2.7751488831021986	-0.134564076610121	-0.4413437115335088	0.30677963492338783	74.30343238480629
3	2.0	ltm	282	diff_vonmises	0.16677981056905847	9.555779253598411	4.237319864501638	0.43950075443612713	0.021178711581566503	1.6370221025441292	0.08254445571633295	-0.25745323938805736	0.3399976951043903	65.51567177359533
4	2.0	perception	282	diff_vonmises	-0.03366498960587771	-1.9288618217685773	8.456612859340007	1.0692021129906424	0.09343053923356988	2.221727022081111	0.8335951922619904	-0.35965452412750615	1.1932497163894966	46.10714955856014
5	2.0	wm	282	diff_vonmises	0.06707418502332971	3.8430677161163875	6.101338797584399	0.38773210782106604	6.67398805542259e-16	1.9111443739890859	0.06937455922454289	-0.30416619993192323	0.3735407591564661	55.15699839912301
6	3.0	ltm	282	diff_vonmises	0.2576317699313391	14.761213085551159	3.3598470933989892	0.5430632512351504	0.0910641108728823	1.2960316719644172	0.15370460964499355	-0.195527436359626	0.34923204600461955	71.6831878747038
7	3.0	perception	282	diff_vonmises	0.011210953045590678	0.6423402938316822	5.887477260905324	1.635201647362777	0.08657117176826602	2.504889084639188	1.1120311847419186	-0.39388754445835544	1.505918729200274	55.333334503087656
8	3.0	wm	282	diff_vonmises	0.007841985243193279	0.44931265743884735	4.835583782568428	0.5931402474182554	0.2571176015778689	1.8725996253539379	0.12603741162269394	-0.29955924787166793	0.4255966594943619	57.08715773607872
9	4.0	ltm	282	diff_vonmises	0.0653221730308496	3.742684823290971	1.0436578671594259	178.82158200308703	1.0280292047846102	180.40034952911424	-0.020915321105270834	-0.3551841300701426	0.33426880896487177	77.49536481603687
10	4.0	perception	282	diff_vonmises	-0.025344498391270592	-1.4521327916959095	3.1042698611575705	1.8901468028940724	0.04915180079984204	3.7445440390779328	0.6365132958603551	-0.569509011914647	1.206022307775002	76.09826086288737
11	4.0	wm	282	diff_vonmises	0.03172072989837037	1.8174639462510669	0.9008216736364041	218.54878356278823	0.887148847927912	220.8700263511108	-0.17415473484797417	-0.46703647119803904	0.29288173635006487	78.54385407829758
12	5.0	ltm	282	diff_vonmises	0.12776015639039087	7.320117751100751	1.8325205684601131	1.0354874024839014	0.04113146781924875	2.021306975670152	0.17152084268571655	-0.2956360854863125	0.46715692817202903	98.43635190693024
13	5.0	perception	282	diff_vonmises	0.01784930506011092	1.0226898471858599	2.3897032324649365	1.8547669793430168	1.6235887589452729e-21	2.7088087797812754	0.6333116349273868	-0.42217802837533625	1.055489663302723	88.97020100942484
14	5.0	wm	282	diff_vonmises	0.008786561085838371	0.5034328666524245	0.5834531915125987	136.5628444232401	0.5662975372350755	137.85467319151843	0.10741505882354119	-0.3552619864269779	0.4626770452505191	111.0698132292025
15	6.0	ltm	282	diff_vonmises	0.28343181721237953	16.23944690599275	0.4381481252275517	119.0668846536053	0.42541351155410273	119.88020670357703	0.09059645368908775	-0.26211323498147365	0.3527096886705614	127.49836243842765
16	6.0	perception	282	diff_vonmises	-0.024626374406174958	-1.410987318182814	1.8292214326437233	1.4465916033519257	1.540132046108365e-19	2.4729658856209387	0.3133382202742791	-0.37536377799242654	0.6887019982667056	101.16625955952145
17	6.0	wm	282	diff_vonmises	0.06472192226259797	3.7082929876206676	0.511330661081018	211.7423681835695	0.5007975293689663	213.04084527197338	0.09665624828402031	-0.36794892038458826	0.46460516866860857	118.31213944703715
18	7.0	ltm	282	diff_vonmises	0.05501853165316905	3.1523296587335143	0.985798767345212	113.97259846456194	0.9572447629695752	115.59182775086165	0.07687068732135316	-0.39003415333016456	0.4669048406515177	83.0004586218127
19	7.0	perception	282	diff_vonmises	0.09811758811298575	5.621723694877058	2.024866076306482	1.6435424059668573	6.114670763371273e-17	3.12194364700697	0.3573219697381997	-0.48198536223711413	0.8393073319753138	96.43643003179653
20	7.0	wm	282	diff_vonmises	0.10407935071886265	5.96330753065272	3.2354991444773096	0.5011229569957646	3.894637118719566e-17	2.3365579155702854	-0.02930457500536965	-0.37134455240787934	0.3420399774025097	76.32751873421341
0	1.0	ltm	283	diff_vonmises	0.008134864208947008	0.4660933860846926	0.8608985268758138	141.68492483760681	0.8431130396879446	142.92295907293718	0.09467719450970691	-0.3095400592501001	0.404217253759807	90.0354457398818
1	1.0	perception	283	diff_vonmises	0.02993329117304499	1.7150512511516791	9.34385793059584	0.5251255088292895	4.74369408558178e-30	1.9322344416934925	0.3237568205786357	-0.3075246577734282	0.6312814783520639	44.42270075466433
2	1.0	wm	283	diff_vonmises	0.1127353303084923	6.459258628689882	5.902926015105708	0.3434429965364041	4.9345682953747743e-23	1.6100869807287133	0.0688645081087969	-0.2562508752418029	0.3251153833505998	56.102053784912925
3	2.0	ltm	283	diff_vonmises	-0.14060213099916274	-8.055908696797546	2.268265268847825	1.2888695614915844	0.42607425361520085	1.9977412463203008	0.25162318678916623	-0.23236996833670676	0.483993155125873	77.91353904403141
4	2.0	perception	283	diff_vonmises	-0.0388218677518932	-2.224329174998514	6.647716981114929	0.995766156783264	1.2735664353879016e-22	1.95392752428394	0.6924120877594362	-0.31097553590324395	1.0033876236626802	52.79994095050688
5	2.0	wm	283	diff_vonmises	0.028556466315865437	1.6361649977065884	5.530831365730605	0.39716808003781423	0.12400071427521098	1.379196721584037	0.1157777475384304	-0.2198522564598446	0.33563000399827503	55.58504956519715
6	3.0	ltm	283	diff_vonmises	0.08699895916316568	4.984673182080393	1.2085955458862654	221.1248192125887	1.1965273457013954	221.63178396387653	0.30087334057817827	-0.21715073894365133	0.5180240795218296	81.3340359957318
7	3.0	perception	283	diff_vonmises	0.019707177542340113	1.1291380992910867	4.137989310549823	2.0911932535881057	0.28848795608161143	2.7746099252787015	1.0606011192154539	-0.40673357147631733	1.4673346906917712	63.62508480118581
8	3.0	wm	283	diff_vonmises	0.0680703751976369	3.9001452086965913	1.4282809257785143	3.4511952279720735	0.7655738461699997	4.332340539568906	0.164265265476629	-0.252905562859854	0.417170828336483	82.00178850488243
9	4.0	ltm	283	diff_vonmises	-0.009962437608166667	-0.5708056286103566	0.9056496320112071	143.14823976764785	0.8897149214237778	144.23192223220738	0.0868593077872788	-0.2720718031547502	0.358931110942029	87.71916853765714
10	4.0	perception	283	diff_vonmises	-0.09892285123667936	-5.667861873262224	1.9937801897502752	3.576003030526051	0.38070414882053355	4.936683022482224	0.7321151284586169	-0.5386467390460106	1.2707618675046275	84.07745301122134
11	4.0	wm	283	diff_vonmises	-0.07272222493169898	-4.166676565387403	1.0069890388812588	188.59092433303542	0.9910249970986689	190.27747636563302	-0.003863414293974188	-0.38174580084982424	0.37788238655585005	79.56613059093362
12	5.0	ltm	283	diff_vonmises	0.11511650739710272	6.595690026140508	1.5921105100518615	1.7170464847063187	0.29378021156615103	2.3808233688025098	0.2735918034044322	-0.25066032720888837	0.5242521306133205	94.04625558609209
13	5.0	perception	283	diff_vonmises	-0.01935142534751333	-1.1087549999749962	2.4939775916581377	1.9029877440493226	2.6088362100286837e-19	2.479972015639419	0.7252542432305566	-0.3870621032877468	1.1123163465183035	87.09893517852746
14	5.0	wm	283	diff_vonmises	-0.14359264722519058	-8.22725265511433	0.5976651331705415	130.67986736956362	0.5843688803384055	131.40455347286687	0.13826694438498777	-0.23956196476996716	0.37782890915495493	112.44017611440597
15	6.0	ltm	283	diff_vonmises	0.1661518303302307	9.519798636295963	0.4626497762888763	112.39605529953596	0.45231490386137846	113.00025479019554	0.07183392720624582	-0.19404509553776883	0.26587902274401465	125.02445411460204
16	6.0	perception	283	diff_vonmises	-0.20396726943309862	-11.686463697324275	1.9272954773910662	1.490752074142897	4.487202440149398e-16	2.200100020201576	0.40183128437458593	-0.33422706265035457	0.7360583470249404	98.66873182602173
17	6.0	wm	283	diff_vonmises	-0.12649537017078144	-7.247650838730824	0.7641981380084885	134.08992825152328	0.7478562109048197	134.9342922636394	0.17037685797049562	-0.2589518835507647	0.4293287415212603	99.15096537092857
18	7.0	ltm	283	diff_vonmises	-0.06909884075027292	-3.959071944237225	1.092553059226818	111.85147401060439	1.063777678007273	112.94433575798881	0.21753594385150876	-0.3209341098185643	0.5384700536700731	82.3426085199539
19	7.0	perception	283	diff_vonmises	-0.027609976451901715	-1.5819351231495558	2.5671786019431355	2.2326412010551544	0.1792283842565838	3.4344590363359333	0.6876724432828722	-0.4680323524511643	1.1557047957340365	80.11755070116135
20	7.0	wm	283	diff_vonmises	0.21755296051313594	12.464866457978943	12.314867365694617	0.49855648652135176	3.8111687483287424e-19	1.7350604561501608	0.41418948287010404	-0.276143448145682	0.690332931015786	38.64423782684966
0	1.0	ltm	284	diff_vonmises	-0.06855057062735517	-3.9276583801609193	1.902484199677536	1.74821646744937	0.30900699945229193	4.062630934835785	0.01493799818613939	-0.5046880336940454	0.5196260318801847	81.19307511334807
1	1.0	perception	284	diff_vonmises	0.0017549817413275433	0.1005530469005882	15.077655858227983	0.5760393108663494	7.589756827573619e-19	2.9971481308725387	0.4076765663991394	-0.4770109402069285	0.884687506606068	34.887367072617906
2	1.0	wm	284	diff_vonmises	0.1394277327523595	7.988620633788157	3.7088450476856227	0.5202486620589987	6.1488699730676e-16	3.0184605241301696	-0.09665160809563811	-0.4801724569259669	0.3835208488303288	71.16808875058433
3	2.0	ltm	284	diff_vonmises	-0.05496493049649505	-3.149258538679075	2.997681618073611	0.7462779161960965	0.04944872156201814	1.9407695834515009	0.16421756569465618	-0.29573128215569994	0.4599488478503561	76.88174655052472
4	2.0	perception	284	diff_vonmises	-0.06505449480271021	-3.727347990551044	6.837612634832187	1.0746375315690526	0.0962045991835484	2.255016251281944	0.7046555657077181	-0.36042302538964216	1.0650785910973604	51.13435237183339
5	2.0	wm	284	diff_vonmises	-0.03168072423183573	-1.8151717904020244	4.150673652847039	0.5630497859659798	0.10179466231081243	2.0462879252733175	0.08205955834242484	-0.31794749297714703	0.40000705131957187	63.750312407864755
6	3.0	ltm	284	diff_vonmises	0.00015430847512736494	0.00884122436789745	0.8394011393472054	184.30831829720378	0.8263824733838044	185.2045229133191	0.1813954239862028	-0.2688526316026554	0.45024805558885816	94.29914014542021
7	3.0	perception	284	diff_vonmises	0.024261046668203893	1.3900555806580108	4.297626874714461	2.016770245921717	0.22912941970810996	2.8380971792772685	1.0515028253025807	-0.4239734493918614	1.475476274694442	63.0060935562567
8	3.0	wm	284	diff_vonmises	0.028816094511385806	1.6510405975525029	1.8903247176972682	1.8253865663838118	0.4846225752770835	3.072769471581672	0.16068619461567968	-0.3259489661122756	0.48663516072795526	79.63508364689699
9	4.0	ltm	284	diff_vonmises	-0.13742794881823975	-7.874041454425027	0.8789808730863081	189.67106476139088	0.8648191262971501	191.18524130679216	0.033684862998754284	-0.3489324924185766	0.3826173554173309	86.73463812901332
10	4.0	perception	284	diff_vonmises	-0.05343316737472388	-3.0614949765878032	1.5371681795055399	6.115266909709612	0.576413099558392	7.635959533949408	0.6947247889508539	-0.5782017545967135	1.2729265435475674	87.24744381729676
11	4.0	wm	284	diff_vonmises	0.06790913119275716	3.8909066077451953	0.8471600328838069	266.15952696158024	0.8347779162754372	268.3378863636077	-0.04691124594360474	-0.46845360666849345	0.4215423607248887	85.82401338499213
12	5.0	ltm	284	diff_vonmises	0.09744182458405504	5.583005296720462	1.9754584953141694	1.0646556682127015	1.0736848074547373e-08	2.2028436070234525	0.19453252821073536	-0.3401057301634884	0.5346382583742237	97.57529186104856
13	5.0	perception	284	diff_vonmises	0.02735508140226927	1.567330712586839	2.0718694781336064	2.1983403953835565	1.313033681720856e-12	3.1823165183105413	0.6519629402139365	-0.48810233480190784	1.1400652750158444	95.39860646722218
14	5.0	wm	284	diff_vonmises	-0.0790079160727764	-4.52682013909391	0.5420128936562821	230.22559002188447	0.5316226297118942	231.53447428022042	0.11874563485036305	-0.3753057733194325	0.49405140816979554	115.43815574320644
15	6.0	ltm	284	diff_vonmises	0.3544501434537152	20.308497267704468	0.509071268233797	113.41152527387703	0.49582496062215925	114.45685417261934	0.02377565774514423	-0.26444459735714965	0.2882202551022939	116.24602380664089
16	6.0	perception	284	diff_vonmises	-0.09689196378922803	-5.551500593857165	1.6045632082907282	1.8531007889250823	5.590395767661225e-13	3.0337803418251625	0.3533161801214802	-0.4490638478995255	0.8023800280210057	107.28265511904665
17	6.0	wm	284	diff_vonmises	-0.09335583394760587	-5.348895278121952	0.5502916649122749	189.85494585888947	0.5369435049841409	191.2652293835261	0.11885308184836418	-0.39714840269667206	0.5160014845450362	114.45426232992733
18	7.0	ltm	284	diff_vonmises	-0.027678622852171212	-1.5858682721637636	1.5461221358853248	5.948644565698235	0.9601477497115164	7.468733847205759	0.12864751199755542	-0.39904916048226957	0.527696672479825	74.09989084766443
19	7.0	perception	284	diff_vonmises	0.07947035814902449	4.553316118332193	2.7648337381775354	1.4891082023202604	1.6155871338926322e-27	2.8230010999931197	0.48128709405249265	-0.4456020547597104	0.9268891488122031	82.69604287020502
20	7.0	wm	284	diff_vonmises	0.0898190437432581	5.146252126389612	2.7811813060516077	0.7112493381618993	2.6369912427665833e-24	2.4942720403636893	0.04905170345743848	-0.3952630847808839	0.4443147882383224	82.44457618534048
0	1.0	ltm	285	diff_vonmises	-0.010637842855727187	-0.609503498756563	0.7919019309930548	224.46319693853613	0.7764558011283674	227.4355712711402	-0.2270854380951306	-0.5832347637591084	0.35614932566397783	83.74632850559772
1	1.0	perception	285	diff_vonmises	0.07037963174429386	4.0324558626329905	12.186002293058516	0.6415001744349569	3.962464926326592e-22	3.4222210366586405	0.33919141084962956	-0.5446633943142916	0.8838548051639211	38.84088062510534
2	1.0	wm	285	diff_vonmises	0.049703510683766466	2.847801389163215	5.577779143132336	0.38329863920820806	0.06832850753692737	3.592160665920923	-0.25920117373193624	-0.5757684301573402	0.316567256425404	54.58634375981751
3	2.0	ltm	285	diff_vonmises	-0.028471122251606463	-1.6312751430180559	2.4183096900685648	0.9145010031404848	0.13207368504963532	2.5678014838310013	0.06414862024612539	-0.3683533051622069	0.43250192540833227	80.54692857958179
4	2.0	perception	285	diff_vonmises	-0.024423962263846737	-1.3993899567052055	7.067447552445963	1.2401610588659884	0.19287210425119375	3.109172831209078	0.6955092866505909	-0.5115189919291272	1.2070282785797182	49.3853894782674
5	2.0	wm	285	diff_vonmises	0.09623226348510149	5.513702550687218	5.37295481870508	0.38951095387759677	0.04140862395693361	2.434370844796637	-0.05279335350100928	-0.3861040614232737	0.3333107079222644	57.203826411327924
6	3.0	ltm	285	diff_vonmises	0.11802383581363507	6.762267674066264	1.0569728638876417	127.85843970546911	1.0358970331179385	128.94180694063274	0.12998257593201146	-0.2888728808031953	0.41885545673520674	82.00999468700866
7	3.0	perception	285	diff_vonmises	0.04882693863117205	2.7975775101104357	4.500550626076462	2.156718733273844	0.276357489753306	3.229923971492606	1.1026676236767141	-0.48775304323546625	1.5904206669121803	61.04874822540856
8	3.0	wm	285	diff_vonmises	0.123073860096416	7.051612751908191	1.9618240926657566	0.8701324286383106	0.24278279117267162	2.4581820205307565	-0.04778484722766546	-0.3252652558189555	0.27748040859129003	81.0511028478522
9	4.0	ltm	285	diff_vonmises	0.0827361861802728	4.740434281138239	0.5996172917689485	203.72264844523056	0.5883759556896816	205.84797373195036	-0.1265298661728096	-0.4265319701728174	0.3000021040000078	99.23771590495687
10	4.0	perception	285	diff_vonmises	-0.03379916961294329	-1.9365497698684708	2.1157450999070573	3.4811242902405573	0.40685446405585207	5.570637418763725	0.579519662292123	-0.63788789003147	1.217407552323593	79.94778728890196
11	4.0	wm	285	diff_vonmises	0.0644185497372428	3.6909110222975907	1.4344541708960379	1.0097806024995988	0.13110595813849396	3.4782063796340106	-0.20269464390285102	-0.4667813564658169	0.2640867125629659	94.90385318824485
12	5.0	ltm	285	diff_vonmises	0.13979949078073353	8.009920799814093	1.0897554488849406	5.169010761199229	0.5445561034331795	6.9533989883167235	0.07992612815930111	-0.42468773797935666	0.5046138661386578	91.83351741024754
13	5.0	perception	285	diff_vonmises	0.03088106795617998	1.7693548607457998	2.3247124757993634	2.454070042672845	0.08512661273040052	4.242075907928847	0.6517012804672758	-0.6085472243582375	1.2602485048255132	86.3230861490228
14	5.0	wm	285	diff_vonmises	-0.10786522444341022	-6.18022211683877	0.4642193926960435	224.3436796315056	0.45338359344210943	226.45584609925854	-0.05160037962297537	-0.4871109632387345	0.4355105836157591	118.52509471909131
15	6.0	ltm	285	diff_vonmises	-0.2628963157192837	-15.062849340253756	0.00025147143449753807	4219.253170889696	4.4425334165221475e-31	4221.129945412334	-0.1298205886503183	-0.4675540635012112	0.3377334748508929	178.01739493627838
16	6.0	perception	285	diff_vonmises	-0.16513563981762108	-9.461575208742195	1.4657501168836893	1.8280916071428652	8.545820839425318e-15	3.7228712202591763	0.18830080850866782	-0.5508787356756698	0.7391795441843376	111.44583252869103
17	6.0	wm	285	diff_vonmises	-0.1564855359832979	-8.965960766685546	0.44101444521221317	183.8361431399524	0.4275787373033013	185.92289818799574	-0.03045269541400586	-0.501594489004539	0.4711417935905331	122.58272707739438
18	7.0	ltm	285	diff_vonmises	0.05310891963390558	3.042916949522263	0.9670919936276792	196.65102743395946	0.9490108478857054	198.71805481472282	-0.011480352497500235	-0.4623271823278472	0.45084682983034696	81.14236426594508
19	7.0	perception	285	diff_vonmises	0.003417807276575826	0.19582593213689692	1.6808025518678251	3.320952608073662	0.3381701580427076	5.1603665041069675	0.4219494014191374	-0.5509248470050139	0.9728742484241513	89.05231682024328
20	7.0	wm	285	diff_vonmises	0.22098198178751222	12.661334904861274	3.36591636569768	0.8773084118522505	0.2615427937770585	3.2800926687173577	-0.05349994550467796	-0.49928224945509897	0.445782303950421	64.68648607497394
0	1.0	ltm	286	diff_vonmises	0.0582984949004939	3.340257709763253	5.010208926659942	0.6002534482217693	1.5928258127932147e-15	4.12921865678063	-0.1361636856097076	-0.6571623799558424	0.5209986943461348	60.99853500182587
1	1.0	perception	286	diff_vonmises	0.021592672197910955	1.2371689853497687	9.996933856972195	0.8614458522078243	0.12880412610592484	4.484806437786923	0.26371314087460085	-0.7512762085645676	1.0149893494391684	41.65834681221324
2	1.0	wm	286	diff_vonmises	0.17000342386256012	9.740478690098323	2.030214714638637	1.1936972823306429	0.13030349883820314	5.0119763721765676	-0.2834501362773191	-0.7197295660179072	0.4362794297405881	82.76872114357442
3	2.0	ltm	286	diff_vonmises	0.0607118471732709	3.4785326094716797	3.134498907930937	0.8285344890883265	0.18358376241869917	2.3100926280966907	0.11823029016286235	-0.34055777529427234	0.4587880654571347	70.66586331034117
4	2.0	perception	286	diff_vonmises	-0.06979359235055523	-3.998878278743361	7.187611833218125	1.1434011346882833	0.10201833945404011	2.5590491401089137	0.7502545433331609	-0.41126765761086465	1.1615222009440256	49.81065056220385
5	2.0	wm	286	diff_vonmises	0.011738033625141387	0.6725397865032473	4.276129227455037	0.6557400812869038	0.08306455626072748	2.595654131309947	0.07465023596583775	-0.40517224346622843	0.4798224794320662	63.19150962212129
6	3.0	ltm	286	diff_vonmises	0.11329076323089106	6.491082590945948	1.8140504039067653	0.9805884275208939	7.786724210080318e-19	2.2112766605705443	0.12483017584790396	-0.33926788109731204	0.464098056945216	101.52627659823762
7	3.0	perception	286	diff_vonmises	0.013204025716569442	0.7565349461416315	5.107962544904114	1.7226446725117952	4.528227200600217e-13	3.01822375224558	1.0304257780414119	-0.48030995506144414	1.5107357331028561	60.39668396350464
8	3.0	wm	286	diff_vonmises	0.037353532042173634	2.140199735923236	2.9585753999876063	1.1628973079329947	0.2378980356900168	2.9884887567447174	0.16069147971776365	-0.4297937058986213	0.590485185616385	71.23001002140367
9	4.0	ltm	286	diff_vonmises	0.11150344213429644	6.388676635476383	0.6898409599767737	98.65988432207047	0.6615008637043907	100.89927568706197	-0.08856194613406387	-0.46480102438083293	0.37623907824676905	94.77175059104368
10	4.0	perception	286	diff_vonmises	-0.03687034095969873	-2.112514926199067	2.5626481705795925	2.3876176938178335	0.04886305812728258	4.674748189169859	0.6469326872937029	-0.7009006055955397	1.3478332928892427	83.55570897663807
11	4.0	wm	286	diff_vonmises	0.20903706313305329	11.976941479333691	0.7381066051219384	309.3207855165808	0.7247983569594517	312.54341181013905	-0.1467579753550723	-0.6611624465563537	0.5144044712012814	90.30513160734455
12	5.0	ltm	286	diff_vonmises	0.005277738745836764	0.30239215550911486	1.585058757847931	1.302042064156945	1.0735977147311707e-15	2.697319976964289	0.15387921514577607	-0.40479832331693705	0.5586775384627132	107.87922790844908
13	5.0	perception	286	diff_vonmises	0.007165469392555534	0.4105511544236018	1.6505495874398093	2.638112616618844	3.7223127564886245e-24	3.7090746469788707	0.6207058483063898	-0.5456964730255621	1.1664023213319519	105.98204326167492
14	5.0	wm	286	diff_vonmises	0.017737616352387357	1.0162905556140296	0.6435170827952031	219.52896784897433	0.628628080618392	221.19908412162647	0.1680234399806011	-0.4586352071105999	0.626658647091201	105.87981636636638
15	6.0	ltm	286	diff_vonmises	0.5458310494292276	31.27381545949136	0.573403605824973	185.33632778599096	0.5612931665803428	186.4369099772609	0.13911921310516107	-0.330754667044566	0.4698738801497271	113.0459217540666
16	6.0	perception	286	diff_vonmises	0.07522056520009673	4.309820918554175	0.8984584159003638	5.6063800543419635	0.2856151592278505	6.816775147555509	0.3930614224429352	-0.49927054762643946	0.8923319700693746	116.20921610882391
17	6.0	wm	286	diff_vonmises	0.17670487936329898	10.12444380688539	0.6016778301111094	279.4974675944459	0.5904202852840172	281.1023474293998	0.1720225943801097	-0.4561747758285932	0.6281973702087029	109.78873012273937
18	7.0	ltm	286	diff_vonmises	0.004836840909794931	0.27713057030746685	2.8548122722184295	1.4880855679561635	0.4036932948454322	4.036894968002916	0.023318840269529573	-0.5724742216358673	0.5957930619053968	67.01721774763388
19	7.0	perception	286	diff_vonmises	0.20724203297512114	11.874093827185478	2.1903341386093205	1.8173419366125467	0.06375023810295814	3.684828446647816	0.3658189559814784	-0.5377798479265307	0.9035988039080091	89.18920777724472
20	7.0	wm	286	diff_vonmises	0.03458880847336262	1.9817927439100183	1.1371211404679966	3.199941120819077	0.3249736558825227	5.881451877324801	-0.08608452017454549	-0.5616856914614954	0.4756011712869499	95.3678282621322
0	1.0	ltm	287	diff_vonmises	0.17532793918006728	10.045550945744242	2.4105666614469814	0.7714298595553035	0.17619491181669408	3.7055302508330996	-0.25295754943836285	-0.545362315008068	0.2924047655697051	73.79215142236131
1	1.0	perception	287	diff_vonmises	0.08678982808818503	4.9726908541189685	7.682443160683345	0.9474146787396661	0.1430755923837878	3.867983882892268	0.32274155894324774	-0.638451649224655	0.9611932081679028	47.274778364929375
2	1.0	wm	287	diff_vonmises	0.08612243922155989	4.9344522887673286	3.701110587233838	0.4869770952106558	0.08748310933623293	3.7175924747603264	-0.28573743833819043	-0.5829620375869172	0.2972245992487268	64.8633555904672
3	2.0	ltm	287	diff_vonmises	0.09324644405660709	5.342627699046326	2.9097910272952023	0.8699919669548131	0.3079381347171598	2.2699399086026877	0.0798215097222379	-0.32315119976511364	0.40297270948735153	69.61388823923667
4	2.0	perception	287	diff_vonmises	-0.02415628421113936	-1.3840531340167925	7.932809512488147	1.1973747890443944	0.14177267319148942	2.7323422632091554	0.8240102157063658	-0.4470846963786731	1.2710949120850388	47.2099405293184
5	2.0	wm	287	diff_vonmises	0.11109165142118008	6.365082765572132	6.119702393624336	0.4033949835303897	0.04338071010388146	2.2564357904278998	0.01433873841506611	-0.35919230054446094	0.37353103895952705	53.816823164800496
6	3.0	ltm	287	diff_vonmises	0.23656038905892432	13.553911893049099	3.7144973128582146	0.5516291115784487	0.11078101894777857	1.4328718433447867	0.1532105947134405	-0.21800080802863497	0.3712114027420755	67.73210014643203
7	3.0	perception	287	diff_vonmises	0.03405702500536299	1.9513237955788094	6.131252479165914	1.5801668848702215	0.017605096481020207	2.648860542858558	1.097252336840677	-0.4191160314947824	1.5163683683354594	54.801446600781986
8	3.0	wm	287	diff_vonmises	0.04859904781370191	2.7845203280796103	5.379144404961712	0.45276631904903625	0.13555954781143068	1.9296484795653324	0.05805712680502273	-0.30905881617517084	0.36711594298019357	55.650631875281675
9	4.0	ltm	287	diff_vonmises	0.41455870558659397	23.752464190518296	0.6981185355019274	203.4218316984132	0.6863322525962872	205.48210404376738	-0.12408285073437497	-0.4111597842192758	0.2870769334849008	91.38341957488734
10	4.0	perception	287	diff_vonmises	-0.044634615268428074	-2.557375075071113	3.6473519613392122	1.7331458838302298	1.1570816870720685e-18	4.080950948003881	0.6170334411199904	-0.6486431905009762	1.2656766316209667	71.78864559210166
11	4.0	wm	287	diff_vonmises	0.07228857937332007	4.141830505087698	0.7664376460156883	78.53062575355104	0.7292257311043968	81.26045716750426	-0.23418404581257235	-0.5248818872701335	0.29069784145756117	84.48463034270014
12	5.0	ltm	287	diff_vonmises	0.05006288624180393	2.8683920918989205	1.8946634168473957	1.0471985868954994	0.04116079157288675	2.463049517754475	0.11450788424794561	-0.3642181647070697	0.4787260489550153	96.41715619472131
13	5.0	perception	287	diff_vonmises	-0.004549295525486539	-0.26065543336812874	2.3987851937165074	2.119705680435574	7.381525867234488e-20	3.3549190971196485	0.6852276543878193	-0.523893511567292	1.2091211659551113	88.80440534368876
14	5.0	wm	287	diff_vonmises	0.0215787516269191	1.2363713953835231	0.5782215389634212	182.0313931176717	0.5632445368923771	183.74816401763292	0.07043093907709164	-0.43390110402846815	0.5043320431055598	109.64764088163086
15	6.0	ltm	287	diff_vonmises	0.29352726285361797	16.817873333539453	0.5034093943461735	144.5490159200193	0.4889190951353014	145.82315691839838	0.07949966377092466	-0.3542747773870669	0.4337744411579916	118.83583535688192
16	6.0	perception	287	diff_vonmises	-0.020553975470802968	-1.1776560466924293	1.3467771348660331	2.067630384782051	8.602276744193004e-16	3.3573145806787728	0.3049809787278275	-0.47756117982449137	0.7825421585523189	115.45791557474571
17	6.0	wm	287	diff_vonmises	0.1194283757087168	6.842741882212194	0.5484029728146623	260.91222605174926	0.5378577972933816	262.48464927001044	0.1182716429635633	-0.43473323929589824	0.5530048822594615	114.1555639574741
18	7.0	ltm	287	diff_vonmises	0.06032708882231823	3.456487579829678	0.90002219395664	200.32509944505952	0.8816016699292064	202.62119365583698	-0.02988411817308645	-0.5030300784247359	0.47314596025164946	83.83958966301066
19	7.0	perception	287	diff_vonmises	0.06036569811343855	3.4586997292608648	0.8500170008879846	166.07843449005892	0.8191354579044061	168.05728461379886	0.370838086094615	-0.5814919071820874	0.9523299932767024	93.92337143111783
20	7.0	wm	287	diff_vonmises	0.2525426355073133	14.469627161679739	2.9678208479055788	0.884415957816303	0.18971564971178528	3.269484666634642	-0.04778910120012958	-0.48629910818988364	0.43851000698975406	70.27831806690543
0	1.0	ltm	288	diff_vonmises	0.0002473376305630219	0.014171402346027115	3.4446697037828433	0.4822746266479729	1.387349459226141e-13	2.6051345114234357	-0.07315896483820311	-0.4142722272063697	0.3411132623681666	73.91723417099521
1	1.0	perception	288	diff_vonmises	0.02727496707862734	1.5627404999636112	15.638795856881652	0.5950694495945016	1.7747901421780897e-15	2.854127675067332	0.47641152189719443	-0.45424852770231966	0.9306600495995141	34.261531529574086
2	1.0	wm	288	diff_vonmises	0.06348119901733539	3.6372047821233466	3.4587102311184936	0.4631589994650832	0.03996887629490376	3.0172730393050324	-0.17094803744813009	-0.4710312024516769	0.3000831650035468	70.28369665194535
3	2.0	ltm	288	diff_vonmises	0.061103611524219933	3.5009790533447416	2.949133916462326	0.5556527467716905	7.68321571246583e-15	1.738053704825428	0.08373342874161888	-0.27563073792355663	0.3593641666651755	80.03492226214013
4	2.0	perception	288	diff_vonmises	-0.03646625701431444	-2.0893626215595518	7.801625633574593	1.0774122944321058	0.17529566047962575	2.317020516548706	0.7439840611149287	-0.38181436533804236	1.125798426452971	47.42754234269742
5	2.0	wm	288	diff_vonmises	0.0740847773235537	4.244745066806134	6.029560312705666	0.3528392543195516	0.009033855652490274	1.9457240202411727	0.025333148395006555	-0.30894115183829646	0.334274300233303	55.142492565424504
6	3.0	ltm	288	diff_vonmises	0.1452108838061153	8.319970781454998	0.9738396849962341	96.32737672680291	0.9512741796117332	97.14862233044694	0.139371324788911	-0.2323230742251461	0.3716943990140571	86.83387537432966
7	3.0	perception	288	diff_vonmises	0.015314148423806398	0.8774360715210285	4.987709898236418	1.8689651605624742	0.2554559043193647	2.759597413537655	1.0606099035473027	-0.4256689915923346	1.4862788951396373	58.46847162100187
8	3.0	wm	288	diff_vonmises	0.060357399794712066	3.4582242706207826	3.3544024170773485	0.7147688912834632	0.3169881489822679	2.0985788764616933	0.05130161150371493	-0.31304183595519014	0.36434344745890507	65.03168737159095
9	4.0	ltm	288	diff_vonmises	-0.009275341831235162	-0.5314379404709191	1.0861170699619724	246.37340969521608	1.0736118452114765	248.02771084656524	-0.010096818672536756	-0.37942495748776395	0.3693281388152272	76.22483499331176
10	4.0	perception	288	diff_vonmises	-0.03281482988912646	-1.880151258086693	2.263514596474542	2.7908851021179544	0.3100324668549119	4.380240064125526	0.6227841734055282	-0.5385175827867033	1.1613017561922314	80.79215910161619
11	4.0	wm	288	diff_vonmises	0.03638761227564041	2.0848566099526207	0.8146020622388546	179.69315553392124	0.798741550931329	181.95566015071412	-0.1422111111707025	-0.4547030280951816	0.3124919169244791	84.10197660428929
12	5.0	ltm	288	diff_vonmises	0.08669035590047568	4.966991517584289	1.4691633359843266	1.7327688091888735	0.2290574504749907	2.975748490537602	0.15339390814377984	-0.33722604754659247	0.4906199556903723	96.8157707029502
13	5.0	perception	288	diff_vonmises	0.03039679924668637	1.7416083075415691	2.468436858814876	1.8320600242048577	8.436042166409772e-20	3.0314123431614486	0.589216374763732	-0.4747724201943443	1.0639887949580764	87.54683247946502
14	5.0	wm	288	diff_vonmises	-0.09991921205424033	-5.724949142980671	0.5105992292398737	220.49297772520234	0.5003126609279667	222.10552404804125	0.026297336425507467	-0.40089434406863234	0.4271916804941398	115.60678375543675
15	6.0	ltm	288	diff_vonmises	0.11869561840989677	6.8007579815824	0.3287716221339521	89.46181418075888	0.3124812947883626	90.74639887904635	-0.010502135241551969	-0.33604340758638784	0.3255412723448359	138.3434324868177
16	6.0	perception	288	diff_vonmises	-0.06506702370781517	-3.7280658439354784	1.7622331010884937	1.5328380537673043	2.0382722100180147e-15	3.0852444405461177	0.2412479001940231	-0.4694525675812163	0.7107004677752393	102.90207075520179
17	6.0	wm	288	diff_vonmises	-0.05541849921515099	-3.175246111977217	0.4841691558620922	227.65187410217538	0.47313099442965245	229.36407948642398	0.05415424400391089	-0.4493691645513067	0.5035234085552176	119.73968918707061
18	7.0	ltm	288	diff_vonmises	0.025249842718503897	1.4467094211394065	1.010815741835403	203.2928401623298	0.9934546930094417	205.02485388293232	0.07779959379369927	-0.4173996180993882	0.49519921189308747	81.56555819188887
19	7.0	perception	288	diff_vonmises	0.07622038095580579	4.367106141646987	2.427304045416423	1.4619875883620266	2.6935995272120262e-17	3.108276671474747	0.35205593579439537	-0.4880987083073338	0.8401546441017291	88.2809970146883
20	7.0	wm	288	diff_vonmises	0.20787293990451566	11.910242131505342	3.8277782531333933	0.6407242773651933	0.12204461793112586	2.627839956759408	0.010128175989619626	-0.40657883824201524	0.41670701423163486	65.09926369358269
0	1.0	ltm	289	diff_vonmises	-0.12586233094379293	-7.211380362758158	1.1295345814604836	317.2584004250127	1.1150554156720964	319.7538505108059	-0.049055967729941585	-0.5696494201058542	0.5205934523759126	74.01204592925183
1	1.0	perception	289	diff_vonmises	0.04230379758659252	2.423829059087469	13.528088797824019	0.6732942532279373	1.7192409704450254e-17	3.0113626405811575	0.49886052360589683	-0.4792732496890145	0.9781337732949114	36.852488798449485
2	1.0	wm	289	diff_vonmises	0.08939094015169187	5.121723597398475	4.92190008501758	0.36647427028108204	0.028752663127058337	2.9784631848916674	-0.1726419046401334	-0.4716893004070869	0.2990473957669535	59.782037086252274
3	2.0	ltm	289	diff_vonmises	-0.048670714728144465	-2.7886265398078938	3.450448151620417	0.5887290493834324	4.749666174364477e-09	1.8399516618096727	0.12437561215639148	-0.29241729640252656	0.41679290855891804	73.8564143606423
4	2.0	perception	289	diff_vonmises	-0.041821518792253126	-2.396196519623164	7.332874691931388	1.1515162123674987	0.17272613820815222	2.300314649637889	0.7891622790837608	-0.3757294605514513	1.164891739635212	48.947326609564584
5	2.0	wm	289	diff_vonmises	-0.016083737911309143	-0.9215303011125718	4.20828566267449	0.4841378679939686	0.13676621063240055	1.9427988436103931	0.029786168687852055	-0.3034573690710083	0.33324353775886034	62.15297647368374
6	3.0	ltm	289	diff_vonmises	0.02636012388616966	1.5103238461195116	1.0506259758744818	94.84985393005991	1.030496464252966	95.50298755530932	0.13284149095785125	-0.19247073573057882	0.3253122266884301	83.9743647441976
7	3.0	perception	289	diff_vonmises	0.05950164342521575	3.4091930423572063	4.836674936042961	1.8082683206559362	0.2885758295885364	2.1979035767636157	1.083015262599277	-0.33288424885802914	1.4158995114573063	59.44547423095187
8	3.0	wm	289	diff_vonmises	-0.013486573899063659	-0.7727237645076424	2.916461060090287	0.6844660654569067	0.2992418426587166	1.538949247319266	0.11801222739318995	-0.21567415074114438	0.3336863781343343	70.92002989989251
9	4.0	ltm	289	diff_vonmises	-0.24587731743615002	-14.087732567089803	0.8422495948558537	161.25924162497736	0.8304843447084793	162.49478191574607	-0.020210045980299185	-0.26772283677604847	0.24751279079574928	86.42577537050786
10	4.0	perception	289	diff_vonmises	-0.04677586411173157	-2.6800595966796723	2.0299755557557497	3.683921718153227	0.48637912665103633	4.991641879208478	0.6986496485552709	-0.5122668379498192	1.21091648650509	81.09743496597989
11	4.0	wm	289	diff_vonmises	0.05437118682543991	3.1152395322150115	0.8691204280729578	167.94926437246846	0.855011045096261	169.58386303697387	-0.061494264599126325	-0.3440194708224631	0.28252520622333677	83.53729679258097
12	5.0	ltm	289	diff_vonmises	0.2201308640193448	12.612569448876688	0.7843776722899134	100.14038340768224	0.7589215852132616	101.4392767184117	0.10255101975153735	-0.32894008165377286	0.4314911014053102	94.94006097886873
13	5.0	perception	289	diff_vonmises	0.05845844613486154	3.3494222404204264	2.6118682018994295	2.0931435904984075	0.019167733019119147	3.2727939849078647	0.7346682668995932	-0.5041270007309794	1.2387952676305725	84.3581576821486
14	5.0	wm	289	diff_vonmises	-0.050370686644644905	-2.8860277559141347	0.4263263743669311	207.07997216093767	0.41603483001454317	208.51777030801935	0.06037037784196997	-0.4015688968390698	0.4619392746810398	127.27289908745611
15	6.0	ltm	289	diff_vonmises	0.4739213022429854	27.15369043986694	0.9483912512514704	84.12111744557083	0.9235815456848626	85.4756430010945	-0.046521219723651086	-0.29017068805436885	0.24364946833071777	80.29861210134666
16	6.0	perception	289	diff_vonmises	-0.19159097771343678	-10.977354415764943	1.3823778714370099	2.047324058843614	8.332039991837278e-14	3.343876987335823	0.31197811073944226	-0.47901885173584885	0.790996962475291	114.10542819400597
17	6.0	wm	289	diff_vonmises	-0.289858965926912	-16.60769540163839	0.4687289951367111	80.59336048113478	0.43756586745839116	82.0849860582457	0.11495149909506353	-0.44106288996004217	0.5560143890551057	124.26874741066841
18	7.0	ltm	289	diff_vonmises	0.05885106531408867	3.3719176623460316	1.2398738801920648	139.71122512552802	1.2192420396444272	140.85547672015792	0.09215240005481462	-0.3007839048164236	0.3929363048712382	74.33414689124982
19	7.0	perception	289	diff_vonmises	0.008029178906557969	0.4600380643012368	2.8989858569385234	1.4426226656214927	0.06320470883767798	2.515761828948145	0.500355776882624	-0.3761673361899449	0.8765231130725689	78.448233307506
20	7.0	wm	289	diff_vonmises	0.2703806236821163	15.49166859910022	1.6779397460674343	1.6530565335535314	0.4474852631381995	3.056396052072064	0.04221160869642382	-0.321716972651588	0.3639285813480118	81.58816412972081
0	1.0	ltm	290	diff_vonmises	0.049902311571780655	2.859191841009881	0.8937792865788267	50.65553268662376	0.8376084208113125	52.60800681154382	-0.06422378002085694	-0.4139816454787635	0.34975786545790655	83.72932836101671
1	1.0	perception	290	diff_vonmises	0.07988607075944705	4.577134696399771	12.130952263941337	0.5481101981829133	1.2022459825942165e-15	2.6836949120111897	0.32606587333218423	-0.4271233109752527	0.753189184307437	38.93529050121694
2	1.0	wm	290	diff_vonmises	0.09825267564963802	5.629463640592053	5.917125802686304	0.3185636511354183	0.029969538515169647	2.471024589190275	-0.10318175522880929	-0.3929833900774088	0.2898016348485995	54.74382707253221
3	2.0	ltm	290	diff_vonmises	-0.061611230890571536	-3.5300635006357934	2.062538515415319	1.583249687487088	0.5653779404821238	2.5283927748471573	0.17716080716860338	-0.26638231102785853	0.4435431181964619	76.25785703891964
4	2.0	perception	290	diff_vonmises	-0.024403545595835702	-1.3982201677964536	7.227802568739369	1.0658490981568374	0.11605813069204184	2.2177572000708774	0.7266990353805816	-0.3572436806118789	1.0839427159924604	49.63637847926256
5	2.0	wm	290	diff_vonmises	0.10423121175327696	5.9720085269971515	6.486978304970287	0.3464341860547153	0.09125980425059836	1.7045309834963758	0.04807420125554063	-0.27456695240587203	0.32264115366141266	51.57481675480753
6	3.0	ltm	290	diff_vonmises	0.145575516107727	8.340862673411491	1.1878064252945606	160.06104880547647	1.1717724756418093	160.72763428278267	0.22620491760832806	-0.22832616948216966	0.4545310870904977	80.32520469934545
7	3.0	perception	290	diff_vonmises	0.02931443262295652	1.6795932681160244	4.896776227550083	1.7834906131255839	0.20406243562896292	2.625844604710982	1.0220679938865145	-0.40350792705804195	1.4255759209445564	59.44481924576982
8	3.0	wm	290	diff_vonmises	0.16369294877043292	9.378915100597004	3.536277546923507	0.5922449521200974	0.20850295534494537	1.7887217896397078	0.0785570903323829	-0.2699120970453792	0.3484691873777621	66.20530869866826
9	4.0	ltm	290	diff_vonmises	0.14077836438623528	8.066006126086098	0.8821150650052343	188.4300641940628	0.8694244247950637	189.94438852044874	-0.023964669053285093	-0.3297535154120297	0.3057888463587446	84.40240025687021
10	4.0	perception	290	diff_vonmises	-0.08831100909514704	-5.059848105693352	2.848318190530675	2.126847309053728	0.11672368833339401	3.7489716522200625	0.683960464047744	-0.542509153581306	1.22646961762905	77.53316188871673
11	4.0	wm	290	diff_vonmises	-0.05589415269504738	-3.202499048885991	0.9390600230440481	174.1694821641106	0.9209326550007593	176.2503774585318	-0.07950517635636345	-0.4429312077301546	0.36342603137379115	80.2821093420047
12	5.0	ltm	290	diff_vonmises	0.0033647676082642452	0.19278698299586955	1.529146170020862	1.6078676418276774	0.17941186748595833	2.7583022996342232	0.18355526552325285	-0.3323307311651461	0.515885996688399	98.26100558229419
13	5.0	perception	290	diff_vonmises	-0.02359212442584066	-1.3517291593481704	2.6127976557531767	1.9003531485831335	2.7026511586858402e-21	2.890843115026498	0.6891596318618946	-0.4539116555889603	1.1430712874508548	85.0915629397989
14	5.0	wm	290	diff_vonmises	-0.1138359417159585	-6.5223190172216485	0.5862930621533194	180.32584665419225	0.5743870021415145	181.5712579077469	0.08082142021746108	-0.32904843001020545	0.40986985022766653	109.78252721656162
15	6.0	ltm	290	diff_vonmises	0.1804024890118221	10.336301234032616	0.48997446695993474	159.21020844499105	0.479022355519228	160.31480905564837	0.05686345188968289	-0.30222700218566345	0.35909045407534634	119.86919651319789
16	6.0	perception	290	diff_vonmises	-0.1404309796371707	-8.046102446097485	1.6164921017709282	1.8214700116556122	2.7029988339711835e-12	3.0002361439644303	0.3481340832144493	-0.4449395831323493	0.7930736663467985	106.90462935018655
17	6.0	wm	290	diff_vonmises	-0.03347973637485395	-1.918247593489754	0.714349990323332	156.88282730896637	0.6959393519176742	158.15391851241662	0.1899224876959451	-0.3674953053207197	0.5574177930166648	101.66306242925108
18	7.0	ltm	290	diff_vonmises	-0.03627598478511349	-2.0784608258677917	0.9172772236748922	230.32256033575553	0.9017253213696472	232.1206793877662	0.10100251361608059	-0.43629428799132697	0.5372968016074076	86.2669165092982
19	7.0	perception	290	diff_vonmises	-0.013677511099908125	-0.783663660268072	2.206380902244327	2.774341678312775	0.31374405048112597	4.600473505759836	0.5404915277887845	-0.5643372297877098	1.1048287575764943	80.98344376894886
20	7.0	wm	290	diff_vonmises	0.2720135944621845	15.585230932866313	9.470229454137977	0.559571842669668	0.011432103101156159	2.417454227683345	0.28811098439221955	-0.38528889496473767	0.6733998793569572	43.9741281162446
0	1.0	ltm	291	diff_vonmises	0.3022507429662426	17.317691926659155	3.493750673590208	0.28996797153429715	0.08051083125165412	1.8566765023072311	-0.11283876545161792	-0.2887538100038384	0.17591504455222046	67.60725111891563
1	1.0	perception	291	diff_vonmises	0.08160038795856982	4.675357836656194	6.814682409220231	1.040777188818547	0.2397011246755113	2.558009315208553	0.5523183963571707	-0.42406957335178924	0.9763879697089599	49.8741948163663
2	1.0	wm	291	diff_vonmises	0.003345569532551825	0.19168701428277526	5.21885710153999	0.247677511088978	1.0983503872731762e-18	2.0259554796149226	-0.10272492111363427	-0.32243438966800786	0.2197094685543736	59.73594514255518
3	2.0	ltm	291	diff_vonmises	0.20607428104921707	11.8071865703129	3.8923394099728625	0.68992493181751	0.568545664474506	1.5541097340618404	0.1191216908805719	-0.2371938294516489	0.3563155203322208	58.944032353271126
4	2.0	perception	291	diff_vonmises	-0.006243777057344338	-0.35774207360644317	9.404708968477976	1.0976148310832539	0.05681621349566414	1.7926700302066825	1.0220828098332229	-0.28815247625120183	1.3102352860844246	44.00944041808461
5	2.0	wm	291	diff_vonmises	0.10705753017343289	6.1339446440321685	7.710985832912763	0.3117164729358245	0.059677504777736576	1.4324926003908591	0.09755053253178567	-0.2303842989371468	0.32793483146893243	48.02272525168806
6	3.0	ltm	291	diff_vonmises	0.29656378270258626	16.99185310529304	5.075362828565303	0.39220948674852263	0.45000075166083964	0.7056248091416764	0.17528273939513744	-0.11250112270810707	0.2877838621032445	55.70728915454825
7	3.0	perception	291	diff_vonmises	0.02730704580797234	1.564578475767222	7.525643310264633	1.2880391039751955	4.3887068153042505e-13	1.6973272788086353	1.114184930121079	-0.27013762399519514	1.3843225541162743	49.579262866209035
8	3.0	wm	291	diff_vonmises	0.009323961419132557	0.5342236376591052	8.045741994149099	0.36749607681560276	0.3944167823471036	1.057107588422898	0.16872047128064946	-0.1902158313401322	0.3589363026207817	44.88918743104307
9	4.0	ltm	291	diff_vonmises	0.31823434066691425	18.233484616342647	1.0153116086924434	123.14897764416934	1.001635020804098	124.2127704394426	-0.04546248797763042	-0.22923914696201564	0.18377665898438522	76.69248790429558
10	4.0	perception	291	diff_vonmises	-0.050642569527758134	-2.901605497638372	4.196590388691336	1.5448240237525026	2.9379488171178034e-17	3.277506145342384	0.6975358200551744	-0.5213552738957172	1.2188910939508917	66.7957626661823
11	4.0	wm	291	diff_vonmises	-0.10081170552403296	-5.776085252042775	1.2408158231694328	173.7165451483928	1.2242932395337713	175.45261266307577	-0.13842332893088383	-0.3866204412748431	0.24819711234395925	66.76791964076742
12	5.0	ltm	291	diff_vonmises	0.13692441959094265	7.84519135483942	1.8149650838807267	0.822248603759677	0.03342028750382032	1.5079573625573186	0.1518410179321105	-0.22144039778370797	0.37328141571581847	99.48639574052311
13	5.0	perception	291	diff_vonmises	-0.010885337397238508	-0.623683891437687	3.3577121983309937	1.5790600920636892	7.692011691261343e-19	1.9632537806248858	0.7896142674525395	-0.31112555554806365	1.1007398230006031	74.89745602360358
14	5.0	wm	291	diff_vonmises	0.11793565710363596	6.757215406140407	0.6442739005398679	72.41002317141616	0.6163750450849489	73.19548472801718	0.17235680653818264	-0.26406562823226487	0.4364224347704475	109.28814254045241
15	6.0	ltm	291	diff_vonmises	0.28858456429899565	16.534677566954183	0.7110237753043439	113.94130144216942	0.6973195115845857	114.34484630512695	0.18303102668400584	-0.17470333241087488	0.3577343590948807	105.93946400041534
16	6.0	perception	291	diff_vonmises	-0.05141889531577614	-2.9460856888189713	1.7640123759575244	1.472755858672267	4.3284028009895875e-15	1.8602356692662192	0.4079568720578875	-0.275393555233328	0.6833504272912154	102.8573380617459
17	6.0	wm	291	diff_vonmises	0.0824001868704908	4.721182938768422	0.6140771434837126	175.16150367055846	0.6019324463682911	175.8455512562906	0.22102783084995536	-0.27194494131849467	0.49297277216845004	112.85055703701985
18	7.0	ltm	291	diff_vonmises	0.1835054918482312	10.51409020037598	0.8055469464290709	152.99768042564497	0.7900949713842613	154.20473503216763	0.08721558994529488	-0.3012555112763504	0.3884711012216453	93.04871938640852
19	7.0	perception	291	diff_vonmises	0.013490611810981153	0.7729551198185604	1.826229133030011	2.3926741252635795	0.23211545376601217	3.6798199074857356	0.4393078888573755	-0.43985813748397184	0.8791660263413473	90.53256570727905
20	7.0	wm	291	diff_vonmises	0.3386372837566681	19.40248714503115	4.210666199811675	0.4135586619619829	8.646657212663e-18	1.6262774154280986	0.06810986289646609	-0.25875810814503525	0.32686797104150134	66.6811489473719
0	1.0	ltm	292	diff_vonmises	0.06577026822642826	3.7683587868177173	0.9681721067262539	278.89994008023933	0.9544131048793743	281.24946601326025	-0.0544016156544842	-0.5135287389629752	0.45912712330849104	79.94981390340524
1	1.0	perception	292	diff_vonmises	0.06813802163501456	3.9040210640574275	6.993182896205435	0.7390065833790441	5.828373247228372e-17	2.9554274244637253	0.2942798114001862	-0.4703702389826974	0.7646500503828837	51.454813102607346
2	1.0	wm	292	diff_vonmises	0.12890803850282664	7.385886551521882	5.807764335873802	0.365154810093441	1.5967764248546221e-15	2.5055921371703023	-0.05603267315827526	-0.39877427996833326	0.342741606810058	56.56532910143622
3	2.0	ltm	292	diff_vonmises	-0.04426684577930558	-2.5363034355107112	2.5629573909239465	1.4221911678117827	0.5029063348930803	2.6408740255247647	0.19739710999347226	-0.3306805503091045	0.5280776603025767	71.00900887638437
4	2.0	perception	292	diff_vonmises	-0.03924745381468446	-2.2487134602160426	6.781998380852793	1.154509767998013	1.0089853623464698e-19	2.3939767776652183	0.7945370646134413	-0.3810117258962488	1.1755487905096902	52.26547492550688
5	2.0	wm	292	diff_vonmises	0.026158014258330902	1.498743817445391	5.025096170982386	0.5125875639715776	0.13033670373752268	1.8960034440936469	0.10327653851542656	-0.3004160327345288	0.4036925712499554	57.82952673230878
6	3.0	ltm	292	diff_vonmises	0.1550783232752744	8.885333417638625	2.650355889190052	0.9840715942214079	0.34133070865888376	1.707867327099965	0.22862486873502663	-0.22268845585255628	0.4513133245875829	74.50403685619261
7	3.0	perception	292	diff_vonmises	0.05269304241019509	3.0190889398080336	5.036749958903384	1.7239007631447603	1.7346022794380098e-15	2.4162033198142145	1.1161514164261455	-0.38448739813199034	1.5006388145581357	60.83150448401389
8	3.0	wm	292	diff_vonmises	-0.0005750554128487645	-0.03294824814238734	2.4953001669929407	0.9695278540409665	0.26312528260594314	1.935571323050491	0.17684124409593688	-0.2587484067642977	0.4355896508602346	77.18473006003154
9	4.0	ltm	292	diff_vonmises	0.3961051903678059	22.695155651301306	0.23201402403843735	139.41133505201043	0.22228053112843196	140.80781448841495	-0.03680484239615822	-0.3648350277413961	0.32803018534523787	148.36060719584012
10	4.0	perception	292	diff_vonmises	-0.09034962158631661	-5.17665199750002	3.0433274752175468	2.165022056489346	0.03610199142762506	4.157930504056302	0.7437425508836005	-0.6369464784691856	1.3806890293527863	77.31999316603262
11	4.0	wm	292	diff_vonmises	0.0023089915621067143	0.13229547144003384	0.9380324067471925	206.02290296268126	0.9229870723946619	208.02898402543005	-0.06680382774712257	-0.429888099874308	0.3630842721271854	80.61530830958242
12	5.0	ltm	292	diff_vonmises	0.1403448342165246	8.041166677070086	1.9540243773500496	1.0559045733247274	0.06102193595814979	2.0301336834559844	0.19399758480675683	-0.29291093299456356	0.4869085178013204	94.42171018653644
13	5.0	perception	292	diff_vonmises	-0.01791223392868589	-1.026295405764739	2.256198255146427	2.377126213437554	1.926031260874622e-13	2.9690100277641127	0.8458756176668685	-0.4580668635102433	1.3039424811771116	91.52938087597528
14	5.0	wm	292	diff_vonmises	0.015476435516976665	0.8867344370291312	0.6248702085968741	176.92276638532573	0.6123623008500347	177.81680004174092	0.18005193463702795	-0.29458004180269093	0.4746319764397189	110.01205476096672
15	6.0	ltm	292	diff_vonmises	0.3995018292793271	22.88976872546138	0.6961114852452437	115.377749003463	0.6827447896915235	116.02905524919301	0.11061246635570399	-0.19583006686491977	0.30644253322062376	103.34521709325665
16	6.0	perception	292	diff_vonmises	-0.16539369644143703	-9.476360764162244	1.4403706514996204	2.0231594845322376	5.1957818239023985e-17	2.5080539025173287	0.45589175094636064	-0.3512013265383678	0.8070930774847285	112.25513206472412
17	6.0	wm	292	diff_vonmises	-0.0356650727435346	-2.0434581442316007	0.6843938419364398	152.03599910743236	0.6704928951459558	152.84833272346862	0.1757866328512776	-0.263912951801192	0.4396995846524696	105.22747997398656
18	7.0	ltm	292	diff_vonmises	-0.014307937968366189	-0.8197844591223682	1.918174031847257	2.0008194464079585	0.5935847362523956	3.4045772571966513	0.10643408377903385	-0.3494527143216932	0.4558867981007271	75.56726950435717
19	7.0	perception	292	diff_vonmises	-0.00861480034096584	-0.49359170088520515	1.0781029705269334	354.98918260425256	1.0616381798837962	356.14141601096986	0.6908648564904354	-0.5005003838466848	1.1913652403371202	86.45258754707424
20	7.0	wm	292	diff_vonmises	0.2133392849566323	12.223440632353844	4.143765388710431	0.5926046149249212	1.4595722309333597e-32	2.128436755956371	0.12571090659784928	-0.3386343484551908	0.4643452550530401	67.23067660542924
0	1.0	ltm	293	diff_vonmises	0.08471624800399584	4.853883466812546	1.8266889961477755	1.3545333881219166	0.44802339125246043	3.3446774487424635	-0.13150059300680905	-0.4020267521890889	0.27052615918227985	74.04002300193741
1	1.0	perception	293	diff_vonmises	0.08698533422326607	4.983892530528027	8.928756548182179	0.8406272485546065	0.13894842095887858	2.8843966468368873	0.46231812199972677	-0.4790693085104137	0.9413874305101404	44.27416407814252
2	1.0	wm	293	diff_vonmises	0.07496352523419793	4.2950936133419875	4.038315564364425	0.3684739404339138	0.08221534880924722	2.6237488803827023	-0.16783345462098592	-0.41287198877914244	0.24503853415815652	63.09835923313233
3	2.0	ltm	293	diff_vonmises	0.09062639238366485	5.192509796080544	3.2385407872892906	0.7353006914902395	0.3986483436967999	1.6686787297663417	0.12251585425174372	-0.23903180187834228	0.361547656130086	65.9534601141329
4	2.0	perception	293	diff_vonmises	-0.015782102639318958	-0.9042478730752537	8.496687961755084	1.0994723196921066	0.1331905829868966	2.0108434711966803	0.894595974575469	-0.32880167084629064	1.2233976454217597	45.863988677609655
5	2.0	wm	293	diff_vonmises	0.110209073961184	6.31451480202098	7.118001785286074	0.3224094990683595	0.07229640486281085	1.6115891807072695	0.0612916150847036	-0.25949121320543705	0.32078282829014065	49.64868811893595
6	3.0	ltm	293	diff_vonmises	0.24004010499213305	13.753284929926387	3.5497772778810637	0.5363358288519435	0.359564484709919	0.9896280012569597	0.1675911628141611	-0.1422966316968454	0.30988779451100645	65.67628335623019
7	3.0	perception	293	diff_vonmises	0.033272741705351286	1.906387672545546	6.537617922013668	1.3865044369429709	0.06608689696908682	1.9375682655821707	1.055947337430832	-0.3062964446059708	1.3622437820368027	52.734501080330546
8	3.0	wm	293	diff_vonmises	0.05170552852480753	2.962508561964761	5.958346681951348	0.40957621101196895	0.29440855586531955	1.2962645397054404	0.11867953163102862	-0.21622844850736178	0.3349079801383904	51.76774224253995
9	4.0	ltm	293	diff_vonmises	0.18283027667073867	10.475403220442482	1.0060519186448285	162.30603604712846	0.9937557357869614	163.58380925535147	-0.057594292304457895	-0.2739703085150964	0.2163760162106385	76.85935653387705
10	4.0	perception	293	diff_vonmises	-0.06153957271949821	-3.5259577898656653	3.7617147596231963	1.6269393203159557	8.079602471912211e-22	3.246372478399832	0.6926429356085075	-0.5160226920730744	1.208665627681582	70.65947178785206
11	4.0	wm	293	diff_vonmises	-0.06441201441682766	-3.6905365760200373	1.078239440563118	185.3539780229007	1.062341304696419	187.24668401350496	-0.11542586768784702	-0.4064111513337103	0.2909852836458633	73.06614927949948
12	5.0	ltm	293	diff_vonmises	0.05208924684287481	2.9844940021118744	1.9420966388898313	0.9078427336510191	0.028291171724143763	1.9069038672407073	0.14794990570347344	-0.28550682357613694	0.4334567292796104	96.50795258880311
13	5.0	perception	293	diff_vonmises	-0.008118659929066569	-0.4651649492374947	2.946046452367232	1.742140642792526	7.554954550274135e-18	2.5079878349294633	0.7299988848585459	-0.39604023518173465	1.1260391200402806	80.07818121763998
14	5.0	wm	293	diff_vonmises	0.03149170962906132	1.8043420513967088	0.5706253683890009	182.16350779185794	0.5587788246574221	183.29984981028875	0.1139869859648428	-0.3254773824602175	0.4394643684250603	112.73930957367374
15	6.0	ltm	293	diff_vonmises	0.267354792118632	15.3183012209951	0.6618561628980869	126.20648618170814	0.6471417558295384	127.06435794536141	0.11757242862821471	-0.2487873317610667	0.3663597603892814	105.37965910176925
16	6.0	perception	293	diff_vonmises	-0.07278911477556892	-4.17050907113344	1.5489551850217893	1.7962961955524337	3.049179260739582e-19	2.657498930930183	0.3704159827962542	-0.3871381478686573	0.7575541306649115	108.94300260568353
17	6.0	wm	293	diff_vonmises	0.02362337136344049	1.3535194769953494	0.6262900466984685	199.15923018470872	0.6129396303713497	200.21917245804693	0.22006342167082238	-0.35247391896320934	0.5725373406340317	110.04291690687741
18	7.0	ltm	293	diff_vonmises	0.08768520650478379	5.0239922584571834	0.8969362032099096	226.00846252956583	0.8838930094558654	227.5361559370381	0.07336194472136981	-0.36606027184651424	0.43942221656788405	86.91447699436478
19	7.0	perception	293	diff_vonmises	0.011504795927510749	0.6591762508056633	2.2255941456229054	2.109503746809877	0.20395687335634463	3.67165620131574	0.4512594291179103	-0.4816394989644157	0.932898928082326	83.66508779509778
20	7.0	wm	293	diff_vonmises	0.3502483840192904	20.06775418558265	4.446640576768671	0.5838784684788018	0.08111265167172946	2.1341336280822003	0.10769796978795804	-0.33356028841885055	0.4412582582068086	62.27530915500472
0	1.0	ltm	294	diff_vonmises	-0.015108780805233476	-0.8656693737281477	2.4664281174039724	0.8037074158048183	0.367370798847383	1.1419865242885758	0.2161167548414969	-0.13896092363549215	0.355077678476989	77.62195670216829
1	1.0	perception	294	diff_vonmises	-0.0050215305917215	-0.2877125096014729	13.691767877160338	0.5130074214921527	2.088382473172125e-14	0.9947431666026235	0.591690382052322	-0.15831829207072806	0.7500086741230501	36.625963988723385
2	1.0	wm	294	diff_vonmises	0.1729562782418533	9.909664783548545	2.7439596353808082	0.4664142382698301	7.2816569524285e-15	0.8693679576723542	0.1518587374371239	-0.13716370924832297	0.28902244668544685	83.0002484210053
3	2.0	ltm	294	diff_vonmises	0.0034938764692803307	0.20018437582983237	4.052077444224268	0.5640806580622939	0.7058248617149248	0.5507168390255257	0.27943584604383787	-0.07244982513772802	0.3518856711815659	61.781627184035045
4	2.0	perception	294	diff_vonmises	-0.03928441220195708	-2.250831019824374	7.6393219488174315	0.9141852092288263	4.77704369630499e-21	0.9292283117955682	0.8424536286716225	-0.1478910497751405	0.9903446784467631	49.197506177486105
5	2.0	wm	294	diff_vonmises	0.026013291601454325	1.4904518200064432	7.1213992655250875	0.32368521269471684	0.28502114900101755	0.5241113908301459	0.2293139125852981	-0.08703411252740041	0.3163480251126985	49.21950395097576
6	3.0	ltm	294	diff_vonmises	0.1680684374680358	9.629612136276842	1.501769004635725	91.89053654886561	1.4860903342105547	91.8392045051815	0.2744399713443073	-0.07930050482641082	0.35374047617071813	77.92520633850128
7	3.0	perception	294	diff_vonmises	0.003416014063077171	0.19572318857165807	5.6199183775937875	1.3838022473117646	0.1800379707078511	1.531820763359569	0.9871293279913539	-0.2381096376715137	1.2252389656628675	56.22159056249794
8	3.0	wm	294	diff_vonmises	0.068993320156004	3.9530260595339035	2.8492077895375365	1.5851578630210381	1.2461902150581936	1.8228076821765693	0.3014128755591531	-0.15857386338962395	0.45998673894877706	63.55784416512009
9	4.0	ltm	294	diff_vonmises	-0.11308531796318712	-6.479311444185577	1.9145489874886419	142.00398208604682	1.8987862464627072	142.38602432128587	0.16587997813566346	-0.1635258484327089	0.32940582656837236	62.77426388120941
10	4.0	perception	294	diff_vonmises	-0.10215075477723548	-5.8528071228114245	2.879777338439766	1.897789103959098	0.013117811471293678	2.5336036151774657	0.8056763491550878	-0.3941354952813341	1.1998118444364219	80.59878904634999
11	4.0	wm	294	diff_vonmises	-0.06791609436478205	-3.891305568114245	1.449205989574562	174.21565417090875	1.4313002948721654	175.33696753398507	0.08025847870578673	-0.30956069852277324	0.38981917722855997	68.14776016835376
12	5.0	ltm	294	diff_vonmises	0.04139525798243722	2.371773574248884	1.557026853597674	1.0823072024247393	4.755773249997867e-13	1.1257459210440506	0.3003533065067855	-0.15786604356215528	0.45821935006894077	108.70648915463539
13	5.0	perception	294	diff_vonmises	-0.021944597919423197	-1.2573328438945166	2.8194137801293637	1.4326879969310193	4.316720337860486e-20	1.370812037907764	0.6873574628243841	-0.2149503291909703	0.9023077920153544	81.88122376919156
14	5.0	wm	294	diff_vonmises	-0.045006243001934135	-2.5786677757510224	0.6854982569359906	101.5702875377601	0.6722067352357289	101.63127854021364	0.24000310989527307	-0.13316628947047615	0.3731693993657492	112.31397601618228
15	6.0	ltm	294	diff_vonmises	0.349707440073948	20.036760380561372	0.739297658186337	62.43354629561264	0.7248505391505962	62.40717540895912	0.17974691947373245	-0.07967699188160271	0.25942391135533516	109.74307099750686
16	6.0	perception	294	diff_vonmises	-0.10971342080001024	-6.286115967783407	1.828662657209943	1.72579027273334	0.16865591020807796	1.8037215859612057	0.5058205797669513	-0.21905037066669378	0.724870950433645	95.60548542263692
17	6.0	wm	294	diff_vonmises	-0.06502466636884491	-3.725638947181077	0.8841453757528037	120.01451566453571	0.8661534878781186	120.25595247810217	0.33532155854633316	-0.1885145698138171	0.5238361283601503	97.9532101459301
18	7.0	ltm	294	diff_vonmises	-0.043948663959324716	-2.5180729601080163	1.125375085501611	59.60102565794835	1.0840425951265895	60.06117212061291	0.2963835563301842	-0.20632078226627737	0.5027043385964616	85.25353271054857
19	7.0	perception	294	diff_vonmises	0.016281265816659993	0.9328478164252352	3.500063179242723	1.3402001625856343	2.557899590221637e-18	2.2085548943290956	0.6058529354567987	-0.3506295395378946	0.9564824749946934	73.31725514903178
20	7.0	wm	294	diff_vonmises	0.3184408917264846	18.245319120309983	6.218730681551014	0.5596186691388922	7.548048771763638e-21	1.0729340277791521	0.37377858047435697	-0.1707605936064164	0.5445391740807733	54.62413410937967
0	1.0	ltm	295	diff_vonmises	0.06749668892869892	3.8672754067218382	0.9385126775155639	223.36241935278093	0.9220673806233549	226.00689159086764	-0.1660873159694205	-0.5451212912024523	0.37903397523303184	78.2157552018947
1	1.0	perception	295	diff_vonmises	0.13609141896245142	7.797463934495127	11.827403389584894	0.5675893536695817	0.02721061374060086	3.3249305642251894	0.22643522863513055	-0.5344500155933545	0.760885244228485	39.15193021106495
2	1.0	wm	295	diff_vonmises	0.05453593327993676	3.1246788087474253	6.0389884590665615	0.37461581932099886	0.13042911030325388	3.208000431410232	-0.2202671824125239	-0.5262446913129756	0.30597750890045167	51.158531462750034
3	2.0	ltm	295	diff_vonmises	-0.10610938102101831	-6.079619699249907	1.1777205281015894	73.20273274514531	1.134213055936829	74.33457460201225	0.17670274609135106	-0.31915915956470364	0.4958619056560547	78.59499787689805
4	2.0	perception	295	diff_vonmises	-0.014405995496120691	-0.8254027416121881	6.631847589885243	1.1852510494593846	0.19551624748959778	2.716778355601261	0.672088810407722	-0.44281683817403034	1.1149056485817523	50.97902642116608
5	2.0	wm	295	diff_vonmises	0.14991218304528942	8.58933538608774	7.02417383718824	0.3112522485065	0.08639236653778518	1.9292632734669706	-0.011392792164939325	-0.3125694213116219	0.3011766291466826	49.457800770745365
6	3.0	ltm	295	diff_vonmises	0.11643209290195018	6.671067523156855	1.207417301689806	178.44860217751778	1.191027511925969	179.28915814577718	0.2230099754467716	-0.26790776397180593	0.4909177394185775	78.80231401056997
7	3.0	perception	295	diff_vonmises	0.051200694936222244	2.93358372798238	4.560571399535838	1.9305369835917048	0.2530451116205432	2.963359131786481	0.9957616177710563	-0.4497763280202264	1.4455379457912827	60.856878712244736
8	3.0	wm	295	diff_vonmises	0.482407432185394	27.639909869966548	0.6510530819756718	91.70330918527543	0.6309504779574282	93.13088170872506	-0.03733897047725421	-0.30549157202377053	0.2681526015465163	98.70346293283242
9	4.0	ltm	295	diff_vonmises	0.32357532674923745	18.53950057729788	0.6804890793288259	209.88168917706003	0.6694285194294122	211.8179428640209	-0.09781060023878752	-0.3934939809900726	0.2956833807512851	93.71353203756621
10	4.0	perception	295	diff_vonmises	-0.10010275393905707	-5.735465318344547	3.024596763354009	2.082344690852273	0.12423166643605608	3.970144756233372	0.6574651108429299	-0.5796217746438737	1.2370868854868036	74.98825311021398
11	4.0	wm	295	diff_vonmises	0.10457698367912414	5.991819799022306	5.674366019109548	0.4132639536320666	2.7462231333634317e-33	2.7589686326534157	-0.055876402507333944	-0.43909897961183275	0.3832225771044988	57.235890010215854
12	5.0	ltm	295	diff_vonmises	-0.05442799754092934	-3.1184945464436744	1.5631184100033728	1.7903781931887375	0.19481023627493677	3.507418400506369	0.12324701420442863	-0.4268947452167717	0.5501417594212004	94.98900909119521
13	5.0	perception	295	diff_vonmises	-0.03443347274980957	-1.9728926625428176	2.2805095903012735	2.609888156890523	0.14813445844629275	4.179309504755232	0.6896302157230554	-0.5673817373051553	1.2570119530282107	85.12035982016033
14	5.0	wm	295	diff_vonmises	-0.16988451588186318	-9.733665764653965	0.5787528996647168	223.2209288692241	0.5677781379311677	224.986803079756	0.004185564576317802	-0.4096168193747012	0.413802383951019	107.09200157147154
15	6.0	ltm	295	diff_vonmises	0.0649754690287077	3.7228201472279454	0.44664566572969205	207.65924145961	0.4361680053950521	209.51509721029367	-0.03333690294341807	-0.4401700189493596	0.4068331160059415	121.41847527302332
16	6.0	perception	295	diff_vonmises	-0.17842673175866347	-10.223098682084265	1.3496876941341707	2.277258436139835	8.342240946090394e-19	4.044784415319051	0.28185221780971614	-0.581501894173007	0.8633541119827232	115.22389391993582
17	6.0	wm	295	diff_vonmises	-0.05360715268901063	-3.0714636007936913	0.7338026229789795	105.097009331659	0.7002521314662934	106.8514455362849	0.17319103431500338	-0.4650019995302852	0.6381930338452886	99.35832508624516
18	7.0	ltm	295	diff_vonmises	-0.045813391787023997	-2.6249139945757833	0.8522867887300284	242.9536688310438	0.8357540601879425	245.39864461911583	0.007447058106876625	-0.5463080079791922	0.5537550660860688	87.2136537376843
19	7.0	perception	295	diff_vonmises	-0.0548769984353835	-3.144220402693497	1.126256841794622	327.9069783566374	1.103094194788344	330.3051805218863	0.553418381276586	-0.7314159684756092	1.2848343497521952	81.41334853419536
20	7.0	wm	295	diff_vonmises	0.304790165899682	17.46319014314396	7.73291953005117	0.8500634596894407	0.1864748835960175	3.297790690053522	0.29956677874269244	-0.5526853059507524	0.8522520846934448	46.78221861545046
0	1.0	ltm	296	diff_vonmises	-0.018022657250514395	-1.0326221960653272	2.5032473839829885	0.6823998072882582	0.11489215546060924	2.2628704527847963	-0.00017914333268570504	-0.331263910342995	0.3310847670103093	79.24917520443424
1	1.0	perception	296	diff_vonmises	0.029659969050847584	1.6993910471022087	15.38407217944326	0.5474613044810841	8.989882460670349e-21	2.3185898347578178	0.4802730969335546	-0.36901503320429063	0.8492881301378452	34.53788898290739
2	1.0	wm	296	diff_vonmises	0.07683795944610065	4.402490782658944	4.489034690705832	0.3487986567169041	1.4543489529907333e-18	2.247091541662257	-0.072185227261583	-0.35759970997571616	0.28541448271413317	64.53086704789959
3	2.0	ltm	296	diff_vonmises	0.0010079196058087204	0.05774953950132929	3.2587722624110773	0.5301987872688969	0.008081110753719152	1.4047458940654425	0.1385282340844377	-0.22123173760482756	0.35975997168926527	75.60461492905671
4	2.0	perception	296	diff_vonmises	-0.03154777218266837	-1.8075541991071187	7.797488595513523	1.0134576524134427	0.14019869035241986	1.9740689132132834	0.7499590141290775	-0.3214750162174659	1.0714340303465435	47.73736478545075
5	2.0	wm	296	diff_vonmises	0.07788059464816265	4.462229379308866	6.549639263548087	0.3154852181074175	0.03516191838353915	1.546493365847682	0.060526715276783605	-0.2461578420842503	0.3066845573610339	52.35938233013516
6	3.0	ltm	296	diff_vonmises	0.13694862860240561	7.846578429022432	1.1162837237243044	149.15268262839643	1.1019668475570294	149.73796811999313	0.18812209857808426	-0.19639618245778756	0.3845182810358718	82.77977859623101
7	3.0	perception	296	diff_vonmises	0.01417503129972693	0.812169467940195	4.9369097571152585	1.8162765734072626	0.29414304126954166	2.504103070259266	1.040839819680403	-0.3841196211291987	1.4249594408096016	58.56390657642817
8	3.0	wm	296	diff_vonmises	0.08705320670471656	4.98778133726022	3.205665103610504	0.7617780408719658	0.4173004455624368	1.8389116471776128	0.09253722761934663	-0.2648600956863342	0.3573973233056808	65.29276305598034
9	4.0	ltm	296	diff_vonmises	-0.02582347707902128	-1.4795762489807385	1.2118347578990871	261.0401458415435	1.200888924360057	262.3294596482615	0.038227293536067464	-0.31840552940004585	0.3566328229361133	73.45909026366712
10	4.0	perception	296	diff_vonmises	-0.05780890755888017	-3.3122064213857563	2.3242364993350146	2.6229254120725116	0.2927884241464596	3.9311353480353053	0.6598419154065509	-0.4888260692521015	1.1486679846586525	80.77204752663997
11	4.0	wm	296	diff_vonmises	-0.033954078593925005	-1.9454254006873954	0.9626843494237486	184.40272284180057	0.9470561193630064	186.28264290944182	-0.07641595127908118	-0.4009851317179205	0.3245691804388393	79.01892061072604
12	5.0	ltm	296	diff_vonmises	0.07397634175671418	4.23853216647712	1.381564392873294	1.937267667052662	0.2942534670723387	2.898742431526287	0.19250390920148508	-0.2912496545667709	0.48375356376825596	97.47987016161292
13	5.0	perception	296	diff_vonmises	0.01305102805755132	0.7477688260045116	2.6905212668846343	1.689862058647861	4.461902806022466e-16	2.612505940836368	0.623769791945219	-0.41100785477898394	1.034777646724203	83.84296880580288
14	5.0	wm	296	diff_vonmises	-0.1285505828720524	-7.365405852515331	0.5343922411335386	188.54431683836137	0.5239587751015243	189.74760151882538	0.06694176020516807	-0.3222050162109831	0.38914677641615114	114.89866386143636
15	6.0	ltm	296	diff_vonmises	0.11570088907006365	6.629172629625963	0.43958342649052307	107.08219204502075	0.4263260849878219	108.0822892531601	0.02913988191373562	-0.2688640387933141	0.29800392070704973	125.23149368317539
16	6.0	perception	296	diff_vonmises	-0.11408831959281972	-6.536779204408268	1.8915829779588698	1.4643187980638306	8.067679331564817e-14	2.7155115391988387	0.2981102419027032	-0.41557036427217103	0.7136806061748742	99.58556355564156
17	6.0	wm	296	diff_vonmises	-0.09455615524500623	-5.417668622522659	0.60105102947674	150.03823409430245	0.5839886208816019	151.37544915367005	0.1330985275537131	-0.37547415492304026	0.5085726824767534	109.8857306291365
18	7.0	ltm	296	diff_vonmises	0.0034854570686900796	0.19970197970998102	0.996113444955661	194.75661529995307	0.979570445051052	196.14583805519214	0.1407693638956573	-0.36004450788649933	0.5008138717821566	84.03720596416196
19	7.0	perception	296	diff_vonmises	0.029293723535459743	1.6784067248048917	2.9100398425576657	1.41182547424695	5.249861733159269e-16	2.9158076059268607	0.44462901788635123	-0.4613685156296967	0.905997533516048	80.5758173370761
20	7.0	wm	296	diff_vonmises	0.246129010280185	14.102153504786651	7.471351053808725	0.46496260650651544	7.217657920119565e-17	2.039147925401839	0.17340506152532847	-0.32454031071410533	0.4979453722394338	49.75248650261747
0	1.0	ltm	297	diff_vonmises	-0.04308492556022435	-2.4685843952361792	0.9058922065174765	205.82146350999614	0.8901665047204095	207.87591729628832	-0.04269279672553239	-0.4455129361033343	0.4028201393778019	82.98809789622356
1	1.0	perception	297	diff_vonmises	0.04862894164762335	2.786233118596774	12.421187810793155	0.5823462010456848	1.2828559436313903e-22	2.66501981062895	0.3860109837164103	-0.4241510762862496	0.8101620600026599	38.46797340286952
2	1.0	wm	297	diff_vonmises	0.08712995520949866	4.992178702668174	6.312838569083986	0.3154831453807225	3.017335999047519e-09	2.517683472176066	-0.09127317704730209	-0.4007007515809172	0.30942757453361514	54.20453391067329
3	2.0	ltm	297	diff_vonmises	-0.07964867618984166	-4.5635329894820575	2.6690592127137966	0.8619182645123196	0.1720604179010463	1.9935614298528186	0.15366362145231788	-0.2829303055990984	0.43659392705141625	76.93020564678682
4	2.0	perception	297	diff_vonmises	-0.032806783320585765	-1.8796902236697488	7.154574422385579	1.0908761507184161	0.12194128955578235	2.346096072581159	0.721967807770084	-0.3783138865033886	1.1002816942734726	49.80420514703016
5	2.0	wm	297	diff_vonmises	0.049931908108910295	2.8608875976756116	5.3909914509545915	0.38712875606615577	0.08065578293698625	1.826465534665897	0.03479497186341268	-0.29026573133440187	0.32506070319781455	56.49997854752246
6	3.0	ltm	297	diff_vonmises	0.08911895907344315	5.106140229507406	1.1197407925782716	205.01293349125862	1.1077457172757852	205.74785944187855	0.19360760480975614	-0.23217579760559914	0.4257834024153553	81.90575956417933
7	3.0	perception	297	diff_vonmises	0.038018271627121535	2.178286508616029	4.516664337522975	1.9892830965901005	0.28655263498049444	2.708073722759588	1.0711095258910235	-0.40652535095818776	1.4776348768492111	61.09534971593837
8	3.0	wm	297	diff_vonmises	0.07555403178824756	4.328927146663845	2.163761588133948	1.036312459564478	0.38480038545091805	2.1573061892671963	0.07423000414598213	-0.26687085322723925	0.3411008573732214	76.76441028319039
9	4.0	ltm	297	diff_vonmises	-0.038079782725059595	-2.181810834921096	0.8381376008325663	214.15000768619035	0.8275246465987685	215.5941226558964	-0.012235285732046464	-0.31670900281826064	0.3044737170862142	87.13183402647115
10	4.0	perception	297	diff_vonmises	-0.06460105290219278	-3.7013676833970046	2.0892906355480068	3.3681507693872073	0.39573561501495647	4.899867944532846	0.6695510641630402	-0.5485633663458714	1.2181144305089115	81.69917095663709
11	4.0	wm	297	diff_vonmises	-0.015874367995736643	-0.9095342885932572	0.8432629789987771	163.70850223519665	0.827021152936185	165.62179628362065	-0.08328761889571723	-0.3975786585791994	0.31429103968348215	84.43510027380003
12	5.0	ltm	297	diff_vonmises	0.12825787126597674	7.3486347128727	1.3969167498489317	2.2650713142701595	0.3740591384098453	3.4540951377732285	0.1679545531115555	-0.3248282654633188	0.49278281857487427	92.89878525028413
13	5.0	perception	297	diff_vonmises	0.016508794924921175	0.9458842740449761	2.6060423465742417	1.9635297262423796	1.3071392382898508e-22	3.0739719786716124	0.6964848892807789	-0.482775276175822	1.1792601654566008	85.20034618683331
14	5.0	wm	297	diff_vonmises	-0.11602920686173557	-6.64798385342782	0.5053757177426628	203.09248172939255	0.49517653036230613	204.4310076711678	0.05809567823485651	-0.35578449481962693	0.41388017305448344	117.69671073290189
15	6.0	ltm	297	diff_vonmises	0.018329556353968213	1.0502062194295798	0.35499022604963176	103.23020218083758	0.3422801806889242	104.42615904122785	-0.022523389294100582	-0.2988266367585446	0.276303247464444	134.1188594977266
16	6.0	perception	297	diff_vonmises	-0.18185004772541008	-10.419240238918594	1.6612031548892265	1.701545599380834	1.2107080734420674e-21	2.9712361135635748	0.3112697398977465	-0.44460305111804205	0.7558727910157885	105.5978447668584
17	6.0	wm	297	diff_vonmises	-0.165030832992805	-9.455570220016067	0.5893369221953515	148.15504750829282	0.5723985965516415	149.56216366268046	0.10769216415717864	-0.3804793908205433	0.4881715549777219	110.2061130856552
18	7.0	ltm	297	diff_vonmises	0.007563732675927437	0.4333699596958346	1.052961034613059	176.8107757954378	1.034622342501456	178.25884243351234	0.10654223784788996	-0.3642230744896011	0.4707653123374911	80.8224960070321
19	7.0	perception	297	diff_vonmises	-0.007179858684632004	-0.41137560012976454	2.662923210130135	1.8183573146806173	0.10455329962618415	3.2475222961962293	0.5396233827031705	-0.4687569159145031	1.0083802986176735	80.29512168628293
20	7.0	wm	297	diff_vonmises	0.23638582218010765	13.543909947650132	7.158886621151015	0.47080247646147694	1.859963123670809e-14	2.1468510448203886	0.15133077160986164	-0.3416816573782923	0.49301242898815395	50.85185467849979
0	1.0	ltm	298	diff_vonmises	0.10814692363377505	6.196362291538927	1.334327261269389	64.55678226536396	1.304666711464487	65.06550046036898	0.1442380517851447	-0.16789300755154724	0.31213105933669194	75.12282355540361
1	1.0	perception	298	diff_vonmises	0.08032813138753062	4.602462904677862	6.870768338477643	0.7272644394935369	0.2186402575661912	1.2581428274174746	0.49926400275989313	-0.20523783436207743	0.7045018371219706	50.357232783822724
2	1.0	wm	298	diff_vonmises	0.1898385814857496	10.876949507883822	3.710905769694437	0.33978754387756765	2.8257831450969796e-18	0.8400611106712594	0.11701245007574759	-0.13354993349126812	0.2505623835670157	71.14693848602462
3	2.0	ltm	298	diff_vonmises	0.05701373499717108	3.2666463896152194	2.498783118308624	82.16543468559017	2.4700088353741543	82.20661558011527	0.30450077173765067	-0.11924789987137352	0.4237486716090242	58.54320450788663
4	2.0	perception	298	diff_vonmises	-0.02167688165205252	-1.241993831667181	7.453835986850878	1.00767749702658	3.116402957793532e-22	0.9530042856022625	0.92610917355804	-0.15167498120673134	1.0777841547647713	49.815230355402605
5	2.0	wm	298	diff_vonmises	0.05995561702323914	3.435203813534315	6.989076097469786	0.36271192719832196	0.4761700248537176	0.6308091529873133	0.22227296283700282	-0.10959198678459452	0.33186494962159735	48.42034220346835
6	3.0	ltm	298	diff_vonmises	0.24610047840869367	14.10051874896859	1.9911708614939791	49.106943414892015	1.9591536732206796	49.03394961340324	0.2837975290990613	-0.07463257539896873	0.35843010449803003	67.94163939626173
7	3.0	perception	298	diff_vonmises	0.01968200137626083	1.1276956112304233	6.391020973908897	1.2039989748295368	6.828714468478792e-13	1.3115522803081223	0.9797750752258734	-0.20873668775180795	1.1885117629776814	53.8664987358799
8	3.0	wm	298	diff_vonmises	0.08422190526888605	4.8255597144578015	4.997324329057288	0.6067249327867771	0.6970540473072686	0.8199886956194373	0.29307775396431757	-0.1275996328070156	0.42067738677133315	55.19842599567568
9	4.0	ltm	298	diff_vonmises	-0.14503293560431238	-8.309775100519749	1.937597468826237	54.201823680655465	1.906054088602948	54.555565939457985	0.09436549580185627	-0.13402709718388017	0.22839259298573644	61.20170295082224
10	4.0	perception	298	diff_vonmises	-0.1242515709783867	-7.119090614931743	3.2687733223296846	1.8792236217376572	2.4027733109852955e-16	2.7572567424705805	0.853222663727017	-0.43696007234351125	1.2901827360705282	75.92871256369003
11	4.0	wm	298	diff_vonmises	-0.10142570662662743	-5.811264923837818	1.5795404587836968	183.91268250360636	1.5615037307905844	185.03415845459728	0.07388054358129637	-0.32098846585359553	0.3948690094348919	64.9657065664712
12	5.0	ltm	298	diff_vonmises	0.012415335743778058	0.7113463393563976	1.496213596683857	1.0287800283738686	1.537436548485136e-21	1.1006383152134067	0.26975689319165225	-0.15285108678554918	0.42260797997720145	110.57652506366932
13	5.0	perception	298	diff_vonmises	-0.05577556736952511	-3.1957046102213797	3.003033484519678	1.5087430554641457	2.3338202922294872e-21	1.1799164281260968	0.8009253788498425	-0.18535349117481292	0.9862788700246554	79.29424622124873
14	5.0	wm	298	diff_vonmises	0.03922813477594599	2.2476065608320788	0.7887829008834443	82.14450147614295	0.7726819181463687	82.10852039277744	0.2633093760814553	-0.11130630976412892	0.37461568584558425	106.4995269876712
15	6.0	ltm	298	diff_vonmises	0.39534054257218165	22.651344559798055	0.8537438600362568	65.7660561204295	0.8392242810668894	65.58126987351166	0.2397109622596254	-0.06555168493414953	0.30526264719377494	105.64106340818586
16	6.0	perception	298	diff_vonmises	-0.11723422465726435	-6.7170262873497775	1.7218887542586416	1.7881365399129954	0.11606660009222385	1.4286299397390665	0.5877838797621451	-0.17487033986489697	0.762654219627042	100.92330676306557
17	6.0	wm	298	diff_vonmises	0.0018721141521072804	0.1072642396824598	0.9872714634249352	89.85370029763506	0.9656567753713812	89.86054975038988	0.36581782114362227	-0.1430421640672348	0.5088599852108571	95.0832365745361
18	7.0	ltm	298	diff_vonmises	-0.021152503948891812	-1.2119492024053085	1.198066012762962	4.6514197041796175	0.715667860631052	5.234046488374358	0.2568302627181229	-0.22334473537697103	0.48017499809509395	90.86834973207809
19	7.0	perception	298	diff_vonmises	-0.025736573969198977	-1.4745970675613584	2.386345948648101	2.6337486591493944	0.39837067500581896	3.5214467972247006	0.7075315863675389	-0.41148657173899483	1.1190181581065337	78.49080982856077
20	7.0	wm	298	diff_vonmises	0.3560983613227367	20.402933195317445	6.606093225769455	0.5653290081114527	4.594380206715815e-19	1.088934944774669	0.3944163058192437	-0.17330834091920438	0.567724646738448	52.97164731256572
0	1.0	ltm	299	diff_vonmises	0.06448305358154134	3.694606820338266	0.8877981157430616	173.07056755537272	0.8688326549379544	175.6635081982976	-0.1956682962504459	-0.5194528785079058	0.3237845822574599	79.19449615091051
1	1.0	perception	299	diff_vonmises	0.1251010678224416	7.167763198805772	11.960659469540724	0.5946311983590843	0.024975538883808497	3.2603782442787046	0.2795113075772333	-0.5235595846592292	0.8030708922364626	38.9679293815656
2	1.0	wm	299	diff_vonmises	0.027950301660407028	1.6014343212588198	5.661028868771429	0.38064034672789415	0.1430564026481196	3.256049814687701	-0.24237778749291494	-0.5342964497772286	0.2919186622843136	52.20423478021061
3	2.0	ltm	299	diff_vonmises	-0.07255384372518142	-4.157029032904626	1.5642149198199202	3.1238904455079726	0.7271713456981184	4.328287702455288	0.13389554562067896	-0.31586869948383217	0.44976424510451113	78.96339258264581
4	2.0	perception	299	diff_vonmises	-0.008350480243484545	-0.4784472748590405	7.047397973952439	1.198552005483159	0.20956642398251543	2.7920886320266787	0.7028443525783497	-0.4602934149850705	1.1631377675634202	49.42933661665421
5	2.0	wm	299	diff_vonmises	0.16897262481915443	9.681418255385054	7.413142834489356	0.2904631499455068	0.05982217919468434	1.9947458032140026	-0.02696966667593953	-0.32140017673833177	0.29443051006239224	48.56900961869428
6	3.0	ltm	299	diff_vonmises	0.14336521301920233	8.214221634994296	1.2291954992007215	141.80192092604327	1.209891317764352	142.6256038217504	0.19035931641025883	-0.25412232725721573	0.44448164366747456	77.64396490239733
7	3.0	perception	299	diff_vonmises	0.04899826665825757	2.807393882974739	4.8136851955238305	1.897805397801776	0.25656426632293655	2.9106712853222736	1.0235718903400413	-0.44670565767691034	1.4702775480169517	59.339128364880565
8	3.0	wm	299	diff_vonmises	0.4765634098097095	27.30507205245981	0.6326135185937071	88.1301752851151	0.6138394240869297	89.55289924827527	-0.06772724190901158	-0.2918988235481379	0.22417158163912632	98.10808884340742
9	4.0	ltm	299	diff_vonmises	0.31467429203800334	18.029508855044718	0.7348220823614755	199.43342911960596	0.7228676002538025	201.3879686397627	-0.10980292218414434	-0.3935653253174891	0.2837624031333448	89.38953909688323
10	4.0	perception	299	diff_vonmises	-0.08130665812439984	-4.658528356841177	3.0917932483051986	2.0193141296796457	0.1409887464905933	3.9440749903396086	0.626169299746953	-0.5747730924834551	1.200942392230408	73.74795482985877
11	4.0	wm	299	diff_vonmises	0.1438238824635817	8.240501458348843	7.189894799932182	0.32210408248379424	3.649310491706181e-36	2.652273206583298	-0.0840078157155042	-0.42212219892411323	0.33811438320860904	50.73608092232709
12	5.0	ltm	299	diff_vonmises	-0.008933710839532977	-0.511863926495515	1.2591315552011124	2.9464180715907577	0.37843109280379983	4.674383519498529	0.1008018080737243	-0.4204933715641743	0.5212951796378986	94.09911729576879
13	5.0	perception	299	diff_vonmises	-0.02062357975511547	-1.1816440784195643	2.587534229822854	2.254936486209459	0.086628666396247	3.9023483162838035	0.6800125484106345	-0.5670122242442932	1.2470247726549277	82.05322061486285
14	5.0	wm	299	diff_vonmises	-0.15794052010239082	-9.04932521596813	0.5500863501540948	180.96809745504444	0.5368195488972316	182.85881881494134	-0.028046426660488066	-0.4268557811783964	0.39880935451790833	108.90688515798514
15	6.0	ltm	299	diff_vonmises	-0.006936691414138669	-0.39744314181478035	0.4108711773391722	184.66977754647877	0.39955745611238896	186.57943897104843	-0.05193200598630909	-0.4511054373565919	0.3991734313702828	125.67604927840954
16	6.0	perception	299	diff_vonmises	-0.17481444118412648	-10.016129677788408	1.3916069141792005	2.0717205899412265	1.4801592053796087e-17	3.9318120695477923	0.231885847275211	-0.5727305229567142	0.8046163702319252	113.82519718773445
17	6.0	wm	299	diff_vonmises	-0.060984581306055295	-3.494159124209386	0.6624286882421799	126.17287182203208	0.636335772424366	128.0399151567921	0.11699025625200221	-0.4752321188732793	0.5922223751252815	103.33336364111852
18	7.0	ltm	299	diff_vonmises	0.00797358482539754	0.4568527580848365	0.8276264354384157	263.2378357077631	0.8133837559256555	265.5979706682961	-0.0068646427111644925	-0.5218347486118766	0.5149701059007121	88.1687203690255
19	7.0	perception	299	diff_vonmises	-0.05414753281909085	-3.1024251015800184	1.0755339207965648	121.5752248407756	1.0189737054732515	123.91230135039149	0.487966652786767	-0.693101101879865	1.181067754666632	83.78095411418502
20	7.0	wm	299	diff_vonmises	0.3056465465339516	17.51225713914435	6.612094347709076	0.8250707893814654	0.21911325496055306	3.254437995186113	0.1917290235539768	-0.5432295508353303	0.7349585743893071	49.78680513094125
0	1.0	ltm	300	diff_vonmises	-0.07617757142801362	-4.364653336381548	1.103294087256656	360.81996853797676	1.0905815801585408	363.4797318310535	-0.09517775704799192	-0.5918999403445184	0.4967221832965265	73.93780211392692
1	1.0	perception	300	diff_vonmises	0.05317932180520319	3.046950696806173	9.194100635218016	0.782270804383198	9.433431770873625e-18	3.101937459528234	0.43902917791893753	-0.4936886702106812	0.9327178481296188	44.78549451506677
2	1.0	wm	300	diff_vonmises	0.09191952609160432	5.266600899891579	6.21866331452845	0.33075888761569655	8.37696146090108e-21	2.862549379507413	-0.13374650431578233	-0.455587606450679	0.32184110213489664	54.62472506552069
3	2.0	ltm	300	diff_vonmises	-0.03183894465079681	-1.8242371526412862	3.5725872385526936	0.6876416123638651	0.11356809310715782	2.11175196695087	0.1215210606450311	-0.3214989429023541	0.4430200035473852	68.36734018781578
4	2.0	perception	300	diff_vonmises	-0.03737496444887484	-2.141427722372023	7.371535881696507	1.1832912768271253	0.07342071529801468	2.4601226779249954	0.8375858442616256	-0.39337303284603964	1.2309588771076654	49.46115806621165
5	2.0	wm	300	diff_vonmises	-0.008519115306008232	-0.48810935221957247	4.289689242921276	0.5352521342179016	0.1372180272514032	2.042003563222834	0.05636397531046633	-0.31905783220162176	0.3754218075120881	61.80074265470486
6	3.0	ltm	300	diff_vonmises	0.12457095899266456	7.137390200176928	3.2447110382781954	0.5790548273016919	0.20265382157202716	1.2637602496110267	0.1526670507585833	-0.18396572906430445	0.33663277982288775	70.32993532245769
7	3.0	perception	300	diff_vonmises	0.06975561454609838	3.996702310832811	5.158486463296736	1.7322957998213724	0.1120479392709007	2.1293378762452178	1.1494108511167462	-0.3291793621770115	1.4785902132937578	59.00001262240406
8	3.0	wm	300	diff_vonmises	-0.07883535548588973	-4.516933145755003	3.7322181427977035	0.5381961063659607	0.12266680236620153	1.3425193614895912	0.15766736618396648	-0.20371252298062215	0.36137988916458863	67.41533210568267
9	4.0	ltm	300	diff_vonmises	-0.004710711704009988	-0.26990389914265256	0.39039743883087563	103.96429702904649	0.37856145933455476	105.23908143612921	-0.06095183934928983	-0.28690024220293076	0.22594840285364093	126.82395766467866
10	4.0	perception	300	diff_vonmises	-0.05316367563511231	-3.0460542372944217	2.544958206254624	2.695423357189996	0.25528113973663763	4.383547786610837	0.7192095559885457	-0.5773508222553376	1.2965603782438833	78.21019603838928
11	4.0	wm	300	diff_vonmises	0.07001721395588516	4.011690852936707	0.8753186871712807	173.6952987592442	0.8616588676902642	175.39035370565844	-0.08216253488216552	-0.3515494364074492	0.26938690152528366	82.32097288999515
12	5.0	ltm	300	diff_vonmises	0.2814329699867703	16.124921396073905	0.7891946115579289	97.48760780525683	0.7638448505266319	98.67733027689165	0.11888538124793158	-0.31125243991131235	0.4301378211592439	95.32045449247863
13	5.0	perception	300	diff_vonmises	0.04174240353381905	2.3916635492198046	2.572248053182036	2.2491626047438644	3.2858012754382663e-19	3.179426909906059	0.8417899912849847	-0.4981609199481589	1.3399509112331436	85.76339667595386
14	5.0	wm	300	diff_vonmises	0.028372104841862818	1.6256018633414273	0.5092337731833635	187.90137086298887	0.49713592048364114	189.1101159612223	0.12746873209631815	-0.36576921872902446	0.4932379508253426	119.64305100652905
15	6.0	ltm	300	diff_vonmises	0.4828283285207425	27.664025453594537	0.9470124123272855	115.54924403706234	0.9306811472240133	116.56381475673848	0.02526745801091579	-0.23603804273138884	0.26130550074230463	83.55311838465269
16	6.0	perception	300	diff_vonmises	-0.20514255565024095	-11.753802637286425	1.319107858700174	2.1197969660443086	4.969520556180425e-16	2.9494074248993414	0.38047275452160345	-0.40865406959569117	0.7891268241172946	116.22190962504884
17	6.0	wm	300	diff_vonmises	-0.23044136004108515	-13.203317355608833	0.47662315045797704	124.34823811163388	0.4595736573670039	125.49499245391222	0.11985303857208862	-0.3551975072844762	0.4750505458565648	123.41698142672564
18	7.0	ltm	300	diff_vonmises	0.05473725458658215	3.136213669944265	1.2399598205141775	81.77179649454271	1.2072669729502443	82.8606761455103	0.07775977468061868	-0.28294168024169686	0.36070145492231553	74.26510651175704
19	7.0	perception	300	diff_vonmises	-0.006855769625859343	-0.3928066648757238	1.4588437210442082	5.8061106106860265	0.6933873047453859	6.7165313702082186	0.5701203185062251	-0.4013936726319395	0.9715139911381646	86.92454819055814
20	7.0	wm	300	diff_vonmises	0.09894770437367988	5.669285853120013	2.1263214233011376	0.5963855033087159	4.52490405214399e-22	1.925756263973591	0.0127304530260684	-0.30195183817516297	0.31468229120123137	94.19954582183561
0	1.0	ltm	301	diff_vonmises	0.2863847294242398	16.408636313004983	2.4444903373097886	0.4244035721577029	0.03746712647154744	2.5672586385608587	-0.1772138116445066	-0.39456094774366496	0.21734713609915834	82.69285550376432
1	1.0	perception	301	diff_vonmises	0.05312963680550867	3.044103956018568	8.054300084635072	0.8848307612325358	0.06882958767197823	2.8710053809084326	0.49635758457003615	-0.46243469523390307	0.9587922798039392	47.15202724008364
2	1.0	wm	301	diff_vonmises	0.018882919877884628	1.081911613886477	5.172417479826905	0.30738321224037785	2.6301659223608023e-13	2.6141679767181496	-0.14466214127705912	-0.4160490278094956	0.2713868865324365	60.007664990801686
3	2.0	ltm	301	diff_vonmises	0.18787886663003128	10.764666117602072	4.3366248673225005	0.5112540529254296	0.16342174255465214	1.853722400223108	0.06560656254901237	-0.2900958244143909	0.3557023869634033	61.06456830751816
4	2.0	perception	301	diff_vonmises	-0.016185738225876177	-0.9273744886462697	8.727960982716098	1.1509301475741986	0.07254238832556946	2.394689049196526	0.9266657412853088	-0.38604375114888106	1.3127094924341898	45.512936112990076
5	2.0	wm	301	diff_vonmises	0.08417424204707578	4.822828813010077	5.900553543917913	0.39177498084674905	0.032898654846241535	1.9456849193327823	0.0509165615067938	-0.3087726956846169	0.3596892571914107	55.13249602986278
6	3.0	ltm	301	diff_vonmises	0.28064489519962993	16.079768036830092	5.219243028489044	0.40753224307937985	0.16725570298601103	1.0439110816747295	0.16652195544395632	-0.16504265250756753	0.33156460795152387	57.05945407688816
7	3.0	perception	301	diff_vonmises	0.03528281775553052	2.021556546721143	6.527945859815713	1.530217596247698	0.0009747086869445686	2.1897357615178645	1.1785716774144785	-0.34825958495777676	1.5268312623722553	53.276363102989535
8	3.0	wm	301	diff_vonmises	-0.05683341454027955	-3.256314788475464	6.48673538565632	0.41302314094718207	0.1940391182390983	1.4301314528187665	0.13710648738223957	-0.23537620931057446	0.37248269669281403	50.790694881064354
9	4.0	ltm	301	diff_vonmises	0.3421418656065946	19.60328489399009	0.7047723899634484	160.91543783954424	0.6937318130482479	162.39161349785883	-0.07969121343978003	-0.2980352127437449	0.21834399930396486	91.602989180631
10	4.0	perception	301	diff_vonmises	-0.029975467956024692	-1.7174678028098551	3.8254580948142283	1.654021013946954	1.5043081138853819e-19	3.7403910113324144	0.645659150178977	-0.594711452503661	1.240370602682638	70.04923119188115
11	4.0	wm	301	diff_vonmises	0.026097121623288574	1.4952549264540351	0.9210219692571969	156.37043292397775	0.9050819521090997	158.44745549822673	-0.19792451182216553	-0.4102562323582184	0.21233172053605287	75.28236038758368
12	5.0	ltm	301	diff_vonmises	0.21788221876367836	12.483731566104883	1.5218898495138302	1.362421502232392	0.22056691673760906	2.346950940720481	0.13521680435605632	-0.27145626157194763	0.40667306592800395	96.07644266935921
13	5.0	perception	301	diff_vonmises	0.016875161932188163	0.9668755573142133	2.799981488317046	1.886193081103533	1.5947772691844464e-18	2.6773295480147787	0.7613466369076973	-0.42171901149853963	1.183065648406237	82.16558873221993
14	5.0	wm	301	diff_vonmises	0.08381573792474359	4.8022880398624	0.9581633167151791	2.8359361627456	0.2665941709049244	4.037933865897658	0.12229749218578023	-0.34434664749136307	0.4666441396771433	111.5172125609302
15	6.0	ltm	301	diff_vonmises	0.24957728205792223	14.29972492426507	0.567661407741218	111.77325787059226	0.554009441160353	112.51976313755885	0.09582840926604774	-0.22627550158923881	0.32210391085528656	113.99586103058269
16	6.0	perception	301	diff_vonmises	-0.08736318972346133	-5.005542055955019	1.6677164218514504	1.4985519886270828	4.664886390425355e-17	2.264241406054918	0.3319198932082466	-0.3357204338215418	0.6676403270297884	105.47513116050766
17	6.0	wm	301	diff_vonmises	0.013295413342828718	0.761771071426007	0.4774104786024399	181.994497539608	0.46683762682544533	183.08611749899077	0.09540200203861104	-0.32554057427712024	0.4209425763157313	122.65789149320221
18	7.0	ltm	301	diff_vonmises	0.1842925699980586	10.559186456508055	0.8766298581380314	126.21247682006704	0.856532007322395	127.59769827126412	0.048190248276370085	-0.32523819252113206	0.37342844079750215	87.60502144526677
19	7.0	perception	301	diff_vonmises	0.03234341756453076	1.8531413214769086	1.3671645907889627	3.6948294870678438	0.3528123309245081	4.964779806797116	0.42313374872227993	-0.45055644461893357	0.8736901933412136	96.99917015736321
20	7.0	wm	301	diff_vonmises	0.1254731782228452	7.189083554261821	2.8388537609997004	0.4374957790316192	3.3153729156183864e-20	2.002800387839833	-0.04113720841227392	-0.31780571084469417	0.27666850243242025	81.58865191455607
0	1.0	ltm	302	diff_vonmises	0.03055388810365724	1.7506088360545342	2.1389005199954174	1.4154397338317584	0.47428330412577935	2.756440538558937	0.09344007212765681	-0.3255156824270587	0.4189557545547155	75.03004560572452
1	1.0	perception	302	diff_vonmises	0.006245535496579418	0.35784282475314344	9.885808487197224	0.7018395517063575	0.006477646519067735	2.0698100669090604	0.5369344002187117	-0.32954359867854005	0.8664779988972517	43.11253734626183
2	1.0	wm	302	diff_vonmises	0.1590034438037892	9.110226258002681	3.0286672910723516	0.5164564601557725	2.201883924100936e-13	1.9028929680957365	0.03723771064340997	-0.3020587818833545	0.33929649252676447	78.9451884114495
3	2.0	ltm	302	diff_vonmises	0.0654672096791799	3.750994811115021	4.578843706715002	0.5923554695934091	0.3445204909085183	1.221258628981374	0.22364823774468584	-0.18990178119013038	0.41355001893481624	58.81112569729828
4	2.0	perception	302	diff_vonmises	-0.04864581314288108	-2.7871997840691165	7.546408516862226	1.05834747156956	3.13108187396858e-20	1.4901421730590925	0.9021153746156794	-0.23716317510261142	1.139278549718291	49.50277742370699
5	2.0	wm	302	diff_vonmises	0.0006477464158218611	0.03711313582131869	5.874836872913937	0.44390673964639454	0.09555842665340662	1.23077874709916	0.20421080655826523	-0.19544159481315804	0.39965240137142327	54.756406559555415
6	3.0	ltm	302	diff_vonmises	0.1930463251655685	11.060739682497207	3.717634473807049	0.46741806577104017	0.022618937552160358	0.7801148530048188	0.2182481815604647	-0.12158299997252779	0.33983118153299247	70.44698182443386
7	3.0	perception	302	diff_vonmises	0.02660800773590933	1.5245265445190497	5.779936669823241	1.4290227613369433	2.6419456161123817e-17	1.727094231116918	1.0629646469905527	-0.27486281415541786	1.3378274611459706	56.70645638064195
8	3.0	wm	302	diff_vonmises	-0.024715932384645506	-1.4161186123709	3.016529535835686	1.0780740803333482	0.5840293496195139	1.6089804737359823	0.2858424142806262	-0.2028534707311308	0.488695885011757	67.83505024905108
9	4.0	ltm	302	diff_vonmises	-0.08282446033418653	-4.745492017597584	1.2066871684478946	53.84992601742447	1.172510392738976	54.591819599942575	0.06297039293086115	-0.1941874726876005	0.25715786561846166	75.76148730546404
10	4.0	perception	302	diff_vonmises	-0.07547573299605223	-4.324440956330081	2.9747083738848117	2.0342964923001863	4.447913719462489e-19	3.2910902223101957	0.8021022521209129	-0.5203358592206933	1.3224381113416062	79.67938687253064
11	4.0	wm	302	diff_vonmises	-0.02705469188880778	-1.5501196612555073	1.2436928961519005	210.38396667863694	1.2279426824700925	211.94343891362314	0.009418985494662024	-0.3784295338839989	0.38784851937866094	71.62166108353742
12	5.0	ltm	302	diff_vonmises	0.13314316759475928	7.6285415741826945	1.6375047023344906	1.005377206089693	3.7707185214044084e-20	1.4407277274292634	0.22999872739220203	-0.21192870752312898	0.44192743491533104	106.29532921961723
13	5.0	perception	302	diff_vonmises	-0.008658162307335132	-0.49607615854955384	2.270077764800553	1.9447866490533403	1.3564183094185618e-19	1.9951922493136136	0.7649370997434994	-0.3059907712841847	1.0709278710276842	91.25975887047204
14	5.0	wm	302	diff_vonmises	0.06556180280875641	3.756414598210689	0.7098618011883722	131.5000477352963	0.6947090550299828	131.89302338787772	0.2683947389866077	-0.21387194125844822	0.4822666802450559	107.41667938492321
15	6.0	ltm	302	diff_vonmises	0.4939515641705856	28.30133991086001	0.8116804524252502	107.02545373558131	0.8004201523140867	107.1913270413429	0.179748944540151	-0.1131241689938669	0.2928731135340179	101.4805969693515
16	6.0	perception	302	diff_vonmises	-0.07681953068120909	-4.401434892209019	1.714267449422769	1.707535182209694	2.6558978814274523e-10	1.7758662801343443	0.5194915342620147	-0.2566190998207679	0.7761106340827826	104.1930578565276
17	6.0	wm	302	diff_vonmises	0.0007295365611413961	0.04179936595388973	0.7177049214453706	140.62589277668323	0.703046231538348	141.06392814997446	0.2681735568994341	-0.22201352935537244	0.49018708625480656	106.46624337647559
18	7.0	ltm	302	diff_vonmises	0.003397230307780181	0.19464695866973405	2.5078147420397676	1.1880873696201166	0.5015593523057308	2.0367121822964287	0.1983602149814674	-0.24770888124531665	0.44606909622678403	72.461841097165
19	7.0	perception	302	diff_vonmises	0.05419971925956097	3.1054151643667667	2.583834273787455	1.6455279688029902	0.07813770725774961	2.4906692454438333	0.5607676124307326	-0.3625352454220954	0.923302857852828	82.74923180432532
20	7.0	wm	302	diff_vonmises	-0.10742063599829572	-6.1547490753134255	0.19766021366847136	6.2355986296481785	7.107876947264158e-13	7.174394543658295	0.05575223794735584	-0.33530344466104944	0.3910556826084053	168.46301483923898
0	1.0	ltm	303	diff_vonmises	0.04756803162102096	2.725447451629345	0.9173577293659546	280.4093221050058	0.901357419789827	283.51701407984984	-0.14962472641356328	-0.6499277547327722	0.5003030283192089	80.42755507998788
1	1.0	perception	303	diff_vonmises	0.09748921438592102	5.585720532359344	9.964680120917537	0.6049867390230089	1.278650125255409e-16	3.629602615198294	0.17398633387675033	-0.5776691960045363	0.7516555298812866	43.00280896371655
2	1.0	wm	303	diff_vonmises	0.12872734053466287	7.375533320579509	6.530773756744277	0.37251236968973517	0.027345285897036158	3.4002530384311513	-0.18420206448542914	-0.5420495758411562	0.35784751135572707	52.138111805898916
3	2.0	ltm	303	diff_vonmises	-0.10955876913055736	-6.2772550798291045	1.5676050643742285	4.018857545522162	0.7493519800407303	5.4402901149023775	0.1886538807578424	-0.38341444190264873	0.5720683226604911	78.91541822755502
4	2.0	perception	303	diff_vonmises	-0.042322700905016046	-2.424912139451929	6.094019688316634	1.2273807474894216	0.13025717788055505	2.884823267639863	0.6607512090072437	-0.4602944845209872	1.121045693528231	53.6246870310479
5	2.0	wm	303	diff_vonmises	0.059607454413454816	3.4152555654094128	5.129843632507554	0.47560660629555024	0.10911495456888472	2.246692257820521	0.020416982327872646	-0.3575224611266183	0.37793944345449093	57.151938362916525
6	3.0	ltm	303	diff_vonmises	0.07856827074423942	4.501630317286098	1.0315391506047513	210.70091532516787	1.0166765201296633	211.78331173130672	0.2177885096684662	-0.318065213165557	0.5358537228340232	84.6413755881843
7	3.0	perception	303	diff_vonmises	0.052234799322710114	2.9928335449041006	4.249442000915488	2.0657139637226316	0.17000716991597875	3.189446154364907	1.0440033600377046	-0.48078980546006866	1.524793165497773	63.807670135867056
8	3.0	wm	303	diff_vonmises	0.19701318074682833	11.288023765241311	1.4653675138732112	1.8728380020763922	0.35580979342526203	3.3979496026768166	0.05178617856140155	-0.3521068503286229	0.40389302889002443	89.03340648568499
9	4.0	ltm	303	diff_vonmises	0.2533008325336488	14.513068651328133	0.3829953219358476	172.96244739780565	0.3715668973177733	175.0095164677382	-0.09574528150537276	-0.4639823685083364	0.36823708700296365	127.66509669450585
10	4.0	perception	303	diff_vonmises	-0.08785464442031116	-5.0337003359063965	2.4541538723507017	2.7772834192674662	0.19653804649711634	4.923796632023177	0.6743996307436969	-0.6656073725536049	1.340007003297302	80.45190965721707
11	4.0	wm	303	diff_vonmises	0.05695848822185125	3.2634809825576854	1.4855736621151736	1.8296795053312658	0.26412726080257876	4.382966738673619	-0.10490631960224261	-0.519128479950923	0.4142221603486804	88.68222895093311
12	5.0	ltm	303	diff_vonmises	0.02231460368870436	1.2785326128698185	1.9519455841008586	1.2219227244272832	0.050423625504535045	2.8337172079565365	0.14712687335120228	-0.4160256765222313	0.5631525498734335	94.4698457393601
13	5.0	perception	303	diff_vonmises	-0.018625256634217054	-1.067148597488674	1.910509520020221	3.038081993705282	0.12810291164706566	4.4079982268912286	0.730275793087379	-0.582201245348906	1.3124770384362852	93.35447424008231
14	5.0	wm	303	diff_vonmises	-0.08594841536350373	-4.924481456166127	0.5682229583762003	230.94285619597838	0.5570465101624664	232.54040458533098	0.07528823540782525	-0.41092919371353887	0.4862174291213641	110.79339322696973
15	6.0	ltm	303	diff_vonmises	0.2583148214240091	14.800349053271258	0.48028838941223645	153.49826357592428	0.46763700308924133	154.9693752483647	0.007314485353880684	-0.3629904389341281	0.37030492428800876	118.70295242176476
16	6.0	perception	303	diff_vonmises	-0.15263468750897005	-8.74532340156217	1.3134672247744792	2.396559213962577	7.941949189270021e-12	3.7621974726631646	0.35962387441738275	-0.5294787099045448	0.8891025843219276	116.50255563101817
17	6.0	wm	303	diff_vonmises	-0.03374082753426851	-1.9332070149923857	0.6658945031801504	173.23463806003932	0.6487226473875758	174.7824706696934	0.14032827406561665	-0.41343762837169784	0.5537659024373145	103.73003707375318
18	7.0	ltm	303	diff_vonmises	-0.054062761689749474	-3.0975680736442	1.0250787887346031	194.2984323046859	1.0034252454149877	196.56116896672233	0.02022057784594722	-0.5212283524175625	0.5414489302635097	79.5052492342607
19	7.0	perception	303	diff_vonmises	-0.0025568998692156344	-0.146499571143608	1.075105351689411	408.192481092076	1.0584853395607283	410.1071714086457	0.5995995852879616	-0.637103547065152	1.2367031323531137	84.39004258877199
20	7.0	wm	303	diff_vonmises	0.2595309404262393	14.870027539484711	7.329225984086063	0.6440526578295289	0.03860313494163202	3.040269361183294	0.18015138895930005	-0.48559425483953617	0.6657456437988363	49.51149342531903
0	1.0	ltm	304	diff_vonmises	0.1277782856312052	7.321156480085188	1.1393942824795147	1.1755900855213783	1.2786596783244125e-21	2.2997993783807362	0.06645937822849396	-0.3217329676475436	0.38819234587603757	122.86646779643192
1	1.0	perception	304	diff_vonmises	-0.04208355881511482	-2.411210306996651	10.762532588057036	0.6415415980716983	3.49187164012425e-21	1.840123589362322	0.5363490796320756	-0.2928647647748883	0.8292138444069639	41.36192480166682
2	1.0	wm	304	diff_vonmises	0.10061659723384234	5.764906370466839	2.55591605115161	0.5936628864678171	2.7693485582014802e-24	1.8381118416518096	0.06189832382890925	-0.29040896296265883	0.3523072867915681	86.02949544086925
3	2.0	ltm	304	diff_vonmises	0.08781392162610759	5.031367091668551	3.468044678865628	0.48514975220572626	1.23965580337916e-19	1.4110696974181405	0.12021469059254905	-0.22424355593294798	0.34445824652549706	73.66158038684418
4	2.0	perception	304	diff_vonmises	-0.04948667268145859	-2.835377486792926	7.46044153402516	1.0166545593482719	8.948953973561473e-21	1.9195026967149353	0.7824273174608392	-0.3054979822396055	1.0879252997004447	49.79065034514872
5	2.0	wm	304	diff_vonmises	-0.054684643676095365	-3.1331992868170317	4.441114993585402	0.4800048342935689	5.349441356979676e-18	1.4677881963805384	0.1569944602267545	-0.2335515168885818	0.39054597711533634	64.88322697588802
6	3.0	ltm	304	diff_vonmises	0.1946300080237277	11.151478026356946	1.9842090460420925	1.1450303085671927	0.397158798420653	1.7283256146659407	0.19435387493786738	-0.1903333225805876	0.384687197518455	82.7111398622176
7	3.0	perception	304	diff_vonmises	-0.0007448159126299303	-0.042674808307879675	4.828347061331333	1.910425570915841	0.1621442711636905	2.5789038848350794	1.1464466814869083	-0.3947666788975432	1.5412133603844516	60.36709630336122
8	3.0	wm	304	diff_vonmises	-0.13144695228317177	-7.531355595683263	1.1525109303347636	62.520756499953016	1.1066024835111041	63.394149576153	0.21938193853149102	-0.27259578678734897	0.49197772531884	81.1448611323425
9	4.0	ltm	304	diff_vonmises	-0.08074166803722216	-4.626156809379167	1.0999381886870452	130.18093492324397	1.079703864082888	131.21632576954212	0.12438652940783612	-0.27749894952224885	0.40188547893008497	80.27851906384205
10	4.0	perception	304	diff_vonmises	-0.037176990953369515	-2.130084676624116	1.963961412529799	3.4347030933045075	0.33204138440659103	4.975948448811106	0.6785057201027676	-0.5626577940367568	1.2411635141395243	85.38420938048154
11	4.0	wm	304	diff_vonmises	0.01631425581846728	0.9347380042949216	1.0053238170759864	189.14106764869192	0.9900961868375536	190.97362696287428	-0.07781063281935019	-0.3939574009172304	0.3161467680978802	77.13101639228694
12	5.0	ltm	304	diff_vonmises	0.2463442066689752	14.114483349630786	2.3144465478055274	0.8882066221951758	3.281526496101311e-11	1.3711365623209018	0.2819269614544609	-0.21333886903935337	0.49526583049381423	90.3329964604886
13	5.0	perception	304	diff_vonmises	0.021765610044076598	1.2470775940531427	2.2653077208545387	1.8589993719216638	3.287241044464267e-19	2.268791535038208	0.672412416129164	-0.3499539254475075	1.0223663415766715	91.34881659939441
14	5.0	wm	304	diff_vonmises	-0.025579110533976792	-1.4655750772954956	0.6088462610414074	121.05017595004695	0.5934210511789554	121.71820130715712	0.17686300454069226	-0.24592934130148514	0.4227923458421774	112.74562919789103
15	6.0	ltm	304	diff_vonmises	0.2834493025911885	16.24044874440169	0.4012909595193497	71.3999415838224	0.388258155207686	71.73766151850619	0.09417198056184617	-0.14972846413417074	0.2439004446960169	133.54011436672138
16	6.0	perception	304	diff_vonmises	-0.11280772416429449	-6.463406491090026	2.210342559068028	1.1332049466217233	6.506993603100979e-12	1.6758171647956974	0.35408191843332315	-0.2592478132605304	0.6133297316938535	92.44722641505793
17	6.0	wm	304	diff_vonmises	-0.09042465092049354	-5.180950861688034	0.5243356935447169	114.18149190400295	0.5108500253476377	114.99230558307575	0.08685048391686934	-0.24359986538908096	0.3304503493059503	118.07662021335474
18	7.0	ltm	304	diff_vonmises	-0.0014613409505760734	-0.08372866889764483	1.757130241944698	2.4687802662546363	0.7410993626250946	3.344120276940879	0.19953433258473396	-0.26306193756965257	0.46259627015438654	77.6947965139004
19	7.0	perception	304	diff_vonmises	0.052615268272452956	3.0146328099601405	1.9659704643582032	1.758565817393761	7.845576726672646e-14	2.656204092099009	0.4751016402368332	-0.40514514339346774	0.880246783630301	97.80464730362283
20	7.0	wm	304	diff_vonmises	-0.4519234332882533	-25.89330539047893	0.0002894410049255863	4107.240552142027	8.816289350649828e-30	4108.429280313799	2.5403223276043718e-05	-0.3783819507749513	0.37840735399822734	174.23063625745286
0	1.0	ltm	305	diff_vonmises	-0.06564344391350461	-3.7610922889475464	0.8176263091262804	153.94798538136934	0.7951195656319348	156.3321635389982	-0.060077140526956896	-0.5082306379036616	0.44815349737670473	87.47047458814225
1	1.0	perception	305	diff_vonmises	-0.008869621162024008	-0.5081918584638966	10.955851087918612	0.729408863409467	3.8803991977181085e-20	2.9412847139471863	0.4831906451099997	-0.4681200009752302	0.9513106460852299	40.99241277095598
2	1.0	wm	305	diff_vonmises	0.07785156625669076	4.460566174991474	3.5430135382940184	0.5159159416533138	2.1599991096382095e-23	2.9763332975971353	-0.1026955963100441	-0.4733876621290175	0.3706920658189734	72.86331615475217
3	2.0	ltm	305	diff_vonmises	0.05294362277199103	3.0334461369678025	2.766359536297093	0.6449874839944044	3.3966853024818326e-19	2.186717389381116	0.05520445590723172	-0.34643201154101844	0.40163646744825016	82.67047902780436
4	2.0	perception	305	diff_vonmises	-0.054547001781647106	-3.125312987180961	7.408579373745183	1.120163884544281	0.05577522641744246	2.514492327464261	0.7715484895237226	-0.40118639618532503	1.1727348857090476	49.437713095127606
5	2.0	wm	305	diff_vonmises	-0.06205580302368007	-3.5555356075520406	3.4496612189654043	0.6674168719895178	0.10296315057917511	2.299000385577393	0.06837340322288449	-0.3505555007078299	0.4189289039307144	69.39735408567716
6	3.0	ltm	305	diff_vonmises	0.09747162385913334	5.584712669414999	2.3832487244458225	0.715636836286386	0.0886121566524055	1.6577562085650919	0.12229348649547545	-0.24063828353764194	0.3629317700331174	84.08458237141554
7	3.0	perception	305	diff_vonmises	0.037004062317042	2.1201765956055967	4.7042359579829975	1.9771462619511437	0.1557587323417945	2.6924067317761526	1.1617481346479126	-0.4109229411129006	1.5726710757608133	61.17283897089558
8	3.0	wm	305	diff_vonmises	-0.12094730460790758	-6.929770097516278	3.211889661890281	0.7815726509796093	0.13517092878346096	1.934250371859242	0.18128977521695666	-0.28706588670428	0.4683556619212367	71.81367835262512
9	4.0	ltm	305	diff_vonmises	-0.1682972343897837	-9.642721234258582	0.6816717827342176	126.6797120117452	0.6643220190507574	128.18970243693641	-0.0010890284281828144	-0.33808629722532046	0.33699726879713765	98.06792110441513
10	4.0	perception	305	diff_vonmises	-0.019003919983512373	-1.088844409259584	1.6728798377147294	5.2752631694675145	0.5279608674142049	7.090262540344072	0.6550259812156392	-0.6220265259793777	1.277052507195017	85.14947045457973
11	4.0	wm	305	diff_vonmises	0.1311294262570234	7.5131626944994006	0.8078461672257529	211.20861640207087	0.7950200471835033	213.3025737743268	-0.11652499919466663	-0.42515615286759	0.3086311536729234	85.13546041028306
12	5.0	ltm	305	diff_vonmises	0.2808121113094091	16.089348814187034	1.3165075482521083	2.3823538346612647	0.38727894086549497	3.4786271203127423	0.16828530755390747	-0.30717469510886064	0.4754600026627681	94.68621544849577
13	5.0	perception	305	diff_vonmises	0.05716960900979988	3.2755773126746184	2.213022263074848	2.2359893326498685	2.614643890550962e-19	3.2070117483700735	0.7154611174974106	-0.49574748502848415	1.2112086025258948	92.39566327158471
14	5.0	wm	305	diff_vonmises	-0.006445149170429609	-0.3692798457978603	0.5181861541030603	169.1447350153198	0.5042458541889971	170.45507961730354	0.11709062115395596	-0.38163442447655527	0.49872504563051123	118.25357329094089
15	6.0	ltm	305	diff_vonmises	0.250254848922756	14.338546645957956	0.47160995505707237	16.974972320695763	0.4030112283071982	17.883322598081325	0.0074483586732245755	-0.23134721568075833	0.2387955743539829	123.53736187150847
16	6.0	perception	305	diff_vonmises	-0.12944483131849535	-7.416642514332643	1.6647131651115354	1.5841406085737997	5.866005759269317e-19	2.570366663801643	0.32190307948116353	-0.3829048524900244	0.704807931971188	105.540400157826
17	6.0	wm	305	diff_vonmises	-0.21797342427959515	-12.48895725723523	0.3457164633708688	165.81009975701605	0.33510603996782884	167.138725745404	0.03071016317804265	-0.3731325746903771	0.40384273786841973	136.5762449545712
18	7.0	ltm	305	diff_vonmises	0.010606185116566465	0.6076896439137275	1.6497735202640897	4.438034844024022	1.0021187896869195	5.659294608532898	0.10063762030256562	-0.32492630793448996	0.4255639282370556	71.90487832514393
19	7.0	perception	305	diff_vonmises	0.07243915183230584	4.150457671498489	2.148997372497895	1.6208843179422476	1.494141542203343e-20	2.6054191185208815	0.45850458638445574	-0.40279371664495567	0.8612983030294115	93.7200556761147
20	7.0	wm	305	diff_vonmises	-0.5054818780583986	-28.961978233092772	0.0005472195984163911	1937.952453037448	3.1286063805711296e-20	1939.5582185546182	-0.08676095131653483	-0.42432390745665316	0.33756295614011833	172.80213148847042
0	1.0	ltm	306	diff_vonmises	-0.02541347902115495	-1.456085090656437	1.5522228842821006	3.6145776807248935	0.6235749530203117	6.000410999097675	-0.021789836249445527	-0.5302241262637807	0.5084342900143352	77.38326775645461
1	1.0	perception	306	diff_vonmises	0.03236684819852887	1.854483797916316	12.994370676739008	0.6255934845672405	0.0011219317963722963	3.0712453892828266	0.40130047774100885	-0.4888896018332077	0.8901900795742166	37.58863501065164
2	1.0	wm	306	diff_vonmises	0.15440367369849856	8.846678844239081	4.16673109295228	0.44633517034325826	8.035223336491846e-13	2.952943195137173	-0.11909614736836316	-0.46989117383814966	0.3507950264697865	67.04065115198131
3	2.0	ltm	306	diff_vonmises	-0.038049869063219686	-2.1800969083478874	2.9962510952516714	0.8707280561536607	0.2506467436339293	1.9415702045837433	0.1790047799339024	-0.275915417791738	0.4549201977256404	71.42343125981554
4	2.0	perception	306	diff_vonmises	-0.05439461424543629	-3.1165818245056847	7.191946842497457	1.0814260301958283	0.08438799151054334	2.08351524653755	0.7752449592504067	-0.33306094770590877	1.1083059069563155	50.02578329569269
5	2.0	wm	306	diff_vonmises	0.005875326251892566	0.33663139749586085	4.852002322046199	0.49837746022344637	0.11417594848207911	1.8554520331587554	0.09530525089609182	-0.2925496656997268	0.3878549165958186	59.05555588406921
6	3.0	ltm	306	diff_vonmises	0.06678170740508728	3.826309982989058	1.300084215990555	2.810796778986588	0.616027703753003	3.5096815159773422	0.17456073839261899	-0.21723075683400286	0.3917914952266218	89.27493201818334
7	3.0	perception	306	diff_vonmises	0.03740555614551893	2.143180497477874	5.045913087719215	1.6611169007364368	0.1096163909707486	2.2898142856414867	1.041989367550915	-0.35414460374869716	1.3961339712996121	59.55170064077964
8	3.0	wm	306	diff_vonmises	0.03577200108011358	2.0495846866279304	2.50972103215027	1.1334107239324116	0.4055098341641515	2.14994282095665	0.1766968595636758	-0.27412041483358257	0.4508172743972584	73.64385465830034
9	4.0	ltm	306	diff_vonmises	-0.07088584230479818	-4.06145959129484	0.8634833213618793	127.50676275103717	0.8465034822324777	128.84515027759122	-0.005208363116146586	-0.29609459662036386	0.2908862335042173	86.21690612215266
10	4.0	perception	306	diff_vonmises	-0.06777529443157179	-3.8832383261855736	2.4590259035380986	2.5689376256617056	0.1774919688580841	4.0519717015269965	0.7352668333267965	-0.5483196823617628	1.2835865156885593	81.56120392443978
11	4.0	wm	306	diff_vonmises	0.04109618266048758	2.3546378205446534	0.9485012848804164	251.12963551545064	0.9353468990490439	253.14022078565418	-0.03472218289680029	-0.4413311380431715	0.4066089551463712	81.17221197910106
12	5.0	ltm	306	diff_vonmises	0.0669047814337205	3.8333616053974136	1.895452469720481	1.0283305033642787	5.1801255158453554e-14	2.106631340258461	0.1782408804755688	-0.32368776953402073	0.5019286500095895	99.49584352732475
13	5.0	perception	306	diff_vonmises	0.011709342529944534	0.6708959078388596	2.185227454303173	2.1740091991621244	6.3417943918543675e-15	2.980468163638156	0.708543811154418	-0.45939681558269585	1.167940626737114	92.97183955251285
14	5.0	wm	306	diff_vonmises	-0.020386516861672904	-1.1680613751461457	0.574024155805751	211.1089023541759	0.5626720045026292	212.25164556578903	0.15666736366420508	-0.3500339594964963	0.5067013231607014	113.4751858570098
15	6.0	ltm	306	diff_vonmises	0.4493890849913143	25.748097929248157	0.7179468300717047	131.99543650871672	0.7043460527459464	132.91820687965503	0.07898242231371455	-0.23963452395091345	0.318616946264628	99.34430839702014
16	6.0	perception	306	diff_vonmises	-0.0902571239180784	-5.171352271495169	1.379597202804658	2.3152286784216605	0.04579835173459795	3.225741765261731	0.4163085249630961	-0.42975680611054895	0.846065331073645	111.84315267755501
17	6.0	wm	306	diff_vonmises	-0.049865174791028324	-2.85706406020807	0.6207057374261088	184.53820816091942	0.6059559864000592	185.70171057214873	0.2055274209531177	-0.3695939479331223	0.57512136888624	109.99096358452827
18	7.0	ltm	306	diff_vonmises	-0.0004948550628123426	-0.028353106569828482	1.5383253213606864	5.02661623010679	0.8994952150324915	6.493644656392612	0.1158359616769915	-0.3788491110868528	0.4946850727638443	75.13671164919259
19	7.0	perception	306	diff_vonmises	0.05753933200926477	3.296760880132874	2.4920427799370835	1.8752511757631907	0.1624333808586825	3.1809717237925064	0.5114477833852626	-0.43776300923717376	0.9492107926224365	81.15983979222986
20	7.0	wm	306	diff_vonmises	0.23321864463828368	13.362444041535001	3.0359751998263587	0.7453726373799004	0.04263552315108947	2.357267886924066	0.10014881091201644	-0.3619170646794123	0.46206587559142875	76.3206383942375
0	1.0	ltm	307	diff_vonmises	-0.015759669170733185	-0.9029625300054495	1.063571283265209	232.53251597323566	1.0493427432256957	234.1992413521758	0.03744406300059211	-0.39386949889657785	0.43131356189716996	78.43511877177556
1	1.0	perception	307	diff_vonmises	0.1301323663676646	7.45603537091736	8.963654742574704	0.49475270647060937	2.418944368319095e-24	2.2516887501638863	0.22370225289068663	-0.3583673853542768	0.5820696382449635	45.37272818737807
2	1.0	wm	307	diff_vonmises	0.07395116198187385	4.23708947164968	11.986902347176287	0.2355905961635805	0.036831805068917305	1.8329990235927485	0.01926665810231848	-0.2962564296698928	0.3155230877722113	38.71882627714737
3	2.0	ltm	307	diff_vonmises	-0.21041027835961948	-12.055620916179034	1.279723467615518	80.28696170065528	1.2378206660178759	81.07950638765332	0.3097663718465107	-0.2866204714865006	0.5963868433330113	78.09096960974242
4	2.0	perception	307	diff_vonmises	-0.017403760435181267	-0.9971620205926515	6.331562347925618	1.0604696105708875	0.08419926402967168	2.2527823677729426	0.6523863164809004	-0.35766169842198264	1.010048014902883	53.18205964975115
5	2.0	wm	307	diff_vonmises	0.08060106997375842	4.618101133734982	5.7948607380301045	0.3485090174387995	0.20517035745852458	1.4992635094394016	0.03684235054600438	-0.2462766001186318	0.2831189506646362	52.675011877737944
6	3.0	ltm	307	diff_vonmises	0.04996872148961779	2.8629968490197593	1.363175306434564	247.94477802045074	1.350816201810266	248.4966542720893	0.32695029747067395	-0.237869303334179	0.5648196008048529	76.33242576961266
7	3.0	perception	307	diff_vonmises	0.05514022604577604	3.1593022338203034	3.8560434098912526	2.2350316286886756	0.4062011788886583	2.880681929372317	1.0235910583611418	-0.4061692978144752	1.429760356175617	64.49121077132239
8	3.0	wm	307	diff_vonmises	0.33165295143363205	19.002314380204382	0.8215070800142307	61.44196524109042	0.7914871897264414	62.36829692259413	0.07245009172504879	-0.23311580799365128	0.3055658997187001	92.73102887585799
9	4.0	ltm	307	diff_vonmises	0.1202376218067858	6.889108268218978	0.6380655007457776	138.37185859380818	0.6251861608953874	139.6124847968121	0.0028744188343026167	-0.28207005088035686	0.2849444697146595	101.65096615000996
10	4.0	perception	307	diff_vonmises	-0.127634203109288	-7.312901159677732	2.276121581854093	3.1136251625652998	0.37247969090736643	4.46737122527419	0.7388892106502107	-0.5249911720007767	1.2638803826509875	79.86403800451637
11	4.0	wm	307	diff_vonmises	-0.11586108254491288	-6.6383510396403596	0.9293279459957119	130.10845282319124	0.909113939905869	131.66604114362494	-0.004983298777148093	-0.3474159766619387	0.3424326778847906	83.0502381710487
12	5.0	ltm	307	diff_vonmises	0.06555141634767744	3.755819497826787	0.8928462406377708	45.89193096281536	0.8294311897490847	47.011031937572504	0.20899558040423472	-0.32687020846312187	0.5358657888673566	92.39293792092107
13	5.0	perception	307	diff_vonmises	-0.028932046062500553	-1.6576841320593731	2.833891539037466	2.0388269712994016	0.02358541700947172	3.062507025145922	0.7934397297391165	-0.47151938376458313	1.2649591135036995	80.84228643706842
14	5.0	wm	307	diff_vonmises	-0.23785935617935836	-13.628337226776232	0.5891890795692639	130.70268354144017	0.5753357884253337	131.73355837857426	0.07312534437043183	-0.275403081698002	0.3485284260684338	109.83951449423203
15	6.0	ltm	307	diff_vonmises	-0.0897500987958638	-5.142301871885168	0.47088227400672283	131.40275948327655	0.45955359814000757	132.60653090225495	-0.011319244440795018	-0.28785787084055237	0.27653862639975735	118.91938587107009
16	6.0	perception	307	diff_vonmises	-0.30437955798047883	-17.439664042338972	1.6785963556202645	1.8905542175856256	1.2241309471045044e-15	3.0061219774512304	0.39836022410375366	-0.44789468075092587	0.8462549048546795	104.95982397983761
17	6.0	wm	307	diff_vonmises	-0.2031310710516995	-11.638553059234434	0.865921774212438	82.11887694355102	0.8304030652041272	83.22292573465148	0.21491364807432944	-0.3267078388231761	0.5416214868975056	93.27430157198629
18	7.0	ltm	307	diff_vonmises	-0.0593781681239376	-3.4021184287198616	0.98507604900999	161.72403850802965	0.9645738172392313	163.10845901170532	0.16472539017799903	-0.3669311329283218	0.5316565231063208	85.10368708056203
19	7.0	perception	307	diff_vonmises	-0.09605160667821713	-5.503351678112434	1.7483645616149928	8.434205891000168	0.8802560218960997	9.953814546115067	0.8349703556033967	-0.6203510322080876	1.4553213878114843	77.9532992735372
20	7.0	wm	307	diff_vonmises	0.2571489245461339	14.733548082821532	12.628036916321538	0.6290804944831971	0.037854506180352174	2.071578093474761	0.5402516039425427	-0.33440919183045426	0.8746607957729969	37.947441028832685
0	1.0	ltm	308	diff_vonmises	0.09215430290790848	5.280052620593326	3.0472977413503903	0.535375018541982	5.944245180953897e-15	2.5087307510483443	-0.04550515951719736	-0.3984790787232392	0.3529739192060418	78.7035192757995
1	1.0	perception	308	diff_vonmises	0.02867911489069274	1.6431922434074873	11.538476752989279	0.6272688294916745	0.013097180969244717	2.753632761673638	0.39624133987620347	-0.4397849527739944	0.8360262926501978	39.810057603938674
2	1.0	wm	308	diff_vonmises	0.11935768911010092	6.838691838443369	3.920727333877412	0.4276697038634162	3.825355428638571e-18	2.646412450929766	-0.09595586372160958	-0.421061770702445	0.3251059069808354	69.16795979888676
3	2.0	ltm	308	diff_vonmises	0.04460262236938645	2.555542016981639	3.240047716511522	0.6830727584327025	0.17024121416760704	1.7610773056443887	0.1373702047045126	-0.26037980028317154	0.39775000498768415	70.43267977495856
4	2.0	perception	308	diff_vonmises	-0.03912007047152636	-2.2414149322728165	7.718752149833312	1.0441823377794477	0.06165091516063248	2.1727072159739333	0.7698292450391464	-0.3474248625457928	1.1172541075849391	48.434355510971756
5	2.0	wm	308	diff_vonmises	0.06075701503548843	3.4811205373463725	5.915497848558738	0.41105667760763703	0.039576760137318326	1.8406399868744303	0.08489884341856913	-0.29209420626071864	0.37699304967928776	55.00101755591069
6	3.0	ltm	308	diff_vonmises	0.19291671811970465	11.053313745774052	1.4964511269890886	2.4302542553234994	0.629971294296886	3.19576769397123	0.18435303533651237	-0.2325669919189019	0.41692002725541427	84.71121021676171
7	3.0	perception	308	diff_vonmises	0.012627492280243928	0.7235020134920052	5.254407248914986	1.7211949974071048	0.10482082792496339	2.6486904748253712	1.0654908294124676	-0.41239807011024804	1.4778888995227157	58.32923360690373
8	3.0	wm	308	diff_vonmises	0.050249301463676864	2.8790728973492343	3.2743030502832684	0.8385531424773974	0.30674277958807733	2.1294208730403574	0.12716550262807164	-0.3111376178489026	0.43830312047697423	66.8727535692241
9	4.0	ltm	308	diff_vonmises	0.0808919640853957	4.634768138617006	0.9442509799660002	168.19472416617955	0.9282566419592452	169.7594946229144	-0.00208397602091992	-0.3507990318143648	0.34871505579344486	82.36040856406933
10	4.0	perception	308	diff_vonmises	-0.05679567748794836	-3.2541526146456223	2.768585649972986	2.1502379419257958	0.08101401339411396	3.9405940889630298	0.6658942928534448	-0.5804647465237536	1.2463590393771984	79.50872952094363
11	4.0	wm	308	diff_vonmises	0.00274957868659466	0.15753925418099812	0.9230107326408575	244.48868616471074	0.9093402210242019	246.80157104086103	-0.11450014659337171	-0.4835144834375882	0.3690143368442165	80.00582582463235
12	5.0	ltm	308	diff_vonmises	0.06287678861247972	3.6025746168313235	1.8194622147713493	1.0978807788160174	0.015886560173517358	2.081513758638525	0.19820703105419485	-0.31198598483035006	0.5101930158845449	100.41938697708281
13	5.0	perception	308	diff_vonmises	-0.005993654269423295	-0.3434110934985216	2.2520128261131553	1.9706341532276301	5.579303727748513e-18	2.7751298138538925	0.6500291715357593	-0.42959562946430785	1.079624801000067	91.61589143729657
14	5.0	wm	308	diff_vonmises	-0.03733227679427628	-2.1389818999262133	0.607255779344835	203.19034456070696	0.5958826096262898	204.36125138651508	0.1274253617442085	-0.3327083116748142	0.46013367341902267	109.30926994814992
15	6.0	ltm	308	diff_vonmises	0.3152019798676356	18.059743140583063	0.4537058443320938	157.7746921671301	0.4437776746658532	158.57594846588904	0.10089500161243592	-0.2625293330574223	0.36342433466985824	125.80131996651073
16	6.0	perception	308	diff_vonmises	-0.05872030668774947	-3.364425744921867	1.7326497932395284	1.630619477095061	8.127296908831034e-12	2.5965717570257882	0.3577364977982675	-0.3891514718998482	0.7468879696981157	103.698108013878
17	6.0	wm	308	diff_vonmises	0.05116146771391927	2.9313361737023986	0.6205327515671246	216.43582066326505	0.6091167692120617	217.63007765133923	0.1490977585113029	-0.3466113249601612	0.49570908347146414	108.54556509355385
18	7.0	ltm	308	diff_vonmises	-0.017111510422525587	-0.9804173283048362	0.9998775021143615	110.75758768912583	0.9676279905480675	112.4711840557855	0.10156876445265794	-0.4199271591711593	0.5214959236238172	82.89241892976386
19	7.0	perception	308	diff_vonmises	0.06827411977602368	3.9118189131368264	2.5093156645657717	1.6366696691384959	1.9253432809972875e-17	3.2294159530796733	0.45271896009669854	-0.5075841571994041	0.9603031172961026	86.82847131968103
20	7.0	wm	308	diff_vonmises	0.2066385695699582	11.839517920979048	5.509741792053836	0.5237485753949327	7.137911823553897e-24	2.3905291589771447	0.09770993800464861	-0.380456699687262	0.4781666376919106	58.10220301812103
0	1.0	ltm	309	diff_vonmises	0.10369268756671823	5.941153363941621	2.5236083832665375	0.7806627305025193	0.036998039000870044	3.9482571796374666	-0.18920836200359042	-0.6062625134805373	0.41705415147694685	82.2602984290294
1	1.0	perception	309	diff_vonmises	0.026351219010044762	1.5098136343004682	9.479599526225957	0.7236386848838816	0.011349340274512862	3.74751170689003	0.27298468088782624	-0.5973942061139199	0.8703788870017461	43.93111433572105
2	1.0	wm	309	diff_vonmises	0.11859027852318119	6.794722450659211	4.366875250603847	0.479021585332436	2.638696168423201e-17	3.7364068358215587	-0.20840445047267409	-0.5946054033424044	0.38620095286973033	65.44614064336326
3	2.0	ltm	309	diff_vonmises	0.028526477503360397	1.6344467653174404	2.8547487392264075	0.8710127445057779	0.1255381735699503	2.6379729127126166	0.08033257953839418	-0.3897922792789611	0.4701248588173553	75.03167542800739
4	2.0	perception	309	diff_vonmises	-0.05152662578345915	-2.952258189942178	6.857885515517865	1.2040313844046764	0.08981617425318356	3.048368900560983	0.703505159616123	-0.4880124286492294	1.1915175882653524	50.96919130270251
5	2.0	wm	309	diff_vonmises	0.024815472261688065	1.4218218272186898	4.301977217253657	0.6057790237605176	0.06403677619746717	2.7013733311178765	0.02659449571565059	-0.42293696290702903	0.4495314586226796	63.33288028335295
6	3.0	ltm	309	diff_vonmises	0.15509235533698057	8.886137395552256	2.2738372414915213	0.9842469844519034	0.10396171737104644	2.3304379982518784	0.13799728831742725	-0.3331832999369354	0.47118058825436265	85.00069635436398
7	3.0	perception	309	diff_vonmises	0.027106616973423137	1.5530947494548268	4.596372337223948	2.043533632424447	0.08084801171939188	3.4285621317786514	1.1030829871390255	-0.5296842525116484	1.6327672396506738	62.45014612412018
8	3.0	wm	309	diff_vonmises	-0.006529301671952969	-0.3741014289706171	2.4825292666508454	1.0472691060522121	0.17481442915890227	2.9038435413300494	0.06838630467002393	-0.41164012576764	0.4800264304376639	77.93869506990075
9	4.0	ltm	309	diff_vonmises	0.18102640786483692	10.372049151069008	0.43556536496632453	169.8411296715036	0.4215630013657262	172.18697441011975	-0.10576015967883734	-0.5193887802408348	0.41362862056199745	120.60866954611157
10	4.0	perception	309	diff_vonmises	-0.026462858401049408	-1.516210100232445	2.112358962070047	3.2872898630886493	0.24988066677090948	5.850002636826476	0.5756432648874785	-0.7387246352649517	1.3143679001524302	83.68622091567323
11	4.0	wm	309	diff_vonmises	0.1850183986369611	10.600773374166893	0.6293967481139485	243.5853089758367	0.6164068467093796	246.61261615421313	-0.21321636384591613	-0.5923011464475927	0.37908478260167655	95.28035282192562
12	5.0	ltm	309	diff_vonmises	0.1231914967643486	7.058352836496711	1.9126462797242172	1.1812282999924797	0.048147889428044176	2.6477138770040765	0.15119320787223722	-0.38841827480772034	0.5396114826799576	95.64082073796814
13	5.0	perception	309	diff_vonmises	0.015056710004380833	0.862685936603425	1.9259248957350414	2.538267219297548	5.099526121226535e-15	3.831890079669146	0.6700053156440401	-0.5826789929030697	1.2526843085471098	98.76553102586297
14	5.0	wm	309	diff_vonmises	-0.01752965693122638	-1.0043753584715218	0.5840633463518546	204.3726775536018	0.5700719714464176	206.0984109807334	0.09140796039452681	-0.4457177538371795	0.5371257142317063	109.57882380978701
15	6.0	ltm	309	diff_vonmises	0.31892612707530366	18.273121057867872	0.3837411262637946	136.8257173593709	0.37142380897219446	138.0133905624018	0.04279235008659654	-0.33641332965751936	0.3792056797441159	131.81685440898897
16	6.0	perception	309	diff_vonmises	-0.05636675959876196	-3.229577429837582	1.4607212639961316	1.909400857161821	1.1056238340716e-20	3.1863239211426406	0.3067605070802284	-0.46328591551483916	0.7700464225950676	111.6876758063631
17	6.0	wm	309	diff_vonmises	0.07046110729161956	4.037124067628271	0.509553570826252	225.9198826600687	0.4992328075693926	227.54777303777416	0.03466256439043747	-0.40986247496237027	0.44452503935280774	116.03864012099805
18	7.0	ltm	309	diff_vonmises	-0.013283845732373786	-0.761108296167888	1.875706542474223	2.5132557525519426	0.571819022124111	4.7793917342680565	0.003357268328135765	-0.5129033728712551	0.5162606411993909	74.22075976417165
19	7.0	perception	309	diff_vonmises	0.09465183904051076	5.423150900172862	0.8184486873248841	110.62387189165577	0.7739991298260075	112.3501705309149	0.42335027606991105	-0.5540535045413559	0.977403780611267	97.26680877422956
20	7.0	wm	309	diff_vonmises	-0.06626794478322434	-3.796873553084736	2.7915866859339147	0.6517269644534165	2.4110498575163764e-23	3.2390109153169138	-0.1059255325363378	-0.5139642756063403	0.4080387430700025	82.29151765799094
0	1.0	ltm	310	diff_vonmises	-0.014078965248355987	-0.8066652886421529	1.0588983366179883	177.28260042639013	1.0420210491934314	178.57366544619455	0.11188105652694702	-0.3304219874402179	0.4423030439671649	80.94646536490342
1	1.0	perception	310	diff_vonmises	0.013267028581868555	0.760144744420502	7.934959140289624	0.6962943793599506	2.266036177876478e-17	1.959779784906008	0.45739935759083505	-0.3119085415244255	0.7693078991152605	48.25803723783869
2	1.0	wm	310	diff_vonmises	0.1331934424032194	7.631422108523289	4.452538799909235	0.4085350799141681	1.733711521671915e-19	1.628911105642039	0.07362712869139937	-0.25920407528605843	0.3328312039774578	64.79955258273495
3	2.0	ltm	310	diff_vonmises	-0.03532108289973051	-2.0237489779862616	3.9805067536814476	0.6422470942056485	0.2006545645737596	1.3736566253909863	0.22794695527238318	-0.20739761456787373	0.43534456984025693	64.44975363283837
4	2.0	perception	310	diff_vonmises	-0.044545409740078326	-2.5522639747874374	6.798817871288051	1.0976399057992532	1.943650720954927e-15	1.7947366665438553	0.8332882596579981	-0.2856398201389295	1.1189280797969277	52.20623254273238
5	2.0	wm	310	diff_vonmises	-0.02205084994472828	-1.263420636509215	5.1182353271540535	0.4678367777853205	0.13303519225127913	1.3031936985062698	0.17486006055726216	-0.2053597888102927	0.3802198493675549	57.89068594443967
6	3.0	ltm	310	diff_vonmises	0.1445044504700357	8.279495132790291	2.1540110417107963	1.2819425100780568	0.659027852039517	1.6454327587537625	0.23615441728175046	-0.15597001126780352	0.392124428549554	76.53003272321001
7	3.0	perception	310	diff_vonmises	0.04092388193381312	2.3447657160991695	5.141525852845177	1.6420042030869502	0.04542496141850736	1.9299012437768108	1.1237643713388537	-0.30121473121030273	1.4249791025491563	59.70211369785869
8	3.0	wm	310	diff_vonmises	-0.06517699640737164	-3.734366815481724	2.248378436165908	1.3219034940939847	0.5627667900015607	1.8416363348442857	0.25552184004467143	-0.1947410872877037	0.45026292733237516	76.31033371787649
9	4.0	ltm	310	diff_vonmises	-0.03486473634329626	-1.9976022463072505	0.7760865545773912	82.33655719256703	0.7577668298280436	83.10136469035514	0.06196267334557959	-0.19449286500391771	0.2564555383494973	95.31616641263699
10	4.0	perception	310	diff_vonmises	-0.08360081506588199	-4.7899738671287455	2.622642615776943	2.446243076137719	0.14544234720707813	3.7704971656651884	0.7922954286947987	-0.5261080175274465	1.3184034462222454	80.21179431499115
11	4.0	wm	310	diff_vonmises	-0.024648942975482306	-1.4122804019537736	1.1304197172505732	168.13125461113293	1.114057745098805	169.54539571984012	4.376584946186313e-05	-0.33022830360853206	0.3302720694579939	75.0150988064413
12	5.0	ltm	310	diff_vonmises	0.23089179273065388	13.22912524767585	1.7036143918404734	1.2910180363233361	0.2423350880185275	1.7668222195986665	0.25108136007353665	-0.20050450864453628	0.45158586871807294	93.78182695677847
13	5.0	perception	310	diff_vonmises	0.0024458111982395146	0.1401346591449589	2.476216282216547	2.0161197862470477	3.009574313821432e-17	2.198273377410178	0.8316889722496352	-0.34151684749539135	1.1732058197450266	87.40996599859852
14	5.0	wm	310	diff_vonmises	0.011944096137760247	0.6843462987921692	0.6229955857684197	132.75205894751755	0.6096084205015927	133.20397233683826	0.21603604040311808	-0.21586117260879156	0.43189721301190964	113.47407341202657
15	6.0	ltm	310	diff_vonmises	0.3805281582895759	21.80265745587883	0.767516858132099	74.67127899480879	0.7535296381525157	74.97358137477903	0.11030795728142806	-0.11434867537416604	0.2246566326555941	101.09739909081173
16	6.0	perception	310	diff_vonmises	-0.18681754473779663	-10.703856852472189	1.700507174137762	1.6028881620522843	9.88306552551417e-16	1.821486697041668	0.4594005439311076	-0.26491626621157455	0.7243168101426821	104.49954685049372
17	6.0	wm	310	diff_vonmises	-0.13551973945894502	-7.764709111710077	0.6824418972288754	93.09337283417618	0.6636845780154845	93.61904204364443	0.1864178298016732	-0.20695077093322745	0.39336860073490065	107.49150120554339
18	7.0	ltm	310	diff_vonmises	-0.004994109913062487	-0.28614142044292695	1.8322371667632582	2.2878598677837276	0.8363926862993994	2.9880210902391933	0.19113367527721503	-0.22306506917931038	0.4141987444565254	75.41389087525661
19	7.0	perception	310	diff_vonmises	-0.010258079063239422	-0.587744636235132	2.035519082170388	2.7327470231859845	0.3711109436617842	3.4072969261148405	0.6652026631752042	-0.3693463400120947	1.0345490031872988	84.73425654141121
20	7.0	wm	310	diff_vonmises	-0.26981627503646866	-15.459333803530686	0.0002576020162295169	4689.388327564779	1.0106677860217182e-31	4690.264333821643	0.05284399151059915	-0.3316606835217044	0.38450467503230357	177.91445324640395
0	1.0	ltm	311	diff_vonmises	0.07241361662013752	4.148994611612273	3.8110208100194556	0.34475798805775487	9.962940561254153e-18	1.477330629393113	0.02300884579640705	-0.2349981020585884	0.25800694785499545	70.18214074311243
1	1.0	perception	311	diff_vonmises	0.01962726295852654	1.1245593309170243	12.408970613392615	0.6670653532045338	0.02202173325906386	1.864931318793576	0.6242250037554096	-0.29885977216804843	0.923084775923458	38.371335797639375
2	1.0	wm	311	diff_vonmises	0.0413535105465162	2.369381622365117	3.1652427163185384	0.3829678504671956	6.660709242298903e-16	1.7645533795691142	-0.02227703370445394	-0.2803767924413335	0.25809975873687957	77.19452720928524
3	2.0	ltm	311	diff_vonmises	0.16931980230800026	9.70131006023787	5.265655343556088	0.32991023291824306	0.018742032191482107	0.9927441496427469	0.133067914641356	-0.15686597880566913	0.28993389344702514	58.971341343500825
4	2.0	perception	311	diff_vonmises	-0.024831145922053703	-1.4227198618071621	8.963706769117717	0.9865595941039532	0.07157545884664794	1.5194865457983926	0.9012786753320733	-0.24459026256942573	1.145868937901499	45.026496593623136
5	2.0	wm	311	diff_vonmises	0.06518549861934686	3.73485395634443	8.016784589490863	0.2822762148380157	1.0537900088479043e-10	1.1627794798574322	0.1284709470213726	-0.18506206780105564	0.31353301482242824	48.00856270307236
6	3.0	ltm	311	diff_vonmises	0.26554286677377753	15.214485545942152	3.1722583661800705	0.5726427411677729	0.4475838852220981	0.8812646558589288	0.17827489092358004	-0.11749797635434345	0.2957728672779235	68.40034671951202
7	3.0	perception	311	diff_vonmises	0.011524431590379965	0.6603012914160111	6.2845630361364	1.4404542341024464	0.15848560235601902	1.811239725146553	1.0736717459378855	-0.28664093180317857	1.3603126777410641	53.26591160775678
8	3.0	wm	311	diff_vonmises	0.03218067103455614	1.8438166321789633	5.61618462262028	0.5341847847019098	0.49248476868164776	1.2181674017187494	0.19380257061902162	-0.205653350540402	0.39945592115942363	52.121894171660244
9	4.0	ltm	311	diff_vonmises	-0.04348988980680257	-2.4917871374188065	1.524675393338032	166.66583073870254	1.509530731413249	167.55020834114828	0.05538923522294681	-0.24800460529384694	0.30339384051679374	66.08754216584856
10	4.0	perception	311	diff_vonmises	-0.04518943583596709	-2.589163951978151	3.4131582336760324	1.6387038324591143	0.0008890573841964216	2.8292681502236956	0.7035116945607356	-0.4486394208512604	1.1521511154119959	74.24279166324465
11	4.0	wm	311	diff_vonmises	-0.043479708648926654	-2.4912038000419603	1.2028359092995826	173.8178086225526	1.1866972555446418	175.38186026069252	-0.07059906316095521	-0.3551159225483289	0.2845168593873737	70.2467340272213
12	5.0	ltm	311	diff_vonmises	0.13995711090200552	8.018951767529318	1.7646217036678642	0.9703918609553629	0.06332619089249929	1.535248026746933	0.20391974389081846	-0.21551199395060763	0.41943173784142607	99.47560365540824
13	5.0	perception	311	diff_vonmises	0.013608907636613958	0.7797329713613356	3.0327132093674862	1.4897675720023165	1.2339811884700281e-20	1.9303647284778995	0.6745311099084228	-0.3049475718074965	0.9794786817159193	78.8984565086393
14	5.0	wm	311	diff_vonmises	0.015985131105635556	0.9158805473162086	0.5758863204687275	132.12696502304075	0.5624160376374809	132.8429405483922	0.150714341490918	-0.24870045656848383	0.39941479805940183	115.00228459727893
15	6.0	ltm	311	diff_vonmises	0.24278572722301647	13.9105974958933	0.6208937672549657	111.28070291912844	0.6094328863004999	111.72080490147317	0.12407389738191554	-0.1642122598912792	0.28828615727319473	111.65376595427105
16	6.0	perception	311	diff_vonmises	-0.06550139650818387	-3.7529535721318834	2.0603560826070892	1.2957631767002276	1.223762982959825e-13	1.9371693740379061	0.3722474322282059	-0.29726220236126777	0.6695096345894737	95.64823537173885
17	6.0	wm	311	diff_vonmises	-0.036786257015277164	-2.1076972710588984	0.5910143387880126	177.06765910995506	0.5788324588936089	177.88053738234848	0.1950242224654133	-0.29206784461810287	0.48709206708351616	113.93101328177742
18	7.0	ltm	311	diff_vonmises	0.08380380816013659	4.801604514699835	0.9833750091066528	137.73350632027686	0.9650547867498217	138.6801492140538	0.16113350363626466	-0.2678975280715399	0.42903103170780454	86.29613288263783
19	7.0	perception	311	diff_vonmises	0.045884127134742964	2.6289668314624706	2.4903465060424104	1.3694494844467655	1.0202609045735051e-17	2.4920190547690027	0.40860843047753476	-0.3910852367531383	0.799693667230673	87.16196305188342
20	7.0	wm	311	diff_vonmises	0.27503301937588426	15.758231236977963	3.9048380679102963	0.46256171460458356	1.0588110986558309e-19	1.5535794102390648	0.1037206299270571	-0.24711740855064	0.3508380384776971	69.30963713616745
0	1.0	ltm	312	diff_vonmises	-0.09979382564454492	-5.717765030896826	1.0464260688952398	283.9830919182564	1.0298597540003234	286.5079942168954	0.00977105442957793	-0.5806690796870626	0.5904401341166405	78.30042064711085
1	1.0	perception	312	diff_vonmises	0.01596517923893104	0.9147373895606323	13.38848286139627	0.6342327312084883	1.8900531636042962e-20	3.0882934555025545	0.4253330168094496	-0.491517169159428	0.9168501859688776	37.04022940150051
2	1.0	wm	312	diff_vonmises	0.13428441179931105	7.6939300504972765	4.583918282303802	0.4455323460843002	2.1269677818819424e-20	3.023727146381938	-0.11248211923727408	-0.48120263982150024	0.36872052058422616	63.84084540163457
3	2.0	ltm	312	diff_vonmises	-0.08651741361147233	-4.957082654325066	3.143966411220371	0.7645628072377277	0.06498110295312368	2.0389540855991117	0.16833122478470458	-0.3095499657835736	0.47788119056827816	74.50920140520884
4	2.0	perception	312	diff_vonmises	-0.0625129618243647	-3.581728877398532	6.743399841699575	1.131412292917542	0.11104728072372357	2.317610703510845	0.737558483956992	-0.3708496700363427	1.1084081539933348	51.384095186756355
5	2.0	wm	312	diff_vonmises	-0.05274431360276839	-3.0220265627530867	3.841283666227332	0.6053421035947031	0.14988742747738668	2.0735963576091954	0.07397628205388251	-0.3188522828632705	0.392828564917153	64.87853994770143
6	3.0	ltm	312	diff_vonmises	-0.03366313749741066	-1.9287557037702148	0.9002878974768644	142.62160848819295	0.8847070770881166	143.42984595860582	0.16489431275159205	-0.24028588345453805	0.4051801962061301	90.99675423584091
7	3.0	perception	312	diff_vonmises	0.04992566094107405	2.860529661324685	4.430291946699952	1.9430389446364114	0.23305447328371726	2.5003638437765154	1.0834188560139817	-0.3738793883590495	1.4572982443730311	62.27790688119708
8	3.0	wm	312	diff_vonmises	-0.0015031196136775142	-0.08612240996705633	2.1222654642587586	1.2734170617528597	0.38001505693803295	2.270505698217764	0.1710078260222323	-0.2700345068830841	0.4410423329053164	79.35207958281373
9	4.0	ltm	312	diff_vonmises	-0.24202972270048712	-13.867281627459565	0.7666773516411832	170.6263354919075	0.7540615125575297	171.96946773386566	0.01494956545280246	-0.30411255700138184	0.3190621224541843	92.61904657173191
10	4.0	perception	312	diff_vonmises	-0.05337655437322787	-3.0582512905365142	1.572896672405528	6.338793489273471	0.6296844997897855	7.757893200446925	0.7220776165303038	-0.5622525067141502	1.284330123244454	85.59833882276556
11	4.0	wm	312	diff_vonmises	0.07080957310174425	4.057089687853024	0.8554459229487706	222.2047565886814	0.8425164620734186	224.0733400900134	-0.0343235236447299	-0.4041227034661574	0.3697991798214275	85.6167472442427
12	5.0	ltm	312	diff_vonmises	0.18272572988615926	10.469413130924417	1.4761616451198811	1.7737473364286545	0.264097691851651	2.9801890242958518	0.15381245560550538	-0.3261302317123116	0.479942687317817	95.08827717640435
13	5.0	perception	312	diff_vonmises	0.04573015761972034	2.620145028077998	2.210066768862223	2.3134503708409366	0.017986890974234174	3.340710637302019	0.7260017956906589	-0.506920208545583	1.2329220042362419	91.72150397987556
14	5.0	wm	312	diff_vonmises	-0.05576479583289296	-3.195087446633487	0.4936839307707858	218.18519501504363	0.4830482377468409	219.4850491004865	0.11630489844893788	-0.38487259532151796	0.5011774937704558	120.84461165806404
15	6.0	ltm	312	diff_vonmises	0.5041320809369454	28.884640554834597	0.8286947430843171	120.56847851579124	0.8135844357239147	121.70550003584597	-0.0003585787494344572	-0.252439598429655	0.25208101968022056	88.28272389256173
16	6.0	perception	312	diff_vonmises	-0.1580038149506701	-9.052951743639454	1.4409315333828805	2.063293613424747	1.2643519234505137e-16	3.179917937708356	0.3661712005092622	-0.45722602008297786	0.8233972205922401	112.24037152327459
17	6.0	wm	312	diff_vonmises	-0.21527389474623826	-12.334285608302958	0.4975193828573214	139.8150775036639	0.4800779898725177	141.1829618254413	0.12253133089167534	-0.4049858580890646	0.52751718898074	120.69720798139656
18	7.0	ltm	312	diff_vonmises	-0.006116886784606497	-0.3504717965173009	1.358983581848539	76.93142683743389	1.3145844782108231	78.17618292826161	0.1187835311331078	-0.3416207579328816	0.4604042890659894	71.495373958783
19	7.0	perception	312	diff_vonmises	0.04135165959087061	2.369275570418558	2.635631465651404	1.6604573992455163	0.1037494034469558	2.72587387950276	0.5293030712435011	-0.3917212296267245	0.9210243008702256	80.97338457508422
20	7.0	wm	312	diff_vonmises	0.07392337252896969	4.235497253283294	2.18723889771009	0.7330836604322728	3.241024818275508e-15	2.2599358110426717	0.03942498957533719	-0.3546531556051563	0.3940781451804935	92.92211389570309
0	1.0	ltm	313	diff_vonmises	0.12533857139477667	7.181371151119851	1.4154924052250637	4.8247119945899035	0.6876465339434528	7.997758710889592	-0.23911381016202027	-0.6522058450381685	0.4130920348761482	73.50775509847847
1	1.0	perception	313	diff_vonmises	0.12535923856017692	7.182555292471784	7.09869477817815	1.0201660523715792	0.1981376955178958	4.243247043959415	0.24851073311800176	-0.7097030997391737	0.9582138328571754	48.36284083519206
2	1.0	wm	313	diff_vonmises	0.12937637935548996	7.4127205057530485	3.5995467352236923	0.5401498865833626	0.12123058268491223	3.8906329980308856	-0.3045951939434947	-0.6100851249856611	0.30548993104216643	64.11623744349859
3	2.0	ltm	313	diff_vonmises	0.009971318076999096	0.5713144419945523	2.201291255224477	1.714435526349031	0.6653072212850619	2.871013768874599	0.13892892626199116	-0.3093314577549696	0.4482603840169608	71.51810461108221
4	2.0	perception	313	diff_vonmises	-0.029668770194716348	-1.6998953155007763	7.483820752922148	1.178060836431061	0.14876630128152574	2.4461120950564252	0.8133408395995378	-0.3982600776387778	1.2116009172383158	48.586750588122015
5	2.0	wm	313	diff_vonmises	0.10007870594386908	5.734087469714525	6.2536790675294895	0.3930588765145607	0.09024248627393734	1.9848250629748763	0.03856654724293784	-0.31908919610963377	0.3576557433525716	52.44189149950401
6	3.0	ltm	313	diff_vonmises	0.18385435558849794	10.534078620318413	3.043736599244641	0.6510983693300962	0.19827670129007646	1.3712003316944472	0.16643329348582753	-0.19681035498905586	0.3632436484748834	72.54895119575028
7	3.0	perception	313	diff_vonmises	0.04610534447398414	2.641641651356104	6.067240408138237	1.4443806253323477	6.894878630896547e-17	2.3131382756456076	1.0191504820141921	-0.3681399375619841	1.3872904195761762	55.317104166711005
8	3.0	wm	313	diff_vonmises	0.11393638469964416	6.528073976268538	4.81218137565521	0.4710018881835728	0.12838310352364413	1.6917066255314017	0.09522414415697522	-0.26668115597728853	0.36190530013426375	59.07588255498092
9	4.0	ltm	313	diff_vonmises	0.4610189703975222	26.41444127924466	0.6701880386515692	189.8389135203833	0.6594064630347084	191.6489706790126	-0.11169576117443825	-0.360072680212312	0.24837691903787373	93.17870651046454
10	4.0	perception	313	diff_vonmises	-0.07905460264333876	-4.529495082547072	3.5264340681063877	1.8266969390312444	3.005147983226343e-14	3.882191685216373	0.6923111073406507	-0.6167365192555975	1.3090476265962483	73.03893872852714
11	4.0	wm	313	diff_vonmises	0.01839842272914941	1.0541519720778267	0.9129918003796798	65.55078032297256	0.8603617730648719	68.06434980411561	-0.13475705501354796	-0.51931125278292	0.38455419776937205	81.0073214754851
12	5.0	ltm	313	diff_vonmises	-0.04871424784917445	-2.791120803911944	1.9940401535114118	1.0010503989768444	4.535345915562314e-15	2.4412771844234493	0.1269482691873247	-0.37898634333084297	0.5059346125181676	97.15568638096894
13	5.0	perception	313	diff_vonmises	-0.02619315062210271	-1.500756982796952	2.3538941225953334	2.2118011294932995	1.2699334616654935e-15	3.3205474746776478	0.7294371712831704	-0.5171271561996712	1.2465643274828415	89.6442729402871
14	5.0	wm	313	diff_vonmises	0.015071533065094882	0.8635352354218062	0.5995523148273334	216.64712894068873	0.5868779229525427	218.1861654141174	0.11448144580249675	-0.4113996560709694	0.5258811018734662	108.89270420620686
15	6.0	ltm	313	diff_vonmises	0.3925089320253559	22.48910522624021	0.6709557168788963	181.5972348766005	0.6571717733078233	182.8945588499118	0.11757953222750217	-0.3455471632892042	0.4631266955167064	103.176163922164
16	6.0	perception	313	diff_vonmises	-0.029113716677124743	-1.668093091538887	0.5213639267507018	169.73485227214346	0.5000893744465071	170.86994262926535	0.39590440835297613	-0.5064554852708554	0.9023598936238315	122.53475424803266
17	6.0	wm	313	diff_vonmises	0.08611894853040189	4.934252286896392	0.6604535809038903	246.16232499469297	0.6468284650114203	247.54640783270088	0.25778226202832855	-0.43524149123368616	0.6930237532620147	106.60909085919707
18	7.0	ltm	313	diff_vonmises	0.02102053653760018	1.2043880267050309	0.9396667698330304	152.84000070066688	0.9140668255630721	155.17493230318505	-0.015667544448824344	-0.5187895407879779	0.5031219963391536	82.489791017134
19	7.0	perception	313	diff_vonmises	0.030971456133201205	1.7745337218069974	1.0285726414777543	300.3429344249896	1.0080365132511464	302.40165759801795	0.45824723312317417	-0.6203086198937697	1.078555853016944	85.24408775996653
20	7.0	wm	313	diff_vonmises	0.3593345659088423	20.588354059742176	3.0526397265236493	1.202862467309295	0.26611002016699425	3.451807844759633	0.09126581384995269	-0.5034100418335795	0.5946758556835322	68.84686838208421
0	1.0	ltm	314	diff_vonmises	0.23023719843474677	13.191619757227034	2.196520357545918	1.6701346105283845	0.3916111908223758	4.918434621850397	-0.20330966399652006	-0.6583125642036836	0.4550029002071635	71.04476233068732
1	1.0	perception	314	diff_vonmises	0.13604882483963868	7.795023471025895	3.6735867497800565	1.8227979765079785	0.4047874116737754	5.109098368606481	0.16701176356881575	-0.7795629129514022	0.946574676520218	61.370089617933985
2	1.0	wm	314	diff_vonmises	0.20058927420262823	11.492918827402999	3.686746891034238	0.5376196106574818	0.051666592515770035	3.7108287827219923	-0.22629142457520707	-0.5804427008006844	0.3541512762254773	67.39259694748279
3	2.0	ltm	314	diff_vonmises	0.06104806375590097	3.4977964006586943	2.3347852311426034	2.0803487728803907	0.8195696098918576	3.2844569525560683	0.16790200308241565	-0.34218835058910224	0.5100903536715179	67.92124285159733
4	2.0	perception	314	diff_vonmises	-0.04051019437366759	-2.321063164865766	7.50728662108683	1.1619371475693863	0.010678040777611508	2.3929046841238777	0.8624152076535769	-0.38016291382377715	1.2425781214773541	49.519753096814156
5	2.0	wm	314	diff_vonmises	0.07240027518544072	4.148230203711496	5.750966671593787	0.4938386966024346	0.10050470732865387	2.0488496312559614	0.10153557745219144	-0.3273733012990223	0.42890887875121375	54.66125019987666
6	3.0	ltm	314	diff_vonmises	0.22279375888483238	12.765142085956182	3.94793596127317	0.562894992598365	4.849911722609637e-15	1.383379501206454	0.20951309407179708	-0.22001171334747585	0.4295248074192729	68.9218651611252
7	3.0	perception	314	diff_vonmises	0.036027151385477615	2.0642037222667637	5.413829899493997	1.603476562278818	2.2181787317478068e-17	2.6545628982780793	1.0279453397209548	-0.4224580259041384	1.4504033656250932	58.62641464185282
8	3.0	wm	314	diff_vonmises	0.06891243702003966	3.948391797209364	4.789480937808054	0.6321879217948846	0.10301270237184848	1.9417075393721095	0.1940837522969805	-0.3042301434009492	0.4983138956979297	60.02156703235147
9	4.0	ltm	314	diff_vonmises	0.7188030099339804	41.18437877051726	0.5952630067859767	212.1019141592485	0.5839433019998659	214.02464860790187	-0.050804129598041925	-0.41579391852499015	0.3649897889269482	103.21563187836657
10	4.0	perception	314	diff_vonmises	-0.08648415821695635	-4.955177260573258	3.23116936445719	2.1001612270176397	3.1631644336232696e-20	4.6994422112315535	0.6866587332464049	-0.7456998441364532	1.4323585773828582	76.38113361284013
11	4.0	wm	314	diff_vonmises	0.01617431606168264	0.9267200468450745	0.9668964542140868	189.20768577070407	0.943977535212015	192.11093359416077	-0.1380311267058829	-0.6138505377768446	0.4758194110709617	78.46676760252609
12	5.0	ltm	314	diff_vonmises	-0.028272263596705483	-1.6198813813725812	1.6028426110890388	1.1347893283959052	5.721305894817134e-14	2.2326234457100527	0.15638038852898573	-0.3345912754904972	0.49097166401948295	107.3557071705732
13	5.0	perception	314	diff_vonmises	-0.057025819066056284	-3.267338755761687	1.9000417653164883	2.5835547489113853	7.526953961388073e-16	3.17359454998146	0.7869454598903071	-0.4761905752709825	1.2631360351612897	99.39065455154926
14	5.0	wm	314	diff_vonmises	0.07186176561837246	4.117375878291068	0.7196048205980387	177.31169274049273	0.7035751483306859	178.40828284013898	0.2292033891547689	-0.34623479948886704	0.5754381886436359	102.44935842410098
15	6.0	ltm	314	diff_vonmises	0.5183744408016284	29.700667665387446	0.681319731769824	178.89331566032644	0.6688525224636495	179.54869978335944	0.24195224981099273	-0.26236489045557043	0.5043171402665632	107.47662715617147
16	6.0	perception	314	diff_vonmises	0.019900851438864692	1.1402347961637984	0.580643520243559	121.20777361429066	0.5525505703627027	121.6135179554457	0.5380663697316734	-0.39618914732481336	0.9342555170564868	120.25045241688211
17	6.0	wm	314	diff_vonmises	0.19354401043230196	11.089254947806879	0.7318971352261796	246.6677947048656	0.7201165195474413	247.54776177158757	0.3006314027280297	-0.32962892325376814	0.6302603259817978	103.27601813790315
18	7.0	ltm	314	diff_vonmises	-0.009376333240205214	-0.5372243219719827	2.6838261214984365	1.2132205031455003	0.2413780704190865	3.667983894753651	0.012782577290252561	-0.524469887012453	0.5372524643027056	72.53091479295409
19	7.0	perception	314	diff_vonmises	0.0791656358583675	4.535856817153988	0.9970329160619601	415.0627398469313	0.9818506166267251	416.98953433586746	0.5412896317239415	-0.6215271759672589	1.1628168076912004	87.3790273730337
20	7.0	wm	314	diff_vonmises	0.28130626802861053	16.117661908615307	3.75783154125394	0.7581239451990752	2.695673109628814e-22	3.0351854368254334	0.08020362116641294	-0.4827580672515147	0.5629616884179276	70.68662041504598
0	1.0	ltm	315	diff_vonmises	0.1328898374298257	7.614026824908649	3.040738664313134	0.6650820744984023	2.796484157846145e-17	2.809692363771646	-0.008247732639448946	-0.4461734261280736	0.43792569348862465	78.78900784735006
1	1.0	perception	315	diff_vonmises	-0.004222307306702822	-0.24192038848132133	8.280107657394705	0.7939790067074408	0.09628861467028703	3.1028989345914764	0.35428952612688946	-0.5058133176504854	0.8601028437773749	46.13877919951517
2	1.0	wm	315	diff_vonmises	0.1795895617408458	10.289723932354587	2.8060082036732767	0.6507085707005889	3.079171528869011e-12	2.935224840935807	-0.05700692616033842	-0.4656568772167968	0.4086499510564584	82.06755231896886
3	2.0	ltm	315	diff_vonmises	0.09476076743795064	5.429392037615291	3.7753794092444	0.7259539434127361	0.24317160942829963	1.8532165396277653	0.1700561701186306	-0.2797386064607309	0.4497947765793615	64.4761835185518
4	2.0	perception	315	diff_vonmises	-0.06117195451132457	-3.504894818065154	7.32658373291523	1.073041648723581	3.3856775177854914e-20	2.1168230113501405	0.8003288002116631	-0.33690235353118186	1.137231153742845	50.261478472078664
5	2.0	wm	315	diff_vonmises	0.014806879832170619	0.8483717221407532	5.220597111831108	0.5495044119255094	0.04085420018150937	1.9645218505452886	0.16199406141621137	-0.3099050732850184	0.47189913470122974	58.62270460894305
6	3.0	ltm	315	diff_vonmises	0.20310166734759919	11.636868351087434	2.5136839723786033	0.7859162929279802	2.5721345401768535e-11	1.6578268642632796	0.20080110530786416	-0.26080475087093136	0.4616058561787955	86.73138779677001
7	3.0	perception	315	diff_vonmises	-0.0020006427163132864	-0.11462838395834017	5.087988803071978	1.718517207666013	1.917635257449852e-16	2.792487360881035	1.059647650885685	-0.44438089920073953	1.5040285500864243	60.51681990773369
8	3.0	wm	315	diff_vonmises	-0.008057784044544927	-0.4616770179802788	2.645353023090119	1.441552093585402	0.3908508162284154	2.796963876140826	0.24446998992290125	-0.3663021532661611	0.6107721431890624	72.45646365463361
9	4.0	ltm	315	diff_vonmises	0.18508310989218676	10.604481055978319	0.75038897426767	153.97283360261574	0.7340623204120937	155.57898536222112	0.012324886670292301	-0.3619757043366647	0.374300591006957	93.61246121834341
10	4.0	perception	315	diff_vonmises	-0.05354769852892534	-3.0680571283463087	2.650731321856104	2.2495482270418803	5.1409444671260656e-15	4.34602278602557	0.680277594054216	-0.6848526828064323	1.3651302768606484	84.47294613906993
11	4.0	wm	315	diff_vonmises	0.04533664319713239	2.597598312486181	0.9669482615602517	296.2760103681063	0.9530057754382503	298.91834999370786	-0.09548908642099718	-0.5675801324258742	0.47209104600487706	79.13413382257201
12	5.0	ltm	315	diff_vonmises	0.05425937029414111	3.1088329168917976	1.5186273225933513	1.242398557712363	6.270235838305088e-20	2.0250497389751954	0.21989100469862483	-0.2962897457321238	0.5161807504307486	109.86639537913862
13	5.0	perception	315	diff_vonmises	-0.024303344294385146	-1.3924790561216185	1.7099907450016025	2.3616586924172895	1.4199726886413178e-14	2.803875799233435	0.6614750376338823	-0.4100107089144715	1.0714857465483538	104.32197304463183
14	5.0	wm	315	diff_vonmises	0.03467636441272723	1.9868093297069136	0.7254798988442132	140.7204977255771	0.7071899273154827	141.6101689720939	0.23650246908020023	-0.303645681307918	0.5401481503881183	103.02795781825978
15	6.0	ltm	315	diff_vonmises	0.5139077617260378	29.44474580591671	0.5301191005044089	168.13710798718407	0.5209213418246742	168.5376958626674	0.18971111834273557	-0.2059460092427674	0.395657127585503	120.85988484595606
16	6.0	perception	315	diff_vonmises	0.012520809303460645	0.717389529176431	1.6914495706955084	1.7523868567390657	0.0072283029714582964	2.2390788986078007	0.45758626441504446	-0.3260679569228551	0.7836542213378996	104.51237564747919
17	6.0	wm	315	diff_vonmises	0.17341960793606456	9.936211619549937	0.6944560506472637	209.5847077544511	0.6832558022478777	210.44859634794642	0.20411790823697373	-0.28711665749044	0.49123456572741375	104.66350003428653
18	7.0	ltm	315	diff_vonmises	-0.037739073473353396	-2.16228963275727	2.8764486040102955	1.2076587405421153	0.297194052788134	3.013347877381024	0.14061339004067408	-0.42597653144868886	0.5665899214893629	70.55457801946241
19	7.0	perception	315	diff_vonmises	0.1403445511351442	8.04115045770173	2.2219222892572175	1.859332296300689	0.03252492520496984	3.318621179289013	0.47635415918220236	-0.49912990021709813	0.9754840593993005	90.56337999186908
20	7.0	wm	315	diff_vonmises	-0.24966953415109652	-14.305010579855203	0.2833131929390812	5.1795371429579635	7.63529665438015e-27	7.0944531425783115	-0.05641496674009949	-0.5204219224688373	0.46400695572873785	162.62491199528216
0	1.0	ltm	316	diff_vonmises	-0.049709411465826275	-2.848139479071069	1.2457208282848815	9.773532181561453	0.9216151085224887	11.325742918890327	0.08608483179206017	-0.382940221051411	0.4690250528434712	78.82478492741319
1	1.0	perception	316	diff_vonmises	0.016475964673119757	0.944003239176403	13.33727525173278	0.5938841126239336	4.3437976058644375e-18	2.281629855917918	0.4937198597402691	-0.3631326698731556	0.8568525296134247	37.11164141270177
2	1.0	wm	316	diff_vonmises	0.14931120933518727	8.554902128900569	3.650125066453324	0.4503009496261838	9.441867558324832e-15	2.131678715225068	-0.010061396832815483	-0.3390448199630222	0.32898342313020673	71.75893198045372
3	2.0	ltm	316	diff_vonmises	-0.031146991155927888	-1.7845911377659693	3.5269400774449418	0.6635748265201963	0.21138957309646003	1.3584379765548513	0.2118901449727092	-0.1998665813624627	0.4117567263351719	67.93223707674474
4	2.0	perception	316	diff_vonmises	-0.04976570022081876	-2.851364587166184	7.653579618979417	0.9872334430977328	0.014543690543377156	1.6154657020074228	0.8097030198371524	-0.25658821182128494	1.0662912316584374	49.029369819770295
5	2.0	wm	316	diff_vonmises	0.0020276758499519053	0.11617726842284616	5.423264716956936	0.42783776104014654	0.12004059114427462	1.3707975157383572	0.14224544178396922	-0.21761197347622677	0.359857415260196	56.29596380122601
6	3.0	ltm	316	diff_vonmises	0.08383022362771657	4.803118009506033	1.0570835184927554	93.46807261016552	1.0374312310421059	93.88552776226949	0.20032799649089839	-0.16382728468836127	0.36415528117925966	86.6859188721744
7	3.0	perception	316	diff_vonmises	0.029040507463738506	1.663898512590383	5.2356125793037105	1.5546806826087685	0.13660547029116415	1.9437042124147756	1.0284484611626104	-0.3005849459659855	1.3290334071285959	58.365619852859396
8	3.0	wm	316	diff_vonmises	0.024475090111651374	1.4023193665999985	2.448206994240574	1.319022783869519	0.6361869466484117	2.0110682523248355	0.21997716348275476	-0.22438771944583358	0.44436488292858833	71.58047464371703
9	4.0	ltm	316	diff_vonmises	-0.12471794298562164	-7.145811762629349	1.192562867784085	152.32014780438436	1.178148651031778	153.23380898544758	0.06373031206520352	-0.2348541710718699	0.2985844831370734	75.46855055345213
10	4.0	perception	316	diff_vonmises	-0.07783181061526818	-4.459434260116386	2.540861953533491	2.374381128120764	0.15678299314181274	3.484412457169408	0.7679062848450983	-0.47836193022734114	1.2462682150724393	81.27023102706895
11	4.0	wm	316	diff_vonmises	-0.011292661981714951	-0.6470218710201071	1.1177572467929113	220.26987029307668	1.1034467833625299	221.86607438981048	0.012862766424177607	-0.3751704180340738	0.3880331844582514	75.79329215627416
12	5.0	ltm	316	diff_vonmises	0.08320445327914999	4.767264009588738	1.829526646803269	1.0023947764463712	2.387450042981176e-22	1.6927151219479533	0.22051343842308513	-0.25678485120506195	0.4772982896281471	101.13931958023838
13	5.0	perception	316	diff_vonmises	0.0071377660340231	0.40896386890135555	2.3790602896762754	1.9024252718317447	8.963120576216922e-22	2.366756095179579	0.7121557552970632	-0.36733570425081163	1.0794914595478748	89.16991519199988
14	5.0	wm	316	diff_vonmises	-0.02513776680356987	-1.4402879442286194	0.5874884041399245	177.31212073598388	0.5761674549429542	178.03821349243492	0.18966023786197894	-0.2701151859528288	0.45977542381480774	114.55734792257311
15	6.0	ltm	316	diff_vonmises	0.41365438463614074	23.700650416732067	0.7502989823328189	97.35826116471146	0.7356112554462092	97.92810931919158	0.1069112623554922	-0.17205591297944522	0.2789671753349374	99.77593959522272
16	6.0	perception	316	diff_vonmises	-0.10967452678334402	-6.283887504780121	1.6548790644143794	1.8198194429605647	2.59755401394979e-09	2.415638477979018	0.45227745729698177	-0.35389769090628714	0.8061751482032689	105.82781412259929
17	6.0	wm	316	diff_vonmises	-0.08116070265582226	-4.650165724494827	0.6824373763223722	144.89539096694833	0.6650878397232736	145.7084415811007	0.25254269648851135	-0.3022543655490484	0.5547970620375597	106.93259978308967
18	7.0	ltm	316	diff_vonmises	-0.005973094214350347	-0.3422330891162852	1.2299190560199418	58.73899715674502	1.1780469256849022	59.7538423674384	0.1818161934189355	-0.295688730177984	0.47750492359691954	77.34965015217387
19	7.0	perception	316	diff_vonmises	0.039968457194031214	2.2900239108672813	3.174753205239813	1.389218512547995	7.30041873134397e-11	2.4526143985418	0.549198219743422	-0.3887036155150079	0.9379018352584299	77.07551348460413
20	7.0	wm	316	diff_vonmises	0.2723162112079706	15.602569595209841	3.555373367948106	0.6403274094495789	7.358834394679999e-23	1.7788539175242994	0.17825938676442293	-0.2827367178023379	0.4609961045667608	72.72590164442414
0	1.0	ltm	317	diff_vonmises	0.10434861509649017	5.978735243063994	4.208900753756676	0.4056742351853709	0.036087928755580076	1.6042841489190136	0.05604097049086454	-0.25136025940409473	0.30740122989495927	65.12796709717941
1	1.0	perception	317	diff_vonmises	0.026107462354562586	1.495847406713115	9.748693110456996	0.7531026959043639	0.11981194506907457	2.02630979914449	0.5628547732752649	-0.3348047834916485	0.8976595567669134	42.75109241068799
2	1.0	wm	317	diff_vonmises	0.1250151827346862	7.162842345754276	2.9574019982006594	0.4480675100697201	1.3906108134750678e-15	1.8113251913386539	0.00279488935434552	-0.28749566923380054	0.29029055858814606	79.91004094731778
3	2.0	ltm	317	diff_vonmises	0.12636683866629875	7.240286525989499	4.489841434608316	0.5369953626222599	0.3918871188547239	1.1141263208936818	0.186942736353725	-0.17317332296791882	0.3601160593216438	58.684083028501504
4	2.0	perception	317	diff_vonmises	-0.03361520806234687	-1.9260095494266136	8.543765165194	0.9938762326612106	4.453385969906539e-20	1.3988882352078262	0.9183491105484495	-0.22263993418838718	1.1409890447368367	46.480408079407596
5	2.0	wm	317	diff_vonmises	0.04919948933109446	2.8189230928706346	7.372964869731586	0.3468223844886408	0.04980234388901491	1.1461157898625283	0.17725950631272377	-0.18313444861400455	0.3603939549267283	49.42282924690386
6	3.0	ltm	317	diff_vonmises	0.25819076623893333	14.793241214739703	3.4842734884384305	0.5199893667977855	0.2809220390889996	0.7959045364855256	0.20601072880177745	-0.11293420154809518	0.31894493034987265	68.27810384822118
7	3.0	perception	317	diff_vonmises	0.014049187756448683	0.8049591640313795	6.54848939124405	1.3217787799962673	1.1925498741303862e-11	1.6927951244779516	1.0520654575432307	-0.2694140005798899	1.3214794581231206	53.205343133299834
8	3.0	wm	317	diff_vonmises	0.03879089152057674	2.2225543676788595	5.229773750731117	0.6219019138808215	0.4490111950167375	1.240664112321916	0.25795449198683157	-0.20140018824172812	0.4593546802285597	54.63538332828966
9	4.0	ltm	317	diff_vonmises	-0.05209329909151702	-2.9847261788566106	1.4658331554154806	116.84970612455578	1.446351036767278	117.66428503818238	0.056689033644666154	-0.22554294741065206	0.2822319810553182	67.7052321871775
10	4.0	perception	317	diff_vonmises	-0.06616921390430851	-3.7912166904152413	3.1962489667089877	1.829787661456125	4.1456286974138186e-20	3.087273083006815	0.7508974441227578	-0.48927506732333076	1.2401725114460886	76.80910403727484
11	4.0	wm	317	diff_vonmises	-0.059415595467607635	-3.4042628575505405	1.2851890996360817	215.2051937392155	1.2696680487925287	216.83359701320688	-0.028767458551513414	-0.3905215184274198	0.36175405987590636	69.36270939401248
12	5.0	ltm	317	diff_vonmises	0.0853857761788239	4.892244605495291	1.6315946932652827	0.9851813749868414	1.6760713417221167e-21	1.4470263018101652	0.21879488750308013	-0.21311610065116912	0.4319109881542492	106.49359690959074
13	5.0	perception	317	diff_vonmises	-0.012877162518122097	-0.7378070643924516	2.588000893144353	1.6550033711348382	4.724686917634629e-19	1.8262374898409446	0.7046854057577202	-0.2850301963705302	0.9897156021282504	85.49923582135594
14	5.0	wm	317	diff_vonmises	0.05436747104276773	3.1150266335503076	0.6895249863481273	129.86667250122076	0.6746872885905969	130.35341328666945	0.23079784344669463	-0.21902897301610835	0.449826816462803	107.81182909080138
15	6.0	ltm	317	diff_vonmises	0.40348557623063314	23.118020612419325	0.6897198584191178	99.04994716027502	0.6766909361594042	99.25208903223317	0.18915225060496965	-0.13715378686601642	0.3263060374709861	109.73240952910905
16	6.0	perception	317	diff_vonmises	-0.03901083168992919	-2.2351560111281477	1.8881181532927005	1.5192443702379426	3.0674401858685605e-13	1.7681299803460198	0.47547570638075676	-0.2640668461049797	0.7395425524857364	99.68601911445093
17	6.0	wm	317	diff_vonmises	0.04467069450643238	2.5594422631368072	0.7075067878227707	163.0467857243177	0.69382178363028	163.57196591359983	0.2764530136908121	-0.24636863817789134	0.5228216518687034	106.71767277557367
18	7.0	ltm	317	diff_vonmises	0.03000820934887792	1.719343746435725	1.1939707846692769	8.001070248463389	0.8694164601162905	8.991569478140773	0.17519920380410792	-0.28220879707981117	0.4574080008839191	84.03833884677357
19	7.0	perception	317	diff_vonmises	0.059729641553192554	3.4222563728271607	2.705551105572153	1.4349629479361967	1.7153533959661329e-19	2.534552793696668	0.4821847323133655	-0.3994304302372372	0.8816151625506027	83.60883655314103
20	7.0	wm	317	diff_vonmises	0.2839946035769353	16.271692189449304	3.1436275263870277	0.6029606164720851	6.979134183260162e-31	1.6509390527312695	0.1427715557968688	-0.26200083559017945	0.40477239138704824	77.44802331213214
0	1.0	ltm	318	diff_vonmises	-0.15545651561426954	-8.907002242507227	1.169675664679676	210.12022728390673	1.1501577489119046	212.2154962219052	-0.013114544757144131	-0.49072850932443757	0.47761396456729344	73.44137430337531
1	1.0	perception	318	diff_vonmises	0.024127786050702982	1.3824203096999013	16.114950872550413	0.6840887894436607	0.0012695184145115367	2.739890312021949	0.649805745594853	-0.4362301267510858	1.086035872345939	33.737893719870414
2	1.0	wm	318	diff_vonmises	-0.08540377792729836	-4.893276029706734	0.6178999519911691	34.2304789291425	0.5536208597924089	36.62851763203689	-0.19999955092386656	-0.4571680150274964	0.2571684641036298	96.38896869626525
3	2.0	ltm	318	diff_vonmises	0.09176593757305444	5.257800925997004	2.6338192817826904	0.5410369961018404	8.042983020578696e-33	1.563749110853669	0.0798569806447349	-0.2471834259470163	0.3270404065917512	84.74316228190784
4	2.0	perception	318	diff_vonmises	-0.043216998277069436	-2.476151604500229	8.02950239261413	1.0988220351567273	0.22834135832347022	1.9119011399943375	0.8438606539147768	-0.31921522460581986	1.1630758785205968	46.711094263417664
5	2.0	wm	318	diff_vonmises	-0.025415615199118825	-1.4562074846380562	4.165176950557713	0.45148371001221355	0.12886768098613133	1.7037933117656752	0.04762791847431219	-0.2651883170198078	0.31281623549411997	62.84446444909332
6	3.0	ltm	318	diff_vonmises	0.044644574771255094	2.5579457125491496	1.561594701183399	1.256182008450033	0.5544370210890192	1.7505103108349764	0.10774954463784503	-0.14575432054461837	0.2535038651824634	85.04940976328487
7	3.0	perception	318	diff_vonmises	0.04489679480565541	2.572396856028932	5.355145265706756	1.5963124772882908	0.3072978597441333	1.8517853195430458	1.0439820546548424	-0.28647348676907985	1.3304555414239223	56.6549416774603
8	3.0	wm	318	diff_vonmises	-0.026170128751675653	-1.4994379267849844	3.5392411134925914	0.6550015562143059	0.44537374687992043	1.3835615758156636	0.14342296925975223	-0.20148498100513618	0.3449079502648884	63.510148544299255
9	4.0	ltm	318	diff_vonmises	-0.19588602465213878	-11.223442478163152	1.2075401230934224	168.98280276399024	1.1946690173969052	170.00499576810816	0.015152758424079593	-0.24794918991883108	0.2631019483429107	73.04760657512682
10	4.0	perception	318	diff_vonmises	-0.032793014923247175	-1.8789013526115883	2.298990773701547	2.7801094043783356	0.3938213556374245	3.8001430284405937	0.6963278007356807	-0.43940601030353943	1.13573381103922	79.5184405447655
11	4.0	wm	318	diff_vonmises	0.06597163548160713	3.7798962806716006	0.9869856250436725	166.46238913215117	0.9725003420801733	167.96747340937958	-0.04955829109911747	-0.3260699754158445	0.276511684316727	78.52631075350945
12	5.0	ltm	318	diff_vonmises	0.21744109047033777	12.458456776672659	0.7126092756218546	85.9925858999977	0.6872490122908831	87.09517010756024	0.10456742467591695	-0.2919317584180856	0.39649918309400256	100.50169522807838
13	5.0	perception	318	diff_vonmises	0.07321963121099558	4.195175845894403	2.7590896258446693	1.8038613269297272	1.6454851397202534e-14	2.815293794115152	0.6779332776691445	-0.44354896918673753	1.121482246855882	82.78021018600194
14	5.0	wm	318	diff_vonmises	-0.02665448587904335	-1.527189545960234	0.4126218483170936	176.61274240668524	0.4011207601424231	177.9363870737313	0.0708383902513745	-0.3833045436285616	0.4541429338799361	129.4520943743765
15	6.0	ltm	318	diff_vonmises	0.45352472405934174	25.985052593435547	0.9757999087804189	67.98237638331486	0.9468207540896411	69.1936169921615	-0.027853781053931215	-0.2647869102645064	0.2369331292105752	79.95941131011895
16	6.0	perception	318	diff_vonmises	-0.11900034503990556	-6.818217531387148	1.5202631072504433	1.8193084398972004	4.558560599978892e-18	3.1026353370432407	0.30066828960485814	-0.4558158709553385	0.7564841605601966	109.78798239280253
17	6.0	wm	318	diff_vonmises	-0.27136922290163995	-15.548311162008853	0.4243367703384495	70.9269232738087	0.38851587982247787	72.3640502775948	0.14177241883612623	-0.4594031172967039	0.6011755361328301	130.24062370479123
18	7.0	ltm	318	diff_vonmises	0.09660984900437768	5.535336607346999	1.2691280512859882	159.50974527700308	1.2519615878820887	160.50305311342674	0.11491159108332738	-0.27328586770676466	0.38819745879009204	74.23618833793529
19	7.0	perception	318	diff_vonmises	0.05211488324938094	2.9859628600065578	3.0020789107439145	1.110145327317088	2.7765772527181097e-16	2.1107540276293415	0.3914483435641017	-0.33414140999857594	0.7255897535626776	79.30610565290368
20	7.0	wm	318	diff_vonmises	0.30068657211382244	17.2280715383781	0.9263700054734446	73.59931055064452	0.8949122642262987	74.82261090620676	0.04711295370864477	-0.2894050628175613	0.33651801652620605	85.50556948574226
0	1.0	ltm	319	diff_vonmises	-0.05070240013665581	-2.9050335390139064	4.920499091790317	0.5250208322896763	0.08153901520401342	3.763038070239526	-0.1973220982018441	-0.5990196354985889	0.40169753729674484	57.924286737404856
1	1.0	perception	319	diff_vonmises	0.0559691004391343	3.2067932383061977	16.783419907010856	0.6910052168018762	0.06474729817396647	3.961681933522723	0.44859798812838114	-0.6538459680326335	1.1024439561610146	32.742486475071985
2	1.0	wm	319	diff_vonmises	0.012799918829876552	0.7333813270619576	0.7227639609519997	76.60270398572484	0.6766188491855939	80.4853629521433	-0.41384325567127433	-0.7178273192342761	0.3039840635630018	83.58003834679755
3	2.0	ltm	319	diff_vonmises	0.061818577452205634	3.5419435835139765	2.7313566375605616	0.6059499032865472	2.6367657526852496e-11	2.0454283065417416	0.050473004872321314	-0.323944688567632	0.3744176934399533	83.20815625989295
4	2.0	perception	319	diff_vonmises	-0.03842904008170002	-2.2018218074204876	7.472873275776544	1.19660624269039	0.2761778622727694	2.728404589767501	0.7199792904818814	-0.4616971244100645	1.1816764148919459	47.667119738900794
5	2.0	wm	319	diff_vonmises	0.0996714889194925	5.71075565287187	5.984575632181394	0.35496122664585994	0.013732807362926647	2.375083828335348	-0.04471767659717424	-0.3771364194072083	0.3324187428100341	55.11424764965756
6	3.0	ltm	319	diff_vonmises	0.09167852708556722	5.252792673978805	0.8884978581797166	79.63657371337102	0.8618406318218829	80.6272749430383	0.0922265990032578	-0.25353021045878066	0.34575680946203846	89.31213835088997
7	3.0	perception	319	diff_vonmises	0.03366691519395361	1.9289721498384071	4.9578154118514846	1.8828569205889572	0.28021710567130803	2.8801494425733116	1.0304219858640842	-0.4449184781946618	1.475340464058746	58.3315982313417
8	3.0	wm	319	diff_vonmises	0.10038853790126763	5.751839533231738	3.488799558104555	0.5857860938429984	0.2267582680485999	2.2274375743864696	-0.021389226569359543	-0.3406744121480168	0.31928518557865726	64.75551306058404
9	4.0	ltm	319	diff_vonmises	0.0006043949738746263	0.03462928116193574	0.9633906169499501	207.8114723335701	0.9486138569011863	209.88079525811204	-0.10403411223722969	-0.4360743026635596	0.33204019042632993	78.22431139996911
10	4.0	perception	319	diff_vonmises	-0.015949998491882108	-0.9138675968248728	2.2190547859439946	2.998950710285174	0.37742373469259405	4.704023120973397	0.5928036401545913	-0.5552927119024712	1.1480963520570624	79.62511408843014
11	4.0	wm	319	diff_vonmises	0.15062229778814257	8.630021963823244	0.8829368369571733	5.052271706195994	0.4385978447095802	7.655887976086407	-0.18754589688687706	-0.506550117891041	0.3190042210041639	93.56963559453757
12	5.0	ltm	319	diff_vonmises	0.024076270375548294	1.3794686789347708	1.7348625664537076	1.3917718382314777	0.13765240344068613	3.274981445524216	0.06324520927028743	-0.43674671515855784	0.49999192442884527	92.99108782947192
13	5.0	perception	319	diff_vonmises	0.05486374033043252	3.143460769235464	1.6995437470212573	3.474729642417557	0.2798564403597227	5.310610038988248	0.5272087800276124	-0.594110629902677	1.1213194099302894	91.19324199458433
14	5.0	wm	319	diff_vonmises	-0.10820370824092458	-6.199615809869903	0.4581731560945507	253.6954310450259	0.4476740731223086	256.13162566586556	-0.08351126197030112	-0.5486271491415167	0.46511588717121555	118.37903815526927
15	6.0	ltm	319	diff_vonmises	-0.14692296912677577	-8.418066044495145	0.00043425234250796366	2521.637531605335	3.885599975272266e-26	2523.826623424888	-0.17411154713721544	-0.5226601842975356	0.34854863716032014	179.3596126798983
16	6.0	perception	319	diff_vonmises	-0.0117468318497454	-0.6730438876402655	1.3121846732919291	2.0619382855007333	6.224755934469858e-13	4.438738185005994	0.1176459231503938	-0.6467098106374115	0.7643557337878053	116.65366584322065
17	6.0	wm	319	diff_vonmises	-0.06788251821457192	-3.8893817964149076	0.39425363910914657	192.47115507590794	0.3788974938830697	194.98217362019614	-0.022730368806548995	-0.6304463244310448	0.6077159556244958	129.4305584083583
18	7.0	ltm	319	diff_vonmises	0.07107604093955891	4.0723571703357795	1.0353893592262426	266.65485206316754	1.0200331209643405	268.9578372550958	-0.02300249825800904	-0.5192569181261106	0.4962544198681016	77.99065860081373
19	7.0	perception	319	diff_vonmises	0.1065786237962185	6.106505329835884	2.584692294150024	1.3198046028753585	1.1322495141573513e-20	3.3197265438947827	0.2648212692746189	-0.5238392315120977	0.7886605007867166	85.54576542179564
20	7.0	wm	319	diff_vonmises	0.288773863810974	16.545523630054426	1.039024594403746	260.808804477716	1.0226379057962485	263.37791209419476	-0.08272519401936052	-0.5639608061302681	0.4812356121109076	76.55569484357233
0	1.0	ltm	320	diff_vonmises	0.18639388103049578	10.679582710110983	1.817707239482522	1.612109988605579	0.2403453867127517	4.817221475582836	-0.17624655579873227	-0.6319343131114681	0.4556877573127358	82.14044400326054
1	1.0	perception	320	diff_vonmises	0.05705453305439209	3.268983946106317	5.047516132617408	1.0297233413120774	0.11930667050808572	4.04663353030058	0.17429705108467508	-0.6414320989775113	0.8157291500621864	57.78016086417824
2	1.0	wm	320	diff_vonmises	0.15763684815463933	9.031926095005453	4.574533298745681	0.4774783186171547	5.409602123658435e-16	3.425597883701251	-0.15041033355553307	-0.545158862447146	0.3947485288916129	63.9024572067367
3	2.0	ltm	320	diff_vonmises	0.02241983908331988	1.2845621568366814	2.616413006142488	1.4208991019630255	0.4150164623676602	3.0995081615468867	0.1441152262022769	-0.4112156476838101	0.5553308738860869	70.93176507681736
4	2.0	perception	320	diff_vonmises	-0.0510197718849157	-2.9232176007258865	6.621343049309459	1.2190608811020256	8.821426283541136e-20	2.9591835475273056	0.7549300050088622	-0.47096651523178124	1.2258965202406436	52.905995558243575
5	2.0	wm	320	diff_vonmises	0.03197647943959441	1.8321173155756116	4.655213692998832	0.6289563531708116	0.08974531147351174	2.521727986511017	0.08678523353879353	-0.39619528887941613	0.48298052241820966	60.57058581173851
6	3.0	ltm	320	diff_vonmises	0.1910738658710104	10.947726089657678	3.2913154903368387	0.762271754470055	2.3303392275191193e-21	1.9999790381980886	0.20782108373024938	-0.3175782807286452	0.5253993644588946	75.65835124825617
7	3.0	perception	320	diff_vonmises	0.035048569223249434	2.0081350944643024	4.535745307380018	1.9810871253171671	1.0982409674630321e-15	3.3224045577741026	1.101749701780113	-0.5285897686868816	1.6303394704669945	64.18294841954562
8	3.0	wm	320	diff_vonmises	-0.011916984038935954	-0.6827928899557957	2.526807029053395	1.1343922704740104	0.16068001699297255	2.773358739561744	0.1577379354004098	-0.39276597312868583	0.5505039085290957	78.76542970172235
9	4.0	ltm	320	diff_vonmises	0.4569036550842735	26.17865108042995	0.2679253721511406	236.97789583229545	0.25880489951065716	239.19180865969244	-0.06635709233314202	-0.5612478437293902	0.49489075139624816	142.87681396247902
10	4.0	perception	320	diff_vonmises	-0.06429251527007758	-3.6836897792558436	2.9158661220572077	2.227879717035563	1.8773663982850872e-17	5.134199455055675	0.6184445177130216	-0.8129223099809093	1.4313668276939309	80.49353698512047
11	4.0	wm	320	diff_vonmises	0.1408345182889775	8.069223507716416	0.7296964014658565	232.22332027335108	0.7142433517429707	235.24179878742547	-0.1825664986654374	-0.6030049804337914	0.42043848176835397	89.35767136278633
12	5.0	ltm	320	diff_vonmises	0.10126015256142196	5.801779374620311	1.8977757627670908	1.082896839899938	4.7875817836325097e-14	2.2979335286866043	0.17544353405527352	-0.3535668154458073	0.5290103495010808	99.42762686824312
13	5.0	perception	320	diff_vonmises	-0.027900931710854854	-1.5986056315147066	1.7972755607472017	2.8421744612518602	5.495460459724292e-20	3.675787768889742	0.7891002889780524	-0.5472652449228367	1.336365533900889	101.99061245109523
14	5.0	wm	320	diff_vonmises	0.037105251834368844	2.1259743278793906	0.6769080748261985	165.087275733221	0.6601116724200444	166.31824029895697	0.18671848109791966	-0.3631948060906396	0.5499132871885593	104.59091076732267
15	6.0	ltm	320	diff_vonmises	0.4645714286307933	26.617982142907593	0.5700914015711125	158.5056041096841	0.5589928844495807	159.2441357225643	0.1412846154565912	-0.249473929146669	0.3907585446032602	114.82645643653342
16	6.0	perception	320	diff_vonmises	-0.06581140058436373	-3.7707154973288413	1.3710704430619944	2.123614440321765	2.6282989849122857e-13	2.7727785986333497	0.4300137552348866	-0.385159384095603	0.8151731393304896	114.61863387102102
17	6.0	wm	320	diff_vonmises	0.13808492881829124	7.911683635652482	0.6537218172841512	209.11312046464897	0.6431559718826787	210.15512134963092	0.1346511662226746	-0.29910146423498674	0.4337526304576613	105.67805291350362
18	7.0	ltm	320	diff_vonmises	-0.03136822439894718	-1.797266868878967	2.7106508944448646	1.3022773210147967	0.3465402916128168	3.54116469115173	0.03099644436904403	-0.49621015157206544	0.5272065959411094	69.78269080059641
19	7.0	perception	320	diff_vonmises	0.06529460923966378	3.7411055343886437	0.9279572045867877	427.5831198435326	0.9141775926551973	429.191424273601	0.5975277281849003	-0.5790904899675695	1.1766182181524698	91.7069457713319
20	7.0	wm	320	diff_vonmises	-0.34170217657752494	-19.57809256832619	0.2267081549054541	6.261785787111856	9.421965655052708e-32	8.657431481055887	-0.14359986989590978	-0.59354014246391	0.4499402725680002	164.49072706642167
0	1.0	ltm	321	diff_vonmises	-0.08275508992514954	-4.741517385936668	0.9239750552928151	238.34630104603778	0.9091852670154046	240.74735412833255	-0.10827420698987567	-0.5049713725725375	0.3966971655826619	80.34986658429315
1	1.0	perception	321	diff_vonmises	0.035158106602070284	2.014411123969663	8.568450260409037	0.77004091156314	1.8616575785355326e-20	2.8163177629983926	0.437115921057815	-0.4482308613353502	0.8853467823931651	46.41201552432369
2	1.0	wm	321	diff_vonmises	0.040934578565280884	2.345378587937279	7.354207727070099	0.3115107680708763	1.625921014790761e-17	2.6453707246501095	-0.09018521241454125	-0.42102369163575737	0.3308384792212161	50.16013497164093
3	2.0	ltm	321	diff_vonmises	0.002576275282324723	0.14760970054108125	3.102488844109316	0.6008439243820245	1.0422120759137133e-13	2.239512116753095	0.044680642083764155	-0.3556194236555445	0.40030006573930865	77.9861186264647
4	2.0	perception	321	diff_vonmises	-0.02826076535973534	-1.6192225809223506	7.488153112507476	1.1747836768937665	0.07415821564892103	2.762007645170465	0.7866207275996657	-0.44261606032649403	1.2292367879261596	49.01326376023121
5	2.0	wm	321	diff_vonmises	-0.0068455263288479664	-0.39221976718867296	4.100233544652408	0.5094156545213209	0.08627386260434033	2.1888581220147505	0.017898498036046928	-0.34118341937815744	0.35908191741420437	64.11510870214877
6	3.0	ltm	321	diff_vonmises	0.15482626532441857	8.87089156086187	3.103219873802305	0.6925656350601256	0.28877922596481276	1.534502386366092	0.1431071653390923	-0.21850204967854	0.3616092150176323	69.5802622388116
7	3.0	perception	321	diff_vonmises	0.06053437176010075	3.4683640173296895	4.768368650909343	2.0186957715102136	0.20287656629048573	2.590395535712489	1.2065690391602972	-0.3938437829500468	1.600412822110344	60.44857755827002
8	3.0	wm	321	diff_vonmises	-0.16277275794981763	-9.32619205022907	4.947155927002	0.42234384703596034	7.489472584605081e-19	1.4284599922259165	0.1367846670815357	-0.22732809144182994	0.36411275852336566	61.394685236192146
9	4.0	ltm	321	diff_vonmises	-0.03535250599594724	-2.025549388778714	0.415903890864596	139.262102316322	0.4049526346702654	140.73346190939017	-0.05670218492172552	-0.33547236416737825	0.2787701792456527	123.95039331628529
10	4.0	perception	321	diff_vonmises	-0.03164516377351037	-1.8131343262224304	2.048369931943641	3.807611290941014	0.4455010102771079	5.713328560909501	0.6410572485049799	-0.6214210782432712	1.2624783267482511	80.56744839538521
11	4.0	wm	321	diff_vonmises	0.06719497917508907	3.849988711202062	0.7425014563888763	127.22447001889716	0.7265619624660642	129.04268633958955	-0.13960915165465337	-0.35385943839619216	0.2142502867415388	86.54288038416999
12	5.0	ltm	321	diff_vonmises	0.3354906935728472	19.22220080764092	0.8862325068307667	121.17679956165402	0.8635601923125453	122.39492299440587	0.13915500141073522	-0.3213253206093114	0.46048032202004663	89.94527711055159
13	5.0	perception	321	diff_vonmises	0.054434910294922007	3.118890618072266	2.7151230929732164	2.147096722397335	1.6524965603440346e-17	3.2868807581970416	0.8047394515684183	-0.5173045349176593	1.3220439864860776	83.45553895563339
14	5.0	wm	321	diff_vonmises	-0.013162200445002438	-0.7541385346038537	0.4487900593877641	155.39276823428267	0.43538707584371156	156.76555788604085	0.06315338919497293	-0.3817010994373504	0.44485448863232335	124.85100490963215
15	6.0	ltm	321	diff_vonmises	-0.4107539944155644	-23.534470298152026	0.00017805630178002567	4142.914750098699	4.9547743278350304e-29	4143.985982299021	-0.053086392248701486	-0.28788695661739894	0.23480056436869745	175.22521294730524
16	6.0	perception	321	diff_vonmises	-0.2319899103050799	-13.292042750099602	1.589014034314124	1.5884198916147574	1.1199873039271515e-19	2.6107082297788886	0.29700932485544734	-0.38581694403689065	0.682826268892338	107.60810809714003
17	6.0	wm	321	diff_vonmises	-0.3503992750241907	-20.076399603329925	0.36238593573167116	122.58482182743143	0.3485501673208381	123.90311922742143	0.019473679893351914	-0.35909856558241593	0.37857224547576784	133.78164408000413
18	7.0	ltm	321	diff_vonmises	0.09711339992048532	5.564187949609913	1.1088305137731314	90.38665238260597	1.0816579167694709	91.48176666481365	0.06899805174167994	-0.2741373618019356	0.34313541354361554	78.46900818500711
19	7.0	perception	321	diff_vonmises	-0.015946957763241582	-0.9136933759071262	1.5462022176280248	3.5867898173712303	0.4181467056366731	4.521905637306318	0.5354432140767849	-0.4036535459121629	0.9390967599889477	91.93484424068905
20	7.0	wm	321	diff_vonmises	-0.49481214154248	-28.350647362214016	0.0002619502842837291	3264.282243318001	1.9031901068665796e-31	3265.7484354796575	-0.09725521293728434	-0.36943042407142457	0.2721752111341402	173.11136028707995
0	1.0	ltm	322	diff_vonmises	-0.045704603232856224	-2.6186808695626396	0.8881075695889753	200.00798155586122	0.8660859029099895	203.28393243419922	-0.19637149939752874	-0.6697363612121165	0.4733648618145878	80.86639564246451
1	1.0	perception	322	diff_vonmises	0.06259667965581411	3.5865255558105713	14.962737029469096	0.6025732758582208	2.7103921371380125e-20	3.7500093984249125	0.32467185563498513	-0.5968325324002968	0.9215043880352819	35.027711282553526
2	1.0	wm	322	diff_vonmises	0.0959254884901936	5.496125638218849	4.6242568529740415	0.4652071480749173	0.06909880961510216	3.966642923859041	-0.28884919697060035	-0.6297617360933089	0.3409125391227085	59.52350612257297
3	2.0	ltm	322	diff_vonmises	-0.07507109614064396	-4.301256972279742	2.2717756642150775	1.156714181291269	0.21805565515159467	2.71949266090002	0.11222008224193003	-0.3674030380089616	0.47962312025089165	80.1701804107771
4	2.0	perception	322	diff_vonmises	-0.04300860868284563	-2.4642117602567613	6.5972764021672665	1.2326949377925451	0.20615321318370355	2.9312351397119714	0.6697115832728432	-0.4792220916042699	1.148933674877113	50.962663481632376
5	2.0	wm	322	diff_vonmises	0.04886428441449633	2.7997172658775265	4.752902860779746	0.4615589341212154	0.07753125380737094	2.434988482255263	-0.028623135748743034	-0.38464667076369674	0.3560235350149537	59.727919067321466
6	3.0	ltm	322	diff_vonmises	0.04148138475125251	2.376708274605099	0.953214222480072	189.78841002765503	0.9390466003642707	190.89694448966927	0.14475476735656656	-0.298208286840989	0.44296305419755555	86.74403631421984
7	3.0	perception	322	diff_vonmises	0.04955591877631643	2.8393449957760426	4.263461593498642	2.1565677558871292	0.28612484953429895	3.1861328890470686	1.0551273694619718	-0.474390470314832	1.529517839776804	62.49123478525712
8	3.0	wm	322	diff_vonmises	0.17254319614337832	9.88599692271352	1.2064024276703202	3.0670763740985656	0.5271381103580077	4.6461899375914815	-0.003541441682892277	-0.34730718913233405	0.34376574744944177	87.21282547588285
9	4.0	ltm	322	diff_vonmises	-0.0369835982444533	-2.119004090614615	0.6341452599090233	175.497015147019	0.6205498674743543	177.5614708801539	-0.10356790381920433	-0.4210949034257432	0.31752699960653885	97.47553420346063
10	4.0	perception	322	diff_vonmises	-0.043616385179974744	-2.4990347884295043	1.7907582199954497	4.6902254963162875	0.5146256039342417	6.578015731876431	0.6215278234886168	-0.6213403302652695	1.2428681537538862	83.10756115740293
11	4.0	wm	322	diff_vonmises	0.09896333402389738	5.670181366112742	0.6330107720260275	94.50382594554407	0.6041155131130476	96.99971089521803	-0.14703191284073824	-0.5002718483806987	0.35323993553996047	97.18436859552818
12	5.0	ltm	322	diff_vonmises	0.07618608259847473	4.365140990527686	1.6296453446665522	1.6996623873280408	0.20889492719441197	3.5357330762660637	0.08825305213499457	-0.434323675765524	0.5225767279005186	92.04945548087574
13	5.0	perception	322	diff_vonmises	0.033515864028573254	1.9203175555715801	1.6149505012131082	4.124380969323923	0.30990296203614176	5.8691727636850235	0.6249860714525111	-0.6163740611183471	1.241360132570858	92.60170577358335
14	5.0	wm	322	diff_vonmises	-0.11495696439246383	-6.586548885323864	0.4829739136763421	261.1592062312326	0.47293094368016253	263.254334655777	-0.01792093113941462	-0.49816301907856086	0.48024208793914624	117.32822226369788
15	6.0	ltm	322	diff_vonmises	-0.1885759911938117	-10.804608412901588	0.00031515970216695064	3254.5952395986237	3.433489478338379e-26	3256.5350465654597	-0.1454699828681214	-0.47196402797146675	0.32649404510334534	178.96681948876147
16	6.0	perception	322	diff_vonmises	-0.13060769550541398	-7.483269724389992	1.3222348354845324	2.1978698528881377	2.9250530185584394e-20	4.150693634952985	0.22179770199190685	-0.5979090723057645	0.8197067742976714	116.23185130931574
17	6.0	wm	322	diff_vonmises	-0.13257821231462055	-7.596172021017114	0.4878732230856311	188.9963059582223	0.4726207217256933	191.1186742626418	0.02421614383393944	-0.5300145782047174	0.5542307220386569	118.41048137842839
18	7.0	ltm	322	diff_vonmises	0.011101001171950172	0.6360405155225255	1.0737018910894707	212.09274066110555	1.054764257227977	214.23401044362637	0.0012209379135157405	-0.4932701326945619	0.4944910706080776	77.13722016246129
19	7.0	perception	322	diff_vonmises	0.034078161924895274	1.9525348518599166	2.111935786556116	2.4083062781994853	0.2473805458302865	4.248897398118697	0.43094768635445035	-0.5366343351505566	0.9675820215050069	83.84662802126417
20	7.0	wm	322	diff_vonmises	0.2592751529730326	14.855371997963568	2.0106524027625143	2.0668628579065413	0.48491678128179044	4.496935423766018	-0.027216589112032397	-0.5339092811194864	0.506692692007454	73.85061580643642
0	1.0	ltm	323	diff_vonmises	-0.044716122953113044	-2.5620451214014444	1.0384004254098331	386.7942791570696	1.025986828761786	389.53079043883156	-0.0429496883278091	-0.6132617255037474	0.5703120371759383	77.50411377035743
1	1.0	perception	323	diff_vonmises	0.02465474881231879	1.4126130519010456	6.7097353346522635	0.849827423752943	1.4126621219065798e-16	3.143932046399331	0.36002051181144357	-0.5003710470022037	0.8603915588136473	52.5552478591066
2	1.0	wm	323	diff_vonmises	0.11581137511758563	6.635503013844055	5.898663415116715	0.41266583354907876	2.3603276291287393e-15	2.771181752278803	-0.05052125237921784	-0.44104433480968824	0.3905230824304704	56.119551600596054
3	2.0	ltm	323	diff_vonmises	-0.0692779713772553	-3.969335373144848	3.450084396976221	0.8375601349814094	0.12856715643531008	2.476939584672532	0.14707416831553666	-0.3742779880017686	0.5213521563173052	69.12907741743143
4	2.0	perception	323	diff_vonmises	-0.05516213200381337	-3.1605573527620328	6.477490943649849	1.2302224280203318	4.824491946455048e-19	2.7114748309138395	0.7914210901911974	-0.4315417306693151	1.2229628208605126	53.500306989885615
5	2.0	wm	323	diff_vonmises	-0.05172113022812157	-2.9634024737178706	3.9293049775667592	0.6760089507273275	0.14088882759886373	2.2417661665481043	0.1059751064267162	-0.34522464914029133	0.45119975556700753	64.58723138673554
6	3.0	ltm	323	diff_vonmises	0.0945823243385068	5.419168001133926	3.03372847415798	0.6915395133272914	0.12367261069419033	1.5654014087888428	0.17492142600197208	-0.23036914858269866	0.40529057458467077	74.32638947844836
7	3.0	perception	323	diff_vonmises	0.07431252549257185	4.257794075682706	4.706626525027841	1.9100532861934496	0.019250486064445984	2.406251983088319	1.2131474509112508	-0.37789665278381807	1.5910441036950689	62.68614556089716
8	3.0	wm	323	diff_vonmises	-0.13370392035020187	-7.6606703404198875	3.3221534704404463	0.6995998135441028	1.6403829761373176e-15	1.5636281518535917	0.23651717722540427	-0.24822740228101073	0.48474457950641503	75.3042824426123
9	4.0	ltm	323	diff_vonmises	0.18490499556075782	10.594275856516646	0.00021728924879093093	5473.982902744208	1.2987295590338562e-31	5475.3350212537125	-0.02588593017082985	-0.4044861938015174	0.37860026363068755	178.82009946926524
10	4.0	perception	323	diff_vonmises	-0.05504195884100502	-3.153671937722376	2.1242167563558305	3.6180006347525104	0.3274499657118427	5.629424018368603	0.7250902195737945	-0.6684576908246037	1.3935479103983983	82.35353030616906
11	4.0	wm	323	diff_vonmises	0.09142018855325547	5.237990966391738	0.8333119733774231	180.0636576753309	0.8190999546379014	181.88916016240856	-0.07240163093253216	-0.3811334955159609	0.3087318645834287	85.23721329648157
12	5.0	ltm	323	diff_vonmises	0.3379453952461936	19.362844853487367	0.8485383086551224	100.18341388124553	0.8223898402959273	101.25565900951902	0.169856035613428	-0.30260674250689235	0.47246277812032034	93.25895821154302
13	5.0	perception	323	diff_vonmises	0.033641811067991675	1.9275337893724236	2.2359982564512717	2.6137201338967784	6.85908424448137e-17	3.329070616735294	0.9120293092921531	-0.5133653952133376	1.4253947045054907	91.93038201002949
14	5.0	wm	323	diff_vonmises	0.039575707026748695	2.267520983878936	0.5718549881039503	165.72497557803607	0.557813212776537	166.72583998803555	0.18097169550365777	-0.3320850415352439	0.5130567370389016	114.87160681051624
15	6.0	ltm	323	diff_vonmises	0.5641308942699547	32.322319334609276	0.9505456346049239	101.61910448951417	0.9352569593418689	102.34973999135228	0.054477993602503716	-0.18220795037030335	0.23668594397280707	85.29528327767315
16	6.0	perception	323	diff_vonmises	-0.22262612605851512	-12.755537432500352	1.357268322201503	2.011424409582206	1.0513354296653213e-14	2.537897766043105	0.41637510689051294	-0.34958493139570757	0.7659600382862205	114.89170378983131
17	6.0	wm	323	diff_vonmises	-0.2378307110587599	-13.626695982262298	0.46513904001288414	117.42214265250693	0.45112000065717756	118.32061932340596	0.09199102834855921	-0.2790763692225351	0.3710673975710943	124.47762694204134
18	7.0	ltm	323	diff_vonmises	-0.05982611653539714	-3.4277839821360834	2.7518838294896795	1.281618878244783	0.7836790773304186	2.290724651703361	0.11034015128088626	-0.28143752157029767	0.3917776728511839	64.05382570475803
19	7.0	perception	323	diff_vonmises	-0.003301511221393296	-0.18916265900091742	1.061798606189702	202.3250493513281	1.037846495846794	202.98139616440218	0.6834306679199216	-0.3920073749397943	1.075438042859716	88.81678775591547
20	7.0	wm	323	diff_vonmises	-0.4388811943129253	-25.14604014179161	0.00027297756703337624	4197.787466032818	6.572790170847535e-32	4199.10672704759	-0.027579122053907668	-0.39232980945837426	0.3647506874044666	174.5537451640737
0	1.0	ltm	324	diff_vonmises	-0.014022629798479345	-0.8034375051272505	2.655209836081735	1.2289376849645912	0.3136967364863013	3.5827445621382967	-0.01123126290604548	-0.5054077542438145	0.494176491337769	70.59645535983643
1	1.0	perception	324	diff_vonmises	0.05481084968497237	3.140430358474875	15.923306715499404	0.5731906686309395	0.053623780160969775	3.1803265757130688	0.3714031056202497	-0.5207983492058007	0.8922014548260504	33.655697346253106
2	1.0	wm	324	diff_vonmises	0.16223538641170304	9.29540292906465	3.6748834486583815	0.4999914096519368	0.05726294493223197	3.1415866376697372	-0.16210829950738903	-0.490419530961728	0.328311231454339	67.4532951153308
3	2.0	ltm	324	diff_vonmises	-0.06767754511476134	-3.8776377028820477	2.3202468381084835	1.2622184940926386	0.46401869117705363	2.168917256125633	0.19120305195433518	-0.25758127150507404	0.4487843234594092	75.2063248741498
4	2.0	perception	324	diff_vonmises	-0.050323003280565305	-2.883295700399388	7.083675618009602	1.049624962884137	0.15656635213864029	1.9992490926054856	0.723493877146204	-0.3237875079839337	1.0472813851301377	49.912437140544455
5	2.0	wm	324	diff_vonmises	0.05177350750933768	2.9664034708739235	5.788877284606351	0.40440715375754493	0.09925434803469796	1.7444482158968302	0.073132024961851	-0.2789790606478911	0.3521110856097421	54.44985893703202
6	3.0	ltm	324	diff_vonmises	0.0584601631846254	3.3495206201251095	0.9637533831716398	150.10848556419404	0.9488964590115617	150.78962854810135	0.19716134356094273	-0.22260782380144306	0.4197691673623858	89.04650356198437
7	3.0	perception	324	diff_vonmises	0.028304276337313087	1.621715576300044	4.916855397095605	1.659632844399514	0.18863840389977665	2.391585669563596	0.9705689768949856	-0.36754390471702353	1.3381128816120091	59.51116731814048
8	3.0	wm	324	diff_vonmises	0.13692850109938573	7.8454252080472555	3.0306444421729744	0.8837621472996814	0.3341641566477729	2.04248064318885	0.14054624818854178	-0.2889224934513336	0.42946874163987536	68.86787114158957
9	4.0	ltm	324	diff_vonmises	-0.032060557584485304	-1.8369346384271492	1.0442824810209737	181.5619803466483	1.029805985674582	182.99536319916328	-0.0023659435926219885	-0.3272804210188127	0.32491447742619073	78.0662884779166
10	4.0	perception	324	diff_vonmises	-0.0810880191761968	-4.646001267871964	2.479334417283389	2.4283129132237584	0.1707316426002604	3.7710434102727923	0.7173645504846219	-0.5126765166595889	1.2300410671442108	81.5329058198883
11	4.0	wm	324	diff_vonmises	0.013244136393928761	0.7588331186677315	0.9601891436336119	213.26597682251136	0.9434104725512429	215.38608435193768	-0.022265466801172806	-0.4705089336695778	0.448243466868405	81.13683880668509
12	5.0	ltm	324	diff_vonmises	-0.055163309156782386	-3.160624798658999	1.7847971000112237	1.1640063144048773	2.403269759848582e-13	2.3757673269738966	0.18229300868814186	-0.3623297188825701	0.544622727570712	102.30762914987086
13	5.0	perception	324	diff_vonmises	-0.0044728157775833464	-0.2562734665950513	2.247005657948121	2.019054564298255	2.5656839460412383e-13	2.9953745079417877	0.6403360225071804	-0.46424409109616305	1.1045801136033435	91.71438051188136
14	5.0	wm	324	diff_vonmises	-0.0853406141247645	-4.889657010403545	0.5737080876114521	226.0205386464901	0.5630144228254625	227.34184636436314	0.11428212539595961	-0.36733296506123736	0.48161509045719697	111.8631637006533
15	6.0	ltm	324	diff_vonmises	0.36977707420763006	21.18666571279305	0.6068264714870829	135.7559034405863	0.5924061882622177	136.94358344982018	0.05681776607801936	-0.30002102357500604	0.3568387896530254	107.12332746824552
16	6.0	perception	324	diff_vonmises	-0.05959644085054707	-3.4146245347373974	0.9049735873756656	6.062501140127887	0.33609728688932816	7.332206993403257	0.3742519974883538	-0.4896463344693147	0.8638983319576685	112.97342595389911
17	6.0	wm	324	diff_vonmises	-0.018364128498118717	-1.0521870573781216	0.6865105483662197	169.59242402462004	0.6667985342615006	170.96862816550055	0.25353434522435947	-0.42591245195841587	0.6794467971827753	104.66814495311256
18	7.0	ltm	324	diff_vonmises	-0.034245741538259024	-1.9621364564380936	1.069195242879494	156.79550089993884	1.044072443999356	158.60629703175914	0.10728798041927234	-0.44816063721599875	0.5554486176352711	79.83134111284045
19	7.0	perception	324	diff_vonmises	0.054150534844971905	3.102597104992992	3.0788703127380455	1.5944390296157527	0.0956223852810009	3.3253426887561575	0.47879189256301424	-0.49407284458517414	0.9728647371481884	74.88179546554898
20	7.0	wm	324	diff_vonmises	0.33589733455995474	19.245499619979213	3.4956734074124136	1.0610791064825493	0.21997840660144036	2.9169756404076423	0.18587376813301915	-0.4364594973649644	0.6223332654979836	66.7054456502099
0	1.0	ltm	325	diff_vonmises	-0.06649537766809974	-3.8099044975105807	1.472671769699067	115.61896911572178	1.4528484564484307	116.01930394063507	0.2339295451065624	-0.17369272851867912	0.4076222736252415	73.31482316712416
1	1.0	perception	325	diff_vonmises	0.013101180406218531	0.7506423439158113	12.056925382015038	0.569087389286367	1.562499453787496e-18	1.0260244160628973	0.6164430866851209	-0.16329685752311093	0.7797399442082319	39.052149824618
2	1.0	wm	325	diff_vonmises	0.14774934325541486	8.465413794364967	3.5203031863191154	0.382979221287654	3.327909243926105e-18	0.8066727980047966	0.1460375931381115	-0.12814562341946345	0.27418321655757494	73.10246094183978
3	2.0	ltm	325	diff_vonmises	-0.03517691762911896	-2.0154889164278584	4.039362494447151	0.6051716827096532	0.7981932959195439	0.5986518634201211	0.2862123020784607	-0.07740998511567797	0.3636222871941387	61.121791685506054
4	2.0	perception	325	diff_vonmises	-0.03566179720365351	-2.0432704696207873	7.642877387397261	0.9525002367846997	5.526566475043419e-19	0.9404456715235784	0.8824979248167136	-0.1496763400660482	1.0321742648827619	49.18436356843219
5	2.0	wm	325	diff_vonmises	0.004470263507790028	0.25612723230771545	6.436032140018347	0.3452141901694473	0.41658411630104225	0.5416169785489466	0.21675960317059023	-0.09041812704181226	0.30717773021240247	50.83034230172467
6	3.0	ltm	325	diff_vonmises	0.14530884992999218	8.3255838268884	1.6751986430277495	87.18638113176165	1.6601533075134505	87.1287703963999	0.2477465844204474	-0.0675580019321762	0.3153045863526236	73.93916297128692
7	3.0	perception	325	diff_vonmises	0.027349400319267598	1.5670052105077796	5.651380303626672	1.3405460211072107	0.19321928688308265	1.2960068360376567	0.9923409624473903	-0.20068889867252798	1.1930298611199184	56.13799741850667
8	3.0	wm	325	diff_vonmises	0.015773787951628804	0.9037714765626385	1.8789063763233274	38.1577448072889	1.8249024837101924	38.28920584408058	0.2687541658281454	-0.12371920213705678	0.39247336796520216	67.22433025166049
9	4.0	ltm	325	diff_vonmises	-0.17343740696467724	-9.937231428768875	1.852744384828887	100.54657116210181	1.8358778935929345	100.84476443167941	0.12841827244000825	-0.1252556217084262	0.25367389414843444	63.88960486399205
10	4.0	perception	325	diff_vonmises	-0.10172819612897985	-5.828596295669624	2.877564063992218	1.9749730407569028	0.08360044815691846	2.527903491092014	0.8263940382698598	-0.36943487506191963	1.1958289133317794	78.78771991956148
11	4.0	wm	325	diff_vonmises	-0.059837599995589505	-3.428441935939312	1.4511187989964207	136.72592955790583	1.4323315558757714	137.63545871217997	0.07157337734425084	-0.25296245803180994	0.3245358353760608	68.29272656694056
12	5.0	ltm	325	diff_vonmises	0.1259081964121617	7.214008260521079	1.842066799125723	0.8789409612673904	8.242114736970603e-14	0.9490022763899594	0.28032976368364637	-0.14020261873232268	0.420532382415969	100.80156894018421
13	5.0	perception	325	diff_vonmises	-0.0011982490151345258	-0.06865461137291583	3.069975693851892	1.5093813998912813	5.206509964174451e-19	1.4151858723597108	0.7763989776781245	-0.22307527034824154	0.9994742480263661	78.40677411798941
14	5.0	wm	325	diff_vonmises	-0.016957987537586323	-0.9716211149391438	0.6205788150717444	96.15597164721031	0.6067333329244506	96.20298820812837	0.2397572609978198	-0.13903301302218285	0.37879027402000265	117.58857262641683
15	6.0	ltm	325	diff_vonmises	0.34122653988538104	19.550840593284782	1.0055822861452108	50.01141053037334	0.9880818641807115	50.055794425423535	0.15053352356114758	-0.06669261330998744	0.217226136871135	93.12148007018817
16	6.0	perception	325	diff_vonmises	-0.16952073078066898	-9.712822413705798	1.8511081448548976	1.5669399961436008	1.992426768870172e-12	1.5768576041452496	0.5203444616445398	-0.2319365320554573	0.7522809936999971	100.55893526418993
17	6.0	wm	325	diff_vonmises	-0.1466418361507846	-8.4019583114889	0.8682521200231726	41.618031746699145	0.8176756582643936	41.83400835776838	0.33537170540423844	-0.1868997648889832	0.5222714702932216	100.00366377294617
18	7.0	ltm	325	diff_vonmises	0.009817138471236218	0.5624806012973484	1.234602804470218	71.67223304239782	1.2058690544700803	71.99524906133333	0.2564049857905282	-0.16034553282216546	0.41675051861269363	81.5599934601345
19	7.0	perception	325	diff_vonmises	-0.012751065948919353	-0.7305822631660551	3.6102749869166404	1.315887093446252	2.6587615389234166e-19	1.9517535261012986	0.6456301822846685	-0.30993175589698824	0.9555619381816567	72.1618903493428
20	7.0	wm	325	diff_vonmises	0.3509635292698416	20.108728990178058	4.593707472791334	0.5403256196896138	5.412401267602042e-23	0.947394862835719	0.29697368800202006	-0.15073676073868764	0.4477104487407077	63.765216948600624
0	1.0	ltm	326	diff_vonmises	0.07218448025999416	4.135866065243069	0.8270728141136487	298.01172308382166	0.8128649702031328	301.1313727835869	-0.14649835355577068	-0.643551272374232	0.49705291881846136	84.94270953118576
1	1.0	perception	326	diff_vonmises	0.0723065714340054	4.14286137422971	6.801676794409582	0.7002393886754754	4.140723623303586e-18	3.5503313786853536	0.14905809222582334	-0.5650519056094732	0.7141099978352965	52.185970224891406
2	1.0	wm	326	diff_vonmises	0.11426876276687299	6.547117836723466	7.1067892242251824	0.36825529329767154	3.668855363033767e-14	3.200120666230357	-0.12514939570805922	-0.5093147643945392	0.38416536868647994	51.04055366347126
3	2.0	ltm	326	diff_vonmises	-0.10077359847555525	-5.773901878995303	1.9157649783619901	2.278707160220748	0.4867203667521108	3.9946002370084175	0.16958878870727	-0.43216191469668874	0.6017507034039588	78.57925730690087
4	2.0	perception	326	diff_vonmises	-0.047527477478670775	-2.7231238704309066	5.878355060449134	1.2650207043034385	0.07309979994545669	3.195768444460814	0.6485758524989761	-0.5056573951121347	1.1542332476111108	55.11945551622159
5	2.0	wm	326	diff_vonmises	0.030506312055869712	1.7478829293103961	4.5783585637657795	0.569412834831899	0.10346443324403126	2.4963624958534276	0.03155491024189594	-0.39284416178023407	0.42439907202213	60.47456443676174
6	3.0	ltm	326	diff_vonmises	0.09230964646182444	5.288953150607273	1.0054300474521718	143.98018654597487	0.9818621014832233	145.2573748658009	0.21021099814230126	-0.3588978733892212	0.5691088715315225	85.29380610899997
7	3.0	perception	326	diff_vonmises	0.05341519166205685	3.0604650441182426	4.021802228069554	2.2605028819783493	0.13055430167568463	3.5236732819042174	1.1068574043988555	-0.5305245034702332	1.6373819078690888	65.9926424984358
8	3.0	wm	326	diff_vonmises	0.0897534630690857	5.142494630541911	1.4049708998129933	2.0281104774777363	0.30545476346552386	3.648478797385196	0.07438803500917168	-0.38442904254764143	0.4588170775568131	92.97662256112349
9	4.0	ltm	326	diff_vonmises	0.2859222338792407	16.38213727023293	0.10917224226648746	154.0073823959237	0.09780117253374196	156.1916595209006	-0.09009916248078653	-0.5780871792652498	0.48798801678446324	165.2898159167018
10	4.0	perception	326	diff_vonmises	-0.07365668992733601	-4.220217465740116	2.153200636330133	3.440762388922945	0.2668288819398093	5.978214890225622	0.6350858275040403	-0.7500854970286956	1.385171324532736	82.72763077011945
11	4.0	wm	326	diff_vonmises	0.0739912822158565	4.239388191729963	0.6381824422996563	132.2393175129235	0.61542680298061	134.90975155533212	-0.14603890772266226	-0.5396215671824542	0.393582659459792	97.00465516379398
12	5.0	ltm	326	diff_vonmises	0.13131955569016227	7.524056308579472	1.7363874846327279	1.610035985461217	0.19416306618143314	3.1222079668408527	0.1644920144741544	-0.39078607969141554	0.55527809416557	91.6217827956493
13	5.0	perception	326	diff_vonmises	-0.012089041194051211	-0.6926510387789276	2.0750439832489866	2.68745921945113	1.131351467401027e-19	3.9644806380189888	0.7865733748586746	-0.6086206297994224	1.395194004658097	95.32826889097228
14	5.0	wm	326	diff_vonmises	-0.05528110167293388	-3.167373812692706	0.5751309908415871	214.48361348334998	0.5632791963252746	215.96011080794108	0.09771043419517156	-0.3937158557896687	0.4914262899848403	110.97176106127698
15	6.0	ltm	326	diff_vonmises	0.24658198056234223	14.128106790199112	0.4160578698596367	144.4763496017977	0.40496758646556436	145.67068316121563	0.02096364352982505	-0.3166059556973284	0.33756959922715346	127.31167777076053
16	6.0	perception	326	diff_vonmises	-0.1767141895132856	-10.124977239186256	1.4060557338971582	2.102248278245633	5.554546389039479e-16	3.201664040807376	0.3661500895642411	-0.45694935104124507	0.8230994406054861	113.34867100974846
17	6.0	wm	326	diff_vonmises	-0.042697844841022334	-2.446406303695015	0.611974503864023	172.66401866972546	0.5986157286155928	174.0209782386511	0.07677633807921325	-0.34793301198033433	0.4247093500595476	106.99035027382287
18	7.0	ltm	326	diff_vonmises	-0.06645268662014478	-3.807458480639771	1.4692808589395017	5.2664735527884945	0.7921807534340595	7.36129065247285	0.02856508603236385	-0.490186393080951	0.5187514791133149	76.06172092626906
19	7.0	perception	326	diff_vonmises	-0.0017219148463733507	-0.09865845337811052	1.018834173773272	448.56478457235085	1.0044612159857635	450.17806008416744	0.6657460329108176	-0.5964731510183583	1.2622191839291759	87.73274506360454
20	7.0	wm	326	diff_vonmises	0.17022687706579948	9.753281615562617	6.830243783356134	0.5406005073597459	3.668991606492465e-29	2.9029858801353843	0.09046919665767883	-0.46202390732925597	0.5524931039869347	52.07755402544947
0	1.0	ltm	327	diff_vonmises	-0.02387248081089082	-1.3677923969710892	2.2167243490467365	0.7830965066864918	7.177087849717404e-19	2.9150547739637855	-0.03419501595680846	-0.45884228212396394	0.4246472661671555	92.3268816682494
1	1.0	perception	327	diff_vonmises	-0.01620174768413358	-0.9282917630367097	16.258270244581183	0.6024626552577946	6.4848708174381504e-18	2.9231559082004677	0.49620668047939387	-0.4652347122183758	0.9614413926977696	33.585288384525114
2	1.0	wm	327	diff_vonmises	0.09287811960330149	5.321524262380451	2.473118986884825	0.6811597343788209	0.017544276614406662	3.222648658439453	-0.12304811947969513	-0.501194868308939	0.3781467488292439	85.2977835414645
3	2.0	ltm	327	diff_vonmises	0.09260170862707066	5.305687080031334	2.7871668786785255	0.6043558095519959	2.602844720357251e-14	1.844946798162044	0.0858206509532547	-0.29219264262725797	0.37801329358051267	82.35687923031614
4	2.0	perception	327	diff_vonmises	-0.05948190441646146	-3.4080620804638135	7.773111777246116	1.0285558123326421	0.10110668770713306	2.230091651874932	0.7324985006289164	-0.3600546705115202	1.0925531711404366	47.98505044990793
5	2.0	wm	327	diff_vonmises	-0.013833878809906093	-0.7926228701030812	4.21560707706543	0.5311104585286996	0.03530787673582212	2.1236244006342724	0.07014723079624252	-0.3328364174502103	0.40298364824645283	65.09220152974609
6	3.0	ltm	327	diff_vonmises	0.10511215549017906	6.022482885110125	0.7400552971412967	130.16576446240802	0.723433488934498	131.14208849824718	0.13067108745504186	-0.27268573818455444	0.4033568256395963	99.3229099312419
7	3.0	perception	327	diff_vonmises	-0.002894894609918467	-0.16586524328349894	4.730946336159541	1.940438421862927	0.19542541869091964	2.9856530536016823	1.061320295733808	-0.45710202558034213	1.5184223213141501	60.412206071171
8	3.0	wm	327	diff_vonmises	0.007509845263949973	0.4302824384206432	2.4713005326786255	1.3438073713510656	0.42215374677040945	2.861403746408258	0.12192094870830761	-0.36988151615054654	0.49180246485885415	72.30326352798971
9	4.0	ltm	327	diff_vonmises	-0.05601359969747988	-3.209342858000862	1.0905684434014373	180.09936537493837	1.0712663816897772	181.80857942307122	0.04526828132672733	-0.4079894497495573	0.45325773107628464	77.6688454306829
10	4.0	perception	327	diff_vonmises	-0.02358472475207088	-1.3513051892713883	1.8203948380131116	3.9101441577130447	0.3939178379220477	5.5994765563317435	0.6336195576310542	-0.5839683542716126	1.2175879119026667	85.96119120404902
11	4.0	wm	327	diff_vonmises	0.10045266429111516	5.755513704725412	0.8224351780781056	252.1198884626068	0.8090758552943442	254.63526207915504	-0.12501875418503516	-0.5164250673021975	0.39140631311716234	84.92126838909317
12	5.0	ltm	327	diff_vonmises	0.09580322471087727	5.489120439676704	1.8280288631326875	1.1172153063190537	3.0744836051601713e-13	2.195533411574502	0.196305673119824	-0.3353294956027942	0.5316351687226182	101.17538170460358
13	5.0	perception	327	diff_vonmises	0.03594716510512708	2.0596208459837277	1.9914507341765748	2.0238265796123036	9.664571481916437e-21	3.0082106358777154	0.5625894570265215	-0.4593694301171793	1.0219588871437009	97.21442225539681
14	5.0	wm	327	diff_vonmises	-0.0628341697864989	-3.6001327379748203	0.5652142001411231	201.30835188288006	0.5528305883212731	202.7544329189735	0.09858549877434797	-0.3897109622303425	0.4882964610046905	112.1324586096449
15	6.0	ltm	327	diff_vonmises	0.32720414237260725	18.747416397148104	0.3336387897816391	109.8154255016566	0.32066150996321824	110.78504098915248	0.049589797287353576	-0.29410143440395764	0.3436912316913112	138.28117275966787
16	6.0	perception	327	diff_vonmises	-0.005425493467118734	-0.31085787744170357	1.8365341884326072	1.5208137997516924	1.960590577317684e-14	2.8232672872879903	0.29567673214020807	-0.43041375245154273	0.7260904845917509	100.9800905650929
17	6.0	wm	327	diff_vonmises	0.028126974501519946	1.6115569294091754	0.49055238334840234	204.26568964264885	0.4789061926078762	205.83361908325352	0.06283317237821251	-0.41797076239206277	0.4808039347702753	119.41256589804631
18	7.0	ltm	327	diff_vonmises	-0.009338504398628987	-0.5350568890057958	1.4265445928837777	6.211982274010782	0.8606697555213206	7.943139046050029	0.10637789403158004	-0.43228365293620996	0.53866154696779	77.12350154766253
19	7.0	perception	327	diff_vonmises	0.15265903816041157	8.746718591118162	2.0704826917674963	1.5552036347107085	7.940289262734536e-17	3.0590612593832254	0.3323715622640409	-0.4738322026229449	0.8062037648869858	95.3932117835624
20	7.0	wm	327	diff_vonmises	-0.04752366744952733	-2.7229055718411654	2.364720029182144	0.6830329263035257	1.4445080927274502e-23	2.7217329298216257	-0.04363366400396651	-0.42973683831921355	0.38610317431524704	89.43452832119553
0	1.0	ltm	328	diff_vonmises	-0.0012607616200064787	-0.07223631979844768	1.9070080563339749	1.9413181423588666	0.45435293669227694	5.111257155726622	-0.24466658091945503	-0.6352824715143153	0.39061589059486024	71.87402330726766
1	1.0	perception	328	diff_vonmises	0.08850676180863495	5.071063910004444	14.371309597852253	0.7199671286354838	0.08645693649006968	3.9332824274897358	0.3978039272292143	-0.6546896595131415	1.0524935867423557	35.23416304441943
2	1.0	wm	328	diff_vonmises	0.029539747083286157	1.6925028357561802	2.113320129406542	1.0506981127999393	0.25444220023562486	4.711556756114799	-0.39133152381697534	-0.6736181910773023	0.2822866672603269	72.07251204395746
3	2.0	ltm	328	diff_vonmises	-0.007246319942747528	-0.41518354972091365	2.457366412479667	0.9379687993964355	0.27867012977512856	2.19300693461397	0.09483464706392786	-0.2962909539006279	0.39112560096455573	75.8229864604757
4	2.0	perception	328	diff_vonmises	-0.028644121401532493	-1.6411872641681684	7.449679575118459	1.1980055842239734	0.2640649467505944	2.594231009654653	0.7524717484531999	-0.4363783958888124	1.1888501443420123	47.90084602494855
5	2.0	wm	328	diff_vonmises	0.12385213067555606	7.09620437141212	6.780798859091357	0.3236242992860602	0.04227103936700191	2.118197107296571	-0.022010721014725232	-0.3385145004047393	0.31650377939001406	51.097499748345086
6	3.0	ltm	328	diff_vonmises	0.1254925116105446	7.190191275780686	1.3899785894137575	2.803105655999268	0.7267968978527791	3.589302118518861	0.11990455633514463	-0.21626104434908783	0.33616560068423246	82.96757932466744
7	3.0	perception	328	diff_vonmises	0.045268333793666314	2.5936844719665184	5.3247582701503955	1.6770166067152283	0.22582863968011652	2.5241587268593393	1.006324498880649	-0.394090601310031	1.40041510019068	56.93403579758808
8	3.0	wm	328	diff_vonmises	0.13434544853642813	7.6974271979293345	4.074230221515592	0.45684666727687956	0.18526448406442414	1.815385608823045	0.009999859341436212	-0.28364955963437044	0.29364941897580665	61.799097855024456
9	4.0	ltm	328	diff_vonmises	0.09775508121461227	5.60095357955588	0.900762262594689	196.36725286561335	0.8880108539951012	198.22991596522542	-0.11986061609137266	-0.3799891668666113	0.26012855077523866	79.6425146448378
10	4.0	perception	328	diff_vonmises	-0.045918768111147056	-2.6309516132086372	2.9009318590894657	2.0879587569519633	0.1748071786206993	3.775010307696493	0.6313044036169253	-0.5350690493677158	1.166373452984641	75.33464232715164
11	4.0	wm	328	diff_vonmises	0.084122135105565	4.819843305178175	2.188088771857385	0.8521945622057209	0.1717161032846896	3.233874817555167	-0.1425657142525762	-0.460480067367568	0.31791435311499183	78.92336661496097
12	5.0	ltm	328	diff_vonmises	-0.03458786948403757	-1.9817389437846848	2.314134160813419	0.9210457255442577	0.010610598021243355	2.720584709033875	0.08100160917352972	-0.42334479180746853	0.5043464009809983	89.5307530769463
13	5.0	perception	328	diff_vonmises	0.020468753837712073	1.1727732067931085	2.1383583907263026	2.6097812368144635	0.1614334423048119	4.283379076679245	0.6057438835075016	-0.5689876544412643	1.174731537948766	86.92959450675596
14	5.0	wm	328	diff_vonmises	-0.07631990796599941	-4.372808619278637	0.48647104360932725	272.1917668996841	0.47688713459806537	274.338787360118	-0.03437285254051403	-0.4994672955126447	0.46509444297213065	116.23737879618984
15	6.0	ltm	328	diff_vonmises	0.13679179976452457	7.837592798505907	0.4700792679438263	90.59240664239523	0.4463455520998314	92.63818704361383	-0.08530444255943337	-0.4497317236397329	0.36442728108029954	116.83616733458169
16	6.0	perception	328	diff_vonmises	-0.05165484115085416	-2.9596043893626316	1.0870004744699375	2.8431203173147153	0.05393998803573362	4.906954745347116	0.19447160138640784	-0.6236363588773258	0.8181079602637337	120.89255200023092
17	6.0	wm	328	diff_vonmises	-0.036345238820261354	-2.082428789796015	0.5280648516738817	181.700701238779	0.5093728047679756	183.8341425168951	0.1064268017775305	-0.5681808427957744	0.6746076445733049	115.84588293820468
18	7.0	ltm	328	diff_vonmises	0.06248733571878732	3.5802606097035916	0.9741874702468789	259.1625594321725	0.9591410062250304	261.43378000825624	-0.018891685785646928	-0.5068866545310868	0.4879949687454399	80.61240717716916
19	7.0	perception	328	diff_vonmises	0.03564567400554162	2.0423466784167226	2.6209751084294513	1.7301737334027825	0.13817154582085608	3.821904878208943	0.3532107663670633	-0.5463321281191065	0.8995428944861698	78.90187585630801
20	7.0	wm	328	diff_vonmises	0.3616024820612339	20.718296083563764	1.124582785123029	206.6557631113495	1.10213544195594	209.03029451970107	0.010021805756394997	-0.5559544316339569	0.5659762373903519	75.52026288495892
0	1.0	ltm	329	diff_vonmises	-0.03568962969155101	-2.044865153710663	0.9602178189775912	70.65021840641221	0.9149286741063968	72.26434990358281	0.08261164881200855	-0.3895304535341184	0.47214210234612697	84.71442516863561
1	1.0	perception	329	diff_vonmises	-0.02151054715670569	-1.232463567096369	10.208954888809156	0.7004335990987962	1.1638914780208093e-17	2.3110848314469186	0.5134746596370581	-0.3678205736332629	0.881295233270321	42.474694917444566
2	1.0	wm	329	diff_vonmises	0.13262102934865616	7.598625256358623	3.0019818626447132	0.5764532176856759	2.7286164909795033e-20	2.2136761478144265	0.02534928053056651	-0.3513849248617693	0.3767342053923358	79.30656310216949
3	2.0	ltm	329	diff_vonmises	0.030671019127439504	1.7573199493673044	4.691054169983454	0.4920081713227256	6.249000848462466e-16	1.444942382782243	0.1823484142136885	-0.22993499539570156	0.41228340960939003	63.088298453090516
4	2.0	perception	329	diff_vonmises	-0.06038971904741989	-3.4600760273979576	7.125906557881755	1.0798571713164673	5.240462173728291e-21	1.875068640180804	0.8296541720357906	-0.29842571316998934	1.1280798852057798	50.97104137570474
5	2.0	wm	329	diff_vonmises	-0.055202173414443605	-3.1628515565968955	4.387761771082805	0.5622398862590224	0.09329831852280668	1.5979948699147397	0.17594886079502692	-0.24813195794883167	0.4240808187438586	62.875866863292174
6	3.0	ltm	329	diff_vonmises	0.11140188327297539	6.382857741350532	2.708242012283821	0.6204306529383835	0.029011088078175717	1.1754699244789177	0.1905694894832868	-0.1800088544051335	0.3705783438884203	82.23824763762647
7	3.0	perception	329	diff_vonmises	0.02937613667799148	1.6831286500483704	5.155520561476933	1.6625810999909651	0.02587234738711085	2.0997079092833344	1.1223913517297728	-0.3297450894570642	1.452136441186837	59.788735001428364
8	3.0	wm	329	diff_vonmises	-0.08333002933882121	-4.774458987815781	2.344625626240423	1.416991147232964	0.49563754670714283	2.131391120910972	0.2799032348003344	-0.24299251191930638	0.5228957467196408	75.7579542605526
9	4.0	ltm	329	diff_vonmises	-0.13663143155303747	-7.828404376819634	0.9224694779459739	39.995873541621705	0.8731774890498148	40.95524852020314	0.07079739583295286	-0.238665575642103	0.30946297147505586	87.49934413841908
10	4.0	perception	329	diff_vonmises	-0.05535410858838729	-3.171556800823455	2.335883912784523	2.7449460235259977	0.186885811255362	4.1771663418351626	0.7596835272566991	-0.5535215431238562	1.3132050703805551	83.32193706602908
11	4.0	wm	329	diff_vonmises	0.03839114567227858	2.1996506176934982	1.0494460333569668	215.96938824879993	1.0352963470913352	217.68159207103182	-0.020698310813259013	-0.38634197985958707	0.36564366904632806	77.30779362760319
12	5.0	ltm	329	diff_vonmises	0.21894582090661796	12.544671479976392	1.9459336776779916	0.9502146032871093	1.6345520361455335e-16	1.550086651323269	0.23540586151970008	-0.23686423079392335	0.47227009231362344	98.20580452248461
13	5.0	perception	329	diff_vonmises	0.020232131058627683	1.1592157202149165	2.140419961707737	2.1398082692911267	1.2129729048485534e-13	2.465037592734868	0.7576266786291295	-0.37641765582126574	1.1340443344503952	93.90926814789549
14	5.0	wm	329	diff_vonmises	0.030081884450992892	1.7235650188421083	0.6350465843341936	143.29640665499997	0.6203026362831436	143.93600343371884	0.22855768388716058	-0.2616868790248752	0.4902445629120358	111.41939527637325
15	6.0	ltm	329	diff_vonmises	0.4788680486394651	27.43711813070677	0.7400361158339215	86.8557039306205	0.7265197120817186	87.23652181638504	0.11372420244889625	-0.13457703705876245	0.2483012395076587	102.24538113117981
16	6.0	perception	329	diff_vonmises	-0.11506422621244093	-6.592694534911443	1.7220964680355155	1.6117504141393473	1.4030091565360613e-15	1.986801745783656	0.44302679633763187	-0.29196440374242455	0.7349912000800565	103.96320557596692
17	6.0	wm	329	diff_vonmises	-0.09087071011739413	-5.206508171083433	0.5786428003028737	139.6957446525977	0.5653422347350289	140.41027612222962	0.1655647749950404	-0.2561313298922485	0.4216961048872889	115.07056201911016
18	7.0	ltm	329	diff_vonmises	-0.01660349671541754	-0.9513102869527499	2.586126292072665	1.3335147095250057	0.6645809685997309	2.210294209565989	0.18762566744021458	-0.2600536773194744	0.44767934475968896	68.70589819138289
19	7.0	perception	329	diff_vonmises	0.060685272595571264	3.4770099983271483	2.516917884234573	1.5549156816490302	1.0241893241387571e-16	2.3281404662200944	0.5494283454240643	-0.3645415812045109	0.9139699266285752	86.70214610312172
20	7.0	wm	329	diff_vonmises	-0.32493365386091944	-18.61732698799545	0.0003024502059056156	4108.416385074866	4.2468750740175494e-32	4109.523636008784	0.02155064099122228	-0.3739696554462171	0.39552029643743936	176.98627071861586
0	1.0	ltm	330	diff_vonmises	0.01498015918897319	0.858299897962282	1.0135670722437422	56.26324008375231	0.9670139125534021	57.51771765307343	0.07505077643242686	-0.3078583560078476	0.38290913244027447	82.62515885053602
1	1.0	perception	330	diff_vonmises	0.058643183250410943	3.3600068974608277	12.380268301431741	0.4936229579045914	3.8543325521953615e-23	2.0068896603751893	0.3660582832169443	-0.3194064096766251	0.6854646928935694	38.53689685870705
2	1.0	wm	330	diff_vonmises	0.14066559433106668	8.05954487786948	5.302767703797183	0.3255726620225422	1.2368511322186999e-20	1.695024235970787	0.021509008470625923	-0.26976426828884814	0.29127327675947406	59.250900773266494
3	2.0	ltm	330	diff_vonmises	-0.09358154011437851	-5.3618272888881	1.876890544112802	2.503858277830044	0.9315854223131274	3.016405329549153	0.2513029947411535	-0.20043486962253826	0.45173786436369173	74.98870847821928
4	2.0	perception	330	diff_vonmises	-0.03172063772240489	-1.8174586649572724	7.314534288237478	0.9474461227659601	0.010604787622655354	1.6247371857186343	0.7421664069113381	-0.25798601023906415	1.0001524171504022	50.18954150822816
5	2.0	wm	330	diff_vonmises	0.0712909612084072	4.0846711946726035	6.401716776678797	0.35232007786457464	0.1722639495433394	1.2245151234461344	0.11828028944079264	-0.2000444414831369	0.31832473092392954	51.341687190272694
6	3.0	ltm	330	diff_vonmises	0.12074589898528189	6.918230405369622	1.267067392097462	169.22125189995648	1.2534704980638611	169.57560505539345	0.28320693329301605	-0.17637281589615839	0.45957974918917444	80.21590181183325
7	3.0	perception	330	diff_vonmises	0.01986575588937633	1.1382239692984228	4.876058397128511	1.6637765774389865	0.21289195005256495	2.2258482364631247	0.9901264645773914	-0.34026139551156404	1.3303878600889554	59.6501524622266
8	3.0	wm	330	diff_vonmises	0.14965525137444347	8.574614285725023	3.3360596775789437	0.7697453235329249	0.3882939307972435	1.5623697964382295	0.18208091891229455	-0.22256095148054433	0.4046418703928389	66.23420926924948
9	4.0	ltm	330	diff_vonmises	0.009927000211714464	0.5687752153567135	1.154328067193647	171.54738312116783	1.1409596236159152	172.53205157806858	0.06420863439122826	-0.24971355130100648	0.31392218569223473	76.62904666062286
10	4.0	perception	330	diff_vonmises	-0.11170592841477561	-6.400278244757141	2.7495008990607013	2.146993804972665	0.10044665035456063	3.303922739456111	0.7574939412634382	-0.47747905917401806	1.2349730004374562	79.6694074163133
11	4.0	wm	330	diff_vonmises	-0.07863509147543066	-4.505458863167334	1.1541205068246652	276.6879722165524	1.1419929891037985	278.31838231961063	0.02375983942678772	-0.3898096215740168	0.4135694610008045	74.78147112153547
12	5.0	ltm	330	diff_vonmises	-0.02452273637095341	-1.405049296167591	1.694316264343783	1.1774921707170274	0.013937350916676482	1.8481146394731236	0.2509580728230645	-0.27151155974226665	0.5224696325653311	104.00199640576663
13	5.0	perception	330	diff_vonmises	-0.03626907945599788	-2.0780651796533185	2.6208236875162254	1.755095578730529	1.2778732107172132e-20	2.2525567348349353	0.7048506395771987	-0.35287872777627716	1.0577293673534758	84.95842235396557
14	5.0	wm	330	diff_vonmises	-0.11776936386308967	-6.747687505295551	0.6320393803997784	146.26739343546075	0.6198300221740364	146.95322057990728	0.15408856652279468	-0.23314925781676799	0.38723782433956266	109.77434415370537
15	6.0	ltm	330	diff_vonmises	0.2542650920248764	14.568316650530905	0.5874919605614686	127.44671419489316	0.576163242424708	128.03948348144135	0.11800847307312523	-0.20009968795018374	0.31810816102330897	113.49318424868349
16	6.0	perception	330	diff_vonmises	-0.15343445343474624	-8.791146613707516	1.7644542575090245	1.7319328477652896	3.6576496392454844e-12	2.4037064287996563	0.445472546878361	-0.35826921479857404	0.8037417616769351	102.80197268678452
17	6.0	wm	330	diff_vonmises	-0.057644908708843645	-3.3028099794336643	0.846943537400091	111.93660293310607	0.8225239746308038	112.70506549973685	0.28511201387607343	-0.2835589091236166	0.56867092299969	96.45781514415262
18	7.0	ltm	330	diff_vonmises	-0.07535719214559876	-4.3176490658992055	0.984477599807803	171.51348700273658	0.96524668954715	172.74851783763205	0.21133544674845695	-0.3499087687469533	0.5612442154954103	86.28645818171421
19	7.0	perception	330	diff_vonmises	-0.016803858549916218	-0.9627901744450229	2.924337183033392	2.0363178581116523	0.1894559056251407	3.487420492010336	0.6495424232953431	-0.4906608689200918	1.1402032922154348	74.95451752281264
20	7.0	wm	330	diff_vonmises	0.2852130264350004	16.341502676878704	9.407958105984768	0.6070116724060333	7.286118616910601e-17	1.8393909875738796	0.43950944381974194	-0.2927481630175054	0.7322576068372473	44.27174838256488
0	1.0	ltm	331	diff_vonmises	0.23244134728792537	13.317908183932769	3.7217864770025555	0.5209467726771614	9.521388182439183e-20	3.660212323999396	-0.19755799985358408	-0.5823155699508276	0.3847575700972435	71.04042694178366
1	1.0	perception	331	diff_vonmises	0.04925220008223234	2.8219431964457993	5.471449215073573	1.2093344646531514	0.2200766228711541	4.348145466315225	0.24799407369537252	-0.7071238508123665	0.955117924507739	54.2956397591762
2	1.0	wm	331	diff_vonmises	0.15582084695293033	8.927876890556842	3.158122844124393	0.6091321589246702	0.027960983549019165	3.8860538921323817	-0.2251399290353151	-0.6065722951102095	0.3814323660748944	74.28636838193671
3	2.0	ltm	331	diff_vonmises	0.12688454845503916	7.269949111896934	3.3467922684692972	0.8798120164784196	0.29881457990457577	2.4181726390775258	0.1054484596641736	-0.35803060369630657	0.46347906336048017	65.98187934435592
4	2.0	perception	331	diff_vonmises	-0.04815212471854181	-2.7589135209600126	7.770433645270296	1.157399821705311	0.029750958507462236	2.707145360613759	0.8211802891707769	-0.43097495882979325	1.2521552480005702	48.477925596479395
5	2.0	wm	331	diff_vonmises	0.053643818089369175	3.0735643734883933	5.047160273983247	0.5750854842985573	0.050735443762652696	2.504621482286423	0.08207714540577782	-0.3952316826288434	0.4773088280346212	59.13487220666522
6	3.0	ltm	331	diff_vonmises	0.2568734328446642	14.717763571036437	3.2114040776302093	0.6625650375900628	1.055777428932547e-16	1.8167182626149836	0.16187255646517856	-0.288407150529596	0.45027970699477454	76.61240036969639
7	3.0	perception	331	diff_vonmises	0.014974996316640662	0.8580040871674633	5.292209543984693	1.774604727107355	4.716993238890467e-18	3.152165229481781	1.0843060053597007	-0.5016425393754319	1.5859485447351327	59.31158392379527
8	3.0	wm	331	diff_vonmises	0.006094724878686067	0.3492020128420943	4.077056588579002	0.797684470010861	0.13500700088015882	2.5612898132983544	0.155228226273446	-0.3956704111592355	0.5508986374326815	63.792988316120926
9	4.0	ltm	331	diff_vonmises	0.46810580348976427	26.820486905543774	0.5523223965356437	230.51734061571725	0.5410922910312805	232.80050931817857	-0.09388772208478713	-0.483176966792481	0.3892892447076939	106.0477289228777
10	4.0	perception	331	diff_vonmises	-0.033689323255091906	-1.9302560371687028	2.980630578615151	2.0890471408567852	1.8122228795341535e-17	4.899037248832406	0.58348291696058	-0.7761935042147831	1.359676421175363	79.59651363718726
11	4.0	wm	331	diff_vonmises	0.17038868422137837	9.762552482672303	0.7474940117321499	258.6544335913643	0.7331349011143609	261.9191191315142	-0.2407624320770907	-0.6389705921168911	0.3982081600398004	86.59718298174192
12	5.0	ltm	331	diff_vonmises	0.06016283811103563	3.4470767072911634	1.6710223038129872	1.1268411050132714	2.210698704118827e-20	2.297930846196318	0.15544050632784062	-0.34729430745348205	0.5027348137813227	105.39019060227423
13	5.0	perception	331	diff_vonmises	-0.016181830094466085	-0.927150569210689	1.760057490909696	2.573857357366939	9.449590865943917e-21	3.431106019273255	0.6826249036074569	-0.5097126646510278	1.1923375682584847	102.96749240454905
14	5.0	wm	331	diff_vonmises	0.059260653424593454	3.3953853324166934	0.8736024689406824	7.841389193792383	0.5114132283800812	9.253366391475774	0.18820780028955708	-0.4012066704730588	0.5894144707626159	102.81224319684083
15	6.0	ltm	331	diff_vonmises	0.47957099947122067	27.477394246571578	0.5223758839074404	158.11566369698048	0.5099951705718838	158.88301461913719	0.17598193367072668	-0.28644350150988274	0.4624254351806094	119.95268074281003
16	6.0	perception	331	diff_vonmises	0.04777854439299687	2.7375089449971646	1.4260752154501724	2.0527760465482126	6.702499522748887e-15	2.8611954546388176	0.4070311395615362	-0.4055938643434577	0.8126250039049938	112.79988661658832
17	6.0	wm	331	diff_vonmises	0.24058616777594788	13.784572022788142	0.6323858875098245	255.5507098726304	0.6221677057840803	256.7898645060827	0.16117205411012492	-0.3603438151581351	0.52151586926826	107.55689975183273
18	7.0	ltm	331	diff_vonmises	0.0123023398695367	0.7048721526599767	2.839581124055283	1.18642341455968	0.2663318513664582	3.667040276054029	0.004554957497681644	-0.5305249202955724	0.535079877793254	70.06466455577112
19	7.0	perception	331	diff_vonmises	0.14551767655912123	8.337548711387438	0.8011105759308426	112.45144705442442	0.7570355394534966	114.2993486513581	0.40048704184788164	-0.5740327567867887	0.9745197986346703	97.89572427303906
20	7.0	wm	331	diff_vonmises	-0.029587451255023656	-1.6952360834619062	2.089739959204393	0.816864889156947	2.1848326326618368e-17	3.39450670905862	-0.10755014533366414	-0.5336289862335758	0.42607884089991166	95.00467924658702
0	1.0	ltm	332	diff_vonmises	0.0005643894043064538	0.032337130868662446	1.784728359322733	1.6100482123365019	0.3863233563544074	3.750732311495076	-0.07142108960845495	-0.4453328989359897	0.37391180932753476	78.70223508241992
1	1.0	perception	332	diff_vonmises	0.020519005434751846	1.1756524112172797	10.809427964941415	0.737674080631966	0.002636598595087955	2.8043568078988375	0.5083082628808067	-0.44640589365482775	0.9547141565356344	41.23558513670443
2	1.0	wm	332	diff_vonmises	0.08791151768692781	5.036958934050653	3.5934259679033063	0.44422468311691427	1.9576136241373413e-12	2.721830476138507	-0.11119516358278458	-0.4329491936739869	0.3217540300912023	72.3317703112537
3	2.0	ltm	332	diff_vonmises	0.09529696177516309	5.460113710136379	4.470025245421272	0.4685625417081121	0.02303590450895777	1.6529511280193054	0.11340465032885921	-0.26009976328513534	0.37350441361399456	63.78089992238952
4	2.0	perception	332	diff_vonmises	-0.0408300866266072	-2.3393916408581372	8.104186651817628	1.085570033344874	0.048491021655603164	2.1052910364327486	0.8609909008160006	-0.33628727026067984	1.1972781710766804	47.39044644820558
5	2.0	wm	332	diff_vonmises	0.013733236647519532	0.786856498957261	4.972102437813897	0.4727750978979365	0.06640603357404	1.8467128292813009	0.09497763065743348	-0.290947346997054	0.38592497765448747	59.327538642391886
6	3.0	ltm	332	diff_vonmises	0.19514661635130987	11.181077503188716	3.8576120897727013	0.4407418901779938	3.4216204039883545e-10	1.0889505693540595	0.15889467228299706	-0.1731637008375124	0.33205837312050945	69.74440965676953
7	3.0	perception	332	diff_vonmises	0.03428483263065788	1.964376211049104	5.715044191145329	1.5855247629768916	0.04731676468459315	2.1475155471333256	1.117688299561067	-0.33723514298222773	1.4549234425432949	56.54792604128525
8	3.0	wm	332	diff_vonmises	-0.04543486444116227	-2.603225975227618	3.655947631118764	0.7236083848686937	0.2933237359737708	1.6661962295597017	0.18144443719389491	-0.24765416149435424	0.4290985986882492	64.86843000029438
9	4.0	ltm	332	diff_vonmises	-0.023414728278354606	-1.341565108795339	0.8761932579160906	102.21225828203666	0.8565395991438279	103.49441149000783	-0.020039412036247484	-0.27896964807556834	0.25893023603932086	84.89637674086532
10	4.0	perception	332	diff_vonmises	-0.03997920753213961	-2.2906398598692315	2.898800261927432	2.1117132902080202	0.08965282569680934	3.7725258601895146	0.7007503642922308	-0.5554091295330884	1.256159493825319	77.61275452693317
11	4.0	wm	332	diff_vonmises	0.05359537944637078	3.070789043679244	0.9630614678666325	225.74905311270615	0.95026927398631	227.70116942743573	-0.10049418666999088	-0.4108105918918241	0.31031640522183324	78.09712880903635
12	5.0	ltm	332	diff_vonmises	0.18432409630618554	10.560992780907359	1.7634297832732753	1.0578292860770044	0.07050664469462739	1.9888506607540517	0.16631105725769824	-0.2797573519084098	0.446068409166108	98.40143930627798
13	5.0	perception	332	diff_vonmises	0.027295957939032348	1.5639431876731664	2.371362769746004	2.0296444321804343	1.1043255050153098e-18	2.7244592040194155	0.7258020231875357	-0.42350563690429	1.1493076600918257	89.31340043269677
14	5.0	wm	332	diff_vonmises	0.04094210414744399	2.345809772033604	0.5837762289359776	164.9301899688856	0.5696918494143656	165.998615134356	0.16098458806536797	-0.3332885330351054	0.4942731211004734	112.96500965867057
15	6.0	ltm	332	diff_vonmises	0.3823052099316311	21.904475014945383	0.6656514613565806	106.9880428328154	0.6515333736897585	107.70755933581314	0.08914320903576822	-0.203619432145846	0.2927626411816142	104.67202275140366
16	6.0	perception	332	diff_vonmises	-0.08276185822324154	-4.741905180851827	1.6183955024172132	1.7034476760088204	1.5554609250105224e-14	2.4496357151296397	0.38280839652400683	-0.3595122123577861	0.7423206088817929	106.88530673952198
17	6.0	wm	332	diff_vonmises	-0.05056617773363226	-2.897228570245527	0.5160915561349628	175.39970760366202	0.5037929852113961	176.46097690112197	0.14118376084449835	-0.3370501831719661	0.47823394401646446	119.6094381509052
18	7.0	ltm	332	diff_vonmises	0.05962078887077298	3.4160195735358414	1.15514419581478	76.39684855122114	1.1162956087315146	77.6425275217709	0.10023567480794782	-0.32083983507564007	0.4210755098835879	77.51486026026211
19	7.0	perception	332	diff_vonmises	0.0681632751284639	3.905467982650036	2.4128678377029624	1.51940268466673	1.8696926041607954e-14	2.6279225595952775	0.4587070261355089	-0.4112130780249839	0.8699201041604928	88.54065321784836
20	7.0	wm	332	diff_vonmises	0.03710606206899866	2.1260207509040945	1.6801539283490334	0.7422470691547938	1.9123639872945046e-29	2.193481459429799	-0.004654724693829326	-0.33714248790357504	0.3324877632097457	105.13896626000712
0	1.0	ltm	333	diff_vonmises	-0.04988679459134075	-2.8583027835198873	1.9138692405511504	1.443963209178741	0.3546671620786846	3.4529320116467876	-0.03410548087859411	-0.4260773319873078	0.3919718511087137	78.51553565489428
1	1.0	perception	333	diff_vonmises	0.05022383795684682	2.8776139458762704	17.528413791480105	0.5209279360684765	2.501371225299837e-16	2.7439881043184116	0.4269559398212783	-0.436719270587634	0.8636752104089123	32.33758492619637
2	1.0	wm	333	diff_vonmises	0.0980997844242535	5.620703618652936	4.320098304670189	0.3994987775711589	0.05229364293325939	2.760504900655449	-0.14236963738834568	-0.4349094122474235	0.29253977485907784	62.69996575777526
3	2.0	ltm	333	diff_vonmises	-0.06451381702053705	-3.696369435556028	2.513660304173853	0.8689640201171243	0.22061077302644383	1.8183967081867942	0.15726563126837906	-0.24844221977974906	0.4057078510481281	77.8966330444764
4	2.0	perception	333	diff_vonmises	-0.03553529759638244	-2.0360225760140924	7.3014001693590265	1.0531936383714056	0.18792783136746433	2.131150227937205	0.7087842785774376	-0.3493939431307095	1.0581782217081472	48.93186023926265
5	2.0	wm	333	diff_vonmises	0.08457334634923443	4.8456958051092816	6.358648345157985	0.3294857842099367	0.06034678067283648	1.7149245419648371	0.03472897374294592	-0.27408461074515117	0.3088135844880971	52.55104380083935
6	3.0	ltm	333	diff_vonmises	0.07928227825414859	4.542539934144539	1.0657308180680345	167.76823814337916	1.052004310728997	168.4526355104242	0.19255454370341596	-0.22018334307315257	0.41273788677656853	84.3459751941972
7	3.0	perception	333	diff_vonmises	0.024624367284846838	1.410872318601742	4.654449304452521	1.8753659995405194	0.31906250893726396	2.6309339926338544	1.0031953172923176	-0.39834333632061963	1.4015386536129373	59.897899700090306
8	3.0	wm	333	diff_vonmises	0.14839024483947494	8.502134750214857	2.988333260683873	0.7564081840911537	0.3392994759636952	1.9609573913878395	0.06843814723620467	-0.2802602838316053	0.34869843106780996	68.18007514463724
9	4.0	ltm	333	diff_vonmises	-0.02725619305981974	-1.5616648279214365	1.100731759274457	243.302650409747	1.089173750246956	244.75965344306283	0.004434305442387654	-0.33911653858467616	0.3435508440270638	76.12477467206216
10	4.0	perception	333	diff_vonmises	-0.06644145799087156	-3.8068151275726985	2.169135769849926	2.954841566358675	0.35420148345285196	4.276823356439442	0.660424144735687	-0.4978918292865101	1.158315974022197	81.69383052505981
11	4.0	wm	333	diff_vonmises	-0.0157457841198297	-0.9021669751903555	0.8976630145264762	166.88916778876762	0.8797005125344887	168.89349837216704	-0.06785140610295315	-0.4259452182264667	0.35809381212351354	82.51743267527692
12	5.0	ltm	333	diff_vonmises	0.01069533465335023	0.6127975361169836	1.5212366188770607	1.6468600124110797	0.19401783465290437	2.887099141426818	0.16675510276541905	-0.34334274370354717	0.5100978464689663	97.35209064273187
13	5.0	perception	333	diff_vonmises	0.01048643539806273	0.6008284904455838	2.5802351307913436	1.8155596788225268	9.540815664998165e-14	2.981067933838397	0.6154943436693026	-0.46819571336495885	1.0836900570342614	85.63130372032398
14	5.0	wm	333	diff_vonmises	-0.16060591027523996	-9.202040823628032	0.5340282157111389	212.75118303440485	0.5237990627111053	214.21823328294124	0.03996178236328518	-0.3685725341873578	0.408534316550643	113.46476196058242
15	6.0	ltm	333	diff_vonmises	0.10034929333247901	5.74959098507134	0.42747692999757747	126.39060526921568	0.41481489174740555	127.75423056579393	-0.019999734766560806	-0.33031794597236264	0.31031821120580183	124.36975014261844
16	6.0	perception	333	diff_vonmises	-0.11770176135861328	-6.7438141671045395	1.652977535245939	1.7535055307057072	1.241883412683117e-14	3.3116464692264653	0.2786217428048975	-0.497524090263812	0.7761458330687094	105.87657539362021
17	6.0	wm	333	diff_vonmises	-0.09909252764065114	-5.677583615092764	0.627068880289975	147.280051054011	0.6065482322762817	148.8705014942415	0.14857751003231812	-0.435329874355471	0.5839073843877891	107.3698052878523
18	7.0	ltm	333	diff_vonmises	-0.01819154136427316	-1.0422985430105116	1.005525781551029	237.1285501815945	0.9903507087441309	238.8078818564656	0.11007276233524976	-0.4156267541069276	0.5256995164421774	82.48593495640739
19	7.0	perception	333	diff_vonmises	0.02262978456220478	1.2965911467046392	3.3816145934711312	1.3635684876321479	5.997242195090077e-18	3.0940234588768396	0.4630579130827283	-0.4913249699929899	0.9543828830757182	74.62423928719429
20	7.0	wm	333	diff_vonmises	0.2962642540377707	16.974691376955917	5.366216948196467	0.7096303474952289	0.1411181058747733	2.5368202056942843	0.17627052517716318	-0.4047645018365278	0.581035027013691	56.01486203936932
0	1.0	ltm	334	diff_vonmises	0.22194336004588755	12.716417821581818	3.598186269082484	0.7274247963934262	0.0916259938402525	4.069653908929359	-0.1807276985443158	-0.6320417556492696	0.45131405710495376	66.78269432741033
1	1.0	perception	334	diff_vonmises	0.07493258132218156	4.293320657781825	4.262624662887897	1.5748834159103238	0.3308925783598707	4.941992131155447	0.1877361138163669	-0.7819365085298176	0.9696726223461845	58.78680851066537
2	1.0	wm	334	diff_vonmises	0.20098515701769318	11.515601241887978	3.0597580276785266	0.6777585618251302	0.03638564642820544	4.02496173113013	-0.2152446019595315	-0.6250682978698457	0.40982369591031426	74.88381767800144
3	2.0	ltm	334	diff_vonmises	0.10197046169494804	5.8424770901209495	3.0788377884564735	1.15519834861864	0.4748085125328744	2.5640810468228956	0.14723585990762178	-0.35906886651582026	0.506304726423442	65.69972996241245
4	2.0	perception	334	diff_vonmises	-0.055360245086423135	-3.171908396261899	7.5275892265232285	1.1591526071043075	3.113047627810306e-17	2.518266631151761	0.8454032180992783	-0.4007942215969678	1.246197439696246	49.56489366453167
5	2.0	wm	334	diff_vonmises	0.04512712493592471	2.5855938003880614	5.130897610312531	0.5958882438332841	0.0735028074967234	2.3661125012513007	0.11905276726132574	-0.3736777003962961	0.49273046765762185	58.27536224078858
6	3.0	ltm	334	diff_vonmises	0.2392909639468393	13.710362309771035	3.0344708207460127	0.7007907081478455	6.851784027440796e-16	1.7673971042222623	0.18067644594329801	-0.28022108762837056	0.46089753357166857	78.86148766436463
7	3.0	perception	334	diff_vonmises	0.01766235387757025	1.0119783334512997	5.026219572508316	1.7580378097753506	3.8504232211117324e-20	3.042695148652972	1.0444540320824391	-0.4841941153888208	1.5286481474712599	60.896756391247465
8	3.0	wm	334	diff_vonmises	0.021359531163739297	1.2238109880604175	3.972016498204975	0.8878572409142329	0.14495394044643486	2.50128507036658	0.2222221266309236	-0.3833055760872081	0.6055277027181317	64.7093818880985
9	4.0	ltm	334	diff_vonmises	0.5691336819807612	32.608957956238406	0.5241928920973874	233.49971790673342	0.5135385343071689	235.65251321549587	-0.07035224233255377	-0.4701220347232571	0.3997697923907033	110.03303738856894
10	4.0	perception	334	diff_vonmises	-0.05296244894836074	-3.0345247974181557	2.823601471371112	2.257279032182659	1.1182691664617822e-18	5.056719061266198	0.6231690419560625	-0.7997648487138245	1.422933890669887	81.81585281458575
11	4.0	wm	334	diff_vonmises	0.12586822696983507	7.211718180166272	0.8431779988005668	266.38322459130075	0.8269526263017127	269.6407199205761	-0.18085942699110547	-0.6649140627250958	0.4840546357339903	83.35488387055582
12	5.0	ltm	334	diff_vonmises	0.016498910475980975	0.9453179368378901	1.4990877395040312	1.2168529360890878	2.3169248586479663e-17	2.2901532197251724	0.16239963275716524	-0.33820901388728414	0.5006086466444494	110.48498870352422
13	5.0	perception	334	diff_vonmises	-0.03751372214553479	-2.149377952765595	1.6246699687854735	2.785205356764995	3.0578847331450013e-20	3.4038216253981646	0.7246195529128842	-0.49260017740818507	1.2172197303210692	106.71788971714446
14	5.0	wm	334	diff_vonmises	0.07730415804639204	4.429201994870547	0.7404536948924064	130.4124316632829	0.7168207024473028	131.59789002686284	0.2468921939701687	-0.3710280304500202	0.6179202244201889	101.19136349162656
15	6.0	ltm	334	diff_vonmises	0.556375929643718	31.877992591252667	0.6203011196220581	175.20284111780632	0.6085518821177663	175.79617447456468	0.23161306343770605	-0.25599152059309205	0.4876045840307981	112.59427960527171
16	6.0	perception	334	diff_vonmises	0.06363882204666878	3.6462359164582168	1.1351118325703389	3.2402983910630927	0.14781259538969652	3.737304563313529	0.5036638478603188	-0.38742480607940255	0.8910886539397214	115.9306036647276
17	6.0	wm	334	diff_vonmises	0.24515741048581483	14.046484937193462	0.6995948543524838	254.57417067667924	0.6887650185104822	255.56616668235645	0.24519618607058646	-0.3338726712857927	0.5790688573563791	104.42357445558676
18	7.0	ltm	334	diff_vonmises	-0.0017540028508465457	-0.1004969606074215	3.49111648212506	1.0123757784008807	0.2188006419069404	3.5370575019466086	0.02983223414782432	-0.5376968539387752	0.5675290880865995	65.4802271540367
19	7.0	perception	334	diff_vonmises	0.1525050456710802	8.73789547140276	0.8768679130300341	230.74439025676415	0.8533524250011242	232.56898492286777	0.46227202155651526	-0.580414400731744	1.0426864222882593	93.29302650192912
20	7.0	wm	334	diff_vonmises	0.021545278712734043	1.2344535386727158	1.7409095462077242	1.0640568380152227	4.6183150535894875e-20	3.5469588318025274	-0.059936767748125286	-0.548999049632238	0.4890622818841127	103.47714744929164
0	1.0	ltm	335	diff_vonmises	-0.00705810951306511	-0.4043998864397674	0.9741568356707893	194.86448511400863	0.959995617086743	196.3345885669058	0.03218313373820081	-0.3418252176013006	0.3740083513395014	82.12942789718997
1	1.0	perception	335	diff_vonmises	0.026766910349431718	1.533630993627481	8.516336850834074	0.7086783413362769	5.278262428414506e-16	2.1076594767826	0.4765577949950537	-0.33544439153030076	0.8120021865253544	46.565212082951746
2	1.0	wm	335	diff_vonmises	0.09114275223858048	5.222095036477198	5.056416274806593	0.3543021499331645	1.3462504661716297e-19	1.808361217975467	0.021249181941309925	-0.28779709166688655	0.3090462736081965	60.71103895214938
3	2.0	ltm	335	diff_vonmises	0.011533555869811312	0.6608240741185254	4.371579358563019	0.5119736176208247	0.07724592526828357	1.4172388248931733	0.16974304643648572	-0.22016937566161313	0.38991242209809884	63.37009376969755
4	2.0	perception	335	diff_vonmises	-0.03138729449652043	-1.798359504984817	7.56390868657246	1.070677570920212	1.0606589578910202e-18	1.9228664781760552	0.8479115968992785	-0.30603339423815074	1.1539449911374293	49.44469453717963
5	2.0	wm	335	diff_vonmises	0.006823002050019169	0.390929221075207	5.310772810111887	0.4232685677020208	0.09641323522632224	1.4413481182715593	0.12691423597887014	-0.22804828137125444	0.3549625173501246	57.13822269935815
6	3.0	ltm	335	diff_vonmises	0.18689115405640908	10.708074355761516	2.850925027722217	0.8051333447142008	0.47557896478074785	1.2468151172886466	0.21018927738254783	-0.15813383617790294	0.3683231135604508	70.74128247253464
7	3.0	perception	335	diff_vonmises	0.040645426434149076	2.328811391186213	5.325178780315609	1.6593326808797253	0.09305217249294999	2.0172096603099074	1.1361602988680786	-0.3133182235603701	1.4494785224284485	58.24917319908499
8	3.0	wm	335	diff_vonmises	-0.0652612451563784	-3.739193913229069	2.9501301409580036	0.8156478951848565	0.3827211941371644	1.4638669346473225	0.1996731715029223	-0.19703072680692482	0.3967038983098471	70.40697215494757
9	4.0	ltm	335	diff_vonmises	-0.013993482520643556	-0.8017674891229646	0.8095121434793785	97.77304264227098	0.7930772825856479	98.70172272775137	0.026098907296340457	-0.21585153163499626	0.24195043893133672	90.9725458277021
10	4.0	perception	335	diff_vonmises	-0.06802439798879546	-3.8975109086761854	2.7563506865114715	2.2873299039808943	0.1479618107360162	3.742055092744676	0.7402109103973769	-0.5281829158031845	1.2683938262005614	78.13939551050908
11	4.0	wm	335	diff_vonmises	-0.01740156339957954	-0.9970361397252326	1.0675482558957505	155.8861567001849	1.0511050012346261	157.39883457934076	-0.049360283402414495	-0.3343470157470314	0.2849867323446169	75.4618630461967
12	5.0	ltm	335	diff_vonmises	0.24272248308010463	13.90697387342553	1.4661677241254223	1.7830684952588798	0.38351941350231283	2.4222214412912777	0.21628244023498544	-0.2225269875101884	0.43880942774517384	93.4458533537906
13	5.0	perception	335	diff_vonmises	0.013553386823436507	0.7765518630911333	2.689002223423043	1.9183950378655035	5.5279023483240336e-17	2.3287091900992736	0.8091452589282193	-0.36517832290922053	1.1743235818374398	83.86634106452416
14	5.0	wm	335	diff_vonmises	0.011629803759641113	0.666338671992813	0.577995477445792	140.3040189890771	0.5648651090010581	140.97191372449	0.17469639051584096	-0.2506983797367006	0.4253947702525416	115.57762805303018
15	6.0	ltm	335	diff_vonmises	0.27900373093842445	15.985736251175313	0.6750080449823064	79.24816223510462	0.6605982040029853	79.71585783220857	0.08771673515417433	-0.14618976234038605	0.23390649749456038	105.45481515978312
16	6.0	perception	335	diff_vonmises	-0.18228319122330483	-10.444057533271497	1.7333837884253716	1.5300121249909844	6.728869974805493e-12	1.9703824625592188	0.41000244857653245	-0.2910046183760658	0.7010070669525983	103.61313526065928
17	6.0	wm	335	diff_vonmises	-0.14892908023290488	-8.533007744110664	0.6064391083156726	128.88623407933173	0.5923232077208731	129.60012002054162	0.155769145870444	-0.24510034412723414	0.40086948999767813	112.15452383007782
18	7.0	ltm	335	diff_vonmises	0.05842586741784586	3.347555617433477	1.1219426876974512	74.99444573659285	1.089957650797592	75.82889323899002	0.14947138904728874	-0.24005834653892144	0.3895297355862102	80.89874158205603
19	7.0	perception	335	diff_vonmises	-0.011104746865980777	-0.6362551279818265	2.130814378985365	2.269803905451861	0.23873564350449125	3.1000703409101846	0.5988814292127705	-0.3819463419306385	0.980827771143409	85.8250008264036
20	7.0	wm	335	diff_vonmises	-0.26712042603356195	-15.30487303345958	0.0002791939071727254	3742.2635443397426	5.3872029562025004e-30	3743.297942073078	0.00166755735233437	-0.3309033701610815	0.3325709275134159	177.9532075474968
0	1.0	ltm	336	diff_vonmises	-0.11371463676944121	-6.515368755752148	1.0899846167852971	427.7042437180845	1.077353750618911	430.571716392337	-0.008341381306991025	-0.6608290263387104	0.6524876450317194	76.24754787771067
1	1.0	perception	336	diff_vonmises	0.00854388073858982	0.48952830698431327	6.647496620072852	0.8673451623992826	7.827711988200444e-18	3.167009763273143	0.3697572804782786	-0.5040437874109093	0.8738010678891879	52.80649384447818
2	1.0	wm	336	diff_vonmises	0.10141752213659384	5.810795987101426	6.763849780739323	0.40973071932545446	9.897116713850636e-17	2.8341543359057866	-0.03444381949731523	-0.45106911643099556	0.41662529693368033	52.33505472027562
3	2.0	ltm	336	diff_vonmises	-0.12244646603713287	-7.015665720219688	3.603367300484459	0.7482405557299532	0.001370643199733613	2.6034269352090744	0.1282789206066225	-0.413377716772487	0.5416566373791095	72.13734068830905
4	2.0	perception	336	diff_vonmises	-0.06385214211973206	-3.658458256330165	6.2241508874465215	1.245960099141858	0.0036270004736561816	2.918982890214223	0.746623508784652	-0.46370758510863064	1.2103310938932825	54.530267276981334
5	2.0	wm	336	diff_vonmises	-0.09626972879733822	-5.5158491549565225	3.5727857372753307	0.7434409241956593	0.14433973949796994	2.4122753550174836	0.09586296160506669	-0.36685514002082437	0.46271810162589105	67.30122807682142
6	3.0	ltm	336	diff_vonmises	-0.020642652481140583	-1.1827368651246126	1.2166833056179707	4.766883970196557	0.7424095909473734	5.74455795178534	0.14083699014199502	-0.26664663660747273	0.40748362674946775	85.92142338386978
7	3.0	perception	336	diff_vonmises	0.08607519546738963	4.93174542104502	4.238839044899658	2.1730711356725374	0.1330949772717968	2.5888443910765937	1.2557197550521337	-0.38894158046709293	1.6446613355192268	64.74271976404015
8	3.0	wm	336	diff_vonmises	-0.17885396877400722	-10.247577559915229	3.182775547727021	0.7451763653590313	6.054125339448935e-20	1.5924559319124847	0.25124799758666655	-0.25257921009653456	0.5038272076832011	76.9711223479573
9	4.0	ltm	336	diff_vonmises	0.05849470028089266	3.3514994499778603	0.00023591368677336341	5612.846577276017	2.4166659490829966e-29	5614.201097869899	-0.00482559350405154	-0.42630684567222943	0.4214812521681779	179.8224341668276
10	4.0	perception	336	diff_vonmises	-0.04043179804230706	-2.3165713859494987	1.0701482009516015	127.21072998074476	1.012357203136679	129.1576043027501	0.7154443425002981	-0.6859321871014199	1.401376529601718	86.03591052582823
11	4.0	wm	336	diff_vonmises	0.08706378040512415	4.988387165667411	0.7564448247727447	144.35198587395078	0.7407886695936008	146.05661530812668	-0.06690433734994627	-0.3538065799286585	0.2869022425787122	89.78727418635395
12	5.0	ltm	336	diff_vonmises	0.4202278224123137	24.077280658198642	0.9041311779479533	152.19171382984473	0.8852510295504398	153.3771012975593	0.16817688333117076	-0.32445746514764195	0.4926343484788127	89.59848110476781
13	5.0	perception	336	diff_vonmises	0.06196390492592102	3.5502702344051666	2.309665434141659	2.6763796028143694	4.124446479788642e-16	3.5946372535545956	0.9330165516182827	-0.5572626007195456	1.4902791523378283	90.48173039625888
14	5.0	wm	336	diff_vonmises	0.00978225086581185	0.5604816887492144	0.4983277930286225	177.12336758007368	0.48546099691706657	178.25138040279788	0.15013021555655115	-0.36310479367195114	0.5132350092285023	121.60409745422865
15	6.0	ltm	336	diff_vonmises	0.7325973196987208	41.97473450133299	1.1558491797977692	109.54982136384618	1.1398963313788495	110.42708132644503	0.0023944664526709403	-0.2068856617219108	0.20928012817458175	74.26196375667675
16	6.0	perception	336	diff_vonmises	-0.27501012101319183	-15.756919257437927	1.3339652491316194	1.9942473966710463	7.15662812256717e-19	2.6647048749919957	0.38080914235110325	-0.3682423190718601	0.7490514614229633	115.56134138644205
17	6.0	wm	336	diff_vonmises	-0.4375050686508919	-25.067193949277446	0.34055402356561226	76.13041096177757	0.3208643487451471	77.15774897895916	0.05078461287803293	-0.3096424679891374	0.36042708086717035	137.11358588187994
18	7.0	ltm	336	diff_vonmises	-0.12136412600205926	-6.953652204211928	2.7835288268703304	1.589434406201493	1.1176842966057559	2.4352658425222966	0.11118077704936546	-0.265553829105841	0.3767346061552065	60.25314667795246
19	7.0	perception	336	diff_vonmises	-0.014053333832991101	-0.8051967167187982	1.070708615400084	178.97992218571184	1.045329227413978	179.45740901237343	0.6872347544643134	-0.3544481686919969	1.0416829231563103	89.17227927845326
20	7.0	wm	336	diff_vonmises	-0.5467995037476255	-31.329303804586782	0.00032245438987108833	3458.1187427773807	3.450763615708762e-32	3459.3693146924834	-0.021551948731598713	-0.37648884390750936	0.35493689517591065	171.62325292315953
0	1.0	ltm	337	diff_vonmises	-0.19761322810233625	-11.322403946219902	1.0643905180680635	155.54683702102898	1.045191237884368	157.41012339738046	-0.09063583021067956	-0.4037574221305782	0.31312159191989863	74.54332386181332
1	1.0	perception	337	diff_vonmises	0.03535083849828536	2.0254538482003404	13.091271166954273	0.731572399950108	3.011094260195025e-18	2.4424422360885245	0.6568072199744339	-0.3887267550854603	1.0455339750598942	37.46041439518197
2	1.0	wm	337	diff_vonmises	-0.0670698118373654	-3.842817151017607	4.371927748333185	0.2868898276262323	4.0443191462718584e-14	2.433875727368745	-0.15588004304476996	-0.38732644443437003	0.23144640138960007	65.40736026335094
3	2.0	ltm	337	diff_vonmises	0.31489986665049424	18.042433328305744	1.418312234610885	0.6734232341938101	4.8435892991636226e-63	1.821556039352972	-0.007918533177371123	-0.2733784086661367	0.2654598754887656	112.63587980391773
4	2.0	perception	337	diff_vonmises	-0.02012496652882871	-1.1530756449439314	8.578312232311866	1.1361831238409603	0.2244565023218101	2.117947039089349	0.8904109496375345	-0.35677238434688857	1.2471833339844232	45.20794121874303
5	2.0	wm	337	diff_vonmises	0.05458611037874246	3.127553744737203	5.842802047345226	0.2981941853687468	0.022129488922506997	1.6278532812611808	0.015969162477134313	-0.2582506400504131	0.2742198025275474	55.61419964555037
6	3.0	ltm	337	diff_vonmises	0.20415791799641433	11.697387055372497	3.83146337059773	0.39813178298811414	0.29695923192055396	0.8735398212444527	0.11592105906781455	-0.13070444098706283	0.24662550005487738	63.801625068681034
7	3.0	perception	337	diff_vonmises	0.04204266623742504	2.408867334881615	5.666667939996078	1.6539606047867903	0.32010433125703486	1.9327594114273128	1.119419027876525	-0.3033143145089038	1.422733342385429	55.08701966037185
8	3.0	wm	337	diff_vonmises	-0.08041451111161893	-4.607412098303627	5.414552020197801	0.3981926557317722	0.35467500811226843	1.1444718288180968	0.10845644416097372	-0.189488914140973	0.2979453583019467	53.493757273446704
9	4.0	ltm	337	diff_vonmises	-0.11193909788790737	-6.41363787147888	1.1618090378257309	161.222861813509	1.1491754400181764	162.3051013494448	-0.021498354304874567	-0.2493497257761348	0.22785137147126022	72.90546221176402
10	4.0	perception	337	diff_vonmises	-0.017898762363685504	-1.0255235419467807	2.7991747202622035	2.1666019350930332	0.2839672564776788	3.4264842469959347	0.6537222993333207	-0.45774750531526043	1.1114698046485811	74.73208612708083
11	4.0	wm	337	diff_vonmises	0.07232060480854928	4.143665427363401	0.9590814316846167	124.72308675903811	0.9433341300507441	126.19505768980578	-0.11422039586653909	-0.2997168579274607	0.18549646206092163	75.8897766582852
12	5.0	ltm	337	diff_vonmises	0.29908063264229406	17.136057984506053	0.7790530472803909	135.26372484703572	0.7628319534170819	136.32862054420806	0.10318984655479824	-0.27757892266701667	0.3807687692218149	95.58530643463686
13	5.0	perception	337	diff_vonmises	0.0686257680652683	3.9319668759835382	3.318810566306373	1.6534625469447053	5.195794397047709e-19	2.714220635303627	0.7145932218418463	-0.4304794499268595	1.1450726717687059	75.34254948120537
14	5.0	wm	337	diff_vonmises	0.0019154426585117335	0.10974678023204051	0.3623119664476515	142.27302968221025	0.34997476595962035	143.63192436278047	0.021040095579440532	-0.3706789616502064	0.39171905722964695	134.64303152615818
15	6.0	ltm	337	diff_vonmises	-0.5639895079134141	-32.31421849309877	0.00019063739763234178	3749.915165571312	1.318153070510758e-25	3751.0676295941316	-0.06964089341704494	-0.2971889542139934	0.22754806079694845	171.10900460054594
16	6.0	perception	337	diff_vonmises	-0.16328339841191464	-9.355449593555837	1.7277369266773412	1.4235518931593396	9.833569801783989e-15	2.6738667542879675	0.2463669633079697	-0.404343421851695	0.6507103851596647	103.77881177723269
17	6.0	wm	337	diff_vonmises	-0.32955142186715974	-18.88190560552356	0.35564533346269467	123.83776254697398	0.3388946304160836	125.27066755975662	0.06481902918059035	-0.42307344971756855	0.4878924788981589	135.79974819996926
18	7.0	ltm	337	diff_vonmises	0.20758226504003338	11.89358768855997	1.021873855309681	147.75829742073117	1.0071390079828357	148.68972064274334	0.09180066253559716	-0.2410329638080455	0.33283362634364266	82.78970586219216
19	7.0	perception	337	diff_vonmises	0.016013383487133066	0.9174992895372095	2.5059234056393644	1.2495959133555858	3.694504180110281e-20	2.248643702658198	0.37960337409466566	-0.35297211369327136	0.732575487787937	86.89068946625665
20	7.0	wm	337	diff_vonmises	0.26312624294435916	15.076023199845736	1.7527919341725073	0.9873920530914675	0.34488696025608967	2.181816503685608	-0.005819830863457831	-0.2575079026602982	0.2516880717968404	82.06871756197674
0	1.0	ltm	338	diff_vonmises	0.4140065383926889	23.720827340721957	0.0002136327695015263	4949.858178386987	2.7019834771693413e-30	4951.696191878774	-0.12422324425426723	-0.46081664491589436	0.33659340066162713	174.73676043813367
1	1.0	perception	338	diff_vonmises	-0.006753438086057648	-0.38694349953401164	11.052468049643318	0.658649590310375	1.769014050031814e-19	2.5561108236819585	0.4562127302334955	-0.4068176724628129	0.8630304026963085	40.80802590510473
2	1.0	wm	338	diff_vonmises	0.04122879086230602	2.362235710837669	3.5628164785176155	0.4581957635585964	7.710071214341582e-20	2.681936488302146	-0.09631334988975249	-0.4265775911389149	0.3302642412491624	72.65414717381893
3	2.0	ltm	338	diff_vonmises	0.20643999844842317	11.828140633781912	3.24612289255876	0.49655241311375486	2.6499029912428335e-13	2.001716371770003	0.02148481097448479	-0.3180677889097176	0.3395525998842024	76.19511665805996
4	2.0	perception	338	diff_vonmises	-0.031983714332130625	-1.8325318443831673	8.281953625662716	1.065945538643864	0.0759200809689532	2.659686432151658	0.7481229235655342	-0.42878759043244363	1.1769105139979779	46.60197292608149
5	2.0	wm	338	diff_vonmises	0.05193799592870041	2.975827963082186	4.671990595034102	0.462070690946447	9.888281792526366e-16	2.2728694470995485	0.02466247658351467	-0.3617046011024476	0.3863670776859623	63.21876367785703
6	3.0	ltm	338	diff_vonmises	0.2983811461986928	17.095980363461084	2.7994071572167396	0.7481723071813289	0.14508544350251554	1.8291164349223488	0.1361535736665172	-0.26504138540051114	0.40119495906702834	75.98686498954513
7	3.0	perception	338	diff_vonmises	-0.007973032376792245	-0.45682110511135515	5.078640317802138	2.0305568136315877	0.17093316035811507	3.3296812504319355	1.151032248846096	-0.5167829241038205	1.6678151729499167	58.5697477381151
8	3.0	wm	338	diff_vonmises	-0.06679954007369739	-3.8273317196378724	3.3613342483169566	0.7319641452289725	0.23554101507887287	2.4581182042232355	0.022868032812504158	-0.37040107543410844	0.3932691082466126	66.20631135398537
9	4.0	ltm	338	diff_vonmises	0.08605420515955854	4.930542764995617	0.9412038124006289	172.55104624903592	0.9216888601031848	174.52814752402628	-0.005982071011700896	-0.4418650985676358	0.4358830275559349	82.48611852652365
10	4.0	perception	338	diff_vonmises	0.003821728158513096	0.21896889392910446	2.3002537164122	2.730008755288479	0.24039398829450298	4.9853132947905445	0.5370098454689577	-0.6506879056913331	1.1876977511602909	81.05757778096125
11	4.0	wm	338	diff_vonmises	0.08331143588464354	4.773393661364831	0.686143579884813	153.47043978382598	0.6697351417527222	156.16456174396598	-0.27165559104083314	-0.5005032449104476	0.22884765386961448	86.09818543433943
12	5.0	ltm	338	diff_vonmises	0.20225875571408503	11.588573071984595	2.13833934657524	1.0239708242634835	0.06154976094475928	2.0640612444458033	0.20091390388460528	-0.30106416833139044	0.5019780722159957	90.34296585464523
13	5.0	perception	338	diff_vonmises	0.029876774931425147	1.7118131090329205	2.282233657120023	1.8859181881434313	1.7377653738392234e-21	2.9412676680290817	0.5850018979095478	-0.45714797016878295	1.0421498680783308	91.01545681845218
14	5.0	wm	338	diff_vonmises	-0.04250080753631443	-2.4351168977286193	0.9993940522887369	2.3985980917460337	0.22512105779250216	3.908566561313111	0.049987165816758106	-0.37941591517059664	0.42940308098735475	110.31030015443899
15	6.0	ltm	338	diff_vonmises	0.17004996242032622	9.743145153042946	0.19349140315512	74.05508943234943	0.17661640333282178	74.92451060545446	0.05159976312575232	-0.294054217933887	0.3456539810596393	156.98576233641572
16	6.0	perception	338	diff_vonmises	-0.0551580561233222	-3.160323822012089	2.1972138070084344	1.0904263675257757	9.562730244781254e-17	2.2864341252222826	0.23137694658576935	-0.35654794365525966	0.587924890241029	92.7210443213718
17	6.0	wm	338	diff_vonmises	0.07282861950883743	4.172772525620515	0.40541094739442596	161.31277209960498	0.394965356641176	162.8372966777413	-0.03736785606736959	-0.36390685546143686	0.3265389993940673	126.54685104872418
18	7.0	ltm	338	diff_vonmises	0.05346661541906883	3.0634114083617354	0.9248156516057926	85.1220153982618	0.8861045814286208	86.88861324816116	0.0619640639140151	-0.4157106670019495	0.4776747309159646	85.61526614004066
19	7.0	perception	338	diff_vonmises	0.08417801915448195	4.823045225323218	1.4159766712258328	2.1710817580005175	3.062129988919543e-16	3.7242471403377313	0.3154846615094903	-0.5392397321817182	0.8547243936912085	113.10582124381628
20	7.0	wm	338	diff_vonmises	-0.1265027355846098	-7.248072845857557	4.478348589357927	0.39306712758483986	7.25622393783568e-30	2.571706039528643	-0.08801136576339463	-0.40925832008044827	0.32124695431705363	64.60615064355915
0	1.0	ltm	339	diff_vonmises	0.2721705125310832	15.594221675943553	2.504798703817686	0.4713793606725786	3.706236667873409e-17	2.4035427882753533	-0.10442727485476994	-0.38067950092881114	0.2762522260740412	86.8644270966848
1	1.0	perception	339	diff_vonmises	0.0553407374048662	3.170790688440601	7.518197339268981	0.8031464984604193	0.09066567659761682	2.810385642068209	0.3741679419101708	-0.45432417868315667	0.8284921205933274	48.480031488680396
2	1.0	wm	339	diff_vonmises	0.08393886593217265	4.8093427550279415	4.670599183489321	0.35112205258063617	3.3932814209471864e-18	2.478217184926407	-0.10085343799951862	-0.3943947578212675	0.29354131982174886	63.229038041824765
3	2.0	ltm	339	diff_vonmises	0.1154780189835399	6.616403114288437	3.4171185671558897	0.720935658238615	0.2895984762447977	1.8784871390687967	0.11697280539531707	-0.278038600873868	0.3950114062691851	66.01234701431702
4	2.0	perception	339	diff_vonmises	-0.022745297173979932	-1.3032095318398886	8.170582399898441	1.0817966515620725	0.033986172614723836	2.3028104048437057	0.834369808837514	-0.3671523971234893	1.2015222059610033	47.26860837861429
5	2.0	wm	339	diff_vonmises	0.09144928161647708	5.239657876127444	6.278642966389987	0.39671964406125326	0.03922494881286539	1.8793702535570747	0.07702117862086966	-0.29889375716252015	0.3759149357833898	53.38606360867544
6	3.0	ltm	339	diff_vonmises	0.26943976329076974	15.437761269565035	3.262179661407055	0.7236055911712962	0.264111030494232	1.4502494940990933	0.2014973382245011	-0.20781821458396593	0.40931555280846704	69.27881838376373
7	3.0	perception	339	diff_vonmises	0.01758942856861974	1.0078000210287477	6.004095404968217	1.5962580820582215	0.007605739401439986	2.5448135329139245	1.116839632141115	-0.4034791041986511	1.520318736339766	55.50443608848289
8	3.0	wm	339	diff_vonmises	0.028489018574144882	1.6323005267683122	4.846757301715353	0.5529884937630515	0.20068469609841086	1.8150121013782188	0.12203086116943768	-0.28825276142608025	0.4102836225955179	57.82260925044989
9	4.0	ltm	339	diff_vonmises	0.3329424312811116	19.076196133232134	0.7655950286561474	192.88082358870477	0.753661467186865	194.50584049855922	-0.03956968553827522	-0.34615190545643415	0.3065822199181589	90.32436071065575
10	4.0	perception	339	diff_vonmises	-0.05423023599955038	-3.1071636447726583	3.3929927521504935	1.806018345715672	5.0446108092464465e-15	3.93350919701536	0.6419135885156556	-0.6246052722903207	1.2665188608059763	74.49418866152186
11	4.0	wm	339	diff_vonmises	-0.03798059411160939	-2.1761277459946444	0.9439370066470921	184.45021044729592	0.9268459250048643	186.81303258122003	-0.17537509163723541	-0.48093063074739817	0.30555553911016275	76.87679916618927
12	5.0	ltm	339	diff_vonmises	0.10006629317344251	5.733376270357017	1.8258579921998306	1.0557339910510848	0.05136180113655373	1.986461597047639	0.18275691372577962	-0.28675682150034887	0.4695137352261285	98.07268544431906
13	5.0	perception	339	diff_vonmises	-0.017847293311839922	-1.022574582500489	2.4524582526594987	1.9300702260144322	3.330743774750374e-20	2.650596892125455	0.7028749294190249	-0.4135212716872332	1.116396201106258	87.82950990167592
14	5.0	wm	339	diff_vonmises	0.015011074837641879	0.8600712341519071	0.6342438756738064	141.96866251051975	0.6181965767980667	143.0743049580728	0.1347936794467941	-0.31711513403153724	0.45190881347833134	107.41959420133593
15	6.0	ltm	339	diff_vonmises	0.29838905131970955	17.096433293531884	0.47734110001306856	123.99769923267446	0.4646227483852866	124.66581509956329	0.13291032125957258	-0.24573373677008092	0.3786440580296535	124.65885148401543
16	6.0	perception	339	diff_vonmises	-0.06344902245148373	-3.635361200700822	1.74326674555676	1.5298127282698208	1.717969782980519e-15	2.2953664227441806	0.36070611207840153	-0.3430960499538729	0.7038021620322744	103.41008249973615
17	6.0	wm	339	diff_vonmises	0.10586127734440352	6.065404405698201	0.6187182561208361	190.50873608235221	0.6071296770006559	191.54901699225513	0.14070689449887652	-0.30792091297053403	0.44862780746941056	109.01503424853769
18	7.0	ltm	339	diff_vonmises	0.0371912490949917	2.130901607962767	0.8862654497418064	103.66500281085801	0.855117754249991	105.40552386440129	0.06890859364926882	-0.41164549861541744	0.48055409226468626	87.59364723563067
19	7.0	perception	339	diff_vonmises	0.03634513786555711	2.0824230055175397	1.3230347826969362	4.895023039945512	0.4275201408365249	6.502176494248806	0.4492608768648443	-0.5289509251503477	0.978211802015192	94.92383216870849
20	7.0	wm	339	diff_vonmises	0.20852854609474197	11.94780559922796	6.057464294925397	0.4541675141965214	3.0584574099844837e-23	2.318405778708461	0.06691394105354947	-0.36898335228131046	0.43589729333485994	55.35933642542764
0	1.0	ltm	340	diff_vonmises	-0.033508594736781985	-1.9199010558318914	2.4101157251491787	1.5123963696000784	0.37479479967716184	3.867911920032012	0.007457675825160104	-0.5176288263765679	0.525086502201728	72.09247030068951
1	1.0	perception	340	diff_vonmises	0.008981620148458824	0.5146089276963545	12.70926224653118	0.7008847541762713	0.029554238713875844	3.0853199072055943	0.480534612039461	-0.49662755632838396	0.977162168367845	37.82992946698337
2	1.0	wm	340	diff_vonmises	0.13440047653654777	7.7005800700912355	3.1411474468444096	0.5519791198929557	3.0724156852912244e-09	3.058523392524948	-0.1157090267096404	-0.4860854860540328	0.3703764593443924	77.49243352063414
3	2.0	ltm	340	diff_vonmises	0.026066381585364666	1.4934936520189233	3.928455559432043	0.5885730624020326	0.07663798547592839	1.6688790661988375	0.16167653491908385	-0.25730184370721176	0.4189783786262956	66.63325815642739
4	2.0	perception	340	diff_vonmises	-0.061531567226930824	-3.525499108928631	7.577249817550813	1.0684203149146863	0.060098103903391854	1.9443480987778916	0.8239982555857398	-0.3102308977958784	1.1342291533816182	48.94953319421464
5	2.0	wm	340	diff_vonmises	-0.025815124655640825	-1.4790976903723319	4.341653887320145	0.5706411361276189	0.121454695503705	1.878892072727822	0.12223785035014673	-0.29239472132359895	0.4146325716737457	62.258726502081146
6	3.0	ltm	340	diff_vonmises	0.06548466439492871	3.751994892660028	2.3735168714457715	0.6283310215852627	7.40167251465304e-12	1.2937520758653411	0.15323022099272565	-0.2027905230412349	0.35602074403396056	89.26709484846563
7	3.0	perception	340	diff_vonmises	0.034403437132706924	1.971171748447765	5.396204304363048	1.5551919732915063	0.045022429282771025	2.085695195344945	1.0572725991222887	-0.3267147577433235	1.383987356865612	58.218068665584326
8	3.0	wm	340	diff_vonmises	-0.011974401443121997	-0.6860826648862527	2.7705700560184328	1.114111361362125	0.41909107377645033	2.0374855258761864	0.22497586703700495	-0.2669776538547293	0.4919535208917343	71.16079079001767
9	4.0	ltm	340	diff_vonmises	-0.13576169891150575	-7.7785723671551015	1.113651816404819	6.869601481197081	0.8143403543190744	8.094965577856883	0.014114384233266275	-0.2800800820309237	0.29419446626419	81.98053207059516
10	4.0	perception	340	diff_vonmises	-0.05286040852341712	-3.028678311729165	2.5151229720047033	2.4642492426880613	0.14033975856466188	3.887780350713299	0.7489936465563957	-0.5405256488806699	1.2895192954370656	81.78762291938989
11	4.0	wm	340	diff_vonmises	0.07012905739871306	4.018099010176958	0.9857954013262631	262.77493986589457	0.9730624990743731	264.74704404476114	-0.029795187400921463	-0.4372331308993864	0.40743794349846496	79.66883325724683
12	5.0	ltm	340	diff_vonmises	0.11206592786827414	6.420904694069623	1.736261161768206	1.044523011603264	3.136212276052723e-14	2.0073541562148542	0.17501436654829733	-0.30413045406609607	0.4791448206143934	103.57197008687143
13	5.0	perception	340	diff_vonmises	0.027089882138183932	1.5521359140247737	2.0814931732546538	2.1947539769576934	1.1191819518979203e-17	2.853492392153492	0.7056343807420891	-0.43609773855124656	1.1417321192933356	95.18596354309051
14	5.0	wm	340	diff_vonmises	0.024944840742687557	1.4292340951819789	0.598749440327444	208.42749547864676	0.5867584081921757	209.4710903299354	0.19815665441112884	-0.3440045971612342	0.5421612515723631	112.25266190307669
15	6.0	ltm	340	diff_vonmises	0.5383791452192302	30.846852798922747	0.805458870985386	130.99843009297103	0.79200217238173	131.7556042859139	0.10788549577732454	-0.21038173992143783	0.31826723569876236	95.09374807879362
16	6.0	perception	340	diff_vonmises	-0.05179324472316754	-2.967534329925722	1.3866602001799406	2.3313292001270804	0.06644477910951398	3.076716434697513	0.44032436595542646	-0.397542923732771	0.8378672896881975	110.71576553199577
17	6.0	wm	340	diff_vonmises	-0.03874382060276541	-2.2198574027504634	0.5720745366705959	183.40099799416944	0.558071823501239	184.46806539222496	0.20933209313790258	-0.36323000090925817	0.5725620940471607	115.15145211975714
18	7.0	ltm	340	diff_vonmises	0.016814143795222433	0.9633794755923257	2.1481941799827937	2.111776170547663	0.752052137100394	3.4127481061824363	0.13235096245483535	-0.34717472202379285	0.4795256844786282	70.28491238705317
19	7.0	perception	340	diff_vonmises	0.10033886468775056	5.748993467742358	2.7511408153897885	1.3903167357137252	6.362083809304165e-13	2.49974634459237	0.4685569041931696	-0.39431407558255593	0.8628709797757255	82.89957819177266
20	7.0	wm	340	diff_vonmises	0.07056009043352951	4.042795383902656	1.388076529007872	1.215468279005457	0.08324683644259537	2.6855188759422695	0.03869971710924752	-0.36130392221830715	0.40000363932755467	106.70037368534577
0	1.0	ltm	341	diff_vonmises	0.13935357740015078	7.984371845078291	1.985145458312239	1.085091674333681	8.691905816561687e-14	4.527441014465376	-0.16329929888297012	-0.71005016500938	0.5467508661264099	97.32952949069258
1	1.0	perception	341	diff_vonmises	-0.038149882419251484	-2.1858272515434485	6.864618848470972	0.8465194834049418	2.1842647050273684e-16	3.9135839688580414	0.24456982412392958	-0.6228652881853863	0.8674351123093159	51.943133990946905
2	1.0	wm	341	diff_vonmises	0.14664965182471046	8.4024061166189	3.4749993770057133	0.6745979542629164	1.3764212454260742e-20	3.8463600936020894	-0.13223973126078126	-0.611707067002768	0.47946733574198674	73.58997893088491
3	2.0	ltm	341	diff_vonmises	0.042931761939092546	2.459808766170386	3.4240744046019587	0.7997100934948013	0.03341659606064648	3.022515005239691	0.06700415532571624	-0.4698548513742551	0.5368590066999713	72.15599200336234
4	2.0	perception	341	diff_vonmises	-0.07947176857385962	-4.553396929722566	6.158406908933561	1.2571894462352475	2.8687142993418494e-18	3.3897920847982785	0.6774151892085603	-0.5394967175689965	1.2169119067775567	54.899754019934136
5	2.0	wm	341	diff_vonmises	-0.05137556235788237	-2.94360289321784	3.356653858711096	0.9315242409540779	0.08937799010843862	3.2125351416715477	0.09209294276200486	-0.48978528874859656	0.5818782315106015	70.71829818794839
6	3.0	ltm	341	diff_vonmises	0.13051636842289463	7.47803706800639	1.989039651258147	1.0842002721556578	1.4862840933618465e-14	2.8185477957220773	0.10884349290150086	-0.43814842093933926	0.5469919138408401	97.24715314985664
7	3.0	perception	341	diff_vonmises	0.02002046439541332	1.1470881137491165	4.003266627701693	2.30112456842499	3.2241978593282276e-18	3.927646780947463	1.1448973028966083	-0.6245144815233175	1.7694117844199257	68.4317601231017
8	3.0	wm	341	diff_vonmises	-0.1512277440476922	-8.66471147921742	2.307811730899496	1.3813754586993625	0.05902483751872565	3.382237842313667	0.20596889994270695	-0.5008686000138065	0.7068374999565135	86.65732314802918
9	4.0	ltm	341	diff_vonmises	0.19219043788891746	11.011700953806157	0.0004848404833964205	4196.484894526326	3.266241317362688e-30	4198.994761455746	-0.07559774325409307	-0.7232392126911691	0.647641469437076	178.71827948430098
10	4.0	perception	341	diff_vonmises	0.010623588438006482	0.60868678078175	0.8652532081487144	126.1990627347541	0.804226361727284	129.3626681851554	0.5067868578189731	-0.8951823866188153	1.4019692444377885	93.34994755686833
11	4.0	wm	341	diff_vonmises	0.270642788565055	15.50668954042915	0.6444824716026988	321.1115254287596	0.6330630582735007	324.4314999228398	-0.20610770860702132	-0.6603009629855876	0.4541932543785663	95.13107496272349
12	5.0	ltm	341	diff_vonmises	0.2233791816001379	12.798684336774276	2.1363585075427265	1.065888945987272	4.4905987711723667e-17	2.3472483978333294	0.19858519539946284	-0.3655978445807878	0.5641830399802507	93.93373809274763
13	5.0	perception	341	diff_vonmises	0.018053026188175305	1.0343622080215933	1.548901300240683	3.200138809136605	1.8692959339469186e-18	4.210812210698174	0.7432130567303633	-0.606359625426762	1.3495726821571252	108.95663080336969
14	5.0	wm	341	diff_vonmises	0.03585248199642987	2.0541959034641994	0.9441053353150529	4.993381467228159	0.40165973056426507	6.432073078349074	0.18354391992902008	-0.4110833319841047	0.5946272519131248	105.11301673923273
15	6.0	ltm	341	diff_vonmises	0.4872871515202332	27.919497193061222	0.5018227902275656	120.85514954355835	0.48991362488512097	121.58193472137903	0.09087654717589544	-0.2297126607524671	0.32058920792836254	120.20536685896406
16	6.0	perception	341	diff_vonmises	-0.06431985047709443	-3.6852559712500255	1.5159325440228315	1.721876027388248	5.888654161157685e-18	2.509380059502596	0.3512294238577226	-0.36317997627421905	0.7144094001319417	109.95554989249197
17	6.0	wm	341	diff_vonmises	0.10651028739466638	6.102589942439836	0.5112199537409737	174.58204670067846	0.5013971445698253	175.80214723389918	0.019464333327299244	-0.30289623566275203	0.3223605689900513	115.47762457094453
18	7.0	ltm	341	diff_vonmises	-0.0536975504616218	-3.0766430116416945	3.360559812841721	1.2189908288968088	0.4673285958496082	3.3045833327229355	0.05599374946696811	-0.4923843067688618	0.5483780562358299	62.16229875486417
19	7.0	perception	341	diff_vonmises	0.11944597275803383	6.843750118869944	0.7822647113594658	230.81083004894523	0.7615879841925373	232.0979520298266	0.5299366405360502	-0.5107982974537144	1.0407349379897646	100.77199240699272
20	7.0	wm	341	diff_vonmises	-0.6498302785548193	-37.232532361001795	0.1921166413417479	97.02794078012924	0.17142875767597987	99.58344162086424	-0.13364141435173238	-0.6282377318518897	0.4945963175001573	149.2597507457483
0	1.0	ltm	342	diff_vonmises	0.0432869942025815	2.4801620756151825	2.305740620677237	0.5361802698131093	9.046066805369454e-21	1.7759045593421585	0.018581047898375336	-0.27965020456913564	0.298231252467511	90.5601207480394
1	1.0	perception	342	diff_vonmises	0.012337861044805859	0.706907366086244	14.014370199696359	0.5693130622798485	3.184281031020104e-18	1.968114214456185	0.5290224078829355	-0.3132351057995583	0.8422575136824939	36.200184785485135
2	1.0	wm	342	diff_vonmises	0.06013144706001309	3.445278132553092	3.9175452435702356	0.37228289915348084	1.6793225507341922e-19	1.8932750978548563	-0.01836569470418231	-0.30121212378220297	0.28284642907802066	69.20090644127288
3	2.0	ltm	342	diff_vonmises	0.06658335613769446	3.8149452925063785	3.3427449732996988	0.46222882400349524	3.511958836732767e-13	1.2618568541052295	0.1209850782466996	-0.20042882512319427	0.32141390336989384	75.0666156284847
4	2.0	perception	342	diff_vonmises	-0.02830720289431399	-1.6218832556647003	8.227156644270401	0.9812589543487779	0.09335958009835141	1.8289558591226884	0.7856527804645048	-0.2952203793209357	1.0808731597854404	46.7951745946653
5	2.0	wm	342	diff_vonmises	0.06883011913873094	3.9436753300319154	6.821054822430363	0.29857537088433	0.0017979536230058723	1.3733772883746442	0.0859750550571235	-0.2184210121115969	0.30439606716872036	52.04961672194676
6	3.0	ltm	342	diff_vonmises	0.1941202304446984	11.12226992258817	1.1921098590048205	93.98153999540622	1.1707300177903677	94.47575469447443	0.18747153588537913	-0.17588557044692088	0.3633571063323	80.6413921815431
7	3.0	perception	342	diff_vonmises	0.005096261762976107	0.29199429031243124	5.1819822329054	1.7753443066381003	0.2773570242080419	2.400301289090409	1.0743658580149815	-0.3716055369333018	1.4459713949482833	57.444710714504
8	3.0	wm	342	diff_vonmises	0.046622671138411495	2.6712822858573717	3.4991239501371036	0.7431047481778928	0.47542388328666435	1.7014858640844361	0.11870075499672295	-0.2499793961314564	0.3686801511281793	62.62545493853378
9	4.0	ltm	342	diff_vonmises	-0.025212013137298542	-1.4445419457955921	1.3242081752390886	252.4543395706075	1.312735249071017	253.59308062272618	0.06951127083125641	-0.3000460904402331	0.3695573612714895	71.11141882625995
10	4.0	perception	342	diff_vonmises	-0.049635209927085	-2.843888044067817	2.477119088574399	2.369237014783477	0.2372034640964765	3.6644925943205258	0.6597380285073057	-0.48030153306432066	1.1400395615716263	79.85269208154048
11	4.0	wm	342	diff_vonmises	-0.04324460018685468	-2.477733077437424	1.0242675860389057	178.0384824587778	1.0086631428767976	179.81179416508775	-0.08410698458188648	-0.3807704190041541	0.2966634344222676	76.04633855344827
12	5.0	ltm	342	diff_vonmises	0.12831262156859713	7.351771674139912	1.5193860614433747	1.5787536994473967	0.26558012614898807	2.3141829302129913	0.2171770944272602	-0.2484414138083693	0.46561850823562945	96.06799983697138
13	5.0	perception	342	diff_vonmises	0.015294132755952516	0.8762892582288655	2.812315507778824	1.5796308677872248	8.296297899237014e-19	2.3035106005740342	0.6303617986383633	-0.36301806427349603	0.9933798629118593	81.98347367933152
14	5.0	wm	342	diff_vonmises	-0.09966853206192701	-5.7105862374127465	0.5400149578774499	162.74345294806645	0.5289632314006287	163.72511992487512	0.0903023953580302	-0.28267182315688544	0.37297421851491563	115.73372433608608
15	6.0	ltm	342	diff_vonmises	0.12811658299478737	7.340539491238849	0.44580432792263663	106.46835717880877	0.43395431064208667	107.18801329731532	0.06462031930379197	-0.22062128254324698	0.28524160184703895	126.40706937228018
16	6.0	perception	342	diff_vonmises	-0.10968396629401332	-6.28442834890214	2.1237979333690724	1.2530205883843188	3.070760392061013e-14	2.261968175170579	0.3102220846646882	-0.35041964952825366	0.6606417341929418	94.25435142977524
17	6.0	wm	342	diff_vonmises	-0.09077948183871867	-5.201281175743087	0.5771599875256553	145.27898567013455	0.5620791066234997	146.41224644255087	0.1205191205913394	-0.32729050502293866	0.44780962561427806	112.42419919611025
18	7.0	ltm	342	diff_vonmises	0.02960817117941106	1.6964232476811347	0.9793554635085089	146.5811498541795	0.9596025192500945	147.73337060697264	0.16416615134850332	-0.3147959004480807	0.478962051796584	85.92175360450469
19	7.0	perception	342	diff_vonmises	0.032270837416590634	1.8489827853235041	2.498822433450668	1.476680760853346	1.128502623830212e-19	2.795441498962995	0.42514185244390507	-0.43903205575029086	0.8641739081941959	87.01351654375131
20	7.0	wm	342	diff_vonmises	0.21506190348809343	12.32213940391759	7.484640255527354	0.40794906139414105	1.6697976831707215e-15	1.7746219946342638	0.1548048635642702	-0.2824397246062059	0.4372445881704761	49.71330108107961
0	1.0	ltm	343	diff_vonmises	0.08320538950504548	4.767317651381219	0.8876068411341151	1.6607493455848996	6.911196941244426e-17	4.672720888759101	-0.21164994984142993	-0.6535331620628099	0.44188321222137994	133.32409875741982
1	1.0	perception	343	diff_vonmises	-0.014803117600905975	-0.8481561621677369	13.622605021488663	0.6503275921714329	7.595787586436845e-17	3.684069937458113	0.36209695790707097	-0.5863379412413132	0.9484348991483842	36.718081250725334
2	1.0	wm	343	diff_vonmises	0.09635059225024634	5.520482289525012	2.924267860737628	0.6655956740996882	0.0057329857229189455	4.119506278185891	-0.22983193777483346	-0.6506479544068571	0.4208160166320236	79.56995721920009
3	2.0	ltm	343	diff_vonmises	0.11088735875949199	6.353377658271911	2.62543197186844	0.709243437116534	7.810687667135859e-18	2.5710694443596456	0.020929355667331673	-0.40694303166838713	0.4278723873357188	84.87816931823878
4	2.0	perception	343	diff_vonmises	-0.06194807394432209	-3.5493631859739985	7.248586998001966	1.1434859028890354	0.10942917041006142	3.0916993477574946	0.6579002200840746	-0.49941986345384787	1.1573200835379225	49.40054113457322
5	2.0	wm	343	diff_vonmises	-0.007880309848812309	-0.45150849559232115	3.4757552277306925	0.7180193925186925	0.049586231149987316	3.0558298029591944	0.00010936962394358929	-0.47343597714011193	0.4735453467640555	70.64449970336412
6	3.0	ltm	343	diff_vonmises	0.1638115615070917	9.385711109804049	0.9366987818090386	4.193502854245663	0.378647789439289	5.840633163100066	0.07253082363096697	-0.4069865933577328	0.47951741698869976	103.75579681639226
7	3.0	perception	343	diff_vonmises	-0.009009792338502545	-0.5162230752855002	4.182633494316518	2.337030072340815	0.17306477893972516	4.117671788379144	1.0674120024522837	-0.6224022637495634	1.6898142662018472	63.96415381805315
8	3.0	wm	343	diff_vonmises	-0.03669175934952635	-2.1022829536375385	2.1637798226433507	1.394794148378823	0.24253505657017693	3.791447717043029	-0.003393634691134295	-0.5107719534536552	0.5073783187625209	79.07761663942216
9	4.0	ltm	343	diff_vonmises	0.038769975086476706	2.221355944282464	1.9497616016178732	1.3448364781206263	0.13652165379360498	4.054938028004687	-0.053157635221529276	-0.5637050524001892	0.5105474171786599	86.78992436470702
10	4.0	perception	343	diff_vonmises	0.013186718201874878	0.7555432985957724	1.2384027104214979	10.878253427520354	0.643384762634635	13.492343954166257	0.5072870833135417	-0.7607128002469401	1.2679998835604818	89.05694247921662
11	4.0	wm	343	diff_vonmises	0.27470687576260266	15.73954458442178	0.5508166112527105	239.01387501100723	0.537089317358957	242.53360193982357	-0.27584836116615463	-0.6810273811690912	0.4051790200029366	101.18201372490742
12	5.0	ltm	343	diff_vonmises	0.11855937804357188	6.792951983592667	1.8705991484171032	1.2372735880945929	0.028538150071377024	2.7380291905536094	0.16463405148334542	-0.40888193004471113	0.5735159815280566	98.06456136789834
13	5.0	perception	343	diff_vonmises	0.040646728162644724	2.328885974735086	1.7275772203708468	2.4541258325577493	3.022642035360646e-20	3.8899513080658217	0.5391992805501689	-0.5825208376859019	1.1217201182360708	103.83513907767585
14	5.0	wm	343	diff_vonmises	-0.055403030095869735	-3.1743597967296164	0.5772452145467225	172.79690833821084	0.5596549539730128	174.8580645190898	0.04172274668903242	-0.4985661002235027	0.5402888469125351	108.73689359692666
15	6.0	ltm	343	diff_vonmises	0.2725432821273199	15.61557980053871	0.1431439692353097	95.82916898147961	0.12771450838404097	97.11892813839256	0.017806954396526464	-0.39832319296397145	0.4161301473604979	161.87484803762663
16	6.0	perception	343	diff_vonmises	0.027838273670261322	1.5950155902361378	1.65100753405113	1.5963777651184101	2.362818994837801e-17	3.2280294513962455	0.21918363319788114	-0.4867758707053285	0.7059595039032096	105.96523616120072
17	6.0	wm	343	diff_vonmises	0.17109076522660865	9.802778761148302	0.4503479353003482	220.7892871085029	0.4399760424459307	222.84053273267267	-0.059234683918418796	-0.4711167831024028	0.411882099183984	119.93496803984445
18	7.0	ltm	343	diff_vonmises	-0.019829563404964744	-1.1361502926915459	1.8357265034054016	2.8508401632927525	0.5688996954028149	5.426107429712165	-0.01282218998747986	-0.5769508430930477	0.5641286531055678	74.5615924858833
19	7.0	perception	343	diff_vonmises	0.19253243787375723	11.031296109531015	1.6802170640477185	1.9469590784474347	1.6426705955733404e-15	3.8560701309733285	0.2898213045497743	-0.582341743543837	0.8721630480936113	105.03596828305524
20	7.0	wm	343	diff_vonmises	-0.24773831632799198	-14.19435994927087	3.572755576479924	0.5728176048425045	2.3018416697375274e-14	3.61744240790646	-0.16185881353018794	-0.5754075300954998	0.4135487165653119	72.543476899339
0	1.0	ltm	344	diff_vonmises	0.19585599644060533	11.22172198837596	2.7111604550847233	0.48248930466424883	5.379963358693165e-23	3.4623344719705393	-0.2529110642146708	-0.5497307578230308	0.29681969360836	83.50179506729347
1	1.0	perception	344	diff_vonmises	0.036918146177594556	2.115253963423201	9.538947101647134	0.8603763094206591	0.0898989614078367	3.7967461663307707	0.3856926118343852	-0.6224566239857332	1.0081492358201185	43.06940116512666
2	1.0	wm	344	diff_vonmises	0.06919997543516108	3.9648665348437024	3.0306640272954537	0.5840918544548324	0.05907250321255525	3.9997135337602163	-0.2899448819209897	-0.6186268030709146	0.32868192114992484	72.90135894200941
3	2.0	ltm	344	diff_vonmises	0.17305709544564804	9.915441183828293	3.5622090634099286	0.5586146252311968	0.056221975359573476	2.2139203019968288	0.030518979387410827	-0.3425345495130384	0.37305352890044924	69.70692550761592
4	2.0	perception	344	diff_vonmises	-0.03557442927937815	-2.0382646562949907	8.103164330897318	1.1853389306813755	0.13950695471344057	2.915048897524132	0.7932190033057162	-0.4781277068824867	1.2713467101882028	46.677839420540664
5	2.0	wm	344	diff_vonmises	0.08108889949133334	4.646051706213928	5.170449470175645	0.47448512340078586	0.014213943474267762	2.6016810307656293	-0.0011668293517103634	-0.4120724644167334	0.41090563506502303	59.35644355336606
6	3.0	ltm	344	diff_vonmises	0.2597242059247897	14.881100836877138	3.518230978187846	0.5324454131726546	1.765973990182917e-15	1.6830465573194777	0.1135748941341872	-0.267529799717784	0.3811046938519712	73.11644261329485
7	3.0	perception	344	diff_vonmises	0.017921687366334753	1.026837047843909	5.771568817949583	1.7531832359609485	0.05197155477346593	3.061258013585402	1.1275303142426019	-0.48182630584466596	1.6093566200872678	56.109523439186546
8	3.0	wm	344	diff_vonmises	-0.004230986363563322	-0.24241766180958205	5.094399153096919	0.5367272022141983	0.13204289109983644	2.370586930070823	0.041377409602351756	-0.377962160324863	0.4193395699272148	56.994727376000554
9	4.0	ltm	344	diff_vonmises	0.21933220084714564	12.566809419857144	0.7476367192335022	209.85671330931285	0.7338653388666857	212.19017385316556	-0.12749895601571382	-0.471505213130591	0.3440062571148772	88.80229480806182
10	4.0	perception	344	diff_vonmises	-0.002356767188920879	-0.1350328132200775	3.015175304732984	2.0384664436756355	0.08351144996025	4.532348159744387	0.5561345304372204	-0.6767795513078326	1.232914081745053	75.80731226521013
11	4.0	wm	344	diff_vonmises	0.22530696517040924	12.909138199165486	0.6285787541484213	188.89405698198738	0.613812710050973	191.95326936568313	-0.2914557786284817	-0.5699894098323668	0.2785336312038851	91.18971082356813
12	5.0	ltm	344	diff_vonmises	0.1152663687066883	6.604276446692065	1.7792640277264762	1.1709364819651842	0.0695590205015106	2.6146337743214345	0.11709236038368132	-0.3716751359450313	0.48876749632871264	97.22746165989292
13	5.0	perception	344	diff_vonmises	0.02800232899723501	1.6044152680783688	2.1387230789932072	2.1758855012320546	9.307676168347741e-18	3.530190723861321	0.606883942848145	-0.5456259286026995	1.1525098714508446	93.94892074327177
14	5.0	wm	344	diff_vonmises	0.017055024691803363	0.9771809343317402	0.9599003164170901	3.3384095760865007	0.25601989893087834	5.287132589619982	0.046002089759582754	-0.4775276737463665	0.5235297635059493	109.31180737447178
15	6.0	ltm	344	diff_vonmises	0.26783792984507926	15.345982973644073	0.3444134841734515	99.36870583944747	0.32648831363459996	100.66090401126127	0.04415369895061261	-0.3742132629003194	0.41836696185093203	137.22047938703878
16	6.0	perception	344	diff_vonmises	0.02392255608021589	1.3706614985613965	1.506694644835512	1.7326597049961798	1.6817070262949577e-13	3.2127436681964143	0.24118662281868353	-0.47435469540289626	0.7155413182215797	110.24978040767397
17	6.0	wm	344	diff_vonmises	0.15201088940478233	8.70958240292395	0.4483160620596323	250.4335893607692	0.43872349566899566	252.2779961699426	0.010568164817655656	-0.4648420785070968	0.47541024332475246	122.68417675362997
18	7.0	ltm	344	diff_vonmises	0.06294138848252227	3.6062759167418554	0.9705414969644425	90.45783921140254	0.9280350400410197	92.79639343312301	-0.036998614728616985	-0.5149943087705253	0.47799569404190834	80.93853984836764
19	7.0	perception	344	diff_vonmises	0.1440923749550518	8.255884944941034	1.8036327231065072	1.822507616673902	1.7821231518463046e-14	3.689561344183431	0.29584250555094993	-0.56325739767605	0.8590999032269999	101.77296610691639
20	7.0	wm	344	diff_vonmises	0.01574942020144169	0.9023753073206876	2.5648902036766255	0.7278574682570425	0.11438921583470305	3.344066370938741	-0.15931371264985122	-0.49866723727183593	0.3393535246219847	76.41232074949392
0	1.0	ltm	345	diff_vonmises	0.060098080236506535	3.4433663543904087	3.0073721219535865	0.6253785381652056	0.034655676620062206	2.8701849231749352	-0.06263715215595772	-0.4443620963780245	0.38172494422206676	76.29653189693579
1	1.0	perception	345	diff_vonmises	0.005318387956674173	0.30472118373063584	10.650886558476532	0.7203023122667749	3.4185822311867474e-16	2.9247658934926273	0.46067414797021006	-0.4654909488164459	0.9261650967866559	41.57713769882179
2	1.0	wm	345	diff_vonmises	0.10288092233753723	5.894642642354079	3.358923000673807	0.5087344417027565	2.1809559024291307e-14	2.896753806860429	-0.10587552781890985	-0.46060324771365424	0.3547277198947444	74.87991157749738
3	2.0	ltm	345	diff_vonmises	0.09498877607079478	5.442455969969808	4.274596558909141	0.49481045435129434	3.4515571760342826e-12	1.8082394490034108	0.10658231582280209	-0.2877138366363175	0.3942961524591196	66.17328949046461
4	2.0	perception	345	diff_vonmises	-0.04772197301814368	-2.7342676439768243	7.859632104879495	1.0830000943193625	0.03087025668723394	2.277016757889265	0.8169727897809757	-0.36250086464766546	1.179473654428641	48.22003691421946
5	2.0	wm	345	diff_vonmises	0.002565117572466887	0.14697041085719573	4.594174574856399	0.5299865967690537	0.057369181177924986	2.0477569269835034	0.09433882245314296	-0.32121833985909193	0.4155571623122349	61.84068375385564
6	3.0	ltm	345	diff_vonmises	0.18837665578648943	10.793187335354501	3.2161057196846623	0.5527401634906437	1.6292785864203202e-16	1.3782194208530176	0.15722047300266373	-0.2187445473409463	0.37596502034361	76.55979888035827
7	3.0	perception	345	diff_vonmises	0.024592643315100474	1.4090546690258747	5.3802722663006275	1.7077723688277797	0.04216469451474193	2.501253359970323	1.1244415312548859	-0.39223639370255287	1.5166779249574387	58.3024401481899
8	3.0	wm	345	diff_vonmises	-0.052391033530906767	-3.0017851056493368	3.080118508498742	0.9198819048736503	0.28679357640697756	2.0951415039703485	0.17637081622064665	-0.2986920600585539	0.4750628762792006	69.65324320218087
9	4.0	ltm	345	diff_vonmises	0.01739578395887999	0.9967050021652023	0.782149896732375	96.99604695680293	0.7590625798528738	98.50255242785873	-0.018043975605216644	-0.32778541582559484	0.3097414402203782	90.5346964871826
10	4.0	perception	345	diff_vonmises	-0.033478760069546365	-1.9181916553161131	2.5995588121776216	2.3869094696352837	0.12820313158810967	4.271756449393743	0.6695933528856701	-0.6059749177520846	1.2755682706377547	80.43388004844311
11	4.0	wm	345	diff_vonmises	0.08224486704834265	4.71228376848461	0.8868314957549955	260.74666863849177	0.8749975685185952	262.9889573354409	-0.12478026715504598	-0.46148677523184745	0.33670650807680147	81.08866568043885
12	5.0	ltm	345	diff_vonmises	0.1715393041082095	9.828478146011548	1.9657311529670904	0.962001623516565	2.4918319644792427e-19	1.9342877913208756	0.1832655696037187	-0.2982180485218206	0.4814836181255393	97.76557385579673
13	5.0	perception	345	diff_vonmises	0.02349552815420492	1.3461946006667433	2.1417545816954764	2.1546486105581724	4.4236114256585386e-20	2.9103096625808567	0.6951323833561717	-0.4472108198955389	1.1423432032517105	93.88388217427087
14	5.0	wm	345	diff_vonmises	0.024887260205126	1.4259349733976072	0.6020024658988025	164.62975046134048	0.5871661945709662	165.78238462654653	0.1587335716468985	-0.34681328633369013	0.5055468579805886	110.83683634407876
15	6.0	ltm	345	diff_vonmises	0.3827369309708133	21.929210808417526	0.5510940286765914	111.10364864134108	0.5379657040303121	111.82579668534757	0.0910269944359996	-0.22061093472956195	0.31163792916556154	115.5148424219689
16	6.0	perception	345	diff_vonmises	-0.06415790680594846	-3.675977282374507	1.6738656517662518	1.635692231937771	1.3677691817886712e-14	2.444789112572668	0.3682142510362168	-0.3624686080953559	0.7306828591315727	105.31283335256273
17	6.0	wm	345	diff_vonmises	-0.001047164735735462	-0.059998119812574156	0.5164601036118396	189.7579487720747	0.5054170946770202	190.90092373182117	0.10913461450255113	-0.3371228194379938	0.44625743394054496	118.47730763173777
18	7.0	ltm	345	diff_vonmises	0.02441330345872706	1.3987792521571958	1.9172870172061347	2.1459393911481413	0.6385262139912795	3.5880843254369816	0.10002527427307206	-0.3592259432048598	0.45925121747793185	74.48330896811603
19	7.0	perception	345	diff_vonmises	0.09108856554748423	5.218990367771603	2.2144203876291346	1.6463342199970263	2.407528491125941e-13	2.8588236166493908	0.4479501321672361	-0.44422494196085544	0.8921750741280916	92.36041594275764
20	7.0	wm	345	diff_vonmises	-0.3062156708498378	-17.544865560462895	0.2451348625008796	4.499957776757762	7.47608458973165e-28	6.193608830660898	-0.08420146443817622	-0.43357544880994203	0.3493739843717658	164.01219833735377
0	1.0	ltm	346	diff_vonmises	-0.0016789840474961413	-0.09619869979132145	4.510485587769402	0.45902035469064023	0.05339489338377686	1.7045704526975185	0.09069268458488933	-0.2670714381825316	0.3577641227674209	62.55267363182452
1	1.0	perception	346	diff_vonmises	0.010619345758143125	0.6084436931317545	14.103727754475493	0.6516454177628388	0.06420798171974518	2.044242159479013	0.6204799418944293	-0.33500941653831445	0.9554893584327437	35.83402490808902
2	1.0	wm	346	diff_vonmises	0.08165774990201799	4.678644433920442	2.6119673512342994	0.4875757200031569	9.425503580560728e-12	1.9962229026589242	-0.02289624647802274	-0.3161207239707668	0.29322447749274405	85.10064411480914
3	2.0	ltm	346	diff_vonmises	0.10389908913154944	5.952979302491345	4.880101931971339	0.37209566656109594	1.2484757084987118e-10	0.9564292520567353	0.16628438445571456	-0.15220206446445117	0.31848644892016575	61.82083028784902
4	2.0	perception	346	diff_vonmises	-0.04105055391351729	-2.3520234859187856	8.630926966572613	0.9556660793825027	0.06452900435685797	1.3931880031419923	0.8664536587564082	-0.2234013187207142	1.0898549774771225	45.92770597818455
5	2.0	wm	346	diff_vonmises	0.03769792222058226	2.159931839651808	7.205926826678356	0.3248262619692625	0.026779059385359905	1.159449506649924	0.15187319350365816	-0.18449714110406676	0.3363703346077249	50.23627283133746
6	3.0	ltm	346	diff_vonmises	0.1844643897781098	10.569031004741856	2.3124136701611735	0.7201561303874886	0.37641878812186397	1.0360318624903557	0.17332308138989996	-0.12241603543018242	0.29573911682008236	79.27241814332118
7	3.0	perception	346	diff_vonmises	0.012637822706473737	0.7240939033155446	6.012429102946151	1.4019165736092463	0.14449885088221184	1.7521238078445058	1.0196352031669564	-0.27550885693895544	1.2951440601059119	54.513846703070016
8	3.0	wm	346	diff_vonmises	0.04546772748837855	2.60510888913505	4.2415348639185275	0.7409565756424604	0.5614839561721486	1.4048184007944218	0.2252593175373967	-0.21480623788041803	0.4400655554178147	58.403065629154355
9	4.0	ltm	346	diff_vonmises	-0.0895352017679863	-5.1299891791578816	1.5654988426335943	178.9075638607722	1.5508610790143305	179.75168677188054	0.07939689354206791	-0.2470024931156516	0.3263993866577195	65.88061288840808
10	4.0	perception	346	diff_vonmises	-0.05701753852169369	-3.2668643155176396	3.0152178659957514	1.829904993253567	0.03286135940291422	2.842288946268438	0.7345811358648395	-0.4352488638823899	1.1698299997472295	78.02728500872064
11	4.0	wm	346	diff_vonmises	-0.025858683578278762	-1.4815934327996225	1.2082910838596854	206.6473443933038	1.1930960679802178	208.2259796794464	-0.016577852889483324	-0.3724018601281358	0.3558240072386525	71.95225261827511
12	5.0	ltm	346	diff_vonmises	0.07482108452176818	4.286932361688926	1.6926154560498092	0.9946086196780214	3.604450382375395e-15	1.5729113439861233	0.2132969085516354	-0.23463276460500976	0.44792967315664517	104.77999369426206
13	5.0	perception	346	diff_vonmises	0.014035421551005293	0.8041704185595632	2.6009498859489266	1.6055725720866811	3.5354702019334837e-19	2.020011467606552	0.646947301090603	-0.31616231470391015	0.9631096157945132	85.2846174622112
14	5.0	wm	346	diff_vonmises	0.0002040718285451083	0.011692454493152064	0.5949059300353771	155.34012133506434	0.5825029378029803	156.03129508252132	0.18299343315318595	-0.2570335449915149	0.4400269781447008	113.93630208909016
15	6.0	ltm	346	diff_vonmises	0.3623757661415747	20.762601997731945	0.680237880612143	98.48205618464753	0.6664726328048184	98.94086404169532	0.13040609546760606	-0.16464386044052226	0.2950499559081283	106.62178681752883
16	6.0	perception	346	diff_vonmises	-0.03779745513441078	-2.1656346555368216	1.8457534274091663	1.5987536752964002	0.02893663237018127	2.2330924634657197	0.4198315003009116	-0.3256098540385949	0.7454413543395064	99.43401935103054
17	6.0	wm	346	diff_vonmises	-0.029971209395034507	-1.7172238052383186	0.6392299782783182	165.27707880528197	0.6241161231953335	166.07636741069595	0.25820110802243335	-0.31156264348283713	0.5697637515052705	110.67583900023557
18	7.0	ltm	346	diff_vonmises	0.02881908820297534	1.651212123445747	1.122190068696216	116.08740658430268	1.0975567403058077	117.06596609198422	0.18236641330301495	-0.2839526063570439	0.46631901966005884	80.8781912845252
19	7.0	perception	346	diff_vonmises	0.07420006547151278	4.251350591112069	2.8996866353942083	1.2441956756749053	1.0010489646429633e-19	2.3678353087369373	0.4223300311541319	-0.37443147236151963	0.7967615035156516	80.7196337807355
20	7.0	wm	346	diff_vonmises	0.29554530879192753	16.933498848668112	3.3192758718070423	0.5898903014786169	1.452067948454405e-17	1.6840419933227015	0.141061330990093	-0.26748814513530395	0.40854947612539694	75.325162115464
0	1.0	ltm	347	diff_vonmises	-0.022290435796795734	-1.2771478946637258	2.7135070187597363	0.9929708331827455	0.046214861031437786	4.427262248531937	-0.12368380092125042	-0.6777487892764053	0.5540649883551548	79.26120783511774
1	1.0	perception	347	diff_vonmises	0.002881222610522868	0.1650818954206257	14.053568119452821	0.6098352432581688	8.633871452157477e-17	3.962886143817518	0.272892337607924	-0.6307129186983763	0.9036052563063003	36.14458857781938
2	1.0	wm	347	diff_vonmises	0.14463894102883873	8.28720087419406	3.891107244916749	0.5829898500741344	2.595397653343511e-16	4.170554525969198	-0.22226489555928913	-0.663580206319956	0.4413153107606668	69.43793814326256
3	2.0	ltm	347	diff_vonmises	-0.042037588033290066	-2.4085763752171756	2.513088362658931	1.0007553902071726	0.08711409334585131	2.7819841148262396	0.10942881401416371	-0.409486229490824	0.5189150435049877	81.4205602281857
4	2.0	perception	347	diff_vonmises	-0.0760141823642818	-4.355291832611121	6.103676958822824	1.2207693644247013	0.1347249906179605	3.029552701810206	0.627008423137738	-0.48439407116038763	1.1114024942981255	53.46611003256314
5	2.0	wm	347	diff_vonmises	-0.031403726664188315	-1.799300998840438	3.575920053311369	0.7367580146347446	0.0997383687103134	2.880144088129095	0.02737833528959488	-0.4425109512599261	0.469889286549521	67.9800767302566
6	3.0	ltm	347	diff_vonmises	0.0006497603671259327	0.037228526731186866	0.7117840375999192	216.00828283258357	0.6979432607802748	217.52778284545215	0.13817670149439465	-0.39898007730392493	0.5371567787983196	99.99177112186266
7	3.0	perception	347	diff_vonmises	0.021227296297561957	1.2162344883239786	3.7288452742977882	2.447546521747718	0.2221800832136031	3.8732061942222984	1.0503038434312844	-0.5660768475121374	1.6163806909434217	66.98399157497298
8	3.0	wm	347	diff_vonmises	0.03355473655720457	1.922544787401156	1.744941479815288	1.8855127978898376	0.29265545692534034	3.8827881275198433	0.08477683040419492	-0.46144317160081494	0.5462200020050099	85.84940452391643
9	4.0	ltm	347	diff_vonmises	-0.06204911969191499	-3.5551526808488156	1.3570035447735298	1.4892425482463614	0.07255872723351511	3.879363473223726	-0.055759109483881075	-0.5332073377822355	0.4774482282983544	107.36580131617362
10	4.0	perception	347	diff_vonmises	-0.026899464369369797	-1.5412257795274258	0.9503861271593117	276.87487356006966	0.9247171836777386	279.13234078873654	0.6115189266861023	-0.7239356627041786	1.335454589390281	89.7277448593442
11	4.0	wm	347	diff_vonmises	0.18916645016685885	10.83843922003282	0.619913632548285	266.0617764516342	0.606480169576595	269.1325869214152	-0.14192870530725088	-0.632734597019379	0.4908058917121281	99.11580126783466
12	5.0	ltm	347	diff_vonmises	0.09099688177272863	5.213737274428279	1.9734004090779806	1.1862190302923008	0.005543850851010708	2.8260505183539633	0.15473256241168182	-0.43556431771152204	0.5902968801232038	97.21456250095528
13	5.0	perception	347	diff_vonmises	0.034583838376032856	1.9815079783092535	1.2030285968830994	5.6220391431178305	0.3271435301418212	7.091761182337569	0.6102366711104734	-0.6017765410441913	1.2120132121546647	103.48829417372892
14	5.0	wm	347	diff_vonmises	-0.07315838874107858	-4.191666910841202	0.5521977169139247	257.6771343337869	0.5406328246109264	259.59404072467794	0.07306291203290982	-0.488218684987725	0.5612815970206348	112.08623073121399
15	6.0	ltm	347	diff_vonmises	0.33527797976761636	19.210013204357022	0.3467137130698511	110.80342632572335	0.3317895643562605	112.24826846363335	-0.012765010852486824	-0.373229205628558	0.36046419477607117	134.93131018237108
16	6.0	perception	347	diff_vonmises	-0.049642919174542555	-2.8443297514103567	1.3397192906280684	2.3084449365367137	0.0384859050642476	3.9055966119724137	0.28838590481127035	-0.5338219748176622	0.8222078796289326	113.104855616481
17	6.0	wm	347	diff_vonmises	-0.002376120343841395	-0.1361416673172859	0.47965120167758923	235.9680749911949	0.46880379184027277	237.89941448713628	0.011095992009146016	-0.4773917878964724	0.4884877799056184	118.82822940242868
18	7.0	ltm	347	diff_vonmises	-0.037462003606686695	-2.1464146987670154	2.103236133835934	2.6057359508329023	0.6500071147566865	4.934879654846027	0.028380116632812813	-0.5495384441182872	0.5779185607511	70.17865200472747
19	7.0	perception	347	diff_vonmises	0.13517082921119633	7.744718027085212	1.9548158113610075	2.2362749687455237	0.14000853725808077	3.964762702607888	0.41550202841353145	-0.5283052248359652	0.9438072532494967	90.69541831267281
20	7.0	wm	347	diff_vonmises	-0.12141948685452614	-6.956824147408527	2.358516893502613	0.8064170231183192	3.102760390078129e-25	3.521585804705869	-0.1012693973406899	-0.5563716965644362	0.4551022992237463	89.54046842216565
0	1.0	ltm	348	diff_vonmises	-0.05803337903582962	-3.325067689636028	1.0703550972108398	132.60541435609863	1.0508023814018106	134.02747478292622	-0.01196857749991409	-0.3237169283301391	0.311748350830225	76.8159865322695
1	1.0	perception	348	diff_vonmises	0.049907481992670005	2.859488084305147	11.525337767371633	0.6655054435533616	1.9955376741538714e-17	2.0758281095240503	0.5607440663419054	-0.3303783045529236	0.891122370894829	39.94774680472281
2	1.0	wm	348	diff_vonmises	0.04362569491057679	2.4995681967014054	5.314263512596208	0.2751744411829366	2.6165622774310394e-19	1.8542184595655686	-0.04868349615289427	-0.2951020637634888	0.24641856761059452	59.19203863463861
3	2.0	ltm	348	diff_vonmises	0.053705300917169754	3.077087080033896	4.290027970890466	0.436347580824486	0.08822489674672687	1.1964350796247172	0.14092147368812216	-0.18535787084827673	0.3262793445363989	63.71640272762855
4	2.0	perception	348	diff_vonmises	-0.018578685350820735	-1.0644802595035574	8.43301425468101	1.040089822270446	0.09803170057436954	1.7253873847556054	0.8838583498410298	-0.27887801364899284	1.1627363634900227	46.2535755996158
5	2.0	wm	348	diff_vonmises	0.0664125064414215	3.8051563259788463	6.672494689439605	0.30693462665468074	0.0859614852837617	1.2916975138162257	0.08626975932296904	-0.20766550160343017	0.2939352609263992	51.184904841479806
6	3.0	ltm	348	diff_vonmises	0.20347408201123196	11.658206139542376	2.7176988970191736	0.7899945470812891	0.6829180623451774	1.1162128553777493	0.17482572312587513	-0.12746451145473103	0.30229023458060617	69.30762283216632
7	3.0	perception	348	diff_vonmises	0.03608868284543422	2.0677292152295554	5.816875772270578	1.5038737886602076	0.20740374726439892	1.777987523221023	1.0684447168261197	-0.2787406126876804	1.3471853295138	55.058896855480015
8	3.0	wm	348	diff_vonmises	2.1047831053908016e-05	0.0012059518872933209	4.152571349979239	0.5341461226534407	0.4655170907457048	1.1513626183051566	0.14245545359104655	-0.17684060116863493	0.3192960547596815	59.35783376031827
9	4.0	ltm	348	diff_vonmises	-0.05850566323357697	-3.352127580897673	1.2365997359302725	149.140227862533	1.2238030479670294	150.02764440839593	0.01056145290202437	-0.21634822861491187	0.22690968151693625	72.02834015393913
10	4.0	perception	348	diff_vonmises	-0.060829099809770255	-3.4852506906798744	3.1664166602446846	1.852223682754388	0.10692955316886023	3.0368497644726267	0.7143892614102568	-0.4469310146046997	1.1613202760149566	74.23743659251667
11	4.0	wm	348	diff_vonmises	-0.040769338481198465	-2.3359110285129696	1.1357002069678062	156.0378512808171	1.120113839390605	157.4364495958621	-0.05575182298196779	-0.3126679470505671	0.2569161240685993	72.64298380579572
12	5.0	ltm	348	diff_vonmises	0.1722241219432108	9.867715317692408	1.2522401594409025	2.2413339137768014	0.43148699901135557	2.986400789888013	0.1724747344328137	-0.23295619071959914	0.40543092515241286	96.04399944315384
13	5.0	perception	348	diff_vonmises	0.019544662519557762	1.1198266743781855	3.198900557982393	1.6339813365860636	7.455107254742376e-19	2.232566729110251	0.7545290703591265	-0.3534758609804003	1.1080049313395268	76.77651342122769
14	5.0	wm	348	diff_vonmises	-0.0027751936288754127	-0.15900688226615645	0.5086315325557454	152.1913759563616	0.4971291900918446	153.02961371073744	0.120953721319502	-0.2732915270281815	0.3942452483476835	120.6426726588667
15	6.0	ltm	348	diff_vonmises	0.18323536391466508	10.49861300985405	0.7177717512771761	87.53489545610535	0.7017426287350912	88.22225971569789	0.07170310213892606	-0.18432699561945753	0.2560300977583836	100.07223564082568
16	6.0	perception	348	diff_vonmises	-0.1578913169922204	-9.046506085416448	1.7404756011121618	1.5449067017327243	5.248163553716215e-12	2.2765723371860043	0.37017119197656195	-0.3397827742136054	0.7099539661901674	103.43682123903221
17	6.0	wm	348	diff_vonmises	-0.1488863467743407	-8.53055929729094	0.6087496565922659	147.948816062537	0.5932977173203733	148.84235292901386	0.19655836882180466	-0.3072468496530867	0.5038052184748913	112.02794203077914
18	7.0	ltm	348	diff_vonmises	0.11478602651417627	6.576754866339065	0.9932768528949025	141.35577099472988	0.9766578781619546	142.27073330312345	0.13633055734349142	-0.25211052316606697	0.3884410805095584	85.3574074897978
19	7.0	perception	348	diff_vonmises	-0.010300661221545855	-0.5901844141886485	3.0213860662682084	1.3739152899279201	1.325168012597275e-14	2.443113370963066	0.5146019072617594	-0.3866876092450674	0.9012895165068268	79.05117573481294
20	7.0	wm	348	diff_vonmises	0.3182476957436703	18.23424980587584	4.698900020917813	0.44229809423742344	4.89720513870507e-13	1.497510661875344	0.13265664329309937	-0.23830546412485049	0.3709621074179499	63.03311510404882
0	1.0	ltm	349	diff_vonmises	-0.10790653472850825	-6.182589021825369	2.5491221796544563	1.439651063065437	2.4688108155216204	0.7997816973292868	0.39031650851643734	0.001885979730221842	0.3884305287862155	84.53095555898179
1	1.0	perception	349	diff_vonmises	-0.021166383769742086	-1.212744457560427	54.80316491922789	3.2101017264335123	108.49043125759428	2.103565641537931	2.52773583453291	2.3690363723709763e-47	2.52773583453291	11.898237226288984
2	1.0	wm	349	diff_vonmises	0.0328578073002983	1.8826136823612383	1.436564089349525	2.3135283160596893	1.4942698723108114	1.5478142813953788	0.3073813651187892	0.02149483066221733	0.28588653445657186	116.69078738074933
3	2.0	ltm	349	diff_vonmises	0.10533242352685372	6.035103313973216	0.8303126146784398	2.455509064176213	0.8303471243991386	1.7276417866030358	0.22521435660826827	0.04280228726632784	0.18241206934194043	135.84101237196018
4	2.0	perception	349	diff_vonmises	-0.04586750333958201	-2.628014358160258	7.598524608440619	0.8802942840463651	2.8955723488039317e-15	0.3028610198889196	0.9026984859263424	-0.04820158945033876	0.9509000753766812	49.33372907818321
5	2.0	wm	349	diff_vonmises	-0.5024483157864099	-28.788167918017702	1.008533841128317	2.2930687910765473	1.008558913699632	1.6048067018333396	0.23628784481811627	0.03144103113363085	0.20484681368448543	126.27189457799241
6	3.0	ltm	349	diff_vonmises	0.10188735216574238	5.837715264860146	2.4410566388607786	2.125408436813968	2.3417562336798556	1.6998676347788908	0.27126890157580774	0.0004511483024761363	0.27081775327333163	82.06238711460054
7	3.0	perception	349	diff_vonmises	-0.0022724253816343797	-0.13020038362605538	5.376779243782776	1.3990741454547508	0.48287603727352774	1.0956408524619126	0.9940956269560235	-0.16426723606407817	1.1583628630201017	56.34542012991349
8	3.0	wm	349	diff_vonmises	-0.008245773854720936	-0.47244804069482965	2.82413439883401	39.92431306724482	2.783079928983964	39.62635796967903	0.3992192906508194	-0.04546813732176558	0.444687427972585	60.515839986163
9	4.0	ltm	349	diff_vonmises	-0.14888322857190758	-8.530380637451856	2.736051605279228	11.700284875671462	2.600978266023857	11.6466101237055	0.24313626254218157	-0.06792745456166438	0.31106371710384595	57.95588857906179
10	4.0	perception	349	diff_vonmises	-0.09695003257571022	-5.554827690244042	2.311408259179066	2.383097907116592	0.3067367339154155	2.4501712216584046	0.8230993131863186	-0.2849633251158269	1.1080626383021455	83.2366983414976
11	4.0	wm	349	diff_vonmises	-0.029367200820068825	-1.6826166631030737	1.712636288015674	100.57569399224255	1.690839134221226	101.13337143160584	0.10703625962688079	-0.1861609970451994	0.2931972566720802	64.47392407830537
12	5.0	ltm	349	diff_vonmises	0.22713009530812867	13.013595861559914	1.879384502921465	0.8298035628744141	4.177398631495312e-14	0.24292383814449964	0.37358735626727313	-0.029051986062515217	0.4026393423297884	99.79806588636526
13	5.0	perception	349	diff_vonmises	0.019983243302763458	1.144955502231414	3.5401952587801144	1.148911820554279	2.171366310893136e-16	0.7394994943757839	0.708224251683842	-0.1170000189964561	0.825224270680298	72.89026117042513
14	5.0	wm	349	diff_vonmises	-0.0581714934051136	-3.3329810600861114	0.6406366752385992	44.24386068386072	0.6229261180048152	43.74099388133704	0.2844435721375689	-0.03921242096272115	0.32365599310029003	124.28914810693912
15	6.0	ltm	349	diff_vonmises	0.26570542310895334	15.22379933788084	1.2896203749460176	1.6544147861933465	1.2083519204557926	1.3208961888123378	0.15160886979674804	0.004767153134987788	0.14684171666176024	108.71719446487421
16	6.0	perception	349	diff_vonmises	-0.14636882668345763	-8.38631602124395	1.9839442354600154	1.5396777203258851	0.3521798777085606	1.321240670407322	0.5004086229915307	-0.13227942109070834	0.632688044082239	89.26882729711019
17	6.0	wm	349	diff_vonmises	-0.22001367193467233	-12.605854837032615	1.223536852121549	2.4705829115493474	0.5679577189918685	2.3878579371167428	0.32774066036126437	-0.11821018860185786	0.4459508489631222	100.43246986069202
18	7.0	ltm	349	diff_vonmises	-0.0034643141987014928	-0.19849058249284118	1.551134805214073	36.15010409689825	1.5139768448849495	35.90596174779805	0.33972022350328146	-0.058124204509999444	0.3978444280132809	80.15333509248549
19	7.0	perception	349	diff_vonmises	0.005561780985619176	0.31866657705209	3.5475011269129624	1.0744534562390637	2.3010084844848748e-20	1.369880841959971	0.5552207454502595	-0.21738203302223522	0.7726027784724947	72.81449374739285
20	7.0	wm	349	diff_vonmises	-0.10718385332991728	-6.141182427753495	0.00023641762554910386	4763.802371654784	2.2165866147215874e-31	4763.712566153893	0.19355079114563978	-0.1649436239716806	0.3584944151173204	179.65789121031747
0	1.0	ltm	350	diff_vonmises	-0.04554403876431011	-2.609481203175186	4.821193789692391	0.44884669195700166	0.07704179339659736	3.56647077903549	-0.2304972131059017	-0.5675898680967619	0.3370926549908602	58.325063176720334
1	1.0	perception	350	diff_vonmises	0.05864574511927348	3.360153681734317	15.80696417091641	0.713805410681412	0.06101921110506434	3.822131164812078	0.4766231023640124	-0.6284326856493082	1.1050557880133205	33.76193591823062
2	1.0	wm	350	diff_vonmises	-0.0010913067282876995	-0.06252726968511527	1.3030638672327668	2.4570415820876175	0.36794714811736623	6.253300641096722	-0.4124772963807225	-0.6967750107565156	0.2842977143757931	79.94435284705085
3	2.0	ltm	350	diff_vonmises	0.10904088499730596	6.247582504717009	2.6020757111260058	0.5814122469101893	1.2383958443807845e-14	2.06005220479971	0.022911572765845933	-0.32594031923002653	0.34885189199587247	85.25942783074169
4	2.0	perception	350	diff_vonmises	-0.029919748853540033	-1.7142753333992273	7.770049827129395	1.2146095056577546	0.2840226598104865	2.807732381588295	0.7455559737757208	-0.4792058921247274	1.2247618659004482	46.75130386534249
5	2.0	wm	350	diff_vonmises	0.1264894834637866	7.24731355526479	6.471188027055338	0.3213274158725061	1.0511444466036243e-14	2.3806599086647973	-0.05963565423602962	-0.3788930277594446	0.319257373523415	53.52773841043603
6	3.0	ltm	350	diff_vonmises	0.13932418453078865	7.982687757716062	1.6115071438287196	1.4640331531611261	0.46536255570281815	2.4118852991855615	0.0828378514070287	-0.23577225734064822	0.3186101087476769	84.0319700031086
7	3.0	perception	350	diff_vonmises	0.03364617611799314	1.9277838883148712	5.188676980672608	1.8581564267358703	0.2818782808132482	2.8394747727721206	1.0560061740050182	-0.44288193541837734	1.4988881094233955	57.119227044903965
8	3.0	wm	350	diff_vonmises	0.06141162341784936	3.51862683488954	4.324294422698248	0.4518235225708343	0.21077084124781958	2.062469473334497	-0.0384411114193704	-0.3282742422345263	0.2898331308151559	59.069857322830586
9	4.0	ltm	350	diff_vonmises	0.03797293536230759	2.1756889319833026	0.9766269061327413	237.2011781160482	0.9638341032053261	239.2727849558601	-0.11827115486289586	-0.43439807004668296	0.3161269151837871	77.0780472682541
10	4.0	perception	350	diff_vonmises	-0.006463217846898694	-0.3703151047009262	2.4532149967462797	2.6028945521535527	0.33087873008144325	4.364633150264036	0.5758642935435164	-0.5530517304940423	1.1289160240375589	77.27056055742148
11	4.0	wm	350	diff_vonmises	0.16192753960483444	9.2777646062945	2.0453980292371265	0.6884979828171088	0.09814533749247911	3.245148434152719	-0.2083482517803465	-0.47511192746598163	0.26676367568563514	84.18414645498356
12	5.0	ltm	350	diff_vonmises	0.06040158040796974	3.4607556332967473	1.3533012569866834	2.2280303110782675	0.2986472249827711	4.100850592693263	0.046491382335966835	-0.43070118516185174	0.4771925674978186	93.82884336253989
13	5.0	perception	350	diff_vonmises	0.0558706979562708	3.201155191344511	2.107751834803847	2.542749130810122	0.15671445981178078	4.423355820783523	0.5355102307990638	-0.590463090034602	1.1259733208336657	87.28214812812936
14	5.0	wm	350	diff_vonmises	-0.0963806709291023	-5.522205670876788	0.43357918987134275	235.8128930772303	0.4228661986668384	238.30255847666982	-0.11245945389726586	-0.551199304741548	0.43873985084428213	120.69827924150073
15	6.0	ltm	350	diff_vonmises	-0.21749936245078585	-12.461795515216203	0.0003390119831059201	3248.1980607233627	1.1306672090379114e-27	3250.4016277287183	-0.17544149132197617	-0.5259459679416523	0.3505044766196761	178.63293857620613
16	6.0	perception	350	diff_vonmises	-0.02271566540496753	-1.3015117565359715	1.3531236602881944	1.8879098433611472	9.676749234894443e-18	4.278248041365197	0.08760507203450918	-0.629575988519608	0.7171810605541172	115.24218760651208
17	6.0	wm	350	diff_vonmises	-0.08353806476805245	-4.786378539899924	0.3464982503434745	181.9843998068892	0.331672056742598	184.52544288364928	-0.060414640645547024	-0.6294578895031293	0.5690432488575823	135.14506343621372
18	7.0	ltm	350	diff_vonmises	0.0987063881113322	5.65545944975962	0.9931816546192302	292.7337153698127	0.9800668918803704	294.97058526242233	-0.028862560736840237	-0.4981050510969638	0.46924249036012355	79.49923024294907
19	7.0	perception	350	diff_vonmises	0.09696129526007996	5.555472994524416	2.371901020343858	1.361311737103749	2.5872238625795384e-19	3.3367807279668913	0.24667237971621703	-0.524293598102475	0.770965977818692	89.29562342824701
20	7.0	wm	350	diff_vonmises	0.28043291625437944	16.067622537921604	1.032380012613787	250.63368165385998	1.016294478340625	253.15768432905207	-0.10926855926751955	-0.5457817490350578	0.4365131897675383	76.04405050101948
0	1.0	ltm	351	diff_vonmises	-0.060279596134409974	-3.4537664492548035	1.0336285586035894	155.02231411911572	1.0136503562473782	156.62780618373887	0.0318365784279564	-0.37574801002185154	0.40758458844980794	79.63169929237125
1	1.0	perception	351	diff_vonmises	0.007080578001445248	0.40568723599598805	10.396835223369415	0.7281262850735895	5.516542269692424e-19	2.251439050695483	0.5662675415118468	-0.3583276531261231	0.9245951946379698	42.0923993329387
2	1.0	wm	351	diff_vonmises	0.08919432721427543	5.110458505886844	3.510398918908878	0.44560336003689094	2.169767369907406e-20	2.108518279077976	-0.016748889774075182	-0.3352963499136801	0.31854746013960494	73.20587884735585
3	2.0	ltm	351	diff_vonmises	0.06414481200239835	3.6752270053975327	4.915357169976579	0.4226054078636027	6.922241061159261e-12	1.366279355416688	0.14565509063563223	-0.21743058423440614	0.3630856748700384	61.5985100312887
4	2.0	perception	351	diff_vonmises	-0.041290955476144815	-2.3657974808456923	8.009151351552536	1.0520009328619289	2.8538851235495487e-20	1.8094965274096777	0.8798332095588055	-0.28799018776499824	1.1678233973238037	48.035140219343276
5	2.0	wm	351	diff_vonmises	-0.021614987164344224	-1.2384475387463711	4.863309663508588	0.46305503039106394	0.08739732201613672	1.5004581172586577	0.13550016003375176	-0.23551641043635813	0.3710165704701099	59.8001322961554
6	3.0	ltm	351	diff_vonmises	0.17735363024187092	10.161614494182965	3.6176802022210506	0.4648139461932891	0.1063252936469211	0.9222807988744348	0.17538246029772694	-0.1388927679034341	0.31427522820116105	69.31273518997483
7	3.0	perception	351	diff_vonmises	0.038908951667814246	2.2293187158442618	5.56750442244515	1.575336511981527	0.07717199311922235	1.869021769730043	1.1253269266581276	-0.29169587424375854	1.4170228009018861	57.11563939657742
8	3.0	wm	351	diff_vonmises	-0.07615459993320361	-4.363337166679828	3.332382616250481	0.7832801973042774	0.38167456501342095	1.4151717504240007	0.2261580959126514	-0.1986054271633153	0.4247635230759667	67.12116244322743
9	4.0	ltm	351	diff_vonmises	-0.147009923523678	-8.42304816444775	1.0148053706490352	88.83098262503245	0.9943336202045416	89.73577241476805	0.03565507500154652	-0.2165372038711979	0.2521922788727444	81.24465766508112
10	4.0	perception	351	diff_vonmises	-0.050294166243695315	-2.8816434598930747	2.6997569712651326	2.2939633422256276	0.1525187106952264	3.633561956005045	0.7443479841519477	-0.508689534292966	1.2530375184449136	78.88388841042763
11	4.0	wm	351	diff_vonmises	0.02800717522110894	1.6046929362529203	1.0755610881622437	167.0533370194276	1.0598244339970884	168.5854061066756	-0.04681981886387376	-0.3402319211895737	0.2934121023256999	75.29317601817408
12	5.0	ltm	351	diff_vonmises	0.26072971108297044	14.938712038719531	1.1961597449715626	2.3594464055864908	0.41594411894001204	3.0267266649973807	0.19327762249527758	-0.2281539488688387	0.42143157136411624	98.94217742198731
13	5.0	perception	351	diff_vonmises	0.032917589014446386	1.8860389222739808	2.55153203157396	1.928786530866781	8.803664651190434e-17	2.360486463242261	0.7747494712750377	-0.36869058051276365	1.1434400517878014	86.10734425531041
14	5.0	wm	351	diff_vonmises	0.04047823406117873	2.319231973848235	0.5799514840250781	136.87174148981077	0.5652437644335678	137.59786533047557	0.1918533252200021	-0.2733759614922828	0.4652292867122849	115.4971796179076
15	6.0	ltm	351	diff_vonmises	0.39044852496285487	22.371052597479952	0.7864424402189283	86.0262559309354	0.7719375953903574	86.52360555208605	0.08992793847725267	-0.14687409129071938	0.23680202976797204	97.2005503934434
16	6.0	perception	351	diff_vonmises	-0.13693166360677578	-7.845606406373384	1.69273993524474	1.5966116783240132	8.546382651062891e-20	2.0817331091011515	0.412981697197676	-0.30611477899931233	0.7190964761969884	104.75139415546656
17	6.0	wm	351	diff_vonmises	-0.15133350772103107	-8.670771291325538	0.5273921058802762	154.38382980664386	0.5149720246865271	155.17253175784128	0.1626905904056315	-0.28251431533323945	0.44520490573887095	119.79343064701771
18	7.0	ltm	351	diff_vonmises	0.05494371316417335	3.148042875084515	1.2543562167629483	64.59406469605429	1.2158963100620246	65.40584113523529	0.14627645627632901	-0.2380358609190436	0.3843123171953726	76.3240925576294
19	7.0	perception	351	diff_vonmises	0.034778890412392204	1.9926836367780765	2.5841649374725577	1.4515117016933652	1.8247550676336844e-13	2.2375580541422924	0.5161065258380215	-0.3511519140339707	0.8672584398719922	85.5604228094098
20	7.0	wm	351	diff_vonmises	-0.25453247769610376	-14.583636720994505	0.0005727196320918041	1747.809191594295	6.773152936410205e-22	1748.8352613310021	-0.003970637100167096	-0.32259188746115797	0.31862125036099087	178.12358952315054
0	1.0	ltm	352	diff_vonmises	0.11593006427714136	6.642303401760553	1.7892054583259493	1.3408916459712474	0.44871451046494815	2.3856040681964323	0.0806761107406313	-0.25518177510647505	0.33585788584710635	81.07383353744368
1	1.0	perception	352	diff_vonmises	0.06544737203512203	3.749858197835022	7.95929947668771	0.6053232796042483	0.02361534170900733	1.8282419984513678	0.3719704696632885	-0.29119832939262397	0.6631687990559125	47.8955139273051
2	1.0	wm	352	diff_vonmises	0.16253783483236509	9.312731947088983	4.37152373421112	0.35166305735637177	2.925221116396252e-21	1.4279499739917778	0.056453732355655234	-0.2272200187944965	0.2836737511501517	65.41160588797732
3	2.0	ltm	352	diff_vonmises	-0.0037722134509885325	-0.21613191016412234	2.040634620057075	3.3127303071102245	1.2811392086092979	3.7390996781411356	0.2565408672904441	-0.19073523878893894	0.44727610607938306	68.83773902847085
4	2.0	perception	352	diff_vonmises	-0.028107500347058674	-1.6104411425489586	7.1210672807005775	1.016177927643777	1.7109954983172714e-22	1.5162856336801416	0.8199268726505133	-0.2413236608232147	1.061250533473728	50.98723812659469
5	2.0	wm	352	diff_vonmises	0.06717020889957825	3.8485694789579155	6.558026302024553	0.37800759284873947	0.19316868097510942	1.0977558029899688	0.1682373113428385	-0.17987634928199103	0.3481136606248295	50.880986353717134
6	3.0	ltm	352	diff_vonmises	0.21113912882319913	12.097380971638302	1.433205380849627	97.89696872048388	1.410820154779503	98.13054197675535	0.2919632326897883	-0.1516089957111646	0.4435722284009529	76.35799799437245
7	3.0	perception	352	diff_vonmises	0.016826546001770897	0.9640900696842022	5.692394547778839	1.4383571251342484	0.008714690412683522	1.934650238082072	1.0254495288717178	-0.30636951651160665	1.3318190453833245	57.0315172726778
8	3.0	wm	352	diff_vonmises	0.0915499128744779	5.245423622497983	3.749207695302897	0.7626504103601146	0.42771980521194836	1.3966225968989099	0.24005334331307454	-0.2032961705331419	0.44334951384621646	63.2778082348928
9	4.0	ltm	352	diff_vonmises	0.15812669873953406	9.059992466111936	1.0271518187780757	117.00222303856458	1.0114337576490573	117.82486704713544	0.06441179999575297	-0.20751422106578588	0.27192602106153885	81.98438281343786
10	4.0	perception	352	diff_vonmises	-0.11607274258490742	-6.650478266623617	3.1112010758211617	1.965905462468595	1.1467966552818855e-15	3.2824120757904396	0.7920075635906495	-0.5198033754396237	1.3118109390302732	77.87611909262077
11	4.0	wm	352	diff_vonmises	-0.09482585500083822	-5.4331212802675415	1.2942037569419438	212.47375950478713	1.2773132584747953	214.07292492566748	0.02488982785268945	-0.3979100072221371	0.42279983507482655	70.53786389402751
12	5.0	ltm	352	diff_vonmises	0.007122476988738214	0.4080878711337472	1.6231788618502911	1.1111255554735024	2.2306513264578367e-14	1.527205713928235	0.26183504256079326	-0.22341228968384158	0.48524733224463484	106.7650026733531
13	5.0	perception	352	diff_vonmises	-0.05553936533034074	-3.1821712302637315	2.5613912758275705	1.7606828067995222	8.26041130901112e-19	1.8621538823358441	0.7561607976227103	-0.29009835645637255	1.0462591540790829	85.9418013509839
14	5.0	wm	352	diff_vonmises	-0.021993514501201225	-1.2601355575786042	0.7130212287794598	115.34587450833922	0.6985696444579212	115.71572818217655	0.21264893215013814	-0.1814783271162579	0.394127259266396	106.61344245227116
15	6.0	ltm	352	diff_vonmises	0.3595846988823055	20.602685623438674	0.6380765740529827	100.82064882385373	0.6255242440570912	100.99626023655206	0.1927081015039711	-0.13998219077399554	0.33269029227796665	114.1510824723866
16	6.0	perception	352	diff_vonmises	-0.12408790629645156	-7.109713319401508	1.8034260813978262	1.637625055913382	4.0950665029698176e-11	1.7821300208574788	0.5097953565005714	-0.2621032376658009	0.7718985941663723	101.79737832743214
17	6.0	wm	352	diff_vonmises	0.01545820928230614	0.8856901507060951	0.8824101924044365	121.15950333444175	0.8642454947411272	121.56123118208062	0.29272977369537756	-0.2047416914661948	0.49747146516157237	96.47531000754887
18	7.0	ltm	352	diff_vonmises	-0.057823734891015964	-3.313055964938576	0.9633650355965463	61.59072691897955	0.9145696337902753	62.66977752279344	0.21988192394448447	-0.319012148643127	0.5388940725876115	88.62114563273789
19	7.0	perception	352	diff_vonmises	-0.014264128310413392	-0.8172743506197612	2.024680225100033	3.4172776692370053	0.4448498925865352	4.662399145693023	0.6734649290042793	-0.49094331740668007	1.1644082464109595	82.10199588997932
20	7.0	wm	352	diff_vonmises	0.29391945607792436	16.84034435004584	8.554562967351231	0.5794553932166657	7.10932560228934e-19	1.6205305895897828	0.4077274715359941	-0.2579154290549263	0.6656429005909204	46.45099130748835
0	1.0	ltm	353	diff_vonmises	0.6726651099505695	38.54087182587111	0.00019148835113122842	4272.019007678833	4.525420633472522e-32	4273.679416103394	-0.1340647486990747	-0.39444720409051115	0.26038245539143645	166.853320494222
1	1.0	perception	353	diff_vonmises	0.01570611093924012	0.8998938693827121	10.249523927428092	0.7294815248177644	2.79410685722951e-17	2.250534431627365	0.5615946186670779	-0.35818367824100944	0.9197782969080874	42.38796858632546
2	1.0	wm	353	diff_vonmises	-0.010378027554905475	-0.5946171785665569	5.165709594950076	0.3236256646907819	8.786130441102577e-17	2.178516962200914	-0.061217747880953355	-0.3467124353629446	0.28549468748199125	60.05546323149571
3	2.0	ltm	353	diff_vonmises	0.2088549085826773	11.966504792378043	2.936968906002828	0.4496432028788653	2.2883592098254645e-21	1.7607349950453424	0.010717927017604656	-0.2794115966776216	0.29012952369522627	80.1830598898479
4	2.0	perception	353	diff_vonmises	-0.018792664084558847	-1.0767403378523048	8.531213662626795	1.0958846961260924	0.09479521671335632	2.324717938679911	0.8512731061316505	-0.3767473696046327	1.2280204757362831	45.890560520367444
5	2.0	wm	353	diff_vonmises	0.038093803286277476	2.182614153905285	5.157573980797342	0.3585844740613149	2.582543244902363e-16	1.7730712797331858	0.033919369910900776	-0.2821825860727785	0.3161019559836793	60.09793373760931
6	3.0	ltm	353	diff_vonmises	0.26029134520278724	14.913595523902496	4.253559175185334	0.4648822044907158	0.2370446811937027	1.1076540847830598	0.14923635554468778	-0.17018760666088456	0.31942396220557234	61.663171085672474
7	3.0	perception	353	diff_vonmises	0.029165630135071393	1.67106751357916	5.464467294374968	1.8242799841013642	0.21839635466638874	2.3645605894590704	1.19551944434395	-0.36833971881867256	1.5638591631626226	56.53326728295505
8	3.0	wm	353	diff_vonmises	-0.12282843776661657	-7.037551088212417	5.752943631430345	0.41492556341770764	0.1826390261564881	1.3695641175868265	0.12808717729949964	-0.22144052103300402	0.34952769833250363	53.854995021221725
9	4.0	ltm	353	diff_vonmises	-0.043499845051582796	-2.492357530928733	0.9547342537957758	134.79360978185096	0.9387557310885846	136.07284823304238	-0.013188811503567877	-0.2837259336750755	0.2705371221715076	81.37859745796283
10	4.0	perception	353	diff_vonmises	-0.014181192121028852	-0.8125224569991294	2.6582798232296034	2.3594429994977735	0.25144928108330644	4.052348846262836	0.6249784314477548	-0.5444328846694	1.1694113161171549	76.57893101859179
11	4.0	wm	353	diff_vonmises	0.0856270567359257	4.906068963095789	0.8847184292744257	131.1163147098433	0.8689710681303179	132.87956455291544	-0.1649740435615783	-0.3454232527031742	0.1804492091415959	76.99248928887599
12	5.0	ltm	353	diff_vonmises	0.31673261324361857	18.147441973008746	1.0150972747029552	7.444512402189206	0.7142906147426888	8.355032595415567	0.1648554283781869	-0.2636899164395693	0.4285453448177562	92.29285966397521
13	5.0	perception	353	diff_vonmises	0.052011082410134794	2.9800155100078376	3.0447634084140174	1.7311365127993017	2.356163678374983e-18	2.638250683997726	0.7235315746419766	-0.4172990916557925	1.1408306662977692	78.73733065335193
14	5.0	wm	353	diff_vonmises	0.0028429683006090775	0.16289008491438006	0.4565754231141622	75.97788439455877	0.4323480832294352	77.18272692239829	0.058627828061837306	-0.3365280934306787	0.395155921492516	124.66422137654507
15	6.0	ltm	353	diff_vonmises	-0.23875448782642525	-13.679624492261759	0.0005189554626962711	1463.1434926132886	7.110799163187216e-23	1463.9700527991768	-0.01069000137721332	-0.2523809220820681	0.24169092070485476	178.3465992404379
16	6.0	perception	353	diff_vonmises	-0.15858220627173525	-9.086091125243483	2.054014917064257	1.1575966781158102	5.896425123564618e-20	2.1304272405978684	0.26780345486862805	-0.32909093245461063	0.5968943873232386	95.76134449868641
17	6.0	wm	353	diff_vonmises	-0.2684502777209158	-15.381067922523307	0.3249329465110111	125.77972544431348	0.31267845455978477	127.02377359442448	0.013035284169564676	-0.3426297845659434	0.35566506873550807	138.74982519933604
18	7.0	ltm	353	diff_vonmises	0.2549541778289653	14.607798358827576	0.841555255344093	106.55626055301268	0.8221156633722585	107.55803451360177	0.0869936674902263	-0.2547850525008162	0.3417787199910425	91.5271366276869
19	7.0	perception	353	diff_vonmises	0.017101157176300275	0.979824130991866	1.93565924068915	1.643629445808471	1.8571638405397675e-17	2.6460605413224103	0.41017403270892666	-0.4038167357318098	0.8139907684407365	98.53083642946501
20	7.0	wm	353	diff_vonmises	-0.42516375745775903	-24.36008890425337	0.000392539485806394	1813.2977301236122	1.1664674433615539e-30	1814.6413260914162	-0.10054601265949259	-0.3271116342586424	0.22656562159914984	174.87782691338424
0	1.0	ltm	354	diff_vonmises	-0.05248405476688345	-3.007114829875891	1.3568770071461609	68.77840090892155	1.320814335649377	69.43262810786757	0.18526756414457068	-0.21656451370900598	0.40183207785357666	74.53925799157378
1	1.0	perception	354	diff_vonmises	0.03610672285387777	2.068762831575751	15.920086836039504	0.48667191316754677	2.2871907666016455e-15	1.348604017474142	0.5537663228159132	-0.2146369956545866	0.7684033184704998	33.940507111820835
2	1.0	wm	354	diff_vonmises	0.16121966432608031	9.237206340400242	3.96699076365605	0.3411529070157785	3.241079755620587e-20	1.1055081856727085	0.08515743928702521	-0.17585351744170866	0.26101095672873387	68.75263350402062
3	2.0	ltm	354	diff_vonmises	-0.07235722540718212	-4.145763633108305	2.588009785342271	1.227984309199723	1.0690141903330486	1.3126465582888331	0.2729154733549589	-0.1060200210314625	0.37893549438642143	68.8052475735469
4	2.0	perception	354	diff_vonmises	-0.033235745005675416	-1.9042679177982056	8.009055357219646	0.8779058942887719	1.0617139681136787e-20	1.0074199395412362	0.8143673472516254	-0.16033575542517603	0.9747031026768014	48.027528453071994
5	2.0	wm	354	diff_vonmises	0.049325400042200096	2.826137245212478	6.837406730509386	0.3161069887833106	0.3492071372523454	0.7079256983953264	0.1682507052971745	-0.1204607860079992	0.2887114913051737	49.137971185381616
6	3.0	ltm	354	diff_vonmises	0.11056424370867382	6.334864529562875	1.4359523543312218	100.42219411903727	1.421145518351207	100.45170384249336	0.2515282801667098	-0.09067035282461688	0.3421986329913267	78.36800663725222
7	3.0	perception	354	diff_vonmises	0.019206582856642528	1.1004561365539371	5.460838392398657	1.3619735358426985	0.27508238937442087	1.5014573143292984	0.9288645583206026	-0.23245943515403916	1.1613239934746418	56.41850859551161
8	3.0	wm	354	diff_vonmises	0.115352367395307	6.609203808593577	3.422116629201913	0.90233027185252	0.8993910614544547	1.235714548700495	0.23784108554430566	-0.15445758427215617	0.39229866981646183	61.597803806787084
9	4.0	ltm	354	diff_vonmises	-0.11918963621488807	-6.829063116812718	1.7604571481655191	164.03590840815818	1.7476608702887568	164.52993386322407	0.11219578075393599	-0.17255704812519568	0.28475282887913167	63.86700962121196
10	4.0	perception	354	diff_vonmises	-0.10914047123976754	-6.253288376107624	2.8266260670816705	1.9208359740270458	0.08994483164497624	2.495330643564208	0.7822078452112882	-0.36237766911286107	1.1445855143241492	79.292886987126
11	4.0	wm	354	diff_vonmises	-0.07157662134775603	-4.101038315032411	1.3901297674392938	166.91487845818432	1.3724329977830658	168.01450382081705	0.07764038982422505	-0.29794543957667585	0.3755858294009009	69.64256150642251
12	5.0	ltm	354	diff_vonmises	-0.02542903017027226	-1.4569761058674375	1.6479888203910193	1.053735107054594	2.780948067729775e-15	1.3471927690747758	0.26884203589060035	-0.19651471978591256	0.4653567556765129	106.0556788965166
13	5.0	perception	354	diff_vonmises	-0.01695880319133567	-0.9716678484565254	3.0010118105655645	1.4683447262524643	7.927237785451899e-18	1.64857227454802	0.6995097224682655	-0.2599989624549954	0.9595086849232608	79.32146828138156
14	5.0	wm	354	diff_vonmises	-0.09044602392056895	-5.182175444387888	0.6104670600102725	116.5730275446544	0.5979644529031002	116.86814497492114	0.19770877024090083	-0.17312950078196465	0.3708382710228655	115.53837065881073
15	6.0	ltm	354	diff_vonmises	0.28775679358977274	16.48724979891116	0.8447965144883713	77.61849513522628	0.8292234553790918	77.89909379934637	0.1439376515326991	-0.12005285062911586	0.26399050216181497	97.46289673318364
16	6.0	perception	354	diff_vonmises	-0.13822047151859823	-7.919449660323879	1.6385012395356655	2.0178004942011927	0.1242595197314022	2.379145630646969	0.49508398272674276	-0.2983158305697251	0.7933998132964679	101.25134333810693
17	6.0	wm	354	diff_vonmises	-0.1083491606213682	-6.207949617389454	1.3435864746978583	3.1529336578582443	0.5020122321366518	3.570015413219878	0.39585510895162646	-0.24621985819866604	0.6420749671502926	95.44359294727649
18	7.0	ltm	354	diff_vonmises	-0.04098052368700974	-2.3480110495015576	1.0821229402677222	125.64043870684998	1.061239813506065	126.28719215540409	0.26434415713414694	-0.23686469474296068	0.5012088518771076	85.11961032197146
19	7.0	perception	354	diff_vonmises	-0.005151070888965353	-0.29513462191041584	4.162207558169452	1.2759151954215295	4.111672662649783e-21	2.337830553966313	0.6303312677467698	-0.37183415506473033	1.0021654228115002	67.07991045651227
20	7.0	wm	354	diff_vonmises	0.35939402715500707	20.591760938192007	6.294542379141341	0.6188333642322458	3.611901795527299e-15	1.271756056031292	0.40353120233138967	-0.20240419640935786	0.6059353987407475	54.292990968073894
0	1.0	ltm	355	diff_vonmises	-0.020497377410914678	-1.1744132167322017	0.9584252329147969	320.5185025456585	0.9441214671747689	324.2062495779439	-0.3505061651755028	-0.7368915980370829	0.3863854328615801	73.85067895098817
1	1.0	perception	355	diff_vonmises	0.06854540906956202	3.927362644683659	7.236177532908159	1.0158418077075748	0.01668238435701369	3.9436856061766643	0.43179284649741334	-0.6270789702868028	1.0588718167842162	50.2534022014888
2	1.0	wm	355	diff_vonmises	0.050406502788963074	2.8880798698219974	6.629505941197743	0.3228905280927046	0.007401239979578517	3.6750542214393085	-0.26433136142923447	-0.5845159195533755	0.320184558124141	52.41495703298514
3	2.0	ltm	355	diff_vonmises	0.1016039320214108	5.821476486760957	3.994163146288728	0.6594871625127982	0.12679399116575105	2.73382105550517	0.014697639856157796	-0.42497080227230033	0.4396684421284581	63.73526440546064
4	2.0	perception	355	diff_vonmises	-0.025326376259514356	-1.451094470030497	7.871733851509033	1.3293566824818828	0.07008908744896962	3.180581434228622	0.9201297553025977	-0.5105710649668571	1.4307008202694549	47.85183382080609
5	2.0	wm	355	diff_vonmises	0.029069273058879245	1.6655466597871293	3.884329984409628	0.6415744179890553	0.12000288168146343	2.6761355183062916	0.006893585418960346	-0.414870737699825	0.42176432311878537	64.69218836148093
6	3.0	ltm	355	diff_vonmises	0.23655200904759485	13.553431753767649	6.4292950650876595	0.3366162742024683	0.02403510343958525	1.2182229273894263	0.13469431550366454	-0.19334964070749605	0.32804395621116056	53.211846093768145
7	3.0	perception	355	diff_vonmises	0.08045463454739415	4.609711001833111	5.6627021847204	1.7575448382234142	2.9068052902789866e-21	2.381168223728776	1.2488452287616696	-0.37895505230922877	1.6278002810708982	57.29983663079875
8	3.0	wm	355	diff_vonmises	-0.16062246413223882	-9.202989289768729	6.838605366536671	0.36825509134943535	4.402979564546564e-16	1.360657472965655	0.16004943929575613	-0.21655493017754007	0.37660436947329623	52.043995723628825
9	4.0	ltm	355	diff_vonmises	0.3483491076242501	19.958933664018016	0.0004346527860153747	2066.788018673184	2.3881374497492734e-29	2068.5818895109473	-0.14251343110021253	-0.42846231900063003	0.2859488879004175	176.18512799440103
10	4.0	perception	355	diff_vonmises	-0.025833022936527894	-1.4801231863277007	3.407375997227428	2.0400810406766587	0.08250897295653117	4.666884653085052	0.6302368180085669	-0.7062536234358868	1.3364904414444538	71.55238574483732
11	4.0	wm	355	diff_vonmises	0.2920690044556629	16.73432128189712	0.762405323037749	156.88770384374078	0.7478181721105835	159.07960205391	-0.20679723356536783	-0.4168006543830387	0.21000342081767087	82.72830198522882
12	5.0	ltm	355	diff_vonmises	0.3634774886029722	20.82572604496479	0.702256397673874	115.88013350697847	0.6812948596898586	117.31765865610726	0.05886166257095482	-0.34678313554868545	0.40564479811964027	98.9697048337967
13	5.0	perception	355	diff_vonmises	0.045826684997002126	2.6256756394037115	2.494027184452676	2.530541031273578	1.5152394353103725e-13	3.6891135669710606	0.9020884177824476	-0.576984646751062	1.4790730645335097	87.09777213926515
14	5.0	wm	355	diff_vonmises	0.12594368000393819	7.216041320571837	0.5768888094456459	103.73835913502471	0.5498758310402353	105.2928632646424	0.13019407005505812	-0.43125233258810347	0.5614464026431616	112.29057780973218
15	6.0	ltm	355	diff_vonmises	0.46920921255730785	26.88370758819049	0.8692069047860844	124.23796559161794	0.8529048239522218	125.32074230004336	0.046626394665715054	-0.25738749557130447	0.3040138902370195	88.25488824793464
16	6.0	perception	355	diff_vonmises	-0.16419884041972105	-9.407900556992127	1.1491118461043626	2.263413050336492	9.538822064194345e-16	3.073854817914763	0.347545620471927	-0.4051720692527164	0.7527176897246435	122.46094866777591
17	6.0	wm	355	diff_vonmises	-0.14282101285514995	-8.183041262383767	0.3380405113214236	157.12982416240177	0.32695284725122237	158.39005895752018	0.04363441944688873	-0.36603506554145326	0.409669484988342	138.14888768575508
18	7.0	ltm	355	diff_vonmises	0.14386624997408065	8.24292893788891	1.0856216473219453	76.13883149909097	1.0525721324601252	77.50157023785381	-0.006395138769246245	-0.3122554316371211	0.30586029286787486	76.69046789622365
19	7.0	perception	355	diff_vonmises	0.015288894935984315	0.8759891532508381	0.9324464735164192	238.46524342198938	0.9133034703564182	239.4799725155011	0.538330238526143	-0.42792135006490994	0.966251588591053	92.84312655742437
20	7.0	wm	355	diff_vonmises	-0.15601608875847947	-8.939063421999322	1.2025838292635833	0.7026174044576057	1.469420309790593e-23	2.3082884102946557	-0.10065210685604586	-0.34330359380284586	0.2426514869468	120.46647784777905
0	1.0	ltm	356	diff_vonmises	0.17035580985428217	9.760668920183528	2.831241649824401	0.4859527501338649	0.07914136327934314	1.5480788234163458	0.04162969461190691	-0.23254179771669212	0.27417149232859905	77.05027059206859
1	1.0	perception	356	diff_vonmises	0.04889647843165684	2.8015618471863957	8.359161980911976	0.6872305253886483	0.05621518939920126	1.8435351686556478	0.4699319657139273	-0.29593159253741863	0.765863558251346	46.498468177911604
2	1.0	wm	356	diff_vonmises	0.12606197740886285	7.222819262601371	4.006487557919546	0.3500383730591018	6.179496679475478e-16	1.5052089527668056	0.02979813708402171	-0.23947224459988653	0.26927038168390827	68.40349122831597
3	2.0	ltm	356	diff_vonmises	0.08735697066146354	5.005185729950016	3.569190981281505	0.7694774155920007	0.6159974593967866	1.3091866084869055	0.20404102424389953	-0.18330453728528906	0.3873455615291886	62.30692386345183
4	2.0	perception	356	diff_vonmises	-0.021990596619661098	-1.2599683752812356	8.000320619360098	1.0159708641718732	2.6658741817455765e-15	1.5167479461384028	0.8858754285903622	-0.24139780625493917	1.1272732348453014	48.05848069645921
5	2.0	wm	356	diff_vonmises	0.07151513089080987	4.097515171369064	7.028294257731332	0.34801492196302125	0.11280443743663293	1.1289331709189852	0.16053990521575975	-0.18265219613908254	0.3431921013548423	49.90765803552509
6	3.0	ltm	356	diff_vonmises	0.26394582329773675	15.122981695066112	2.451592358136239	1.1957647885332297	0.8455539044760476	1.449270211213656	0.2440055191980398	-0.13492860209012758	0.3789341212881674	71.0857533771985
7	3.0	perception	356	diff_vonmises	0.015273065798948134	0.8750822105053307	6.288422439165642	1.3868072705065324	7.206588877627917e-12	1.8311228938127442	1.065979468858244	-0.2914275753813702	1.3574070442396142	54.31263757426942
8	3.0	wm	356	diff_vonmises	0.05415384919133979	3.102787003051716	4.836750299648361	0.6035724811553558	0.41797188347821973	1.2403638914984514	0.22702005216516302	-0.19694868177195668	0.4239687339371197	56.64595953413681
9	4.0	ltm	356	diff_vonmises	0.08151100166136405	4.670236379080001	1.2063490694305976	112.23334663897104	1.1887161047450476	113.07332634796542	0.04897052965736748	-0.21374136225154317	0.26271189190891064	74.71639193423039
10	4.0	perception	356	diff_vonmises	-0.08640190136239301	-4.950464289970757	3.2882818964772724	1.8280914066276723	2.451284574286909e-20	3.2136427120166826	0.7496469966685744	-0.5097108577711303	1.2593578544397048	75.69873957314002
11	4.0	wm	356	diff_vonmises	-0.08962882759233058	-5.135353543746242	1.286947335060891	272.13538172688584	1.2748288582753577	273.7428087954658	-0.03010844440943572	-0.38551000363652577	0.35540155922709005	69.21402984907081
12	5.0	ltm	356	diff_vonmises	0.07680588669265695	4.400653149249257	1.774384794165765	0.9525968524482927	5.763898721627096e-15	1.3868426599656813	0.2362560095983775	-0.20757900976815413	0.44383501936653164	102.57265456010342
13	5.0	perception	356	diff_vonmises	-0.032855300466298185	-1.8824700513530916	2.7828014126777156	1.641286142537284	2.678832102882775e-19	1.7892224246840156	0.7448431947248166	-0.2808229611142855	1.0256661558391023	82.42357691455345
14	5.0	wm	356	diff_vonmises	0.0216425162385988	1.2400248385150607	0.6936699487897676	121.31726049152668	0.6793654682969885	121.75407169256471	0.2079707503770436	-0.19632579729777255	0.40429654767481615	107.47607405961806
15	6.0	ltm	356	diff_vonmises	0.3348822710702891	19.18734076608355	0.6388560795946527	95.3348422243227	0.6258570181686115	95.51877178403693	0.1854801813995941	-0.13792957201763834	0.32340975341723244	113.96292459645372
16	6.0	perception	356	diff_vonmises	-0.0958641829347409	-5.492613088630704	1.903765767770204	1.4593159840187155	1.8023389979201279e-12	1.6703636955754617	0.46479019816926365	-0.24962208570485592	0.7144122838741196	99.29362516802564
17	6.0	wm	356	diff_vonmises	0.03172630784172236	1.817783538863499	0.7759514361404987	131.83685067277648	0.7602743095908566	132.3055105327047	0.255908547417782	-0.21446442254083742	0.47037296995861944	102.00003776329984
18	7.0	ltm	356	diff_vonmises	0.017380962117341244	0.9958557732004204	0.9262039500815983	81.9384777895707	0.8934474987390166	82.95722617684683	0.18343221604260762	-0.29300239461046473	0.47643461065307235	89.64182862768939
19	7.0	perception	356	diff_vonmises	0.005903839969345433	0.33826511316413865	2.4103327364293894	1.9919301058052856	0.13748447164498762	3.169471502008522	0.5728681706092061	-0.4381098222523157	1.010977992861522	83.41948379047196
20	7.0	wm	356	diff_vonmises	0.2949186495841595	16.89759392086999	6.653829591901116	0.494015616933588	4.1254899177627825e-20	1.5449703537807686	0.2521671879949786	-0.2458888410875314	0.49805602908251	52.77430221262648
0	1.0	ltm	357	diff_vonmises	-0.015195404836232468	-0.8706325651088003	2.3817585615817265	1.2810907123794202	0.45122089204057003	3.3048270069440635	-0.051664157234590946	-0.4384462497121465	0.3867820924775556	69.54420808952938
1	1.0	perception	357	diff_vonmises	0.06537651341407133	3.7457982979067	13.552371892299252	0.6863510252053383	0.09875441082646085	2.8624374001916943	0.49661794185628105	-0.4778877947280447	0.9745057365843257	36.31100524979641
2	1.0	wm	357	diff_vonmises	0.10547408546635152	6.043219945224077	2.9227494717461795	0.5374013276068256	0.13267771773593606	2.8930006400532795	-0.1766885700220715	-0.43988976818558867	0.26320119816351717	70.62262729186304
3	2.0	ltm	357	diff_vonmises	0.010127144112041115	0.5802426161407176	3.09181336119287	0.6990501579968089	0.29265201728466594	1.5120397063613689	0.15005948136993114	-0.21445285573340006	0.3645123371033312	69.75087086066912
4	2.0	perception	357	diff_vonmises	-0.03161795831360603	-1.8115755681901993	8.014798713923147	1.0534284024931588	0.19136108741404342	1.8278461491551241	0.8209159374755216	-0.3019096772217626	1.1228256146972841	46.930762814754104
5	2.0	wm	357	diff_vonmises	0.0844466906920057	4.838438970498619	6.915203704829507	0.3207871525859728	0.08079296341056762	1.5242629519247088	0.06739911513422009	-0.245548070864276	0.3129471859984961	50.257479097429695
6	3.0	ltm	357	diff_vonmises	0.14937722147227478	8.558684345752322	1.645906098849275	1.7476546226922145	0.7463290673665005	2.2009782283712993	0.15513573570698147	-0.1531613772580823	0.3082971129650638	80.60312706672389
7	3.0	perception	357	diff_vonmises	0.032748534548793534	1.8763528148842332	5.794011108375985	1.439978024488195	0.1857331374039981	1.9170711130803066	0.985839569264901	-0.30123784352093397	1.2870774127858349	55.16205652550272
8	3.0	wm	357	diff_vonmises	0.08947789292026237	5.1267056240545426	4.4161578345625445	0.5437857862328177	0.364206233387286	1.415655793305971	0.12734946387207824	-0.223136700705314	0.35048616457739223	58.394677910749095
9	4.0	ltm	357	diff_vonmises	-0.02484811041735964	-1.423691855789762	1.2288988982117433	187.86941773713295	1.2164353115332291	189.03658389483695	-0.01503000328072801	-0.2764705101799336	0.2614405068992056	71.16911326008005
10	4.0	perception	357	diff_vonmises	-0.06600569112666696	-3.7818475254021244	3.136028604798425	1.8181719292596685	0.06731246255256529	3.025852939673044	0.7066419356330909	-0.4541072670143376	1.1607492026474284	75.4875829092318
11	4.0	wm	357	diff_vonmises	-0.026532329824155414	-1.5201905195731868	1.0662259172277058	191.59416723335084	1.0503168725962202	193.3691836159404	-0.05005530066910069	-0.3942995030515668	0.3442442023824661	75.78300208975648
12	5.0	ltm	357	diff_vonmises	-0.007130715574223284	-0.40855990731119946	2.002964425948826	0.9240342533961249	1.2715323516094221e-14	1.9966540057721343	0.1593210722066033	-0.3090897626012706	0.4684108348078739	96.95440134130462
13	5.0	perception	357	diff_vonmises	0.007518348245165885	0.43076962335759394	2.722082567039766	1.7502342768914116	6.272775282785626e-19	2.624670712533789	0.666225604606022	-0.41304434406110996	1.079269948667132	83.35337217885882
14	5.0	wm	357	diff_vonmises	-0.035675916622426536	-2.0440794527256596	0.5345294580710925	207.70221440196877	0.5241518773880842	208.91633336530091	0.09953607174877277	-0.3437908560607035	0.44332692780947625	115.95592230344226
15	6.0	ltm	357	diff_vonmises	0.29680131638929924	17.005462783033877	0.7021641773306451	110.99206829223141	0.6848711659078064	112.06474955315497	0.0635836416442146	-0.2673850308968646	0.3309686725410792	99.65345941464625
16	6.0	perception	357	diff_vonmises	-0.0685731489210695	-3.928952021099357	1.473800941809979	2.043127163648082	0.02089983481347452	3.1832701341137764	0.3583194498931649	-0.45016176136160996	0.8084812112547748	110.04592773489816
17	6.0	wm	357	diff_vonmises	-0.046246313638850005	-2.6497185895444018	0.6441638887443817	154.66664554909246	0.6241407848660372	155.8958948720473	0.25583484236203446	-0.4050152056861567	0.6608500480481911	108.73706931877285
18	7.0	ltm	357	diff_vonmises	0.03951650598274282	2.264129013914631	1.0263901240466957	202.13153020170924	1.0103664435746122	203.60219858688873	0.10626472624728933	-0.3680658740283249	0.47433060027561424	81.83352840048644
19	7.0	perception	357	diff_vonmises	0.03272806252166388	1.8751798541316267	3.4287947768095206	1.2716336795095255	3.046766104003747e-11	2.807563820661574	0.4511834791151518	-0.4458934245894319	0.8970769037045836	74.09366020767266
20	7.0	wm	357	diff_vonmises	0.38499994810649996	22.058872139258156	2.7383806021734918	1.1804482202744055	0.34619454192494803	2.6972514714331766	0.14458067858692658	-0.3695619250116128	0.5141426035985394	71.21860576013955
0	1.0	ltm	358	diff_vonmises	-0.0471610985597346	-2.7021319046732977	2.208242127760511	1.796910347427698	0.4382956621123092	5.503658390023412	-0.3109384551547937	-0.7442908807039602	0.43335242554916653	68.1694307274579
1	1.0	perception	358	diff_vonmises	0.06097499725528655	3.4936099985496982	12.574728758321404	0.9010114240611143	0.10188740231792134	4.353019781934614	0.4957794317820169	-0.7266568082820996	1.2224362400641164	37.57832209817272
2	1.0	wm	358	diff_vonmises	0.00964839299734826	0.5528121978316334	0.6866227394277966	96.20794695860033	0.6497824899156976	100.33539164565455	-0.46064056039943324	-0.7532068368787037	0.29256627647927047	84.3331344349906
3	2.0	ltm	358	diff_vonmises	0.12193196074771773	6.986186738599043	3.4137380147947245	0.5156088714818553	1.9005612622160894e-11	2.081081640833598	0.03201562467604241	-0.3308208377160445	0.3628364623920869	74.25892642345781
4	2.0	perception	358	diff_vonmises	-0.03922927970084235	-2.2476721601964993	7.903996049877766	1.25459919833179	0.25396096347217895	2.6891079190314597	0.840411084870091	-0.45447646458277163	1.2948875494528627	46.67245503194965
5	2.0	wm	358	diff_vonmises	0.04960867963209339	2.8423679701355606	4.479067200779347	0.48123300712526584	0.0799367385099903	2.4479418079244493	-0.027952712920643996	-0.38511774169978896	0.35716502877914497	61.371785113985084
6	3.0	ltm	358	diff_vonmises	0.14378448565475743	8.23824418747693	3.604161104858099	0.36552668720928844	2.425907899572908e-17	1.1584013418087586	0.08101785481076818	-0.18416879813935066	0.26518665295011884	72.2220450962028
7	3.0	perception	358	diff_vonmises	0.05370978831840454	3.0773441891856312	5.7863631074612645	1.5925985495204948	0.15319578704525388	2.2735544142770228	1.0728526461608254	-0.35724597899857347	1.430098625159399	55.346476782189825
8	3.0	wm	358	diff_vonmises	-0.015557929395017022	-0.8914036922969976	4.685575359758137	0.46851094774243257	0.20406033095282666	1.6778461877954636	0.06828948317738065	-0.2664367021947458	0.33472618537212645	58.30315890446596
9	4.0	ltm	358	diff_vonmises	-0.030811621672286134	-1.7653758817758152	0.8036509626544248	123.01076931176296	0.7865285244237578	124.80293584025361	-0.13734213710410614	-0.3522136119449719	0.21487147484086577	83.12727963329428
10	4.0	perception	358	diff_vonmises	-0.010186555692935029	-0.583646648980139	2.8952602527950533	2.183736311157161	0.19590867890304606	3.954170960705534	0.6431553169979001	-0.556053652587102	1.1992089695850021	74.88956616734728
11	4.0	wm	358	diff_vonmises	0.19843099703653044	11.36925865476614	0.742464505017923	184.36535380337108	0.728062734579357	186.69730571134272	-0.16935952683146382	-0.4569679784713436	0.2876084516398798	87.0503634013075
12	5.0	ltm	358	diff_vonmises	0.10236358511825717	5.865001403104298	1.8980371538990226	1.006464052983411	0.06682708981969013	2.778304137636741	0.030806523103425076	-0.4022828932347193	0.43308941633814435	93.53386877125783
13	5.0	perception	358	diff_vonmises	0.06614168580574173	3.789639446549345	2.2334687393865966	2.4290475962292386	0.07807740092144831	4.057547281179077	0.6419121868306052	-0.581901106112665	1.2238132929432703	88.36358316865645
14	5.0	wm	358	diff_vonmises	0.033325144758030924	1.909390146297691	0.45909157094051106	220.27041023517597	0.4463345554585871	222.47027229172292	0.00017692979657368824	-0.543349585427741	0.5435265152243147	121.21811076375212
15	6.0	ltm	358	diff_vonmises	0.43818069417607014	25.10590444040147	0.7929839718559702	84.14756476695491	0.7615538900027831	86.03436544754437	-0.054012888761327815	-0.3992400100953226	0.3452271213339948	88.91268070132418
16	6.0	perception	358	diff_vonmises	-0.01719732899196303	-0.9853343701374521	1.1419278185403943	2.458632296091012	5.527790121331224e-12	4.3024150196071975	0.2209236375666741	-0.5924709217473184	0.8133945593139925	122.89430144663599
17	6.0	wm	358	diff_vonmises	-0.0918475355854526	-5.262476147724074	0.3488367547271638	204.47953731861253	0.3351756822521479	206.59744737207555	0.047151180936047865	-0.5929265044251864	0.6400776853612342	136.66645536984822
18	7.0	ltm	358	diff_vonmises	0.13981468050769277	8.010791107060815	1.1422763837731598	216.1587647820762	1.1255600651208424	218.04343130528298	-0.01484435191188993	-0.43743438749429586	0.42259003558240593	74.22704151140897
19	7.0	perception	358	diff_vonmises	0.11179923520723932	6.405624330165215	2.469844337558802	1.306396234636857	5.058369714923475e-10	2.8629567362672006	0.3087633097460507	-0.45018223921203404	0.7589455489580847	87.51633767716197
20	7.0	wm	358	diff_vonmises	0.28364059846188333	16.251409190430785	0.9166238287058093	200.42756836331307	0.9007740132463268	202.5112009260633	-0.06797838549485391	-0.4451018789888259	0.377123493493972	81.66116692546339
0	1.0	ltm	359	diff_vonmises	-0.08438847506874537	-4.8351034609840795	0.9089212472347593	217.57151410176544	0.8932561055952861	219.92911627649715	-0.10872510809923597	-0.49359540853441786	0.3848703004351819	80.97201688735828
1	1.0	perception	359	diff_vonmises	0.03638113081250077	2.0844852494696497	11.112641780890817	0.7017069987659305	9.307549447054451e-20	2.869275100737339	0.4655725734199624	-0.4566593151674755	0.9222318885874379	40.69190109708023
2	1.0	wm	359	diff_vonmises	0.049364905591819136	2.828400746472994	5.781299422993968	0.32697871152988117	3.0718004117686743e-13	2.807127638900365	-0.14056221842087308	-0.4467653257963586	0.3062031073754855	56.693644678510594
3	2.0	ltm	359	diff_vonmises	0.02137485431161113	1.2246889397623284	3.0402652927052585	0.5850679528780605	2.4563099895753655e-14	2.028057867867844	0.06333042812029177	-0.3218923834772983	0.3852228115975901	78.79824356241372
4	2.0	perception	359	diff_vonmises	-0.031188128409372944	-1.7869481287691311	7.608591592689321	1.1519869091330495	0.12922174619321933	2.563380103542394	0.7830551535945574	-0.41637761295160575	1.199432766546163	48.26993388697829
5	2.0	wm	359	diff_vonmises	0.018220363317739793	1.0439499193014723	4.514866824157752	0.44813727479192095	0.07172694538123033	2.0772024487863803	0.013198144264445433	-0.3263142513309139	0.33951239559535934	61.61040896365819
6	3.0	ltm	359	diff_vonmises	0.1317267252884562	7.547385408107751	2.3082536463641175	0.9421196898443385	0.39982151096762397	1.7335272019166195	0.13408015573911752	-0.21306293381926697	0.34714308955838447	76.2447780774952
7	3.0	perception	359	diff_vonmises	0.048140433831690845	2.7582436824846877	4.886957959913619	1.92734153801954	0.23889177005115386	2.546950967370479	1.1434507484665257	-0.3889940479364454	1.532444796402971	59.39064083723321
8	3.0	wm	359	diff_vonmises	-0.06733457259789885	-3.857986825176847	3.612209089005086	0.5456943506260755	0.1712750887923562	1.6199441897193974	0.09293189863278589	-0.24533001106412103	0.33826190969690695	66.62537265543023
9	4.0	ltm	359	diff_vonmises	-0.10311387421624407	-5.907989801833625	0.7216769775955783	167.59784500980942	0.709854731936634	169.0799411443519	-0.04663298342104838	-0.31180142542737954	0.26516844200633116	92.62462611398554
10	4.0	perception	359	diff_vonmises	-0.032511475199880104	-1.8627703146973744	2.1612834270132093	3.3090573314910263	0.40059023323894627	5.008147760442041	0.6452403295276392	-0.5733691919531775	1.2186095214808166	80.1591730456378
11	4.0	wm	359	diff_vonmises	0.05806708280099026	3.3269987731334325	0.7806038582671544	153.051381010898	0.7658023822417737	154.94842746896666	-0.13104871177843336	-0.37573468284718103	0.24468597106874768	85.25163632503418
12	5.0	ltm	359	diff_vonmises	0.2512747322974739	14.39698165892485	0.8308570068754988	88.25034554397588	0.8006409118429787	89.51210403426141	0.12585829458943465	-0.32785517705043965	0.4537134716398743	92.88417223334591
13	5.0	perception	359	diff_vonmises	0.05015954567243253	2.873930269324077	2.678064079714315	2.019105311961913	3.4990241891586055e-20	3.221500745647818	0.7260688908816646	-0.5068716812165587	1.2329405720982232	84.03597438069059
14	5.0	wm	359	diff_vonmises	-0.03969007557333086	-2.2740738189071394	0.447106145444985	205.214849430392	0.4367723075761143	206.7013674710532	0.04308463325696721	-0.39715724474982395	0.44024187800679115	124.15664636939127
15	6.0	ltm	359	diff_vonmises	-0.316673138202655	-18.144034304175168	0.0001902159252683951	4184.103933335396	4.48514183848007e-29	4185.32304202419	-0.06735280550890366	-0.3206894954124664	0.25333668990356273	177.14048513854334
16	6.0	perception	359	diff_vonmises	-0.18124185996340791	-10.384393647004362	1.6027064494604102	1.6348718615252542	1.2936789008262564e-18	2.8831857922963287	0.2783049910865618	-0.42898431683288146	0.7072893079194433	107.26974341207483
17	6.0	wm	359	diff_vonmises	-0.25963123046343023	-14.87577373534296	0.40513565931051165	137.67629516191045	0.39028560881345425	139.17283783275306	0.036025893543143894	-0.40646778092606617	0.44249367446921006	129.20074576801295
18	7.0	ltm	359	diff_vonmises	0.08217602455627672	4.708339384238069	1.0970643387771584	125.91073163921344	1.0747826559175537	127.18607441931921	0.07233785423881756	-0.31626323232290865	0.3886010865617262	78.6088777924966
19	7.0	perception	359	diff_vonmises	0.012316764710838566	0.7056986351867196	2.40644873120754	1.625778921217345	0.03655727586108837	2.792453287295763	0.47602223277766703	-0.4207242596509568	0.8967464924286238	86.9918765317824
20	7.0	wm	359	diff_vonmises	0.10429676650336415	5.975764537504182	3.3237689601292346	0.4453814675699667	2.4759703875449875e-12	2.046328301020223	-0.016579291935804263	-0.3252822906696929	0.3087029987338886	75.28409661246027
0	1.0	ltm	360	diff_vonmises	0.10765291028804125	6.168057411805243	2.533237246866525	0.8250916432988102	0.15491526735872294	3.813609321343779	-0.21436666004119825	-0.5644740579095979	0.3501073978683997	74.2624863338705
1	1.0	perception	360	diff_vonmises	0.07408549761632256	4.244786336541804	9.669296398368243	0.7779719009331074	0.08677982107631355	3.8022285630892005	0.2931360537671778	-0.6234848540388904	0.9166209078060682	42.74369950262883
2	1.0	wm	360	diff_vonmises	0.1037674433240253	5.945436553329619	3.7740046480041345	0.5058648703376919	0.07466515253919119	3.796152320177812	-0.27337033770185426	-0.5952553829682208	0.3218850452663665	65.11257591503207
3	2.0	ltm	360	diff_vonmises	0.03385833004343355	1.9399394128497396	2.6044063182165162	0.98478964207908	0.2895478571551137	2.3869627973755976	0.09746640098666581	-0.3281791885242425	0.4256455895109083	73.60218111947566
4	2.0	perception	360	diff_vonmises	-0.033623951474029364	-1.9265105100145659	7.384186415455343	1.1801623912284074	0.15067306671878394	2.743397189215113	0.7514417900681493	-0.447371652338461	1.1988134424066104	48.77598365966111
5	2.0	wm	360	diff_vonmises	0.09494737266511442	5.440083729566855	5.831122771155365	0.42196029607120894	0.04677518338855088	2.3011682203171357	0.01331652142448303	-0.36582946268340244	0.37914598410788547	55.02377701547445
6	3.0	ltm	360	diff_vonmises	0.1882066387179476	10.78344607488187	2.2678715808950707	1.0173139180933204	0.27118342167028	2.0253605994130806	0.15086050880629043	-0.2625918125782728	0.4134523213845632	79.78775365665754
7	3.0	perception	360	diff_vonmises	0.031074221867604453	1.7804217646668659	5.359737936123925	1.7394465726659545	0.08559194217167698	2.904594118881755	1.0623497614518036	-0.4540744424593901	1.5164242039111937	57.880865965439995
8	3.0	wm	360	diff_vonmises	0.08935449664612814	5.119635538339012	3.8345959876980715	0.5978456277684863	0.14921886715379895	2.2292195813837443	0.03954672760189021	-0.34388749824072407	0.3834342258426143	64.61591825628571
9	4.0	ltm	360	diff_vonmises	0.26125574873922586	14.96885177628792	0.700358863752227	211.4207438191246	0.6882145649317649	213.55786921564885	-0.11407995344542599	-0.43191447845291364	0.31783452500748766	92.00927825495762
10	4.0	perception	360	diff_vonmises	-0.0488849064000162	-2.8008988186129953	3.0549540585397907	2.021592281788951	0.06283850348181318	4.2491125074929466	0.6183678204434836	-0.641018985104622	1.2593868055481057	76.13435327234555
11	4.0	wm	360	diff_vonmises	0.10021457917859208	5.741872432612943	0.825282081042628	12.414310723755108	0.5971483659621918	15.215973738697853	-0.20302117460001767	-0.5470956276048935	0.3440744530048758	88.88135192481283
12	5.0	ltm	360	diff_vonmises	0.02477614468660476	1.4195685231479325	1.8683127746091581	1.1440655209096302	0.03869253891918472	2.6565514791271063	0.12699416488250542	-0.3931055713548328	0.5200997362373383	97.26974127932951
13	5.0	perception	360	diff_vonmises	-0.001963736877191936	-0.11251383513729799	2.243616796116268	2.1947028472529846	3.640835466152151e-21	3.5317208625641925	0.6510820667491417	-0.5484404237225586	1.1995224904717003	91.77993857162988
14	5.0	wm	360	diff_vonmises	-0.029684086658000215	-1.700772884204009	0.5699744144380782	248.640682462606	0.5588936418477577	250.4356121076316	0.05675220271510284	-0.4460514787122243	0.5028036814273271	109.80469242727578
15	6.0	ltm	360	diff_vonmises	0.28278017513965337	16.20211056547238	0.4457884037587754	175.3641114817611	0.4341897955344217	176.77648033953423	0.045006104426953186	-0.38043699281119814	0.4254430972381513	124.20737226548658
16	6.0	perception	360	diff_vonmises	-0.03177177655328387	-1.8203887041358713	1.361790090295275	2.1125385599800235	8.424200234226489e-19	3.5902269001004634	0.29185070091845344	-0.5147382450402133	0.8065889459586667	114.94559107892236
17	6.0	wm	360	diff_vonmises	0.08705062434684044	4.987633379052726	0.5617379359785157	255.82980166857905	0.550409471297035	257.5492481289543	0.10538992481174603	-0.45762110537397405	0.5630110301857201	112.14840751171334
18	7.0	ltm	360	diff_vonmises	0.011061315034663233	0.6337666673508071	0.9435589003080284	205.39927915271775	0.9239376379264833	207.80161731656838	-0.02010043539407036	-0.533105876649838	0.5130054412557676	82.07794328518338
19	7.0	perception	360	diff_vonmises	0.06940574722921541	3.976656390185851	1.4022157733276936	4.808137492625395	0.4450344854110924	6.85731612248675	0.37775062428150585	-0.5890710843307005	0.9668217086122064	91.07758487086372
20	7.0	wm	360	diff_vonmises	0.24252863311238504	13.89586708841645	3.252429584218638	0.9283614872301814	0.1911001722690748	3.4621552462456995	-0.024507980838176402	-0.5225044670597003	0.4979964862215239	67.76307225344186
0	1.0	ltm	361	diff_vonmises	-0.043955397823548514	-2.5184587821078543	1.3559650340195015	40.55201755900404	1.3149596073555236	40.91036407993226	0.156940175772732	-0.13617715534232833	0.29311733111506033	76.0545239474302
1	1.0	perception	361	diff_vonmises	0.02687644548743316	1.5399068947433465	13.463476876323796	0.5510615057615104	3.7856373567946927e-17	0.958235118620936	0.6460477309847121	-0.1525078557711546	0.7985555867558667	36.942740603077624
2	1.0	wm	361	diff_vonmises	0.10371059682121828	5.942179488638699	3.551806993993507	0.3192194817665986	5.747254709844106e-17	0.7455735925130987	0.11123552868826113	-0.11847271694740356	0.2297082456356647	72.76642106407363
3	2.0	ltm	361	diff_vonmises	0.03570411325998268	2.0456950010540864	4.275490014275541	0.4831690047400237	0.7827062988011513	0.4863853649224592	0.2391044235146335	-0.06563906258700722	0.3047434861016407	59.70989025402403
4	2.0	perception	361	diff_vonmises	-0.02010005293465633	-1.1516482011453524	8.599854495154194	0.8964363672207089	1.8019302463855155e-20	0.8670709833363631	0.8945892978973462	-0.13799859799772737	1.0325878958950736	46.3260603226357
5	2.0	wm	361	diff_vonmises	0.05799853770871646	3.323071428639809	7.744412183253763	0.27372331504478725	0.4146250625442562	0.4901262210697597	0.18545340497652701	-0.08591450325223046	0.27136790822875745	46.51258306265717
6	3.0	ltm	361	diff_vonmises	0.2113970076308827	12.112156338944438	1.8811057709022285	68.99016041337859	1.8626962304230636	68.93341166274537	0.23224902368716016	-0.061957592915840465	0.2942066166030006	69.768785271394
7	3.0	perception	361	diff_vonmises	0.013426894066215745	0.7693043619634107	6.0308916151683825	1.300240552529564	0.28073742064854795	1.3271171122337417	0.9707601338037724	-0.20908357107253192	1.1798437048763042	53.89744395607144
8	3.0	wm	361	diff_vonmises	0.08337919253775149	4.777275831621848	4.370398690796743	0.7172162061718141	1.118722236135731	0.9287511765228447	0.24048583465419127	-0.13083855196573624	0.3713243866199275	55.07147315478733
9	4.0	ltm	361	diff_vonmises	-0.11226964863607947	-6.432577034264033	2.0162832944773235	118.91712310580455	1.9994579313992122	119.29466257673415	0.116592918751941	-0.15145431782325858	0.2680472365751996	60.13970199037098
10	4.0	perception	361	diff_vonmises	-0.09127555928557947	-5.229704319759835	3.243327693238104	1.6384641185245916	0.006328917548894634	2.2151078930282466	0.7667783651856851	-0.348608759163216	1.115387124348901	76.0577507533124
11	4.0	wm	361	diff_vonmises	-0.07027206909855865	-4.026292976999103	1.499398904014733	143.22915209735777	1.4811511031015676	144.19130462773992	0.04455843565622075	-0.26337311202743763	0.3079315476836584	66.26667293895966
12	5.0	ltm	361	diff_vonmises	0.07224794365384886	4.1395022498645195	1.7985820203727456	0.8781763211694872	6.735778753494944e-10	0.992437994631227	0.26682901561852634	-0.14631174331081298	0.4131407589293393	101.93795423051003
13	5.0	perception	361	diff_vonmises	-0.005129000770525932	-0.29387009727048313	3.601829871806363	1.2845744115044726	1.2598929012186642e-21	1.313428786682486	0.72325100403906	-0.20834512648807316	0.9315961305271331	72.24909585496519
14	5.0	wm	361	diff_vonmises	-0.03728006372307341	-2.135990311310873	0.6083690756862425	98.78465030270453	0.5957885226180537	98.90595730261253	0.20314828007954588	-0.1374593098769772	0.34060758995652307	117.5426486054842
15	6.0	ltm	361	diff_vonmises	0.21381636517828592	12.250775315543763	0.8937711214842928	59.070065510641214	0.877272424279469	59.13913423807033	0.16374239739744567	-0.08144192725031019	0.24518432464775586	98.26627216663408
16	6.0	perception	361	diff_vonmises	-0.13547985729395873	-7.762424031978517	2.0445392476831232	1.395910699561069	0.01739878436681259	1.5884914138936805	0.4725249030455095	-0.23620954980847683	0.7087344528539863	95.39114032231446
17	6.0	wm	361	diff_vonmises	-0.11548603079795271	-6.616862157440533	0.8619274471501268	64.91248731257248	0.8270355863235472	65.19084332608564	0.3462575811751485	-0.2042594654543679	0.5505170466295164	99.47231030526493
18	7.0	ltm	361	diff_vonmises	0.030627547092375456	1.7548291852312896	1.0120099702160004	127.21305492737048	0.9953688947538706	127.64328434918515	0.2536987311368364	-0.18740676210768648	0.44110549324452286	89.27654512416953
19	7.0	perception	361	diff_vonmises	-0.011307161065723985	-0.6478526073406303	3.6756290746751508	1.2397603184784123	1.025430408088764e-18	2.1207748331337597	0.5723617263791088	-0.3369477613306383	0.9093094877097471	71.50173149383426
20	7.0	wm	361	diff_vonmises	0.3590262872042937	20.57069099105778	5.930685288030951	0.5008310451735737	3.182838935165244e-18	0.991370375973863	0.317509718628834	-0.1577781401215341	0.47528785875036805	55.96688245299174
0	1.0	ltm	362	diff_vonmises	0.1754004808830716	10.049707279165082	1.9955463005716458	0.6971058343727661	2.6588686814751383e-22	2.560011030577493	-0.04829627411126347	-0.4008016283848594	0.3525053542735959	97.07131787750083
1	1.0	perception	362	diff_vonmises	0.03321158083366721	1.9028834127267071	9.014882133095716	0.6025605421929771	5.036417372548036e-17	2.624048973736306	0.2935532597368659	-0.4176303545713992	0.711183614308265	45.234218638752424
2	1.0	wm	362	diff_vonmises	0.11602718309411265	6.647867900084312	4.696514800107355	0.3940888643103865	1.4599588092340227e-18	2.4125107337058176	-0.053513614403533194	-0.38393547632126707	0.3304218619177339	63.051823036740956
3	2.0	ltm	362	diff_vonmises	0.005317337515749598	0.30466099789902984	2.656551103615275	0.9588749151347045	0.2762485846341077	2.1230949091561113	0.14849709693077312	-0.2910717083292151	0.4395688052599882	74.20684894790742
4	2.0	perception	362	diff_vonmises	-0.03485905886645442	-1.9972769508459298	7.236215723838617	1.049474647465692	0.021612115027363158	2.4120573447145173	0.7131662890130611	-0.38311807302830475	1.0962843620413658	50.31620283345609
5	2.0	wm	362	diff_vonmises	0.07076330531029322	4.054438738675488	5.803737113447795	0.4281676980888695	0.042589518691720486	1.9445722414302224	0.07898782786827957	-0.3085054859947852	0.3874933138630648	55.42902740098717
6	3.0	ltm	362	diff_vonmises	0.20196367605808727	11.571666253075751	1.058512750620998	142.04017058317882	1.038226393676418	142.9499300933615	0.2251244121707643	-0.2819750803551315	0.5070994925258958	84.3299820059139
7	3.0	perception	362	diff_vonmises	0.006692089288526446	0.3834284723572712	4.717275606594428	1.9455678098927138	0.12128523379696746	3.144915568552797	1.0722252259138383	-0.48419186561562083	1.556417091529459	61.21713467698095
8	3.0	wm	362	diff_vonmises	0.058250015135090795	3.33748002381387	2.6278321820757427	0.9978274790915946	0.27659991078295854	2.4999922402681127	0.09069511796061636	-0.3467360534365741	0.43743117139719045	73.48778869083912
9	4.0	ltm	362	diff_vonmises	0.21537176437300803	12.339893124859387	0.7345814574535146	203.60975419238994	0.7213539529274601	205.3868465760282	0.0009330382795411651	-0.39592241897862124	0.3968554572581624	94.13774323701406
10	4.0	perception	362	diff_vonmises	-0.0672851632168184	-3.855155876172584	2.5979234060255783	2.360042534247048	0.10630522659952599	4.4646674402496345	0.6345178640109774	-0.6430411302571165	1.277558994268094	80.94932738890583
11	4.0	wm	362	diff_vonmises	-0.018640220306189732	-1.0680059527387267	0.8531069812464359	183.5033202416347	0.8348788966346014	186.01710946438615	-0.1416765878351569	-0.5132621760144112	0.37158558817925424	82.82042733528456
12	5.0	ltm	362	diff_vonmises	0.07158758278252461	4.101666358982058	1.6351431257346671	1.4314326956836354	0.12488456217405139	2.4148720619882704	0.21961436323461175	-0.31309321389608974	0.5327075771307015	98.96773336021116
13	5.0	perception	362	diff_vonmises	-0.025868600713520044	-1.4821616427938085	2.1908234904338166	2.065165747010282	1.1979098910299808e-15	2.889790003366412	0.6654281778438345	-0.4458499317534864	1.111278109597321	92.85838662348851
14	5.0	wm	362	diff_vonmises	-0.0691352904162751	-3.9611603562638114	0.6338795629097327	185.51249866815044	0.6217338470166914	186.65236610826204	0.12013242760496468	-0.31709284165848217	0.43722526926344685	106.76938651820063
15	6.0	ltm	362	diff_vonmises	0.28174552344304726	16.1428293899908	0.37177614827049354	138.94496586827375	0.3610616454333224	139.69857675556906	0.10440634894894885	-0.2684313263197229	0.37283767526867173	135.35816414816836
16	6.0	perception	362	diff_vonmises	-0.09742363301960753	-5.581962996854879	1.824202198664289	1.5087109303340516	4.753967793739856e-20	2.429407890170818	0.34939551003383684	-0.3674891515664246	0.7168846616002614	101.27831821479049
17	6.0	wm	362	diff_vonmises	0.07141419369217882	4.091731895891632	0.6604399546238757	185.78648302824422	0.6482643112645675	186.92888709676822	0.11623212640389369	-0.31164691116813614	0.42787903757202983	104.34935171066823
18	7.0	ltm	362	diff_vonmises	-0.057512404391750295	-3.2952180412969523	0.9462689719673063	120.89508643275542	0.9150795545065076	122.7787942654745	0.1036067047857614	-0.4568203201916319	0.5604270249773933	85.18892449613878
19	7.0	perception	362	diff_vonmises	0.030528769905019744	1.7491696692836345	1.4968379689063065	4.197771989811612	0.3708442133929669	5.922638634806664	0.49589718647797	-0.5646048686842526	1.0605020551622226	92.67336683526003
20	7.0	wm	362	diff_vonmises	0.1926836023941449	11.039957198561346	11.646270667147158	0.45775798583906746	3.808214680201984e-18	2.51001124422769	0.21676788027858723	-0.39948069668787606	0.6162485769664633	39.73650300192551
0	1.0	ltm	363	diff_vonmises	0.030553902697767556	1.7506096722354612	2.138901602946173	1.4154384088092637	0.47428296465080133	2.7564392152520747	0.09344008587619879	-0.32551566946287397	0.41895575533907276	75.0300391944574
1	1.0	perception	363	diff_vonmises	0.006245535834362338	0.35784284410667916	9.885808649636392	0.7018395454505977	0.0064776399583987955	2.0698100588803263	0.5369344032486781	-0.3295435970847147	0.8664780003333928	43.11253704441276
2	1.0	wm	363	diff_vonmises	0.15900344534712726	9.110226346429439	3.0286672426905716	0.5164564649416127	2.2119106317353747e-13	1.902892973547718	0.03723770983215552	-0.30205878267389	0.33929649250604554	78.94518905449021
3	2.0	ltm	363	diff_vonmises	0.06546721004201853	3.7509948319041424	4.578843781223205	0.5923554654401524	0.344520490985237	1.2212586240877987	0.22364823964848568	-0.1899017812135208	0.4135500208620065	58.81112527731895
4	2.0	perception	363	diff_vonmises	-0.04864581314288108	-2.7871997840691165	7.546408516862226	1.05834747156956	3.13108187396858e-20	1.4901421730590925	0.9021153746156794	-0.23716317510261142	1.139278549718291	49.50277742370699
5	2.0	wm	363	diff_vonmises	0.0006477459482786339	0.037113109033065035	5.874836609071799	0.4439067517720947	0.09555843946631924	1.2307787594316213	0.2042108033182173	-0.19544159640095812	0.39965239971917543	54.756407594137784
6	3.0	ltm	363	diff_vonmises	0.19304632460672966	11.060739650478101	3.7176344596958413	0.4674180668022539	0.02261893827617968	0.7801148546299538	0.2182481812450425	-0.12158300015106611	0.33983118139610863	70.446981941974
7	3.0	perception	363	diff_vonmises	0.026608007815002672	1.5245265490507645	5.779936715137281	1.429022757506799	2.3879792256388258e-17	1.7270942266628078	1.062964649645617	-0.27486281344766295	1.33782746309328	56.706456154874644
8	3.0	wm	363	diff_vonmises	-0.024715930666957823	-1.416118513954645	3.0165294699015996	1.078074120379821	0.5840293736867576	1.6089805133798072	0.2858424140729817	-0.20285347186054278	0.48869588593352453	67.83505052387491
9	4.0	ltm	363	diff_vonmises	-0.08282481700406684	-4.7455124532764055	1.2065311622969919	54.342553434008835	1.1726621386625093	55.084447035214595	0.06297047868819661	-0.19418754605289923	0.25715802474109584	75.76153473221359
10	4.0	perception	363	diff_vonmises	-0.07547573310090928	-4.324440962337947	2.974708373966104	2.034296491018184	4.444621108833622e-19	3.291090219336852	0.8021022517769032	-0.5203358587501518	1.322438110527055	79.6793868715489
11	4.0	wm	363	diff_vonmises	-0.02705473762382764	-1.5501222816791214	1.2436637455204531	211.17268133482818	1.2279721391988638	212.73215352122182	0.009419029207521135	-0.378429577439384	0.3878486066469051	71.62165528094621
12	5.0	ltm	363	diff_vonmises	0.13314316812947338	7.6285416048195565	1.637504717959038	1.0053771985313846	3.773299678329204e-20	1.4407277189651415	0.22999872795602336	-0.21192870674863512	0.44192743470465845	106.29532877324391
13	5.0	perception	363	diff_vonmises	-0.008658162358935713	-0.49607616150604933	2.270077777296456	1.9447866451454217	1.355774488301881e-19	1.995192246159054	0.7649371016195534	-0.30599077105617517	1.0709278726757285	91.25975862282792
14	5.0	wm	363	diff_vonmises	0.06556195481133477	3.7564233073169038	0.710306191726222	124.22377555468299	0.694267274697999	124.61675118500092	0.2683948380001837	-0.21387200315763444	0.48226684115781815	107.4166564659414
15	6.0	ltm	363	diff_vonmises	0.4939516584128324	28.301345310543	0.811015969385059	121.30703799408494	0.8010804554248346	121.47291146425785	0.17974892732638637	-0.11312428112156425	0.2928732084479506	101.48068004758545
16	6.0	perception	363	diff_vonmises	-0.07681953060084583	-4.401434887604543	1.7142674813936924	1.70753515840104	2.627757225555114e-10	1.7758662548122022	0.5194915362174357	-0.2566190975224424	0.7761106337398781	104.19305698375773
17	6.0	wm	363	diff_vonmises	0.0007295494879145521	0.04180010660343429	0.7177267328741826	140.20992370814102	0.703024623820768	140.64795907560196	0.26817349159198756	-0.22201349057807995	0.4901869821700675	106.46623849335093
18	7.0	ltm	363	diff_vonmises	0.0033972363376731066	0.1946473041571496	2.507815312277738	1.188086931750406	0.5015591809866313	2.03671174545242	0.19836022322513458	-0.24770887475896813	0.4460690979841027	72.46183780305446
19	7.0	perception	363	diff_vonmises	0.05419972137998248	3.1054152858579704	2.5838346131241092	1.645527698980045	0.07813759037989995	2.49066897523574	0.5607676206778476	-0.3625352461008995	0.9233028667787471	82.74923014356196
20	7.0	wm	363	diff_vonmises	-0.10742073276664636	-6.1547546197315075	0.19765988710181553	6.235608830862261	7.025223400215638e-13	7.174404743657739	0.055752221094743426	-0.3353034592425036	0.391055680337247	168.46303272132735
0	1.0	ltm	364	diff_vonmises	0.06008559780314932	3.442651163640987	0.9635714217477241	69.56494084125191	0.9326464130003443	70.52835675928587	0.09166601641172889	-0.2471650805936667	0.3388310970053956	85.69800105333437
1	1.0	perception	364	diff_vonmises	0.07154429370823923	4.099186077726477	9.182634869130982	0.5043082224669871	1.927542561361983e-21	1.7047727307705356	0.3295812203364779	-0.2713230005988177	0.6009042209352956	44.81404706362045
2	1.0	wm	364	diff_vonmises	0.11898810217183467	6.817516066717551	5.9987526421595465	0.2924273423500146	3.403823287164823e-20	1.3079721071953945	0.07105376208302658	-0.20816850628502495	0.27922226836805153	55.63460127361304
3	2.0	ltm	364	diff_vonmises	-0.09301622360409738	-5.329437038759927	1.4796211686126866	37.11110053373624	1.412638579161076	37.50657284234794	0.27443152373447965	-0.18511828258387064	0.4595498063183503	74.25425463916585
4	2.0	perception	364	diff_vonmises	-0.023816335640302503	-1.3645755156563366	7.001400013763192	0.963701269040368	2.0068772813079145e-23	1.58574434921171	0.7452423888402699	-0.25237822419119044	0.9976206130314604	51.428570640480814
5	2.0	wm	364	diff_vonmises	0.07974268544287162	4.568919322915852	6.455132266464995	0.3511539562403056	0.22564448589466846	1.0868554612558348	0.13436648484963812	-0.17972177498681466	0.3140882598364528	50.79439322994389
6	3.0	ltm	364	diff_vonmises	0.1509697484927286	8.64992942278487	1.404845367756151	161.49487429408387	1.3899649944546033	161.74828015948071	0.3242635059455097	-0.16687068656009174	0.4911341925056014	77.10910541544408
7	3.0	perception	364	diff_vonmises	0.016252609727831078	0.9312059434779864	4.866224974395566	1.6787620472955829	0.19709628347025013	2.229106664931451	1.0068930918751027	-0.34073954536225837	1.347632637237361	59.855488172846805
8	3.0	wm	364	diff_vonmises	0.15532829810621138	8.89965592043581	3.5241195214616563	0.7152105835870516	0.3744585646068998	1.41343240430497	0.19689252200247992	-0.20420809079136631	0.40110061279384623	65.23650705204224
9	4.0	ltm	364	diff_vonmises	0.07289817600877475	4.176757819504626	1.110647321627117	140.7395842204975	1.0955884884983733	141.6131436046965	0.08241843605630805	-0.22743124158040118	0.30984967763670923	79.10182900511816
10	4.0	perception	364	diff_vonmises	-0.12447175555476993	-7.131706261872377	2.938309453959271	2.029397211382146	0.0520246816467225	3.2143722013521145	0.7749435887835858	-0.4840623583515826	1.2590059471351684	78.42941458941493
11	4.0	wm	364	diff_vonmises	-0.10305518064477324	-5.904626907903797	1.2158134041648978	197.0755596867634	1.198991979622238	198.6059672536591	0.03174121437214694	-0.37430936493981193	0.40605057931195887	73.08162461848275
12	5.0	ltm	364	diff_vonmises	-0.007308745518147996	-0.4187602717250362	1.4487781025434676	1.5308419668277065	0.158069066378797	2.0264073454741216	0.27388183501729674	-0.23783226279317154	0.5117140978104683	104.23521301392715
13	5.0	perception	364	diff_vonmises	-0.050259846197908	-2.8796770661167654	2.7507959197146645	1.6983644284655233	1.3071007234774954e-19	2.0236782827132043	0.7362363913256857	-0.3177601382384328	1.0539965295641185	82.90818643039114
14	5.0	wm	364	diff_vonmises	-0.12207403905811517	-6.994327226145167	0.6694932498234564	121.79380894155534	0.6564643660037047	122.2869158789722	0.1656282168431602	-0.1909048833701199	0.3565331002132801	108.11547426943807
15	6.0	ltm	364	diff_vonmises	0.2320836090492122	13.297411292684059	0.5836973859685793	111.19912632018455	0.5720076864661406	111.59109759480957	0.14344528667751533	-0.1691441893802761	0.3125894760577914	116.04564483319223
16	6.0	perception	364	diff_vonmises	-0.18012015423766226	-10.320124643063478	1.8844095677861392	1.5845939941609994	5.04255071731738e-14	2.040431921737798	0.463742190274859	-0.3065460268841497	0.7702882171590087	99.72606086798037
17	6.0	wm	364	diff_vonmises	-0.057357564461214434	-3.2863463667771486	0.9116808887518641	101.817325018942	0.8878768735596525	102.3939462038673	0.2768386003399783	-0.23339787142414004	0.5102364717641183	93.71793800035994
18	7.0	ltm	364	diff_vonmises	-0.07931494181578594	-4.544411418370224	0.9429331428657256	161.19881988522363	0.9233586250723292	162.28991600431107	0.24286593685935998	-0.3303763443151375	0.5732422811744975	89.22775962216667
19	7.0	perception	364	diff_vonmises	-0.04103046203639428	-2.3508723061571413	2.5257162909411526	2.6546919657267973	0.31318875528115636	4.018691944835683	0.7201709590005839	-0.51039372324168	1.2305646822422638	77.5876746279547
20	7.0	wm	364	diff_vonmises	0.2653184354278897	15.201626577032338	11.307403660863248	0.5978321698452644	9.417299216925178e-27	1.6627206045029732	0.5280612806666195	-0.2646302030678069	0.7926914837344263	40.3361732367612
0	1.0	ltm	365	diff_vonmises	0.691288743542952	39.60792742991269	0.00020603399872813624	3324.9744195933426	8.931139389899141e-33	3326.462292874026	-0.12776899370999217	-0.34582454999429046	0.2180555562842983	166.16019934405728
1	1.0	perception	365	diff_vonmises	0.03693363207555254	2.1161412400181634	9.242862398128906	0.7691114086089386	0.05973518620883187	2.278380349826137	0.5349230545881072	-0.3676887195629403	0.9026117741510475	44.184023517179014
2	1.0	wm	365	diff_vonmises	0.013952872311626757	0.7994406955411579	4.414938090015098	0.3189670988784682	1.5198997269610492e-15	2.0879553367156247	-0.07358170341439768	-0.33227055997181887	0.2586888565574212	65.08068614849043
3	2.0	ltm	365	diff_vonmises	0.22492290395055317	12.887133112193087	4.56874965298073	0.4385864548595066	0.16705122072542358	1.4636300112993634	0.08899835277673801	-0.22983498997543814	0.3188333427521761	59.88610646135879
4	2.0	perception	365	diff_vonmises	-0.014568444476667965	-0.8347103825837497	9.013375944859135	1.0658602916142552	0.07110400932507266	2.022692450854297	0.9126544679318433	-0.3261774621362034	1.2388319300680468	44.83627854267138
5	2.0	wm	365	diff_vonmises	0.09735207790141102	5.57786319057966	7.157064006659408	0.31907461104507734	1.672256923617397e-11	1.5948867153326385	0.0802595305640667	-0.253833901415309	0.3340934319793757	50.85723474656976
6	3.0	ltm	365	diff_vonmises	0.30571360432035577	17.516099267288794	4.264893458249756	0.49565272801347265	0.303654258084553	1.006686718617042	0.18240402371605416	-0.1534344820390402	0.33583850575509433	61.21107394278829
7	3.0	perception	365	diff_vonmises	0.013267889867216128	0.7601940924358744	6.590042118633265	1.5122267025314513	0.07056239317298642	2.161706774513882	1.1481266729823352	-0.3420351717119522	1.4901618446942875	52.48654261344092
8	3.0	wm	365	diff_vonmises	0.001037171338167367	0.05942554030892601	7.112753542983571	0.4281208041254856	0.3060409879295788	1.4107173212645427	0.1490162906942029	-0.2429944686622489	0.3920107593564518	47.7433684538191
9	4.0	ltm	365	diff_vonmises	0.1208887978125651	6.926417905070319	1.1319606410730971	170.02705299712144	1.11776331252404	171.3078520641882	-0.01546967398117971	-0.29512326258226906	0.27965358860108935	74.3226659506567
10	4.0	perception	365	diff_vonmises	-0.030897436333307545	-1.7702926996726878	3.7210307766957778	1.6069830649078287	1.1807912955532295e-16	3.392380581426608	0.6475558775655265	-0.5392181494074276	1.186774026972954	71.05076168623685
11	4.0	wm	365	diff_vonmises	-0.050106453148794	-2.8708882917958904	1.0468985475046924	172.94966445017843	1.031302099656846	174.9121496128037	-0.17379000613556173	-0.40569872454747014	0.2319087184119084	71.56244243144886
12	5.0	ltm	365	diff_vonmises	0.17458188739271543	10.00280532703079	1.8000858820820265	1.0116309315114103	0.1071837278293084	1.7686334072559706	0.17714906567270688	-0.2388797511691198	0.4160288168418267	95.72648361387638
13	5.0	perception	365	diff_vonmises	0.0065305920982563935	0.374175364951576	3.0116955559540903	1.6025099685631026	3.187101546568671e-22	2.2241684400244828	0.6978510149281445	-0.3514401062302592	1.0492911211584037	79.18017019716311
14	5.0	wm	365	diff_vonmises	0.04854648978111309	2.7815089746327595	1.051587041963657	2.0459283300025395	0.22402322453159598	3.038397780167452	0.12154709325935453	-0.2939450603008724	0.41549215356022695	110.91102781728266
15	6.0	ltm	365	diff_vonmises	0.21668510041725914	12.415141737277382	0.5102981853548514	110.22216021566683	0.4976578012397698	110.7818782370117	0.12269366076631627	-0.20753906689204626	0.33023272765836253	121.67823509351425
16	6.0	perception	365	diff_vonmises	-0.06283740463463938	-3.6003180811206352	2.0348802967415396	1.2244676302196684	3.628686512843652e-15	1.9586138525075372	0.3265614143683512	-0.3008191544637556	0.6273805688321068	96.2228712713744
17	6.0	wm	365	diff_vonmises	0.049441247250460375	2.8327748013141654	0.5287756476593187	169.07746746124656	0.5173515423508036	170.0616344902696	0.11622301682324121	-0.3008711112240814	0.4170941280473226	117.79044399043337
18	7.0	ltm	365	diff_vonmises	0.14869438033370339	8.519560430434273	0.8316328556548032	128.27256214293502	0.8116420736498025	129.55903746464645	0.09607035727110969	-0.3214811544801126	0.4175515117512223	91.70836814775933
19	7.0	perception	365	diff_vonmises	0.04213896328724202	2.4143847494156896	2.005401620628438	1.6847772949583995	8.438930881032515e-15	3.006071242693941	0.39209324532729795	-0.46265655550162604	0.854749800828924	96.89365816098257
20	7.0	wm	365	diff_vonmises	0.18993323996423012	10.882373039195885	4.3970815866254425	0.38389590836563753	1.371371084663733e-22	1.8414532664062493	0.017641753209940103	-0.2930292792769492	0.3106710324868893	65.21475062625484
0	1.0	ltm	366	diff_vonmises	0.011522621467978857	0.6601975790420256	0.9108398190282083	252.6616537597771	0.8957513362387252	255.71381299951375	-0.25658529271198915	-0.6088410605969798	0.3522557678849907	77.10550291677293
1	1.0	perception	366	diff_vonmises	0.09895735572849865	5.669838835017712	10.736938944692897	0.7197358619313069	0.019621072548287127	3.5682228334481816	0.3501418886967915	-0.5709104765823215	0.921052365279113	41.189795007761205
2	1.0	wm	366	diff_vonmises	0.05074638266691134	2.9075535523698544	5.174205169973205	0.3957036431792567	0.10451178326779333	3.6089841873475703	-0.2864898961814518	-0.582061633140375	0.29557173695892314	55.149418825282396
3	2.0	ltm	366	diff_vonmises	-0.012118626888143143	-0.6943461741843605	2.475665875425088	1.044379429677939	0.28776303140622184	2.543939040816115	0.08308906690620466	-0.3454801882429826	0.42856925514918726	74.94212126351366
4	2.0	perception	366	diff_vonmises	-0.017551859492027273	-1.0056474714997956	7.407696518338181	1.2488462132918128	0.18880088936549286	2.9189864630708575	0.7753742797634395	-0.4812512874392472	1.2566255672026867	48.4233989469416
5	2.0	wm	366	diff_vonmises	0.11092168672764247	6.355344505966192	5.821112932743253	0.3702334360584347	0.06333399370717525	2.234248168575369	-0.030521909019725624	-0.3565128128871283	0.3259909038674027	54.52288699632524
6	3.0	ltm	366	diff_vonmises	0.16081411886946256	9.213970297335338	2.579499101837461	0.9132371339561928	0.4131497204016678	1.7587302324745744	0.1425728123277369	-0.22680575568499584	0.3693785680127327	72.61505786183997
7	3.0	perception	366	diff_vonmises	0.05852805509069781	3.3534105398061573	5.195114739110585	1.8086779496984946	0.18305479269808841	2.6674585373936184	1.0949186979070593	-0.41386260814935344	1.5087813060564128	57.993904603868486
8	3.0	wm	366	diff_vonmises	0.07047983329094208	4.038196988356617	3.449937242983077	0.45122792255879124	0.14497077132422553	1.7297014772677175	0.0031793888149658223	-0.2637888599620099	0.2669682487769757	67.55492511268685
9	4.0	ltm	366	diff_vonmises	0.2669256830205795	15.293715080726026	0.5773159241095888	196.92800194968643	0.5677691514141184	198.82358474388508	-0.1370329212018433	-0.3706836944309799	0.23365077322913663	99.40142535605634
10	4.0	perception	366	diff_vonmises	-0.05102575867941285	-2.923560618783385	3.0147520964866925	2.1477212975102993	0.16836554484741403	4.199577276483694	0.6252313278113314	-0.6038852023761752	1.2291165301875067	73.900024884808
11	4.0	wm	366	diff_vonmises	0.05229163862715822	2.9960901971594365	1.2815775620986447	1.6835156459071228	0.3206587518489907	3.955084708757245	-0.18206577271676172	-0.43295049927912177	0.25088472656236005	86.93886764377243
12	5.0	ltm	366	diff_vonmises	0.10555397288950492	6.047797157406944	1.4054112272586181	2.180572257479972	0.33382279122953273	3.8718433093713704	0.07113976240759612	-0.39756314553461236	0.4687029079422085	91.61637594476795
13	5.0	perception	366	diff_vonmises	0.016365478077768048	0.9376728235699804	2.7082583275635224	2.14184523438196	0.007181543455915338	3.735902320284728	0.7238127926276922	-0.5844488132631535	1.3082616058908456	83.26002940818367
14	5.0	wm	366	diff_vonmises	-0.036535741988909	-2.093343817343394	0.4787794093605088	244.01491216807412	0.4688092372268304	245.92534107691094	-0.007495228891677641	-0.46090187093017576	0.4534066420384981	118.2183638377937
15	6.0	ltm	366	diff_vonmises	-0.23210852130076193	-13.298838659556028	0.0008728757811890087	1240.6644853999876	9.27284763110821e-19	1242.399514868115	-0.10374705610817614	-0.44845475773888666	0.3447077016307105	178.4155381213498
16	6.0	perception	366	diff_vonmises	-0.15626075317357968	-8.953081660381601	1.281642863653238	2.1549347171076394	1.8061375132866157e-21	3.7816230595733917	0.24744506073063577	-0.5364237023163076	0.7838687630469434	117.60948400373071
17	6.0	wm	366	diff_vonmises	-0.09390518838062165	-5.380370968590558	0.5120343007744564	179.76042925257659	0.4968980933275433	181.5715060307495	0.06306544304160866	-0.47069282448167016	0.5337582675232788	116.78241276454334
18	7.0	ltm	366	diff_vonmises	0.09256044944303413	5.303323102919887	0.9318020502746216	204.69733945848378	0.9155935005160105	206.67675798931418	-0.013575113133413197	-0.4395028801095542	0.425927766976141	82.62928114852772
19	7.0	perception	366	diff_vonmises	-0.017589075461860063	-1.0077797895017009	0.9907560370282708	152.04559910747918	0.9538681315713013	153.85532131850246	0.46080589609921674	-0.5672250477834488	1.0280309438826656	87.81630234946175
20	7.0	wm	366	diff_vonmises	0.30450962682631927	17.44711643825177	2.7593924276874042	1.1395183860815565	0.3423637056447073	3.309412030404719	-0.009171318150087648	-0.4704269987231838	0.4612556805730961	68.8486001414339
0	1.0	ltm	367	diff_vonmises	-0.15116870874341676	-8.661329005440166	0.9395554507171813	141.67554245453485	0.909451011530935	145.22748004288107	-0.3414498403190436	-0.70328755147181	0.3618377111527664	74.71882639249489
1	1.0	perception	367	diff_vonmises	0.05591301085411373	3.203579541809879	14.812889693119663	0.8372188254840395	0.06619199982174052	4.103571344403353	0.5771450210060992	-0.6754361712888898	1.252581192294989	34.85252929581662
2	1.0	wm	367	diff_vonmises	-0.055641931335656036	-3.1880478294898142	0.6819860003284766	141.73081458479197	0.6573839578206127	145.89066725945375	-0.4864097917682173	-0.7538293447274427	0.26741955295922537	82.87954149814195
3	2.0	ltm	367	diff_vonmises	0.5689313309546711	32.5973640964633	0.0006656494206756385	1518.2853890276117	1.945141449584114e-30	1519.9590786897134	-0.10550392268405062	-0.4271945138444835	0.32169059116043286	170.38635728252524
4	2.0	perception	367	diff_vonmises	-0.030961382735243962	-1.7739565586186918	8.058691927797106	1.2855989488372987	0.31517154553046894	2.876829839861654	0.8196522896510108	-0.49802342186098075	1.3176757115119915	45.83854176974117
5	2.0	wm	367	diff_vonmises	0.07736104314737725	4.4324612710741755	4.641104099201811	0.3959760918332751	0.03846936746547699	2.518723461968181	-0.08652425365852096	-0.3975389205234468	0.31101466686492585	61.40523036783787
6	3.0	ltm	367	diff_vonmises	0.1444417875546464	8.275904812206498	3.5719724012914225	0.3490474011276145	0.04300337800220958	1.16607301634017	0.05850797976585073	-0.18070651541456292	0.23921449518041366	70.48543579851918
7	3.0	perception	367	diff_vonmises	0.05183270263825027	2.969795101928348	5.481383675477144	1.760453186532827	0.29349982596896007	2.4466895211775106	1.0917532274104682	-0.38427511369700385	1.476028341107472	55.79450597338001
8	3.0	wm	367	diff_vonmises	-0.054989944095685896	-3.1506917123431424	5.370990405817422	0.37577214976014295	0.22151377141561818	1.6636927165736035	0.012048346009663036	-0.27242780338663913	0.28447614939630217	54.01309533808538
9	4.0	ltm	367	diff_vonmises	-0.06344643257946844	-3.635212811964867	0.9035520107913815	152.38960691854538	0.8878387372079589	154.2396139033616	-0.1366141325365362	-0.3729371386339331	0.23632300609739687	78.60163317922746
10	4.0	perception	367	diff_vonmises	0.012611068576691717	0.7225610045944895	2.5625233543421304	2.558354267828196	0.36568666921796456	4.218249299725035	0.5935515961485298	-0.5348673564290981	1.1284189525776278	75.32785162406012
11	4.0	wm	367	diff_vonmises	0.23135685410786197	13.255771301804414	0.6706240752559927	131.10438000592222	0.6538512586997504	133.34360994630043	-0.19923737396771912	-0.4234559558366584	0.22421858186893928	89.37467413240907
12	5.0	ltm	367	diff_vonmises	0.17907265966455735	10.260107624961709	0.7008882190709204	116.32884936647231	0.6770103248329081	118.29300175312673	-0.02116383333218863	-0.4303206768696093	0.40915684353742066	96.16030616731592
13	5.0	perception	367	diff_vonmises	0.09143994395705524	5.239122867652041	2.2516717169244402	2.5618206862035873	0.1536856877379924	4.5560220120998425	0.5785151902473347	-0.6191869746290006	1.1977021648763353	84.84069165270907
14	5.0	wm	367	diff_vonmises	-0.010946298380114091	-0.6271766984714272	0.34165363122807535	194.3461418431302	0.3294065046518058	196.9545864930115	-0.13178620167595767	-0.5976437125608278	0.46585751088487015	133.8808953028085
15	6.0	ltm	367	diff_vonmises	0.2278754712388827	13.056302756542754	6.32110063828712	0.3179401821291537	4.986179405400148e-27	2.647100785891333	-0.10924776449358142	-0.4212981661707884	0.312050401677207	54.16821946515506
16	6.0	perception	367	diff_vonmises	-0.04903095371487131	-2.809266713363411	1.191949471044082	2.0712706006956356	1.012662164380217e-19	4.445899860541094	0.0746212956671014	-0.6354738726776118	0.7100951683447132	120.98425070526265
17	6.0	wm	367	diff_vonmises	-0.24463977016512697	-14.01682633151225	0.20093315555090033	183.26369448676832	0.18805944511408287	185.86691032252094	-0.08755478706063968	-0.676130638665434	0.5885758516047943	154.21102174226723
18	7.0	ltm	367	diff_vonmises	0.1764303378728765	10.108713738182951	1.1010830542616563	233.22866365291455	1.0866507967584875	235.0434506890921	-0.019097158776602896	-0.41550036385423184	0.39640320507762894	75.48533685396205
19	7.0	perception	367	diff_vonmises	0.10675408561497547	6.116558551516348	2.202686706484955	1.2660457135462044	5.682550121210904e-19	2.8197886262806113	0.24339557036154308	-0.44033064746622064	0.6837262178277637	92.59632593443484
20	7.0	wm	367	diff_vonmises	0.2785534607550897	15.959937670029648	0.9613818868978596	213.57369099050982	0.9467327852711881	215.70678933822666	-0.11337519917287864	-0.44766392670983635	0.3342887275369577	78.06713084967924
0	1.0	ltm	368	diff_vonmises	0.04186368721165178	2.3986125920834445	2.9393696204180166	0.84269895738825	4.061721321842624e-17	4.348936639505515	-0.1466588214112592	-0.6906280788656802	0.543969257454421	80.16811971012194
1	1.0	perception	368	diff_vonmises	-0.015424787478325945	-0.8837752223943165	10.971758819919778	0.7294762185601058	0.019403549283611796	4.141662809791355	0.28045136454296815	-0.6629297358768769	0.943381100419845	40.721609839595544
2	1.0	wm	368	diff_vonmises	0.14860273576833136	8.514309583623145	3.1141336766500225	0.7060763585389263	1.4270798362585472e-13	4.325640917418388	-0.2161324353180396	-0.6875151113229192	0.4713826760048796	77.83946370677987
3	2.0	ltm	368	diff_vonmises	0.04525345725132424	2.5928321088765705	3.2070052733310757	0.7661466713391603	0.03914206495739901	2.6073031595052205	0.08973201509798634	-0.40258156026258407	0.4923135753605704	74.36958270272345
4	2.0	perception	368	diff_vonmises	-0.07885016591918192	-4.517781721075406	6.615391948847739	1.1931574083775314	0.07395542437550356	2.9579105511963606	0.6928043881294484	-0.47113828049572776	1.1639426686251761	52.050424906850196
5	2.0	wm	368	diff_vonmises	-0.03533600955386909	-2.024604212270654	3.4060990102533157	0.8471083094867997	0.1045505219787407	3.0065873137997667	0.06621265656117858	-0.4581878238000574	0.524400480361236	69.62253344307976
6	3.0	ltm	368	diff_vonmises	0.07503265037170496	4.299054191979402	1.6349903727519852	1.1879551855277801	7.25224717848677e-14	2.728375941942489	0.10797156501117572	-0.41362588711363757	0.5215974521248132	106.40310808093449
7	3.0	perception	368	diff_vonmises	0.011224204968920433	0.6430995731089082	4.296781858288397	2.0965081403689143	0.05291628092192253	3.59466337897105	1.0729420580091835	-0.5564494254245931	1.6293914834337766	64.94350801793081
8	3.0	wm	368	diff_vonmises	-0.03869632338581431	-2.2171360126805477	2.1683593498108515	1.6062804944802866	0.23496423701461872	3.6231961259840992	0.15054479827299205	-0.47846492257524686	0.6290097208482389	81.25525499850932
9	4.0	ltm	368	diff_vonmises	0.036775291761371294	2.1070690082888026	1.3355267001822086	1.2967888206141507	2.706667682673458e-16	3.727669147025404	-0.06950141158085621	-0.5570423683984433	0.48754095681758713	115.83127038419363
10	4.0	perception	368	diff_vonmises	-0.012230696430333601	-0.7007672859638371	1.5589071048824557	5.459387560979792	0.400935059158051	8.024991993849074	0.5878498146210547	-0.7726050464038127	1.3604548610248672	89.62933919410145
11	4.0	wm	368	diff_vonmises	0.2500186309733852	14.325012354413774	0.6641833887332416	361.53824416133324	0.6533855101260317	364.8422440299469	-0.16845936585433208	-0.6712266136889298	0.5027672478345977	94.87442198467932
12	5.0	ltm	368	diff_vonmises	0.10780978335071575	6.177045576215783	1.796696150057532	1.2150218975554599	4.233633118206143e-15	2.6407112279899145	0.16705602266451186	-0.40412730700008004	0.5711833296645918	101.97227316292805
13	5.0	perception	368	diff_vonmises	0.024366564228659265	1.3961012915366202	1.5968585643550697	2.8508269554081718	2.8036687082921698e-14	4.026622885610551	0.6417490948533948	-0.5882415579666935	1.2299906528200883	107.52919680936076
14	5.0	wm	368	diff_vonmises	0.002201285094150738	0.12612434539989534	0.6219944189416683	216.56410959538664	0.6072731276805358	218.26976361152305	0.14893987897062289	-0.4620638979804852	0.6110037769511081	107.35126048898223
15	6.0	ltm	368	diff_vonmises	0.5083701852717735	29.127466046356343	0.5046866202437872	138.1420545140026	0.4912054086942592	139.20159268759537	0.08827372577253101	-0.3076426679593727	0.3959163937319037	118.86951921552514
16	6.0	perception	368	diff_vonmises	0.010064049696747205	0.5766275724335309	1.2968302828856972	2.442348341259151	0.07269472873014779	3.645993303958325	0.3460991730450549	-0.46642354258156604	0.8125227156266209	112.807407943492
17	6.0	wm	368	diff_vonmises	0.12779086489114208	7.32187721858897	0.530721842663605	245.8432046586946	0.5206092664666131	247.47797773389485	0.056748219031561575	-0.4187191233209795	0.47546734235254107	114.2650373428971
18	7.0	ltm	368	diff_vonmises	-0.02056937908501601	-1.1785386087760843	3.0367585962643493	1.424912513345816	0.45066786704597184	3.7872484778589626	0.040058769257145244	-0.5453000198657543	0.5853587891228995	64.74463952904028
19	7.0	perception	368	diff_vonmises	0.18511299974171735	10.606193618206703	1.8560077358847822	2.2004040127090527	0.10296954480970806	3.830738812292997	0.41082741284416036	-0.5223646261223186	0.933192038966479	94.7072967140086
20	7.0	wm	368	diff_vonmises	-0.4735761482686783	-27.133914573856973	0.4305078484361443	3.3800570231070526	3.0180020193502064e-28	6.094364377109942	-0.17960355155377483	-0.6358430572563922	0.4562395057026174	151.971861676498
0	1.0	ltm	369	diff_vonmises	0.04206457843298764	2.4101228112072177	0.78257501703643	144.7212683207583	0.7617950705450522	147.24981111549457	-0.17508139407797074	-0.5006078748779217	0.32552648079995095	85.29306277875088
1	1.0	perception	369	diff_vonmises	0.0973696813703813	5.578871795056446	14.258190663649012	0.5184840643521805	1.8767300120925642e-23	3.1166084344520635	0.2776512196778699	-0.4960236380246198	0.7736748577024897	35.89319461038417
2	1.0	wm	369	diff_vonmises	0.03620538464363869	2.074415735728259	6.032291794266972	0.3697517167154204	0.11010261868537041	3.2423707033276448	-0.22025792355404572	-0.5281592408311656	0.3079013172771199	51.64908884208941
3	2.0	ltm	369	diff_vonmises	-0.09502202668281486	-5.444361089704786	1.61642822326507	2.262483584329712	0.5203570549308922	3.5882342471392636	0.12645071230980942	-0.33435897889751454	0.46080969120732396	82.61997794571673
4	2.0	perception	369	diff_vonmises	-0.013718643968588566	-0.7860204000427271	6.749630986920845	1.1946626566699703	0.21294549504271096	2.9525686530386612	0.6385219985239481	-0.4855122673095494	1.1240342658334974	50.3032615578482
5	2.0	wm	369	diff_vonmises	0.17266982193197006	9.893252045977343	7.4059526882265	0.29052838573288886	0.030889652187098014	2.1522696942457573	-0.04348758912958062	-0.3439416440643857	0.3004540549348051	49.117799936680825
6	3.0	ltm	369	diff_vonmises	0.11235847695784777	6.437666522202587	1.1477009331148984	209.2090672309193	1.132964547926781	210.23272265658372	0.1988760253027948	-0.30061862484549096	0.49949465014828576	79.8690890984216
7	3.0	perception	369	diff_vonmises	0.03974421400416373	2.277175722503324	4.193672807076994	2.265327202892936	0.3453386002443176	3.4752564137663495	1.0285765110303362	-0.51511144661811	1.5436879576484461	62.179715213933264
8	3.0	wm	369	diff_vonmises	0.4817655380265593	27.603132043771218	0.6240797106367957	105.87163571880195	0.6062533442797854	107.57634867859402	-0.09701061877297334	-0.3432471378834059	0.24623651911043254	97.71720070002306
9	4.0	ltm	369	diff_vonmises	0.18737843920889052	10.735993738418092	0.7480076005031896	202.65060738105788	0.734379686728977	204.8104634734017	-0.10165987069713367	-0.4421394138455277	0.340479543148394	89.53356583276121
10	4.0	perception	369	diff_vonmises	-0.0670678471842975	-3.842704584688608	2.2935195520106664	2.939597487950591	0.33671195904989887	4.895666282814961	0.5855505914571684	-0.6032003393777252	1.1887509308348936	79.15599285297239
11	4.0	wm	369	diff_vonmises	0.15867845701251954	9.09160588646543	6.064146711276961	0.3711656791098265	4.5214387263085573e-51	2.8753559856338433	-0.10118611812136408	-0.4576251918757671	0.35643907375440304	55.32845865970407
12	5.0	ltm	369	diff_vonmises	0.02037045066224894	1.1671408497263371	0.7800185793219261	99.39453441128154	0.7464432827917428	101.20407654644055	0.1062408322473658	-0.44391942654708316	0.550160258794449	94.72006573856478
13	5.0	perception	369	diff_vonmises	-0.008719512951463814	-0.4995912915285364	2.2090971789070166	2.6445778796784274	0.16753198940849343	4.453923802030028	0.6159640377596532	-0.5947926006690936	1.2107566384287467	85.36927265783135
14	5.0	wm	369	diff_vonmises	-0.23660380987022642	-13.556399722279744	0.5648021644016067	212.76319006577202	0.5530551173294124	214.8282542159197	-0.05916190818064848	-0.44846816346339935	0.38930625528275087	106.04308392544112
15	6.0	ltm	369	diff_vonmises	-0.10104018555195736	-5.789176193345875	0.29764767054582064	173.9262064681864	0.2870712889112423	175.96879836187162	-0.09599595923693727	-0.4839155380037745	0.38791957876683725	140.48890758265185
16	6.0	perception	369	diff_vonmises	-0.1847657150846842	-10.586295673069055	1.5732606677876193	1.7955625653447689	5.455097233140888e-17	3.9017723665490442	0.1795684512851865	-0.5865585138688366	0.7661269651540231	108.13225766463374
17	6.0	wm	369	diff_vonmises	-0.09600675080427601	-5.500781625849237	0.6136682981726708	135.81158485221934	0.5907556680743895	137.92768564490956	0.03081959776447718	-0.49831526359709066	0.5291348613615678	105.08491737211443
18	7.0	ltm	369	diff_vonmises	-0.019664348380130457	-1.1266841690563922	0.8555002132520823	279.9094847873553	0.8413289676557917	282.34718639480604	-0.002493927493986803	-0.541416163396164	0.5389222359021772	86.73842651293296
19	7.0	perception	369	diff_vonmises	-0.03864336827553391	-2.2141019083578315	1.858558447136023	3.7489030607840657	0.4014040866185908	6.115692831113864	0.45264383552231724	-0.6647765310638774	1.1174203665861946	83.30697232954185
20	7.0	wm	369	diff_vonmises	0.2519867168130937	14.43777536674853	9.213259980560315	0.6915756588921343	0.17935864245039265	3.317974689733794	0.19848824771274098	-0.565226373072611	0.763714620785352	42.93435193036194
0	1.0	ltm	370	diff_vonmises	-0.05425293659434778	-3.108464293046986	1.113438484283536	90.22728719600802	1.065200488755831	92.79423825716621	-0.0928401887422865	-0.5697038210700178	0.4768636323277313	74.17624281291873
1	1.0	perception	370	diff_vonmises	0.05566270973621782	3.189238344147037	13.973241055541878	0.700259560900315	0.05597869114763412	3.2752233386101586	0.4836952904488011	-0.5352353853285701	1.018930675777371	35.92905032220389
2	1.0	wm	370	diff_vonmises	0.10354694414179873	5.932802880801951	2.91814466450353	0.590342868909622	0.11800878612293707	3.4190228799993543	-0.22960032757131216	-0.5217448537107684	0.29214452613945624	70.99212572640604
3	2.0	ltm	370	diff_vonmises	-0.010423916679987268	-0.5972464317592916	3.214693150940819	0.6819798976049349	0.16509729898737008	1.754847011343298	0.13728413257166744	-0.25933479712037194	0.3966189296920394	70.8139546524483
4	2.0	perception	370	diff_vonmises	-0.04201427170981832	-2.4072404482884826	7.624776505912999	1.1169506813383907	0.19247019118350794	2.089696204052888	0.8091980929082867	-0.34398317063714784	1.1531812635454346	47.99394325736631
5	2.0	wm	370	diff_vonmises	0.03675114099067733	2.1056852710560503	5.335959499805169	0.41000679582389493	0.09984454015625557	1.8185423589404508	0.04901066680987465	-0.2893927254682578	0.33840339227813243	56.469547050174356
6	3.0	ltm	370	diff_vonmises	0.0856793306795397	4.909064039443376	1.9208817001133072	0.9991481090491386	0.4109983872649931	1.5925476882670713	0.13634731677835893	-0.17379364547369908	0.310140962252058	82.46487795543891
7	3.0	perception	370	diff_vonmises	0.0465834698300344	2.6690362163359733	5.4186871255007905	1.5532611824129732	0.18768847675945133	2.035778058445116	1.018078650302571	-0.31655967385103684	1.3346383241536077	56.96721504748433
8	3.0	wm	370	diff_vonmises	0.04409555943860176	2.5264894511001423	3.270926759218689	0.6968386706546924	0.3593772598983246	1.6219506957057468	0.12112570561270802	-0.23413019101961174	0.35525589663231977	66.34825392539418
9	4.0	ltm	370	diff_vonmises	-0.0952283169853566	-5.456180653394904	1.0105465641035736	150.13563039583514	0.9963567487725805	151.423149823252	-0.036199280917969645	-0.2821774664957104	0.24597818557774076	77.88666007738286
10	4.0	perception	370	diff_vonmises	-0.054437895642601666	-3.11906166589469	2.690648651225251	2.26329289613286	0.19267158668491363	3.576108661950748	0.7086589184371977	-0.4903149783681615	1.1989738968053594	78.02793355106982
11	4.0	wm	370	diff_vonmises	0.04124736226628915	2.363299773905535	0.9447541715388127	205.71459445264625	0.930727812357529	207.56345093567327	-0.05909738829575417	-0.39748940651059783	0.33839201821484366	80.39109046165336
12	5.0	ltm	370	diff_vonmises	0.051110218874528456	2.9283998315003608	2.1231218125686526	0.8764863047592298	3.746496368781577e-15	2.1537470797064495	0.12596419543931692	-0.336068038657516	0.4620322340968329	94.27443094589606
13	5.0	perception	370	diff_vonmises	0.03287568328608393	1.8836379009013906	2.5141836531419486	1.9827072506056276	1.8831180235075952e-20	3.046683042308008	0.6875190048712464	-0.47721586891891377	1.1647348737901602	86.74698100833126
14	5.0	wm	370	diff_vonmises	-0.020505748902831484	-1.1748928678872625	0.5005345639563834	244.98554670499146	0.4909145038494984	246.41064996857764	0.09098373691841743	-0.3976185212433343	0.48860225816175173	119.11778899285814
15	6.0	ltm	370	diff_vonmises	0.4097162015146069	23.475009144918523	0.8142925678998229	103.75293849337235	0.7936869275310237	105.04267890125134	0.01816998463175068	-0.293006536269651	0.3111765209014017	90.09850589513184
16	6.0	perception	370	diff_vonmises	-0.08982701323424522	-5.146708744588042	1.3599329634057344	2.1966234630299746	8.190401621169065e-11	3.4664473862281007	0.34517920362760224	-0.49261194313497486	0.8377911467625772	114.97864642277993
17	6.0	wm	370	diff_vonmises	-0.10584765992045762	-6.0646241847782605	0.5569826221466372	134.72979570860164	0.5348455979462309	136.16671879117771	0.19714724899178293	-0.44774655146209774	0.6448938004538807	115.8324672826715
18	7.0	ltm	370	diff_vonmises	0.06273296121823428	3.5943339141626955	1.1536537080667402	181.1463758270728	1.1353029480842296	182.6090011922781	0.08186340557732308	-0.366688765699692	0.4485521712770151	76.44566740886162
19	7.0	perception	370	diff_vonmises	0.044222556848063914	2.533765866671419	3.0295181999092997	1.377482784282346	0.04883322508585004	2.756631944563749	0.4467346704138569	-0.41869199026129994	0.8654266606751568	76.99968416563058
20	7.0	wm	370	diff_vonmises	0.34516611958543497	19.77656188315329	1.3989440222737102	4.049217537182197	0.7014710449001197	5.642135165039629	0.07450016681511418	-0.38235310898263175	0.45685327579774593	80.55427577723935
0	1.0	ltm	371	diff_vonmises	0.1974357743366433	11.312236594386992	0.9529339919829035	233.5217278788066	0.931446511913277	237.22199079969343	-0.26292441384440224	-0.7573631234058098	0.49443870956140756	76.92740447290998
1	1.0	perception	371	diff_vonmises	0.08182875366600156	4.688442227877553	4.216180922664791	1.5414843775263294	0.23678798401885512	4.770566049817029	0.2707776799170426	-0.7432836061089239	1.0140612860259663	60.88300486059589
2	1.0	wm	371	diff_vonmises	0.1717043369424358	9.837933830893798	4.397023113523379	0.4789272889682801	1.762753325297092e-11	3.6639827636794298	-0.19551221877611707	-0.5830821887840751	0.38756997000795806	65.21555378644257
3	2.0	ltm	371	diff_vonmises	0.08330969285686983	4.773293793229823	3.223446768343246	1.3282036946138385	0.5124299766112511	3.0422474460626208	0.14832752115765646	-0.4351843369074396	0.583511858065096	63.64606395221713
4	2.0	perception	371	diff_vonmises	-0.047025375747294165	-2.6943555603368154	6.926316497369692	1.3366240597350605	7.9380248420095485e-19	2.8353412690476154	0.9247141827343301	-0.45125725223025487	1.375971434964585	51.71035722854461
5	2.0	wm	371	diff_vonmises	0.025654064066579354	1.4698695983732186	4.542912620949276	0.6727895012654694	0.12336166350774179	2.4243133830500314	0.11928083070871348	-0.3799454302575729	0.49922626096628636	60.726050346077045
6	3.0	ltm	371	diff_vonmises	0.2356008905939413	13.498936680556291	5.2053214835148305	0.4844074955854431	4.4629994428917655e-20	1.4187787551235602	0.20324999275562183	-0.22579272793340846	0.42904272068903027	59.82413701613751
7	3.0	perception	371	diff_vonmises	0.06006784559277652	3.4416340369095972	4.875434503759473	1.8436507581433872	2.9808082372330687e-22	2.737810590311597	1.1413516481771908	-0.4356442061453361	1.5769958543225269	61.860175663029
8	3.0	wm	371	diff_vonmises	-0.06421212315815394	-3.6790836505364757	4.0262378711147955	0.7095825102774012	0.06492938729265822	1.8304465478055367	0.23694299208711822	-0.28290494611176026	0.5198479381988785	66.30646407758826
9	4.0	ltm	371	diff_vonmises	0.7090264529616452	40.62422331783326	0.3756368662298044	196.73757716338554	0.36505838320360784	198.59550074130428	-0.032900523482254584	-0.45990473317653624	0.42700420969428166	127.53402627818093
10	4.0	perception	371	diff_vonmises	-0.06387885987813358	-3.659989071124622	3.2352271069552643	2.1742320739112557	7.086192726330847e-23	5.187479922887506	0.6605488446164517	-0.8233114549660503	1.4838602995825019	76.33628362631191
11	4.0	wm	371	diff_vonmises	0.13777233172929926	7.893773141765166	0.8607713932935506	241.1829213298919	0.8459657728630088	243.9028783117445	-0.1684538158770863	-0.5519161199202536	0.3834623040431673	81.80544161993743
12	5.0	ltm	371	diff_vonmises	0.16008761045065756	9.17234443115709	1.7129519994719138	0.9716816191372221	5.622310045610378e-16	2.016933314517125	0.1352533039247818	-0.30616721933269814	0.44142052325747994	104.1659406086728
13	5.0	perception	371	diff_vonmises	-0.024584629521227617	-1.408595512459072	1.815358201421002	3.0291709055283946	3.1167519271476932e-15	3.4500793770208165	0.9243729139392	-0.5100507577541042	1.4344236716933043	101.52265158858597
14	5.0	wm	371	diff_vonmises	0.12812554345617333	7.341052887858755	0.7437984443664016	126.82997769088047	0.721116066453227	127.80190705275648	0.2684560489736896	-0.3336547601868123	0.6021108091605019	102.00445799695967
15	6.0	ltm	371	diff_vonmises	0.5750813987083461	32.94973702246838	0.8196797626564581	149.3447893248938	0.8077118576285938	149.82741137626215	0.1940345494543294	-0.18585632215853032	0.3798908716128597	98.01439721993373
16	6.0	perception	371	diff_vonmises	-0.0498230948967004	-2.8546530598607234	0.6454038111412042	17.089474955822727	0.47340203622073984	17.213252761786542	0.5235867044880411	-0.325978771579464	0.8495654760675051	122.02035508049816
17	6.0	wm	371	diff_vonmises	0.1482664324524174	8.495040822985022	0.6607551055497015	187.59466482741843	0.6500724376517609	188.29003332394544	0.18973972605191136	-0.24857683474607306	0.4383165607979844	107.95643430522603
18	7.0	ltm	371	diff_vonmises	0.015129950321766962	0.8668822976798488	3.949363341480315	0.768660143609569	0.29228826537651514	2.60118855503261	0.044004007221940644	-0.4057197883739132	0.44972379559585385	60.86847614658646
19	7.0	perception	371	diff_vonmises	0.0683538387136261	3.916386471808712	0.9887479783351788	393.7351509521886	0.9745891492602577	394.9329055163706	0.6526957376619862	-0.5040834392105822	1.1567791768725684	90.0421437605784
20	7.0	wm	371	diff_vonmises	-0.15697341364253237	-8.993914097478402	0.6175986868413259	2.091495926661066	1.114557712455512e-14	3.9472476955795868	-0.06584226874010024	-0.46469610846345544	0.3988538397233552	145.83668977528583
0	1.0	ltm	372	diff_vonmises	0.21749093584861268	12.461312706476043	2.0372515284139756	0.7290512999920425	1.963806861843951e-17	3.339297760540085	-0.1511685493245113	-0.5249995874675785	0.3738310381430672	96.10313502119166
1	1.0	perception	372	diff_vonmises	0.05301225103457056	3.0373782467689248	7.266983179487791	0.7026697839575725	0.04286692668084604	3.369410967380046	0.1822589949713227	-0.5385962186473964	0.7208552136187191	49.64003821249847
2	1.0	wm	372	diff_vonmises	0.10959766811985648	6.2794838277432685	5.279914964253299	0.39640980083718624	6.058532013764096e-22	3.147422931815614	-0.14710445063010658	-0.5009187392342003	0.3538142886040937	59.383140580319974
3	2.0	ltm	372	diff_vonmises	0.002320208169441328	0.13293813570076268	2.215423086769415	1.3528087671162858	0.3338860221176801	2.918849114673416	0.11118765093399696	-0.37215235568637417	0.48334000662037113	77.49064062357317
4	2.0	perception	372	diff_vonmises	-0.03692333595994733	-2.1155513160486064	6.688619271909574	1.1672459267890187	0.07549992727804733	3.052880657077292	0.6567629411628757	-0.48696892127439895	1.1437318624372748	51.705978251557525
5	2.0	wm	372	diff_vonmises	0.08212914280399525	4.705653257696164	5.397729585986801	0.4859173475681029	0.0389698132298068	2.493388425425586	0.02636800246403309	-0.39486894198868266	0.42123694445271576	57.37822580290049
6	3.0	ltm	372	diff_vonmises	0.20145649600830123	11.542606976769777	0.953816647796613	136.72797696829943	0.9293906554711063	138.08087852018892	0.19036082759740225	-0.3688675024368102	0.5592283300342125	87.20891104261432
7	3.0	perception	372	diff_vonmises	0.01210962127654938	0.6938301906481038	4.384444593052226	2.152917142000806	0.11114229847605205	3.821013554306137	1.0622055690490781	-0.5856158082417859	1.647821377290864	63.394139244503634
8	3.0	wm	372	diff_vonmises	0.08698244482730724	4.983726980334244	2.51474764757856	0.9388227250139979	0.14563719004918485	3.0119553004972865	0.003627821049058677	-0.4359909598415467	0.43961878089060535	77.80270290403053
9	4.0	ltm	372	diff_vonmises	0.3425530764533234	19.62684553999765	0.5315925810681543	257.5016534536839	0.520146896869904	260.0046591295651	-0.0740774848337793	-0.5492094556417761	0.47513197080799685	109.53464032999938
10	4.0	perception	372	diff_vonmises	-0.05311089150916371	-3.0430299296522803	2.4434185823011867	2.6202800360417142	0.13755108420995438	5.347604350163797	0.5516254399257104	-0.7521731345571394	1.3037985744828497	81.7505409121415
11	4.0	wm	372	diff_vonmises	0.14597061560881247	8.363500207311413	3.2881607746064074	0.5711515666420832	2.850308335227041e-22	3.7719920541798686	-0.20635436563296145	-0.599782312635831	0.3934279470028696	75.70241967910152
12	5.0	ltm	372	diff_vonmises	0.05915407610910038	3.389278902047106	1.5793575722789988	1.6433167452673887	0.14638714766023636	3.0301392972985224	0.17909681485047924	-0.3840274315425749	0.5631242463930541	98.2670396972006
13	5.0	perception	372	diff_vonmises	-0.024684042858244003	-1.4142914770974229	2.005647140097452	2.382164955213632	2.958262395346626e-21	3.627237009638556	0.6536628955889849	-0.5549978292136455	1.2086607248026304	96.89202818107691
14	5.0	wm	372	diff_vonmises	-0.06939192711374305	-3.9758645558969006	0.6220979133009182	213.6368193612051	0.6095625045704965	215.24630360788933	0.07729502611714878	-0.40372747312908785	0.48102249924623663	105.61869044277913
15	6.0	ltm	372	diff_vonmises	0.27285874097339774	15.633654261029038	0.3033209850046175	136.98232691281316	0.2907866142853448	138.10287160026064	0.07337368631208463	-0.3583775845900181	0.43175127090210275	142.55412077210576
16	6.0	perception	372	diff_vonmises	-0.07319341814847934	-4.19367394804411	1.5996379390713906	1.723989499474366	8.041506258728306e-18	2.9901152648902	0.30058597576707086	-0.4442171801190369	0.7448031558861077	107.43490953040285
17	6.0	wm	372	diff_vonmises	0.13941795093368134	7.988060176861936	0.6102012093783382	209.226313122634	0.5985456273349552	210.7531872552413	0.056710180407279154	-0.3765392007491819	0.43324938115646106	106.14283728112619
18	7.0	ltm	372	diff_vonmises	-0.07324081762962598	-4.196389738264923	0.9176798584635301	176.06561781229863	0.8927899789226916	178.6724519152661	-0.00329688941558004	-0.5819794977354213	0.5786826083198413	83.8271440891059
19	7.0	perception	372	diff_vonmises	0.04898148231511913	2.806432210951007	0.8228655226984789	312.62359590809245	0.8043865834166081	314.76617795476744	0.4507081166161129	-0.6528592689175525	1.1035673855336654	95.59875571920801
20	7.0	wm	372	diff_vonmises	0.17293195597324063	9.908271220208855	12.264584337363392	0.4542974631719494	2.329164646624977e-23	3.2865292204417362	0.10491219784461248	-0.5230673710352896	0.627979568879902	38.715052443600314
0	1.0	ltm	373	diff_vonmises	0.20654555603659785	11.834188638079901	3.3785740104653934	0.38102019321902375	1.150090682874978e-14	1.2346146711165549	0.07036955557585522	-0.1961847781934004	0.26655433376925564	74.65224943400275
1	1.0	perception	373	diff_vonmises	0.02488884631917111	1.4260258510382184	8.197567576290716	0.7626857871863283	0.1120140069165516	1.6294069618696143	0.5677003463273678	-0.26472461810283937	0.8324249644302071	46.69812911870761
2	1.0	wm	373	diff_vonmises	0.13425419616966694	7.692198822443339	2.952771524378463	0.42675732881320494	3.585210447145455e-14	1.3683895619366144	0.05918999771832001	-0.217031332403725	0.276221330122045	79.97593513002823
3	2.0	ltm	373	diff_vonmises	0.16021412914363953	9.179593418294466	4.508565037112671	0.630058549616827	0.701481818263948	1.0782069522417974	0.20976512802218905	-0.1672279789973078	0.37699310701949684	56.15881631441124
4	2.0	perception	373	diff_vonmises	-0.02586153036414419	-1.4817565416148892	8.250183161719313	1.0282574270929459	3.0630210784380795e-23	1.3048080660826826	0.9513099537175134	-0.2076665743789249	1.1589765280964384	47.320898587593945
5	2.0	wm	373	diff_vonmises	0.05081404762918191	2.91143046912887	7.794566179296571	0.3364209993822268	0.055409908273341205	0.9509212213904422	0.2084522022193922	-0.15227184548120806	0.3607240477006003	48.11031026085129
6	3.0	ltm	373	diff_vonmises	0.3005929966991195	17.222710062049433	3.6976656009236084	0.5927746123761407	0.5534504800324933	0.758567208681514	0.24173467363756293	-0.10285606564035824	0.34459073927792117	64.10058200236611
7	3.0	perception	373	diff_vonmises	0.009299042807249337	0.5327959063668721	6.593800900673867	1.339839611368085	4.365888269095771e-15	1.6612340959603247	1.079741353840585	-0.26439109841069686	1.3441324522512819	53.02321542188284
8	3.0	wm	373	diff_vonmises	0.03235349221011922	1.8537185561492173	5.852569212514955	0.583947412437807	0.4740702401727488	1.0777056564406629	0.2896965219529006	-0.17973848524187286	0.46943500719477343	52.14773236678096
9	4.0	ltm	373	diff_vonmises	-0.03180072018426952	-1.822047052035133	1.5308809736275688	92.62736283551523	1.5084353807581172	93.28784751264179	0.07513976885530838	-0.19453221513402497	0.26967198398933334	67.17530298167102
10	4.0	perception	373	diff_vonmises	-0.07293847795091764	-4.179066950695593	3.265755289079045	1.831132208733931	1.8959324952595206e-15	3.13981624917471	0.7586066132289899	-0.497884087245327	1.2564907004743169	75.96707381042054
11	4.0	wm	373	diff_vonmises	-0.08350245699011008	-4.784338364505987	1.3888020382952682	203.0991756574301	1.3724791937023402	204.61213409257454	-0.027284236312453913	-0.3754782162243231	0.3481939799118692	66.64822611160469
12	5.0	ltm	373	diff_vonmises	0.11794812033535301	6.757929496716888	1.6596008675458827	0.9271743190424632	4.873560404884209e-22	1.1945717183576063	0.23692766656249012	-0.17467015221862953	0.4115978187811197	105.67755422073165
13	5.0	perception	373	diff_vonmises	-0.02667081070882867	-1.5281248898082023	2.7706917668470656	1.562099192168727	3.0382793776888564e-24	1.5023114553468455	0.7382801646581447	-0.23526716922073443	0.9735473338788792	82.61143214516989
14	5.0	wm	373	diff_vonmises	0.07329487895022616	4.199487223770217	0.7580159300681909	82.41541280051015	0.7374051664327002	82.66335264241492	0.2519310548112017	-0.16858254582616983	0.42051360063737153	105.17455054153402
15	6.0	ltm	373	diff_vonmises	0.3908556991152951	22.394381957941594	0.6738252608188056	80.9600353072529	0.6606824620839111	80.94430786634783	0.20680981149662614	-0.1014745247956288	0.30828433629225493	113.96288427480886
16	6.0	perception	373	diff_vonmises	-0.05797532112196985	-3.321741216204529	2.035978691054317	1.3342088216966441	1.0581069810232038e-14	1.3281687071763466	0.4843438723477139	-0.1995258613690263	0.6838697337167402	96.19733418619643
17	6.0	wm	373	diff_vonmises	0.06292482678129147	3.6053270011597736	0.7586773952098516	122.5266597918394	0.7436560056269252	122.83435562326612	0.26122800901359966	-0.1849873943032545	0.44621540331685416	104.47883344985081
18	7.0	ltm	373	diff_vonmises	0.0437096950901011	2.50438105246649	1.3764172210286032	2.8345876040443385	0.6010229161071333	3.6448213429952325	0.1971093351417399	-0.2486646053913884	0.4457739405331283	87.92556810266075
19	7.0	perception	373	diff_vonmises	0.035860588464935526	2.0546603698963293	2.5556230091406933	1.5651041259261498	5.763246133469121e-13	2.5397490529419557	0.5301788234851894	-0.3985805558926781	0.9287593793778675	86.03724873726537
20	7.0	wm	373	diff_vonmises	0.26076725844853543	14.94086334429824	2.944757215175812	0.5907574152520001	7.400464668354819e-43	1.4542111686487191	0.15139156949428625	-0.23038507839842493	0.38177664789271115	80.06791528312314
0	1.0	ltm	374	diff_vonmises	-0.09046570261197127	-5.183302950351582	0.8227565973176414	100.1341842323222	0.7960657092229115	102.15611955490382	-0.10207504030131531	-0.4142570128272922	0.3121819725259769	85.19397030738685
1	1.0	perception	374	diff_vonmises	0.018626818491702994	1.0672380853308194	12.622832333652198	0.7093463502655137	1.6904430238988182e-16	2.633177176569885	0.5759918984078032	-0.41908316367704795	0.9950750620848512	38.153081584016064
2	1.0	wm	374	diff_vonmises	-0.002229560207537302	-0.12774439006219931	3.910702673269195	0.37509092319454895	4.718600072798231e-13	2.680074791264972	-0.14169626037202288	-0.42643290703268855	0.28473664666066567	69.25937002587906
3	2.0	ltm	374	diff_vonmises	0.17160627146348104	9.83231509283376	2.553003607901932	0.5282807687791712	1.0057271439632813e-23	1.8343544749574314	0.023253176584463353	-0.29003635667572664	0.31328953326019	86.06615661662761
4	2.0	perception	374	diff_vonmises	-0.03026701685252552	-1.7341723241010492	8.293490285087518	1.112294418974646	0.15196055320876192	2.3076874414131683	0.8322547712967977	-0.37952679014004437	1.2117815614368421	46.22454730745244
5	2.0	wm	374	diff_vonmises	0.027202110332360828	1.5585661158934845	4.856378977462226	0.393595084855317	0.026972180053369686	1.901180106953364	0.025185980975748312	-0.3001051686445503	0.3252911496202986	60.84482242202242
6	3.0	ltm	374	diff_vonmises	0.20058763170884464	11.492824719441323	3.4294842759351187	0.47745690752167186	0.14927402778677026	1.1660536749645694	0.12291139381546573	-0.17406608497654644	0.2969774787920122	69.45655047057224
7	3.0	perception	374	diff_vonmises	0.03170441581148777	1.8165292179260843	5.379453466003861	1.7822501641895248	0.2345826132687235	2.3461133102837266	1.1409876575253737	-0.36489974120994667	1.5058873987353203	56.81208315185276
8	3.0	wm	374	diff_vonmises	-0.07333800037996728	-4.201957899700953	4.459843486277284	0.517968608773999	0.25667007938325026	1.547710871110565	0.10921888374431665	-0.24347705093988664	0.3526959346842033	59.266933593307954
9	4.0	ltm	374	diff_vonmises	-0.08740038386687593	-5.00767312339528	1.0137598834771093	173.3256653717478	1.0001468548818788	174.68734393675405	-0.01925650557789993	-0.30401811729352346	0.28476161171562353	78.58832054129198
10	4.0	perception	374	diff_vonmises	-0.015100077381947886	-0.8651707043065675	2.475326727202774	2.5670344105048315	0.2993846269789506	4.123453119696334	0.638290124151892	-0.5274888977185115	1.1657790218704034	78.10111649419338
11	4.0	wm	374	diff_vonmises	0.08381079694824417	4.802004942762311	0.8616129006355018	170.5586842433766	0.8480860399215634	172.4253154671951	-0.14375356613400925	-0.37117604146136074	0.2274224753273515	80.0946510321663
12	5.0	ltm	374	diff_vonmises	0.25689852096058147	14.719201014194434	0.7942738176334242	66.56539323061868	0.7583843381320855	67.65934451378372	0.13271642570266096	-0.29591016440750195	0.4286265901101629	95.96636852305394
13	5.0	perception	374	diff_vonmises	0.05887885768851408	3.3735100481032547	2.771576628278382	1.8102649207362267	2.9626672652805175e-22	2.8776290985728297	0.6749135761905272	-0.4535540059028003	1.1284675820933274	82.5940391437257
14	5.0	wm	374	diff_vonmises	-0.015106050750422978	-0.8655129531096667	0.4451650692417665	154.52528624609795	0.4319675241584971	155.94447574038426	0.04488133607223688	-0.3824092810516788	0.4272906171239157	124.69991784454409
15	6.0	ltm	374	diff_vonmises	-0.2245425673621645	-12.865341430884012	0.0003657969186582945	2163.5083768009035	1.0257554016797403e-25	2164.5819052319966	-0.04489021755017575	-0.2968014582684759	0.2519112407183002	178.54130136046408
16	6.0	perception	374	diff_vonmises	-0.12046089133772338	-6.901900670035567	1.8068266830186466	1.3952387358885394	3.559345514031179e-15	2.6224412667434502	0.2593948823619442	-0.39913329580216733	0.6585281781641115	101.71145048622907
17	6.0	wm	374	diff_vonmises	-0.22637458376014546	-12.97030823848708	0.34135685079204536	146.4565981600169	0.3282883192857826	147.93471830810378	0.02766807721512521	-0.411900147074995	0.4395682242901202	137.12509927856104
18	7.0	ltm	374	diff_vonmises	0.12205065916688648	6.9929876570522875	1.0662143609539951	139.12726697585958	1.0470353091677804	140.31315217097597	0.08627201989200017	-0.2985166090543139	0.38478862894631405	80.27495143084494
19	7.0	perception	374	diff_vonmises	0.05353544213385623	3.0673548886368036	2.1393252672589997	1.466074773815778	9.56180752780436e-18	2.6001061812916286	0.37382364495189907	-0.40290191439523065	0.7767255593471297	93.92738141189906
20	7.0	wm	374	diff_vonmises	0.057946982231181866	3.3201175173662953	2.714837187379113	0.43557515389386653	1.0660828528245325e-12	1.9398617493358163	-0.03938528044346451	-0.30755750039333946	0.26817221994987495	83.46166625120887
0	1.0	ltm	375	diff_vonmises	0.011204621276080025	0.6419775101618722	2.6411319792994963	1.4016556594059002	0.2942413122208679	4.770243990084974	-0.1442267241550742	-0.6862954185247582	0.542068694369684	69.78733413382136
1	1.0	perception	375	diff_vonmises	0.07336463776779216	4.203484109600572	15.462415799301455	0.627745182383199	0.07415525067125642	4.156367400839094	0.2650188273249654	-0.6889947588837805	0.9540135862087459	33.99041487278686
2	1.0	wm	375	diff_vonmises	0.14725936456682567	8.437340083457451	3.258450472002495	0.6602665593671796	0.10522173018035516	4.351044835524347	-0.3140819104242489	-0.6738036020516316	0.3597216916273827	68.00944012862632
3	2.0	ltm	375	diff_vonmises	-0.07222415178683106	-4.138139076297663	1.9672978653681665	1.8021763959412358	0.5189085834038987	3.0320473922385878	0.16163400181691634	-0.3234229624107903	0.48505696422770667	77.70633072721012
4	2.0	perception	375	diff_vonmises	-0.05439104399715202	-3.116377264347182	6.550155841627353	1.162338852096034	0.20604760659768567	2.5032601241133277	0.6778502285534048	-0.40755490602973415	1.085405134583139	51.28155660961215
5	2.0	wm	375	diff_vonmises	0.05887457260776786	3.3732645310616234	5.361001374592187	0.4512628930072051	0.08849020240231041	2.198906178548989	0.02443301185359187	-0.3499536055466743	0.3743866174002662	56.4142441365905
6	3.0	ltm	375	diff_vonmises	0.04540390900975146	2.601452359654772	0.8799571476335193	159.3139187401095	0.8638801469246944	160.31541055134335	0.17206506816093992	-0.2862172458357293	0.4582823139966692	91.48892133206283
7	3.0	perception	375	diff_vonmises	0.03670488452882904	2.1030349710169354	4.65211998415571	1.8067276536760288	0.17629020412569354	2.847847474804411	0.9709395687998019	-0.4356067627698763	1.4065463315696782	61.04700549206109
8	3.0	wm	375	diff_vonmises	0.18016368070106392	10.322618525713523	2.7568934603243394	0.9017034930488266	0.21901914873258052	2.481382260876636	0.076805492535228	-0.354863633577926	0.431669126113154	73.3106861803675
9	4.0	ltm	375	diff_vonmises	0.04306635092146656	2.4675201468293775	0.7896792464995804	164.40725060860098	0.7734050272030283	166.40385615286323	-0.08518367025003215	-0.4129181760577083	0.32773450580767616	87.48710985697755
10	4.0	perception	375	diff_vonmises	-0.07097819827712341	-4.066751198721903	2.380034420393424	2.6652137564717067	0.19675393227000837	4.420817441427636	0.6775144737577277	-0.5896059473440975	1.2671204211018252	81.88383502136506
11	4.0	wm	375	diff_vonmises	0.10362902112745354	5.937505545675127	0.7740309414676163	80.70395451360103	0.729135687590645	83.39068242186312	-0.08778644969132898	-0.5640461900263105	0.47625974033498153	90.17349936852219
12	5.0	ltm	375	diff_vonmises	-0.08020822478284745	-4.595592762293773	1.895122664557522	1.1977461997062193	7.47020885099989e-14	2.9043549926948553	0.13579444073928681	-0.4487314892116266	0.5845259299509133	99.50834197177984
13	5.0	perception	375	diff_vonmises	0.003674346168864589	0.21052452794600426	1.4154209108870581	4.541052353483896	0.33291736858519005	5.97997529025411	0.6075101694952971	-0.5622134153356037	1.1697235848309009	97.12077162619235
14	5.0	wm	375	diff_vonmises	-0.0860786695294923	-4.931944470141268	0.5625958803283193	267.8949512069376	0.5517843644698066	269.7780211336771	0.06271628529181328	-0.4715485728614155	0.5342648581532288	110.65983343697027
15	6.0	ltm	375	diff_vonmises	0.3879706862416953	22.229082896443416	0.5621888502646676	159.00800966485556	0.5471661830813079	160.7487754553566	0.0049494808272783075	-0.4075676821938057	0.412517163021084	109.05032878786218
16	6.0	perception	375	diff_vonmises	-0.023239205338822826	-1.3315083851524383	0.5176433339169735	240.04965473580287	0.5009485763173511	241.82057022812634	0.31280381142072144	-0.6088595805429264	0.9216633919636479	120.59424348220436
17	6.0	wm	375	diff_vonmises	0.023731223731338482	1.3596989624863964	0.6285730871568234	215.16521631561324	0.6113987562511825	217.06849870435192	0.19113835621064368	-0.5268801741235194	0.7180185303341631	107.31680086319905
18	7.0	ltm	375	diff_vonmises	-0.022002050967527657	-1.2606246610710643	1.0487710877470535	183.10984663554183	1.0235266394010742	185.6158193510013	0.0040470906055105615	-0.5744243179768276	0.5784714085823381	78.26810568240234
19	7.0	perception	375	diff_vonmises	0.07881917543862667	4.5160060973345075	2.174365835205273	2.5892362585558515	0.30845166960133746	4.727991638011809	0.4041535264064935	-0.5877215738048748	0.9918751002113683	80.64663556527088
20	7.0	wm	375	diff_vonmises	0.32467451367612754	18.602479349104634	1.641157994808779	4.383828598067992	0.672583417830998	6.945498860808777	0.06532530986861684	-0.6022862891429615	0.6676115990115783	76.37146278093473
0	1.0	ltm	376	diff_vonmises	0.1444357343621871	8.275557989826	1.4221902040106338	3.4682964495558424	0.5275406040603674	6.778081878531103	-0.252672465377646	-0.6577554965654626	0.40508303118781663	77.17413141589839
1	1.0	perception	376	diff_vonmises	0.0891392030901159	5.107300126223147	6.081386825537658	1.0918963523517036	0.16232371694523295	4.220581934973497	0.26520861583924793	-0.6862158281517793	0.9514244439910272	52.46223232799875
2	1.0	wm	376	diff_vonmises	0.13718330766588135	7.860024548899674	4.208326016015631	0.4666704583247823	0.04523153649526842	3.732246120239846	-0.25232219578554144	-0.5882865942824914	0.33596439849695	63.45215942254302
3	2.0	ltm	376	diff_vonmises	0.053340766084591706	3.056200772641666	2.834645947483583	1.1473782845395446	0.41495016575403965	2.640382196175972	0.11765421275726473	-0.3632525365001358	0.4809067492574005	68.55982754700631
4	2.0	perception	376	diff_vonmises	-0.03611435560219918	-2.0692001558406536	7.488725866524925	1.2162633940580017	0.07031888733025966	2.7142166584723575	0.8412441118902382	-0.4343959296973129	1.275640041587551	49.06573203330615
5	2.0	wm	376	diff_vonmises	0.06336860847128985	3.6307538190218636	5.171472166351638	0.5126673345093719	0.08835684610417	2.296650481390562	0.05404480158310565	-0.36414236948957085	0.4181871710726765	57.52309036998878
6	3.0	ltm	376	diff_vonmises	0.20846826162480608	11.944351553530451	4.224228480029422	0.5030520254154984	7.971241778153009e-19	1.410740286390481	0.17389775050662218	-0.22444093498593495	0.39833868549255713	66.56939972482323
7	3.0	perception	376	diff_vonmises	0.047795386205332066	2.7384739097633224	5.547331246854016	1.657388290146747	3.103210252917916e-15	2.6330876171617636	1.0994967065590728	-0.4190458353250975	1.5185425418841703	57.90329653188161
8	3.0	wm	376	diff_vonmises	0.012576536545711859	0.7205824649613286	3.9607721424172415	0.6215375259406954	0.12913666669198268	1.9374594025324747	0.12588250740617324	-0.29807043299457847	0.4239529404007517	64.84786801725812
9	4.0	ltm	376	diff_vonmises	0.5276422628652719	30.231674754912447	0.465225281377495	215.48876393700584	0.45625866677022753	217.44023922128255	-0.1068361155620039	-0.41250841115946457	0.3056722955974607	114.70844281998845
10	4.0	perception	376	diff_vonmises	-0.06014995835238372	-3.4463387514792623	3.38595240417023	1.9460369652327776	8.96768783966022e-14	4.432526908972243	0.6590781162017593	-0.7038951555122104	1.3629732717139698	74.57864829272486
11	4.0	wm	376	diff_vonmises	0.10101596060525163	5.787788206140707	0.8035959627585462	230.27811590921556	0.7893503877895401	232.9530312643118	-0.1803180817796317	-0.5330536764241458	0.3527355946445141	84.15258084000973
12	5.0	ltm	376	diff_vonmises	0.07408004605469964	4.244473985069055	1.9358212505750612	0.9715296137828664	1.0077756862086603e-14	2.288157588066028	0.12722069257502644	-0.3539384095151557	0.48115910209018214	98.5164812442543
13	5.0	perception	376	diff_vonmises	-0.01164912060382362	-0.6674454456379826	2.1256124609306486	2.4726658503453103	4.785839549563366e-19	3.4389883101011303	0.7759330067076893	-0.5284783840301379	1.3044113907378272	94.22954535727044
14	5.0	wm	376	diff_vonmises	0.05938166649569694	3.4023188706568397	0.6315605907979346	193.04750409644194	0.6168665565664868	194.46106146264546	0.15815582337685186	-0.39866381421208175	0.5568196375889336	107.30083650977159
15	6.0	ltm	376	diff_vonmises	0.44051124579462536	25.239435212082068	0.6634036405191354	158.20938372527067	0.6499959303945045	159.19727518477927	0.13163415449038496	-0.284333221679578	0.41596737616996293	105.09163466655664
16	6.0	perception	376	diff_vonmises	-0.04443668830568982	-2.5460346954543676	1.0954628627923066	3.0281514173193904	0.09594974997851627	3.8602634902536237	0.41445114575735775	-0.4351001605720534	0.8495513063294111	119.37541934667867
17	6.0	wm	376	diff_vonmises	0.10486579159687323	6.00836727379929	0.6057588592523252	244.70405449788655	0.5950237094183409	245.92499252892392	0.17414407464470116	-0.36912181369521946	0.5432658883399206	110.40040459119427
18	7.0	ltm	376	diff_vonmises	0.0398168400632644	2.2813368891724597	1.9218544338739145	1.9706846393744708	0.4841982622305528	4.083952274582874	-0.0032290422989287304	-0.46866153393109783	0.4654324916321691	75.50313274098062
19	7.0	perception	376	diff_vonmises	0.057714827298088446	3.3068160195069005	0.9427291376756026	372.3263990013796	0.927891691890612	374.0019262843877	0.5004565116812216	-0.5550453414120895	1.0555018530933111	90.1941716865355
20	7.0	wm	376	diff_vonmises	0.1967415845040577	11.272462446798944	2.675635424308437	0.7937217690693383	0.07523330187720816	2.969046303123277	-0.02203407478194591	-0.4464700839373864	0.4244360091554405	78.56021319812703
0	1.0	ltm	377	diff_vonmises	0.34100351740406315	19.538062346368733	2.379954461073758	0.5576460681730733	0.0840262496064854	3.238298074028874	-0.24034976161248495	-0.487557570568343	0.24720780895585803	79.1826241836323
1	1.0	perception	377	diff_vonmises	0.09750973227933657	5.586896121056554	5.95147796848264	1.0459677872625102	0.17422547974877498	3.706658247154014	0.2975605903484244	-0.601677521957985	0.8992381123064094	53.00164422554795
2	1.0	wm	377	diff_vonmises	0.06176366913352904	3.5387975685936484	4.908452845471928	0.36725487495353026	0.05338717980102233	3.2622747474772584	-0.23200272800402627	-0.5182142736844831	0.28621154568045687	58.5537279070507
3	2.0	ltm	377	diff_vonmises	0.11913460449583296	6.825910031571511	2.8686635556843028	0.9720481779536158	0.38463452342262877	2.4088114806258845	0.07760376874141095	-0.3373820105315707	0.41498577927298164	68.34535116500501
4	2.0	perception	377	diff_vonmises	-0.014426136573876003	-0.8265567403624123	8.05744910875336	1.2068731363890048	0.103583658079043	2.8466060922263314	0.8429442611051944	-0.46147093021741387	1.3044151913226083	47.0761220273796
5	2.0	wm	377	diff_vonmises	0.12524507026454085	7.176013930977636	6.153352935389281	0.4058244309267128	0.04592137732729649	2.2616895845814597	0.01604164658509427	-0.3602335736010257	0.37627522018612	53.614513800535946
6	3.0	ltm	377	diff_vonmises	0.26609017336393	15.245843903657583	4.138079603077948	0.5767417739407077	0.16434734254683953	1.4655520471080639	0.17862281159066873	-0.2247404309090305	0.40336324249969924	63.45628902471003
7	3.0	perception	377	diff_vonmises	0.032721912258738606	1.8748274700231127	6.207178732251422	1.616375853816895	1.4778952116211808e-15	2.7743287974362643	1.1298116441841886	-0.44154176215506713	1.5713534063392558	54.67518816743586
8	3.0	wm	377	diff_vonmises	0.03226890067770882	1.8488718183595574	6.055291825871608	0.40815245199252786	0.11099174720510317	1.9052575216124994	0.0538694521921429	-0.3068831935047996	0.3607526456969425	52.990949893606626
9	4.0	ltm	377	diff_vonmises	0.5916651693614354	33.899917089303315	0.6648522168037118	228.83091659441487	0.653737483873681	230.9542818316941	-0.10181333946993476	-0.43395223122180226	0.3321388917518675	95.16100266946611
10	4.0	perception	377	diff_vonmises	-0.050233246188274024	-2.8781529978297313	3.8474349110579085	1.7035186263901505	3.262262954769221e-16	4.337627666307282	0.5918160818227861	-0.6897712861194017	1.2815873679421879	69.8400854521542
11	4.0	wm	377	diff_vonmises	0.038484330634065	2.204989722717948	2.3706323158909997	0.7514441060604282	0.20867836615029356	3.5334063607957074	-0.2561718613535118	-0.5171999838959365	0.2610281225424247	72.38714376323645
12	5.0	ltm	377	diff_vonmises	0.07932150467906421	4.544787442737591	1.7478948393984832	1.1745928403479478	0.10295309398950471	2.473685572578701	0.12309632445689261	-0.33776534366580774	0.46086166812270035	95.94830159170607
13	5.0	perception	377	diff_vonmises	-0.019142708531403287	-1.0967964072984826	2.4976147157303297	2.1031338058228415	7.216403528128054e-16	3.2300245454872387	0.724732057490716	-0.5056873857406687	1.2304194432313849	87.03553294906112
14	5.0	wm	377	diff_vonmises	0.035262428938271174	2.020388353542919	0.6042925689364281	135.91171752651712	0.5850149447211661	137.48121056268607	0.08329606152122437	-0.40169310348988674	0.4849891650111111	107.84368936140078
15	6.0	ltm	377	diff_vonmises	0.2721399816287638	15.592472384095924	0.47803467174331443	149.46000792173214	0.4647845502415948	150.5390780179524	0.10922687801242859	-0.33123910782834187	0.44046598584077046	122.85586578412028
16	6.0	perception	377	diff_vonmises	-0.04418466117836338	-2.5315946047357563	1.421161673451098	1.876389304432102	1.8294739543402104e-16	2.9553459535369737	0.3162801233034204	-0.4245003669836944	0.7407804902871149	112.9704071225097
17	6.0	wm	377	diff_vonmises	0.15494963933451986	8.877960370942278	0.5683071653347147	223.3826234832859	0.5572486778114025	224.7635537077968	0.11011390834072188	-0.3801405177243389	0.49025442606506076	112.19506672601952
18	7.0	ltm	377	diff_vonmises	0.07816520243471055	4.478536204294621	0.8165215161713034	172.12077274037853	0.796440477315668	174.4115649071313	-0.03403626253463443	-0.4965393541912242	0.46250309165658976	88.20125159913945
19	7.0	perception	377	diff_vonmises	0.03085217833530855	1.767699607398134	0.8387169930386836	366.27359093044134	0.8239125295179358	368.268920058156	0.42014599410184417	-0.6054043822330613	1.0255503763349054	94.54096792336802
20	7.0	wm	377	diff_vonmises	0.22900575456532063	13.121063220801656	5.234783861467479	0.5019732763769174	0.03892678952593336	2.876714182645678	-0.029804822772698192	-0.4554903579805002	0.425685535207802	58.10211005818445
0	1.0	ltm	378	diff_vonmises	0.4613332616301127	26.432448840410057	0.0007978987081615214	1025.5700359015345	6.197644353752206e-20	1026.6007753404806	-0.03378836712667521	-0.294254234466365	0.2604658673396898	173.5146325406315
1	1.0	perception	378	diff_vonmises	0.0028175618767906393	0.16143440405706289	10.531449008935644	0.6589064985564363	7.576690952108394e-18	1.7588650444096152	0.5624935401309752	-0.279932065449452	0.8424256055804271	41.810606997451174
2	1.0	wm	378	diff_vonmises	0.07237485648117466	4.14677381923636	3.1309133031781813	0.4209991622910976	3.5882084657681425e-20	1.6495889682992173	0.019965130976296097	-0.2620012754542012	0.2819664064304973	77.62228048936984
3	2.0	ltm	378	diff_vonmises	0.1885209566112106	10.801455163591282	5.583388765117386	0.35314730902537067	0.05952602997292284	1.1065996959865478	0.1379281787782043	-0.17489617741803176	0.31282435619623605	56.50820707540865
4	2.0	perception	378	diff_vonmises	-0.024611420773335863	-1.4101305381327456	8.715148115898215	0.9873910573533473	6.242070338447657e-20	1.6680523998731742	0.879507380870614	-0.2654787539362328	1.1449861348068469	46.02322058540068
5	2.0	wm	378	diff_vonmises	0.05716279495331714	3.275186895996794	7.031455880161073	0.3301863935660711	2.7660779482863272e-15	1.2536876271452395	0.14306242685784365	-0.19953031540392424	0.3425927422617679	51.31432007403515
6	3.0	ltm	378	diff_vonmises	0.3023965858209371	17.326048106705287	3.2336508241670323	0.6698290521581961	0.4305476973752199	1.0599708024289722	0.20987262029786746	-0.14345705766395733	0.3533296779618248	67.96840055552374
7	3.0	perception	378	diff_vonmises	0.0007450747040645205	0.04268963596485583	6.090050613091697	1.5565508714430065	0.1001985941361652	2.118337313037579	1.1264189351638387	-0.3334794320954693	1.459898367259308	54.39477643322277
8	3.0	wm	378	diff_vonmises	0.010441626150560285	0.5982611096805367	5.3194832807990755	0.5831744499367614	0.396333184278166	1.3910491953401785	0.20603984471634273	-0.22826656003224682	0.43430640474858956	54.11719168081251
9	4.0	ltm	378	diff_vonmises	0.00910015974631253	0.5214007463585498	1.3641593176619298	154.38125103582362	1.3471440811718582	155.36589223094762	0.07296562173745258	-0.26576473488695385	0.3387303566244064	70.43446732593685
10	4.0	perception	378	diff_vonmises	-0.04286353604855263	-2.4558997105889273	3.276693565716165	1.7391445435263058	3.1884561780991154e-22	3.2287965445080404	0.683375462119884	-0.5121721537466659	1.19554761586655	75.84381898775385
11	4.0	wm	378	diff_vonmises	-0.05040638673028879	-2.8880732201497854	1.1555496827750764	180.9222564294116	1.1393979992550813	182.68176281225288	-0.10349614222219827	-0.3879860456007087	0.28448990337851043	70.74476042546408
12	5.0	ltm	378	diff_vonmises	0.17384389278640608	9.960521350785845	2.0165925629796995	0.8671844866735615	7.853583607823466e-17	1.3484433234101005	0.23499511989766708	-0.20664537107364647	0.4416404909713135	96.58997254552472
13	5.0	perception	378	diff_vonmises	0.0017164766988853942	0.09834687047868095	2.8108891564915064	1.549597597660787	2.269454103227592e-20	1.9041039590513877	0.6746904477467556	-0.2995098752300956	0.9742003229768512	82.0044041735955
14	5.0	wm	378	diff_vonmises	0.01589516992168355	0.9107261511557587	0.6408832989357119	77.58473547870027	0.6177969519774279	78.22491543348133	0.1677343053514626	-0.22955222134493525	0.39728652669639786	110.07187642431666
15	6.0	ltm	378	diff_vonmises	0.2671990704365091	15.309379025830777	0.49801691398333253	87.23408038324825	0.4849721223158333	87.52821935108268	0.1406464765771993	-0.15649604153580743	0.29714251811300674	124.91173857048554
16	6.0	perception	378	diff_vonmises	-0.07281296289277889	-4.171875467598904	2.2336462115105857	1.140184358051198	2.0627723324835036e-12	1.6488952420911165	0.3661562808344248	-0.25521455055684106	0.6213708313912658	91.9767384129496
17	6.0	wm	378	diff_vonmises	0.021755469757767428	1.246496598444573	0.6020491435465529	141.7891200180315	0.5892961068150515	142.52590303897946	0.14793137613586538	-0.24669449121979703	0.3946258673556624	112.18322951646769
18	7.0	ltm	378	diff_vonmises	0.07504247674571761	4.2996172017382435	0.9222954703714011	100.47780780477619	0.8968801957376543	101.46974278935205	0.16658712911129925	-0.2808136205470646	0.44740074965836385	89.40882431258729
19	7.0	perception	378	diff_vonmises	0.04332045335704756	2.482079143952164	2.070060339797671	1.6556426337683354	1.8441717613874752e-15	2.779242352108591	0.42966103992403654	-0.4284452128853431	0.8581062528093797	95.43779630035834
20	7.0	wm	378	diff_vonmises	0.1678682446411898	9.618141932209774	4.348287634474953	0.4298774732546491	9.921385851546411e-43	1.608153650570168	0.08986799190175015	-0.2558877863068509	0.34575577820860104	65.5931094993864
0	1.0	ltm	379	diff_vonmises	0.019180676694003935	1.0989718227713663	0.9497511342743074	227.62080555720863	0.9286234765553973	230.88856858598152	-0.15846244556253453	-0.6875071786203613	0.5290447330578267	79.08196780978938
1	1.0	perception	379	diff_vonmises	0.08438120836598649	4.83468710958502	12.72887303979819	0.5859249388078123	0.0021838690417690983	3.8061315479537976	0.21833345411421212	-0.6060497414733437	0.8243831955875558	37.965049126954796
2	1.0	wm	379	diff_vonmises	0.1426633924030791	8.174010275715164	5.556831263432793	0.42002833796762057	0.04189081049682245	3.7206477660036508	-0.23201403641376356	-0.5923584478099025	0.360344411396139	55.77736902599281
3	2.0	ltm	379	diff_vonmises	-0.10569690936005735	-6.055986813908093	1.7514361914494947	2.690015417149147	0.6223186470162194	4.082224433054226	0.17900047165994648	-0.36942915164041745	0.5484296233003639	78.6127628215861
4	2.0	perception	379	diff_vonmises	-0.0477490697314413	-2.735820171287454	6.205794426871397	1.2194471182563615	0.16171324414670807	2.782090311996735	0.6681712116201013	-0.44678216315741925	1.1149533747775204	52.89771271445079
5	2.0	wm	379	diff_vonmises	0.05113816838705008	2.930001220607298	5.031175312157336	0.47843042324111	0.10779252593738659	2.2575814678167307	0.017199336010396582	-0.35864626442083547	0.37584560043123205	57.68133703316107
6	3.0	ltm	379	diff_vonmises	0.05418581104235119	3.104618282220095	0.9788503214021765	194.4484448512048	0.9639466997783435	195.50364006149618	0.1961325833700016	-0.30452387763460464	0.5006564610046063	86.73178066016078
7	3.0	perception	379	diff_vonmises	0.05092477952051045	2.917774939159497	4.331876505898841	2.0015064617386704	0.18808314201093285	3.0523529543348977	1.0257918942095772	-0.46040979537886534	1.4862016895884425	63.05018585988944
8	3.0	wm	379	diff_vonmises	0.1882270887157723	10.784617773448275	1.6530266255830461	1.5955220651907034	0.34379412624945166	3.1003932261171867	0.05733573642502965	-0.3468736179009064	0.404209354325936	85.65676664119422
9	4.0	ltm	379	diff_vonmises	0.13331819733632017	7.638570039663399	0.5000451448703468	169.15538279849662	0.48765050295725504	171.15783743984466	-0.09798667730550648	-0.42361940877627546	0.325632731470769	111.20373493096227
10	4.0	perception	379	diff_vonmises	-0.07860571385535728	-4.503775649524991	2.3117997365266865	2.9562557399743765	0.24314535854548638	4.929142421797657	0.6776022238426265	-0.6365780743716289	1.3141802982142554	81.49313201139606
11	4.0	wm	379	diff_vonmises	0.07683755979296557	4.402467884221035	0.7338071443737428	69.78978892689312	0.6875210049905743	72.32710719312404	-0.10005374449098525	-0.5261288578176044	0.4260751133266192	92.28506738510535
12	5.0	ltm	379	diff_vonmises	-0.0016377028263898313	-0.09383346004878351	2.096284230562807	1.0825033820500494	2.1068658194660154e-11	2.762113445518532	0.13490537412742182	-0.43092459791515336	0.5658299720425752	94.86137401820065
13	5.0	perception	379	diff_vonmises	-0.004908449189214129	-0.28123342249638045	1.6926167557834806	3.61811193541634	0.22542050494470284	5.056536884684421	0.6910042023122783	-0.5838552276231208	1.274859429935399	94.46444879980623
14	5.0	wm	379	diff_vonmises	-0.08639707383540655	-4.950187693048948	0.5521271347323528	261.7485144562038	0.5418800787315314	263.47313716099626	0.0655721749485707	-0.4389936633732887	0.5045658383218594	112.01482232058663
15	6.0	ltm	379	diff_vonmises	0.30189861181066724	17.297516297609622	0.527309530857138	148.126866278428	0.5132171155758717	149.74068066475746	-0.010851790480920442	-0.3758247341952963	0.36497294371437583	112.1905287200214
16	6.0	perception	379	diff_vonmises	-0.12288382907110214	-7.040724776181164	1.0637314778625822	3.4314990084682537	0.10715616066967526	4.961514765449078	0.33737914709705696	-0.5627632159305979	0.9001423630276548	118.97701054070752
17	6.0	wm	379	diff_vonmises	-0.039066100995689766	-2.2383227090848465	0.6371550334979891	186.55407899964106	0.6200516329170312	188.2572921495787	0.14667441380294122	-0.457111713923684	0.6037861277266252	106.04160450037368
18	7.0	ltm	379	diff_vonmises	-0.03549928225765636	-2.033959049107354	1.0546376138030569	211.87924219646314	1.0344411371819329	214.1486601737298	0.015873571646565665	-0.5246757541633578	0.5405493258099234	78.20057361320929
19	7.0	perception	379	diff_vonmises	0.01952180303353474	1.1185169223072282	1.0637188743564376	238.7029071437296	1.0370500035232182	240.62718769853413	0.5274755589163931	-0.6142518512534814	1.1417274101698744	84.604412131157
20	7.0	wm	379	diff_vonmises	0.28631165764790883	16.404449608619696	3.9692015297676653	0.9836482628140436	0.1907188692181868	3.3872921778366427	0.10653945026181233	-0.523937827889152	0.6304772781509643	62.96171538849771
0	1.0	ltm	380	diff_vonmises	0.6024569259420514	34.51823919490514	0.0001742685744445402	4740.837008891755	6.663799120740079e-32	4742.397342626082	-0.11684329035028895	-0.379814907324203	0.262971616973914	169.31714804549807
1	1.0	perception	380	diff_vonmises	0.015161261012532809	0.868676268114371	11.550291200476446	0.6654342083377406	3.1530054859165384e-19	2.2618802630987065	0.5320284861924212	-0.3599894244713723	0.8920179106637934	39.90381926146193
2	1.0	wm	380	diff_vonmises	-0.033247611077865544	-1.9049477936540975	4.750460472720965	0.327767375610113	1.3486539100602307e-18	2.313836073953456	-0.091710655630033	-0.36823776735018116	0.27652711172014816	62.68164208345166
3	2.0	ltm	380	diff_vonmises	0.28104574167943075	16.102734848355354	3.509924397743716	0.40095904500900126	4.465989813380206e-15	1.7110425188679874	0.014546727254528657	-0.2720644234753695	0.2866111507298982	73.20370363310536
4	2.0	perception	380	diff_vonmises	-0.01501745957918695	-0.8604370528957216	8.764633520841503	1.0891253996176025	0.14481257269898734	2.4473063219503537	0.8190627521245165	-0.4039860259656506	1.223048778090167	44.986182088469434
5	2.0	wm	380	diff_vonmises	0.10940615606734493	6.268510995408469	5.7252065825697285	0.33871927611128555	1.611466570230169e-22	1.9340758553724395	0.007744725843158384	-0.3078143730886001	0.3155590989317585	56.977658979966805
6	3.0	ltm	380	diff_vonmises	0.31028898506327557	17.77824927352353	3.638698508299378	0.5678031167872334	0.25140906540677216	1.3360809603421904	0.1452699486585724	-0.1990019143353003	0.3442718629938727	65.68166278140137
7	3.0	perception	380	diff_vonmises	0.002147908391868059	0.12306608563477152	5.69466669191086	1.850345363809337	0.22467846666721994	2.771582323170719	1.1737413805619603	-0.43754403243691153	1.6112854129988718	55.18073679965073
8	3.0	wm	380	diff_vonmises	-0.029615771911479804	-1.6968587375498834	7.0989665688084225	0.38026773559204535	0.24051309095689463	1.7353706903979194	0.050254937312360026	-0.29567767058027283	0.34593260789263286	47.65797398439
9	4.0	ltm	380	diff_vonmises	0.07520909258988022	4.30916358640877	1.1393467298044082	215.89767119739207	1.1248536046052584	217.52724852305957	-0.011618102578268008	-0.37838282058337924	0.36676471800511123	74.3287434538758
10	4.0	perception	380	diff_vonmises	0.0005806132921227446	0.03326669116782963	2.984415916334262	1.9686119058032099	0.15769851841886354	3.870112551169867	0.5688361188674134	-0.557643195151446	1.1264793140188594	74.4750295524745
11	4.0	wm	380	diff_vonmises	0.013341767943642913	0.7644269944136741	0.787133085630606	126.96539914498759	0.7700784945846908	129.1801907973003	-0.2463483381803684	-0.4144490144245303	0.16810067624416192	78.44128535666823
12	5.0	ltm	380	diff_vonmises	0.22524817607189884	12.90576983193946	1.9151813458143285	1.1497680381764113	0.18129067609356184	2.13207760217911	0.17433037723091444	-0.27494630969248146	0.4492766869233959	89.26572322370708
13	5.0	perception	380	diff_vonmises	0.03489054463519976	1.999080952509763	2.9881375375879307	1.5867719532282731	1.2757461756413496e-20	2.6332501340469623	0.6178283419052518	-0.4164627910810477	1.0342911329862996	79.49445785404967
14	5.0	wm	380	diff_vonmises	-0.0314095980454035	-1.7996374042039802	1.181260722905322	1.2176535784030875	0.04657711833576789	2.674092807398667	0.01178838244249164	-0.3629237157683473	0.37471209821083895	116.97906210684235
15	6.0	ltm	380	diff_vonmises	0.026200842705261112	1.5011977066975921	0.6564733962934466	1.5787700439870322	2.472437512520996e-09	2.5040746218704566	0.03762179620248712	-0.2811922129146334	0.31881400911712054	144.21637036612154
16	6.0	perception	380	diff_vonmises	-0.08569300991635809	-4.90984780198003	2.360189969131916	0.9946447301124263	1.9987307984337694e-15	2.237629285467962	0.2105003709074424	-0.3510800422155207	0.5615804131229631	89.5146206456927
17	6.0	wm	380	diff_vonmises	-0.05253581701695416	-3.010080588343044	0.3371378852283631	147.62764826042476	0.3263239494025029	149.13139033840832	-0.03489927811692439	-0.37465092684146484	0.33975164872454044	136.23914645602494
18	7.0	ltm	380	diff_vonmises	0.18757169745162106	10.747066620082665	0.7877996335539332	125.67018770764841	0.7669019335552574	127.11514231217355	0.07188864868469835	-0.34860777464160364	0.420496423326302	93.43621650212302
19	7.0	perception	380	diff_vonmises	0.04948814323364495	2.835461743226758	1.4792825147298463	1.950944859705246	7.98316193443014e-16	3.3826996801889653	0.2995931046806517	-0.4948879742360692	0.7944810789167209	111.09507148167135
20	7.0	wm	380	diff_vonmises	0.03270164127819743	1.8736660283915114	6.494940545649168	0.2794349578539034	4.480070768669496e-15	2.0803542158360004	-0.052917904862194776	-0.3310980216373016	0.27818011677510684	53.42711144128418
0	1.0	ltm	381	diff_vonmises	0.2724791501804369	15.611905310650357	1.732021076487286	1.7783311480267736	0.39228470242740676	4.609917779955609	-0.2048602297946991	-0.5580528287687059	0.3531925989740068	76.50135432135616
1	1.0	perception	381	diff_vonmises	0.14110960627279948	8.084984888184177	3.922077713690207	1.4832361158539857	0.32320422446292124	4.350841806575112	0.19603470831131564	-0.6719512131543199	0.8679859214656356	61.22407213947204
2	1.0	wm	381	diff_vonmises	0.1337473010733728	7.663155872769806	4.707169763584809	0.3958478224421958	0.04728687615518001	3.1797983901346947	-0.19795926974523265	-0.5033986569975168	0.3054393872522842	60.18293124447112
3	2.0	ltm	381	diff_vonmises	0.06126915217679694	3.5104638340752454	2.172618368215081	2.2613319944287715	0.8196398336685361	3.5053398657812767	0.14861116470630664	-0.3437584006254053	0.49236956533171194	69.28668500375906
4	2.0	perception	381	diff_vonmises	-0.022268141613737687	-1.2758705320668078	7.54856782133365	1.1817632546412058	0.03062382429081598	2.6037743185604505	0.8450859813210851	-0.41417255052942925	1.2592585318505143	49.194135508154574
5	2.0	wm	381	diff_vonmises	0.10198895964690578	5.843536944697764	6.035952896770348	0.44307251164118505	0.09423575950160633	2.046007861317911	0.06743040869099437	-0.32810434654308407	0.39553475523407844	53.381967184363646
6	3.0	ltm	381	diff_vonmises	0.24472927158831012	14.02195438532106	3.8180983342679955	0.6662325373311498	0.16378515758437157	1.4853908029772016	0.22272804232928772	-0.22389653957899688	0.4466245819082846	66.18961427931546
7	3.0	perception	381	diff_vonmises	0.03869109099317579	2.2168362186656054	5.618044269503688	1.631176613840657	4.051276032607392e-20	2.7483265205121157	1.0672032865739531	-0.437389904260447	1.5045931908344001	57.528304924752234
8	3.0	wm	381	diff_vonmises	0.08116976713580194	4.650685080941144	5.083890328878561	0.507020333580551	0.07759988111427354	1.8573426899271537	0.12455129807545234	-0.29289092521566273	0.4174422232911151	58.564743395594945
9	4.0	ltm	381	diff_vonmises	0.7482311822001049	42.87048884015014	0.6316765714161596	195.11852135800055	0.6183071695811968	197.10871493220432	-0.04056079795950751	-0.4323314878960005	0.391770689936493	100.53845817763272
10	4.0	perception	381	diff_vonmises	-0.09130726750252774	-5.231521066766856	3.6266413136276734	1.9082115448529842	3.5010690527014724e-19	4.609303261465529	0.6566027054534986	-0.7326092938946367	1.3892119993481353	71.99328758342361
11	4.0	wm	381	diff_vonmises	-0.029852383726303326	-1.7104155959222023	1.1269705571511577	8.800972573774246	0.7466615283399327	11.597684261721948	-0.18603309301203907	-0.5715464246867277	0.3855133316746886	77.97460711818013
12	5.0	ltm	381	diff_vonmises	0.0010647780851755443	0.06100729039857997	1.8050623863757276	1.0281641142182651	1.586627598787608e-14	2.174609785100625	0.15232215285376127	-0.3326183142839485	0.4849404671377098	101.78438123730314
13	5.0	perception	381	diff_vonmises	-0.05777190250189765	-3.3100861878000165	2.2152224289989335	2.3587987225676454	1.3525640493266087e-17	3.114945102999209	0.7982034163542078	-0.48034786673337865	1.2785512830875865	92.3536718031452
14	5.0	wm	381	diff_vonmises	0.04728118729189035	2.7090124821928994	0.6826771927664964	160.94260107892666	0.6664745635188926	162.1163671110956	0.16987525268938697	-0.3413831021264464	0.5112583548158334	103.9266570328231
15	6.0	ltm	381	diff_vonmises	0.4063338903386904	23.281216989538574	0.594897147650185	180.75576283713087	0.5832706917116771	181.52912653882385	0.19439454542093415	-0.2818136591550964	0.4762082045760305	113.56008207224795
16	6.0	perception	381	diff_vonmises	-0.038499362387670794	-2.2058509787582405	1.0074733020531943	3.7681192697655277	0.1963910918316341	4.366422945110668	0.4552791438623106	-0.3931737948902994	0.8484529387526101	118.1209383376017
17	6.0	wm	381	diff_vonmises	0.16982879356846545	9.73047311127157	0.7106050230027887	211.6315581133524	0.6980426404032912	212.59674658534252	0.23252740529525795	-0.320232074605336	0.5527594799005939	103.54710420256578
18	7.0	ltm	381	diff_vonmises	-0.006692199097371548	-0.38343476394064874	1.3680479843124707	3.388946331706514	0.47399818132122146	5.8004073695086245	-0.014425161359656213	-0.5255978812758304	0.5111727199161742	85.14648185609974
19	7.0	perception	381	diff_vonmises	0.022999881097207107	1.3177961161726883	0.9879028591149762	544.6227274292107	0.9757613590668252	546.653587399577	0.5681235437756698	-0.6546366560932526	1.2227601998689224	87.71243708182143
20	7.0	wm	381	diff_vonmises	0.29225108097724484	16.744753498132187	6.363354239516526	0.589085935533726	3.545153496737107e-19	2.8901521940707497	0.12018044045453274	-0.4599802842602986	0.5801607247148313	53.98887444686767
0	1.0	ltm	382	diff_vonmises	0.027957360276554707	1.6018387501732847	3.3559641825509714	0.7517467139312345	0.0849191650884596	4.294917729198441	-0.21828886561325012	-0.6640585593751948	0.44576969376194464	69.02133105476739
1	1.0	perception	382	diff_vonmises	0.024469557872501442	1.4020023926454503	10.945898212916607	0.8123725943711235	0.05141206573479784	4.164769665172602	0.36181100264372645	-0.6753964903652181	1.0372074930089445	40.516841622209
2	1.0	wm	382	diff_vonmises	0.10561625888906016	6.0513658823042125	2.847112983946644	0.7046916519642374	0.06004885133319915	4.4581086135537555	-0.30483783191383884	-0.6857221278162696	0.3808842959024308	75.14643072984913
3	2.0	ltm	382	diff_vonmises	0.08145774358599638	4.667184916136444	3.423853482710324	0.6349726356005908	0.024044559312567035	2.3870155500408106	0.05893721028440585	-0.37267502915314354	0.4316122394375494	72.63404938475293
4	2.0	perception	382	diff_vonmises	-0.056553055268128725	-3.2402513854338624	7.2969506299704445	1.2139217823346162	0.13199891351637882	2.8732139721379446	0.7645524360370366	-0.46596490050531175	1.2305173365423483	49.176619780687815
5	2.0	wm	382	diff_vonmises	0.003417858444914998	0.19582886386677614	3.7618951695462757	0.6781694922954535	0.09632297704593644	2.7658791942746244	0.02056511890178192	-0.42747661004038795	0.44804172894216987	66.45099666602735
6	3.0	ltm	382	diff_vonmises	0.1338764181282022	7.67055373507469	2.4597788115845147	0.682968291420624	1.9250612081649663e-17	1.88736077445212	0.09829396794364986	-0.2974712784160958	0.39576524635974564	87.68953592346043
7	3.0	perception	382	diff_vonmises	0.0348211001100135	1.9951020743063002	5.119006405287847	1.8252014073320662	0.05700059070104946	2.9452267148005	1.106809902556811	-0.45998714588039746	1.5667970484372085	59.54201638950474
8	3.0	wm	382	diff_vonmises	-0.025159505936509733	-1.4415335047963473	3.1939642469906184	0.8428261393281785	0.16591575350653603	2.499962241427818	0.1054557469966515	-0.3719018395784059	0.4773575865750574	70.32877793736199
9	4.0	ltm	382	diff_vonmises	0.030279580985710694	1.7348921959058	0.980239334449452	2.3902693027638873	0.25900563246401226	4.561033510554277	-0.11711138754366168	-0.4429908355450097	0.325879448001348	102.6663653122618
10	4.0	perception	382	diff_vonmises	-0.012918118170602547	-0.7401536504267859	2.298009327550816	2.918624208944973	0.22420088216580802	5.201483367966747	0.6135004293959121	-0.6822808092207749	1.2957812386166871	81.7745738987011
11	4.0	wm	382	diff_vonmises	0.23087490133713545	13.228157442117148	0.6897361037973586	312.01933156331495	0.6792901311913843	314.89713358629933	-0.1867726133304899	-0.5692545063307293	0.3824818930002394	91.35794890976143
12	5.0	ltm	382	diff_vonmises	0.12534238993031502	7.181589937090119	1.9514017053271397	1.026438342055722	1.616467098643644e-17	2.569542429724869	0.11274088477008504	-0.3984246061058935	0.5111654908759785	98.12664861776057
13	5.0	perception	382	diff_vonmises	0.04259315743678811	2.4404081572642142	1.9443410519414435	2.4960163765956973	1.426018017010792e-20	3.838726553548003	0.6548271040813649	-0.5850359023683696	1.2398630064497345	98.32435077504377
14	5.0	wm	382	diff_vonmises	0.018088056506464445	1.0363692974145609	0.5634097335738988	193.97100923651007	0.5477172705138862	195.8486191918998	0.09323196044558557	-0.48765482756153133	0.5808867880071169	111.66931328559768
15	6.0	ltm	382	diff_vonmises	0.4344506844752942	24.892190627004155	0.561130273431822	143.14953766275357	0.5471253709831597	144.48566481286983	0.03605263479375509	-0.33050352058009835	0.36655615537385344	110.63655112282899
16	6.0	perception	382	diff_vonmises	-0.008619882023562894	-0.4938828598508414	1.3421833951697837	2.148109790746417	2.275416369944749e-17	3.5486124297767696	0.3053866521188652	-0.505371929466649	0.8107585815855142	115.62102809490797
17	6.0	wm	382	diff_vonmises	0.03475168663944892	1.9911249754015943	0.4388384998088684	255.91712301433682	0.4290527291388657	257.70983026042165	0.043977662845804844	-0.47629620856718446	0.5202738714129893	124.9533962696542
18	7.0	ltm	382	diff_vonmises	0.03857799601193771	2.2103563535565525	1.9643972597974642	2.5207998155396396	0.6600349724933572	4.646072693005956	-0.00034282230725035667	-0.49206527319316123	0.4917224508859109	71.18215911243297
19	7.0	perception	382	diff_vonmises	0.1483918862879325	8.502228798283765	1.8547270468658394	2.0473139611846585	0.10901791716531678	3.6305159782455547	0.3664618349066495	-0.4925298878458705	0.85899172275252	94.3067228291317
20	7.0	wm	382	diff_vonmises	-0.04100753724470649	-2.3495588123472144	1.4844156257341277	1.364863302905843	0.1693701501813532	3.7890332678480143	-0.1217911164387181	-0.4867448545838147	0.36495373814509663	93.50269786643173
0	1.0	ltm	383	diff_vonmises	0.44473455976186305	25.481413277963437	2.5126401627560577	0.3543717386095637	9.319128388759728e-13	2.9701540933253505	-0.2632607655044801	-0.4713384026958959	0.2080776371914158	86.64890265542522
1	1.0	perception	383	diff_vonmises	0.09200757241920961	5.271645582864988	6.911248774743156	0.965235625349761	0.13902286213304768	3.5379772823884315	0.34858885386755123	-0.5772245941379824	0.9258134480055337	49.86104743368227
2	1.0	wm	383	diff_vonmises	0.025343631769192312	1.4520831379083912	5.072477010142133	0.3507504589911008	0.0652472601638872	3.2854917893804236	-0.25112213312298537	-0.5241098491949288	0.2729877160719434	57.05838420534266
3	2.0	ltm	383	diff_vonmises	0.1510071271247021	8.652071060640925	3.0454700256700122	0.7991047750267255	0.2979262148945436	2.280493564211064	0.04960703865008936	-0.33175940465886	0.38136644330894937	68.05267718083252
4	2.0	perception	383	diff_vonmises	-0.008868481533443207	-0.5081265625560042	8.30628231721972	1.2274159564352713	0.14056981175581698	2.9228909944573105	0.8555268748373877	-0.4802501199746606	1.3357769948120484	46.15615121971527
5	2.0	wm	383	diff_vonmises	0.14354571473472638	8.224563621488695	6.317858363834341	0.37435862639287115	0.03105097748444739	2.2973512619257663	-0.009765856098990222	-0.3655465152923189	0.3557806591933287	53.20782049105
6	3.0	ltm	383	diff_vonmises	0.272647806644346	15.621568614219951	4.404867040531872	0.5241061341631732	0.18719403109213964	1.382373886860945	0.16157663391073923	-0.21427468230955093	0.37585131622029017	61.211983015643085
7	3.0	perception	383	diff_vonmises	0.03274424927484892	1.8761072867731494	6.449881115530384	1.6058298698107882	0.02133858897573278	2.7201300705558853	1.1505993897276778	-0.4306333972723241	1.581232787000002	53.38062347581172
8	3.0	wm	383	diff_vonmises	0.007646891777697283	0.43813462525534563	7.033591744224158	0.3484702782072269	0.13747868338432126	1.8300475492302881	0.028964550344019846	-0.3010039516015744	0.32996850194559424	48.889882672652874
9	4.0	ltm	383	diff_vonmises	0.5432050724233345	31.123358059955287	0.7161370710868404	224.99317866301462	0.7048211364773451	227.1146785201081	-0.12015506916328889	-0.4264241015298005	0.3062690323665116	90.54580109491468
10	4.0	perception	383	diff_vonmises	-0.03719138074839213	-2.13090915114697	4.0845697776079035	1.5960835161360791	2.2807828321554996e-15	4.162973490355005	0.5786672685560461	-0.6622062099992676	1.2408734785553137	67.72823350296582
11	4.0	wm	383	diff_vonmises	0.2622438842422533	15.02546777019843	21.60355264771712	0.14680366690973373	3.958673468962542e-24	2.849293461208891	-0.18287491052085358	-0.4534791386708105	0.27060422814995694	29.112945515019845
12	5.0	ltm	383	diff_vonmises	0.10723661101860911	6.144205220652402	1.5536673421274305	1.4832027437910342	0.20928300337003114	2.8465609350890624	0.1038527759036938	-0.3406242522676012	0.444477028171295	94.59481504669145
13	5.0	perception	383	diff_vonmises	-0.0057454168710925095	-0.3291881382568597	2.721398672500009	1.9808883111198574	4.500108671649288e-16	3.2535677400179375	0.7088428374218375	-0.5125126924568248	1.2213555298786622	83.36184138998243
14	5.0	wm	383	diff_vonmises	0.03601124953803258	2.0632926135217025	0.6361506637032003	14.847130656272846	0.47257759441906044	16.579778754728203	0.03842233153381791	-0.4245712164090152	0.4629935479428331	110.5837610337454
15	6.0	ltm	383	diff_vonmises	0.1937439407345382	11.10071011032179	0.4417747195327796	135.37042724958397	0.42739673147746887	136.59773992694605	0.07335922696396935	-0.3538598711249694	0.42721909808893876	126.06553788033037
16	6.0	perception	383	diff_vonmises	-0.05184351764263783	-2.9704147560351704	1.4611670490028617	1.733378347614807	1.3672431255341405e-14	2.9938479930650534	0.26250941371699305	-0.43672188074789137	0.6992312944648844	111.67399313757502
17	6.0	wm	383	diff_vonmises	0.13384587865085434	7.668803951914123	0.5025560767773573	225.20698033757694	0.49204948994704656	226.7536456182756	0.06272273814647633	-0.40927142335569044	0.4719941615021668	117.90267381502522
18	7.0	ltm	383	diff_vonmises	0.13603225183617035	7.794073907873305	0.7821886227601753	164.54907918276984	0.7625460435380975	166.7623286296179	-0.03900642469974969	-0.4769872650821192	0.4379808403823695	90.03175748713281
19	7.0	perception	383	diff_vonmises	0.025719427607869008	1.473614653423145	0.7949556273898362	299.9368700743857	0.7780948167641437	301.9151945584051	0.3732878837025879	-0.5895338629355358	0.9628217466381237	96.88804187928767
20	7.0	wm	383	diff_vonmises	0.2210373380145343	12.664506583039406	4.3155808973223735	0.5452624406345024	0.10574060887778261	2.8914480655160566	-0.07322952505118446	-0.455092103695851	0.38186257864466655	61.44604617600635
0	1.0	ltm	384	diff_vonmises	0.1836032199376366	10.519689607438787	1.3497381656928562	1.2025055270036977	0.08510496497290766	3.9520366416888892	-0.1948640789943909	-0.5439520062390375	0.3490879272446466	103.4555147386946
1	1.0	perception	384	diff_vonmises	0.041253354492789114	2.363643103193869	9.114487396700314	0.6556422997063983	2.5698540177487616e-24	3.2374515249114952	0.2628424151094898	-0.5152564037813755	0.7780988188908653	44.98680931162454
2	1.0	wm	384	diff_vonmises	0.0632344924746061	3.623069538446694	6.410358125280325	0.35494103206516814	1.1252005854781987e-22	3.2486022026867194	-0.16614296710299503	-0.517030149573052	0.350887182470057	53.79048858795326
3	2.0	ltm	384	diff_vonmises	-0.008057637573314085	-0.4616686257969315	2.412619145641504	0.9274234908290759	0.09802764102398828	2.7631512160482448	0.05131070687384359	-0.40361520731517797	0.45492591418902156	81.9819614554471
4	2.0	perception	384	diff_vonmises	-0.03188672770308213	-1.8269749198694878	6.807194547191065	1.2115478067970387	0.11575053695847777	3.320429102929919	0.6447282984507421	-0.5348521389343165	1.1795804373850585	50.831368160402576
5	2.0	wm	384	diff_vonmises	0.06699094855693806	3.8382986178905636	4.8018956798271235	0.4824657687242225	0.030559500637272623	2.6707948240958195	-0.02873816785638489	-0.42167698267404624	0.39293881481766135	60.90637121831921
6	3.0	ltm	384	diff_vonmises	0.1619677725411577	9.280069783743242	0.9767274513819878	75.76500998341203	0.935142648730985	77.15940289921816	0.13873162129618066	-0.35991874078944264	0.4986503620856233	85.45156360693028
7	3.0	perception	384	diff_vonmises	0.028654997679626457	1.641810428999763	4.141487604376896	2.401532631228218	0.21998599288903184	3.8991572860334824	1.1175865276814236	-0.5833312733845732	1.7009178010659969	63.833441817754505
8	3.0	wm	384	diff_vonmises	0.027849397014307612	1.595652910904062	2.0565436313663055	0.9477647943467119	0.16200365555727925	2.925829535270426	-0.0467648365480951	-0.4063601246579458	0.3595952881098507	83.3239041766792
9	4.0	ltm	384	diff_vonmises	0.18017759151707594	10.323415556760594	0.46830215053415086	163.27905291180815	0.45252997650891597	165.74221935909335	-0.10784953869747937	-0.5375548217411446	0.4297052830436652	116.27432753744188
10	4.0	perception	384	diff_vonmises	-0.02347532048354569	-1.345036786424179	1.7174098469704004	4.996030456885657	0.4683461564167675	7.586057488101905	0.5225832512346151	-0.7428218260098227	1.2654050772444378	84.16436720399969
11	4.0	wm	384	diff_vonmises	0.08420694215180545	4.824702391000723	0.4858640529033201	62.21997261170863	0.4487220690471354	65.14706021279576	-0.26470316987953346	-0.5568670897696855	0.292163919890152	107.4850325254881
12	5.0	ltm	384	diff_vonmises	0.1680232016935226	9.627020317314232	1.5656192841528818	2.062025756842016	0.30646340002299655	3.6461259126264443	0.14644416163768814	-0.3992148615288727	0.5456590231665608	90.42720444159292
13	5.0	perception	384	diff_vonmises	0.017945230524428785	1.0281859714391064	2.2323926278936184	2.307029850124177	2.7645776910775273e-18	3.8871558539766586	0.6527965900630119	-0.604029197237348	1.25682578730036	92.00370756384442
14	5.0	wm	384	diff_vonmises	-0.09402785745800733	-5.387399389001521	0.5289392522692826	214.62735726936003	0.517034758977358	216.5395189344758	0.0012619164096818736	-0.45272961778789167	0.45399153419757354	112.43017256628899
15	6.0	ltm	384	diff_vonmises	-0.002381894708392007	-0.13647251403540595	0.06614181589869059	54.4667437151859	0.04414889376615273	55.89505165066198	-0.04171387300230478	-0.4026485390057779	0.3609346660034731	173.47368663516875
16	6.0	perception	384	diff_vonmises	-0.13792203353651683	-7.902350423504214	1.6925407728722892	1.5353857219173037	6.518833694423535e-18	3.083837226390073	0.2249012492003979	-0.4665632563228799	0.6914645055232778	104.75609056522629
17	6.0	wm	384	diff_vonmises	-0.03493751160752154	-2.0017719618003085	0.4419547152987509	175.94429094764948	0.4304773328844017	177.77628615650414	-0.055112494580392024	-0.4215624304433092	0.3664499358629172	121.11116258741781
18	7.0	ltm	384	diff_vonmises	-0.008539560104475085	-0.4892807528847187	0.9732386190277681	141.5868963915047	0.945889103120624	143.83109898314402	-0.009009284119045446	-0.5031300111203123	0.49412072700126686	81.16587083523746
19	7.0	perception	384	diff_vonmises	0.0253859018692724	1.4545050362425758	0.7795395986157838	267.7556282623942	0.7604317361933884	269.6075198645909	0.428587754813222	-0.588899549570133	1.017487304383355	98.73980720663832
20	7.0	wm	384	diff_vonmises	0.06983128275644364	4.001037779928902	7.239198594684995	0.4201183220887865	0.015369034309315422	3.086205227416803	-0.05616248745886915	-0.49135207430098565	0.4351895868421165	50.05616250900695
0	1.0	ltm	385	diff_vonmises	0.22174327158967447	12.704953597511519	0.5967218310547155	96.44751614277183	0.5719932760443653	99.28177149005658	-0.2869660535349894	-0.5208641477845433	0.23389809424955388	92.82423278692917
1	1.0	perception	385	diff_vonmises	0.07314746374338683	4.1910409545822755	8.841969071519662	0.7952778133502845	0.02160099128437311	3.364353712753116	0.3821939884287654	-0.5370680207179953	0.9192620091467607	45.38663854471241
2	1.0	wm	385	diff_vonmises	0.011942910279958568	0.6842783541450304	6.144256451525321	0.32402982380950346	0.04494702854998784	3.364142580227707	-0.24645052453137295	-0.5381764519080665	0.29172592737669356	52.871329925988476
3	2.0	ltm	385	diff_vonmises	0.11981577553587733	6.86493825729259	3.124898188799202	0.6533412143832128	0.10966466977146822	2.4132607603571543	0.010625659927058606	-0.36469775546855454	0.37532341539561315	71.91748959050443
4	2.0	perception	385	diff_vonmises	-0.011650186208819188	-0.6675065003068567	7.970219895462019	1.2600273070017234	0.15171910294582097	3.178932028403974	0.8098089549173171	-0.5229295604233493	1.3327385153406663	46.946690355972464
5	2.0	wm	385	diff_vonmises	0.11916617729469892	6.827719019693946	5.453645809002024	0.4005338433173966	0.0289000871767111	2.484907032192109	-0.04329109008192861	-0.3939301099607462	0.35063901987881757	57.20603714105229
6	3.0	ltm	385	diff_vonmises	0.24365798206185596	13.960574016818667	4.333127655114626	0.5247475356464953	0.16746582226393725	1.5061526314589109	0.13993993644038633	-0.23356881080343728	0.3735087472438236	61.75311135992203
7	3.0	perception	385	diff_vonmises	0.0456679485711096	2.6165807121450784	5.583615943272555	1.8428955450399485	0.1147782404992939	2.8914545314778595	1.179786936138857	-0.4529591423860113	1.6327460785248684	56.52588405387783
8	3.0	wm	385	diff_vonmises	-0.07065451764251299	-4.048205664448609	6.038523184563571	0.3406284901103265	0.08830013284921014	1.818013855205095	0.010947996764671453	-0.2917864119763311	0.30273440874100255	53.24379089517046
9	4.0	ltm	385	diff_vonmises	0.376194390928071	21.554350876673052	0.5584222178503769	184.0631373922962	0.5469730859153662	186.1898986184351	-0.14672143127767612	-0.4202416968628704	0.27352026558519427	101.83772470171667
10	4.0	perception	385	diff_vonmises	-0.020317563238365696	-1.1641106235485077	3.2368943132799464	2.00293203115012	0.13007645713618163	4.493836636041382	0.5583936970841034	-0.6657505686238269	1.2241442657079302	72.04536396294509
11	4.0	wm	385	diff_vonmises	0.12671777169209897	7.260393507259607	0.5867984473957238	84.04516429724612	0.5632137567556756	86.57679951311034	-0.2805122506482043	-0.45655439029642864	0.17604213964822435	91.1373383735887
12	5.0	ltm	385	diff_vonmises	0.19925345875452755	11.416382240018454	1.2167206763719347	3.0899052473540873	0.4486477912039196	4.628074671685577	0.08331251371578707	-0.37071148870339005	0.4540240024191771	92.30690107230126
13	5.0	perception	385	diff_vonmises	0.026379267546528327	1.511420697062495	2.7348138808953335	2.0795599215735048	7.877349173150833e-18	3.606181815547987	0.7174275863889052	-0.5685002992559189	1.2859278856448242	83.15707722439512
14	5.0	wm	385	diff_vonmises	0.014401076015332599	0.8251208761256347	0.49178063245711795	103.74472132511457	0.46830980777656406	105.66416816153097	-0.008625292679838026	-0.4606027330652136	0.4519774403853756	117.37906314146545
15	6.0	ltm	385	diff_vonmises	-0.14597512247913952	-8.363758431959965	0.005775013875504571	193.2523844374137	5.23434665097854e-11	194.69917472514123	-0.05238896071182353	-0.40762584869031215	0.3552368879784886	179.06440756385763
16	6.0	perception	385	diff_vonmises	-0.12788357371301512	-7.327189042805925	1.495487684906202	1.6429020283522793	1.5844536713040495e-16	3.0899959469594314	0.2185249112446349	-0.45610138974906056	0.6746263009936955	110.54806981990161
17	6.0	wm	385	diff_vonmises	-0.04239736904199907	-2.4291903085651607	0.38013358793247287	200.49811255140955	0.3702025876329487	202.24860594036798	-0.026707400214505128	-0.4350426866698385	0.40833528645533335	130.6459634389994
18	7.0	ltm	385	diff_vonmises	0.1846021019839121	10.576921332921765	0.8249863133939908	148.0816297513564	0.8051850654392245	150.0174465553716	-0.02985219532632044	-0.41942501783411146	0.389572822507791	87.67175079101605
19	7.0	perception	385	diff_vonmises	0.010475213450795745	0.6001855202292672	0.7975166299001493	238.29299305546115	0.7775803079966729	239.98762086082527	0.3998977135368875	-0.538811324628373	0.9387090381652605	97.66807791661464
20	7.0	wm	385	diff_vonmises	0.13441959139507229	7.7016752708106795	3.4427561373137503	0.5516351273114241	0.13302782275389965	2.790213027395607	-0.11459181064223073	-0.4304247691802752	0.3158329585380445	66.6759893235205
0	1.0	ltm	386	diff_vonmises	-0.03125857917823496	-1.7909846604883766	2.3402240128751335	1.255051582426667	0.3269427502316023	3.6646954290216134	-0.07624448705884468	-0.5004191973534419	0.4241747102945972	72.80071476237191
1	1.0	perception	386	diff_vonmises	0.02400482922135074	1.3753754023157077	12.268593355596332	0.7399990084127174	0.03614007162464262	3.1133037044259306	0.5092606699331244	-0.5022863581778202	1.0115470281109444	38.46089213603835
2	1.0	wm	386	diff_vonmises	0.08885726134658588	5.091146054250317	3.058120951293939	0.52415001626857	0.02939924204170831	3.1553222975132753	-0.1699921064855508	-0.49140904643134564	0.32141693994579484	75.43446322884958
3	2.0	ltm	386	diff_vonmises	0.07960280933300948	4.560905012166042	4.113631708171747	0.4835120997681895	1.1771839052502232e-09	1.6795517556280266	0.11011566022057323	-0.2672080663538972	0.37732372657447044	67.48867902298014
4	2.0	perception	386	diff_vonmises	-0.04701244892794352	-2.6936149081454954	7.942903019399896	1.0991887300486036	0.11000563592727289	2.1219857741947696	0.8391683724874224	-0.34332778956975074	1.182496162057173	47.493990058540646
5	2.0	wm	386	diff_vonmises	0.008513661620817344	0.48779687907534164	4.724927561414537	0.48950132494297194	0.08106063633967385	1.9383679433066885	0.07774959826638977	-0.3046668502836172	0.38241644855000695	60.3983717237104
6	3.0	ltm	386	diff_vonmises	0.14351029729504544	8.222534351673819	3.1412741955163836	0.4803167153396629	7.345334722713324e-17	1.164494097673865	0.13757334169751453	-0.18473156624119144	0.322304907938706	77.48913969247513
7	3.0	perception	386	diff_vonmises	0.0354117680829566	2.0289448562494874	5.60208857516335	1.5819150352975144	0.09017419607388895	2.1571709063228863	1.082081110008377	-0.3372512198245055	1.4193323298328824	56.751709349690145
8	3.0	wm	386	diff_vonmises	-0.018649668020450344	-1.0685472668919054	3.482622191738289	0.7646071575704818	0.3205110520092141	1.7701700997975156	0.1662739773061555	-0.2599905220178519	0.4262644993240074	65.58301428272392
9	4.0	ltm	386	diff_vonmises	-0.0810235485451006	-4.642307372807606	0.9587770194827968	113.39803754548034	0.9391540470360805	114.74782805262754	-0.023068827025632288	-0.29673220408111156	0.2736633770554793	80.87038636844196
10	4.0	perception	386	diff_vonmises	-0.03774567998070145	-2.1626681577456357	2.71436374635915	2.256815485030678	0.1416544136913118	3.8056611890628482	0.7011098715218803	-0.538287570248394	1.2393974417702744	78.7330627197573
11	4.0	wm	386	diff_vonmises	0.07521507415883297	4.309506305064629	0.9337603083369772	234.16188589560375	0.9209688223033962	236.17914074055435	-0.08943926144469572	-0.4256455868857536	0.3362063254410579	79.92983523148186
12	5.0	ltm	386	diff_vonmises	0.13805278898620224	7.909842158919523	1.9016796156707592	0.9392152126623755	7.579799100519952e-13	2.022413331609895	0.1480797732326939	-0.3113989891923108	0.4594787624250047	99.31530610816372
13	5.0	perception	386	diff_vonmises	0.036519163444158766	2.0923939366987367	2.3067355679382455	2.0528080501461785	1.7263805323185973e-18	2.9123356746250924	0.6901367908651528	-0.4520714233272867	1.1422082141924395	90.53633869288521
14	5.0	wm	386	diff_vonmises	0.02362186353247944	1.353433084645062	0.5546819310100806	202.3697461092898	0.5425812557301004	203.6312721653279	0.13948438543079078	-0.3730090849918355	0.5124934704226263	114.79984515326329
15	6.0	ltm	386	diff_vonmises	0.4211007930931569	24.12729819384962	0.7054968536721935	114.39553951436623	0.6902848645239043	115.33103295049985	0.06718074155045173	-0.23813808812532677	0.3053188296757785	99.82438624296972
16	6.0	perception	386	diff_vonmises	-0.057872114783280096	-3.3158279285786083	1.5277710730464562	1.8804051981104533	7.090057944126838e-15	2.8593156927327112	0.36851846307764863	-0.4162835323195797	0.7848019953972283	109.5941344547216
17	6.0	wm	386	diff_vonmises	-0.057591514042440936	-3.2997506904002805	0.4998462721284049	211.34880670112523	0.48820726989075025	212.61658729192078	0.14930380763275508	-0.39565205036484485	0.5449558579975999	120.99191984380775
18	7.0	ltm	386	diff_vonmises	0.058089300656854456	3.328271762504281	1.1887520625131225	129.88281760280682	1.1636606003676968	131.26281119370088	0.09014121780896289	-0.3522083636741691	0.44234958148313197	75.64687705080675
19	7.0	perception	386	diff_vonmises	0.08935518239155285	5.1196748286576685	2.5433161478541835	1.4048626906943593	1.107291532141809e-16	2.617683989047332	0.41973677997190995	-0.41144962975048116	0.8311864097223911	86.24200987970573
20	7.0	wm	386	diff_vonmises	0.1478814649051379	8.472983807276403	1.6477052308000395	1.122625645451196	0.17844305788804088	2.699999902010845	0.0051945023253305855	-0.34647038028091326	0.35166488260624384	91.75718440152912
0	1.0	ltm	387	diff_vonmises	0.06856166586134861	3.9282940902414536	2.3172899452209625	1.4569003779132281	0.2589049423490566	4.958094827679576	-0.18439207443503947	-0.6953754839237831	0.5109834094887437	74.08780696695146
1	1.0	perception	387	diff_vonmises	0.04993185842772511	2.860884751153379	8.47338469516472	0.8394630112779209	0.08434016090795693	4.240611864230959	0.22658941971378832	-0.6909654679605226	0.9175548876743109	45.52688490188095
2	1.0	wm	387	diff_vonmises	0.16666311895921931	9.54909331685004	3.963122451993932	0.5434695332865869	0.020168037778359228	4.061297691350139	-0.24378577381137695	-0.6401443275389043	0.3963585537275273	66.9830596611572
3	2.0	ltm	387	diff_vonmises	0.0007327945560057514	0.04198603530929258	2.6876003492658294	1.1521087605761189	0.31189913811250025	2.7013530729403814	0.13505149714869058	-0.3714689644269187	0.5065204615756093	72.41085509474806
4	2.0	perception	387	diff_vonmises	-0.059188709343318185	-3.391263240198674	6.770321693913377	1.204190746056537	0.0930997303656796	2.733216719585983	0.7485038945501048	-0.4368137447174916	1.1853176392675964	51.34990011200733
5	2.0	wm	387	diff_vonmises	0.021283451376869333	1.2194519373665136	4.479371318212737	0.6089064424237567	0.09854614323003187	2.4871862469727684	0.06199347096824592	-0.3899638571863327	0.4519573281545786	61.37992497834898
6	3.0	ltm	387	diff_vonmises	0.1160801594086015	6.65090321931868	2.565114793375319	0.7720007705344268	1.0673214841348285e-22	1.9112198232325743	0.15769651084957437	-0.3014477285564537	0.45914423940602805	85.87497331210167
7	3.0	perception	387	diff_vonmises	0.03735223850116656	2.140125621482904	5.012327573164325	1.7595921951839264	9.290693454752213e-22	2.8909968478166514	1.0676713678440937	-0.46004876451268856	1.5277201323567822	60.98346587539018
8	3.0	wm	387	diff_vonmises	0.03363974617769206	1.9274154798730982	2.6634095241455107	1.0654991247362564	0.209858582781705	2.636655773499039	0.1396684611868967	-0.3717524383328919	0.5114208995197886	75.34101644126582
9	4.0	ltm	387	diff_vonmises	0.21946024108998635	12.574145585379748	0.42355724439405035	165.57738856929592	0.41126070116260716	167.66903475926154	-0.10676898231914578	-0.45783513239087625	0.3510661500717305	121.49511644489965
10	4.0	perception	387	diff_vonmises	-0.05397366465378268	-3.092463189516177	2.667531586348569	2.4005150298059865	0.06943490598844035	4.722240418444635	0.6647919725738027	-0.6995320087852217	1.3643239813590244	81.13471685326257
11	4.0	wm	387	diff_vonmises	0.1595487793817809	9.141471685039933	0.7442101133886855	292.0921330338915	0.7316908262127102	294.9602527136882	-0.13558354460138844	-0.5868206997135132	0.4512371551121248	89.718408291706
12	5.0	ltm	387	diff_vonmises	0.050006932856646286	2.8651861990799175	1.8352203963728617	1.1280684988907497	2.538018692192651e-15	2.5618953198105068	0.14464975962817622	-0.39367146487432203	0.5383212245024982	101.00443214640674
13	5.0	perception	387	diff_vonmises	0.0006474245332230671	0.03709469330690909	1.8595544732458134	2.6491019783232086	1.9997185811786477e-15	3.7490673070685636	0.7109506602105498	-0.5649651776426214	1.2759158378531712	100.39674099798967
14	5.0	wm	387	diff_vonmises	0.014378205903196313	0.8238105152232346	0.6165176437262314	249.83105079015095	0.6045495315788731	251.3836731080934	0.15283415673249579	-0.43044852374253395	0.5832826804750297	108.12024473634516
15	6.0	ltm	387	diff_vonmises	0.4961922145389476	28.42971972033158	0.634956264971867	163.81275375577974	0.6218265816053723	164.94094729617507	0.10383744216476032	-0.30617329745792254	0.41001073962268286	106.27332304732892
16	6.0	perception	387	diff_vonmises	-0.02619510858187748	-1.5008691656285025	0.5707713259257768	75.1894784649629	0.5236254278937551	76.26701946781503	0.3962680284502298	-0.47827810943016313	0.8745461378803929	119.10033494711288
17	6.0	wm	387	diff_vonmises	0.08520841142899292	4.882082353895583	0.5964060761148346	246.77102463952215	0.5849626289902794	248.2166681166914	0.15419828184370488	-0.41189846212575887	0.5660967439694637	110.29693155750061
18	7.0	ltm	387	diff_vonmises	-0.005238872610272569	-0.3001652899753032	2.4359763731140105	1.6849118267467134	0.4764712683809063	3.942892953282428	0.02238854350242292	-0.5140025279758353	0.5363910714782583	69.75919548470202
19	7.0	perception	387	diff_vonmises	0.10485853255070804	6.007951361090734	0.9278641758275187	187.88726707862324	0.89957830662712	189.58807250028258	0.46273309053984946	-0.5481746147022086	1.010907705242058	90.94725410320004
20	7.0	wm	387	diff_vonmises	0.09750449040804253	5.586595783954655	2.0253107937897323	1.1408712852795104	0.11495010206360055	3.5482020612065597	-0.03840038900642451	-0.5030420954024581	0.46464170639603364	86.72296119395182
0	1.0	ltm	388	diff_vonmises	0.06346192515017607	3.636100470880222	2.950214314103382	0.5240261168861411	1.1463566615541162e-13	1.8297958400858427	0.04871059716505488	-0.29029011708413693	0.3390007142491918	80.01653072236499
1	1.0	perception	388	diff_vonmises	0.013519654565450592	0.7746191470750939	12.308136349990368	0.5857664454008508	7.17539868703124e-18	2.0687108380525263	0.48186869237052743	-0.3292455556873001	0.8111142480578275	38.646882861567946
2	1.0	wm	388	diff_vonmises	0.12450262756471252	7.133475097747174	3.462570135993937	0.43312251886757774	7.28194028402928e-16	1.9374150303818845	-0.0008047203234926581	-0.30804692921827365	0.307242208894781	73.72044007902656
3	2.0	ltm	388	diff_vonmises	0.048004730185012605	2.7504684362654896	3.874267158700542	0.5283042140859951	0.12568652916249626	1.2494017419874972	0.17454948166633094	-0.19000936077845265	0.3645588424447836	66.34169417886409
4	2.0	perception	388	diff_vonmises	-0.0367290164770876	-2.104417629803579	8.085005206026013	0.9630159682966603	3.167042954894028e-19	1.6913210434125272	0.8052530152165192	-0.26918200240378454	1.0744350176203037	47.79802833664951
5	2.0	wm	388	diff_vonmises	0.04992574681090288	2.8605345813034644	6.476088276325116	0.3610263095659271	0.04418011249305312	1.3554234563725516	0.13350164554321634	-0.2155910485199618	0.3490926940631781	52.66533791657466
6	3.0	ltm	388	diff_vonmises	0.19779291622965037	11.332699317543609	1.1618722327146451	75.17039437882612	1.1346740443308316	75.62840672989982	0.2123219682387827	-0.1759949450658338	0.3883169133046165	82.52841539310049
7	3.0	perception	388	diff_vonmises	0.007242091106861236	0.4149412552723757	5.422055976345537	1.6153187492881131	0.1353739690325581	2.2377456301998193	1.0562024972502881	-0.34846890084244797	1.4046713980927361	57.28921612353929
8	3.0	wm	388	diff_vonmises	0.046707973644951516	2.676169759464002	3.310212765495115	0.8973713670855322	0.47681829291943756	1.7880943659708206	0.18788085785457892	-0.25203512370258563	0.43991598155716455	64.96180658795726
9	4.0	ltm	388	diff_vonmises	-0.014094936382393224	-0.8075803672165244	1.2493609260709662	175.86001099927137	1.2343610288533868	176.9343912171976	0.07000056982026592	-0.2785210855229856	0.3485216553432515	73.50475533054541
10	4.0	perception	388	diff_vonmises	-0.06823255412014233	-3.9094373764821317	2.8168327468652397	2.0435204050126408	0.06654852324168424	3.404391249148359	0.7124863050404446	-0.505943287316406	1.2184295923568507	79.52752293359163
11	4.0	wm	388	diff_vonmises	-0.043705183918171145	-2.5041225813542454	1.1083184180699708	211.86221476585524	1.092890436734717	213.6922569764785	-0.045481743943142305	-0.41279442958768087	0.36731268564453856	74.47189329258194
12	5.0	ltm	388	diff_vonmises	0.07689273277101327	4.405629063006336	1.8190042954467112	1.025979852209194	2.268339046800863e-11	1.6584980656325008	0.23571560062572572	-0.2508132107732905	0.4865288113990162	101.41276539729196
13	5.0	perception	388	diff_vonmises	-0.00851421911479811	-0.4878288211275435	2.4712885282859514	1.730035934169222	2.3514419707416474e-20	2.208042644150207	0.6612025039992466	-0.3441933394392549	1.0053958434385015	87.50260249936741
14	5.0	wm	388	diff_vonmises	-0.04007330480153068	-2.296031236269045	0.6225867593607263	156.0030167683559	0.6101998367266496	156.75779679097823	0.1644002331262442	-0.25564064938381037	0.42004088251005456	110.52850950658164
15	6.0	ltm	388	diff_vonmises	0.3101194177036927	17.768533779476257	0.5194270349388757	110.21759429389469	0.507502463612093	110.69763661014412	0.12702624840257926	-0.18965072901315594	0.3166769774157352	121.11239758552432
16	6.0	perception	388	diff_vonmises	-0.08186507502304621	-4.690523288342399	1.9339503092622778	1.454581177578502	5.0091386146871906e-12	2.1130114260954573	0.398981080752149	-0.320926429285474	0.719907510037623	98.56471853160943
17	6.0	wm	388	diff_vonmises	-0.0005069447535618489	-0.029045794825393552	0.6790246195091085	179.6101094794921	0.6662608701705792	180.4583373417549	0.20042905603771288	-0.2845688166231053	0.4849978726608182	105.95790464295644
18	7.0	ltm	388	diff_vonmises	-0.015027461964110152	-0.8610101473368863	1.0221918630924223	123.40038330067846	0.9970945604136474	124.59497591451797	0.17782104411151067	-0.3293090074322613	0.507130051543772	84.24842887759863
19	7.0	perception	388	diff_vonmises	0.04611955719972167	2.642455980556241	2.7021393885714153	1.5274875812954831	6.687707556461432e-16	2.8228520466553504	0.49273095014696144	-0.44503394933785495	0.9377648994848164	83.66148175411564
20	7.0	wm	388	diff_vonmises	0.2447219981267065	14.02153764666872	6.043265313624704	0.5061327204119819	4.763364335609829e-24	1.8283227059867109	0.19419034029999477	-0.29098386229763296	0.4851742025976277	55.42533588319202
0	1.0	ltm	389	diff_vonmises	-0.05340511168759638	-3.059887504124058	1.1683640849405206	151.73560873207737	1.1499679257847515	152.98561747861658	0.05631192511160066	-0.3104375057205644	0.36674943083216505	75.56210459147624
1	1.0	perception	389	diff_vonmises	0.043404035089581405	2.4868680244707444	11.441752521178042	0.6408405890452687	1.796593695261111e-18	1.9124125686056899	0.5502104919448974	-0.3043699134260515	0.8545804053709489	40.108527944560905
2	1.0	wm	389	diff_vonmises	0.09040367259616308	5.1797488922426425	4.751198743556962	0.31187645434132655	3.218150883886714e-18	1.658828752120397	-0.0008532106796365069	-0.26399114406593926	0.26313793338630276	62.67698097921385
3	2.0	ltm	389	diff_vonmises	0.005541808576477489	0.3175222423015628	4.057276222768163	0.5240022880639181	0.2120752115218089	1.1147291046284622	0.18911295892409738	-0.16872936920821976	0.35784232813231714	63.742118558108075
4	2.0	perception	389	diff_vonmises	-0.025740405516238695	-1.4748165990357402	8.260810099122045	0.9951410455834087	0.024179796797612445	1.5139122330678523	0.8755991949046559	-0.24083261533186073	1.1164318102365165	47.13499331776518
5	2.0	wm	389	diff_vonmises	0.04088602068791185	2.3425964265019195	6.371874299406675	0.3348476534265321	0.13261750994404106	1.1419566879176433	0.12337750544267664	-0.1844825508280763	0.30786005627075297	51.97113889036865
6	3.0	ltm	389	diff_vonmises	0.1743556288024037	9.989841664727349	1.962981214884204	1.6814118120298818	1.009352256991635	1.934225507698221	0.19330193162212594	-0.12182172453104528	0.3151236561531712	73.90998148223136
7	3.0	perception	389	diff_vonmises	0.036627534856962726	2.0986031612722735	5.701062875609583	1.4614425192202942	0.17824612864493256	1.6634765624648997	1.0446615397048404	-0.2593601604911111	1.3040217001959515	55.813235374704334
8	3.0	wm	389	diff_vonmises	0.009367495260162522	0.5367179430161155	3.3688484860792607	0.7175293439433511	0.5869736464592782	1.2226576805247424	0.18003071970357598	-0.16726471149509145	0.34729543119866746	64.03283426609028
9	4.0	ltm	389	diff_vonmises	-0.10445549441175311	-5.984858976745809	1.3024377038190276	126.65768930353	1.2880029741640264	127.39672023666184	0.04047843896182712	-0.19217671045779028	0.2326551494196174	71.5891465366326
10	4.0	perception	389	diff_vonmises	-0.07620912013000021	-4.366460943854496	3.0359866390372807	1.93406852044847	0.09767280589503015	2.9717068835909566	0.7550387805609966	-0.4359632499990245	1.191002030560021	76.09179553175989
11	4.0	wm	389	diff_vonmises	-0.04618773491625992	-2.6463622759707226	1.2083265459113983	162.25020028023312	1.1924012601026293	163.5451289797124	-0.01188200629986369	-0.30587940220650367	0.29399739590664	72.02118145532347
12	5.0	ltm	389	diff_vonmises	0.14645151100685322	8.391053484006411	1.6659905009348503	1.1573952125683384	0.17959274310225898	1.7517034428653435	0.20335988618705797	-0.2129240646765755	0.41628395086363346	96.27961943186449
13	5.0	perception	389	diff_vonmises	0.01111426146537471	0.6368002743708566	3.0164655834003784	1.670353064510379	8.818747719039002e-16	2.069218998509611	0.7680348329299832	-0.3266941430542262	1.0947289759842094	79.1161819400503
14	5.0	wm	389	diff_vonmises	-0.0060949618728454655	-0.34921559160719706	0.5497207549010272	139.60390542968733	0.5374439842808455	140.2219324335388	0.1654858528903489	-0.23946340766670104	0.40494926055704994	118.42305231305127
15	6.0	ltm	389	diff_vonmises	0.2749237331118526	15.751969595290195	0.8090157597639562	89.03484860369777	0.7940975443090611	89.54590365745467	0.09904300898043061	-0.1527273770427353	0.2517703860231659	96.03619328616566
16	6.0	perception	389	diff_vonmises	-0.16096068069290873	-9.222367671256546	1.7076321067785172	1.6444632557849164	1.3287284033064602e-14	2.1537090239442955	0.42792792302036176	-0.3174415879522733	0.745369510972635	104.32485691006255
17	6.0	wm	389	diff_vonmises	-0.13796149579169498	-7.90461144417599	0.6873518719530215	96.7517347747572	0.6634748852325736	97.44434768008034	0.24750044970715734	-0.27315224811477634	0.5206526978219337	107.32935260211315
18	7.0	ltm	389	diff_vonmises	0.06591539289357448	3.7766738177484367	1.0809025608377387	119.61105428123588	1.0609919623273096	120.40307782846426	0.16761270571192455	-0.23586689088658197	0.4034795965985065	82.84537905828353
19	7.0	perception	389	diff_vonmises	-0.009951711036640427	-0.5701910413332578	3.1260768432039385	1.4312775884973898	0.031737445550801525	2.3888121939370057	0.5671714001884214	-0.3671257193862423	0.9342971195746637	76.59689945242775
20	7.0	wm	389	diff_vonmises	0.32861663425217863	18.828346220444043	4.571956493111289	0.49454839253109567	1.076631637111899e-17	1.4001597690948593	0.18593015777182695	-0.22279866173965482	0.40872881951148177	63.922025564196844
0	1.0	ltm	390	diff_vonmises	0.04169925837783442	2.389191513875452	1.0315328501380188	212.72080003768102	1.0145587666174471	214.9874317111309	-0.09916417188308913	-0.4896973250141201	0.390533153131031	76.06383101351443
1	1.0	perception	390	diff_vonmises	0.09187307944611739	5.263939703132637	9.0738027122684	0.7316375804653904	0.04714767918881756	2.97498335154056	0.37029748186704997	-0.47871845410742664	0.8490159359744767	44.56010993592554
2	1.0	wm	390	diff_vonmises	0.10863913624165154	6.2245639965933774	5.425777599986851	0.33493244092433067	0.03929494556269997	2.6451267471075943	-0.13438080911064637	-0.42029791454702353	0.28591710543637716	56.68409957979836
3	2.0	ltm	390	diff_vonmises	-0.016917803138731292	-0.9693187184824802	2.6073313963507876	1.1918771418278664	0.5124195466862386	2.222402586796519	0.16643520675534995	-0.2801128638409463	0.44654807059629625	70.35019674352674
4	2.0	perception	390	diff_vonmises	-0.0251008210183392	-1.4381711066641054	7.623008200178818	1.1120196435810905	0.08025814186945697	2.164732565353411	0.8304266648591037	-0.3469921837994487	1.1774188486585524	48.64426062541796
5	2.0	wm	390	diff_vonmises	0.07272865224949794	4.167044823570873	5.923332103275524	0.3920487659834045	0.11643547530098283	1.7146377971058149	0.06631134819714057	-0.27576523672681913	0.3420765849239597	53.55517936385135
6	3.0	ltm	390	diff_vonmises	0.1739622435733483	9.967302351379686	2.6027095037819588	0.8995988981037968	0.47167899508812394	1.4559952872408868	0.1912779873944927	-0.17914859803219968	0.3704265854266924	72.79419631924537
7	3.0	perception	390	diff_vonmises	0.04883724891131433	2.7981682456481853	5.635446513831976	1.5337698362149474	0.0683041269549594	2.1058245986747517	1.0586580087822277	-0.32981127135841154	1.3884692801406393	56.760767905493395
8	3.0	wm	390	diff_vonmises	0.052751697774335096	3.022449644619059	3.508318022132189	0.5932259317692329	0.2656350169602951	1.4892206842020477	0.12057057444242875	-0.22111137403238007	0.3416819484748088	66.05222138734058
9	4.0	ltm	390	diff_vonmises	0.2618655378939185	15.003790121244657	0.6658817995505548	145.60227873131092	0.6548764473492822	146.91487949878453	-0.05746543100283219	-0.2704562249335112	0.212990793930679	95.50811726427415
10	4.0	perception	390	diff_vonmises	-0.08327728816602793	-4.771437141208156	3.4026215204550936	1.8439468237888637	0.013399181362422942	3.512480854478409	0.7300590390384243	-0.5502898939083493	1.2803489329467737	73.88289347608034
11	4.0	wm	390	diff_vonmises	-0.030629206686597903	-1.7549242729759402	1.0030707343067542	177.45537778231866	0.9863811146329403	179.32851336570104	-0.07472898785924542	-0.40366951043524324	0.3289405225759978	77.43582249579902
12	5.0	ltm	390	diff_vonmises	0.06405792181478488	3.670248564366181	2.066821633869364	0.9156483087173053	0.012228473703873203	1.9992117665716533	0.15972910370610033	-0.3065841914678828	0.4663132951739831	94.70346012322062
13	5.0	perception	390	diff_vonmises	-0.010821180234704096	-0.6200079567989303	2.630066940143148	2.0278215090411926	3.656697868595597e-15	2.81656648168379	0.7827772794966179	-0.44187492626664693	1.224652205763265	84.8103533581849
14	5.0	wm	390	diff_vonmises	0.0016943933094985125	0.09708158546946863	0.5746465587153892	196.16575276191318	0.5634360818229924	197.25692110571987	0.13263551674581464	-0.32453694895085405	0.4571724656966687	112.95917171261158
15	6.0	ltm	390	diff_vonmises	0.32017057981949254	18.34442294791337	0.7032878300914055	145.16676589646548	0.6906106884160012	146.079168319609	0.09270897806769796	-0.24462706897706	0.33733604704475795	100.94396146595525
16	6.0	perception	390	diff_vonmises	-0.13932133911142408	-7.982524727195527	1.4089336537825163	2.0958966744339396	5.385844682281373e-19	2.8859286208114785	0.414832995422047	-0.4070944522519281	0.8219274476739751	113.30068004924885
17	6.0	wm	390	diff_vonmises	-0.03888035849479334	-2.2276804477072765	0.674818159762123	183.9791253455539	0.6603993762346921	185.00277292068822	0.2211929241439421	-0.33430033303484485	0.555493257178787	106.02212219092422
18	7.0	ltm	390	diff_vonmises	0.04037065252458625	2.313068005847954	0.9952157569025191	154.43675588543147	0.9751804588727485	155.93427985561573	0.0813654518740421	-0.36463633872584467	0.44600179059988676	82.65028845645486
19	7.0	perception	390	diff_vonmises	-0.014107600985715226	-0.8083059955360824	1.3376490517881512	10.519583519788009	0.825095133765256	11.954481946391715	0.5657104620687345	-0.5158345858527514	1.081545047921486	84.90737822954549
20	7.0	wm	390	diff_vonmises	0.32164298810843256	18.428785728589713	5.304400411244678	0.5583536733332629	0.014489218634255714	2.1128165858416037	0.158396928405019	-0.3344166318939121	0.4928135602989311	58.769467560842145
0	1.0	ltm	391	diff_vonmises	0.09576633080920831	5.487006574821302	1.0920223358965908	402.4402144934568	1.0768152675799691	406.4733657345762	-0.28873074326818937	-0.8602641719265307	0.5715334286583413	71.72356849188495
1	1.0	perception	391	diff_vonmises	0.08426821893184726	4.82821329187927	5.596079264708994	1.3014870474162996	0.1715380356010317	4.787003425935902	0.3002136293920198	-0.7724100399565806	1.0726236693486004	54.42920068403896
2	1.0	wm	391	diff_vonmises	0.1798131892286651	10.302536843589746	4.2485995397666585	0.5118630617223643	0.036442749942290145	4.114819895644887	-0.2723289571202767	-0.6488704839344984	0.3765415268142217	63.6625563609517
3	2.0	ltm	391	diff_vonmises	0.04210532944497515	2.4124576722049893	3.1685259846172613	1.2226275205997896	0.4524937489556466	2.8921731604072516	0.13790356239323065	-0.41365971456965045	0.5515632769628811	64.96880246941905
4	2.0	perception	391	diff_vonmises	-0.04867594329797132	-2.788926114791862	7.367852935006767	1.2829197295344241	0.016374190564362782	2.6629191927647127	0.9331626115496949	-0.4229309755527634	1.3560935871024582	49.932983137215075
5	2.0	wm	391	diff_vonmises	0.0143422092833351	0.8217480608284503	4.3236723635111085	0.6619042087139044	0.1477240565805025	2.384686486153408	0.09331191183733012	-0.3724759411042505	0.4657878529415806	61.51650007309621
6	3.0	ltm	391	diff_vonmises	0.19103289398623402	10.945378573581294	4.765031119233593	0.417884818199295	7.744478485027722e-23	1.224420260366422	0.15829047566915558	-0.19484688471624775	0.35313736038540333	62.582662161898924
7	3.0	perception	391	diff_vonmises	0.07365470103456338	4.22010351057834	5.287971801787555	1.669905747488791	3.720988251443072e-18	2.3076494025371757	1.124475795347466	-0.3672357329373997	1.4917115282848656	59.3363912634282
8	3.0	wm	391	diff_vonmises	-0.05381899774146274	-3.0836014282099247	4.1188744517921565	0.6001560889511247	0.08728382862124479	1.5332287997689344	0.20308425977543615	-0.23638825844797723	0.4394725182234134	65.10374774693739
9	4.0	ltm	391	diff_vonmises	0.49785168861510726	28.524800581106902	0.16584681764834577	127.85628666006424	0.15633562524245273	129.5271352750308	-0.10127180841472594	-0.402874394499829	0.30160258608510304	154.35589741072863
10	4.0	perception	391	diff_vonmises	-0.06139338003406946	-3.5175815659949143	3.3325688339420942	2.10024929574514	1.5199727182202237e-17	4.599174873012586	0.7276248122016327	-0.7301205890314879	1.4577454012331206	75.1884022490222
11	4.0	wm	391	diff_vonmises	0.15259442902291967	8.743016760221895	0.8687290099414224	243.10631893539866	0.8550946836550724	245.50952744279937	-0.12274887047135508	-0.4959966298187055	0.37324775934735044	82.41715352863471
12	5.0	ltm	391	diff_vonmises	0.16534985557821658	9.473848867729503	1.7000981733384775	0.9691072698990935	3.0816216265498106e-15	2.2168195052306294	0.10012660111335586	-0.33770275727315013	0.437829358386506	104.51758447958011
13	5.0	perception	391	diff_vonmises	0.0021697327725355084	0.12431653053750329	1.9754142257619527	2.8843502464198836	2.908460737790211e-24	3.5359626633314036	0.9141321208226413	-0.5343519896829895	1.4484841105056308	97.59066818543263
14	5.0	wm	391	diff_vonmises	0.12662957131537883	7.255339997922079	0.6854039370549617	173.40893371799427	0.6678630176962869	174.58213328264617	0.2524170636718708	-0.38062642085683684	0.6330434845287076	105.27167796886943
15	6.0	ltm	391	diff_vonmises	0.6079669225563917	34.833938746038214	0.9577728335867538	179.41034859131153	0.9452251284282622	180.1810078779228	0.1721277961165839	-0.2331489455649951	0.405276741681579	88.33318162757868
16	6.0	perception	391	diff_vonmises	-0.06523006157707181	-3.7374072257446898	0.5168401729320251	123.13928765358548	0.49033712615288155	123.47584162138298	0.5278574911828926	-0.3978311334589897	0.9256886246418823	126.10514161171075
17	6.0	wm	391	diff_vonmises	0.05931026386347337	3.3982278011843046	0.5965037644887499	203.20671758980438	0.584664676700018	204.11629907784913	0.21599181299839643	-0.32410836284631017	0.5401001758447066	113.34029622451175
18	7.0	ltm	391	diff_vonmises	0.027271316950691765	1.5625313630382198	3.3601682381629367	0.9322569060997715	0.44746681903988994	2.597976290828603	0.035286671892709065	-0.38815565345885655	0.4234423253515656	62.358194609338
19	7.0	perception	391	diff_vonmises	0.062052230215112636	3.5553309007001186	1.0423124744171857	320.0245644824752	1.0258506746015186	321.16358184423143	0.5986130583686986	-0.46665979719779926	1.0652728555664979	87.55733441793834
20	7.0	wm	391	diff_vonmises	0.02620727532445521	1.5015662686286289	0.5163264897707508	34.18536754730368	0.45755677883319923	35.8789466420228	-0.029809453919144246	-0.39116117197826616	0.3613517180591219	115.45929535564748
0	1.0	ltm	392	diff_vonmises	-0.023746700097378906	-1.3605856929427123	2.0748931668492014	18.3982441442179	2.039896331503057	18.097141829560574	0.2561907763818798	-0.01242935100294762	0.26862012738482743	75.13146106439146
1	1.0	perception	392	diff_vonmises	-0.00897916382893566	-0.5144681909545415	7.831494711122085	1.30319393191851	5.057745177089751	0.747626190587096	0.777626414958067	-0.024846395555583094	0.80247281051365	42.56722442266798
2	1.0	wm	392	diff_vonmises	-0.3235315385106399	-18.536991696033926	0.00017435350957507008	4311.847883868857	9.643898431689092e-30	4311.4652917343055	0.1805431650642504	-0.0587498768865089	0.2392930419507593	177.01945621648318
3	2.0	ltm	392	diff_vonmises	0.11687552058952307	6.696474058174027	11.181171511954984	0.9876349112539744	11.181963147570775	0.7467850231173674	0.317458635350895	6.195931977005641e-11	0.3174586352889357	40.572509222142656
4	2.0	perception	392	diff_vonmises	-0.019945934866126957	-1.1428178862719114	8.199155255870377	0.9470617397006181	4.783794657121353e-16	0.4437862912391269	0.9936891950229418	-0.07063070150073741	1.0643198965236793	47.4613553964692
5	2.0	wm	392	diff_vonmises	-0.02009472624994678	-1.1513430045926982	8.602011856452044	2.3763296036434314	8.601891702045325	2.1215530825648172	0.2935279121168932	9.889923551723225e-09	0.2935279022269697	46.31738278848704
6	3.0	ltm	392	diff_vonmises	0.2722344685308806	15.597886084806484	3.4033308616182585	5.9489066415790335	3.2768939380107183	5.702648825997325	0.2573082806764453	-0.010550463135670318	0.2678587438121156	59.130613730681716
7	3.0	perception	392	diff_vonmises	0.014688707962529536	0.8416009727531489	6.257748449446512	1.2472959574799427	0.2862964117908944	0.9398839401005051	1.0225664519586877	-0.1471256929645438	1.1696921449232316	53.260022853878695
8	3.0	wm	392	diff_vonmises	-0.00352297831287361	-0.2018517886437771	3.1367406283072	21.962040132820768	3.0563404701024695	21.810369246582372	0.3160171068855462	-0.0605432732424962	0.3765603801280424	55.31533971476094
9	4.0	ltm	392	diff_vonmises	-0.14903261486936753	-8.538939841813397	2.7025762065250007	38.82410132258367	2.6666481566186895	38.85648053485484	0.16554157116557278	-0.06995254950570207	0.23549412067127484	55.950770168776444
10	4.0	perception	392	diff_vonmises	-0.08726119258159834	-4.9996980502038735	3.2514467148132713	1.6617388788687366	7.200846478549855e-15	1.9899003867449556	0.8224189828224935	-0.31499483107896864	1.1374138139014622	76.13575818623349
11	4.0	wm	392	diff_vonmises	-0.03109586916748883	-1.7816620635880949	1.7568929385484273	87.85155601004811	1.733638340610633	88.44657766543898	0.056989102743713715	-0.18527488432712502	0.24226398707083874	62.06525368327962
12	5.0	ltm	392	diff_vonmises	0.26787082815640145	15.347867908035942	1.745172719848611	0.884191328647807	0.2814145946190139	0.5222145056061531	0.31192779561665673	-0.0486994496375352	0.36062724525419193	98.26782644001628
13	5.0	perception	392	diff_vonmises	0.01655758283945873	0.9486796156392229	4.2261850239381955	1.1665748152217734	4.422498538011504e-21	0.7242417513272152	0.8089087689202092	-0.11506944050145873	0.923978209421668	66.55470495978494
14	5.0	wm	392	diff_vonmises	0.04298739317217714	2.4629962010352418	0.6993524578027197	50.38638893297261	0.6823763392382277	50.00089739482506	0.27135226296653947	-0.05289070631743309	0.32424296928397256	118.67894407683687
15	6.0	ltm	392	diff_vonmises	0.21222300088708346	12.159482266431008	1.3396379450875657	3.843191223511078	1.2648976443024549	3.5456358996883814	0.16855248260324385	-0.0037740433159128423	0.1723265259191567	98.95001441111827
16	6.0	perception	392	diff_vonmises	-0.16713588143677216	-9.576180611525967	2.2668140624692468	1.1305410361662407	7.259620996873841e-10	0.8429416753499392	0.4945838723551038	-0.12740377832313998	0.6219876506782438	91.29868821378427
17	6.0	wm	392	diff_vonmises	-0.18825786897048952	-10.78638135213591	0.8819299034030886	36.27827205286768	0.8414624198756405	36.20487328271122	0.30289590276909273	-0.11233372303006872	0.41522962579916145	102.07612309126195
18	7.0	ltm	392	diff_vonmises	0.13240142271749297	7.586042723239887	1.065867192106873	62.80807586324907	1.0463079853135677	62.742333057910734	0.254165114543877	-0.08100777957873717	0.3351728941226142	92.73408024092203
19	7.0	perception	392	diff_vonmises	-0.025794486518135783	-1.4779152121962824	3.213145792069829	1.1968888084371019	4.115775717310763e-16	1.532797170104951	0.5709672940870768	-0.2426330518362057	0.8136003459232826	76.60741389086854
20	7.0	wm	392	diff_vonmises	0.3245513294818182	18.59542141466799	2.4082093789596044	0.512815077716474	3.058509732628521e-49	0.5825393663580133	0.20291301368715675	-0.09032041624064797	0.2932334299278047	88.55217073871609
0	1.0	ltm	393	diff_vonmises	0.0309647629227165	1.7741502290948312	4.471547436315003	0.7481123749030271	0.1850858030984266	3.2194383587392457	-0.00031989698683221324	-0.5107396492899925	0.5104197523031603	59.151018723787985
1	1.0	perception	393	diff_vonmises	0.03594064366720479	2.0592471951144242	11.273424960644336	0.8272065380013907	0.18039897511468458	3.4800610944523545	0.43720775786327837	-0.6003494245170388	1.0375571823803171	39.221888673506356
2	1.0	wm	393	diff_vonmises	0.1713222088427064	9.81603950354595	1.8141626987811652	1.1978947747911826	0.19285388074723064	3.9677456346867888	-0.17625874336341463	-0.5359754156034503	0.3597166722400357	83.8594040061547
3	2.0	ltm	393	diff_vonmises	0.04926352283690326	2.822591942500905	3.4507639683778506	0.7211473552846589	0.2973711206946511	1.6364401011777046	0.16806453550460265	-0.23957870372886048	0.40764323923346313	66.39488075738274
4	2.0	perception	393	diff_vonmises	-0.057767810249271336	-3.3098517189958274	7.951373608221654	1.0344014947673288	0.09472382409725207	1.7682055962163004	0.8353544860437563	-0.28461379991608815	1.1199682859598443	47.620975154394074
5	2.0	wm	393	diff_vonmises	0.027335356931451314	1.566200583655841	5.652969787832301	0.4615195507499516	0.0807613587053542	1.742141518595156	0.12695155865013052	-0.2767275997676076	0.4036791584177381	55.6027024546882
6	3.0	ltm	393	diff_vonmises	0.11657054809681892	6.679000421474496	2.437055471812324	0.5947388366508554	1.0326249849673932e-14	1.1949655228094826	0.1550957977209057	-0.18754587421757427	0.34264167193847994	88.09857430602975
7	3.0	perception	393	diff_vonmises	0.02374206826450444	1.3603203084675954	6.0134445075746505	1.366730511530387	1.1434529106981296e-17	1.9768544608775112	0.9919592552461343	-0.3146183424118931	1.3065775976580274	55.57003207158624
8	3.0	wm	393	diff_vonmises	0.055865815819216146	3.2008754654962748	3.844922114374841	0.841686399585105	0.35661984903225713	1.8495840927034213	0.2258202458937001	-0.277104010533566	0.502924256427266	62.722283379397
9	4.0	ltm	393	diff_vonmises	-0.047214919426341526	-2.7052156131796115	1.1472438643781224	118.29386381672617	1.125920074369069	119.59132817083795	-0.003975048152405236	-0.30303911032584097	0.29906406217343573	74.3739667082543
10	4.0	perception	393	diff_vonmises	-0.06262348456079019	-3.5880613637359495	2.9351860720673004	1.9989370048060604	1.918204047403448e-17	3.4139638851195775	0.7495428153724167	-0.5397003617545391	1.2892431771269557	80.22639248000894
11	4.0	wm	393	diff_vonmises	0.03548487910902623	2.033133809479148	1.0515766551884242	274.9726420349038	1.0373934497384492	277.1548895585494	-0.02641867671606235	-0.49262397813888725	0.4662053014228249	77.22396175714601
12	5.0	ltm	393	diff_vonmises	-0.015296196256883773	-0.8764074881232478	1.5631972408400883	1.172087793041251	5.793416521199274e-17	2.1601740999852925	0.17676093439322288	-0.32096213606336144	0.4977230704565843	108.52907915244025
13	5.0	perception	393	diff_vonmises	0.002410741728422469	0.13812532653468076	2.014023133751029	2.103593911673612	1.3060515621492394e-21	2.7297060187071156	0.6553523521421192	-0.4150376580859166	1.0703900102280357	96.69821535680708
14	5.0	wm	393	diff_vonmises	0.03388876424311683	1.9416831640444498	0.6407257853951641	227.78435139989267	0.6290158886295256	228.86875521779345	0.21245908517369116	-0.350319381756627	0.5627784669303182	108.43319993253814
15	6.0	ltm	393	diff_vonmises	0.5400623516660034	30.943293424372055	0.748592205175287	151.1051451797013	0.735140767028178	151.85791052171606	0.16870523821263816	-0.23961545715425459	0.40832069536689275	100.52918083005278
16	6.0	perception	393	diff_vonmises	0.035350923140646105	2.025458697850379	1.1066359178614684	3.9043695454930902	0.245099339388659	4.6639066477781395	0.47814639349589005	-0.4178563350159584	0.8960027285118485	111.70648296256262
17	6.0	wm	393	diff_vonmises	0.0750975918450206	4.30277506431575	0.6560309161194561	231.8989765814761	0.6424304482483915	232.9516824309005	0.3113745470335445	-0.39018664625493926	0.7015611932884838	108.79421828168083
18	7.0	ltm	393	diff_vonmises	0.02048644434357406	1.1737867981164518	2.153463241871107	2.002653797281537	0.5856928062254249	3.671723993336086	0.1150607799393576	-0.41418510291658034	0.5292458828559379	72.47723247062783
19	7.0	perception	393	diff_vonmises	0.13433333071684003	7.696732898010035	2.943388799573545	1.3274096559342778	1.1336766862192677e-14	2.7840284525712855	0.4168645041050091	-0.44070453377182683	0.8575690378768359	80.10539396667116
20	7.0	wm	393	diff_vonmises	0.2821584020963441	16.166485594275755	1.4959759693323413	2.329244853001854	0.401269097763468	4.012119912857711	0.0907293547991912	-0.3999612258191001	0.4906905806182913	87.40610179237106
0	1.0	ltm	394	diff_vonmises	0.1513825871047308	8.673583332872635	3.3109906485582883	0.8334406814136907	0.21429413178586998	4.25481307032828	-0.2523113721757988	-0.658199230006439	0.4058878578306402	64.30003905296755
1	1.0	perception	394	diff_vonmises	0.08051951453478484	4.613428351285459	6.304176796293778	1.2719645574137104	0.2604697558288512	4.672940022688909	0.2976368739903239	-0.7836451595340446	1.0812820335243685	50.50602208874915
2	1.0	wm	394	diff_vonmises	0.1594048057025644	9.133222600859858	2.37075475456403	0.8754357211129803	0.13954873647636307	4.530755453815369	-0.3250184990194779	-0.6711169345885808	0.3460984355691029	75.86836440852036
3	2.0	ltm	394	diff_vonmises	0.10603944094620149	6.075612428144074	3.1963300554211242	0.8947608724723012	0.37739024576083924	2.224524400129359	0.10902057719023456	-0.3216196807611524	0.43064025795138694	66.00341588481064
4	2.0	perception	394	diff_vonmises	-0.042660172195674126	-2.44424782011347	8.088179603191882	1.1710419785470865	0.10297420843670028	2.439379680955172	0.8772858796956252	-0.3948481649798961	1.2721340446755214	47.074386197643435
5	2.0	wm	394	diff_vonmises	0.06927805465506684	3.969340144611976	5.616647238629209	0.4848132708341647	0.06403340234982194	2.2377740361246743	0.06783977843751965	-0.3554550512739757	0.42329482971149535	55.815634816228766
6	3.0	ltm	394	diff_vonmises	0.2260867967054698	12.953819254855665	3.7195151746193202	0.4716488516892833	3.6955879896767754e-19	1.3012130853674508	0.1413591972635733	-0.20688965383467176	0.34824885109824505	71.06120655538041
7	3.0	perception	394	diff_vonmises	0.03359230412193965	1.9246972503070605	6.106177387615763	1.5038177775369272	1.685695093614656e-16	2.4648932573691043	1.0571129233498349	-0.3922927443481634	1.4494056676979983	55.13432474375014
8	3.0	wm	394	diff_vonmises	0.04006020408486427	2.295280620495463	5.458633982585444	0.5641512909260105	0.14557630278288905	1.9209906994561203	0.16072318809320407	-0.30684947849883554	0.4675726665920396	55.62067963680323
9	4.0	ltm	394	diff_vonmises	0.440316246680139	25.228262585813212	0.6578596713237785	191.4474757304912	0.6466128748863407	193.39012640593268	-0.12376032294529438	-0.3849866895245384	0.26122636657924403	93.87264384203561
10	4.0	perception	394	diff_vonmises	-0.044094032779597836	-2.526401979982462	3.3360893626917014	1.9189232759778363	4.1201875957230266e-17	4.234964893765397	0.6603695654904272	-0.6723263627491698	1.332695928239597	75.14749421948369
11	4.0	wm	394	diff_vonmises	0.10527871840677083	6.0320262372542235	0.8574442818319695	233.30367429229966	0.8416203511922422	236.15202996456082	-0.18305912747712227	-0.5756499894446669	0.39259086196754467	81.75649071640606
12	5.0	ltm	394	diff_vonmises	0.014112224357152614	0.8085708952065661	1.730681219520945	1.0440540027724978	3.9286259971857955e-17	2.3295175203605205	0.1225690610966561	-0.3552700059384754	0.4778390670351315	103.75402329728988
13	5.0	perception	394	diff_vonmises	-0.006928316462652625	-0.39696329244100326	2.004405311271267	2.366680666394842	1.932234593670375e-18	3.2937072598315806	0.6982921137755527	-0.5020131638088755	1.200305277584428	96.92110979029323
14	5.0	wm	394	diff_vonmises	0.07700303759670463	4.411949063978377	0.653491165901011	170.65791878911128	0.6353199254887285	172.16829493966398	0.177931126355233	-0.425922523752412	0.603853650107645	105.70039391441065
15	6.0	ltm	394	diff_vonmises	0.4953524248276209	28.381603314194052	0.6691407535487821	178.4923489620672	0.6558892616513579	179.48809060364297	0.17492645380761473	-0.3063687527450778	0.48129520655269253	105.6422815044719
16	6.0	perception	394	diff_vonmises	0.06415272448699501	3.6756803573703833	1.1585036916017621	2.9182078444558686	0.06699349829235168	3.82959897747484	0.43294478191639285	-0.4625200728193031	0.8954648547356959	118.49657903450023
17	6.0	wm	394	diff_vonmises	0.1777327422929136	10.18333601467026	0.6079784508301421	302.6161866563108	0.5977550713390416	303.9370929969645	0.2355031590578136	-0.42386202493421976	0.6593651839920334	111.0184889976631
18	7.0	ltm	394	diff_vonmises	0.060097717304352115	3.443345559909711	2.174017320100266	1.7387109885527172	0.43628771353294504	4.060870011865145	-0.010748434521636874	-0.5108825025573113	0.5001340680356744	73.18531852805572
19	7.0	perception	394	diff_vonmises	0.13640622130763308	7.815500780254856	1.2660790284537375	5.8062324243253185	0.5134447949881736	7.634477220552447	0.3689381079985645	-0.5415541602196015	0.910492268218166	92.42102999750438
20	7.0	wm	394	diff_vonmises	0.22914391127294872	13.12897901706017	1.1571896409591518	4.132103733946127	0.4946744114668409	6.42136495123271	-0.04415507731698476	-0.48923942220512584	0.4450843448881411	88.47770259151307
0	1.0	ltm	395	diff_vonmises	-0.04185789424653083	-2.3982806796311475	2.7192468524339466	0.8645368076361075	0.35803372872044326	1.5253938777018599	0.19868700889316826	-0.20021103531339282	0.39889804420656105	73.28238821579004
1	1.0	perception	395	diff_vonmises	0.0013397715141731433	0.07676325327397286	15.635237892596235	0.5182160279528887	3.733296917971801e-15	1.3857021555320128	0.5901876219828704	-0.22054134770599207	0.8107289696888625	34.25181544032904
2	1.0	wm	395	diff_vonmises	0.16071843497792043	9.208488014182587	2.8353244826521435	0.47440152086747145	1.0244920973975139e-13	1.271403604190599	0.09847079766302383	-0.20131361207723772	0.29978440974026155	81.63688471915134
3	2.0	ltm	395	diff_vonmises	-0.009271701403176978	-0.5312293593075641	4.007322959211991	0.5283425228674543	0.3407817306444386	0.7008691718474304	0.25418940878511953	-0.10121331726130069	0.3554027260464202	64.00210305672505
4	2.0	perception	395	diff_vonmises	-0.04444532311574789	-2.546529433627592	7.954250416922421	0.8990536338057121	1.379581902761801e-20	1.0542867616748053	0.8266059421558375	-0.16779482686841787	0.9944007690242553	48.20615801006261
5	2.0	wm	395	diff_vonmises	0.024373592072231966	1.396503957312414	6.937663961555313	0.3286931811982909	0.16464890967269213	0.7489894625963872	0.1990432256629744	-0.1217810271364598	0.32082425279943416	50.16668955450817
6	3.0	ltm	395	diff_vonmises	0.1233923159767596	7.0698589298130035	1.2634164621865018	90.06319082054175	1.246807170913029	90.148869686817	0.24074155209262216	-0.1016562624857027	0.34239781457832486	82.80130503864919
7	3.0	perception	395	diff_vonmises	0.00860701220053596	0.49314547330831787	5.54792424753725	1.3971067672821562	0.19626338976212304	1.6086378117420177	0.9714088168237546	-0.24992620650870584	1.2213350233324605	56.43436780171862
8	3.0	wm	395	diff_vonmises	0.07303642284319871	4.184678779648162	2.9594606057120525	1.3042425951337582	0.9855678026272853	1.6916707873845174	0.27416647186721865	-0.18173244327150487	0.4558989151387235	64.14160229208412
9	4.0	ltm	395	diff_vonmises	-0.11856840589154913	-6.79346924117985	1.7665115718382218	166.4079360017648	1.7521285509601354	166.9427366384356	0.14060112666304292	-0.1927187794247871	0.33331990608783	64.16099650686581
10	4.0	perception	395	diff_vonmises	-0.09367257450860995	-5.367043175468091	2.735280279374289	2.000736799518486	0.06906949783919124	2.6839089845826725	0.7854403337069646	-0.3947467259567485	1.1801870596637132	81.02789747486628
11	4.0	wm	395	diff_vonmises	-0.05491266957383706	-3.1462642083773122	1.3548056967805713	185.28940753469445	1.3375408495219119	186.54547552794386	0.06895521235315982	-0.33148995421625926	0.4004451665694191	70.15426529954394
12	5.0	ltm	395	diff_vonmises	0.019922755900549826	1.1414898293708626	1.558292819157942	1.1055577948614266	5.591596018815148e-17	1.3595738249121683	0.27369531638207634	-0.1946682076127706	0.46836352399484693	108.6731277725474
13	5.0	perception	395	diff_vonmises	-0.010543260527227595	-0.6040843305170164	2.65667449019297	1.5226515508168186	1.0224875958396093e-17	1.6543010481879166	0.6665078226938728	-0.2587099773772238	0.9252178000710966	84.38301498720236
14	5.0	wm	395	diff_vonmises	-0.05074940930154395	-2.9077269657604314	0.6370543132883033	128.5552939245878	0.6248045322834734	128.83845059269694	0.2223519997799528	-0.17934286171665015	0.40169486149660294	113.64495111757505
15	6.0	ltm	395	diff_vonmises	0.3686673105157478	21.123080936991343	0.7436620468346846	82.7945749761309	0.7302965137697747	82.97563592306017	0.15861976979630654	-0.11229524608492891	0.27091501588123545	105.5552895735621
16	6.0	perception	395	diff_vonmises	-0.0893222452307989	-5.117787668357323	1.644928049861152	2.0534830938989086	0.19261350270402255	2.3630272667845413	0.488957131286306	-0.272303084988579	0.761260216274885	98.5982543144644
17	6.0	wm	395	diff_vonmises	-0.06579145097931645	-3.7695724691566794	0.8159496382444575	133.02199373145544	0.7972694106204066	133.4612827595291	0.3413472020948234	-0.24080340307003212	0.5821506051648555	100.58996454525895
18	7.0	ltm	395	diff_vonmises	-0.038115894470369095	-2.1838798855181816	1.1500492482774891	96.11504451610553	1.1218564426005784	96.77142379512115	0.26571081615933423	-0.23901595449740753	0.5047267706567418	82.53965610479727
19	7.0	perception	395	diff_vonmises	0.034349994839852654	1.9681097306197133	3.6039712143629012	1.259538365325802	3.469899733996534e-15	2.251895106992701	0.5560630632300622	-0.3577229125436483	0.9137859757737105	72.22317164255819
20	7.0	wm	395	diff_vonmises	0.33363877884621307	19.11609390978666	5.0034151195804535	0.6103759312945979	5.072290398781694e-19	1.326361120180283	0.31836957846848446	-0.2110730539930352	0.5294426324615197	61.038189279044275
0	1.0	ltm	396	diff_vonmises	0.08203083209732707	4.700020469123128	2.625123363743216	0.6734917832375895	1.6822262931078246e-14	2.99431800342046	-0.06813697936581381	-0.47441767596650547	0.40628069660069166	84.88567061909382
1	1.0	perception	396	diff_vonmises	-0.006333381356790091	-0.3628760217909112	10.490929315459933	0.7100707789005454	1.0444701508745116e-14	3.0126677222739047	0.426412118501113	-0.47948095919351996	0.905893077694633	41.899431887439874
2	1.0	wm	396	diff_vonmises	0.11326102553189292	6.4893787463009245	3.1973325527267042	0.5586470905426928	2.9638764519267125e-12	3.026464820995395	-0.10237212953566055	-0.48104308082041297	0.3786709512847524	76.79790994145682
3	2.0	ltm	396	diff_vonmises	0.09241148289990048	5.294787948709675	4.019107834638166	0.5320390729278129	1.0310970650869668e-14	1.9440522149912416	0.10070007270528969	-0.3092730887884207	0.4099731614937104	68.29530658636233
4	2.0	perception	396	diff_vonmises	-0.05318324434061911	-3.0471754415304955	7.666587005591664	1.0822749071638302	0.02004214463722263	2.4089067345057424	0.7835795891511583	-0.3829487153967037	1.166528304547862	48.90042264729274
5	2.0	wm	396	diff_vonmises	-0.006562230377499926	-0.3759881048232867	4.334766493865472	0.577227352738353	0.05234186589689136	2.206662617713585	0.09374947695713565	-0.34519929309460556	0.4389487700517412	63.74239388953754
6	3.0	ltm	396	diff_vonmises	0.18221464295951795	10.440130007063559	2.7912389237515827	0.6565792710950592	6.069680848013862e-16	1.6290562922269798	0.15329974569522004	-0.25771950231662794	0.41101924801184797	82.28983073664062
7	3.0	perception	396	diff_vonmises	0.016403543739957588	0.9398538253578117	5.100890846321153	1.8123438949643658	0.044696794921424046	2.796241230902087	1.1232101287059566	-0.4373848901713767	1.5605950188773332	59.81456550178561
8	3.0	wm	396	diff_vonmises	-0.06076910833402129	-3.4818134323126975	2.646252307641925	1.1410228491855223	0.29936412365365284	2.5072715451393344	0.16870099858779153	-0.34126228949501974	0.5099632880828113	73.72876867960554
9	4.0	ltm	396	diff_vonmises	0.0420131503504838	2.407176199131297	0.9918265489725689	4.078225269791227	0.48121310455403893	5.764797054002175	-0.01493786902037364	-0.36883047594273577	0.35389260692236213	94.24541471616217
10	4.0	perception	396	diff_vonmises	-0.0277037425197306	-1.587307523097688	2.3474993668626842	2.703494895483508	0.1702944110525275	4.764719534200898	0.6424972520969932	-0.6462819874126724	1.2887792395096656	82.83318695003894
11	4.0	wm	396	diff_vonmises	0.10700734913273682	6.1310694821887095	0.8313598166512124	274.0841610847625	0.8195964449473514	276.55527002249073	-0.14403795437213773	-0.5015506740619742	0.35751271968983644	83.58006242342762
12	5.0	ltm	396	diff_vonmises	0.165202873947449	9.465427440620571	1.9632666682684905	1.0080634837250728	5.139000176189818e-19	2.0109636756437013	0.19415808177163307	-0.3099173888522533	0.5040754706238864	97.8324105090808
13	5.0	perception	396	diff_vonmises	0.02063870079683297	1.1825104502918182	1.98668606118957	2.2583837359077688	8.140581054519936e-21	3.058386441917057	0.6736026665411674	-0.46493062853213424	1.1385332950733016	97.32716439777451
14	5.0	wm	396	diff_vonmises	0.013835287104398984	0.7927035594338354	0.6155057245421734	156.8003011990903	0.5993534002369368	158.01497618981773	0.15728173645226917	-0.35710171531362533	0.5143834517658945	109.37199679223852
15	6.0	ltm	396	diff_vonmises	0.38734064769228016	22.192984346631384	0.47959876721848144	116.341086533863	0.46726775424216044	117.06352417944734	0.09312455438285383	-0.23384195670774766	0.3269665110906015	122.9641810091463
16	6.0	perception	396	diff_vonmises	-0.05136276421537814	-2.9428696136667405	1.7091506218118662	1.5905368147041046	1.5345659509459207e-17	2.4424782916481678	0.3571079685270325	-0.36429271247123474	0.7214006809982673	104.33634521415425
17	6.0	wm	396	diff_vonmises	0.03912324827357949	2.2415970069185893	0.5216635876242346	198.00241812965328	0.5112583285136241	199.20241698950113	0.08740789745081656	-0.3364214740801721	0.42382937153098865	117.07008893909314
18	7.0	ltm	396	diff_vonmises	0.00262369711683467	0.15032677151526905	2.247560682630367	1.6573663652321091	0.5232602864941682	3.2566856269190247	0.09937437803878091	-0.3893197472675946	0.4886941253063755	72.41939159169422
19	7.0	perception	396	diff_vonmises	0.10746344750269565	6.157201993830148	2.0884829347789533	1.7456346364395594	2.262095217787396e-16	3.039101020516702	0.44067926963326975	-0.4695033159326529	0.9101825855659227	95.01392887745567
20	7.0	wm	396	diff_vonmises	-0.4208595197232538	-24.11347424804527	0.02416755665920405	48.62770820828375	9.63512594013547e-09	50.514194157917046	-0.11208219451185375	-0.4861449823559729	0.37406278784411917	173.73079847030806
0	1.0	ltm	397	diff_vonmises	-0.06462577269910046	-3.702784023430235	0.9025339263309428	380.154018113718	0.8896339488936984	383.764231485803	-0.22381044609211642	-0.7390598658743599	0.5152494197822435	79.79339568468706
1	1.0	perception	397	diff_vonmises	0.03972361869849614	2.2759956984107887	7.288995794649096	0.8468692225974479	6.494177964683516e-19	3.712799807882534	0.3043899477033021	-0.5909100244000888	0.8952999721033909	50.38488029267907
2	1.0	wm	397	diff_vonmises	0.0690883996658333	3.958473714165295	8.046733361140037	0.3541101049402151	8.018398998203262e-14	3.5809709109227925	-0.1758145327925576	-0.5699291811472502	0.3941146483546926	47.912103134081036
3	2.0	ltm	397	diff_vonmises	-0.058052870453052394	-3.3261844655796216	3.0607918373682916	0.7908520021428336	0.004337896940167444	3.089415052992135	0.030065181619956582	-0.4884150487075283	0.5184802303274849	78.15771223286228
4	2.0	perception	397	diff_vonmises	-0.045376162393605875	-2.59986259565386	6.413788253557038	1.3386926425170032	0.09532146116479155	3.57878000401681	0.6986307796721721	-0.5714401478186724	1.2700709274908446	52.544513445404164
5	2.0	wm	397	diff_vonmises	-0.02991253159131678	-1.7138618147341957	3.490344240224009	0.7137506402240503	0.11554593975944889	2.9463983814153987	-0.01556851699233186	-0.4518494071338257	0.43628089014149385	67.92487551753598
6	3.0	ltm	397	diff_vonmises	0.08303224964534366	4.757397468154818	2.5604103612160003	0.9140060939390763	0.22038876816468206	2.2238178417599324	0.11037505874268627	-0.30955416442687206	0.41992922316955833	76.2731576583777
7	3.0	perception	397	diff_vonmises	0.08124413871190107	4.65494625836736	4.1949965543944945	2.3464323782942285	0.17727940418215415	3.240723452480434	1.2402735899464012	-0.4846425382230003	1.7249161281694017	64.33557020296325
8	3.0	wm	397	diff_vonmises	-0.15418825573500117	-8.834336304099377	3.419898427172486	0.6139627801999721	4.701942152446947e-32	1.9825458874939001	0.11741462622166454	-0.31506857289295787	0.4324831991146224	74.19084965199187
9	4.0	ltm	397	diff_vonmises	0.09241072127315486	5.294744310711587	0.00021150955787774058	6628.517412799299	6.432056515474044e-29	6630.578120519305	-0.1048285744407167	-0.5510914690923983	0.44626289465168156	179.64327118483638
10	4.0	perception	397	diff_vonmises	-0.0164661916162281	-0.9434432842635699	1.0965390987126389	53.17458298200665	0.9546301464033877	55.68859339398216	0.5863296331613306	-0.7665336380633114	1.352863271224642	85.12146520417679
11	4.0	wm	397	diff_vonmises	0.023880167642668187	1.3682328199897593	0.5003014196833857	28.07489139854482	0.4326785900936407	30.37592871494319	-0.18613555263830683	-0.44995115655953644	0.2638156039212296	109.71826384380527
12	5.0	ltm	397	diff_vonmises	0.3492195038673705	20.00880369525286	0.8590006844758782	183.81605503624056	0.8412101556110502	185.51418824584945	0.09501378477524014	-0.41166162665030726	0.5066754114255474	89.37977806203762
13	5.0	perception	397	diff_vonmises	0.062130380460670015	3.5598085799384673	2.3251440566696457	2.6847466040450665	1.666962804750418e-23	4.28497185522117	0.833859880687366	-0.667482833829792	1.501342714517158	90.18464845840745
14	5.0	wm	397	diff_vonmises	-0.008469744904474115	-0.4852806365788014	0.4616201645985617	197.3617426899279	0.4487379453457005	199.16049622096796	0.044927399701578	-0.4719031867846404	0.5168305864862184	122.32035214234952
15	6.0	ltm	397	diff_vonmises	-0.4155692584480181	-23.81036460445277	0.00015578389993307584	5188.785142000717	1.7803354930839512e-29	5190.177642564855	-0.09296945718256211	-0.35026721835163244	0.2572977611690703	175.11385774395004
16	6.0	perception	397	diff_vonmises	-0.2417804447039883	-13.852999050334706	1.336921477507517	1.9695283272745068	3.250129368930184e-15	3.1999941975723987	0.2866959903265224	-0.4543817041276857	0.7410776944542081	115.53820939958267
17	6.0	wm	397	diff_vonmises	-0.3806347171386736	-21.8087628282019	0.280935745006865	124.82118508569324	0.26801493147319916	126.41307219060675	-0.03895065052434177	-0.4078359575235808	0.36888530699923905	142.60327484714423
18	7.0	ltm	397	diff_vonmises	-0.05392213913313794	-3.0895109946460195	1.859983485746549	3.1145669153044717	0.9525300746210003	4.569652980845281	0.01722373824564949	-0.36311853490545104	0.38034227315110053	67.95864755645991
19	7.0	perception	397	diff_vonmises	-0.002914878721868315	-0.1670102485555422	0.9417332163923262	241.63615481492	0.9216258779061796	242.6538701254443	0.5911357078025503	-0.4480223337178515	1.0391580415204018	92.68734911752196
20	7.0	wm	397	diff_vonmises	-0.660019057369984	-37.81630638550303	0.0003382153815774832	2957.150344573211	1.0715263172578454e-24	2959.1027949874147	-0.15155008488528665	-0.46990726633077884	0.3183571814454922	167.92895981188656
0	1.0	ltm	398	diff_vonmises	-0.09709567822140625	-5.563172571046882	1.126442148046969	241.90997948591678	1.112005862725766	243.28040997994768	0.15508987414152386	-0.36579889914539976	0.5208887732869236	78.98972854846747
1	1.0	perception	398	diff_vonmises	-0.00466979480618284	-0.267559533586389	8.060965555920365	0.7086224832685885	6.428761520777e-23	1.9865251196689337	0.47316632013107957	-0.31616521372671036	0.78933153385779	47.874917645014534
2	1.0	wm	398	diff_vonmises	0.11022027442081023	6.3151565410861705	5.2035127267254335	0.4025179632631053	4.197874965968454e-22	1.6631577503367398	0.09180008673344087	-0.2646890021886833	0.35648908892212416	59.82919130321059
3	2.0	ltm	398	diff_vonmises	-0.1093810125553194	-6.267070378287269	3.8741508522214354	0.5888148224357113	2.452912220149935e-15	1.4784170025615901	0.2095504423561523	-0.23510541717781738	0.4446558595339697	69.59446109792947
4	2.0	perception	398	diff_vonmises	-0.052920881626567814	-3.0321431653137587	6.544667066350636	1.109026736032194	3.1760029727301125e-15	1.9858540381381093	0.7924216922017899	-0.3160561950163773	1.108477887218167	53.22026697532152
5	2.0	wm	398	diff_vonmises	-0.08352241537646024	-4.785481895809743	4.294852538253265	0.5262886833146053	0.13665717826905113	1.4287028412592357	0.161107991206848	-0.2207699436990781	0.3818779349059261	62.739077059980644
6	3.0	ltm	398	diff_vonmises	0.04664483099310932	2.6725519520061805	1.1816745642554596	103.5529322483628	1.161835510320352	104.00320433552618	0.21349650668857123	-0.17462752189964448	0.3881240285882157	81.73442753021186
7	3.0	perception	398	diff_vonmises	0.05347805660051851	3.0640669397714455	4.557217310159088	1.8965051359593335	0.17919535606758374	2.0952732021178524	1.1691427516298505	-0.31479040660190644	1.483933158231757	62.20106986303392
8	3.0	wm	398	diff_vonmises	-0.12730177701117468	-7.293854547255837	2.6988289439059465	0.8651560880351767	0.22062602524926067	1.3559946032014352	0.26732906503498804	-0.18359398618843084	0.4509230512234189	77.31713586209779
9	4.0	ltm	398	diff_vonmises	-0.2365782238284709	-13.554933750072708	0.7623623394688257	101.61527752563725	0.7461112602066707	102.38068666066981	0.09071696744867452	-0.20727722472404153	0.29799419217271605	97.3486511229014
10	4.0	perception	398	diff_vonmises	-0.07045309397095358	-4.0366649381742254	1.7892276235089113	4.817433161201225	0.5398939614411037	6.077447853469531	0.7778705356005848	-0.5389243202574686	1.3167948558580536	84.2358631434758
11	4.0	wm	398	diff_vonmises	-0.00011046423728193312	-0.006329134583386448	1.0176296667642684	140.73451724697298	1.0011320776256911	142.02942896286447	-0.0039056377331547765	-0.2934281973916235	0.28952255965846874	79.10150588546858
12	5.0	ltm	398	diff_vonmises	0.3415838601438854	19.571313536031607	0.9853277538842351	85.18993072173352	0.9583630806991424	85.73988923727296	0.2519313988282015	-0.21395706953728144	0.4658884683654829	89.93618860389495
13	5.0	perception	398	diff_vonmises	0.035083643657290324	2.0101447115036555	2.552568357436282	2.096598973187808	3.836407442727656e-16	2.4569669295797287	0.8597902054533902	-0.38345151812486483	1.2432417235782551	86.08872609646875
14	5.0	wm	398	diff_vonmises	-0.02539644811865573	-1.455109291821933	0.5244731161300846	143.87944794445204	0.5123535939078603	144.44344453293803	0.1863333833582672	-0.24390655159952424	0.43023993495779145	121.60856820110845
15	6.0	ltm	398	diff_vonmises	0.3870392280958936	22.175714275895896	0.8449810012603846	58.05618784300129	0.8276770100195031	58.51514296155019	0.04997163556996753	-0.12057655646314647	0.170548192033114	91.94355383578113
16	6.0	perception	398	diff_vonmises	-0.24562158804039563	-14.073080352015646	1.6674638770070778	1.5809352946251254	7.674093590451932e-18	1.9677608318792263	0.4170964857867986	-0.2871684592067383	0.7042649449935369	105.34915573411216
17	6.0	wm	398	diff_vonmises	-0.3162496434945224	-18.119769844753044	0.5441863567347685	84.80805652774725	0.5252548808306324	85.47672491699842	0.1334441543935334	-0.23439058694139892	0.3678347413349323	118.13090394848798
18	7.0	ltm	398	diff_vonmises	-0.04016349804417008	-2.301198928412882	1.5609468648315454	27.36238102447123	1.4730393740626997	27.906966087756587	0.18594569321703247	-0.19681927275409183	0.3827649659711243	70.29930694588379
19	7.0	perception	398	diff_vonmises	-0.022879658247953957	-1.3109078543094452	2.2409305908226456	2.2156675030110224	0.2682856499013152	2.690092327768809	0.6739043210415019	-0.325327331081116	0.9992316521226179	84.0825781950447
20	7.0	wm	398	diff_vonmises	-0.3895004883142428	-22.316734098690752	0.00019946243355161184	5758.651314671353	8.78727407895528e-31	5759.465592160275	0.053220909340325306	-0.3123952533244392	0.3656161626647645	175.69763464904787
0	1.0	ltm	399	diff_vonmises	-0.02228271567017886	-1.2767055639912723	0.9070458805197653	190.84816337902973	0.8918022393426178	192.2492841109026	0.10410276322567569	-0.34883021184666774	0.4529329750723434	87.42934869781655
1	1.0	perception	399	diff_vonmises	0.0060654285039475056	0.34752345421454106	8.570233996919026	0.61196142004436	3.701571484743351e-24	2.063981985040532	0.37506851691000426	-0.3284929100538869	0.7035614269638912	46.41263989355147
2	1.0	wm	399	diff_vonmises	0.11905388616108882	6.821285211661348	5.154291331344884	0.39621157312418914	4.514444262203922e-21	1.765097196267791	0.0682410686139448	-0.28091230009889256	0.34915336871283736	60.11734707909747
3	2.0	ltm	399	diff_vonmises	-0.11671328069904388	-6.6871783971809045	3.023718340049825	0.8016460717199527	0.13360789468342277	1.681249788562772	0.22291387020582687	-0.24561609179380667	0.46852996199963354	74.4287908320797
4	2.0	perception	399	diff_vonmises	-0.048770246773189675	-2.7943293059152903	6.548613295025774	1.053979433995021	1.1676198953629867e-21	2.0602200513205466	0.7258546651822657	-0.32789204369743763	1.0537467088797032	53.20493040891367
5	2.0	wm	399	diff_vonmises	-0.02586572671792145	-1.4819969749756698	4.821584490205167	0.467029941007086	0.10412830291643355	1.5009752765886728	0.13274386986536096	-0.23555288643968178	0.36829675630504277	59.73874050832089
6	3.0	ltm	399	diff_vonmises	0.0724306248593893	4.149969111938348	1.1386254032626013	183.27554549766012	1.125180156256803	183.83875834127278	0.2538105394042276	-0.2139706665960155	0.4677812060002431	83.05269879868837
7	3.0	perception	399	diff_vonmises	0.03103551154580257	1.7782038266040248	4.2732271931629455	2.0386444746903005	0.22482120167783276	2.5990587669890313	1.113257922175733	-0.38586274776053514	1.4991206699362682	63.43662363646294
8	3.0	wm	399	diff_vonmises	-0.03311669818671279	-1.8974470375071892	1.4963631743295027	2.7925455886761803	0.6736244683574195	3.583265521624801	0.2061753267528117	-0.2457986443405181	0.4519739710933298	83.92475383999479
9	4.0	ltm	399	diff_vonmises	-0.07717613745897217	-4.421866955520603	0.7741091018724221	114.41706228686192	0.7564500832730641	115.45070875591485	0.0805211065301279	-0.26161811962762016	0.34213922615774806	95.31642227428426
10	4.0	perception	399	diff_vonmises	-0.079912618260844	-4.578655756186434	1.8245910946787431	4.344027731426127	0.46033484387405477	5.770870939351957	0.7383402602103075	-0.5615999022271204	1.2999401624374278	85.01699905444946
11	4.0	wm	399	diff_vonmises	-0.03305165089722347	-1.8937201023506856	0.9715898134414338	183.24533061737287	0.9563902108792876	184.87817554640228	-0.016052170390196352	-0.36349338786854446	0.3474412174783481	80.63918950253469
12	5.0	ltm	399	diff_vonmises	0.2123436421012388	12.166394498837443	1.6986300682184712	1.6243976418775756	0.3359002030423734	2.2785362270571854	0.2654657038339897	-0.23873280005727454	0.5041985038912642	90.22817801737304
13	5.0	perception	399	diff_vonmises	0.004746474036668617	0.2719529298695349	2.394982377218048	2.046784758440893	1.0221828732496382e-16	2.570453732105134	0.7670312096461176	-0.3993230013009966	1.1663542109471141	88.87428559763356
14	5.0	wm	399	diff_vonmises	-0.08142713568858473	-4.665431212794988	0.5619460988840466	148.8525419957254	0.5498588835308621	149.56034074586896	0.15762573712613914	-0.2533643347278378	0.41099007185397696	116.53579850696049
15	6.0	ltm	399	diff_vonmises	0.2087257948525296	11.959107120563388	0.492849574380916	83.74003461186312	0.4806058416978461	84.2857240062209	0.05855837400184427	-0.16771370167890876	0.22627207568075303	121.40961816874938
16	6.0	perception	399	diff_vonmises	-0.20584173071646344	-11.793862417721755	1.8348940282564743	1.5001608922856942	4.906635900402784e-13	2.0893932391545924	0.4019711082449076	-0.3138201706589784	0.715791278903886	100.94200546483985
17	6.0	wm	399	diff_vonmises	-0.17785058243784943	-10.190087757632293	0.6540188853506057	111.43726658890887	0.6371963601413968	112.24422640249543	0.13620258126494633	-0.2479020576979707	0.384104638962917	106.91799481271958
18	7.0	ltm	399	diff_vonmises	-0.04585367799487251	-2.62722222425809	1.2624336039540234	50.29027341665454	1.2037411994886402	51.20035074432486	0.19676795618243048	-0.2770121133120984	0.4737800694945289	76.97803744321178
19	7.0	perception	399	diff_vonmises	-0.013717245452170502	-0.7859402709543923	2.3110787574478175	2.2636986288885677	0.20024392191132206	3.158047469319814	0.6656342802302171	-0.41045098502404104	1.076085265254258	83.8186628719771
20	7.0	wm	399	diff_vonmises	0.1861939494976008	10.66812747708452	6.798569718786527	0.4730531617624419	2.049549754717089e-33	1.6179381347700372	0.2247614581650026	-0.25750225166839447	0.48226370983339706	52.2032100541588
0	1.0	ltm	400	diff_vonmises	0.10007997319791298	5.734160078022811	0.8676001932322616	303.4602496608713	0.8540651519996646	306.66899830286377	-0.2239461122739641	-0.6450777790681315	0.42113166679416736	80.62849922990301
1	1.0	perception	400	diff_vonmises	0.08759767138775292	5.018976865692131	6.870192619548862	0.8311234158416253	0.025948416089010617	3.6966516849072955	0.2483457007512192	-0.5880681014958312	0.8364138022470504	51.36141042701993
2	1.0	wm	400	diff_vonmises	0.09436405023433608	5.4066618161879445	6.793962687879	0.34053129020971534	0.009336062347648265	3.306667556367042	-0.1841777388131744	-0.525986493229184	0.3418087544160096	51.75879233365305
3	2.0	ltm	400	diff_vonmises	-0.014803822066320443	-0.8481965250627989	2.490052202072975	1.376570877156279	0.38433750511914233	3.072031836150146	0.11713286094616293	-0.40453210550338403	0.521664966449547	72.68132105622897
4	2.0	perception	400	diff_vonmises	-0.03127381972634968	-1.791857879572816	6.890286967450472	1.2567621786855543	0.06555579510502786	3.0487481672903773	0.7727715453581123	-0.4859177592643888	1.2586893046225012	51.11041063392858
5	2.0	wm	400	diff_vonmises	0.053745835841193364	3.079409560103332	4.796946207575651	0.5306459375512665	0.0999609260599839	2.407457787124006	0.02768031908817442	-0.3803599467954809	0.40804026588365533	59.22051673905369
6	3.0	ltm	400	diff_vonmises	0.1779299491592127	10.194635135800198	3.411728440933759	0.7292896043368179	0.16136181653870021	1.7606057608793229	0.18643914904815628	-0.26192833243191976	0.44836748148007605	69.36000966126116
7	3.0	perception	400	diff_vonmises	0.06165683162378638	3.532676230191706	5.098053258928079	1.8272712845956625	0.005498843442311665	2.8321159193167493	1.1474705370153366	-0.4487986126430434	1.59626914965838	60.36023488752852
8	3.0	wm	400	diff_vonmises	0.005894749427009105	0.33774426345478203	2.9189455270496665	0.6866411523347568	0.10019944525241607	2.0265520566516484	0.08708094342870454	-0.3022714120151284	0.38935235544383295	75.40879774533613
9	4.0	ltm	400	diff_vonmises	0.42205157073442434	24.181773739949644	0.22135460726136796	170.20710083544847	0.21187471836343122	172.20681044507512	-0.10772940150650356	-0.4810213244803414	0.37329192297383784	148.57857169063604
10	4.0	perception	400	diff_vonmises	-0.06688608579393533	-3.8322904241424265	3.0946742535058194	2.1768476672869457	0.06930152408469005	4.738158351954691	0.6438890059713165	-0.7137427286391933	1.3576317346105098	75.38636523662481
11	4.0	wm	400	diff_vonmises	0.09376162688601665	5.3721455008491015	0.7079965732275736	152.72817281219497	0.6898289904307132	155.23162691621835	-0.17870142856383353	-0.48986250334989734	0.3111610747860638	89.54004555480475
12	5.0	ltm	400	diff_vonmises	0.1538611574746778	8.815594954296778	1.7186674854422557	1.4083286977814942	0.17846037598114575	2.838608344161195	0.1268597767380617	-0.36032765730033955	0.48718743403840126	92.396928310922
13	5.0	perception	400	diff_vonmises	-0.0037508815815896685	-0.21490968407844316	2.2656834229195506	2.5377797322399815	7.325790356055556e-20	3.6917698452202963	0.8234497780373045	-0.572372036984545	1.3958218150218493	91.34234986713813
14	5.0	wm	400	diff_vonmises	0.020455500333562044	1.1720138369415527	0.5806318779418664	196.97208811445222	0.5674707064395128	198.42221130444418	0.11315499311194799	-0.39492404323053876	0.5080790363424867	110.95358889350511
15	6.0	ltm	400	diff_vonmises	0.32898301834459637	18.84933848262031	0.5888782094603408	132.2303665449326	0.5749543996253589	133.34020928252332	0.058359296294248963	-0.2856599941770792	0.3440192904713282	109.07360709889426
16	6.0	perception	400	diff_vonmises	-0.1505950942525653	-8.628463316046831	1.2974465665784536	2.2006255539526864	1.7823282471055197e-16	3.1394317633022752	0.3739703851550501	-0.4344329428206553	0.8084033279757055	117.0645737737516
17	6.0	wm	400	diff_vonmises	-0.011465653799901348	-0.6569335720924822	0.5711507169031009	173.4460529195426	0.5581891700388445	174.70962386581996	0.0983147031822611	-0.34604523477158367	0.44435993795384476	111.92290243950923
18	7.0	ltm	400	diff_vonmises	0.022713314966500038	1.301377086331779	1.2822752256947008	6.387677129707167	0.7969644622308801	8.30437251108447	0.0014873335730061221	-0.43578592325574395	0.43727325682875007	78.55318696585434
19	7.0	perception	400	diff_vonmises	-0.0005701351689670687	-0.0326663389337911	0.998300275303355	400.54647933482727	0.9834499425754937	402.06094470226276	0.6133592836748392	-0.5572862649447785	1.1706455486196177	88.61416937649145
20	7.0	wm	400	diff_vonmises	0.15953115998376557	9.140462167896095	4.001073620570364	0.5427739944779764	2.1109898098127434e-16	2.662058903732948	-0.0063079484986930945	-0.4235401176203951	0.417232169121702	68.45000116364923
0	1.0	ltm	401	diff_vonmises	-0.04875174236443135	-2.793269081391053	1.1429371945526101	119.16260696218862	1.127554837486094	119.48404794022655	0.22411901560017355	-0.14968609674135358	0.37380511234152713	84.28823828382059
1	1.0	perception	401	diff_vonmises	0.0021426179335788265	0.1227629647031085	11.014756518548673	0.5005538254585016	3.037987039035108e-27	0.9617434861493733	0.5018113786663887	-0.1530662296297321	0.6548776082961207	40.87477325862318
2	1.0	wm	401	diff_vonmises	0.12304172444330483	7.049771514613025	4.6706848850635785	0.3413282418344635	4.03740213138697e-27	0.6714154539903673	0.17852923875537044	-0.10683405424727276	0.2853632930026432	63.227693304030254
3	2.0	ltm	401	diff_vonmises	-0.13076703397523087	-7.492399146224573	3.425781009684601	0.6265048729796717	0.34364602876062716	0.6374007396353463	0.30325230700775013	-0.08499743445940815	0.3882497414671583	69.56890879289611
4	2.0	perception	401	diff_vonmises	-0.0333974796892338	-1.913534632566985	6.918764370585218	0.9469515597096831	1.6153716765307765e-16	1.1843060070016058	0.7858744089420129	-0.1884872019893794	0.9743616109313923	51.7341160549141
5	2.0	wm	401	diff_vonmises	0.004149763848389807	0.23776395448870236	5.871023093514	0.3509015924562902	0.42584404722589647	0.5693959528429813	0.19862898127275194	-0.09328139813281353	0.29191037940556547	52.81220454194005
6	3.0	ltm	401	diff_vonmises	0.11008231493893653	6.307252045030996	1.5619677673390497	119.97692075317427	1.5476086514078948	119.9380012329381	0.3150574009919609	-0.09489995370668147	0.40995735469864236	76.07068813556612
7	3.0	perception	401	diff_vonmises	0.015180101650660704	0.8697557571624327	4.6980723355050245	1.7283880912202856	0.3435978559466564	1.857427605737569	1.0448581198460125	-0.27599463779265365	1.3208527576386662	60.10063512711275
8	3.0	wm	401	diff_vonmises	0.023012955435312232	1.318545220566039	1.5749278520435777	65.35506923633433	1.5435982024490988	65.56668564268321	0.2604247697190196	-0.1372882733599985	0.3977130430790181	72.71540956683151
9	4.0	ltm	401	diff_vonmises	-0.12144996261487197	-6.958570279853795	1.55300726475649	115.89443381750026	1.5365769458052236	116.26647913334213	0.16644863011927669	-0.14751839141954015	0.31396702153881684	70.42736229683624
10	4.0	perception	401	diff_vonmises	-0.11030865005172225	-6.320220091749235	2.223437788733408	2.8553656665839924	0.3467645358900953	3.544319169867792	0.7953852604908016	-0.40694787056658543	1.202333131057387	82.43578111259424
11	4.0	wm	401	diff_vonmises	-0.07869424282015443	-4.50884798557253	1.3293653626464457	140.47700181582962	1.3111457369213457	141.47505298980082	0.06484190272331603	-0.26418882469801375	0.32903072742132977	71.17408151057504
12	5.0	ltm	401	diff_vonmises	0.16379978640166337	9.385036445959685	1.7047572640385436	1.3721126678564592	0.3677453484478428	1.4155211488429378	0.3276952902058284	-0.1330134862475563	0.4607087764533847	92.90854083378716
13	5.0	perception	401	diff_vonmises	-0.008445634140342552	-0.48389919155322747	3.0643235529202997	1.5158646827584255	5.34219668918145e-21	1.56111511226155	0.7563160847742891	-0.24626877266505526	1.0025848574393443	78.48725153491208
14	5.0	wm	401	diff_vonmises	-0.1274079872933814	-7.299939948167175	0.5990847611635312	80.84025888137494	0.584166170077003	80.96831553757004	0.19444583466685472	-0.13561034853163445	0.3300561831984892	118.25596015444671
15	6.0	ltm	401	diff_vonmises	0.14856065475680436	8.511898519265007	0.6979187286616632	56.47523648766422	0.6839379134152007	56.60789922476235	0.1130759438283242	-0.0839309528587	0.1970068966870242	108.9251866019909
16	6.0	perception	401	diff_vonmises	-0.21932395725297435	-12.56633709670311	2.1007697976955533	1.3258186453167464	3.9395169086879333e-13	1.5558314959392923	0.4568891363364761	-0.23706876122294762	0.6939578975594237	94.71043973752032
17	6.0	wm	401	diff_vonmises	-0.19223544503184492	-11.014279673143843	0.8770075461716915	61.77765947780613	0.846159274072693	62.13881568485057	0.25067153654412877	-0.17988644369488682	0.4305579802390156	96.99371971446536
18	7.0	ltm	401	diff_vonmises	-0.021988970889168104	-1.2598752277853613	1.1601585669075816	82.35069689244152	1.1330975594535246	82.6836482030883	0.2926525787126266	-0.17608081379013552	0.46873339250276214	84.4939706613417
19	7.0	perception	401	diff_vonmises	-0.03841942507902181	-2.201270908347019	3.448464800877471	1.521772419625783	1.3830945828045813e-16	2.216922145134177	0.7252530328337343	-0.351744249894408	1.0769972827281422	73.87810045205413
20	7.0	wm	401	diff_vonmises	0.26075046133444496	14.939900940552857	9.245382934469326	0.47767297800736847	3.7888591970060764e-19	0.914702726037066	0.4255938463180649	-0.14557945498324532	0.5711733013013103	44.6592768055572
0	1.0	ltm	402	diff_vonmises	0.23265989855203842	13.330430248973695	2.7892981691175507	0.5115024599511554	1.5059253046505903e-16	2.3827517283415487	-0.057933363567409524	-0.3780128003213256	0.3200794367539161	82.30831853793399
1	1.0	perception	402	diff_vonmises	0.051357869929286405	2.942589191729955	6.792984145288572	0.8160045134224854	0.10717384920494581	2.8010883114451923	0.3368103704489757	-0.45188981576499077	0.7887001862139664	50.71940223037632
2	1.0	wm	402	diff_vonmises	0.12993370940200222	7.444653165214031	4.11991519592745	0.4031832329089634	4.1899435589596216e-15	2.3912724387929742	-0.06560172147295024	-0.3804996756309333	0.31489795415798305	67.4354598145585
3	2.0	ltm	402	diff_vonmises	0.08571617382407047	4.91117499612898	3.2243926304022597	0.8656905907827808	0.3882586696838282	1.9305341735622095	0.15422754041482994	-0.2756286095293867	0.42985614994421667	66.40485823296623
4	2.0	perception	402	diff_vonmises	-0.030987942688009248	-1.7754783318162095	7.7523484321844585	1.069230913945965	4.363792144502637e-22	2.184210951605273	0.8195577627132732	-0.3476277541339002	1.1671855168471734	48.83182301735502
5	2.0	wm	402	diff_vonmises	0.07246611439523311	4.152002512559077	6.10416556242148	0.4302699512975706	0.055095335436812456	1.8006905190227322	0.11203336966329658	-0.2864520164836487	0.3984853861469453	53.922571419501594
6	3.0	ltm	402	diff_vonmises	0.2573218648094756	14.743456830018891	2.8097766041991257	0.8864760712564052	0.2970269109487962	1.5977845876729748	0.22437505075529351	-0.21607128065584602	0.44044633141113954	73.53621855471059
7	3.0	perception	402	diff_vonmises	0.013934515855738848	0.7983889480919627	5.655920330294641	1.6250301723616152	2.795797390233805e-17	2.586385009352851	1.0926433366531472	-0.4116175644380855	1.5042609010912327	57.3317932664898
8	3.0	wm	402	diff_vonmises	0.03388822198157828	1.941652094746899	3.939520449593981	0.7212313430498865	0.23396261027125972	1.945486727741258	0.1639728078980801	-0.2970354133734855	0.4610082212715656	63.27502386285957
9	4.0	ltm	402	diff_vonmises	0.3666163102914074	21.005567280356253	0.6975381972035856	184.32410441137898	0.6855679719674204	185.86899072512819	-0.01497859191323414	-0.33904882997158126	0.3240702380583471	96.040294753301
10	4.0	perception	402	diff_vonmises	-0.06831572770506335	-3.914202871865079	3.15102740565976	1.9502677759566274	2.5662150682951235e-16	4.056427217707873	0.6678569720387484	-0.6431934687860486	1.311050440824797	77.3698106400658
11	4.0	wm	402	diff_vonmises	-0.04052894781696083	-2.3221376580178066	1.0005464543361005	221.64886990234066	0.9845639466323065	224.01859898556293	-0.13228068572591667	-0.5005834274081202	0.36830274168220356	76.30406925698082
12	5.0	ltm	402	diff_vonmises	0.07192086792017911	4.120762190744098	1.8060883931224585	1.03425729273381	9.928829066738173e-13	1.8566943168640642	0.20604558304993198	-0.2819636812426638	0.4880092642925958	101.74322755655362
13	5.0	perception	402	diff_vonmises	-0.032646048110394545	-1.8704807745066436	2.2304185639914533	2.03677462998661	4.0849184487519286e-20	2.5768419629478734	0.7117966762774122	-0.3971558678295278	1.1089525441069399	92.0450395119384
14	5.0	wm	402	diff_vonmises	0.015497764382765782	0.8879564910206486	0.6793552721577746	138.4904702667613	0.6630271666842164	139.40666153139358	0.1761103919917062	-0.2879281916074721	0.46403858359917827	105.27372337458894
15	6.0	ltm	402	diff_vonmises	0.3685933903948437	21.11884562604244	0.5011557165697069	129.3536916456136	0.48934480331797753	129.85721604459314	0.16209853994185153	-0.21933538521046358	0.3814339251523151	123.28317058244241
16	6.0	perception	402	diff_vonmises	-0.058368002979330834	-3.3442402293226716	1.724623562864527	1.6066000160540457	9.686229430719567e-19	2.171154931388697	0.4119452947810257	-0.32148325857394694	0.7334285533549727	103.91556281235434
17	6.0	wm	402	diff_vonmises	0.12065053519712556	6.912766462789884	0.6862135485430025	182.9142213113282	0.6741243986028855	183.77589342867643	0.180117649938353	-0.2764560423924358	0.4565736923307888	104.87428569978547
18	7.0	ltm	402	diff_vonmises	-0.011944196051399354	-0.6843520234220059	1.4212558512203861	3.2814011528348406	0.5447340866590428	5.002685417088141	0.09944277961996839	-0.41396172273262904	0.5134045023525975	84.59161033159467
19	7.0	perception	402	diff_vonmises	0.04163686323803456	2.385616535702791	1.1122051008330598	10.500850443360873	0.6476249311815906	12.060536478311734	0.4981685818809267	-0.5354056326894968	1.0335742145704234	93.77618514827137
20	7.0	wm	402	diff_vonmises	0.21674801326024312	12.418746377657534	6.130736478804896	0.5116018301248888	1.3678541282516915e-29	2.312934092243187	0.12594057589015428	-0.3681125559157587	0.494053131805913	55.02541535015524
0	1.0	ltm	403	diff_vonmises	0.18454915503250094	10.573887696067821	0.9931057412791487	83.60615418954914	0.9594003995168596	85.47148522098922	-0.08895699227651122	-0.3962921067624574	0.3073351144859462	77.60308883865446
1	1.0	perception	403	diff_vonmises	0.13604717165199187	7.79492875035099	5.384675287699941	1.0183356629323572	0.23841661665698835	2.984227605108573	0.3241273155426	-0.481833857903314	0.805961173445914	55.018421089506745
2	1.0	wm	403	diff_vonmises	0.10565222192828076	6.0534264126700155	5.506830732054106	0.2983197803500726	0.03896707428872697	2.203857655569469	-0.09226359218869351	-0.35015053035665406	0.25788693816796054	56.391719334238104
3	2.0	ltm	403	diff_vonmises	0.04361489823069259	2.498949592511287	2.004347801846937	3.2146510696579025	1.1307494838677394	4.029106160990148	0.18471867756249427	-0.2631722292466058	0.4478909068091001	68.34283075835876
4	2.0	perception	403	diff_vonmises	-0.011994163078925809	-0.6872149232140857	8.060003396758503	1.0717918415369747	0.0012199372433287965	1.9485508164077348	0.88325224317791	-0.30997660078971667	1.1932288439676266	47.865833282751225
5	2.0	wm	403	diff_vonmises	0.1055196647927896	6.045831448262028	6.694581152088601	0.36419192539212136	0.13967196142939367	1.5049442279359377	0.09426363521242548	-0.24556994809316218	0.33983358330558766	50.39602256829258
6	3.0	ltm	403	diff_vonmises	0.2414153694851701	13.832081781091608	3.0378931462623924	0.8442935707936271	0.5652733594436077	1.2699039300773258	0.22803787073284465	-0.16158193485979944	0.3896198055926441	67.87715724433124
7	3.0	perception	403	diff_vonmises	0.03726194933680275	2.134952433429094	6.211499514900417	1.4052195901466997	1.3642337364860647e-16	2.0329278286255907	1.043029298675087	-0.3235450122751594	1.3665743109502464	54.65580686376828
8	3.0	wm	403	diff_vonmises	0.09008548615035285	5.161518151799448	5.398065069748708	0.4435650652395456	0.20704652798660728	1.2891699723209198	0.15090884701282184	-0.20689346931768746	0.3578023163305093	55.39068183702807
9	4.0	ltm	403	diff_vonmises	0.6293357529690434	36.05828254181396	0.6836744086218562	133.53722622412167	0.6708473057756409	134.78962719909757	-0.02331274980993925	-0.27066735855877866	0.2473546087488394	96.44804650976133
10	4.0	perception	403	diff_vonmises	-0.10398985581608407	-5.958179850435574	3.7110618135419533	1.7901458612225216	2.1011001093128242e-19	3.644625421178403	0.7408400665790708	-0.5792704125902346	1.3201104791693052	71.14715655163218
11	4.0	wm	403	diff_vonmises	-0.1067865125275694	-6.11841647675062	1.180103944021424	181.063441446048	1.1608000703300252	183.00843193605908	-0.07488961259393534	-0.44118328036841703	0.3662936677744817	71.37595016203187
12	5.0	ltm	403	diff_vonmises	0.003997625559149908	0.22904707261291557	1.8495822334444476	0.9512832643493074	3.4096900968613567e-13	1.7862210081855254	0.18374229767218786	-0.2727045807330658	0.45644687840525366	100.64840190106892
13	5.0	perception	403	diff_vonmises	-0.05263125366530258	-3.0155487055042824	2.7413585978651374	1.9083636440806881	8.948568367304424e-17	2.3471514907924464	0.8132573632596685	-0.36862595196905107	1.1818833152287196	83.052163832037
14	5.0	wm	403	diff_vonmises	0.030937146777689734	1.7725679405383763	0.6674819563938015	141.5801773838739	0.6529290802767934	142.36654012054993	0.17514802702241639	-0.2605413646097947	0.4356893916322111	106.75457289893214
15	6.0	ltm	403	diff_vonmises	0.3392102326215899	19.43531469686798	0.6774772867830368	173.51460767860067	0.6671820209719513	174.04542619401533	0.19226048495318082	-0.2110831691734436	0.40334365412662443	107.63267765576816
16	6.0	perception	403	diff_vonmises	-0.10261226189658505	-5.879249532965396	1.4852214356205826	1.9953778771231108	2.315395536687758e-18	2.3698844504574232	0.4819555314738015	-0.3331216135830652	0.8150771450568667	110.88754399698982
17	6.0	wm	403	diff_vonmises	0.06683728089516403	3.8294941094232673	0.7813475639503381	164.35690782921185	0.7659443861320886	165.02332203298113	0.2854176032477085	-0.26912133689239504	0.5545389401401035	100.79864520665475
18	7.0	ltm	403	diff_vonmises	0.016320913656546927	0.9351194703175669	0.8387747705128975	159.07106825922793	0.8193193495669191	160.70024003917726	0.09011456651946759	-0.394872311927422	0.4849868784468896	90.54268241312494
19	7.0	perception	403	diff_vonmises	-0.026645195771029317	-1.5266572619798093	1.0807834019713636	388.56010222066374	1.0644015172017334	390.1924351841093	0.6178173580934754	-0.5804115544704445	1.1982289125639198	84.8189233266219
20	7.0	wm	403	diff_vonmises	0.33347425514753726	19.10666739622265	7.236420726012633	0.5619335045802394	2.0618214577655954e-20	2.088675249884661	0.2594557502002052	-0.33242268379422757	0.5918784339944327	50.56849666920678
0	1.0	ltm	404	diff_vonmises	0.0618197385286695	3.542010108295048	2.951541037812577	0.8082970018467773	0.2218873576738474	3.090999721957796	-0.08221584394827708	-0.46002666405706366	0.3778108201087866	68.94262030344498
1	1.0	perception	404	diff_vonmises	0.060448219615982804	3.4634278630757285	10.164484965562588	0.7723676609699608	0.11673473287719494	3.1829443705785985	0.4020156850517902	-0.5291800007569679	0.9311956858087581	41.63423228680321
2	1.0	wm	404	diff_vonmises	0.13794386853285026	7.903601476639803	3.309635411170454	0.5035287238677915	0.06416393535376544	3.0423635230086883	-0.16713945110087236	-0.4714688359396033	0.30432938483873095	70.36694540519963
3	2.0	ltm	404	diff_vonmises	0.044007532792445264	2.521445895790684	3.0969686713999276	0.8045122142264735	0.33755829624619754	1.7966059977666906	0.14691224124877766	-0.25451196892422134	0.401424210172999	68.4939491731252
4	2.0	perception	404	diff_vonmises	-0.03756056344052071	-2.152061761275215	7.918293944344719	1.0695007423367202	0.10243089387383973	2.02856418239021	0.823668050540919	-0.3274494090707635	1.1511174596116824	47.61706589329938
5	2.0	wm	404	diff_vonmises	0.07035618930431728	4.031112709760843	6.253998038357177	0.3945704898269668	0.06844834046063716	1.7628648301569367	0.08500817740086292	-0.28156567841918023	0.36657385582004315	52.99473888998452
6	3.0	ltm	404	diff_vonmises	0.18590652074542544	10.65165902267416	2.616255142794467	0.7253890534936122	0.22916254568955574	1.3485835613307946	0.1726212061604227	-0.18338941959188573	0.35601062575230846	77.16502938422647
7	3.0	perception	404	diff_vonmises	0.027193656447366137	1.5580817439627999	5.922504715810417	1.4727330887437182	0.043775386581466395	2.185544142764611	1.0333721251653367	-0.344139654382472	1.3775117795478087	55.551615385706754
8	3.0	wm	404	diff_vonmises	0.0683663859935351	3.917105377991867	4.2664838113127725	0.6346749400911027	0.2736395308403161	1.7236443919655071	0.15137880459977787	-0.2678429843082231	0.419221788908001	60.47521751254871
9	4.0	ltm	404	diff_vonmises	0.09023605555061318	5.170145142958181	0.9710858996316551	155.2358143350715	0.9561658669964757	156.66760749354057	-0.03794445256522039	-0.3117036640343471	0.27375921146912674	79.63161911149109
10	4.0	perception	404	diff_vonmises	-0.06490139225518698	-3.718575860745262	3.2251645735699626	1.8494638672384038	6.059335801377037e-20	3.4890280438047006	0.7066827023173641	-0.5533019756007218	1.2599846779180859	76.45644586667598
11	4.0	wm	404	diff_vonmises	-0.0036160005496208964	-0.20718157021026337	1.004210551324325	223.37835089787177	0.9887871626258077	225.5529287805682	-0.08652160010096566	-0.4688966812997677	0.38237508119880204	77.37312125323442
12	5.0	ltm	404	diff_vonmises	0.014325223344470419	0.8207748382204368	1.8071301191679856	1.0337457423081935	1.4525622428676187e-19	2.0887674556636577	0.16903535719255897	-0.3189293257489872	0.48796468294154616	101.7305806930888
13	5.0	perception	404	diff_vonmises	-0.007569380386002705	-0.43369354964706097	2.338425999794977	1.9744647355682998	1.8843258948463097e-16	2.755318166293288	0.6800578299732811	-0.42810906278425503	1.108166892757536	89.93610941794236
14	5.0	wm	404	diff_vonmises	0.004796581244492051	0.27482386140100257	0.6053483109525443	213.552498766297	0.5939887726175301	214.73619986748216	0.14612891626703117	-0.3459284158160294	0.4920573320830606	109.93965678374225
15	6.0	ltm	404	diff_vonmises	0.3833964872042384	21.96700059694433	0.6221208076906241	169.50993672226036	0.6110181240402204	170.3849192980102	0.12257551784402665	-0.2606070100067903	0.38318252785081697	108.80633814311076
16	6.0	perception	404	diff_vonmises	-0.031648772623406325	-1.8133410980903648	1.4402960391543862	2.1483159959622373	0.0371120715859621	3.061173403705344	0.4025190460126551	-0.418350639864479	0.820869685877134	110.34290931928399
17	6.0	wm	404	diff_vonmises	0.05246259819661567	3.0058854589567217	0.6436813157825176	238.12743365571117	0.631643160747742	239.27419636848825	0.23293640151185002	-0.3740129626145787	0.6069493641264287	108.3274871431091
18	7.0	ltm	404	diff_vonmises	0.015119858979149909	0.8663041063382712	1.0154697717591363	138.74376692987266	0.9899931253429386	140.47444007853508	0.08039932380805226	-0.4179380493477183	0.49833737315577054	81.59264920959689
19	7.0	perception	404	diff_vonmises	0.06680475160195833	3.8276303182120373	2.459755228000079	1.8038328161984478	0.11608326729843083	3.411277169756252	0.44529654548840625	-0.4843782878261307	0.9296748333145369	82.63350005199433
20	7.0	wm	404	diff_vonmises	0.3046477991498692	17.455033129236696	3.7086639782018045	0.7166387742194439	0.0745439241378665	2.490717499986802	0.1020431055435721	-0.3840427275677119	0.486085833111284	68.06306946900446
0	1.0	ltm	405	diff_vonmises	0.3428451901770188	19.643582423503247	1.8100885604867532	0.5345875892491035	4.263097791807171e-18	3.02461849784774	-0.22180166955444053	-0.4744314468962315	0.252629777341791	101.39596513403225
1	1.0	perception	405	diff_vonmises	0.07614999533599763	4.363073342693568	9.011056955653832	0.7039452669197778	0.03523055911209533	3.1903166353019743	0.3047250778036472	-0.5115496628498926	0.8162747406535398	44.791945445823416
2	1.0	wm	405	diff_vonmises	0.029420990251093012	1.6856985704831697	5.9228637870445064	0.3346042609135083	0.04517565205756109	3.163958587944508	-0.20921565971863482	-0.50528586560868	0.29607020589004523	53.92321445954164
3	2.0	ltm	405	diff_vonmises	0.07169718645271514	4.10794618670312	2.5722670349866745	0.873242686556226	0.21403989829207729	2.4233724176504228	0.051002077823663006	-0.3423367742265275	0.3933388520501905	75.36375594472517
4	2.0	perception	405	diff_vonmises	-0.012543070906792691	-0.7186650250925516	7.625475545377048	1.2036436133974324	0.14851745965919289	3.081622734298188	0.7368077163709118	-0.504656799300965	1.2414645156718769	47.95430440045763
5	2.0	wm	405	diff_vonmises	0.14383286175445084	8.241015933818666	6.293278928392427	0.3657285426401608	0.016899326655935968	2.391477256624567	-0.028967838334514717	-0.38000995319495967	0.35104211486044495	53.664535711459706
6	3.0	ltm	405	diff_vonmises	0.2405793028382464	13.784178690831226	2.4011919129546806	1.1761891064651298	0.4126139486983899	2.2571836318803076	0.1565653376419447	-0.28313435275068716	0.43969969039263185	74.43250986997535
7	3.0	perception	405	diff_vonmises	0.026594789210443903	1.5237691787984946	5.229081030985796	1.933165806226056	0.14436076180371915	3.274535635005439	1.1174770732546024	-0.5104956058753639	1.6279726791299662	57.976536534844996
8	3.0	wm	405	diff_vonmises	0.06280208435587599	3.5982943782162673	4.38059842685213	0.41859125739712966	0.10859038415076798	2.2035447816897897	-0.05170166424172806	-0.34727596305667857	0.2955742988149505	60.984271481880654
9	4.0	ltm	405	diff_vonmises	0.3577010647889238	20.49476133974095	0.6917564802517923	241.09741429886773	0.6801234833454081	243.4141110510958	-0.11626386064187955	-0.4710128353761647	0.3547489747342851	92.94943500370306
10	4.0	perception	405	diff_vonmises	-0.035781566841113215	-2.0501327643610403	3.098082684304972	2.018827809408631	0.11135665118308373	4.5180679646408555	0.5453624841968542	-0.669317297470591	1.2146797816674453	74.00940042008355
11	4.0	wm	405	diff_vonmises	0.2481920346063966	14.220356091711398	10.648906445663712	0.2314207956463704	2.6944960479340875e-33	3.052709305668533	-0.1882997898747718	-0.48585377565223736	0.29755398577746556	41.57797597955647
12	5.0	ltm	405	diff_vonmises	0.10486022808415152	6.008048508001068	1.2939929276959892	2.6424323990727467	0.3735150552807549	4.149655561682833	0.12049343713478167	-0.37896821716348195	0.4994616542982636	94.05691633928893
13	5.0	perception	405	diff_vonmises	-0.0014890838358963838	-0.08531821913801406	2.588473614746858	2.0170418241576487	6.362822493784815e-18	3.5112426582935927	0.6544018940716145	-0.5519826236930885	1.206384517764703	85.49035930514353
14	5.0	wm	405	diff_vonmises	-0.06346738104662498	-3.636413070720205	0.5434242620048595	168.55845195467094	0.5286854188901953	170.450487185612	-0.010256020287982892	-0.4384070517217111	0.42815103143372824	110.47937416185796
15	6.0	ltm	405	diff_vonmises	0.0877042816495529	5.0250851837460555	0.2975961372641206	109.82635743186127	0.2817911177211506	111.27097749547735	0.010853881845566349	-0.40160289455657505	0.4124567764021414	143.11227640401518
16	6.0	perception	405	diff_vonmises	-0.09887587997790907	-5.665170618376269	1.6259289173558609	1.5654646431684793	3.8022904222640636e-15	3.129612472594907	0.21399919753589614	-0.47053219106323735	0.6845313885991335	106.66015143444422
17	6.0	wm	405	diff_vonmises	0.07035040586038237	4.030781342832323	0.49203974746737145	192.6837027973423	0.4800030359386188	194.47849277250876	-0.0036298049831628987	-0.43176984198413493	0.42814003700097203	116.78723672519104
18	7.0	ltm	405	diff_vonmises	0.06522389400200555	3.7370538497235626	0.8071360335215627	196.0051582218725	0.788978288024173	198.35997484186362	-0.030417683842458132	-0.5118399348347182	0.4814222509922601	88.81750215476242
19	7.0	perception	405	diff_vonmises	0.012328572371564886	0.7063751643122601	0.7853295724898308	266.3775240102759	0.7656719201205737	268.4873930819398	0.3731081260828688	-0.6201974380497894	0.9933055641326582	97.35710876606842
20	7.0	wm	405	diff_vonmises	0.1868425386307313	10.705288897050947	7.732491756149104	0.4668212584087002	0.08182383072137596	3.0753253764991153	-0.021409230822475034	-0.4999927376398689	0.47858350681739387	47.28412374828653
0	1.0	ltm	406	diff_vonmises	0.00020199071737796168	0.011573215606577017	3.5504372207192016	0.6124794484407866	0.024647427291725515	2.034583364008273	0.10916124028860363	-0.3176546562616574	0.42681589655026103	71.46122077895166
1	1.0	perception	406	diff_vonmises	0.003025027581411432	0.1733213133255421	14.795085294395037	0.5450067641219202	1.8388189576985137e-14	2.22352587406138	0.4750837701142816	-0.3538851339494724	0.828968904063754	35.22180316778423
2	1.0	wm	406	diff_vonmises	0.16368556280935895	9.378491916199819	3.0771803632886847	0.519258715048101	1.230059773524011e-13	2.1499749981246548	0.002839933309113307	-0.3414461610404546	0.3442860943495679	78.31102465629277
3	2.0	ltm	406	diff_vonmises	-0.002639741538509886	-0.15124604916198714	3.451450303387164	0.6460309049199088	0.20021894277954858	1.2968506192853366	0.20825572200627576	-0.1901054478119758	0.39836116981825154	68.86878931329372
4	2.0	perception	406	diff_vonmises	-0.05272907166406473	-3.0211532639937695	7.743644448247666	0.943888920365608	0.0008537395027956071	1.5789239408410536	0.7783131211912395	-0.2511888004498915	1.029501921641131	48.84873416139811
5	2.0	wm	406	diff_vonmises	0.021915491729984353	1.2556651820819626	5.962143487116193	0.40487283906379645	0.07155129821799165	1.357012615441421	0.15364059713476852	-0.2156075059805976	0.36924810311536616	54.492053554312264
6	3.0	ltm	406	diff_vonmises	0.11025299169693302	6.317031102925171	0.9881600907967316	146.0601108538346	0.9745403384355498	146.52642086762094	0.21979914653022092	-0.18339440083097003	0.40319354736119095	89.5801156805667
7	3.0	perception	406	diff_vonmises	0.007152664379964924	0.40981748124554795	5.168055839589093	1.5966522930839602	0.13386162984680794	2.1932757772610367	1.0116231098137518	-0.3395446871005419	1.3511677969142937	58.65679874217466
8	3.0	wm	406	diff_vonmises	0.06080252692549793	3.4837281765615806	2.7115103491111223	1.2926095459917182	0.5881568141834909	2.1626715346281116	0.22926593575479548	-0.26589121251820835	0.49515714827300383	69.12337617785235
9	4.0	ltm	406	diff_vonmises	-0.067623791882119	-3.874557869516457	1.294958517685826	184.42061936449895	1.2800748739068095	185.4554062464155	0.0924679161014268	-0.27858702701357885	0.37105494311500564	72.77471707325552
10	4.0	perception	406	diff_vonmises	-0.07849338107308422	-4.497339455199783	2.5220231707281737	2.303289641599001	0.10854407059211556	3.4966018987569827	0.7458673310782791	-0.49582150623070853	1.2416888373089876	82.76081014435005
11	4.0	wm	406	diff_vonmises	-0.020991683332919	-1.202734859851372	1.1192036837000876	236.2228595807643	1.1039453269197228	238.06302734519875	0.009064458675084097	-0.4310129404195706	0.4400773990946547	75.61287188566774
12	5.0	ltm	406	diff_vonmises	0.0197266382341871	1.1302531148003239	1.6055492086314969	1.183185732441052	7.626706775467247e-16	1.8290284886141834	0.24300245158146466	-0.2695678865209443	0.5125703381024089	107.2731003274365
13	5.0	perception	406	diff_vonmises	-0.009711819767634675	-0.5564462840771908	2.205126307497184	1.8451564768754722	1.7010280710132393e-19	2.2998251129848724	0.643370798119774	-0.3537605839839422	0.9971313821037162	92.56509598296842
14	5.0	wm	406	diff_vonmises	-0.04805235245299708	-2.753196991231841	0.6316318246791306	185.82785129429809	0.6205939676873762	186.56345770546267	0.19091408748602845	-0.26345183668564154	0.45436592417167	110.32601168770424
15	6.0	ltm	406	diff_vonmises	0.4061186103667307	23.26888235573159	0.574194054737008	113.2852180051368	0.5618433963628265	113.7836613960471	0.13514304636241548	-0.19029163483600264	0.3254346811984181	115.76907954946233
16	6.0	perception	406	diff_vonmises	-0.05790666128568838	-3.3178072973635415	1.600194166840772	2.037330355911369	0.11389753272292208	2.6924059519022525	0.4391353001323995	-0.3437456901803216	0.7828809903127211	102.11646656538822
17	6.0	wm	406	diff_vonmises	0.0014040201111594625	0.08044442672092589	0.7155011375381416	180.80091775173454	0.7011465520606726	181.64492384140567	0.25449302635446713	-0.3034526780027722	0.5579457043572393	104.11045735075655
18	7.0	ltm	406	diff_vonmises	-0.04804588425877027	-2.7528263910015744	1.5318049818326043	3.996460333748731	0.7669291509968862	5.221622418747195	0.20068635984606398	-0.34295252422422623	0.5436388840702902	79.75441376457565
19	7.0	perception	406	diff_vonmises	0.07139537866537186	4.090653874264168	3.042064863837624	1.4194652630364852	6.21031660564151e-17	2.7155397482657264	0.5048945686797826	-0.43005617598308926	0.9349507446628718	78.77248513436177
20	7.0	wm	406	diff_vonmises	0.2611315079640272	14.961733304225602	4.52777194312813	0.6393830200315752	3.189672387463381e-26	1.9578369300452731	0.21414402053645576	-0.3115380487008535	0.5256820692373092	64.24020045159818
0	1.0	ltm	407	diff_vonmises	-0.05843860836885638	-3.3482856201533626	0.7896225713054045	256.1056885918613	0.7695263103951341	260.0054063805244	-0.17859346905657958	-0.8022536302258132	0.6236601611692336	87.3172902746052
1	1.0	perception	407	diff_vonmises	-0.021888850800493475	-1.2541387692598296	9.785515059393482	0.7929555136900432	1.1478961193440025e-16	4.182711105918426	0.3105066685003709	-0.6656991449417439	0.9762058134421148	43.395505444369775
2	1.0	wm	407	diff_vonmises	0.12336243846913915	7.068147074723981	3.7739357391511974	0.6418563958625537	3.1355347809897947e-22	4.350986053809286	-0.21447057515360562	-0.6922289144857994	0.47775833933219375	70.53519763415491
3	2.0	ltm	407	diff_vonmises	-0.009810170211880952	-0.5620813494457392	2.704103793345166	0.8804256287141373	2.0665080449550427e-14	3.1618260421160036	0.03995298415207382	-0.5007866267015412	0.540739610853615	83.63411788362166
4	2.0	perception	407	diff_vonmises	-0.08697234662141756	-4.983148395756111	5.958297548011084	1.32327581475072	0.09568265483769452	3.38098297991288	0.6682999732292705	-0.5367093206636526	1.205009293892923	54.47630743562607
5	2.0	wm	407	diff_vonmises	-0.09136406780616707	-5.234775484440451	2.85312761712298	1.0503595347714667	0.1501286083765919	3.3589128972013773	0.050742442048704484	-0.4947266617819916	0.545469103830696	73.81008092821321
6	3.0	ltm	407	diff_vonmises	-0.045511945201181625	-2.6076423774583875	0.8626822606006366	5.256451105699873	0.4144164539429458	6.870003255699879	0.07295914256393843	-0.4013827748233853	0.47434191738732373	104.79524601096519
7	3.0	perception	407	diff_vonmises	0.04774057234093202	2.7353333066743977	3.891737761211088	2.396616425970003	0.13256307702994477	3.5886427772243428	1.1658822973785283	-0.5368590340726928	1.7027413314512212	67.07933011126525
8	3.0	wm	407	diff_vonmises	-0.13552328017049028	-7.764911979538093	2.758643387512307	1.01177506728795	2.2634269370833094e-17	2.740444593489372	0.1953484494906918	-0.4336186045213799	0.6289670540120718	82.78365556142964
9	4.0	ltm	407	diff_vonmises	-0.07220504709727812	-4.137044458217372	0.1484588175351657	53.06934855446043	0.11207855708280305	55.343708081672965	-0.07775395558902787	-0.6086394822475167	0.5308855266584889	163.8051904189425
10	4.0	perception	407	diff_vonmises	0.002510497870364161	0.1438409324484477	0.9491422085056783	400.0764406678786	0.9302099754072348	402.5849054907217	0.6154182711948977	-0.7802144291156665	1.3956327003105642	89.25507550589884
11	4.0	wm	407	diff_vonmises	0.2523509906719363	14.458646721447154	0.6623094365942581	299.170444177263	0.650909934223821	302.02111974523194	-0.13609095261168136	-0.582937920040564	0.44684696742888264	95.3947814050957
12	5.0	ltm	407	diff_vonmises	0.27891482697937814	15.980642429539955	1.4206000733652622	2.1745923363398107	0.27950406663083044	3.784389477846349	0.1302800813648255	-0.4057459676533474	0.536026049018173	94.79043700221257
13	5.0	perception	407	diff_vonmises	0.06663327660832513	3.8178055247848226	1.6165372121994157	3.475762162777239	0.08309816253472285	4.888281472504604	0.7315610049167252	-0.6525905487078779	1.3841515536246032	102.82719537556261
14	5.0	wm	407	diff_vonmises	0.002117136384730091	0.12130297949861953	0.5435143518640992	190.6734118686878	0.5275076668954781	192.48333339623233	0.11747219001962605	-0.4922679979092699	0.609740187928896	114.58947934152657
15	6.0	ltm	407	diff_vonmises	0.6222089298490296	35.64994565570091	0.7513448055168944	129.70785216724494	0.736556791294547	130.92929716404808	0.010026937604493469	-0.2754935479193339	0.28552048552382736	93.52734798998083
16	6.0	perception	407	diff_vonmises	-0.10660897239355804	-6.108244176377582	1.3596403858180792	2.0605564135893335	9.086851981236875e-20	3.2863208553637215	0.3181843390391097	-0.4675790039322971	0.7857633429714068	114.97452367997322
17	6.0	wm	407	diff_vonmises	-0.20506042319306114	-11.749096794128985	0.25998256012905435	175.66082779000033	0.25024498549941576	177.34586308402513	-0.03714997514565255	-0.4393831384418654	0.40223316329621284	146.54146389499044
18	7.0	ltm	407	diff_vonmises	-0.053857314094005196	-3.0857967934969426	3.177125807417394	1.422006579418227	0.6917979491391202	3.200016752823593	0.056572017550201026	-0.45568735174664843	0.5122593692968495	60.44282711906152
19	7.0	perception	407	diff_vonmises	0.12219529436814938	7.0012746436536775	0.9998186290602442	11.316533078745678	0.6391804424534226	12.429068426332119	0.4736423988152967	-0.4393179227496634	0.9129603215649601	98.14758993926577
20	7.0	wm	407	diff_vonmises	-0.6588409755728577	-37.74880727060651	0.0867604367031099	91.13320210144525	0.07008371886183629	93.4446855260859	-0.1431312010408341	-0.5746056458374174	0.43147444479658326	160.29134318973558
0	1.0	ltm	408	diff_vonmises	0.22740657477576437	13.029436968177464	0.018632699229661757	67.70826613956923	1.991224261852495e-09	68.70701622890714	0.042761314638134706	-0.35880282705778477	0.4015641416959195	177.2547490722256
1	1.0	perception	408	diff_vonmises	-0.055587718517212475	-3.184941663797489	12.197104827381228	0.581542934462613	1.827180847629181e-22	1.771548984717178	0.5196190770160098	-0.2819507778267629	0.8015698548427728	38.82401149625733
2	1.0	wm	408	diff_vonmises	0.1274498788526294	7.302340157709308	2.173006718841021	0.684604943024371	1.0419234561603477e-15	1.8798096862192102	0.0720722066207945	-0.2943698764102931	0.3664420830310876	93.20500429677611
3	2.0	ltm	408	diff_vonmises	0.11877862643029978	6.805513990817229	3.6489907822386436	0.47518236882318077	4.194991886308285e-20	1.3427539678823235	0.1336614546355973	-0.21347078719537918	0.34713224183097646	71.76501881463858
4	2.0	perception	408	diff_vonmises	-0.053360438597065574	-3.057327924578837	7.482418213078977	0.9779386606626841	6.448526225915404e-25	1.8870699014269328	0.7477883072756378	-0.30033617067088775	1.0481244779465255	49.715130936657914
5	2.0	wm	408	diff_vonmises	-0.03541002499651304	-2.028844984752945	4.465710144293065	0.49439972956332556	7.198336151904709e-23	1.491721387611066	0.16610333822520146	-0.23736149942805376	0.40346483765325525	64.69920088847135
6	3.0	ltm	408	diff_vonmises	0.22878117609483067	13.108195822273078	0.9571085473806152	117.09559552211103	0.9380975600845028	117.74193318875963	0.20954306397609912	-0.21989971781669126	0.4294427817927904	89.8818438953937
7	3.0	perception	408	diff_vonmises	-0.029610387212216448	-1.696550217008146	4.678760901894717	1.9957185978729044	0.18053171651586927	2.9582611659555487	1.1106756819447554	-0.4516893990411187	1.5623650809858742	60.94992831004967
8	3.0	wm	408	diff_vonmises	-0.1070310917688125	-6.1324298350303605	1.128078551510767	126.41063129641392	1.1027527072045453	127.51195948579769	0.20062065131079265	-0.31822434234143415	0.5188449936522268	80.58868462663528
9	4.0	ltm	408	diff_vonmises	-0.02446046787863974	-1.401481574361375	1.2421517826723065	146.0156337187494	1.219017421769666	147.1909230947405	0.1713260713627207	-0.3319022298035037	0.5032283011662244	75.8335785489702
10	4.0	perception	408	diff_vonmises	-0.035745403042746295	-2.048060731343454	1.909843981275888	3.3776890565923896	0.2891168852374442	5.025750339862411	0.648446983114755	-0.5816045709618836	1.2300515540766386	87.33447318967231
11	4.0	wm	408	diff_vonmises	-0.006102135003969176	-0.34962658174647965	1.0005251304865364	214.77595760207836	0.9851782211327107	216.89735609994207	-0.09504735562228461	-0.4541951871045846	0.3591478314823	77.15516421988687
12	5.0	ltm	408	diff_vonmises	0.17645743981022513	10.110266564809654	2.0353610007514322	1.0155040456675313	3.2014981439558534e-17	1.4558677099353186	0.297748115468157	-0.2226732631573038	0.5204213786254608	96.1629386871002
13	5.0	perception	408	diff_vonmises	0.0031040781123475004	0.17785057511644717	2.0373267869359135	1.8106042372167188	3.021232006270471e-19	2.2103809463123874	0.5927519661280019	-0.3357372657245361	0.928489231852538	96.16830906947541
14	5.0	wm	408	diff_vonmises	-0.05117624992592478	-2.932183132062182	0.6661171562258437	109.16369222833079	0.6485182519261159	109.8423373764745	0.1788570348937064	-0.23910399989718556	0.41796103479089197	107.65530030605842
15	6.0	ltm	408	diff_vonmises	0.3490052736032771	19.996529205276335	0.30139388173299836	94.36472747454832	0.290601781879282	94.64081042004854	0.12446575042411112	-0.16740214794718433	0.29186789837129545	144.22907405464906
16	6.0	perception	408	diff_vonmises	-0.06556635100457939	-3.756675190635744	2.3854081885556977	1.0546562059982543	2.378763825426366e-11	1.6453536592161335	0.34273356947827033	-0.256742896015436	0.5994764654937064	89.0482820684064
17	6.0	wm	408	diff_vonmises	0.05660452504090529	3.2432003861864565	0.6035085735833491	136.11165443330273	0.5913253506283969	136.9555327833282	0.09106818284167417	-0.23999147960556755	0.3310596624472417	109.68078992994253
18	7.0	ltm	408	diff_vonmises	-0.042527385534422334	-2.4366397048481088	1.6728718375968148	2.734271941677056	0.6342193040711812	3.831762485140202	0.2230799295999717	-0.3179748865586083	0.54105481615858	80.91992703997892
19	7.0	perception	408	diff_vonmises	0.0790317848873378	4.528187721430258	1.7461481255018976	1.9217151553183531	1.5559158109103678e-16	3.0682834415626155	0.4245788498454356	-0.4605484600955638	0.8851273099409994	103.32314126328964
20	7.0	wm	408	diff_vonmises	-0.47626680669689087	-27.28807794590486	0.00028929800861003316	4490.200219958561	3.112999119624674e-33	4491.593844996095	-0.01504675322814819	-0.42852797016325894	0.41348121693511075	173.60617154380645
0	1.0	ltm	409	diff_vonmises	0.09802407433481715	5.616365750061675	0.7268798065090838	213.8424998816278	0.7093507884435619	217.12335464166057	-0.2244922088318262	-0.6463055038301562	0.42181329499833	88.66161839962314
1	1.0	perception	409	diff_vonmises	0.037912348944451474	2.172217585944331	7.344391173542104	0.807429416710026	7.046251573719508e-16	3.6778455197070437	0.2716701069228644	-0.5853469364900534	0.8570170434129178	50.18907291124992
2	1.0	wm	409	diff_vonmises	0.09659737325153928	5.53462179936311	5.651563862405395	0.40999468391377275	2.1494732214482342e-16	3.4941947555594486	-0.17680089919510883	-0.5561136871183294	0.3793127879232206	57.36029284127562
3	2.0	ltm	409	diff_vonmises	0.011494262038137911	0.658572703402742	2.94588635723718	0.9091014066259149	0.1332828185991195	2.8882725726061027	0.06634123975401385	-0.42868535058294727	0.4950265903369611	73.51619745593487
4	2.0	perception	409	diff_vonmises	-0.04404285284606223	-2.5234695857951115	6.762009067933419	1.2593410294570395	0.05956805758619366	3.269964871308705	0.7282163296470094	-0.5205852300684138	1.2488015597154232	51.610194835744494
5	2.0	wm	409	diff_vonmises	0.01466247203004615	0.8400977645502609	4.074287271740608	0.6431709580881372	0.08485171442101355	2.75570136708979	0.022921398678849292	-0.42932399168967683	0.4522453903685261	64.34677255738404
6	3.0	ltm	409	diff_vonmises	0.17225458125076665	9.86946050746225	3.424438391106947	0.6705890144609463	0.027276717317580076	1.9681316343600135	0.15139066914910576	-0.3061751406306556	0.45756580977976136	72.77268027152667
7	3.0	perception	409	diff_vonmises	0.051212805812674754	2.9342776300893134	4.664509434101824	2.0510221796630788	0.04322404112147381	3.245584868044065	1.1745473063381624	-0.5057373581780344	1.6802846645161968	62.54844069415131
8	3.0	wm	409	diff_vonmises	-0.07721808358882794	-4.424270291728246	3.075002043314889	0.7308812214146059	0.033698209418084026	2.3299835249635437	0.10199880681684143	-0.3597853621630605	0.46178416897990193	76.28436355827938
9	4.0	ltm	409	diff_vonmises	0.2512478640134513	14.395442219647595	0.09876212474629659	152.2133398421099	0.08832675102683277	154.42682535886468	-0.12003221591569257	-0.562329037678726	0.4422968217630334	166.88571329572812
10	4.0	perception	409	diff_vonmises	-0.028857419380134544	-1.6534083381207376	2.2168504956528743	3.2327871558015744	0.2491321869133197	5.958171143113846	0.5762846814773537	-0.7670979922357739	1.3433826737131276	81.87692779076144
11	4.0	wm	409	diff_vonmises	0.17100179601731227	9.797681200949002	0.6276720557055778	207.64209685336618	0.6143572491759545	210.38283809254983	-0.21099113962983296	-0.5291605736714757	0.3181694340416428	94.45166906968024
12	5.0	ltm	409	diff_vonmises	0.21994709513687022	12.602040267505057	1.6582179756902071	1.6121218992714705	0.2260658322007282	3.066349394844702	0.13806582786125265	-0.3687388554872366	0.5068046833484893	91.70684826208017
13	5.0	perception	409	diff_vonmises	0.021208769654069846	1.2151729898433372	2.071285120811062	2.648220169550566	1.357093192469811e-25	3.909656270660271	0.773098192529611	-0.6000797249327812	1.3731779174623922	95.40892121032641
14	5.0	wm	409	diff_vonmises	0.014870102010487442	0.8519940861299307	0.570343336118612	180.72301627179112	0.5552996567585101	182.31712552289773	0.10264884759149595	-0.4251977665875266	0.5278466141790226	111.5648317441858
15	6.0	ltm	409	diff_vonmises	0.27299587595959474	15.64151151696171	0.42984202356645834	104.82578611213708	0.41542873778347583	105.91651639858456	0.02648922047306357	-0.291736058177932	0.3182252786509956	126.03078121705593
16	6.0	perception	409	diff_vonmises	-0.13394180727559352	-7.674300257246172	1.4165729703925152	1.8923642545137895	4.096585828496463e-19	2.9342614291740965	0.3248083815781484	-0.42041984530067644	0.7452282268788248	113.0578953609865
17	6.0	wm	409	diff_vonmises	-0.03875511215272376	-2.2205043609072375	0.4552238739377136	184.1032360546907	0.4449159740587575	185.50966612206298	0.019074315430394506	-0.3599967073772099	0.3790710228076044	122.36233473943118
18	7.0	ltm	409	diff_vonmises	-0.006100552276635083	-0.34953589815011615	2.003356803825646	2.045374826316079	0.5974261063170906	3.9444019739091423	0.010683008621144241	-0.436891102591279	0.44757411121242324	72.16649923090142
19	7.0	perception	409	diff_vonmises	0.03988316267616631	2.2851368949780193	0.8709452011688313	315.614272965703	0.8547375218835453	317.0056892186761	0.5386651851540734	-0.5176669536030829	1.0563321387571563	94.98718427097174
20	7.0	wm	409	diff_vonmises	-0.5421317678630628	-31.061862238519577	0.0005595357934756746	2003.912884010111	1.306955570247061e-31	2006.1795418872196	-0.18227072293382207	-0.5391789623008094	0.35690823936698735	171.7495401689149
0	1.0	ltm	410	diff_vonmises	-0.11778321590602961	-6.748481168893643	0.9705651836388024	376.3740027549498	0.955189881537238	380.4119384713694	-0.24756486014717893	-0.8407855047652504	0.5932206446180714	77.00774375249199
1	1.0	perception	410	diff_vonmises	0.02154187486458088	1.2342585125394363	11.428130737741414	0.8188772058345125	2.2541155507041645e-16	4.228726447557313	0.41865566335074844	-0.673022716982808	1.0916783803335566	40.12195121040838
2	1.0	wm	410	diff_vonmises	0.07992466182175328	4.579345801396845	4.160689619831965	0.5027426190690494	0.017989526685665225	4.470514141340335	-0.3294875153694533	-0.7062381454256703	0.376750630056217	65.34981771518537
3	2.0	ltm	410	diff_vonmises	0.03654428013575575	2.093833017122576	2.5434287545516443	0.7879621933111371	1.3311113494208903e-17	2.9526829958399916	-0.0008249490983261998	-0.4670361987041648	0.4662112496058386	86.24444317886358
4	2.0	perception	410	diff_vonmises	-0.061875785773157596	-3.5452213788575535	6.714915954995946	1.3355336000780151	0.16622547153265793	3.232467759424012	0.7493115851875757	-0.5247865004582849	1.2740980856458606	50.855656816700275
5	2.0	wm	410	diff_vonmises	-0.06557964983131176	-3.757437157279985	2.8245092442283255	0.9226974044693661	0.1783706169635679	3.1477754833918934	-0.010276083163411331	-0.46254844606907036	0.45227236290565903	72.60122999338981
6	3.0	ltm	410	diff_vonmises	0.0038479408700368978	0.22047077166901224	2.112852722303779	0.7658414256367166	0.09172996832455227	1.9840843831327706	0.06298749165890916	-0.2843769716100547	0.34736446326896386	87.92249595095646
7	3.0	perception	410	diff_vonmises	0.0719051174339394	4.119859754357284	4.550073011940904	2.085897886975816	0.1779162902651984	2.8460574825543463	1.1827790553124888	-0.4312344666927175	1.6140135220052063	61.92570148780098
8	3.0	wm	410	diff_vonmises	-0.13664766356006394	-7.829334402315277	4.129656905817648	0.571230184328313	1.0327175594081709e-19	1.9071296187703852	0.1433570734779238	-0.30341343123310993	0.44677050471103374	67.34879987482836
9	4.0	ltm	410	diff_vonmises	-0.2725820080155438	-15.617798630491835	0.3779945670148062	130.05923410376514	0.36375079728974036	132.02049710053748	-0.09698082903479843	-0.44246903150216355	0.3454882024673651	128.33378756614493
10	4.0	perception	410	diff_vonmises	0.0008162343475699167	0.046766783209370555	1.1018611789260933	61.07747256099293	0.985307754203011	63.17221752989389	0.6309594592743011	-0.6885492118858734	1.3195086711601745	85.24585402301742
11	4.0	wm	410	diff_vonmises	0.25842092659854166	14.806428431956475	0.699721340052151	210.14992864872715	0.6866319311397787	212.49958505006668	-0.1384972652633536	-0.4700249109543684	0.3315276456910148	91.4666020429195
12	5.0	ltm	410	diff_vonmises	0.33286597223244646	19.071815352438037	0.7117640124543703	162.72485603567154	0.693929854396057	164.53204683040764	0.04104623187998868	-0.42062202910598145	0.46166826098597014	97.21776994217404
13	5.0	perception	410	diff_vonmises	0.09149452393836126	5.242250070226779	1.8977453381254612	3.2435985856276326	0.12696527956481843	4.917946344369687	0.7358375360319077	-0.6514264714908146	1.3872640075227223	93.42724266786752
14	5.0	wm	410	diff_vonmises	0.01044531869327985	0.5984726767940395	0.4547812453886925	202.77539114956176	0.4406748750427342	204.84088788183055	0.04299471358486073	-0.5390352453663496	0.5820299589512103	123.0446773974517
15	6.0	ltm	410	diff_vonmises	0.6792061059304739	38.91564328933167	0.9571410977616883	157.65920260009068	0.9412585429944604	159.31648697609307	-0.07229685681421927	-0.35168668118508606	0.2793898243708668	79.03581632683878
16	6.0	perception	410	diff_vonmises	-0.14562254853239032	-8.343557432844966	1.1864226892068164	2.346235296944828	7.353579745808267e-19	3.8819211956456825	0.26580863751398187	-0.5354552395421257	0.8012638770561076	121.086115110675
17	6.0	wm	410	diff_vonmises	-0.34262214916861716	-19.63080311506349	0.19332242475025535	187.9689460576049	0.18310207720900606	189.93120397027465	-0.04039015961279091	-0.5324730731795562	0.49208291356676526	154.3211984461263
18	7.0	ltm	410	diff_vonmises	0.01645311641938302	0.9426941306680441	1.4260255960467954	47.226433801991405	1.3510052803010395	48.75177699273744	0.013366528711451053	-0.38937488503694606	0.4027414137483971	67.53117529754499
19	7.0	perception	410	diff_vonmises	0.08756654743192986	5.017193594381719	1.5851766897582065	2.779785478741984	0.3142771770956939	3.851516065544883	0.42612351112227387	-0.39677319341818346	0.8228967045404574	93.40511546390832
20	7.0	wm	410	diff_vonmises	-0.523086426255743	-29.970644545035245	0.09168941143646259	66.20814379171526	0.07517797007417024	68.18654790556228	-0.15805067744243395	-0.4580973125122352	0.3000466350698012	163.30037542902724
0	1.0	ltm	411	diff_vonmises	0.11192104168357381	6.412603327176541	0.8196141756896769	80.92113671793284	0.7899974797564814	82.5972827336678	-0.04810830783567255	-0.3552542073422398	0.30714589950656723	87.29980338972231
1	1.0	perception	411	diff_vonmises	0.09363590208900185	5.364942000600014	9.422238640514145	0.5574584165010095	2.7252004336251875e-17	2.4126211015700014	0.28900869402408474	-0.38398056971589656	0.6729892637399812	44.238753125984175
2	1.0	wm	411	diff_vonmises	0.07319375392174568	4.193693186435145	7.619918953740297	0.26238252208300794	0.007161570207347138	2.0717787794562774	-0.04822476302629097	-0.32966759301313586	0.2814428299868449	49.00611236507069
3	2.0	ltm	411	diff_vonmises	-0.05900448297663113	-3.3807078469124763	1.8821914320801547	2.097487737297309	0.7043871558760573	3.0009938401907257	0.18648841968113128	-0.2646426193806243	0.45113103906175556	76.28985895010334
4	2.0	perception	411	diff_vonmises	-0.014770739863038626	-0.8463010544377569	7.26105249138732	1.0517033704044412	0.0706323597696817	2.2270342576517055	0.7297838267669257	-0.35571173934003	1.0854955661069556	49.84107666884998
5	2.0	wm	411	diff_vonmises	0.11710971797882579	6.709892580154055	6.59966699264293	0.34057809473071493	0.10410283343040913	1.6319157024974014	0.05443123568401487	-0.26397219411389317	0.31840342979790803	50.999300235658694
6	3.0	ltm	411	diff_vonmises	0.17421762305416685	9.981934517804833	1.2885012365245343	194.81711139509275	1.2743411153648272	195.4434202966881	0.2570289581562406	-0.23100681409859192	0.4880357722548325	77.51772069462172
7	3.0	perception	411	diff_vonmises	0.02721517325945817	1.5593145664842492	4.892280797627053	1.8130001368304791	0.18764550559359322	2.6908812409503584	1.0415864955164256	-0.4137030811804546	1.45528957669688	59.61416228762201
8	3.0	wm	411	diff_vonmises	0.17193410331288933	9.851098474194824	3.752085100996239	0.5315860380907725	0.17076484155202334	1.6990155739117285	0.07618774694554264	-0.25963345694777396	0.3358212038933166	65.27018820005037
9	4.0	ltm	411	diff_vonmises	0.25279202702030995	14.483916242820827	0.8006731285617831	179.15681216975617	0.7879991269230652	180.63721590814245	-0.012519135182671448	-0.32411080971011685	0.3115916745274454	89.33381368906163
10	4.0	perception	411	diff_vonmises	-0.09902848601325626	-5.673914300129887	3.072473729330576	1.9915356217583045	0.07147509792622438	3.7223008986286437	0.6866369533798311	-0.5577201170872903	1.2443570704671214	75.90608529943324
11	4.0	wm	411	diff_vonmises	-0.09451274838692636	-5.415181592752759	0.9688044718322097	156.18826999911204	0.948887070300146	158.22246588503523	-0.08501499533760892	-0.43363959391570717	0.34862459857809824	78.7689560136375
12	5.0	ltm	411	diff_vonmises	0.02500726636783442	1.4328108200363598	1.2806182506852777	2.400322658292096	0.3408587843097993	3.4251801328967204	0.20079329724705386	-0.3100997815103178	0.5108930787573717	98.2740300814427
13	5.0	perception	411	diff_vonmises	-0.036965833051196016	-2.117986220018738	2.739717744605573	1.8619323844420117	7.29305411726505e-18	2.7312333112417297	0.7228452789405648	-0.4298603577190871	1.152705636659652	83.0780055534068
14	5.0	wm	411	diff_vonmises	-0.11822271960580699	-6.773662875971272	0.6122558296424099	166.34723598101905	0.6002524555925814	167.42853264429147	0.09094739362128479	-0.2924500329140507	0.3833974265353355	108.01583617183586
15	6.0	ltm	411	diff_vonmises	0.15711601535848468	9.002084573953795	0.48638446652173756	166.477151549093	0.47642005003628773	167.40219099317434	0.08494526694146742	-0.276585611030983	0.3615308779724504	121.63855142549585
16	6.0	perception	411	diff_vonmises	-0.1699438017247171	-9.73706259323437	1.7365586948583849	1.6625677183645207	5.1275892196396494e-21	2.6521973156928085	0.3650817133204184	-0.3976905831783077	0.762772296498726	103.53404784373036
17	6.0	wm	411	diff_vonmises	-0.029522035312867068	-1.6914880260634617	0.7562054537904463	144.6447109347649	0.7380071273277579	145.7366639650534	0.1838245046521294	-0.31993327943107985	0.5037577840832093	99.08151994836226
18	7.0	ltm	411	diff_vonmises	-0.0332917678506435	-1.9074777903711926	0.8627527265986685	203.64942883231896	0.8458431570217942	205.37587035054625	0.11768576405410158	-0.4262643714567105	0.5439501355108121	89.6093406001041
19	7.0	perception	411	diff_vonmises	-0.041348788443224475	-2.369111065776076	1.5239460651133228	6.531103399543864	0.6335330863900145	8.332752934910461	0.5904162691934833	-0.6012428799571099	1.1916591491505932	85.09307299231034
20	7.0	wm	411	diff_vonmises	0.24955095732070864	14.298216627925939	12.103965997686329	0.5329367698438748	1.8025488567248778e-17	2.306025796282156	0.364611435878627	-0.3670154043532873	0.7316268402319143	38.97632487309363
0	1.0	ltm	412	diff_vonmises	0.040430698663231596	2.31650839616839	2.319703963432493	1.1038623870096556	0.3915910383144071	3.3445251897254398	-0.13569294956251166	-0.4569929983741313	0.32130004881161967	69.77265643965998
1	1.0	perception	412	diff_vonmises	0.07842199287799433	4.493249212914075	10.40338597162392	0.8185551106998274	0.13551744016775552	3.1286184609752534	0.47204238505322604	-0.5247876016486358	0.9968299867018618	41.10804487328937
2	1.0	wm	412	diff_vonmises	0.0922738972855671	5.286904873686658	3.1011934714944216	0.5044502238087512	0.1254303191858288	3.071416364491059	-0.2153121219299035	-0.4724141991910977	0.25710207726119416	68.64897466249639
3	2.0	ltm	412	diff_vonmises	0.07129231252467667	4.0847486193916325	3.2406899594226286	0.6880371887221864	0.31301432447992045	1.6558337123072686	0.11904356004785116	-0.23989754934533294	0.35894110939318413	67.35141713008537
4	2.0	perception	412	diff_vonmises	-0.024016735022224595	-1.3760575544575027	8.321900199336348	1.103551746929806	0.1720243508973891	2.030844938841031	0.8685021621492861	-0.3353352035698069	1.203837365719093	46.140877725214494
5	2.0	wm	412	diff_vonmises	0.10060965015361709	5.764508332089994	7.014309813417061	0.32822531661175774	0.06295381387531776	1.6839070498983297	0.054999058819422464	-0.2703343296966412	0.32533338851606364	50.116789345917425
6	3.0	ltm	412	diff_vonmises	0.21106901208097983	12.09336357823593	3.2564336819435797	0.5253234301625265	0.2707915720805851	1.0242229476009856	0.15057603207804554	-0.1461900266974584	0.29676605877550394	69.33393704550801
7	3.0	perception	412	diff_vonmises	0.034550856729381574	1.9796182691547433	6.322332405029494	1.4002891953343763	0.09759840909405747	1.9610866698017664	1.0312007573347295	-0.30978801570440584	1.3409887730391352	53.40230938126484
8	3.0	wm	412	diff_vonmises	0.06054489853951488	3.4689671573619845	5.494190867081968	0.44316941675438626	0.29032064880582764	1.3842170684918336	0.11553281197929915	-0.2275167661237023	0.34304957810300146	53.68221686348531
9	4.0	ltm	412	diff_vonmises	0.08894320597986867	5.096070319009221	1.0647243978702725	168.11876124512509	1.051859904839375	169.44764873356442	-0.060261530252098794	-0.28933115431044243	0.22906962405834363	74.65076831179817
10	4.0	perception	412	diff_vonmises	-0.056506091844374516	-3.2375605794612614	3.6196376792334606	1.6470927391723333	8.346769368542895e-22	3.1748283756239335	0.6933881253340166	-0.5044291269642146	1.1978172522982313	72.0652149076675
11	4.0	wm	412	diff_vonmises	-0.02973092736469062	-1.7034566590067795	1.0306864006873522	181.95742333492106	1.0141913834256022	183.91275880990239	-0.10678432701616458	-0.4170056525153818	0.3102213254992172	75.26819236571251
12	5.0	ltm	412	diff_vonmises	0.0256686893728201	1.4707075666948999	2.0303999552363643	0.8780612456005643	2.0793735211676014e-14	2.0017919813741747	0.13849916318888844	-0.31071588603597305	0.4492150492248615	96.32828709667544
13	5.0	perception	412	diff_vonmises	0.0026742542287034616	0.15322348064972158	2.7662393767002444	1.7967962659146872	1.4902780459456847e-20	2.696192377049595	0.6941645700552801	-0.42466838136678614	1.1188329514220663	82.6741743306502
14	5.0	wm	412	diff_vonmises	0.01771064727163355	1.0147453411094889	0.5501655502416731	220.52093377218333	0.539793472316885	221.81959006737793	0.1001187372297423	-0.3599735832590625	0.4600923204888048	114.02561289356524
15	6.0	ltm	412	diff_vonmises	0.2979096446004019	17.068965311845343	0.6744175124617443	147.8459763923311	0.660936883897364	148.89028001741687	0.08984445691264398	-0.275470560328424	0.36531501724106796	102.71553052597633
16	6.0	perception	412	diff_vonmises	-0.04982309478677929	-2.8546530535627075	1.4731350524755302	1.9425898166099915	1.2794754281888632e-12	3.0060740672410424	0.353848057754069	-0.4347070804532588	0.7885551382073278	111.29580416309057
17	6.0	wm	412	diff_vonmises	0.01095400649058977	0.6276183406697041	0.6012793500396781	216.4982914943266	0.5879082489649142	217.73640197000316	0.22163804522912756	-0.4002178445297204	0.621855889758848	111.83984041825782
18	7.0	ltm	412	diff_vonmises	0.07536659708554791	4.318187929264866	0.9645381637258404	223.66216336629356	0.9503294344372497	225.28001017318562	0.06558190467588076	-0.38544016294039807	0.45102206761627883	83.36515735157931
19	7.0	perception	412	diff_vonmises	0.0362443218709492	2.076646674519093	2.6647699958285234	1.5886083701437215	0.08293095305607157	3.1904640822953687	0.42111497561866496	-0.4686899747785828	0.8898049503972478	80.61910451846956
20	7.0	wm	412	diff_vonmises	0.3663117891803026	20.988119505917314	2.826351645484004	0.9795747564406816	0.266811286105343	2.6303231491423187	0.0829910176989812	-0.37461602132157246	0.45760703902055366	71.30944045865357
0	1.0	ltm	413	diff_vonmises	-0.03125856892878736	-1.7909840732382865	2.3402241140421265	1.2550515138147285	0.3269427367964788	3.6646953599577783	-0.07624448403592765	-0.5004191970614726	0.424174713025545	72.80071396709496
1	1.0	perception	413	diff_vonmises	0.02400482903195091	1.3753753914638966	12.268593284221524	0.7399990112738953	0.036140073270749216	3.113303709152387	0.5092606692536252	-0.5022863592565067	1.0115470285101318	38.46089223659541
2	1.0	wm	413	diff_vonmises	0.08885726134658588	5.091146054250317	3.058120951293939	0.52415001626857	0.02939924204170831	3.1553222975132753	-0.1699921064855508	-0.49140904643134564	0.32141693994579484	75.43446322884958
3	2.0	ltm	413	diff_vonmises	0.07960281024314006	4.560905064312684	4.113631622721761	0.4835121028577917	1.1763663432249112e-09	1.6795517583362265	0.11011565794818745	-0.26720806676839437	0.3773237247165818	67.48867974344353
4	2.0	perception	413	diff_vonmises	-0.04701244883075211	-2.693614902576838	7.942903068554523	1.0991887226775405	0.11000562849070372	2.1219857657287564	0.83916837237178	-0.3433277877180114	1.1824961600897914	47.49398995647604
5	2.0	wm	413	diff_vonmises	0.008513661474614232	0.48779687069852035	4.724927711497803	0.4895013123560997	0.08106062684120477	1.9383679303881598	0.07774959995737507	-0.3046668488841052	0.3824164488414803	60.39837102675497
6	3.0	ltm	413	diff_vonmises	0.14351029914225102	8.222534457510902	3.141274211166779	0.4803167140336211	7.316326491247824e-17	1.1644940957975551	0.13757334202090457	-0.18473156596138157	0.32230490798228617	77.48913949651282
7	3.0	perception	413	diff_vonmises	0.035411768335100485	2.0289448706962676	5.6020886267055925	1.5819150255393175	0.09017418926678247	2.157170896687495	1.0820811122137755	-0.3372512186829041	1.4193323308966797	56.751709146019465
8	3.0	wm	413	diff_vonmises	-0.018649667614424718	-1.0685472436283505	3.482622238882794	0.7646071438219433	0.32051104259164964	1.7701700860653236	0.16627397755192946	-0.25999052122597593	0.4262644987779054	65.58301405870887
9	4.0	ltm	413	diff_vonmises	-0.08102321338996399	-4.6422881698327965	0.958838494729816	112.68618065455966	0.9390922996651683	114.0359712201034	-0.023068850090233184	-0.2967321576716362	0.273663307581403	80.8704040048705
10	4.0	perception	413	diff_vonmises	-0.03774567957006669	-2.162668134217997	2.71436366984246	2.256815560941503	0.1416544343587771	3.805661263885167	0.701109868672301	-0.538287571930507	1.2393974406028079	78.73306322011422
11	4.0	wm	413	diff_vonmises	0.0752152810799315	4.309518160770268	0.9334010343204721	248.11473498982735	0.9213259767094732	250.13198978553268	-0.0894389511476561	-0.42564583385897237	0.33620688271131627	79.92984660664445
12	5.0	ltm	413	diff_vonmises	0.1380527879919496	7.909842101953043	1.9016796070542055	0.939215216299781	7.560103962162335e-13	2.0224133354610268	0.14807977314646076	-0.31139898961286283	0.4594787627593236	99.3153063184622
13	5.0	perception	413	diff_vonmises	0.03651916336452452	2.0923939321360305	2.3067355782989036	2.0528080438473917	1.7244846343546257e-18	2.9123356684097903	0.6901367913957939	-0.45207142257972144	1.1422082139755152	90.53633849203277
14	5.0	wm	413	diff_vonmises	0.02362182530489747	1.353430894365954	0.5546546634445835	203.29399060999984	0.5426088302400237	204.55551665389024	0.13948444193615472	-0.3730090389401113	0.512493480876266	114.7998193749481
15	6.0	ltm	413	diff_vonmises	0.42110026302918596	24.12726782342121	0.7055540207907672	113.54551318752938	0.6902286184727077	114.48100660964043	0.06718064568798354	-0.23813802163044429	0.3053186673184278	99.82436386942561
16	6.0	perception	413	diff_vonmises	-0.05787211550588146	-3.315827969980617	1.527771086056284	1.8804051857060529	6.9294511615343846e-15	2.859315679926082	0.3685184639323416	-0.4162835313459188	0.7848019952782603	109.59413405623185
17	6.0	wm	413	diff_vonmises	-0.057591603252147634	-3.2997558017399657	0.5002831980061812	196.5925144373426	0.48777336010411637	197.860295006846	0.1493038431366429	-0.3956521723625457	0.5449560154991886	120.9919241750539
18	7.0	ltm	413	diff_vonmises	0.05808898038357287	3.3282534121969554	1.1890552283644764	126.824672400784	1.1633619651085652	128.20466608549236	0.0901413048023798	-0.3522082313084205	0.4423495361108003	75.64684268971311
19	7.0	perception	413	diff_vonmises	0.08935518400025375	5.11967492082944	2.5433161659943226	1.40486268340695	1.0523397631698081e-16	2.6176839803747116	0.4197367805017319	-0.4114496285628432	0.8311864090645751	86.24200957032764
20	7.0	wm	413	diff_vonmises	0.14788146741377567	8.47298395101076	1.6477059692085723	1.1226248198078195	0.17844286004915133	2.6999990760338974	0.005194511864450857	-0.3464703749265751	0.351664886791026	91.7571783670059
0	1.0	ltm	414	diff_vonmises	-0.06215294209564325	-3.5611012664013484	1.9074352164420383	0.8853704393348181	3.182668739579835e-17	1.3529720972707544	0.22847141465490953	-0.20554941768682455	0.43402083234173405	99.21143730361767
1	1.0	perception	414	diff_vonmises	-0.06430059356196889	-3.6841526312868904	18.097042264656395	0.5125549893096145	2.6983853567159193e-16	1.234125171699091	0.6670524453528097	-0.1964171214700442	0.8634695668228539	31.829692758068518
2	1.0	wm	414	diff_vonmises	0.12472885109934632	7.146436751508222	1.7429673543905966	0.8137588624298938	1.3342337858027193e-15	1.4379267437630967	0.15731504390932105	-0.2170265673767213	0.3743416112860424	103.3807558197789
3	2.0	ltm	414	diff_vonmises	0.04270995775848182	2.447100322743034	3.785731216905862	0.4432113598051215	1.6850559159700289e-15	0.69439420620801	0.2200867654122705	-0.11034599078204488	0.3304327561943154	70.42909198364183
4	2.0	perception	414	diff_vonmises	-0.06437897533540651	-3.6886435760956164	7.559702775481648	0.903475039424596	1.243021088873035e-21	1.1697753434738827	0.7872194149822439	-0.18617526391207917	0.9733946788943231	49.46077129400609
5	2.0	wm	414	diff_vonmises	-0.05706204591012466	-3.2694144010318835	5.34642563650713	0.4031308583703878	4.237845146036811e-21	0.7768811083599666	0.23857642464405782	-0.12363624278288662	0.36221266742694447	59.004844330160296
6	3.0	ltm	414	diff_vonmises	0.07677550455077926	4.398912380747097	0.93724902001056	108.19481130659231	0.9225409168545492	108.37282268672854	0.24436391154144843	-0.13400377570276767	0.3783676872442161	95.0245952142007
7	3.0	perception	414	diff_vonmises	-0.021261810176718667	-1.2182119879342825	4.887746688555366	1.7051983390160232	0.24141361950958928	2.1164221109362393	1.0381487923508916	-0.3221817730969337	1.3603305654478253	59.48078626209039
8	3.0	wm	414	diff_vonmises	0.00039602068469329384	0.02269031383280686	1.5647459392953993	86.53536321405434	1.5289192137271441	87.01424183461667	0.327162849025207	-0.22561581667349984	0.5527786656987068	71.5944206678978
9	4.0	ltm	414	diff_vonmises	-0.10723942576902845	-6.144366493971813	1.744574607090507	201.9428812990469	1.7293201423305182	202.52120638952817	0.23818080744233328	-0.23309923545835431	0.4712800429006876	65.87679719601192
10	4.0	perception	414	diff_vonmises	-0.07032219591010441	-4.029165031741122	1.943185808648067	3.1775113771559527	0.32006552876010685	3.9955713919257816	0.7571038961340213	-0.44092153055279526	1.1980254266868164	87.49440371488191
11	4.0	wm	414	diff_vonmises	-0.022408650103755645	-1.2839210755305928	1.2558431627224225	210.3290216106068	1.2397127911732346	211.79850206322905	0.054191476348449896	-0.3699380782199171	0.424129554568367	72.42389286594951
12	5.0	ltm	414	diff_vonmises	0.1013992510974799	5.809749133672879	1.59994465121191	1.1525453686955554	1.0350404526920224e-12	1.2773324241129054	0.3158684987788074	-0.18212885490931027	0.4979973536881177	107.40141777896574
13	5.0	perception	414	diff_vonmises	0.004680006319483235	0.2681446102009433	2.2027308288448886	1.5823182108715952	2.2041513345443515e-18	1.7134043881220844	0.5923896199098031	-0.26213315842723667	0.8545227783370397	92.61055898323676
14	5.0	wm	414	diff_vonmises	-0.06791310419431708	-3.8911342439665777	0.6577878248700945	120.28991416583952	0.6444099028247874	120.55867906278091	0.2322406172591016	-0.17801538949394669	0.4102560067530483	112.19028248788743
15	6.0	ltm	414	diff_vonmises	0.41941840680370596	24.030904559953402	0.4864027364299873	74.93596293767823	0.4743546207384817	75.03030859195583	0.1453832957622616	-0.11241268437128493	0.25779598013354654	127.1455135959136
16	6.0	perception	414	diff_vonmises	-0.058780633467643686	-3.3678822148014205	1.9206834403184132	1.6190210197931727	0.19715918066309723	2.001114835524716	0.4308289565784383	-0.24378532016154905	0.6746142767399873	91.63382009111845
17	6.0	wm	414	diff_vonmises	-0.04437390709053011	-2.5424375967930133	0.7096274564102306	121.7981580337374	0.6931836445117109	122.34794358025317	0.22601175140545138	-0.22725349829761754	0.4532652497030689	105.80018687809458
18	7.0	ltm	414	diff_vonmises	-0.06058885660624183	-3.471485769060993	1.8274580565531162	2.626855836629982	0.8017947290957018	3.2033246260291017	0.30918171849017495	-0.23135641314318028	0.5405381316333553	78.09380688626376
19	7.0	perception	414	diff_vonmises	0.08734848829683511	5.004699726256517	2.6775905288668853	1.342392637141361	7.979559706446259e-21	2.230685985075317	0.46849747644433515	-0.3511346999111011	0.8196321763554362	84.03938051584004
20	7.0	wm	414	diff_vonmises	-0.2655171706310433	-15.213013265413714	0.00020345770222514388	6840.076145685993	3.087701800308094e-29	6840.836366443202	0.10050739384178087	-0.34247064518740444	0.4429780390291853	177.98116777498646
0	1.0	ltm	415	diff_vonmises	-0.03350859478159102	-1.9199010583992597	2.4101160821335132	1.512396020326254	0.37479472499847477	3.8679115700205857	0.007457681663294746	-0.5176288205853166	0.5250865022486113	72.09246804125871
1	1.0	perception	415	diff_vonmises	0.00898162017908727	0.5146089294512352	12.709262180021819	0.7008847555827954	0.0295542395771023	3.0853199077551734	0.48053461086824023	-0.49662755657203733	0.9771621674402775	37.829929560516945
2	1.0	wm	415	diff_vonmises	0.13440047376356656	7.700579911211116	3.1411473026599688	0.5519791317101818	3.076571137416141e-09	3.0585234058850923	-0.11570903054570097	-0.4860854879814536	0.37037645743575265	77.49243534671197
3	2.0	ltm	415	diff_vonmises	0.026066381748785485	1.4934936613822463	3.92845569143257	0.5885730449536877	0.07663797098595351	1.6688790483586644	0.16167653692110817	-0.25730184238985854	0.4189783793109667	66.63325743876473
4	2.0	perception	415	diff_vonmises	-0.061531567125412336	-3.52549910311205	7.577249834951872	1.068420310392416	0.06009809738539775	1.9443480930541368	0.8239982551167918	-0.3102308966052663	1.1342291517220582	48.94953318083421
5	2.0	wm	415	diff_vonmises	-0.02581512506859313	-1.4790977140327561	4.341653484562266	0.570641177818387	0.12145472361795615	1.8788921150183886	0.12223784440123048	-0.2923947249365859	0.4146325693378164	62.25872861832926
6	3.0	ltm	415	diff_vonmises	0.06548466460547185	3.751994904723261	2.373516865622541	0.6283310234451648	7.412464196687062e-12	1.293752078732145	0.1532302210785544	-0.20279052345651194	0.3560207445350664	89.26709495665796
7	3.0	perception	415	diff_vonmises	0.03440343687622286	1.9711717337523107	5.396204313522843	1.5551919715869331	0.04502242779571951	2.085695194838863	1.0572725994336247	-0.3267147577804116	1.3839873572140364	58.21806862969535
8	3.0	wm	415	diff_vonmises	-0.011974400104900652	-0.6860825882118176	2.7705696291491777	1.1141116188943962	0.419091192083373	2.037485783680321	0.22497586197958774	-0.2669776607384307	0.49195352271801845	71.16079312959064
9	4.0	ltm	415	diff_vonmises	-0.13575973651278425	-7.778459929990638	1.1133921791322072	6.881078403178819	0.8145446430174023	8.10644234549552	0.014115079266965314	-0.2800813144923603	0.2941963937593256	81.9811506931905
10	4.0	perception	415	diff_vonmises	-0.05286040863658206	-3.0286783182130383	2.5151228856970325	2.4642493585110796	0.14033978889883386	3.887780466204456	0.7489936446703445	-0.5405256506420305	1.2895192953123749	81.78762338581325
11	4.0	wm	415	diff_vonmises	0.07012870234442468	4.018078667064736	0.985642144541853	269.2115053432929	0.9732125768420294	271.1836096752393	-0.029795295810870925	-0.4372331060520125	0.40743781024114156	79.6688800854171
12	5.0	ltm	415	diff_vonmises	0.11206592816980437	6.420904711346033	1.7362611381789546	1.0445230221801196	3.124856914314109e-14	2.007354167946944	0.17501436559650374	-0.304130455180617	0.47914482077712073	103.57197072355831
13	5.0	perception	415	diff_vonmises	0.027089881939689534	1.5521359026518824	2.0814931758381703	2.194753975644564	1.1007932209597555e-17	2.8534923911098913	0.7056343810772393	-0.43609773847566524	1.1417321195529047	95.18596348630606
14	5.0	wm	415	diff_vonmises	0.024944892447364884	1.429237057641771	0.5994025184337147	187.97892187231955	0.5861106711089793	189.02251667182952	0.19815679266519481	-0.34400465527533264	0.5421614479405275	112.25260600224912
15	6.0	ltm	415	diff_vonmises	0.5383784579444654	30.846813420979352	0.8060830163192803	119.88309038967864	0.7913825419459973	120.64026446447508	0.1078855083336947	-0.21038163723755332	0.318267145571248	95.09371679118766
16	6.0	perception	415	diff_vonmises	-0.05179324563007647	-2.967534381887776	1.3866597743000562	2.3313304200238396	0.06644502928053606	3.0767176552419553	0.44032435842636386	-0.39754291538894015	0.837867273815304	110.71576687262024
17	6.0	wm	415	diff_vonmises	-0.03874381518317279	-2.2198570922306793	0.5717657323913273	191.85635968700086	0.5583784368757242	192.92342710188433	0.20933208558777494	-0.3632299286932099	0.5725620142809849	115.1514558406833
18	7.0	ltm	415	diff_vonmises	0.01681414889243089	0.9633797676408576	2.148193916024017	2.1117767357682515	0.7520522301035361	3.412748669219056	0.1323509566166412	-0.3471747228764253	0.4795256794930665	70.28491377497383
19	7.0	perception	415	diff_vonmises	0.10033886383239896	5.748993418734321	2.7511407903469047	1.3903167421388118	6.425383266134687e-13	2.4997463512955873	0.4685569025599109	-0.3943140764746934	0.8628709790346043	82.89957857405653
20	7.0	wm	415	diff_vonmises	0.07056009687346398	4.0427957528837215	1.3880793340719417	1.215464106162758	0.08324588234185104	2.6855146995204033	0.0386997473542251	-0.3613039467924638	0.4000036941466889	106.70036181831335
0	1.0	ltm	416	diff_vonmises	-0.12757036727416396	-7.309243635743431	1.0153629219006954	182.24960970714946	0.9985929475955623	184.20626186486808	-0.09028021508795803	-0.41974756520502154	0.3294673501170635	76.50195005214098
1	1.0	perception	416	diff_vonmises	0.055218979778886304	3.163814490348421	12.94558965738737	0.6602321871853123	1.1459394618568105e-18	2.5363967549134583	0.534474392877639	-0.4036800811813748	0.9381544740590138	37.67212351163883
2	1.0	wm	416	diff_vonmises	0.01682101998107556	0.9637734520208575	5.539664656847785	0.29495481289579556	0.048223214973195386	2.5000307465716896	-0.1472402120928688	-0.39831250044227334	0.25107228834940454	55.69018121184112
3	2.0	ltm	416	diff_vonmises	0.03681775968389136	2.1095022410138906	3.1830126233115377	0.4920838472359611	1.1982901885790218e-14	1.6173622795206353	0.0758907667901727	-0.25683825608429167	0.3327290228744644	76.97214148151204
4	2.0	perception	416	diff_vonmises	-0.016941677825243234	-0.9706866372568124	8.062771047364349	1.1277934066699558	0.2026277714884908	2.2508748089498303	0.8222638536919487	-0.3745640385551815	1.1968278922471303	46.60619159646879
5	2.0	wm	416	diff_vonmises	0.08360546813927029	4.79024046859566	6.112376366857324	0.2977275011994945	0.04952697174113132	1.6902479579835998	0.004602363803188736	-0.26936330660071484	0.27396567040390357	53.68332715303552
6	3.0	ltm	416	diff_vonmises	0.15147303200273202	8.678765443806595	1.962989004288092	1.4477784138105583	0.7953204143503323	1.9873676553741924	0.13680347610572163	-0.16822730118880705	0.30503077729452865	74.14978336390749
7	3.0	perception	416	diff_vonmises	0.044690786081003464	2.560593425563503	5.234013343915627	1.7619965291082265	0.32997305999849963	2.190754992022364	1.0932559221814147	-0.3387496942683895	1.4320056164498043	56.96871093097366
8	3.0	wm	416	diff_vonmises	-0.02040223613229935	-1.168962023010065	4.0283556366101925	0.44840488889827784	0.32341984720503203	1.318265102394028	0.06359789052456888	-0.20480107012811752	0.2683989606526864	60.58201494453374
9	4.0	ltm	416	diff_vonmises	-0.06719257766567364	-3.849851114848097	1.0238017268909365	205.89089171709549	1.0138588861978564	207.11413892345047	-0.0345922150436877	-0.2690206046623338	0.2344283896186461	77.26477861588796
10	4.0	perception	416	diff_vonmises	-0.04055605186267614	-2.323690605445024	2.6013571597898593	2.4030056336786445	0.3184434583119777	3.748649495865003	0.6496023036653233	-0.4820453888659217	1.131647692531245	76.35094537487686
11	4.0	wm	416	diff_vonmises	-0.007523059538366149	-0.43103956057401777	0.8915069910322518	126.33514636651338	0.8750316887688065	127.92109671794861	-0.10757511932419561	-0.3212547238180221	0.2136796044938265	79.79717991718073
12	5.0	ltm	416	diff_vonmises	0.20394925613450152	11.68543161133955	0.8350874115347582	118.87331774153304	0.8140415735921878	120.06127920713423	0.1137250475830669	-0.3064598636884135	0.4201849112714804	92.23480941709099
13	5.0	perception	416	diff_vonmises	0.04515050951401633	2.5869336380184054	3.2090733582585202	1.7272086898196806	1.4088385096638314e-20	2.9046509177526523	0.7128991148707082	-0.46037170288187446	1.1732708177525826	76.65474659600847
14	5.0	wm	416	diff_vonmises	-0.06444985223958107	-3.6927045235697715	0.3989671053973111	189.9568006702255	0.38944290213460836	191.38891614383235	0.007427083781287536	-0.3716424786465673	0.37906956242785483	129.16176271315072
15	6.0	ltm	416	diff_vonmises	-0.48893575751336954	-28.013955358547904	0.00023374419576781068	3367.8849435787665	5.865893786690941e-30	3369.1909135927435	-0.08255374555255912	-0.33313477799174507	0.25058103243918595	173.27086103471885
16	6.0	perception	416	diff_vonmises	-0.19616390613883772	-11.239363914555822	1.662610722791869	1.5559149813694604	3.3437488676626337e-19	2.9250318575536256	0.2519008678773357	-0.4397303312201055	0.6916311990974412	105.54123475672225
17	6.0	wm	416	diff_vonmises	-0.2732347509975049	-15.65519804846499	0.4833431331901909	103.71579212695468	0.4605172915802977	105.20787852499822	0.08325174312784611	-0.4157579571672958	0.4990097002951419	121.42421432203686
18	7.0	ltm	416	diff_vonmises	0.14807156097382296	8.483875509714085	0.9765168667994238	173.4472836512562	0.9620809347943876	174.60532727269944	0.08741567697550323	-0.2896539111214338	0.377069588096937	84.09924764576519
19	7.0	perception	416	diff_vonmises	-0.017834792154697438	-1.0218583189571948	2.9468068097876543	1.350760821775634	1.2715223619262327e-14	2.59562719011066	0.4625942873372906	-0.4106925920825376	0.8732868794198282	80.0590865636704
20	7.0	wm	416	diff_vonmises	0.30854040761087514	17.67806316534925	3.0208931913256234	0.7144109175330945	0.25513756940242405	2.115311509130976	0.04221824284294384	-0.3089201407675325	0.35113838361047633	69.20363922003494
0	1.0	ltm	417	diff_vonmises	-0.0070658437751639595	-0.4048430270156794	1.0628362162694145	308.55401576352375	1.049335022452769	311.1240331850758	-0.1183403095567428	-0.5587715437430347	0.44043123418629193	74.68549163644838
1	1.0	perception	417	diff_vonmises	0.06657327037610744	3.814367420934267	7.328455813459519	0.8482404177002482	3.554459461218074e-21	3.0385940026399423	0.4157062643514275	-0.4836068678401731	0.8993131321916006	50.24473460040676
2	1.0	wm	417	diff_vonmises	0.08548940855615002	4.898182303336985	6.608406044105856	0.3198732368782234	2.004078988963844e-17	2.6383932765611906	-0.0985760798523625	-0.41991274701985365	0.32133666716749115	52.95880385882862
3	2.0	ltm	417	diff_vonmises	0.0045964434968911476	0.26335681314221626	3.552885639323962	0.8103851022934265	0.25881921081134857	2.2223420950383272	0.1331055455513333	-0.33321819214700943	0.46632373769834273	65.39339905019767
4	2.0	perception	417	diff_vonmises	-0.02926268787239106	-1.6766285122966662	7.562441304309684	1.183042945606885	6.206137612638354e-19	2.445525858897791	0.8856096107329606	-0.38921718462971766	1.2748267953626784	49.45203736017888
5	2.0	wm	417	diff_vonmises	0.014375084154383277	0.8236316521915477	4.673902346423822	0.5238721636288336	0.13145696158819742	1.976415974169182	0.08096529802307184	-0.3112250447596898	0.39219034278276166	59.65687945665513
6	3.0	ltm	417	diff_vonmises	0.1952925993254415	11.189441711487225	4.5113902390842755	0.4769100915430197	0.14976696011865415	1.1188617838931254	0.18568655810583642	-0.173049357162799	0.35873591526863546	61.46183916517967
7	3.0	perception	417	diff_vonmises	0.07044924084766635	4.036444170471924	5.4747511994951115	1.6530689063796289	1.9330711139946736e-17	2.0696661812923582	1.1747815280431775	-0.32937117969896135	1.5041527077421388	58.29074019143263
8	3.0	wm	417	diff_vonmises	-0.09027616133132452	-5.172443034927018	4.134957134863979	0.5070566059570223	0.09098891928618304	1.2635869150718864	0.1771507559542519	-0.19467508653647544	0.37182584249072737	64.95248928955363
9	4.0	ltm	417	diff_vonmises	0.38306867720723514	21.948218467633847	0.07096165904859418	90.27175178847054	0.061240263106067006	91.53357748114838	-0.06918206461986465	-0.323625469893317	0.2544434052734523	168.12448040753904
10	4.0	perception	417	diff_vonmises	-0.06596370123378645	-3.7794416817578647	3.1814837215150527	2.1123587026301944	0.07676055814914216	4.068643992329299	0.732166471187463	-0.6104745942001137	1.3426410653875767	74.44284464169817
11	4.0	wm	417	diff_vonmises	0.0489274221425115	2.803334791220841	0.9264245357457983	153.00920812725627	0.9103278278837298	154.74983409031177	-0.09652526537879424	-0.3612036705153301	0.26467840513653584	79.39829278998329
12	5.0	ltm	417	diff_vonmises	0.27942462101359933	16.009851476121778	0.7931775074198075	65.37280544077309	0.7576563632204436	66.40585516234098	0.13810432203342415	-0.2848332055506111	0.42293752758403524	96.35618022818167
13	5.0	perception	417	diff_vonmises	0.018219908590209822	1.0439238653331766	2.547710041188532	2.3125289370845494	4.051435921717974e-18	2.9640445780371443	0.9063704065618987	-0.4633017605689496	1.3696721671308483	86.17219717531103
14	5.0	wm	417	diff_vonmises	0.07288556981531537	4.176035537823678	0.5876633968254673	158.19584564943455	0.5732887538565882	159.17646394965055	0.17407987706516792	-0.31963262746409526	0.4937125045292632	113.21310983837242
15	6.0	ltm	417	diff_vonmises	0.4397235222712596	25.194301978770035	0.8847971367409013	106.22060195631677	0.8693423176071243	106.94764673988253	0.08258157181355585	-0.19157863016592103	0.2741602019794769	89.80852961360998
16	6.0	perception	417	diff_vonmises	-0.19673927446572756	-11.272330091352114	1.326324792010095	2.0694259466724625	3.1978746897399525e-14	2.5552255305754796	0.4257152437805858	-0.34802112508082317	0.773736368861409	115.98995871424901
17	6.0	wm	417	diff_vonmises	-0.13496604991224734	-7.732985037523787	0.5447521215979462	131.74251724709254	0.5303296165050109	132.6002967890171	0.1405262064803594	-0.2822244421446989	0.4227506486250583	117.32306917806882
18	7.0	ltm	417	diff_vonmises	0.07679314384939222	4.39992303811119	1.1512869808823523	57.64998712574266	1.1079728933287674	58.7377346736355	0.07196242638386252	-0.27512614993457074	0.34708857631843326	77.30129309222096
19	7.0	perception	417	diff_vonmises	-0.018387427550778993	-1.0535219947622085	1.0669507195718728	259.1332195761501	1.047526461989629	260.0041277498906	0.6415436569933348	-0.42224065770332686	1.0637843146966617	87.59020122998342
20	7.0	wm	417	diff_vonmises	-0.20821417675928217	-11.92979356309778	0.25669051725585534	3.738694832537996	1.8224305359665677e-32	5.009697882259459	-0.040668820539641715	-0.3444870392454471	0.3038182187058054	164.47618088097676
0	1.0	ltm	418	diff_vonmises	0.044239887549773114	2.5347588427353562	2.6995198360163593	1.01961948200943	0.1449006408690265	4.1612760909461	-0.13312548709555938	-0.6171869120207301	0.4840614249251707	74.0968863073443
1	1.0	perception	418	diff_vonmises	0.05787156492579945	3.315796424065634	12.879042028550417	0.6052463641708806	0.03984773550539526	3.885864257070932	0.21429991344909005	-0.6293879689198723	0.8436878823689623	37.41454593184409
2	1.0	wm	418	diff_vonmises	0.16169388214497674	9.264377019992907	4.230767389613741	0.5076327502801034	0.0301999070200251	3.8711790661261505	-0.2324907437218151	-0.6103244456449338	0.3778337019231187	64.25396738126793
3	2.0	ltm	418	diff_vonmises	-0.05595208963822773	-3.2058185912081143	2.0085354124652715	1.7314639665735878	0.4608935364765416	3.0829537319245026	0.15730858301235973	-0.34642649961716426	0.5037350826295239	78.16990940679113
4	2.0	perception	418	diff_vonmises	-0.05527782520225583	-3.1671860847511555	6.411115091930793	1.1639278520472072	0.1448252017909557	2.685834049384548	0.6593391430268942	-0.4315326818598159	1.0908718248867102	52.22650112258458
5	2.0	wm	418	diff_vonmises	0.05467749658440317	3.1327897886272758	5.183626520755956	0.4940519517281545	0.07483528955074319	2.336065222389084	0.03658120586048874	-0.37013906252835	0.40672026838883873	57.67153698286759
6	3.0	ltm	418	diff_vonmises	0.08373354619779913	4.7975788007975915	0.8627403992790712	211.8986415978171	0.8488992618937907	213.08369959430004	0.18865247682795427	-0.3336746640426611	0.5223271408706154	92.10851240039284
7	3.0	perception	418	diff_vonmises	0.024110521154030114	1.3814311039868166	4.376668099393513	1.9881969953955436	0.14683940407628576	3.298130683254382	1.0003576182039984	-0.5021078938857548	1.5024655120897532	63.08467841331742
8	3.0	wm	418	diff_vonmises	0.15225264096973046	8.72343374728616	2.560009529578676	1.0446442850773545	0.20042155905659972	2.859439020606773	0.0737346233838948	-0.4043722466875533	0.4781068700714481	76.11526771899193
9	4.0	ltm	418	diff_vonmises	0.1347388942995981	7.719969979626277	0.6611794900836981	181.97460072293214	0.6458848639828125	184.19181288984024	-0.07898131430479083	-0.4646343129157131	0.3856529986109223	96.83923125439321
10	4.0	perception	418	diff_vonmises	-0.06838151717000662	-3.9179723305427525	2.2698865221567712	2.868673838853775	0.18964983502722202	4.97697828799768	0.647803972099333	-0.6614155887540655	1.3092195608533985	83.47317503470384
11	4.0	wm	418	diff_vonmises	0.11646302831306524	6.67283999165125	0.8973907949633344	9.009698354939477	0.534833420083505	11.959144205584089	-0.12569971837175942	-0.6070973959852064	0.481397677613447	92.32993069001037
12	5.0	ltm	418	diff_vonmises	-0.03800054123523962	-2.1772706319920823	1.7726558256986291	1.281014920490249	7.270717149525289e-12	2.8481941420411316	0.1608800506020749	-0.4355787481257031	0.596458798727778	102.6310981087761
13	5.0	perception	418	diff_vonmises	-0.012013814618364484	-0.6883408734848567	1.7080711550464045	2.9586165231028305	0.11301771547423875	4.280564805944257	0.6264407007856103	-0.5609881702806834	1.1874288710662937	98.81582269887264
14	5.0	wm	418	diff_vonmises	-0.08019429143008454	-4.594794439985991	0.595920293401615	268.8409999126221	0.585243302804728	270.5786102366908	0.08617217100064067	-0.44248604227217214	0.5286582132728128	108.07970325684478
15	6.0	ltm	418	diff_vonmises	0.36418092092050475	20.866029747932508	0.44447166625648526	162.00624163410828	0.4316662274978189	163.44692190538856	0.0464040635281151	-0.38886781214960564	0.43527187567772074	124.22849907781983
16	6.0	perception	418	diff_vonmises	-0.032676941906408345	-1.8722508586313724	0.568217080295805	112.30099589450425	0.5344278387008122	113.83159316922432	0.32678141473286004	-0.541850767917051	0.868632182649911	116.86065108848312
17	6.0	wm	418	diff_vonmises	0.07271445037169141	4.1662311159113985	0.6352562992161361	239.96122940675585	0.6217536936584209	241.7013027809863	0.14555758811118835	-0.4648762357416878	0.6104338238528761	105.95879987929285
18	7.0	ltm	418	diff_vonmises	-0.06325821277229374	-3.62442861139299	1.0274882719350162	82.99909287818164	0.9714989452004452	85.59267376561364	0.006814991086816491	-0.5908450583372691	0.5976600494240856	79.81062506193288
19	7.0	perception	418	diff_vonmises	0.08769397287286984	5.024494534350173	1.6205357915116745	4.273697626125407	0.4425470925093035	6.416573954884557	0.4254888510900847	-0.6160659360945016	1.0415547871845863	86.6753498251075
20	7.0	wm	418	diff_vonmises	0.2363798752291487	13.543569212459213	4.399145209719327	0.866311942445593	0.10925750736099149	3.5707554433804405	0.06923886431389492	-0.5594822648170121	0.628721129130907	61.58573275846831
0	1.0	ltm	419	diff_vonmises	-0.04727388508800254	-2.7085940967289837	0.8377723482569094	339.2975249760799	0.8239055237441834	342.89749323267074	-0.2113781515818829	-0.730866329539964	0.5194881779580811	83.26149278755915
1	1.0	perception	419	diff_vonmises	0.02479836260417437	1.4208415160542407	9.215559769700755	0.7736387589811505	6.986290278792534e-17	3.8496729879422804	0.31061347976593856	-0.6126944761766175	0.9233079559425561	44.73809061641333
2	1.0	wm	419	diff_vonmises	0.0972562725448675	5.57237394799497	5.647255812042649	0.42990757566813553	2.5042391699791685e-15	3.872537279694561	-0.21874156168983677	-0.6163285023668479	0.3975869406770111	57.38143202139753
3	2.0	ltm	419	diff_vonmises	-0.0304523549268942	-1.7447914135454563	2.9382315203403695	0.788015940158733	6.288233741594916e-12	2.912897691189723	0.046404888537032285	-0.4621715725890729	0.5085764611261052	80.1814205592745
4	2.0	perception	419	diff_vonmises	-0.05658805312463974	-3.242256614903948	6.4019579873611026	1.303185420278611	0.11757559121470176	3.3658585330896145	0.6870733512860919	-0.5391991024962439	1.226272453782336	52.39081665201314
5	2.0	wm	419	diff_vonmises	-0.03435690440688284	-1.9685056196488055	3.4094730692592936	0.7430726415371869	0.11504391497054471	2.959012939791999	-0.003510499731057215	-0.45215394945192194	0.44864344972086473	68.77254951363648
6	3.0	ltm	419	diff_vonmises	0.047349716692265766	2.712938927606973	1.7885564396478029	1.3813741894280018	0.27667944928836335	2.7451324512468904	0.10061248584949567	-0.32955975648581093	0.4301722423353066	86.43688242216271
7	3.0	perception	419	diff_vonmises	0.06155294634292175	3.5267240420446315	4.169203638943446	2.3014274099489445	0.18050401958365006	3.3471544179477593	1.1766548587422765	-0.5009259995640772	1.6775808583063538	64.38322098260281
8	3.0	wm	419	diff_vonmises	-0.09629870270752203	-5.5175092377260455	3.0599487243902552	0.6964946377171701	6.694143711597028e-19	2.254943574058674	0.10240468455976598	-0.35787096612286173	0.4602756506826277	78.5424447718284
9	4.0	ltm	419	diff_vonmises	-0.004816915086989739	-0.27598890475740384	0.15107184036151053	107.3197991519104	0.13580048087155264	109.4765527492328	-0.11328104000711292	-0.539202975345292	0.4259219353381791	161.87025787539767
10	4.0	perception	419	diff_vonmises	-0.012750514937571315	-0.7305506925413486	1.0229331921070128	156.76716960693656	0.9757145442746715	159.15633488696992	0.5949175278495602	-0.7426498931087302	1.3375674209582904	86.49299759311057
11	4.0	wm	419	diff_vonmises	0.1643102274451313	9.41428256344065	0.5979367106781898	191.8183141655688	0.5841617190751388	194.3731821871437	-0.171160199033352	-0.5045625766596302	0.3334023776262782	98.4954593472842
12	5.0	ltm	419	diff_vonmises	0.27515933273229654	15.765468459196518	0.8449711340374103	27.982251015296512	0.7343214282930269	29.67123516124038	0.09947967754744269	-0.41300464452037344	0.5124843220678161	93.0842183318523
13	5.0	perception	419	diff_vonmises	0.058331032463007394	3.3421219747709188	2.025345521622803	2.841223657870283	0.042324473069823516	4.417742600407484	0.7437120136043541	-0.6479518030232834	1.3916638166276374	94.44320699219983
14	5.0	wm	419	diff_vonmises	-0.023447655855224396	-1.3434517199795708	0.4866738398109825	227.71676438060098	0.4747438358794717	229.6000723019224	0.05035420696365378	-0.48793664358481337	0.5382908505484671	119.24421155130999
15	6.0	ltm	419	diff_vonmises	-0.2082601835844021	-11.93242956000595	0.000131451572621598	6658.042184664067	1.368114387131625e-28	6659.483864469076	-0.09015197063104097	-0.36873980883137847	0.2785878382003375	178.75456737381728
16	6.0	perception	419	diff_vonmises	-0.16676311510675332	-9.554822674071305	1.3599605599261695	2.007637039162819	9.805485793046522e-17	3.392339616008549	0.2797906263877289	-0.48590150471562754	0.7656921311033564	114.89591213227051
17	6.0	wm	419	diff_vonmises	-0.25131299440885	-14.399173916421962	0.305530217350202	173.4445858532728	0.29489651408081424	175.20304400556265	-0.03781554987659064	-0.4480845151896169	0.41026896531302626	140.15549736326278
18	7.0	ltm	419	diff_vonmises	-0.023032752067018127	-1.3196794840113617	1.8398385693626313	3.28470380710408	0.8771138857137771	5.006284397817082	0.017074184248877744	-0.42055444024573807	0.4376286244946158	69.28775947346625
19	7.0	perception	419	diff_vonmises	0.05013060493798287	2.8722720873841023	0.8794489783660627	163.73176649057407	0.8511512804826449	164.97026006595374	0.4955197972537917	-0.46690022899857375	0.9624200262523654	94.96655625365756
20	7.0	wm	419	diff_vonmises	-0.6308142145162308	-36.142992148640175	0.0003366376172651478	3235.5602531610807	1.4808179602905552e-22	3237.7571778934816	-0.17628402159164125	-0.5229896616658607	0.34670564007421945	168.94016598642696
0	1.0	ltm	420	diff_vonmises	-0.040421713279382585	-2.3159935715965365	0.8910240478381151	276.8095850526229	0.876868731743107	279.18472277534795	-0.009246366830325314	-0.5269193171342792	0.5176729503039539	84.72638093983008
1	1.0	perception	420	diff_vonmises	0.021543605020791834	1.2343576431882222	10.28774302143128	0.6190266888843021	9.379816040992752e-25	2.9353850280034672	0.314766877634821	-0.46718103617805834	0.7819479138128793	42.310492284112684
2	1.0	wm	420	diff_vonmises	0.12852948378782	7.364196964037224	5.333944421191774	0.4221863166777434	6.495754352502399e-17	2.7665116205702796	-0.06144962129828074	-0.440295177665024	0.3788455563667433	59.07652964264227
3	2.0	ltm	420	diff_vonmises	-0.1110667371477441	-6.363655282854616	2.5888297588610154	1.057004421090471	0.18429951190627278	2.4022655697996522	0.17997226404108674	-0.33704740150024304	0.5170196655413297	77.60202343466347
4	2.0	perception	420	diff_vonmises	-0.057125608870595854	-3.27305629040024	6.420124348728772	1.126330872539671	0.061837732937981206	2.5432125746781993	0.6842582319542714	-0.40346789197315863	1.08772612392743	52.998528772259306
5	2.0	wm	420	diff_vonmises	-0.020987558964179826	-1.2024985509294617	4.296157143129725	0.5533576291567346	0.10706121255856049	2.106536684107689	0.07019883359106582	-0.32868663698241674	0.39888547057348256	62.509586158027474
6	3.0	ltm	420	diff_vonmises	0.024429721855159327	1.3997199569791372	0.9634723207727502	201.23644232177392	0.9498506481155459	202.18764865080274	0.20430459336566287	-0.2846784023832676	0.48898299574893045	87.94786020205402
7	3.0	perception	420	diff_vonmises	0.04072832575784923	2.333561172558721	4.0591248328821194	2.190201758189324	0.23132281922671444	3.0319513275268952	1.0972817443840817	-0.44693845476562255	1.5442201991497042	64.69932243560066
8	3.0	wm	420	diff_vonmises	0.01761876434573643	1.0094808372462707	1.6779226579550768	1.7852235664472773	0.39741772659722985	3.0061034661139856	0.14318522251962762	-0.31499991544434763	0.45818513796397525	85.48888464275905
9	4.0	ltm	420	diff_vonmises	-0.06322553116591008	-3.6225560932794987	0.568157809226053	143.86786317856073	0.5532208093186798	145.43737322597843	0.002063254862534336	-0.3651800388568649	0.36724329371939923	108.3109038457235
10	4.0	perception	420	diff_vonmises	-0.06187584480024808	-3.5452247608607155	1.5233107774243961	6.750860825946644	0.6012824918598498	8.507516180963867	0.6902312615900845	-0.6274572915420529	1.3176885531321374	86.45780311191297
11	4.0	wm	420	diff_vonmises	0.037757423998130854	2.1633410403788687	0.7874405422458359	202.18079372829033	0.7728351030989891	204.28779459282015	-0.0649326538691497	-0.4442872605762247	0.379354606707075	88.56528014942634
12	5.0	ltm	420	diff_vonmises	0.16880678256496734	9.671916194155198	1.660723972061566	1.651191312177918	0.24379724544468398	2.8300922717911314	0.19450072871640378	-0.3301300102855837	0.5246307390019875	92.08452423791772
13	5.0	perception	420	diff_vonmises	0.01799378422588382	1.0309678936122182	2.181241130711385	2.326833935159472	1.1013469363028635e-14	3.347267612476466	0.7319808164942958	-0.5166132236568266	1.2485940401511224	93.05272938522646
14	5.0	wm	420	diff_vonmises	-0.08177865149656516	-4.685571585024397	0.5333257333789664	198.47182399995688	0.5219138782319521	199.72431000674376	0.11086229382813428	-0.3598947567455433	0.47075705057367756	116.37846793378287
15	6.0	ltm	420	diff_vonmises	0.21245888401851687	12.172997374320472	0.4172736102509506	102.19473363337163	0.40462665915597856	103.2207718023526	0.002640333088315572	-0.2617575143781625	0.2643978474664781	126.61158391262052
16	6.0	perception	420	diff_vonmises	-0.17613513627519448	-10.09179993253025	1.5808233554169906	1.8329850185777492	9.076351767801403e-18	2.8805516394074955	0.36120299515168325	-0.4237365510543794	0.7849395462060627	107.91306479141821
17	6.0	wm	420	diff_vonmises	-0.15485708475290128	-8.872657384040934	0.5628721923144516	155.3532708783209	0.5484370746879061	156.64047946952195	0.09308766557926162	-0.35066411476366177	0.4437517803429234	112.66360262508543
18	7.0	ltm	420	diff_vonmises	-0.046285842936739124	-2.6519834514805636	1.313183261313368	19.59372683148451	1.133402922313241	21.040313950048475	0.11760145365745789	-0.3796142166879517	0.4972156703454096	74.59452372206576
19	7.0	perception	420	diff_vonmises	0.018810223038164958	1.077746391786601	1.9206783895893929	2.980242252822984	0.3432385779516113	4.204433305275762	0.5842483835843536	-0.4645607833161789	1.0488091669005324	86.04299453519349
20	7.0	wm	420	diff_vonmises	0.11009571333436025	6.308019716541022	3.7653664686267225	0.6033537579607027	9.431709103085021e-33	2.3436087296378827	0.07575446025106508	-0.3727562022435782	0.4485106624946433	70.619435235835
0	1.0	ltm	421	diff_vonmises	-0.05461358800833969	-3.1291280969441475	2.562977722555244	1.1774916599051712	0.18680312491788106	4.670655380130235	-0.18410843814965994	-0.682644031574271	0.49853559342461107	73.6225169493197
1	1.0	perception	421	diff_vonmises	0.03190870523059255	1.8282341394399673	15.784600172137365	0.6457429618460219	0.009841683300021425	4.037278454339909	0.3661862232253068	-0.6453282435578401	1.0115144667831468	34.01695329370369
2	1.0	wm	421	diff_vonmises	0.09044077233643971	5.181874550781525	2.690750895867734	0.7777339650955691	0.10132980606032267	4.605138303328071	-0.33053978174312815	-0.6990053095546729	0.36846552781154474	74.12151300522066
3	2.0	ltm	421	diff_vonmises	-7.916079901991486e-05	-0.004535579686724465	2.764532109171956	0.7523053056172803	0.02067249049351219	2.414286433391519	0.0779149164167594	-0.3746869744080924	0.4526018908248518	81.14007109547057
4	2.0	perception	421	diff_vonmises	-0.05802633692219019	-3.324664206245637	6.774572446760678	1.2179271102991214	0.2001220423662156	2.882433756207446	0.684538043383516	-0.4719951203144333	1.1565331636979492	50.393032922704265
5	2.0	wm	421	diff_vonmises	0.001452955387490919	0.08324821152402478	3.8368647524853285	0.6043066271321381	0.09460214788040507	2.6883721416020507	-0.015117210177952978	-0.4171474460420234	0.40203023586407044	65.65458624525564
6	3.0	ltm	421	diff_vonmises	0.023030511347741655	1.3195511002537463	0.7848623217952811	150.0569931343729	0.7683658655165553	151.2851062050563	0.10721296564742744	-0.3149303320124748	0.4221432976599022	94.90578919644872
7	3.0	perception	421	diff_vonmises	0.03717833317936056	2.1301615805085556	4.380328479910932	2.0970700396110327	0.2345494709310427	3.2035459006451217	1.0579703722676879	-0.4824619406960368	1.5404323129637247	62.19847980771607
8	3.0	wm	421	diff_vonmises	0.06385743653310465	3.658761603871412	2.232740523730789	1.12871832259362	0.2684465129166478	2.8519241964483886	0.038984235564772485	-0.3806723904555658	0.41965662602033826	77.96022733830856
9	4.0	ltm	421	diff_vonmises	-0.10462844377579733	-5.994768245375014	0.7030204890757396	132.21449085294395	0.6824216310737764	134.37953178113185	-0.0899038978172868	-0.4473413918574387	0.3574374940401519	93.33214764854864
10	4.0	perception	421	diff_vonmises	-0.02184368180930315	-1.2515507766997604	1.557102945531709	6.326709559017566	0.5956605926785749	8.261550133095605	0.6161038869300994	-0.6384788822852223	1.2545827692153217	85.2840991593115
11	4.0	wm	421	diff_vonmises	0.17883980041715805	10.246765772865135	0.6434881503142439	219.47958268131075	0.6293304039035138	222.2192753626023	-0.15278108236342547	-0.5519786124753274	0.39919753011190195	96.09023318577124
12	5.0	ltm	421	diff_vonmises	0.0827333107756025	4.740269532586239	1.8741475726275978	1.2315712020753065	0.07011053937811361	3.0187599133377776	0.09609115255686917	-0.43316929068873594	0.5292604432456052	94.46160496135383
13	5.0	perception	421	diff_vonmises	0.05463777570893661	3.1305139501044774	1.379977237557801	4.890120640401389	0.34196593903775574	6.5562197859521145	0.5873701093270749	-0.6050309830855284	1.1924010924126032	97.22711386752036
14	5.0	wm	421	diff_vonmises	-0.07519033001498031	-4.308088570054208	0.49223052814473117	271.97814240869303	0.4817270942846658	274.1414052625721	0.006430870106186148	-0.5267101464785746	0.5331410165847608	117.02403699474016
15	6.0	ltm	421	diff_vonmises	-0.033105225324051336	-1.8967896908977546	0.0003020266728313364	3477.28246742048	1.775366062776762e-24	3479.0981824178107	-0.12181804589602052	-0.45611674658835	0.3342987006923295	179.95140235954082
16	6.0	perception	421	diff_vonmises	-0.047615749004115894	-2.7281814562900935	1.3264844188147011	2.1890683583722015	2.5412875479916346e-07	4.120027281979244	0.2248565763445758	-0.593691112053463	0.8185476883980388	116.14788038626943
17	6.0	wm	421	diff_vonmises	-0.08058063582717986	-4.61693034337808	0.40965104715261663	217.5498448224884	0.3971661324344437	219.75068545818644	-0.002471581173267623	-0.5586623614672739	0.5561907802940063	127.60757545540686
18	7.0	ltm	421	diff_vonmises	0.025622855074606675	1.4680814548503265	1.1599095983614391	169.71478578678966	1.1344882461528767	171.90721861338974	-0.0017037229125307363	-0.5148922844710526	0.5131885615585219	74.13067404808669
19	7.0	perception	421	diff_vonmises	0.11907445981805662	6.822463995374752	2.478219058040268	1.4858022732483898	1.0562321566869347e-10	3.229076343872472	0.35724726925189754	-0.5077920583589124	0.8650393276108099	87.3642846674513
20	7.0	wm	421	diff_vonmises	0.15226410466161244	8.724090568448636	0.8826186020200038	98.32093648234228	0.8454586233549946	100.85418335428818	-0.0943435549166729	-0.5335979791543206	0.4392544242376477	83.47380317635387
0	1.0	ltm	422	diff_vonmises	0.010775567453246317	0.617394536929547	0.9136891215703589	348.144844374716	0.9007924313955389	351.1401839873173	-0.11231095972544836	-0.6353810792151933	0.5230701194897449	81.37108876895417
1	1.0	perception	422	diff_vonmises	0.10903255020486942	6.247104956287277	7.445828239718657	0.6085842059148759	2.190135108840623e-22	3.3037968857774245	0.12474422032121535	-0.52581538353205	0.6505596038532654	49.84262412679257
2	1.0	wm	422	diff_vonmises	0.08921412444357422	5.111592803571717	10.573782197107061	0.30094604701495437	0.01486688624756191	2.994797013541034	-0.09818197748518731	-0.4787746530973362	0.3805926756121489	41.40750614328542
3	2.0	ltm	422	diff_vonmises	-0.18376248786926364	-10.528814987732794	1.4526513176547355	5.213675110916785	0.7312855121905457	6.849502334678442	0.22491218764729148	-0.4420835484327672	0.6669957360800587	81.39449209921946
4	2.0	perception	422	diff_vonmises	-0.03935488199926768	-2.254868641793413	5.462838904952694	1.29551742851418	0.1273166455764899	3.294627042137543	0.5842667222243431	-0.5210235538303127	1.1052902760546557	56.38687187318931
5	2.0	wm	422	diff_vonmises	0.044300682277436776	2.538242124047131	4.755376023027133	0.4892592040498096	0.12061183724392044	2.3659884071299335	-0.010314947416603715	-0.3751685989196467	0.364853651503043	58.76810603278756
6	3.0	ltm	422	diff_vonmises	0.02928670409292427	1.6780045403730746	1.1156585311677862	305.44513856795993	1.1033626062440853	306.67199187408136	0.2592322038856736	-0.3661023369922347	0.6253345408779083	81.31241387541255
7	3.0	perception	422	diff_vonmises	0.06841288436349377	3.9197695383447364	3.4563212019458884	2.7165247879580336	0.3300429679153957	3.880977802680453	1.090699978861588	-0.5405109984275747	1.6312109772891628	68.10393820065872
8	3.0	wm	422	diff_vonmises	0.2800829694531225	16.047572063155478	0.6154547882606909	128.6806418159987	0.5975550718831957	130.22922172586445	0.02570732651394536	-0.3656344886961236	0.39134181521006894	104.80324542036263
9	4.0	ltm	422	diff_vonmises	0.22382776413170413	12.824386222596315	0.10295959020855759	103.27634223271659	0.08710508725438137	105.38121656278082	-0.0924379271603577	-0.5541344477703642	0.46169652061000654	167.08825465112236
10	4.0	perception	422	diff_vonmises	-0.08960765142652675	-5.1341402388194135	1.7205543680925908	5.584895950738961	0.5321297696697278	7.810894918893781	0.655242858476931	-0.7092083345793685	1.3644511930562995	83.58516656038063
11	4.0	wm	422	diff_vonmises	-0.011933916858011174	-0.6837630690240644	1.5770588464665143	1.0889880195391444	0.0790997611564352	3.451188421128875	-0.1073085847830938	-0.48647184567770635	0.37916326089461255	98.74090963372126
12	5.0	ltm	422	diff_vonmises	0.13905588516658404	7.967315336501094	1.1987344347615585	4.9655396725655265	0.5660051174810469	6.707416061228746	0.14334570814215097	-0.43676778659890664	0.5801134947410576	89.67977007621963
13	5.0	perception	422	diff_vonmises	-0.011036580182014918	-0.6323494646871807	1.6626563850587726	4.4447450986842885	0.30895867574125024	6.0597858322531035	0.766694501740484	-0.6391595279624969	1.405854029702981	92.24010298999093
14	5.0	wm	422	diff_vonmises	-0.15362314742320984	-8.801957982865972	0.5286554886806332	190.27726892839252	0.5162721587090338	191.91387818821562	0.03306518323529417	-0.40614482097237214	0.4392100042076663	113.79968009397972
15	6.0	ltm	422	diff_vonmises	-0.23755073285309203	-13.610654412721882	0.00034146858302315015	2884.83699459615	2.5512700871390063e-31	2886.458602440905	-0.10129660045765831	-0.41485044269887794	0.3135538422412196	178.37317110362164
16	6.0	perception	422	diff_vonmises	-0.2663623239929895	-15.261436986094523	1.4654379088646619	2.1148743515757062	3.1278765427150246e-19	3.579268049047039	0.33355941654696175	-0.5214698081893363	0.855029224736298	111.29519687668116
17	6.0	wm	422	diff_vonmises	-0.18297483781156437	-10.483685963693391	0.6487529983090692	164.66978784765845	0.6328508765680421	166.25816468361452	0.06564418305740816	-0.3893607391608853	0.4550049222182935	103.09549267331094
18	7.0	ltm	422	diff_vonmises	-0.08576653152792622	-4.914060280025884	1.0957399238403658	135.3194747782934	1.0658181627031926	137.35042263731327	0.04056279267447849	-0.4808987039307979	0.5214614966052764	77.40203084186194
19	7.0	perception	422	diff_vonmises	-0.05670308986177604	-3.2488477344308135	1.1338613554800894	410.99372144061755	1.1160369638662475	412.6883463537565	0.7512371132066846	-0.6396347128501247	1.3908718260568094	83.26562063372555
20	7.0	wm	422	diff_vonmises	0.21741154262177678	12.456763809656422	12.928854565614559	0.5117209741394124	0.002390435810360991	2.8230863679340428	0.2760051546601702	-0.4495445469838571	0.7255497016440273	37.681892149622314
0	1.0	ltm	423	diff_vonmises	0.009138256484953146	0.5235835286958701	1.6184371850553583	1.5292246921103896	0.3627112746299965	3.732917931726873	-0.1328173312107115	-0.4378971702875952	0.30507983907688374	80.41813179846753
1	1.0	perception	423	diff_vonmises	0.03274819122086147	1.876333143642737	10.78928312389644	0.7630171605408745	0.014690378105285649	2.857615456654618	0.526221149660814	-0.45627793113590664	0.9824990807967207	41.170911699249984
2	1.0	wm	423	diff_vonmises	0.040769881419638374	2.3359421365941118	4.048985906650908	0.37464605535846035	1.374505840364812e-14	2.794281920009114	-0.1547756532934529	-0.4446355783977167	0.28985992510426384	68.03775847894076
3	2.0	ltm	423	diff_vonmises	0.14188822252280622	8.129596313169866	4.347346831876243	0.4266705598131457	6.838396985994615e-14	1.7114946311790555	0.07083015739801635	-0.2723353490672067	0.34316550646522304	65.5956131995762
4	2.0	perception	423	diff_vonmises	-0.03021254354800364	-1.7310512336558146	8.358772772002439	1.120454275223093	0.10548738239413695	2.2747200379380543	0.870527574767272	-0.3691155822523467	1.2396431570196187	46.31981122521478
5	2.0	wm	423	diff_vonmises	0.046666458080710155	2.6737910928488677	5.360409151206548	0.4136144947240332	0.039142859597569336	1.9217084067248313	0.05420864157879052	-0.30404533705826403	0.35825397863705455	57.67113849626645
6	3.0	ltm	423	diff_vonmises	0.2300657407296969	13.181795954362677	4.2538015445607895	0.41247913288340354	0.06482495899356232	1.0803054817978883	0.144662250296065	-0.16763496225640695	0.31229721255247195	64.5561880448935
7	3.0	perception	423	diff_vonmises	0.03451671405042669	1.9776620377493581	5.873012082467331	1.6110838991497443	0.09452109345964581	2.214865270782758	1.134746985733983	-0.34764290510040424	1.482389890834387	55.40887564948676
8	3.0	wm	423	diff_vonmises	-0.04893226088341625	-2.80361203065284	4.660971898499746	0.5347715540058156	0.24240875226740005	1.5539091434373247	0.13604379198804745	-0.24539921623361596	0.38144300822166344	58.5174297311228
9	4.0	ltm	423	diff_vonmises	0.020161929904130408	1.155193490345277	0.894189160782249	147.714100686895	0.8800755869700502	149.11443312559226	-0.0493104580686321	-0.2969351655921564	0.24762470752352428	82.4900856957716
10	4.0	perception	423	diff_vonmises	-0.02723340530306701	-1.5603591856349344	3.078022152975902	1.9841511177034157	0.10112612782800479	3.7330847328231282	0.662848390332841	-0.551428470707254	1.2142768610400951	75.02061201400085
11	4.0	wm	423	diff_vonmises	0.06250725248877577	3.581401756565463	0.9072847717825585	197.70048536017592	0.8941373637831364	199.69715320903774	-0.1471275391502047	-0.40307950892257693	0.2559519697723722	78.40060653375738
12	5.0	ltm	423	diff_vonmises	0.20553632112032755	11.776363736840374	1.4322990859922664	1.5791158816758142	0.24624541006649056	2.6300194424322	0.13773188107074952	-0.2887719639191459	0.4265038449898954	97.13394512300184
13	5.0	perception	423	diff_vonmises	0.03520337918904039	2.017005052130689	2.6027762820861295	1.9194487031994438	3.5230412425284526e-18	2.8122203619685675	0.7106777292185666	-0.44122455393972193	1.1519022831582886	85.2532175618453
14	5.0	wm	423	diff_vonmises	0.039360237956056685	2.255175515512678	0.537517694524921	147.9535422928984	0.5220957601822009	149.23639095831302	0.10648623081215902	-0.36390798364994303	0.47039421446210206	115.94308170353989
15	6.0	ltm	423	diff_vonmises	0.2627783651521343	15.056091270564924	0.5724508617549718	90.01766729425304	0.5556242102846866	90.91594060897137	0.05456752108909768	-0.2376038076947955	0.2921713287838932	111.27823689493911
16	6.0	perception	423	diff_vonmises	-0.08644774927390071	-4.953091181799637	1.6477430743049728	1.5918311570714843	2.1256383046440788e-14	2.5576585866138304	0.3229387355285323	-0.3800173542662473	0.7029560897947795	106.03879508095844
17	6.0	wm	423	diff_vonmises	-0.07106997636841146	-4.072009696004474	0.44762683539771736	187.58687686624748	0.43644154166900384	188.84443532714232	0.09282292746539156	-0.37206704061678764	0.4648899680821792	125.77521705761117
18	7.0	ltm	423	diff_vonmises	0.10796543851484405	6.185963960179751	1.0470518711054364	141.3156498761768	1.0270375655976882	142.64303295816634	0.0728380844154799	-0.3257003944419061	0.398538478857386	80.46916011224133
19	7.0	perception	423	diff_vonmises	0.060262101498941296	3.452764080478328	2.256746104831991	1.5293158603198225	1.0306853025163869e-15	2.741078518586162	0.4120004021590989	-0.4269578927865792	0.8389582949456781	91.5186085412478
20	7.0	wm	423	diff_vonmises	0.11083913623354216	6.350614711057526	2.5433639542420052	0.505695122381906	2.4779913365527635e-12	2.060514036989726	-0.026895867929446537	-0.32608089939783214	0.2991850314683856	86.24269970399402
0	1.0	ltm	424	diff_vonmises	-0.0016704592450612035	-0.09571026459061667	3.145227537933985	1.1620418363038596	0.3286191185497183	4.655652673429034	-0.22021713503316065	-0.7096847065449896	0.48946757151182896	63.37883851865337
1	1.0	perception	424	diff_vonmises	0.07972504644634647	4.567908682860114	14.501869324890443	0.7879286739810193	0.1302854579387069	4.3475558488788915	0.4010138499822459	-0.7425002112639827	1.1435140612462287	34.86676610018347
2	1.0	wm	424	diff_vonmises	0.03750050393976502	2.1486206053622516	0.7338266951306155	122.38949675262242	0.7036473097485229	126.39539720033555	-0.43817606823312616	-0.7407172931212322	0.3025412248881061	81.88716649934338
3	2.0	ltm	424	diff_vonmises	-0.0004387511323339562	-0.02513858813932156	2.632713273413619	0.8797557592556245	0.2666702482171582	2.101523050369427	0.10540187232409953	-0.2905748794790825	0.39597675180318204	74.13700399428313
4	2.0	perception	424	diff_vonmises	-0.04174972897929125	-2.3920832663284153	7.421192719343546	1.1815103855120386	0.2698069796062598	2.430415761586441	0.7631823101432733	-0.40847500381700563	1.1716573139602788	48.027600936894345
5	2.0	wm	424	diff_vonmises	0.08747177019740908	5.011763258849756	6.095934485179074	0.37364864941158027	0.05941694498181081	2.1341537847416308	-0.00032121027073928055	-0.34073511077145796	0.3404139005007187	53.51733634490802
6	3.0	ltm	424	diff_vonmises	0.09431688077583754	5.40395920529406	1.8004630414577374	1.0541064813672936	0.34684615963203275	1.8247418481315223	0.1114464468328909	-0.2049023916912896	0.3163488385241805	85.24168483157789
7	3.0	perception	424	diff_vonmises	0.044977825943405755	2.57703959823117	5.512578132811263	1.5545876475916482	0.17727684643367211	2.335960060301062	0.9790973847599929	-0.3657475883065377	1.3448449730665306	56.404955109798806
8	3.0	wm	424	diff_vonmises	0.11625008104252804	6.6606390117906376	4.023988886609072	0.5430824551237775	0.21578949279529017	1.8561830492243288	0.056549617289166576	-0.28814249842401995	0.34469211571318653	62.06203341943413
9	4.0	ltm	424	diff_vonmises	0.03221498536772826	1.8457826986465315	0.9421614385764256	165.76695648011432	0.926978149116035	167.56522530239582	-0.11112753040335122	-0.37155047906480476	0.26042294866145355	78.12781493049891
10	4.0	perception	424	diff_vonmises	-0.04514388151519986	-2.586553881659604	2.881243191587858	2.080674782162351	0.14373617819986984	3.668592113761029	0.6608732612971928	-0.525137656720783	1.1860109180179759	76.42970340550642
11	4.0	wm	424	diff_vonmises	0.10792278438809401	6.183520058738157	0.7897382324525019	149.8935640814898	0.7687421780645357	152.32721025024034	-0.12343366082029661	-0.4966471824043772	0.3732135215840806	86.8703327907946
12	5.0	ltm	424	diff_vonmises	-0.06831619994379672	-3.9142299291514235	2.313266695273684	0.924435472452333	7.107616847073502e-19	2.708928398846177	0.08925460566352483	-0.4260453729755369	0.5152999786390617	90.40851379297916
13	5.0	perception	424	diff_vonmises	0.030010407135152725	1.719469670313543	1.799980504101796	3.172892280263084	0.23379527722735138	4.741634719434792	0.5949315254563387	-0.5608448333617823	1.155776358818121	91.25529183816022
14	5.0	wm	424	diff_vonmises	-0.04001540752742629	-2.2927139668175514	0.5013738582028646	289.4552459572463	0.4916043637856488	291.570028652275	0.009752028750256159	-0.5138762663856973	0.5236282951359534	115.94402246820302
15	6.0	ltm	424	diff_vonmises	0.3774490376521629	21.626236838743434	0.6988330141479139	46.120223167056544	0.6413851301189895	48.09975634981053	-0.037034466032348945	-0.4281368557607026	0.39110238972835365	97.01092255364003
16	6.0	perception	424	diff_vonmises	0.009519588174600717	0.5454322251072685	0.4816451480070495	169.76652879707353	0.45898837264356895	171.74930453296633	0.24128393275172044	-0.6343861768853749	0.8756701096370954	123.76297450449326
17	6.0	wm	424	diff_vonmises	-0.004057525040232074	-0.2324790600739474	0.532184123040276	192.18702611873755	0.5131625978949738	194.27507929975013	0.1652094017665604	-0.5905687773389339	0.7557781791054943	116.60536287300656
18	7.0	ltm	424	diff_vonmises	0.07656859373715152	4.387057264390609	1.0704429086525191	217.67776960544188	1.0511776023576924	219.96481413927984	-0.014975859672134106	-0.5218475312304953	0.5068716715583612	76.90502282493816
19	7.0	perception	424	diff_vonmises	0.08325648316670357	4.770245102554098	2.782975182113792	1.501376521473443	0.09674968967462069	3.503675909931074	0.3290192322505061	-0.5160753514040654	0.8450945836545715	78.04732926406191
20	7.0	wm	424	diff_vonmises	0.3697005704328469	21.182282369381156	1.0858937905548967	261.3229774589579	1.0683412359429825	263.6709724448606	0.02846397693149072	-0.5502199902774052	0.5786839672088959	77.19509965124493
0	1.0	ltm	425	diff_vonmises	-0.06281988993537307	-3.599314562773235	1.2519757778542826	66.55432046646752	1.2298670759334414	66.52392631271887	0.2817681276038577	-0.09119340351112015	0.3729615311149779	85.07743563384534
1	1.0	perception	425	diff_vonmises	-0.03254734153083992	-1.8648253040879914	11.992833179952925	0.5167664517636168	4.0241133235885613e-26	0.57228623305752	0.6150995102243259	-0.09108218282749876	0.7061816930518247	39.155822607788224
2	1.0	wm	425	diff_vonmises	0.14462649517613835	8.286487779361886	2.8846873430364255	0.44740912975171615	8.064230354459773e-28	0.413666395219078	0.22069081468956012	-0.0649425304730604	0.2856333451626205	80.92814794621682
3	2.0	ltm	425	diff_vonmises	-0.07270509489409856	-4.165695086529999	4.756569373443337	0.39522888474254986	2.9877450771667435e-16	0.16975247595631376	0.30667541115897434	-0.02699229321270302	0.33366770437167736	62.64059559054249
4	2.0	perception	425	diff_vonmises	-0.03937052137486309	-2.2557647120092503	6.949961581745338	0.9472995599958671	2.261753178105293e-16	0.9148856277553415	0.8313417829980011	-0.1456076720284917	0.9769494550264928	51.61905188616231
5	2.0	wm	425	diff_vonmises	-0.015981007397199445	-0.915644276226877	3.325704750517728	20.979362492303895	3.256432156164801	20.85185872311916	0.25860153588854295	-0.047722142892885344	0.3063236787814283	53.77723183429379
6	3.0	ltm	425	diff_vonmises	0.12997146546144733	7.446816428071281	1.7335823556524044	84.61577962875504	1.7183429679997033	84.42240601212363	0.3055216415242157	-0.05436513497851081	0.3598867765027265	75.12404125857358
7	3.0	perception	425	diff_vonmises	0.008787810356444064	0.5035044445856004	4.9349968280721885	1.6266965370883002	0.33551175251938564	1.587631994294909	1.0568296697503032	-0.23761851591671163	1.294448185667015	59.007371554784186
8	3.0	wm	425	diff_vonmises	-0.02772253205786365	-1.588384084331712	1.8033263805499486	66.18626888948744	1.7740274688269353	66.17809744905635	0.32188761010802125	-0.10383982324104668	0.42572743334906793	70.36692499426391
9	4.0	ltm	425	diff_vonmises	-0.14276957085993064	-8.18009385316797	1.8943306698405658	94.19576888801807	1.875366657306486	94.35541409354583	0.20711360598254203	-0.11198376453761405	0.3190973705201561	65.81274818376357
10	4.0	perception	425	diff_vonmises	-0.10296658203876365	-5.899550581708704	2.2218785240893224	2.7860920453422238	0.33952010711379843	3.296759215662532	0.8151179469736054	-0.376894345686532	1.1920122926601375	82.99214464024885
11	4.0	wm	425	diff_vonmises	-0.05845286527606	-3.3491024807650396	1.4470867087972512	127.92422503622286	1.4281064178987486	128.7624150445011	0.07771638599003694	-0.2360621539234522	0.31377853991348914	68.72805196578187
12	5.0	ltm	425	diff_vonmises	0.2176222211270736	12.468834798844055	2.0633428146866413	0.9387502744668432	0.18240767027145974	0.7295415354686999	0.3552626865922769	-0.08800545086718467	0.4432681374594616	91.53757414726846
13	5.0	perception	425	diff_vonmises	0.0024325390687154115	0.13937422213807682	3.144230755731303	1.4148268645334037	1.5507583724547768e-19	1.24164452203097	0.7540689188533395	-0.19584596950367536	0.9499148883570149	77.45594103891338
14	5.0	wm	425	diff_vonmises	-0.0880300798216874	-5.043752043982439	0.6127351569565144	66.17031561251952	0.5966567794539074	66.06276283865732	0.22995088462014834	-0.10041471861521156	0.3303656032353599	120.24997120258364
15	6.0	ltm	425	diff_vonmises	0.20323240441996013	11.644359033559613	0.7867094720075197	36.65793007332004	0.7713906024318739	36.591364505693264	0.1270829368915809	-0.044031565814750984	0.17111450270633188	108.34304019513127
16	6.0	perception	425	diff_vonmises	-0.20027700279345387	-11.475026993594705	2.2134291371684123	1.206508629985647	5.023120078381454e-13	1.2337464380143974	0.4651463721660065	-0.18844936754595445	0.6535957397119609	92.35847100802106
17	6.0	wm	425	diff_vonmises	-0.20604542160874853	-11.805533046174943	0.8570460035979709	72.43976073150131	0.8345242211195817	72.63541991063123	0.25064036104557275	-0.14651981246341617	0.3971601735089889	99.45508843354223
18	7.0	ltm	425	diff_vonmises	-0.006820965437619455	-0.39081253178019937	1.283304624155794	53.359578549749656	1.2484027106410012	53.440373863930944	0.30910099919569944	-0.12390234199270811	0.43300334118840755	82.77424954129262
19	7.0	perception	425	diff_vonmises	-0.024343410161419554	-1.3947746612052225	3.2587247602316807	1.4165200922341536	1.3765096189522886e-16	1.8883121997497725	0.6716365620276443	-0.2990976817975884	0.9707342438252327	76.05624266609192
20	7.0	wm	425	diff_vonmises	-0.19408323391297394	-11.120150177463737	0.00021247465485734602	5819.855569536232	4.755947488312731e-31	5820.0698023882105	0.16272031818391497	-0.2308918448999293	0.3936121630838443	178.9123930253737
0	1.0	ltm	426	diff_vonmises	0.09282714132207973	5.3186034220196134	2.5652129743366694	1.1221939406155719	0.20003079017024916	4.290546494791526	-0.154378770172923	-0.624457028194697	0.47007825802177394	73.29900089468089
1	1.0	perception	426	diff_vonmises	0.07617717283096756	4.364630498453082	8.491136379388639	0.7827976996448787	0.10894874515773519	4.069125447548014	0.17562773214340743	-0.6697514679788307	0.8453792001222381	45.18147134464968
2	1.0	wm	426	diff_vonmises	0.1702383793600423	9.753940648477448	4.069949533057567	0.5151415185201661	0.035198711973799104	3.831485008800621	-0.23163295750497387	-0.6029765606619305	0.37134360315695664	65.18139992077622
3	2.0	ltm	426	diff_vonmises	-0.02391964814549091	-1.3704948861745556	2.1474854005980872	1.6865715430059232	0.5177041450896614	3.0013708685416702	0.1576479044988155	-0.34117628975613024	0.49882419425494573	75.02325239875975
4	2.0	perception	426	diff_vonmises	-0.05136689414476039	-2.9431062411900304	6.6852855477335105	1.1605393068319652	0.11357770244668733	2.61164793891202	0.7087756071049718	-0.4184784710230329	1.1272540781280047	51.48940307237808
5	2.0	wm	426	diff_vonmises	0.060996997871333634	3.494870540995884	5.352386034519919	0.49527548018955014	0.08077337879302543	2.2650949486519742	0.055024578773286426	-0.3596564432526759	0.4146810220259623	56.747679238216676
6	3.0	ltm	426	diff_vonmises	0.13221966077061906	7.57562853080793	1.2968054329105438	3.262766305369089	0.546617820349025	4.350816539766966	0.1833596966930351	-0.30656257255474545	0.48992226924778054	90.0549692443744
7	3.0	perception	426	diff_vonmises	0.027427905523910164	1.5715032274036094	4.9288767088522265	1.7596617671524857	0.04216488962685264	3.0023989391051407	1.0158379753334206	-0.46953559036505854	1.4853735656984792	60.82931193341483
8	3.0	wm	426	diff_vonmises	0.12194791260363874	6.987100712618719	3.0015010374932505	0.9022337619042698	0.17222107554908983	2.586296682215392	0.10571684613066928	-0.3798788884347646	0.48559573456543387	72.12950974272871
9	4.0	ltm	426	diff_vonmises	0.2672703148509472	15.313461030091963	0.5964091111730507	209.7827126592617	0.584492727650642	211.92433427984676	-0.08975029492170705	-0.4472618368370682	0.35751154191536116	101.62473122293306
10	4.0	perception	426	diff_vonmises	-0.07561931741912944	-4.332667737776226	2.865995529610594	2.1632918160378214	0.020039915192158295	4.389719988258639	0.6675124391219533	-0.6802533298724267	1.34776576899438	80.26283243532558
11	4.0	wm	426	diff_vonmises	0.10243167847617266	5.868902865125729	0.7702286892855651	141.33810226251592	0.7431823408173337	144.27570231637893	-0.13028672931294238	-0.604684812347994	0.4743980830350516	88.8235793605277
12	5.0	ltm	426	diff_vonmises	-0.036163943680070816	-2.0720413434168643	1.7314766783024171	1.2514542313963433	1.8553059614133155e-14	2.69663569099939	0.16230890383001956	-0.410647225795378	0.5729561296253975	103.73082416838842
13	5.0	perception	426	diff_vonmises	-0.024706058477148303	-1.4155528791440075	1.9341761574325218	2.4600789844832924	1.418485503557731e-24	3.597225307757361	0.6710907503877681	-0.5465311569931681	1.2176219073809362	98.57076887812497
14	5.0	wm	426	diff_vonmises	-0.03272895109707564	-1.8752307657524996	0.6230891446031128	257.18050641107857	0.6119115120966281	258.7442408042275	0.12618338362536008	-0.41770367146481036	0.5438870550901704	106.84254748875371
15	6.0	ltm	426	diff_vonmises	0.42330622576224713	24.25366017778876	0.5255373781492196	186.72245501730123	0.5138198724530593	187.94375645501526	0.10562872243895072	-0.35147483595845586	0.4571035583974066	116.90272333522637
16	6.0	perception	426	diff_vonmises	-0.018151891891853664	-1.0400267955809543	0.5661041156721338	148.74829110902346	0.5412319174962285	149.98197635274627	0.3827344057204556	-0.5040468940812417	0.8867812998016973	117.91343102963032
17	6.0	wm	426	diff_vonmises	0.11001840390945013	6.303590212777089	0.6620357553107182	249.19483041824554	0.6492590343896096	250.69483583041765	0.19300742866975895	-0.4286030990039613	0.6216105276737203	105.05437470522531
18	7.0	ltm	426	diff_vonmises	-0.05027075227084045	-2.880301938066857	1.5548564286606608	3.8349073755756433	0.5944226802376139	6.395947923515175	0.005954573993722345	-0.5750536758253801	0.5810082498191025	78.59910731254465
19	7.0	perception	426	diff_vonmises	0.08508641080045323	4.875092232782315	0.9604462323875936	172.41735486412983	0.9259210963440787	174.5050142460271	0.4469146551409793	-0.6248948097580644	1.0718094648990437	88.58698490241187
20	7.0	wm	426	diff_vonmises	0.2470549947170083	14.155208504911426	4.2575716369613374	0.8273509845379027	0.073850630294014	3.4281366108561087	0.0714398075921363	-0.5355465684428986	0.6069863760350349	63.482031369081085
0	1.0	ltm	427	diff_vonmises	0.16507680103890657	9.45820399505015	1.2958600132786289	3.4111309108184757	0.5704615334622755	5.640915716388484	-0.11328133339585844	-0.45869040247112686	0.3454090690752684	80.64851261022483
1	1.0	perception	427	diff_vonmises	0.07703047510704318	4.413521117521123	6.047117860277487	0.9629140869538624	0.13420923914312344	3.119202739599523	0.3580192350735437	-0.5012691700806103	0.8592884051541541	53.31325464051429
2	1.0	wm	427	diff_vonmises	0.12275465772518422	7.033323803226043	4.80237646240555	0.36186681755322375	1.4084948090885928e-18	2.5408747462748664	-0.09729076410436133	-0.4043720746066861	0.3070813105023248	62.33210401438441
3	2.0	ltm	427	diff_vonmises	0.07294525080691043	4.17945500675923	3.1880578627470504	1.0135605829152183	0.4898700359096271	2.159392269054398	0.15840133275870383	-0.3036833666542966	0.46208469941300045	65.00814381665526
4	2.0	perception	427	diff_vonmises	-0.027980066053674986	-1.6031396953728414	7.738939621440989	1.136796692053463	2.005540040200718e-23	2.227482908305647	0.8851560370723925	-0.3545146802701205	1.239670717342513	48.877402898241144
5	2.0	wm	427	diff_vonmises	0.06115860113014018	3.5041297256810595	5.734402356572904	0.45691241096652	0.0938518825852138	1.8202004843581938	0.10847273416964132	-0.2902236163470726	0.3986963505167139	54.92320327741345
6	3.0	ltm	427	diff_vonmises	0.24092652222444874	13.804072896225744	4.286392654346539	0.5375792646884913	0.1352818016518687	1.1627677996376893	0.21824205907057817	-0.17831433831303695	0.39655639738361514	63.34525920963583
7	3.0	perception	427	diff_vonmises	0.03927192465389148	2.250115536023748	5.699573034321978	1.5859405928912202	4.095194074152102e-20	2.2922036265440826	1.1092198402171336	-0.3647990193048706	1.4740188595220043	57.108077215137484
8	3.0	wm	427	diff_vonmises	-0.005904488977572042	-0.3383022985963926	4.06454147838652	0.6300761511246962	0.2072633751209702	1.5978958990975	0.17910286596222103	-0.24428400563890013	0.42338687160112115	63.178141698179246
9	4.0	ltm	427	diff_vonmises	0.5649293800922639	32.36806920222863	0.4955439612936649	152.35657678303252	0.4848953888289549	153.7622131136587	-0.04010841597801118	-0.31467689009902067	0.2745684741210095	113.826051468678
10	4.0	perception	427	diff_vonmises	-0.07499849026142578	-4.297096961832704	3.4007669097346245	1.9234562691929327	1.6611865441808203e-20	4.044705731251376	0.7083396843236205	-0.6422311739256743	1.3505708582492948	74.40862754927346
11	4.0	wm	427	diff_vonmises	-0.026123661538073897	-1.496775551559871	1.0286621866664003	198.47891117521948	1.0120904724863418	200.61959517473014	-0.11534955097111776	-0.45665343455497265	0.3413038835838549	75.40660559252436
12	5.0	ltm	427	diff_vonmises	0.11206101030232365	6.420622938295183	1.9064619740330042	0.922273677191747	4.2909580685882034e-20	1.7918728699948296	0.17697543555007483	-0.2749782403965597	0.45195367594663455	99.21361681543897
13	5.0	perception	427	diff_vonmises	-0.025164285890576638	-1.4418073759906476	2.337241760718254	2.1750245376469817	3.704803080156673e-17	2.64284895957931	0.8112062180576377	-0.40912749440836965	1.2203337124660074	89.958405806869
14	5.0	wm	427	diff_vonmises	0.06566733010758677	3.762460867057084	0.6728088537181974	153.92774316084493	0.6578095324759766	154.79549904289547	0.19929758231245387	-0.2895870920895405	0.48888467440199435	106.45005386627506
15	6.0	ltm	427	diff_vonmises	0.4049351996868996	23.201077918346563	0.6686617638199033	130.15808054739838	0.6563991992937909	130.6671839822272	0.16295996303339422	-0.19313162494698233	0.35609158798037654	107.97062398143663
16	6.0	perception	427	diff_vonmises	-0.0889815743037189	-5.09826866203283	1.4952910772636994	1.8920338954114342	3.744101457035939e-13	2.2695271402807045	0.4567724109868891	-0.3200961605822502	0.7768685715691392	110.58105659310186
17	6.0	wm	427	diff_vonmises	0.07292512939735749	4.178302134913992	0.6758309650747512	181.20863938551136	0.6639494360668353	181.9576130438302	0.20174978013717038	-0.2638796678171982	0.46562944795436856	106.69560344152549
18	7.0	ltm	427	diff_vonmises	0.04114812099400938	2.357613667850395	1.7911281942478077	1.8431510556843174	0.46383255578866645	3.366989449638021	0.08120534690445358	-0.3611626758561015	0.4423680227605551	79.96940539447311
19	7.0	perception	427	diff_vonmises	0.019118197137539657	1.0953920078801138	0.9762720369644369	295.5873049633328	0.9581528199482928	296.9062147085453	0.5756242647797762	-0.5028033508281986	1.0784276156079748	89.98569815941411
20	7.0	wm	427	diff_vonmises	0.22430677783627787	12.851831686197317	3.49481031458071	0.5842252949760822	1.1650608395627476e-32	2.160416145264307	0.07314083399908977	-0.3434566943582587	0.4165975283573485	73.36863213473808
0	1.0	ltm	428	diff_vonmises	-0.041887190111292376	-2.3999592090391704	1.5628604415849479	50.750768034718334	1.5379502245108758	50.78732840654548	0.20271039050631856	-0.07556684809993897	0.2782772386062575	74.90849414227029
1	1.0	perception	428	diff_vonmises	0.000816407208217712	0.04677668739493312	10.246372700731131	0.6581234505373597	5.0832138199525115e-15	0.5451922094858496	0.742914408006089	-0.08677003403007304	0.829684442036162	42.39440002291653
2	1.0	wm	428	diff_vonmises	0.06996930358925262	4.008945791133738	2.5600928627179362	0.399221217315767	1.9829161667056243e-36	0.4126075609230426	0.17291718533768397	-0.06424300385611827	0.23716018919380222	85.95901958705988
3	2.0	ltm	428	diff_vonmises	0.11532572133693479	6.607677101908189	11.604674090402067	0.24303743988051985	1.3061877634225745	0.10619095258562057	0.28417300973457227	-0.021970394226902418	0.30614340396147466	38.546755731324
4	2.0	perception	428	diff_vonmises	-0.01965524316688451	-1.1261624787658329	8.278204641399121	0.9797351517155318	5.809289598297049e-13	0.7248031515762338	0.9911694412585378	-0.11535593295446163	1.1065253742129995	47.231584793101604
5	2.0	wm	428	diff_vonmises	-0.0030062557720670624	-0.17224576787628548	9.020466523567446	0.2535934765461857	0.43637574479387503	0.17700631976741227	0.2578153545144681	-0.030682960796095997	0.2884983153105641	44.310451943934
6	3.0	ltm	428	diff_vonmises	0.27040802554608395	15.493238610256359	2.8431209261199957	63.7088837666419	2.825034434955984	63.5606573838379	0.24208580256354395	-0.0369771584849925	0.27906296104853645	58.89001609570332
7	3.0	perception	428	diff_vonmises	0.02220993216124635	1.272535376111287	6.332031712217119	1.2761474140423021	0.18075066818845842	1.0621684501963762	1.0526637252316944	-0.1665882358924004	1.2192519611240948	53.280818264809426
8	3.0	wm	428	diff_vonmises	-0.024348836825993602	-1.3950855861821487	3.8278020905573746	0.8833969435748085	1.5238729900205605	0.8663323500633702	0.28412923719158717	-0.08563129221690133	0.36976052940848847	57.58768043288961
9	4.0	ltm	428	diff_vonmises	-0.16112103451042303	-9.231555268228925	2.3136871692723284	72.57924369688607	2.2929456311498373	72.72672981541257	0.1356506509466726	-0.09341133922917955	0.22906199017585216	58.35760931652837
10	4.0	perception	428	diff_vonmises	-0.07985063622727562	-4.575104447257328	3.3300326173516983	1.6816684568937443	1.314076273406425e-12	2.233830443134964	0.8127132667342518	-0.35402829617093073	1.1667415629051825	75.21599290949393
11	4.0	wm	428	diff_vonmises	-0.03805493269358361	-2.1803870329967543	1.6177364241983119	96.26141706482254	1.59540426939029	97.00199611304984	0.034519592020146206	-0.21079827640486215	0.24531786842500836	63.716033368158435
12	5.0	ltm	428	diff_vonmises	0.2759928716055625	15.813226718694748	1.335918623705158	1.644908066496699	0.5549170107264005	1.5010576252660128	0.27865911114510766	-0.08211609006186758	0.36077520120697526	99.04725835462239
13	5.0	perception	428	diff_vonmises	0.016338629745262043	0.9361345274304225	3.8939039605445385	1.2925528890804914	1.6090984595545464e-16	0.9827526689214452	0.8228740176018126	-0.15600377425925974	0.9788777918610723	69.41200218785053
14	5.0	wm	428	diff_vonmises	0.05971354417465302	3.421334060975621	0.6716258974531537	57.144738962570614	0.652508540912091	56.96703351605819	0.25674944212701156	-0.09264432453186622	0.3493937666588778	116.899126367345
15	6.0	ltm	428	diff_vonmises	0.24211176263892106	13.871982169683344	1.1079790523320618	24.899724575006854	1.0862856905095692	24.736037948401844	0.15975861924400903	-0.026307328013869036	0.18606594725787806	95.84759512273112
16	6.0	perception	428	diff_vonmises	-0.16591092506041138	-9.505995781072855	2.1325478573336842	1.202669749417056	2.3094865145917793e-11	1.0314570149131796	0.480688475144597	-0.1550995673690741	0.635788042513671	94.0546799665757
17	6.0	wm	428	diff_vonmises	-0.1744157858359045	-9.993288408854971	0.792288682653929	51.48503080830453	0.7621119402778402	51.5519710140491	0.2768485207842879	-0.13869802484579985	0.41554654563008775	105.3205454686485
18	7.0	ltm	428	diff_vonmises	0.14860386885668586	8.514374504803675	1.0357324691730947	71.85782830019335	1.016561607885298	71.9591932140982	0.22500059739706657	-0.10567086444655427	0.33067146184362084	91.28734345406366
19	7.0	perception	428	diff_vonmises	-0.022662903442468105	-1.2984887187659269	3.048405401144588	1.2644329860897023	7.082094642666219e-16	1.6852201158900162	0.5674850947023877	-0.2663306127889717	0.8338157074913595	78.6914163249688
20	7.0	wm	428	diff_vonmises	-0.047726864817825995	-2.734547923452844	0.0005011049779866636	1752.3618673876583	3.791493311467198e-32	1752.5950193806993	0.10266541415575148	-0.176844983639171	0.2795103977949225	179.90669312021095
0	1.0	ltm	429	diff_vonmises	-0.002855867993059664	-0.16362918284881542	0.8473515924297345	49.604613792110996	0.7784889702482942	52.11718717226511	-0.10040017222018172	-0.5234537659041711	0.4230535936839894	85.95217331365163
1	1.0	perception	429	diff_vonmises	0.006394033604420226	0.3663511395981003	9.73463255618452	0.7658068602891036	3.390046115938171e-17	3.098094470262348	0.44708464978028506	-0.49307704581196676	0.9401616955922518	43.51401497340865
2	1.0	wm	429	diff_vonmises	0.10063664754187684	5.7660551684951535	3.7232873184952995	0.49441817763184237	2.002686043943743e-15	3.0353811935715993	-0.11762703415105741	-0.48288267993633543	0.365255645785278	71.02793613513037
3	2.0	ltm	429	diff_vonmises	0.06865473068777049	3.933626312016545	4.047085798625815	0.5366081046924178	1.0531417494908415e-11	2.029603662146918	0.09219475350847833	-0.3228946835620834	0.41508943707056173	68.04845216470079
4	2.0	perception	429	diff_vonmises	-0.050301590315954464	-2.882068827900324	7.5709980604760565	1.1288686825466632	0.030706555384035144	2.459989173723078	0.813658641738223	-0.39131688674791504	1.204975528486138	49.12186184150619
5	2.0	wm	429	diff_vonmises	-0.022473802918319453	-1.2876540568284973	4.0104910885503235	0.6131398018016655	0.09050179907518696	2.228689817917573	0.08455587984041729	-0.3454436101703844	0.4299994900108017	65.06777188289925
6	3.0	ltm	429	diff_vonmises	0.16238008744414126	9.303693687514544	3.278267088360417	0.542064571420045	1.3766973729873178e-20	1.4313869429042967	0.14547564927528636	-0.2272818905261021	0.3727575398013885	75.81725684429213
7	3.0	perception	429	diff_vonmises	0.03870856122468967	2.2178371891984674	5.179750244023164	1.7766701672092942	0.04042926080994527	2.5096418732298584	1.1540624656366651	-0.39290738567563516	1.5469698513123002	59.449747293378664
8	3.0	wm	429	diff_vonmises	-0.09015279796949204	-5.165374834947471	3.2444118840768956	0.8155274650592186	0.1821849209345438	1.9485987986498792	0.18932011591427617	-0.28632785092995744	0.4756479668442336	70.41545612905782
9	4.0	ltm	429	diff_vonmises	0.0011259257167747902	0.06451079161643755	0.5631366059598619	60.82823083024489	0.5327657374937385	62.357233350248336	-0.03902754566765587	-0.3358551306466131	0.2968275849789572	107.49117893651058
10	4.0	perception	429	diff_vonmises	-0.029487391032825265	-1.6895030550327972	2.371252496422685	2.7885912161032755	0.21059619323599904	4.749967063111891	0.6700350374793954	-0.6297669915876466	1.299802029067042	81.4454429408926
11	4.0	wm	429	diff_vonmises	0.12098970534825611	6.932199480986479	0.844993637254172	238.4379122160057	0.8328313151252971	240.62139976682485	-0.12317977395686341	-0.44539623258932437	0.32221645863246096	83.07174099872393
12	5.0	ltm	429	diff_vonmises	0.23274043666036742	13.335044742670913	1.6475772554180161	1.3227658863464102	0.15688472780978205	2.382679681655944	0.1656467052086426	-0.30118522114089336	0.46683192634953596	96.25118411629137
13	5.0	perception	429	diff_vonmises	0.03589263454561331	2.056496475069102	2.1505151636737403	2.300599817210765	1.3312226380716452e-15	3.1278575102863155	0.7420514886521798	-0.4810080855397116	1.2230595741918915	93.69325295262396
14	5.0	wm	429	diff_vonmises	0.0353125891003736	2.0232623191310797	0.58307774610193	161.4100367203849	0.5676391196590399	162.6176254777444	0.15714569056984828	-0.3632699697093962	0.5204156602792445	112.5535947631002
15	6.0	ltm	429	diff_vonmises	0.4094442284992535	23.459426238997327	0.6304903911379385	104.12180943259354	0.6163221710392117	104.911455740014	0.067658879948997	-0.2123038332548024	0.2799627132037994	106.49482786708828
16	6.0	perception	429	diff_vonmises	-0.10132680637534622	-5.805598356846621	1.567077194223645	1.729404478583094	3.429915317708833e-17	2.5315211612014403	0.36633569946492517	-0.3694134523785968	0.735749151843522	108.38315726692808
17	6.0	wm	429	diff_vonmises	-0.08074659000654037	-4.626438817447994	0.45397614210536114	179.972399736835	0.4432251863879936	181.13841479172214	0.0830756129642225	-0.3415320162579718	0.4246076292221943	124.91232592080321
18	7.0	ltm	429	diff_vonmises	0.020271579287120086	1.161475937216799	2.0949575529599906	1.8935634644303985	0.686574439217171	3.2380401928390476	0.09144452345386822	-0.34016121552391204	0.43160573897778026	71.26938581656205
19	7.0	perception	429	diff_vonmises	0.0742780092836524	4.25581644258683	1.8712701541549548	2.1672650208565503	0.1554123434960104	3.230839858462741	0.47681044970847664	-0.4143679088796599	0.8911783585881365	92.89685926521233
20	7.0	wm	429	diff_vonmises	-0.3993819873835748	-22.882902290625925	0.03270489652299654	33.55500433423609	0.00046980666344842914	35.196318636473926	-0.08778471039538882	-0.43180684854698015	0.34402213815159133	173.7328316662743
0	1.0	ltm	430	diff_vonmises	0.17085745487870638	9.789411062896772	1.8686192843329292	1.3582445187057302	0.17280782242257406	4.377542055817911	-0.1495603395264926	-0.5973708727092532	0.44781053318276054	84.87581517738406
1	1.0	perception	430	diff_vonmises	0.05519344614603365	3.1623515209503275	5.5384897006244405	0.867388752122393	0.07729532869574683	3.7862973115170235	0.14403200478103806	-0.6016737341827597	0.7457057389637978	55.98907284151977
2	1.0	wm	430	diff_vonmises	0.1494057105933127	8.560316652149833	4.889503528129011	0.4551197167044135	7.730529255020008e-18	3.300716093419312	-0.13540864591633334	-0.5253031954541076	0.3898945495377743	61.768678547644384
3	2.0	ltm	430	diff_vonmises	-0.013781471063467993	-0.7896201274183863	2.2684348296953187	1.6684687184753078	0.4391795045776409	3.304198308087951	0.150445425217561	-0.40535336544140815	0.5557987906589692	74.62332796512902
4	2.0	perception	430	diff_vonmises	-0.05079442687550136	-2.910306282752109	6.331403656169507	1.2074015739380575	0.02535773149742327	3.0138909032231074	0.6941293961422721	-0.4774967128000898	1.1716261089423619	53.73115590834854
5	2.0	wm	430	diff_vonmises	0.03959184213276702	2.2684454573557824	4.7838168710369295	0.5934472854663718	0.08050641052288006	2.51069107804762	0.07017919559607133	-0.3953844318662397	0.46556362746231106	59.93246383731886
6	3.0	ltm	430	diff_vonmises	0.16937591551688488	9.704525110281896	2.1300129697718253	1.3911064952022214	0.2316336779200456	2.706210461847871	0.2096301062144601	-0.3498637611396277	0.5594938673540878	83.2786221884403
7	3.0	perception	430	diff_vonmises	0.02826728598674587	1.619596185329833	4.485534816612285	2.003648560343569	5.720707326468639e-18	3.483128659478454	1.0847232539680605	-0.5541488863508909	1.6388721403189512	64.55604561637344
8	3.0	wm	430	diff_vonmises	0.028691206660297463	1.6438850507726825	2.1675113620522803	1.3045851104447557	0.18911753009680635	3.1068133941577556	0.11428448738793107	-0.42088427845109616	0.5351687658390272	82.69403606601585
9	4.0	ltm	430	diff_vonmises	0.4004730989388226	22.945418377719584	0.2975546001749525	243.96807492669626	0.288019997637046	246.2862167633394	-0.06670948649941977	-0.5805569372844914	0.5138474507850717	139.68822139301682
10	4.0	perception	430	diff_vonmises	-0.06856673185265835	-3.9285843501625517	2.6969841087240347	2.3958864736050947	0.04256836824146053	5.219780920360914	0.6094931593748675	-0.7911316792959407	1.4006248386708082	81.57106322690896
11	4.0	wm	430	diff_vonmises	0.12416798738194078	7.114301627618866	0.68684714244418	194.55545402745256	0.6686501450133528	197.62999530935522	-0.182480002699279	-0.6143876055048167	0.43190760280553775	92.51320635520162
12	5.0	ltm	430	diff_vonmises	0.07804782613358512	4.471811037625277	1.9276376640948452	1.1364943738673794	4.607462941203441e-11	2.427402575769113	0.18699561783615748	-0.37419543899120405	0.5611910568273615	98.71515871556443
13	5.0	perception	430	diff_vonmises	-0.030920016757150875	-1.7715864626585272	1.8316288185359013	2.7450662394778305	7.79281871791537e-17	3.72957730012123	0.7489998734886623	-0.5591440514322626	1.308143924920925	101.10287453520965
14	5.0	wm	430	diff_vonmises	-0.007388480556481759	-0.4233287529008747	0.6526685439461729	190.26697656905475	0.6384319728143665	191.59584992841468	0.15207192434673544	-0.37231027184991916	0.5243821961966546	105.49972770997107
15	6.0	ltm	430	diff_vonmises	0.4018175056539875	23.022447208447577	0.47262955718813016	152.94908705786378	0.4612587276195904	153.8185402217234	0.11503220166207484	-0.2846071220516446	0.39963932371371946	123.66700285394697
16	6.0	perception	430	diff_vonmises	-0.08137379782330624	-4.662375178226292	1.434155084259793	2.028503824347342	1.0215706019796366e-19	2.88186071516251	0.3964446503712012	-0.41009431046448336	0.8065389608356845	112.52958316485174
17	6.0	wm	430	diff_vonmises	0.12152416232073937	6.96282160984111	0.6564194296669131	202.7550478231526	0.6450155990856697	203.93828137228456	0.11516533653183814	-0.32078136994481454	0.4359467064766527	104.51022309432497
18	7.0	ltm	430	diff_vonmises	-0.061936710251407685	-3.5487120943303205	2.06797136000119	2.0379328569541446	0.44935274754228105	4.414663279938354	0.025055453440811837	-0.5332297013761176	0.5582851548169294	74.82245884932638
19	7.0	perception	430	diff_vonmises	0.05438571650062076	3.11607202128057	0.9230921126992317	418.03153016832186	0.908486316419355	419.81461990984326	0.583606850611261	-0.6122905777634884	1.1958974283747494	91.51807402128478
20	7.0	wm	430	diff_vonmises	0.07305435601457386	4.185706274681243	3.877930997600603	0.6834263567853254	3.8266154581046763e-34	3.241463563854465	0.0007189082734644359	-0.5156737131012487	0.5163926213747131	69.55840962206457
0	1.0	ltm	431	diff_vonmises	-0.12988352671461972	-7.441777909022389	1.245240458804622	143.4935517480147	1.2269732215724494	144.43505360786602	0.11985358381153333	-0.2609023145161373	0.38075589832767065	75.26793570813462
1	1.0	perception	431	diff_vonmises	0.027171542726918723	1.5568147211118308	13.563169819614714	0.5864677633833262	9.503214162191922e-18	1.5817134325032547	0.601354052132115	-0.2517375113363277	0.8530915634684427	36.80574671575542
2	1.0	wm	431	diff_vonmises	0.06288442785693169	3.6030123132970897	5.02816967758792	0.29327799996118253	6.857589303446852e-15	1.3485503802773429	0.04041542585417213	-0.21461751172860805	0.2550329375827802	60.88769311119597
3	2.0	ltm	431	diff_vonmises	-0.04130225223601044	-2.366444737508165	4.065182848016567	0.4252547564673975	1.4133674587973235e-11	0.879985436183372	0.18977377521431346	-0.13995689460403485	0.3297306698183483	67.89931040973786
4	2.0	perception	431	diff_vonmises	-0.025126044812206542	-1.439616323596012	8.186227999853271	0.9666059360390644	0.07436366923565559	1.4189845482975543	0.8422269856550743	-0.2274328344075307	1.069659820062605	47.10498134551517
5	2.0	wm	431	diff_vonmises	0.024133697474913802	1.3827590093580928	6.279764714287479	0.2935838493564665	0.14531484695528335	0.949204432603907	0.11333803896624534	-0.15343311937994036	0.2667711583461857	52.25477136122444
6	3.0	ltm	431	diff_vonmises	0.1223615311302975	7.0107993085246845	1.4622930887129506	97.32100502840164	1.4461239517773996	97.51158207706258	0.197130472840378	-0.11039750688747674	0.30752797972785473	75.04972057801305
7	3.0	perception	431	diff_vonmises	0.033739780569612236	1.9331470283362817	5.19937150089619	1.6039703343935279	0.3738473752665763	1.7098884971081356	1.0380659366663454	-0.26117226411221833	1.2992382007785637	57.17515287844785
8	3.0	wm	431	diff_vonmises	0.00728910810749782	0.4176351309742159	2.6643056573702255	1.0132114037151854	0.8654212601197089	1.4306629754979885	0.16747192855627224	-0.15277520987088844	0.3202471384271607	66.73330410649893
9	4.0	ltm	431	diff_vonmises	-0.1469269307797295	-8.41829303048929	1.4513126159758398	141.42484440235148	1.4377376160079824	142.0481412168775	0.07649954775992285	-0.18113871457178377	0.2576382623317066	69.19842764057373
10	4.0	perception	431	diff_vonmises	-0.07334452801088537	-4.202331905402779	2.44316842845459	2.464841697899685	0.336108579104899	3.2527129365051395	0.7286744685970287	-0.3953307827795578	1.1240052513765866	79.12485595305239
11	4.0	wm	431	diff_vonmises	-0.043132806639486265	-2.4713277789964185	1.2035118711033472	142.58719012879013	1.1878355184108276	143.67991372666998	0.0013000090537147457	-0.26069934417262886	0.2619993532263436	72.64627670489915
12	5.0	ltm	431	diff_vonmises	0.19681010177848432	11.276388197447329	0.890832411128441	61.07643165171679	0.8586651936334407	61.590689725058134	0.21266505721856532	-0.1960721693852463	0.4087372266038116	94.55810580426308
13	5.0	perception	431	diff_vonmises	0.030839605081878257	1.7669792130418298	3.3110936909884314	1.5410835543756876	4.2501445909940736e-17	2.0239329877779184	0.7451069977436656	-0.32069889903270665	1.0658058967763724	75.43365672214478
14	5.0	wm	431	diff_vonmises	-0.08314423260809581	-4.763813619297887	0.4599999630903154	132.3704698840797	0.448952300750028	132.97321855901782	0.12823074396472478	-0.22976494255872204	0.3579956865234468	127.02168884460686
15	6.0	ltm	431	diff_vonmises	0.10239842374335602	5.8669975092865005	0.7500782558728796	71.68879637979087	0.7341663907650379	72.2864258511669	0.04376973398511197	-0.15079126865484227	0.19456100263995424	96.69597902727423
16	6.0	perception	431	diff_vonmises	-0.20530726414151157	-11.763239738686199	1.8505867735127988	1.482947735138747	2.234854018786072e-12	2.1762459836745487	0.3834850648681719	-0.32833654828698855	0.7118216131551605	100.54689210497668
17	6.0	wm	431	diff_vonmises	-0.2587627641499079	-14.826014280928845	0.8042679463984738	7.513779077774088	0.5090117602349213	8.29172385108672	0.2277760110786744	-0.2868166944736171	0.5145927055522914	108.49949981010973
18	7.0	ltm	431	diff_vonmises	0.07576893397273887	4.341240134843339	1.1130895819501792	116.24127362625602	1.0945799551013755	116.82952835680581	0.19113537213387133	-0.19809147184240317	0.3892268439762745	83.02753677645308
19	7.0	perception	431	diff_vonmises	-0.023871136829796247	-1.3677153925266248	3.4419462767031517	1.2663223301124122	5.8598574743471176e-18	2.120497637358034	0.558637753866813	-0.33656978406842153	0.8952075379352346	73.95362668679081
20	7.0	wm	431	diff_vonmises	0.3198777328296345	18.327644051351392	5.040722363179281	0.45415971706278446	3.833358945006249e-15	1.2076949432518584	0.2032812592183253	-0.1921940663318274	0.3954753255501527	60.80840530449075
0	1.0	ltm	432	diff_vonmises	0.04297037820271486	2.4620213150965093	0.8355681861178834	211.16066648135492	0.8203178976369554	214.12199274013753	-0.2959240153340801	-0.5685047516719379	0.27258073633785784	78.19382756254572
1	1.0	perception	432	diff_vonmises	0.0980140321251983	5.615790373833529	8.53640635172916	0.8230405289645198	0.02351205173417872	3.437877983689217	0.3841764888430723	-0.5487397565699048	0.9329162454129771	46.17505092926936
2	1.0	wm	432	diff_vonmises	0.018429887771891227	1.0559547862291319	6.574100159471527	0.31813570282142634	0.0765885127054663	3.3481902173593827	-0.25572896860536987	-0.542486664172365	0.28675769556699515	50.22952520717695
3	2.0	ltm	432	diff_vonmises	0.07175387480707346	4.111194190155393	2.942565583783291	0.7995084430953856	0.2121531795214289	2.482207375998808	0.03492169000468298	-0.36335101900112315	0.39827270900580614	70.90648961127286
4	2.0	perception	432	diff_vonmises	-0.00682971820643193	-0.3913140284922079	7.93899444641836	1.2828473361719042	0.15344320765687827	3.0992066376273923	0.8458926484811549	-0.5094769332988281	1.355369581779983	47.065176384492474
5	2.0	wm	432	diff_vonmises	0.11963913594914923	6.854817554478135	5.554987553972052	0.3875716919175297	0.055833151178979634	2.335656732846998	-0.03738842050105046	-0.37145559892279184	0.3340671784217414	55.928340614094026
6	3.0	ltm	432	diff_vonmises	0.2246921301853628	12.873910749425336	4.424626102479251	0.5092704546192168	0.24456388608017382	1.3290381772571618	0.14745087860111916	-0.20683727792237058	0.3542881565234898	60.1849658640883
7	3.0	perception	432	diff_vonmises	0.0610657199740662	3.4988080274417244	5.707220268456926	1.7495253344927253	0.10517311388996026	2.581135290893702	1.1718664756021915	-0.4046465628236875	1.576513038425879	56.06576795960464
8	3.0	wm	432	diff_vonmises	-0.06641147383480671	-3.805097161977921	5.919738934982035	0.30991470129586546	0.09676845892979548	1.5082306846098132	0.030049845140232123	-0.24191916633849245	0.27196901147872454	53.72900616511117
9	4.0	ltm	432	diff_vonmises	0.48616896385010877	27.855429758859522	0.49808222806849883	158.01844981869573	0.48707114197524204	159.9298122815625	-0.1421693186995796	-0.3775636760767611	0.2353943573771815	107.56699122953145
10	4.0	perception	432	diff_vonmises	-0.039974600990921656	-2.290375924499289	3.551613544040038	1.8711693098632476	0.10165673283184476	4.240789101255003	0.6022531574922864	-0.6406597480190119	1.2429129055112984	69.71286652593187
11	4.0	wm	432	diff_vonmises	0.07722347142364151	4.424578991923777	0.6589561286252966	73.37618393401424	0.6320684896883165	75.62411418926348	-0.23577409463164045	-0.4129313830639365	0.17715728843229606	87.38041313652278
12	5.0	ltm	432	diff_vonmises	0.19935092163231444	11.421966451574841	0.8065097992275921	53.537267115753245	0.7552345532112056	55.09555973335549	0.06434248765946293	-0.3706049546704637	0.43494744232992666	92.85396125272871
13	5.0	perception	432	diff_vonmises	0.02103446011335823	1.2051857888316977	2.9168397040128786	2.107085232166852	4.00309921541975e-20	3.591281475640106	0.7864658342223217	-0.5675946896789272	1.354060523901249	80.47883458374031
14	5.0	wm	432	diff_vonmises	0.034498791748668975	1.9766351654994814	0.4803122266112803	165.7679622137969	0.4659470011872549	167.57741014471574	0.008146600996290942	-0.44618256090705266	0.4543291619033436	118.88459046644316
15	6.0	ltm	432	diff_vonmises	-0.24411768623982275	-13.986913126040694	0.00043999404381440195	2434.3565671706206	1.5306069664164648e-24	2435.832059322587	-0.0643418851577735	-0.40528435063987445	0.34094246548210094	178.2766820641619
16	6.0	perception	432	diff_vonmises	-0.17027612171464837	-9.756103126105263	1.3307145805263068	1.9192077084485453	2.0987390153311063e-16	3.258816674989276	0.25483847454219755	-0.4646281309065514	0.719466605448749	115.8827861449782
17	6.0	wm	432	diff_vonmises	-0.08830419382824353	-5.059457619663526	0.4374288308268476	183.06262693130253	0.42551811819935703	184.67700370618354	0.026636360258180503	-0.4212064840955989	0.4478428443537794	124.86621211319112
18	7.0	ltm	432	diff_vonmises	0.2219338950543713	12.71587551751481	0.8101731205980977	141.77617808818368	0.7912208145034428	143.5519642283435	-0.02311315353255594	-0.3859626174123214	0.36284946387976547	88.65598474312776
19	7.0	perception	432	diff_vonmises	-0.027223845041529363	-1.559811422997786	0.9248774647676716	288.18057747374183	0.9066268339851409	289.789356142473	0.4796172273774886	-0.5344075242540924	1.014024751631581	91.18189512497267
20	7.0	wm	432	diff_vonmises	0.24162383766793324	13.844026128126698	3.0934714266270698	0.6743258476377535	0.19682788473235044	2.673781867159399	-0.06371205282148462	-0.40206478472553947	0.33835273190405485	68.44671318861711
0	1.0	ltm	433	diff_vonmises	-0.04486844932852274	-2.5707727798209454	3.3904367506762023	0.5806974684037531	0.311291273786736	1.8159836111598113	0.02230339549323407	-0.27321982930221006	0.29552322479544413	64.4638283672964
1	1.0	perception	433	diff_vonmises	0.036347618645493206	2.082565143737779	13.474771746350276	0.7191601524856547	0.11502130094506875	2.0152173702261504	0.6843940969701228	-0.3381667111268511	1.022560808096974	36.49914343170437
2	1.0	wm	433	diff_vonmises	-0.011680964391429629	-0.6692699602715179	3.020664685636424	0.340144070449261	1.8742293469864818e-06	1.8787773742178449	-0.07537558354322219	-0.2984841838520198	0.22310860030879762	79.05968331698972
3	2.0	ltm	433	diff_vonmises	0.15305078453488724	8.769164005015169	4.903593605345493	0.31704258052914236	4.7984451362863445e-11	0.8947304154526193	0.12966656008043514	-0.14238578862798817	0.2720523487084233	61.671740525303875
4	2.0	perception	433	diff_vonmises	-0.02540948293566496	-1.4558561318232872	8.948933963937497	1.0092302624841898	0.20210855701138264	1.404862377253923	0.915444131590502	-0.23443522590631996	1.149879357496822	44.62063474201702
5	2.0	wm	433	diff_vonmises	0.07224044438099186	4.139072573180397	8.75663562193799	0.2517872478876141	0.031144459341669303	1.0896705083038227	0.11387974183881261	-0.17437456682295385	0.2882543086617665	45.48905017360309
6	3.0	ltm	433	diff_vonmises	0.22702262707958085	13.007438385632376	3.083093107904015	0.4832366604023909	0.4760764099463129	0.7184646220005682	0.14738960980739013	-0.09355373365732376	0.2409433434647139	68.96431947913976
7	3.0	perception	433	diff_vonmises	0.021220324121525837	1.2158350120630868	6.426362536933966	1.3238708159119676	0.2326483805660789	1.5342332366442704	1.0065735758090484	-0.24485281368594522	1.2514263894949935	52.37406685220415
8	3.0	wm	433	diff_vonmises	0.04523421729391976	2.591729740519282	5.730025957446204	0.4903207268957076	0.5995440578711941	1.056548686897701	0.17648717796498686	-0.1822064551934564	0.35869363315844327	50.965332321497414
9	4.0	ltm	433	diff_vonmises	-0.07752082141649216	-4.441615891552365	1.6594794517689548	174.38191379208902	1.6459278547629053	175.16556976775163	0.04071833189716756	-0.22766318327004242	0.26838151516721	62.91338646269156
10	4.0	perception	433	diff_vonmises	-0.046244126971798236	-2.649593302751135	3.4515177128050283	1.573844066171353	0.026423117847391268	2.497156107180966	0.7074739032068198	-0.3869311980073802	1.0944051012142	73.0701421094985
11	4.0	wm	433	diff_vonmises	-0.03852844399265649	-2.207517231985387	1.2462568696576652	189.96236888566165	1.2322946450111432	191.33702472672402	-0.042378389002124095	-0.3212897058787725	0.2789113168766484	69.7714867539182
12	5.0	ltm	433	diff_vonmises	0.09986563129705969	5.721879191731105	1.7482830833053833	0.9255173836376095	0.05527961857335586	1.5798999683101116	0.17447426703934094	-0.2244111463743205	0.39888541341366146	100.08829636368148
13	5.0	perception	433	diff_vonmises	0.02536574915229665	1.4533503706141437	3.239022843122855	1.4407475489071209	9.128700655417638e-18	1.9709245754940974	0.6717242931683246	-0.31216769754326545	0.9838919907115901	76.29372439891617
14	5.0	wm	433	diff_vonmises	0.017633940507378487	1.0103503672575689	0.5138181375032906	145.4930300705481	0.5017883677635036	146.28875322918196	0.13091698305603217	-0.2681152545622698	0.399032237618302	120.52238459283662
15	6.0	ltm	433	diff_vonmises	0.24379901932554476	13.96865485678211	0.7933555633165561	74.59801715216337	0.7734424655331105	75.21147613386574	0.10052029028856069	-0.17655002127511654	0.27707031156367723	96.56390480351104
16	6.0	perception	433	diff_vonmises	-0.05835653113911252	-3.343582941294914	1.8927822114385107	1.4549382633261658	5.479667177148805e-12	2.2441156822013766	0.368756221600253	-0.34068550439107453	0.7094417259913275	99.56979478026552
17	6.0	wm	433	diff_vonmises	-0.08842775320273398	-5.066537050341105	0.5897213255205989	170.41853932114404	0.5748060386413872	171.29653862846936	0.2512477583461319	-0.33864080243175465	0.5898885607778865	114.84255224662056
18	7.0	ltm	433	diff_vonmises	0.10114906098746042	5.795414296292849	1.0451899487300271	176.28505947281224	1.0310675071742372	177.1873920511583	0.15565349959010177	-0.25633910029556617	0.41199259988566794	83.50891648434381
19	7.0	perception	433	diff_vonmises	0.04070856507449911	2.3324289688024646	3.058925831507291	1.1348847662424137	6.568941407070903e-20	2.2513822130637915	0.3932184179748491	-0.35666266309136097	0.74988108106621	78.55330130135115
20	7.0	wm	433	diff_vonmises	0.38667411103055516	22.154794609023803	2.951383770332381	0.6823529226777169	0.17966063806194216	1.6869274791365243	0.12401313342618231	-0.24441245154313332	0.36842558496931566	73.19157493825338
0	1.0	ltm	434	diff_vonmises	-0.1089611686484709	-6.243015094370567	0.8415950123032245	73.08935666206982	0.7993131102639882	76.04375545496823	-0.30667373261092123	-0.5635233851933243	0.2568496525824031	77.89347393168745
1	1.0	perception	434	diff_vonmises	0.07670139107035218	4.3946659911136	15.484200945250407	0.729366803675421	0.06206836059076531	3.6376903420381907	0.5196093342486814	-0.5980210962656304	1.1176304305143119	34.12188510694838
2	1.0	wm	434	diff_vonmises	-0.05064236498336872	-2.9015937781081353	1.6359174888062828	1.562596675837233	0.34322159856453327	5.257160248945834	-0.4318767806612306	-0.677926767525647	0.24604998686441637	73.70712761893338
3	2.0	ltm	434	diff_vonmises	0.13917001535979867	7.973854514887305	2.5701310804025916	0.5271826531057242	1.2340516177728072e-12	1.9538881271691606	0.004810238357244978	-0.30912168932507766	0.31393192768232264	85.78292431587585
4	2.0	perception	434	diff_vonmises	-0.014388396358203168	-0.8243943852864454	8.062026075137254	1.2559217535048697	0.33175489235844624	2.855334382053078	0.7829802290191034	-0.4973769054003475	1.2803571344194509	45.70557930049071
5	2.0	wm	434	diff_vonmises	0.1829149949887269	10.480257222510655	7.576851367811379	0.2548920886602192	3.919531965125431e-13	2.276250890891217	-0.08737753613173682	-0.36227650885275675	0.27489897272101993	49.40991625921791
6	3.0	ltm	434	diff_vonmises	0.1694020641987026	9.706023319389882	2.3555193032439408	0.7715452277191703	0.4136854890836161	1.5439614457064443	0.08277708465788847	-0.19390558121222412	0.2766826658701126	74.37942969959977
7	3.0	perception	434	diff_vonmises	0.04018071677648039	2.3021854891028286	5.46285109618776	1.794917513279212	0.3355010085121706	2.6310731239573704	1.061713908019751	-0.4157191567668994	1.4774330647866505	55.46737946547273
8	3.0	wm	434	diff_vonmises	0.01481227690777993	0.8486809517948797	5.604858667502054	0.3094536512513911	0.2501341703049765	1.7209200971658491	-0.06119964864142624	-0.28872375499506203	0.2275241063536358	51.68271044945382
9	4.0	ltm	434	diff_vonmises	0.09730868771502302	5.575377116027341	1.0298525442393158	225.97815968993416	1.0174098310566488	227.91162652204338	-0.13629429677834537	-0.4051946279714542	0.26890033119310885	73.88369804888686
10	4.0	perception	434	diff_vonmises	-0.0044181508159380585	-0.25314139500553173	2.863099845802123	2.120300326683437	0.29156661561270225	3.7871105775505853	0.5621424554361192	-0.5151971289077258	1.0773395843438451	73.15969128207092
11	4.0	wm	434	diff_vonmises	0.23817877907967902	13.646638810844435	8.825471904561024	0.19836422222215386	4.7760367200799367e-45	2.487922658961614	-0.16442897101919132	-0.3959651842030683	0.231536213183877	45.72843272403338
12	5.0	ltm	434	diff_vonmises	0.07276730935046533	4.169259712304515	0.7707359401884913	105.68823090245995	0.7420654116714596	107.631488721831	0.009947939940371242	-0.43555981703351065	0.4455077569738819	92.52752146338892
13	5.0	perception	434	diff_vonmises	0.05249361966230264	3.007662858014895	2.617983364995256	2.1433814283012915	0.11775831658622105	4.1740110155734085	0.5530371979085642	-0.598713657957616	1.1517508558661802	80.17596450229581
14	5.0	wm	434	diff_vonmises	-0.09740032157199024	-5.580627349292069	0.3747112367802801	193.1779442147053	0.36333967285307556	195.7880652861344	-0.17801243615092943	-0.5556645717028452	0.3776521355519158	126.750793956805
15	6.0	ltm	434	diff_vonmises	-0.4579767373098953	-26.240134163028582	0.00036221703225348766	3035.432299158379	5.885634918504633e-27	3037.8725068839617	-0.21336829808723223	-0.5633422545109852	0.34997395642375295	174.07463686959613
16	6.0	perception	434	diff_vonmises	-0.07210197814096235	-4.13113904202166	1.337465015959625	1.7638053551391335	4.210034638850127e-18	4.328001994996435	0.024198170445087985	-0.6396871078373267	0.6638852782824147	115.75504629525688
17	6.0	wm	434	diff_vonmises	-0.15255487985337482	-8.740750759723728	0.3312113514405112	149.96122492289982	0.31346990347978576	152.6008348536174	-0.08195097201413404	-0.6461592971582597	0.5642083251441257	136.9770059454259
18	7.0	ltm	434	diff_vonmises	0.15979695713930117	9.155691223114866	0.9220688505285316	261.4888799721647	0.9089470119412552	263.5941195165543	-0.030014465376396515	-0.46201116709829293	0.4319967017218964	82.56841007416287
19	7.0	perception	434	diff_vonmises	0.03821893023883941	2.1897834001904175	2.6307297270820107	1.273815344029906	1.072434033900776e-18	3.2731437679608737	0.2525166016743301	-0.5169244273942722	0.7694410290686023	84.79678968946556
20	7.0	wm	434	diff_vonmises	0.3280701370714698	18.79703423847363	1.105249797245507	298.3172816506257	1.0917166321921765	300.68589624261574	-0.09430669647539958	-0.5249542562264509	0.4306475597510513	73.62449226322374
0	1.0	ltm	435	diff_vonmises	-0.19175613716384476	-10.98681735522002	0.9166706382836796	226.65315464138334	0.9002546141677817	230.02061268976234	-0.37857148862805445	-0.6532588655256362	0.2746873768975817	72.86090232183747
1	1.0	perception	435	diff_vonmises	0.06604512927242791	3.7841071647060485	8.72232508545744	0.9233048760859286	8.402493584749539e-16	3.587990601769986	0.5002529536900415	-0.5710464116042121	1.0712993652942537	45.99727357176954
2	1.0	wm	435	diff_vonmises	-0.0155464203682804	-0.8907442736386858	7.171808421462453	0.2889582607880626	0.032975416913098285	3.6455363241786616	-0.2965545971233156	-0.583922500573275	0.2873679034499594	49.336115646182094
3	2.0	ltm	435	diff_vonmises	0.20344163767575493	11.656347216050436	3.5593820975761146	0.47747119890703477	1.4975692870794292e-17	2.625800043536194	-0.07365591634702323	-0.4176302560227413	0.34397433967571805	72.68581795305957
4	2.0	perception	435	diff_vonmises	-0.011063348225619118	-0.6338831606115235	8.31250589661972	1.3480176627138312	0.16123198459944932	3.3831651866243333	0.8969414269513877	-0.5602046573534821	1.4571460843048698	45.95966267769285
5	2.0	wm	435	diff_vonmises	0.07086305898489595	4.0601542032211455	3.88918684139364	0.5199230264715577	0.07424338418942768	2.7304557470582047	-0.07376192641317181	-0.4259132878440656	0.3521513614308938	65.51425255861639
6	3.0	ltm	435	diff_vonmises	0.24895968392712384	14.264339157935153	6.102448063234597	0.33751609647618364	0.14051275983281072	1.2134767103382083	0.10400783244394174	-0.19591663235400203	0.29992446479794377	52.82493512670172
7	3.0	perception	435	diff_vonmises	0.07224903335414119	4.139564685092204	5.767616241053052	1.8285338747030775	0.11424964048592821	2.484486310452427	1.2684125550432317	-0.38928829901421824	1.6577008540574498	55.764639962797276
8	3.0	wm	435	diff_vonmises	-0.2034872100262886	-11.658958319398506	10.334820860914864	0.266393488045671	0.049714122476769484	1.366737809406226	0.10879361137158752	-0.22116278708575124	0.32995639845733876	41.68627610598375
9	4.0	ltm	435	diff_vonmises	0.22740903653418573	13.029578016545189	0.19044988166635346	81.78585891934041	0.17814477491642636	83.67287851844266	-0.1826242901968751	-0.39354749991304416	0.21092320971616907	153.04798864553862
10	4.0	perception	435	diff_vonmises	0.0023968400327980355	0.13732881804732525	3.1572313405470207	2.182751146746144	0.20882550690617036	4.640099465385008	0.5715020910529675	-0.6697847392843267	1.2412868303372941	71.13313460438343
11	4.0	wm	435	diff_vonmises	0.5531085009154695	31.69078271526423	0.7834796860056014	118.55254493725937	0.7667858129275309	120.66549159215994	-0.25025309988959776	-0.3920258310675315	0.14177273117793376	77.05814328655822
12	5.0	ltm	435	diff_vonmises	0.39542412604793975	22.656133540196027	0.7407385949632614	137.1803192851182	0.7217185355598613	138.81432613330492	0.02612235554069997	-0.3741217065542326	0.4002440620949326	94.83443694993517
13	5.0	perception	435	diff_vonmises	0.07175535949563207	4.111279256543693	2.978223885927327	2.1822227998301997	2.4425058973336567e-18	3.821082041598557	0.8151846010969999	-0.6044589235379272	1.419643524634927	79.62769449389953
14	5.0	wm	435	diff_vonmises	0.09927680175226253	5.688141743961618	0.968235758701495	2.0044280794723215	0.06415627654437221	4.015974870878877	-0.007947064261761727	-0.5017901246947732	0.4938430604330115	123.71209629097385
15	6.0	ltm	435	diff_vonmises	-0.5014408827403187	-28.73044625633467	0.0001575972477284583	5912.925035710008	4.292683339397049e-30	5914.435551721333	-0.09209164982519269	-0.3887088436929389	0.2966171938677462	172.93438240406942
16	6.0	perception	435	diff_vonmises	-0.19665906724352328	-11.26773455603334	1.2809989522452325	1.8084101890175335	2.010929176918011e-15	3.1560477942154015	0.21021321219469913	-0.44732830971286974	0.6575415219075689	117.56416549973872
17	6.0	wm	435	diff_vonmises	-0.315481133331772	-18.075737455914535	0.16764746160005048	135.15314559208178	0.15642296417540263	136.9041222984922	-0.06459824337147069	-0.45732813108772774	0.39272988771625705	157.74572723063244
18	7.0	ltm	435	diff_vonmises	1.2156058558427492	69.6490850911779	0.0001676288070571259	5716.814439254813	1.7852771126929723e-27	5718.163234757271	-0.06214531604575768	-0.36717684452844424	0.30503152848268655	140.93303121808566
19	7.0	perception	435	diff_vonmises	0.004845430779412547	0.27762273358312395	0.8145668894207672	219.13497965896607	0.7962545663582314	220.27872881167738	0.419813410006995	-0.4249290821981262	0.8447424922051212	98.1995217167478
20	7.0	wm	435	diff_vonmises	-0.04807257834183871	-2.754355849299367	2.141401756944239	0.4493447795593446	0.08766867477520712	2.1500375137977823	-0.1312805299842107	-0.31780042781007667	0.18651989782586598	83.59881277252643
0	1.0	ltm	436	diff_vonmises	-0.08326900688242342	-4.770962658608667	1.3736243643192643	52.40424338935317	1.296869771164564	53.88638012356844	0.1383127042260348	-0.40565179242182214	0.543964496647857	71.48883453762463
1	1.0	perception	436	diff_vonmises	0.014030015273899058	0.8038606616984977	15.085793209258924	0.6629087080368606	0.07071948578048308	2.2613753559926724	0.6325151383490498	-0.37270619357295737	1.0052213319220071	34.61357243806705
2	1.0	wm	436	diff_vonmises	0.09000865357604908	5.1571159695627165	2.231407172274267	0.6358557760760988	0.06415964595120595	2.3239417357363332	-0.04363016749448817	-0.3456779976360563	0.3020478301415681	85.91493982954458
3	2.0	ltm	436	diff_vonmises	0.005798581048522209	0.33223422124486623	4.494331348903957	0.46532572410956025	0.07812103403715293	1.0143982631587871	0.20677116971701276	-0.1572303549959743	0.3640015247129871	62.86252896462403
4	2.0	perception	436	diff_vonmises	-0.05446034176666587	-3.120347734069996	8.092638182007576	0.9819327258737248	0.09062903523315712	1.316809769774257	0.8670838490190143	-0.21140914509738132	1.0784929941163957	47.328346976533425
5	2.0	wm	436	diff_vonmises	-0.021220544889114932	-1.215847661114195	5.300037006683954	0.42320265901083487	0.1531354315010144	1.2041844910570914	0.15644765547879474	-0.19100919629824567	0.34745685177704044	56.63619001841522
6	3.0	ltm	436	diff_vonmises	0.033537160434158095	1.9215377497303905	1.8058530941829283	0.8312234183893414	0.36371347526685044	1.1094220656719709	0.15723136595919282	-0.11568627241222228	0.2729176383714151	88.0279736813294
7	3.0	perception	436	diff_vonmises	0.03615504372129219	2.0715314133410088	5.743868840279687	1.3305720105178183	0.15276156565320156	1.4610431308901601	0.9724710499873684	-0.22772348481821975	1.2001945348055882	55.79979388900017
8	3.0	wm	436	diff_vonmises	0.014002355524100278	0.8022758747726398	2.85443007129747	1.1153558308630065	0.7692482480159054	1.586367278018149	0.23761911037683064	-0.1830397889861197	0.4206588993629503	66.76082459537042
9	4.0	ltm	436	diff_vonmises	-0.19588785086914062	-11.223547112689833	1.5100203548152598	142.70103502192634	1.4952079306904835	143.38161114195495	0.07533851357450061	-0.19884745892482059	0.2741859724993212	67.51615098627087
10	4.0	perception	436	diff_vonmises	-0.06875335443270778	-3.9392770363612257	2.6725111881109602	2.1474386404894075	0.13980377963950422	2.900154037847529	0.7876939430372075	-0.4044721731604826	1.1921661161976902	80.13238373710814
11	4.0	wm	436	diff_vonmises	0.004144851540595039	0.23748249998439294	1.2109426173288411	202.9706091953127	1.1964102960702623	204.30268526730532	0.04039759224932027	-0.32897471516142573	0.369372307410746	73.56388892151779
12	5.0	ltm	436	diff_vonmises	0.08758850168335729	5.018451480330879	1.664277663301903	0.9721894822478114	1.324666773850681e-15	1.611845433841713	0.19202452849519275	-0.24045468136285553	0.4324792098580483	105.56311808728404
13	5.0	perception	436	diff_vonmises	0.03296810431521782	1.8889332358090183	2.4877319203221187	1.7924740326934976	1.2828541156070474e-15	2.1872615415707437	0.7052466067727996	-0.34083963468574113	1.0460862414585408	87.20676750941979
14	5.0	wm	436	diff_vonmises	0.013413183451434118	0.7685188016018938	0.5628773652297197	176.48597464725185	0.5513572944184224	177.13901620441428	0.21558570817771283	-0.2734408774242336	0.48902658560194645	117.77973554757712
15	6.0	ltm	436	diff_vonmises	0.5255563845517041	30.11216273096714	1.0545433081282471	113.13950330988156	1.039891162628016	113.70681751197178	0.11406861319301953	-0.16675304782996392	0.28082166102298345	83.64682233238145
16	6.0	perception	436	diff_vonmises	-0.0747358590241091	-4.282049300366159	1.3451915602065005	2.6196059146467765	0.15239228238002522	3.164393558287986	0.4794754576676592	-0.3578363528884535	0.8373118105561127	108.352678155154
17	6.0	wm	436	diff_vonmises	-0.11830086732852511	-6.778140410661579	0.6519416476705238	65.7183166498269	0.6098525736940511	66.46116068679694	0.3262853993025949	-0.33516189379014083	0.6614472930927358	111.88599923259493
18	7.0	ltm	436	diff_vonmises	0.039106608547508165	2.2406436208424485	1.369254126134959	99.02701188967777	1.3407361503432123	99.82352116215466	0.1858501982098275	-0.2521890967041287	0.4380392949139562	73.4473347671993
19	7.0	perception	436	diff_vonmises	0.06099731539342397	3.494888733671562	3.4699127073934415	1.117550966466906	4.700074035109343e-12	2.0058583831729653	0.47513118552472755	-0.3184727756765711	0.7936039612012986	73.64992218104715
20	7.0	wm	436	diff_vonmises	0.3402352718463802	19.494045118283825	2.1306862453431	1.0253871303739104	0.23551535590101474	1.9292334556058957	0.1662555607349706	-0.24791242537019476	0.41416798610516536	83.4235429717373
0	1.0	ltm	437	diff_vonmises	0.0958283183598123	5.490558199853265	3.1229445549915225	0.5531497620129493	0.25139822425335956	2.4912419662284693	-0.13124518146478287	-0.3800636452697043	0.24881846380492145	65.16373055611797
1	1.0	perception	437	diff_vonmises	0.07204610638781118	4.127937826372102	8.477113419923324	0.9686339587844465	0.20176645146735608	2.8964391715262368	0.5491591538032525	-0.48933364925120826	1.038492803054461	45.0758767797181
2	1.0	wm	437	diff_vonmises	0.07197634249736037	4.123940649886857	3.1657857537692045	0.422530989553382	0.08474446623170606	2.656638223492037	-0.1740696619956118	-0.410047626672694	0.2359779646770822	70.2583511120686
3	2.0	ltm	437	diff_vonmises	0.16596627520899587	9.509167110982169	3.9459386219963375	0.5749384063427226	0.3523172591049796	1.4990627486984442	0.1096515950604176	-0.22990027138548436	0.33955186644590196	61.224711474247954
4	2.0	perception	437	diff_vonmises	-0.018368195945983868	-1.0524201049741844	9.055111447349818	1.1000766237250572	0.1292030531159526	1.8644928823984404	0.9651177575131807	-0.3056452866844259	1.2707630441976066	44.52030806371948
5	2.0	wm	437	diff_vonmises	0.09710095140668326	5.563474702307845	7.590639909592553	0.31763403577581356	0.044759199000848994	1.5571296266997525	0.08386583254329921	-0.24937369000797635	0.33323952255127554	48.56166930797815
6	3.0	ltm	437	diff_vonmises	0.2690074108798989	15.41298930115983	4.722865288224624	0.35342556673939557	0.22026442800196033	0.7435575698226498	0.15150559002381	-0.11548581806703545	0.26699140809084543	59.48606878485472
7	3.0	perception	437	diff_vonmises	0.029734736354283448	1.7036748980346577	7.244896681849114	1.2817156830006542	0.008134107609530929	1.7303142044756963	1.0730939867076807	-0.27472272151724525	1.347816708224926	50.472790212601154
8	3.0	wm	437	diff_vonmises	0.024550852842020042	1.4066602512945108	7.104047650633906	0.3998422449673099	0.35044115619505745	1.1870625418077987	0.1568847184529895	-0.20644995567969346	0.36333467413268294	47.645853668621214
9	4.0	ltm	437	diff_vonmises	0.10231708433481881	5.862337104469228	1.1454703953806975	134.06693836149992	1.130585177667721	135.23336966841188	-0.0553613957369663	-0.25945402771040804	0.20409263197344174	71.82295661141242
10	4.0	perception	437	diff_vonmises	-0.04448369494578422	-2.5487279775408673	3.878427815223138	1.5913903298306278	1.813766021320106e-18	3.1795677292304236	0.6968799369068948	-0.5055291867962147	1.2024091237031094	69.56017823623415
11	4.0	wm	437	diff_vonmises	-0.05750677369217133	-3.2948954259753718	1.1414299406395063	195.65905680967495	1.126412495296604	197.50015449799446	-0.12508979144095633	-0.40053192524477055	0.2754421338038142	70.46931845659859
12	5.0	ltm	437	diff_vonmises	0.09160748390272078	5.248722199438528	1.8893762888777	0.8263746282407111	9.024680881019661e-16	1.7058310981709566	0.14037126404093692	-0.2620795677383697	0.40245083177930663	99.6377022904415
13	5.0	perception	437	diff_vonmises	0.002339534140750636	0.13404543229177693	2.9684277584420267	1.6810094137299172	1.7315605503636467e-19	2.2966850256583147	0.7288264113458653	-0.3626392807674279	1.0914656921132933	79.76292211666066
14	5.0	wm	437	diff_vonmises	0.08856323208457757	5.0742994184838945	0.594949039433523	148.19355049460356	0.5799739181423786	149.2299196416824	0.14821208942151287	-0.3163642354457803	0.46457632486729317	111.67884911710505
15	6.0	ltm	437	diff_vonmises	0.3207198916221964	18.375896195845023	0.7175122091582282	132.29117743339322	0.7039921396891794	132.96865213632472	0.147750336519465	-0.21684283278065664	0.36459316930012164	102.67829565598689
16	6.0	perception	437	diff_vonmises	-0.025470895334531483	-1.459374803088113	1.6220824919616252	1.6927254993605356	2.726848721992206e-19	2.3808558367156505	0.3899278421991891	-0.34893572944804185	0.7388635716472309	106.79744772184553
17	6.0	wm	437	diff_vonmises	0.05457088715732355	3.1266815183993057	0.5823025456488159	205.1996847457151	0.5700706002140512	206.14495559626923	0.22821688390616401	-0.3428287116840849	0.5710455955902489	114.81070693432933
18	7.0	ltm	437	diff_vonmises	0.12895404221067622	7.388522369823615	0.934872874947428	196.1579322014889	0.9208097850067937	197.52561914087647	0.07778695891346388	-0.33250626992601795	0.4102932288394818	85.39623733794724
19	7.0	perception	437	diff_vonmises	0.0511088739062282	2.9283227704931774	2.569001642261092	1.4228137514088455	0.0028818327152413496	2.802713122144677	0.4046895131179751	-0.4397800981050105	0.8444696112229856	85.66855600574192
20	7.0	wm	437	diff_vonmises	0.3531705916291941	20.235184348491142	3.1898759733973088	0.5900481333669523	0.0896925737156654	1.978712403715394	0.0563521304582657	-0.2999958283547586	0.3563479588130243	72.43316187615858
0	1.0	ltm	438	diff_vonmises	0.16218870763308627	9.292728432057082	0.6774024054237417	136.1533639709837	0.6564073416718414	139.08699563607283	-0.2665479808592792	-0.5532178527517075	0.2866698718924283	88.72247826870444
1	1.0	perception	438	diff_vonmises	0.07189530380632866	4.119297474913475	8.264706786784325	0.798682279013202	0.021070891148990172	3.4556389444772218	0.3396514109588671	-0.5510456232728145	0.8906970342316816	46.94006512748297
2	1.0	wm	438	diff_vonmises	0.04114674851157377	2.357535030399379	6.2742789203684035	0.33023530658611483	0.027320616398468174	3.3476727408483797	-0.2246338411570789	-0.5334934148791655	0.30885957372208656	53.04667192934767
3	2.0	ltm	438	diff_vonmises	0.07523907310809665	4.310881343570187	2.984860619514106	0.7793085216040897	0.15951547677449873	2.5357029355961225	0.038555238053557206	-0.37568964363838997	0.4142448816919472	72.03062386370252
4	2.0	perception	438	diff_vonmises	-0.018576317613507566	-1.0643445981485171	7.644284017815582	1.24795830728363	0.11973072360703108	3.1454254617420303	0.7902052260455528	-0.5108511333134601	1.3010563593590128	48.121607968611016
5	2.0	wm	438	diff_vonmises	0.09284886290794138	5.319847977213817	5.142270210565496	0.4495654287606891	0.04791932187285213	2.492091951474626	-0.020188419524049317	-0.39444089088095186	0.37425247135690254	58.365869123244636
6	3.0	ltm	438	diff_vonmises	0.2276818167026863	13.04520716893514	4.004629627699189	0.5820019322505867	0.14460898223651833	1.616485082930623	0.1520068674725676	-0.24783945096328402	0.3998463184358516	64.5227697461446
7	3.0	perception	438	diff_vonmises	0.047958233707426065	2.7478043843375564	5.380047497135507	1.8580956504857573	0.08125823745570399	2.939462303646077	1.1685079584384241	-0.45936835864914904	1.6278763170875732	57.86168654867555
8	3.0	wm	438	diff_vonmises	-0.04668728671218786	-2.6749844855255738	4.616582002826055	0.43003339100640703	0.07246616027854749	1.9202784267828352	0.029128192721695367	-0.3018929282719724	0.33102112099366776	61.036454484305494
9	4.0	ltm	438	diff_vonmises	0.3850777349034077	22.06332899442281	0.45798607360090265	196.12047284343558	0.4478411832954207	198.25002628064556	-0.1358620861976263	-0.44002322863908816	0.30416114244146186	114.54785723710862
10	4.0	perception	438	diff_vonmises	-0.03143162422198515	-1.800899411160919	3.0865844275412933	2.1150042772626834	0.12124414296611695	4.658622170113561	0.5738619645576211	-0.6869983203567182	1.2608602849143393	73.90912754405511
11	4.0	wm	438	diff_vonmises	0.1221093522225287	6.996350521427313	0.6164732932938831	133.68673732105214	0.5995270349119366	136.2693291671359	-0.2564754302670025	-0.4771093889856921	0.22063395871868963	91.35801465211017
12	5.0	ltm	438	diff_vonmises	0.1855530350880337	10.631405786387207	1.4390033460315257	2.0282382863063417	0.32241831503356366	3.5263238384455438	0.1017284867756566	-0.3667241381955058	0.4684526249711624	92.11151374698522
13	5.0	perception	438	diff_vonmises	0.018107127148750953	1.0374619647301817	2.5239368261722253	2.2192423739426324	3.38738334227657e-18	3.6327882296974456	0.7370962773029918	-0.5697282307179511	1.3068245080209429	86.57929117984898
14	5.0	wm	438	diff_vonmises	0.012175127567207128	0.69758342463435	0.5240816044792647	173.59066642861788	0.509474109172404	175.36868526271567	0.03326648903238549	-0.4412934250114766	0.4745599140438621	114.38580652610968
15	6.0	ltm	438	diff_vonmises	0.06790856217254512	3.890874005288588	0.28968009020208507	62.31298224177426	0.2658291508653862	63.6363604327307	-0.005776776507458337	-0.3585865068114771	0.35280973030401874	144.42556801847334
16	6.0	perception	438	diff_vonmises	-0.12777026118489354	-7.3206967131786005	1.4476694384842457	1.7739953413177445	1.1358223373875208e-13	3.070771964889645	0.2633379168217763	-0.447152201016021	0.7104901178377974	112.05904624173289
17	6.0	wm	438	diff_vonmises	-0.01931189846073379	-1.106490276185237	0.44072650355442133	183.30152263816692	0.42938022243482654	184.90809411626842	0.008999439675378085	-0.4069227737200194	0.4159222133953975	123.84884655814156
18	7.0	ltm	438	diff_vonmises	0.11310271084783229	6.480307983069303	0.9016894197083559	127.04849580481527	0.8767799792076213	129.01222899207352	-0.02204958813089064	-0.4312420946639186	0.40919250653302797	84.02826821080035
19	7.0	perception	438	diff_vonmises	0.013378930466557906	0.7665562501327614	0.840806633525534	314.32147488673974	0.8247589191911208	315.9818682472294	0.4508562608616131	-0.5448660220966062	0.9957222829582193	95.4105158602209
20	7.0	wm	438	diff_vonmises	0.11893099049739891	6.814243808811457	3.804865861102197	0.5039676071985989	0.06467886510776526	2.753640975088906	-0.09004755706409712	-0.4294614798421394	0.3394139227780423	66.45762771331175
0	1.0	ltm	439	diff_vonmises	-0.19761302583860132	-11.322392357361542	1.0641511802648669	159.52939958833605	1.0454284313887572	161.39268585174375	-0.09063574379870687	-0.40375758982053966	0.3131218460218328	74.54333117208577
1	1.0	perception	439	diff_vonmises	0.03535083831543424	2.0254538377237425	13.091271071666636	0.7315724018835185	3.0091895758288715e-18	2.4424422386422813	0.6568072184481831	-0.3887267554919032	1.0455339739400864	37.46041453197827
2	1.0	wm	439	diff_vonmises	-0.06706981567579078	-3.8428173709431808	4.371927922978805	0.28688982316378925	4.0374975580068283e-14	2.4338757218402813	-0.1558800407598617	-0.3873264435671589	0.2314464028072972	65.4073589256518
3	2.0	ltm	439	diff_vonmises	0.31489985036612067	18.042432395279867	1.418312402929495	0.6734231764437976	2.967185707809309e-60	1.8215559820762162	-0.00791852808007798	-0.2733784053514339	0.2654598772713559	112.63587445322375
4	2.0	perception	439	diff_vonmises	-0.020124966855623417	-1.153075663667889	8.578312528344677	1.1361830954261838	0.22445647770802085	2.117947009170288	0.890410955241182	-0.3567723780202378	1.2471833332614197	45.2079405811653
5	2.0	wm	439	diff_vonmises	0.054586109745375505	3.127553708447949	5.842801972131635	0.298194190071383	0.022129495312949894	1.627853287080624	0.015969162383324853	-0.2582506409323539	0.27421980331567875	55.614199822393545
6	3.0	ltm	439	diff_vonmises	0.2041579153493953	11.697386903709479	3.831463554175534	0.39813176426845537	0.2969592073084275	0.8735398028476515	0.11592106055705925	-0.1307044399957421	0.24662550055280136	63.80162409702504
7	3.0	perception	439	diff_vonmises	0.0420426664810126	2.4088673488381542	5.666667796199832	1.653960642352521	0.32010436238827267	1.9327594482987762	1.1194190234416148	-0.30331431902291495	1.4227333424645296	55.087020133857436
8	3.0	wm	439	diff_vonmises	-0.08041451074648603	-4.607412077383053	5.41455220126512	0.39819264469494936	0.354674996192388	1.1444718171706183	0.10845644558902978	-0.18948891313617527	0.29794535872520506	53.493756617770316
9	4.0	ltm	439	diff_vonmises	-0.1119391109893267	-6.413638622134913	1.1617042790578425	163.94941429261246	1.1492800934184932	165.03165379488254	-0.021498352833532408	-0.24934976599303127	0.22785141315949886	72.90545626517263
10	4.0	perception	439	diff_vonmises	-0.01789876198082373	-1.0255235200104171	2.7991747185186235	2.1666019314719382	0.2839672543436194	3.426484243453873	0.6537222986009948	-0.45774750512867535	1.1114698037296702	74.732086186646
11	4.0	wm	439	diff_vonmises	0.07232060480854928	4.143665427363401	0.9590814316846167	124.72308675903811	0.9433341300507441	126.19505768980578	-0.11422039586653909	-0.2997168579274607	0.18549646206092163	75.8897766582852
12	5.0	ltm	439	diff_vonmises	0.29908074690038744	17.13606453101258	0.7790763225377904	134.86993773827763	0.7628080579286327	135.93483346922088	0.1031897655879419	-0.27757891594928097	0.3807686815372229	95.58532953143308
13	5.0	perception	439	diff_vonmises	0.06862576839213116	3.931966894711401	3.318810563514907	1.6534625476422529	5.194892770180027e-19	2.7142206366083967	0.7145932215786199	-0.43047945012621014	1.14507267170483	75.34254951354305
14	5.0	wm	439	diff_vonmises	0.0019155456133762895	0.10975267911125992	0.3626246730550839	135.40604992369362	0.34966490735491546	136.76494459861553	0.021040118668313568	-0.37067906272857876	0.3917191813968923	134.6430564359625
15	6.0	ltm	439	diff_vonmises	-0.5639985978211071	-32.314739306445745	0.0002053569928860545	3481.119605572184	2.5389322060370273e-31	3482.27206959409	-0.06964076913266126	-0.2971882409240152	0.22754747179135393	171.10800869393262
16	6.0	perception	439	diff_vonmises	-0.16328339942139805	-9.355449651394977	1.7277369033513676	1.4235519082379917	9.832041399428498e-15	2.6738667711436888	0.2463669622123053	-0.4043434234940642	0.6507103857063695	103.77881240861143
17	6.0	wm	439	diff_vonmises	-0.32955192406543815	-18.881934379365394	0.3565509662370123	111.75591477171973	0.33800077447564436	113.18881977337269	0.06481935609956935	-0.42307386513979495	0.4878932212393643	135.7997240666313
18	7.0	ltm	439	diff_vonmises	0.20758091300770873	11.893510222814001	1.0221845434705543	141.7667597720162	1.00682898730764	142.69818306158948	0.09180059895960824	-0.24103285929653673	0.33283345825614497	82.78972354027627
19	7.0	perception	439	diff_vonmises	0.016013384390182007	0.9174993412781025	2.5059234613644334	1.2495959002456987	3.69843100598829e-20	2.248643689547992	0.3796033780777768	-0.35297211214141244	0.7325754902191892	86.89068849948262
20	7.0	wm	439	diff_vonmises	0.26312624537226603	15.076023338954553	1.7527881925824345	0.9873960364365741	0.3448880925404547	2.181820486656603	-0.005819861363661527	-0.25750793015108786	0.25168806878742633	82.0687439219563
0	1.0	ltm	440	diff_vonmises	0.045499328440017514	2.6069194902925594	1.1462816206660684	242.57594453958518	1.129233363380407	244.7733714149487	-0.03368823948373745	-0.5062787750303599	0.47259053554662245	73.7253170544194
1	1.0	perception	440	diff_vonmises	0.07915894792670172	4.535473626895867	8.058734576364941	0.8047106195030469	0.08691838801053658	2.9692357401753404	0.3815689909884892	-0.48150929356697736	0.8630782845554665	46.88662098879277
2	1.0	wm	440	diff_vonmises	0.16284462002966418	9.33030944411131	4.807393466327505	0.36828268141770415	0.0002941794887583787	2.5199368894517167	-0.08848158234088704	-0.4009218720672206	0.31244028972633353	62.27370672941308
3	2.0	ltm	440	diff_vonmises	-0.011171885996714273	-0.640101916813033	2.7567398557120217	1.2917605035058806	0.6405339070867125	2.19182580750561	0.20701995931560713	-0.2701625236989943	0.4771824830146014	67.58073414506325
4	2.0	perception	440	diff_vonmises	-0.03820676321284757	-2.189086280951859	7.6024424727816315	1.080241855440021	2.878887494929954e-21	1.8715273484974515	0.8694732900907373	-0.2978625376843913	1.1673358277751285	49.317568927114536
5	2.0	wm	440	diff_vonmises	0.035996795933626646	2.0624644829904906	5.597933843984719	0.4493919370550697	0.14779286348464682	1.5853760071678633	0.12283682794393097	-0.254210580641478	0.37704740858540897	54.87725134303872
6	3.0	ltm	440	diff_vonmises	0.16316445721655642	9.348634765051571	3.2657011992920673	0.5943176928679641	0.2014107873184536	1.061998850953903	0.20372906593121876	-0.15280165573107043	0.35653072166228916	70.99174247179107
7	3.0	perception	440	diff_vonmises	0.049459814159023056	2.833838606813412	5.70663337799543	1.4410148295922625	3.8762217294223915e-19	1.8679824115857981	1.0429528087709767	-0.2972838266871061	1.3402366354580828	57.07128407221592
8	3.0	wm	440	diff_vonmises	0.02370933620093968	1.3584448993705807	3.276720402319096	0.7468030353904237	0.34386826786864355	1.46348736933862	0.19512563607159616	-0.20727807858700498	0.40240371465860114	67.7437104245353
9	4.0	ltm	440	diff_vonmises	0.27794009168330164	15.924794210932337	0.5827714763240471	111.73271285366945	0.5710957423909458	112.81624348153316	-0.035493510926933425	-0.23178376231515863	0.1962902513882252	103.83847278052153
10	4.0	perception	440	diff_vonmises	-0.09095235242137716	-5.211185930531385	3.2403397271036134	1.9698189640335106	1.4191901368879556e-18	3.504871402489881	0.7898654544069035	-0.555751831011008	1.3456172854179114	76.27143792470403
11	4.0	wm	440	diff_vonmises	-0.022760090397729756	-1.3040571211261462	1.1112311680078448	245.5399344773591	1.0978903889856297	247.29825334080851	-0.02030464244954544	-0.4032128574140046	0.38290821496445915	75.0559115939916
12	5.0	ltm	440	diff_vonmises	0.06627601703885007	3.7973360592632406	1.8549033715445358	0.9549008478168413	5.067735389305692e-16	1.8155184639376698	0.18168159937024975	-0.2774263788687822	0.45910797823903193	100.50229804350775
13	5.0	perception	440	diff_vonmises	-0.016934653093160616	-0.9702841497562682	2.369841792470516	2.146699331743158	6.345504326135111e-18	2.5659307780529224	0.8175168865161345	-0.39766448583123637	1.215181372347371	89.33934171370151
14	5.0	wm	440	diff_vonmises	0.04525024395518741	2.592648000569604	0.6410249571351156	171.32954165961513	0.6280055444557019	172.10589109123336	0.21316572692716562	-0.28237526879958885	0.4955409957267545	109.79405859937681
15	6.0	ltm	440	diff_vonmises	0.4704727150820237	26.95610095026083	0.8600446574593099	127.33119193506111	0.8461850248846662	127.90788573808611	0.15652276418041566	-0.18815160494434657	0.34467436912476224	94.22616673973053
16	6.0	perception	440	diff_vonmises	-0.11222220697324894	-6.4298588272107615	1.2539861726729657	2.6567278716815244	0.08816803948183592	3.0094789873680527	0.5115076130960186	-0.3535252027413957	0.8650328158374143	114.63729576575429
17	6.0	wm	440	diff_vonmises	-0.011372649753331646	-0.6516048327464	0.7224857743914476	169.14640945678883	0.7074373031764545	169.8508822724671	0.2839700504123215	-0.28595750172879875	0.5699275521411202	104.70214023826202
18	7.0	ltm	440	diff_vonmises	0.018530251076207694	1.0617051799844524	1.6944571780549207	2.6402947405863406	0.6961439637936868	3.9202749983732117	0.11894016465842405	-0.32842591101562396	0.447366075674048	77.10709702365571
19	7.0	perception	440	diff_vonmises	0.009409489008582716	0.5391240075665269	1.13181579169126	114.11058873071416	1.084022209465048	115.27450698552875	0.603837970567703	-0.47028141045407956	1.0741193810217826	84.45229642793521
20	7.0	wm	440	diff_vonmises	0.32155898617466905	18.423972772314126	3.8691839929019776	0.6300352901798966	3.0049484290430127e-20	1.928173560512523	0.16874638673925507	-0.30667104058360894	0.475417427322864	69.63938705554992
0	1.0	ltm	441	diff_vonmises	-0.1476689807526035	-8.460809362122768	0.9320545090325412	259.5344358322557	0.9165924206803124	262.82124150358595	-0.3078293953206952	-0.6524699339116466	0.34464053859095145	75.05697863511799
1	1.0	perception	441	diff_vonmises	0.0707581371113089	4.054142622686003	11.340034451996061	0.7730640743029694	3.5529775033389375e-19	3.5667016436491945	0.45896150150430304	-0.5676581969756846	1.0266196984799878	40.27534585385769
2	1.0	wm	441	diff_vonmises	0.011284094105705696	0.6465309678853854	5.186200934063801	0.3838741277116327	0.0921419501910148	3.858300397247571	-0.33253036346827136	-0.6211936316754031	0.28866326820713173	55.22074699643133
3	2.0	ltm	441	diff_vonmises	0.08736050071975973	5.005387987391823	2.5982636983597276	0.6206263235919757	2.837806540239051e-13	2.5239708135322987	-0.027575901583746787	-0.39963135850293907	0.3720554569191923	85.32362231318578
4	2.0	perception	441	diff_vonmises	-0.016492924062628606	-0.9449749406183786	7.722566847592562	1.31487819966998	0.22344632460685604	3.250971274302947	0.7935983698348299	-0.5450369584976439	1.3386353283324737	47.17980718397959
5	2.0	wm	441	diff_vonmises	0.08258678197812355	4.731874050913568	4.576617977426093	0.4087777754768004	0.05097632201219943	2.556727873916098	-0.0898651360324052	-0.4033195216088591	0.3134543855764539	61.32572348555263
6	3.0	ltm	441	diff_vonmises	0.1646657094397548	9.43465018142547	3.6071153059199004	0.5189434426994302	0.22645605631937388	1.4380396841852157	0.09352045635860395	-0.21647258587130913	0.3099930422299131	65.66961931248568
7	3.0	perception	441	diff_vonmises	0.06726062201274358	3.8537497687549274	5.021954978015932	2.0018391963204425	0.2779949514782589	2.737121049214166	1.175617445914706	-0.42116795374814703	1.596785399662853	58.25398917341752
8	3.0	wm	441	diff_vonmises	-0.14581317910913982	-8.354479760338856	6.718917443566448	0.2767950667952234	0.07460107574002897	1.5217584918426927	0.01985792505214079	-0.24479716427760953	0.26465508932975035	50.871138736242784
9	4.0	ltm	441	diff_vonmises	-0.037188708422224735	-2.130756038136096	0.49776811812043525	149.0957701968599	0.4867283695654097	151.00600325663044	-0.15933085367785083	-0.3683212207849138	0.20899036710706298	105.90342200040556
10	4.0	perception	441	diff_vonmises	-0.007860737703999322	-0.45038709429851814	2.406580684085549	2.99263921111174	0.39793312523415836	5.032142789748887	0.5780096254796516	-0.6178734717503301	1.1958830972299817	76.1490708476203
11	4.0	wm	441	diff_vonmises	0.11334012175599827	6.493910626117581	0.5520312951708127	91.06595818040239	0.5334842958006044	93.17358886189113	-0.21565989955179532	-0.3860352565810796	0.1703753570292843	96.24276679690453
12	5.0	ltm	441	diff_vonmises	0.26937918106764025	15.434290163866196	0.8012425200294505	161.36166326231384	0.7825972178807159	163.22648115909288	0.014496384500993997	-0.41935132571333256	0.43384771021432655	90.46651733252645
13	5.0	perception	441	diff_vonmises	0.07029345545522551	4.027518324975275	2.8659931739606233	2.158288377207371	0.019824221009087324	4.094954151395778	0.7123855342758506	-0.6344138810395041	1.3467994153153549	80.32960670999321
14	5.0	wm	441	diff_vonmises	-0.018588492310167636	-1.0650421568839912	0.3524555316244756	200.5365996241256	0.3414111676166164	202.8131000458187	-0.09393050261411418	-0.5333403788651161	0.4394098762510019	132.92602634881604
15	6.0	ltm	441	diff_vonmises	-0.6270259922667317	-35.925943001886324	0.00012768900145575812	7662.638394978835	8.581866302396788e-31	7664.6402452200655	-0.16287681023823097	-0.4743219701990711	0.3114451599608401	169.0780943247234
16	6.0	perception	441	diff_vonmises	-0.2083664828474525	-11.938520059144087	1.3196736302459782	1.8671775920214029	8.540537902910154e-17	3.7598268545133013	0.15040829080430884	-0.5449245013811175	0.6953327921854263	116.19448674991085
17	6.0	wm	441	diff_vonmises	-0.35097394235155593	-20.109325615812015	0.2827664994579985	141.24738474213936	0.26807989786180836	143.41780305598232	-0.07513021169932443	-0.5390620522790002	0.46393184057967574	142.33316067450784
18	7.0	ltm	441	diff_vonmises	0.19913847939509102	11.409794407991622	0.9598570517186286	148.68053237128515	0.9416262822684991	150.27954016753847	-0.013997163452799555	-0.35564431380793593	0.3416471503551364	81.28722676753455
19	7.0	perception	441	diff_vonmises	-0.004788144501874339	-0.27434047165616954	1.766890838376343	2.505454264652241	0.2581037058592505	3.9321969719614858	0.4020595046335712	-0.4565608392119338	0.858620343845505	90.4556932311902
20	7.0	wm	441	diff_vonmises	0.2113895325759791	12.111728049846832	0.9470983251602293	40.85185501817451	0.8808583929476493	42.834249190476314	-0.11755255861298686	-0.40884244322826824	0.2912898846152814	79.25876244966844
0	1.0	ltm	442	diff_vonmises	-0.025161921055592555	-1.4416718809268148	0.9229860737383347	97.09313041672824	0.9026788820138143	97.93714084920214	0.1024452417761097	-0.22441318373315866	0.32685842550926836	88.15756898892096
1	1.0	perception	442	diff_vonmises	0.009317246402006634	0.5338388955184317	10.54598414358138	0.5963651929049953	3.6944794010000854e-25	1.495111776902142	0.5248163015185249	-0.23795442924095853	0.7627707307594834	41.79317894441331
2	1.0	wm	442	diff_vonmises	0.0695235590888427	3.983406512519082	5.040162829638379	0.32948660970156646	2.1012042215041276e-21	1.2439297137090912	0.0889529594671688	-0.19796554161506072	0.2869185010822295	60.81038440006262
3	2.0	ltm	442	diff_vonmises	-0.018834291912376223	-1.0791254366965377	3.8881347237516377	0.4470872713955335	6.882045555912106e-21	1.0003011530049435	0.17925083626903682	-0.1590608654812326	0.3383117017502694	69.46477660949395
4	2.0	perception	442	diff_vonmises	-0.02536345756339453	-1.4532190722416733	7.823576423428756	0.9750728337096973	5.269398995904209e-23	1.5951603898078668	0.8153874150716898	-0.2538774897353045	1.0692649048069942	48.61144190322193
5	2.0	wm	442	diff_vonmises	0.015534802459261634	0.8900786164851436	6.061720911424553	0.32069623111540124	0.07141643861413773	1.0153413253152535	0.13456973917149015	-0.16135243403389582	0.29592217320538594	54.11582629874982
6	3.0	ltm	442	diff_vonmises	0.1714414389688904	9.822870886567102	1.4551182322000393	103.61087006155284	1.4365474246024583	103.87067710990546	0.2307063069729267	-0.1379835448027702	0.3686898517756969	74.90922013749221
7	3.0	perception	442	diff_vonmises	0.021541382833396714	1.2342303212291947	5.010223302841535	1.764565896150314	0.28244383406245976	2.052614230756666	1.1069348544207087	-0.31266609257490935	1.4196009469956181	58.606363032704024
8	3.0	wm	442	diff_vonmises	-0.035172099406953004	-2.0152128526329927	2.1911009579084664	1.4385493036803394	0.812659768820829	1.9611954603203559	0.1837687166974339	-0.17977147318982828	0.36354018988726217	71.9927082118158
9	4.0	ltm	442	diff_vonmises	-0.09947149190749054	-5.69929666816893	1.2741631073903197	133.8974166923206	1.2587528811931403	134.61197261765886	0.09855143662483812	-0.2015834320250569	0.300134868649895	74.52584462511234
10	4.0	perception	442	diff_vonmises	-0.07191580314587105	-4.12047200055206	2.3691373479965723	2.6416817701346917	0.3005037014289261	3.730211759636793	0.7242994395282314	-0.46116318167658266	1.185462621204814	80.40663803772864
11	4.0	wm	442	diff_vonmises	-0.05287791762513733	-3.029681509360798	1.1476524725914978	149.83385097765193	1.131527654056015	151.1249174758065	-0.02298772075026534	-0.29676695076277326	0.2737792300125079	73.5287841942544
12	5.0	ltm	442	diff_vonmises	0.231827573608106	13.282741542502903	1.5947924881434437	1.6776204693871883	0.4414428794823075	2.0911430573973413	0.2610052648318542	-0.18541902286792905	0.44642428769978326	90.45673888493269
13	5.0	perception	442	diff_vonmises	0.01632832085975972	0.9355438717996556	3.0696705402442146	1.6018232845782465	3.562130381854002e-21	1.977000180974364	0.7482686122051705	-0.3123573256104904	1.0606259378156608	78.41058790862277
14	5.0	wm	442	diff_vonmises	-0.07464335305815248	-4.276749098937064	0.5300906311838852	111.50104151543394	0.5168101311475206	112.02454655666422	0.14690776623699975	-0.21011345243043777	0.3570212186674375	120.5890517620648
15	6.0	ltm	442	diff_vonmises	0.09240896172057557	5.294643495774962	0.5740853010905854	68.58022296854065	0.5601437597486166	68.98275425263992	0.07646375277579764	-0.13539463402501895	0.2118583868008166	114.81799873950493
16	6.0	perception	442	diff_vonmises	-0.19665897744135635	-11.267729410748185	2.091003231998105	1.2537560721513537	2.7905653773474724e-12	1.7870934470715805	0.379949801870052	-0.27428072667294057	0.6542305285429926	94.93181168114921
17	6.0	wm	442	diff_vonmises	-0.21233118878498125	-12.165680976374944	0.6519818365368536	85.47210004190937	0.6304988270121459	86.16660311103787	0.1603225449548802	-0.2357992172224197	0.3961217621772999	108.51778272824006
18	7.0	ltm	442	diff_vonmises	0.0681564099300791	3.9050746357570665	1.0421927186734756	91.13697727908406	1.0179458351081532	91.76176808379012	0.20126139783767272	-0.2101818531577404	0.4114432509954131	86.04719475251181
19	7.0	perception	442	diff_vonmises	-0.022563309666915388	-1.292782415760983	2.8052093077862197	1.5214135452054032	4.631791448986471e-16	2.359102463900102	0.5833423876719106	-0.37195377814018177	0.9552961658120924	82.09192641245915
20	7.0	wm	442	diff_vonmises	0.22743507284141176	13.031069787063347	7.055081225766234	0.39526971582632275	4.85348303486854e-23	1.2252638116219567	0.21586542632590786	-0.1950064861967645	0.41087191252267236	51.225256064085755
0	1.0	ltm	443	diff_vonmises	0.012026751716257106	0.6890821145932515	0.9008026831835901	162.261906468399	0.8739984984059254	165.54805862620128	-0.2154235530100479	-0.6682532243233474	0.45282967131329954	79.83956462316789
1	1.0	perception	443	diff_vonmises	0.07253141317712992	4.15574385716911	11.999684050350565	0.6767780871156147	0.022370046525802788	3.847286294102811	0.29901579827707137	-0.6171778184676391	0.9161936167447104	38.919612483326574
2	1.0	wm	443	diff_vonmises	0.11225317690019265	6.431633273316464	4.4675310981016105	0.4685503983944751	0.06531983590256546	3.9054369081889977	-0.28036107870715476	-0.6184613677785565	0.33810028907140177	60.66710103077597
3	2.0	ltm	443	diff_vonmises	-0.04135540850041452	-2.3694903671132006	2.3826654540663093	1.1909061765206652	0.2994806345937968	2.6882925197038716	0.11771187431191843	-0.3564699874699076	0.47418186178182603	76.29450739156044
4	2.0	perception	443	diff_vonmises	-0.04097965329503287	-2.347961179714761	6.842346376030423	1.2207789894047452	0.17015220280129187	2.8222468467647954	0.7200561668515704	-0.45898748608664813	1.1790436529382184	50.43228627037746
5	2.0	wm	443	diff_vonmises	0.0584898334973782	3.351220603822678	5.013464514422173	0.4684812249313251	0.08199271857549124	2.352081967837057	0.001131782070219356	-0.37262200578180527	0.3737537878520246	58.27577235567358
6	3.0	ltm	443	diff_vonmises	0.10017933963315973	5.739853355387709	1.4349195868368083	2.618362911114968	0.5890597550473119	3.63968917251059	0.1451226118456974	-0.2756731749313889	0.4207957867770863	85.31754318604587
7	3.0	perception	443	diff_vonmises	0.04906830458643094	2.811406760664913	4.784972613506032	1.8857830319938533	0.16099186318321226	2.8871075825755863	1.0609634930856386	-0.4433404182934012	1.50430391137904	60.44939723446467
8	3.0	wm	443	diff_vonmises	0.10306479406954709	5.905177716570004	2.458497953084538	0.8587777603912677	0.2208534766593041	2.3404907636657755	0.042221831118227415	-0.3264483769936667	0.3686702081118941	76.51878662828742
9	4.0	ltm	443	diff_vonmises	0.11258876406146323	6.450861001316044	0.5725375594776047	154.27082630087415	0.5587236965799941	156.28080723165206	-0.11623735403380664	-0.40679039111639526	0.2905530370825886	102.12811142966768
10	4.0	perception	443	diff_vonmises	-0.05271059879332795	-3.0200948464650614	2.4602016048536473	2.6983180557926243	0.2266016224696097	4.7263600320724	0.6438028856169744	-0.6295203539407646	1.273323239557739	79.5837935848057
11	4.0	wm	443	diff_vonmises	0.10706915698250265	6.13461081112107	0.6973278833115301	157.76898172647836	0.678577058838501	160.30985237100955	-0.1491184269810475	-0.5084495817387413	0.35933115475769384	91.86295653133405
12	5.0	ltm	443	diff_vonmises	0.05303435907082765	3.0386449439397785	1.9641971155540683	1.144472289143424	0.0615576355918246	2.8160329672423448	0.10780957947269437	-0.4096637408048097	0.5174733202775041	93.1157565534688
13	5.0	perception	443	diff_vonmises	0.015387602761675497	0.8816446950678559	2.035755192816911	2.7023042815217075	0.09440484947572358	4.191193161629671	0.6776138228024634	-0.5819217457468825	1.259535568549346	91.81421544107374
14	5.0	wm	443	diff_vonmises	-0.05089696450144799	-2.916181255960142	0.5252857625199784	262.1821301477568	0.5149826083431825	264.0415360570055	0.04240295223134183	-0.4649621912611437	0.5073651434924855	114.23272820972008
15	6.0	ltm	443	diff_vonmises	0.258328310078796	14.801121896261856	0.49294182991066215	118.52309684938372	0.47620620485116055	120.15073381837179	-0.02455901153279072	-0.3788845338452589	0.35432552231246817	115.91404394136555
16	6.0	perception	443	diff_vonmises	-0.09794140791191569	-5.611629312921978	1.272662985863939	2.3368766240423686	7.789438208568556e-14	3.9261216874939615	0.29229909551902367	-0.5529085189369827	0.8452076144560063	118.00347970967974
17	6.0	wm	443	diff_vonmises	-0.03798188274895965	-2.1762015794761376	0.5397551987943809	220.16757990037084	0.5265189547547338	221.97848642548476	0.09148535697750759	-0.47816751218754305	0.5696528691650506	114.20672720757463
18	7.0	ltm	443	diff_vonmises	0.01743395161695257	0.9988918478866594	1.0506696385993375	178.4822321472552	1.0284399781365408	180.64389691233487	-0.002484146360686168	-0.49413692840435175	0.4916527820436656	77.99328858320729
19	7.0	perception	443	diff_vonmises	0.04094604923837376	2.3460358090936757	1.4485123151269592	5.527418313081504	0.5621431670806567	7.3528906789474515	0.444101498938934	-0.5583218516704214	1.0024233506093554	87.45115909843031
20	7.0	wm	443	diff_vonmises	0.26134696317604605	14.97407797854838	2.342346168274489	1.4422873758339603	0.3402634081731149	3.800437359232904	-0.007981458631931782	-0.5094422782404888	0.501460819608557	73.56118384629553
0	1.0	ltm	444	diff_vonmises	-0.03962355819326162	-2.270262653764904	1.0223565056123367	149.22762770524545	0.9997202782903617	151.2171095472501	-0.041340595875880126	-0.44085089856664794	0.3995103026907678	78.03655582164157
1	1.0	perception	444	diff_vonmises	0.09133264523355321	5.232975103648234	19.009674893180456	0.4657584643204681	1.5308636452691149e-21	2.6815664541528994	0.3777682631949315	-0.4267845564078403	0.8045528196027718	31.048578201301552
2	1.0	wm	444	diff_vonmises	0.07282113946930478	4.172343950924703	5.731149869532908	0.34582702450949593	0.1125340216581961	2.627856727363575	-0.14420153113628914	-0.42592407803896093	0.2817225469026718	53.14154321481274
3	2.0	ltm	444	diff_vonmises	-0.14409230878086077	-8.255881153439175	1.4572171774024194	4.256802642592026	0.86416053616761	5.096705772309251	0.20182762498782858	-0.25762610342212333	0.4594537284099519	80.24812927902292
4	2.0	perception	444	diff_vonmises	-0.021573751395340353	-1.236084903217473	6.935835666312221	1.0697969500900981	0.22015522108542476	2.173249884220046	0.6762361297964623	-0.35696732856338587	1.0332034583598482	49.90915083661881
5	2.0	wm	444	diff_vonmises	0.1302498333972459	7.462765735944308	7.117005327110308	0.2794450086689173	0.10330204591354272	1.596549310217726	0.01073334984507518	-0.2600369548714924	0.2707703047165676	48.998518177353304
6	3.0	ltm	444	diff_vonmises	0.06174520386388854	3.5377395865756767	1.2242366427547358	180.47450744118427	1.2103567767014054	181.07731465351182	0.23177701692915775	-0.21603129159822743	0.4478083085273852	79.43345759395226
7	3.0	perception	444	diff_vonmises	0.03950593168411713	2.2635231512320684	4.386105430404438	1.940636190381964	0.4016137293347161	2.639507431386947	0.9653940999546035	-0.39104421080049023	1.3564383107550937	60.82346068795874
8	3.0	wm	444	diff_vonmises	0.29752335441162475	17.0468325143611	4.109540265947681	0.41233273863053327	0.11088417620781368	1.5309442995302227	0.05033187688428187	-0.23777545523520058	0.2881073321194825	63.73485682433824
9	4.0	ltm	444	diff_vonmises	0.017337235317594873	0.9933504121233396	1.0270008819919128	211.47612422628612	1.015353663246743	212.88374520643558	-0.020017831513641227	-0.31522474491865893	0.2952069134050177	78.01216984329992
10	4.0	perception	444	diff_vonmises	-0.09271651453829796	-5.312264974207812	2.3062183519728263	2.7287742700598434	0.3497633985245313	3.958449492648179	0.6661965307921182	-0.4741700746244599	1.140366605416578	79.8984633233778
11	4.0	wm	444	diff_vonmises	-0.06802300116297466	-3.8974308764519385	0.9150366141851457	111.47337896152517	0.889723653337963	113.28664726128031	-0.044280346794842274	-0.39142154205860713	0.34714119526376486	82.5319512768989
12	5.0	ltm	444	diff_vonmises	-0.04382963831862673	-2.5112532932421816	1.3702151948231907	2.2247387515928856	0.29865616098492465	3.6160336292653774	0.15363902983239597	-0.3686633281285361	0.522302357960932	95.99549796650953
13	5.0	perception	444	diff_vonmises	-0.009216580559792438	-0.5280711676184284	2.5365265946193585	2.117349548680673	0.11687666706173244	3.441486646468442	0.6449050178073497	-0.48722156262537747	1.1321265804327272	82.05670496918523
14	5.0	wm	444	diff_vonmises	-0.25357865728767764	-14.528986837178245	0.5770302899018057	180.6830536571422	0.5651558661029087	182.1922526111886	0.013986880406349655	-0.3558501159612959	0.36983699636764555	107.78150239257961
15	6.0	ltm	444	diff_vonmises	-0.054527195348182095	-3.1241781621362095	0.46687563432997536	154.16902271497028	0.4551326907436796	155.82805995702685	-0.059315569344725816	-0.3703038564912564	0.3109882871465306	117.1134078155461
16	6.0	perception	444	diff_vonmises	-0.2004848947511053	-11.486938325362846	1.5715136843282809	1.9203999251231514	1.7574931408438322e-16	3.6557020597311287	0.27379935862088	-0.5448970754906739	0.8186964341115539	108.16731234813108
17	6.0	wm	444	diff_vonmises	-0.1511231991823171	-8.658721499661663	1.4140411362960712	2.562848620355118	0.27217578291310235	4.186072306782292	0.21253674927502597	-0.4441276819693732	0.6566644312443992	96.42665922810919
18	7.0	ltm	444	diff_vonmises	-0.039752045915936	-2.2776244579933937	0.930161989844671	260.98428942907714	0.9163652595009831	262.751741181882	0.1090289732145493	-0.43250421166527175	0.541533184879821	85.79377255454932
19	7.0	perception	444	diff_vonmises	-0.04684359389524292	-2.6839402274222075	3.3244429506613633	1.87038011308298	0.1839556782889628	3.82895553785232	0.5718518471577703	-0.5597544210940555	1.1316062682518258	70.27148029047828
20	7.0	wm	444	diff_vonmises	0.31955522552703053	18.309165744050038	6.881628161492263	0.830437251961923	0.2107179207875088	2.6524228664833185	0.3365738081994959	-0.440497561748599	0.7770713699480949	49.43447789272551
0	1.0	ltm	445	diff_vonmises	0.011205612560307622	0.6420343065644114	1.24638951867587	25.80564978389602	1.1997259193780052	25.794458015872515	0.2258876502114422	-0.0762960493726148	0.302183699584057	85.43321648990943
1	1.0	perception	445	diff_vonmises	0.003755854763354346	0.2151946264043106	11.40746130025429	0.4785566402530657	6.82283686168124e-25	0.5306069404034183	0.5529529974296454	-0.0844487173253502	0.6374017147549956	40.15795389564869
2	1.0	wm	445	diff_vonmises	0.17868208072461375	10.237729100136246	3.1214541193282863	0.37920994999099455	1.4079968139108377e-25	0.3461303575282295	0.19893520903415177	-0.05459445994585319	0.25352966898000495	77.73820635221963
3	2.0	ltm	445	diff_vonmises	-0.024992171525446392	-1.4319459492751108	3.068162967967629	18.1397622702506	3.006652225004783	17.850001999297756	0.327811166213289	-0.022601035277976633	0.3504122014912656	60.13070217413582
4	2.0	perception	445	diff_vonmises	-0.026358985717494593	-1.5102586338580561	7.217392816576106	0.9130423165668156	5.167091469674497e-15	0.7645293594753433	0.8384613056910115	-0.12167810955025804	0.9601394152412696	50.64457581251969
5	2.0	wm	445	diff_vonmises	0.05728408818138523	3.2821364860486133	3.992416320318134	40.42054515179099	3.9499376806528192	40.32460756860091	0.25415699382931933	-0.056413641687363736	0.31057063551668307	48.190833104511
6	3.0	ltm	445	diff_vonmises	0.18821249492138573	10.783781610622842	1.9377891148720998	75.37364276833928	1.9203505454592604	75.12462039288792	0.3337994828097166	-0.047773505675240635	0.38157298848495724	72.11023323258078
7	3.0	perception	445	diff_vonmises	-0.0005689739043530503	-0.032599803372509964	5.43881531721225	1.4200501930024274	0.25499844258601356	1.4709640796038996	0.9903929089141004	-0.22676852094021646	1.2171614298543167	56.739819649835454
8	3.0	wm	445	diff_vonmises	0.09582488600080326	5.490361540168273	2.308570435728503	23.31141705126163	2.2104824152162355	23.348113227286166	0.3147938419688252	-0.11809374203322776	0.43288758400205296	61.6671533023071
9	4.0	ltm	445	diff_vonmises	-0.09318946191459525	-5.339362862801432	2.1061576493008225	96.37624298925981	2.0861252451382093	96.57230670243267	0.1903373799182546	-0.12198727108695806	0.3123246510052127	61.55515235027087
10	4.0	perception	445	diff_vonmises	-0.1218434728709256	-6.981116756720781	2.924240276615458	1.8796961015870401	0.02688487806171281	2.3887541197301387	0.8227920055546514	-0.3665307959968468	1.1893228015514983	79.59804409060644
11	4.0	wm	445	diff_vonmises	-0.08007712149687568	-4.588081097327294	1.57158570091326	146.35340272717897	1.5520818307339312	147.24868612205208	0.09689019307499791	-0.26574905588311637	0.3626392489581143	66.09825816190187
12	5.0	ltm	445	diff_vonmises	0.05247975710461465	3.006868591966117	1.6478980460799015	1.0235300553876083	1.5390511648718905e-11	0.8204831175767519	0.3388269742055474	-0.11319764502124423	0.45202461922679166	106.0407439716133
13	5.0	perception	445	diff_vonmises	-0.033111747390481595	-1.8971633777779124	3.314314432781258	1.2863731972622099	1.9270104903592516e-21	1.0523483016246729	0.7238539185489365	-0.16630809230582527	0.8901620108547619	75.3956378715734
14	5.0	wm	445	diff_vonmises	-0.08442667445909786	-4.83729212483125	0.7303872207718126	58.875698394253696	0.7134379553634242	58.72050744444867	0.23491834624184804	-0.08038456317715603	0.3153029094190041	112.69610963183624
15	6.0	ltm	445	diff_vonmises	0.25901158153193	14.840270466788207	0.7783231750179492	45.608155489958484	0.7632192966889063	45.42353187402227	0.18630421999020363	-0.04784214709547463	0.23414636708567826	111.27461115073541
16	6.0	perception	445	diff_vonmises	-0.16470547621690937	-9.436928649921263	2.1535608685401515	1.3308311789736005	0.05107427091534185	1.238373399137835	0.5105061058542315	-0.17748630810215443	0.687992413956386	92.25458285489611
17	6.0	wm	445	diff_vonmises	-0.09996148597469204	-5.727371260206026	1.0277296854202411	72.55954158452334	1.0021302257007345	72.62412306822233	0.32881282911991505	-0.13779477328016387	0.4666076024000789	92.64355246540636
18	7.0	ltm	445	diff_vonmises	-0.0430024577317527	-2.463859336719145	1.0403334920927256	68.90813754770089	1.008663045912145	69.1168252297348	0.34023291223445185	-0.17149965587444704	0.5117325681088989	90.86321756528923
19	7.0	perception	445	diff_vonmises	-0.025289150560747518	-1.448961594601732	3.63422004660417	1.462900884344618	1.8182966354210424e-14	2.2055882294354086	0.7158860123637958	-0.350286250480185	1.0661722628439807	71.92203007850082
20	7.0	wm	445	diff_vonmises	0.2941712505714409	16.85477111182897	8.97886359048345	0.5275279595448349	6.631663753812755e-25	0.7614727207697672	0.5001385825826887	-0.12119213766812215	0.6213307202508109	45.32610662821139
0	1.0	ltm	446	diff_vonmises	-0.002734007709907819	-0.15664710293394551	1.9114953552347111	0.6021784192163743	0.4002630601945597	0.3103865205105934	0.23140566681200625	-0.025209860400311708	0.25661552721231795	93.51754170600933
1	1.0	perception	446	diff_vonmises	-0.02528223370265206	-1.4485652878253712	14.332208243705882	0.4756032890098918	5.4617232481201635e-18	0.12915609140272125	0.6909688881316425	-0.02055583037691835	0.7115247185085608	35.80103414908086
2	1.0	wm	446	diff_vonmises	0.11782110588578114	6.750652104819242	2.545878282169092	0.724112358617419	2.546016351900728	0.33571096474976403	0.23135202698322352	0.0014225780571815627	0.22992944892604195	86.19915476058463
3	2.0	ltm	446	diff_vonmises	0.01790711525564918	1.0260021274030282	3.375740525840676	2.388130360170786	3.375826208817507	2.019252123151496	0.2582227324166544	0.0003021836871622925	0.2579205487294921	74.6949401574438
4	2.0	perception	446	diff_vonmises	-0.018476591777903024	-1.0586307286599614	8.047793269060902	0.8596097132246016	5.422222029701315e-17	0.5380766504635882	0.8711473864067987	-0.08563746082623172	0.9567848472330304	47.909200862206376
5	2.0	wm	446	diff_vonmises	0.014480255198262366	0.8296575091328047	6.362101556022969	1.8086348154640834	6.148823137903149	1.5779632944707096	0.25470484222080536	-0.0002237844998991545	0.2549286267207045	48.92253670694126
6	3.0	ltm	446	diff_vonmises	0.22728726543759373	13.022601046643787	2.482980101418856	9.00931675404376	2.391906175782063	8.687416510830019	0.3001251392300093	-0.014782584279947608	0.3149077235099569	68.75856062340068
7	3.0	perception	446	diff_vonmises	-0.011647136524034409	-0.6673317662398435	5.382441145473482	1.5151593800075487	0.5147844095035677	1.4182228964487547	1.0123595706238884	-0.2164217809830924	1.2287813516069808	55.777530063623004
8	3.0	wm	446	diff_vonmises	0.10241166246165706	5.867756031971313	3.2010087759739427	36.00749282839342	3.1405199454453783	35.924748447766476	0.3178538478951083	-0.08595341454496186	0.40380726244007015	53.20672602818965
9	4.0	ltm	446	diff_vonmises	-0.0780278190490952	-4.470664716123643	2.443402533509795	92.00234959453488	2.4217530889397207	92.11003292367795	0.21782677104815207	-0.11050274883622713	0.3283295198843792	58.03142463820785
10	4.0	perception	446	diff_vonmises	-0.09868132712831429	-5.654023561202244	2.6485112093421286	1.971026230982667	0.19134192186096544	2.3024199965637733	0.7617808218964073	-0.3074022925905178	1.069183114486925	79.88921569929451
11	4.0	wm	446	diff_vonmises	-0.04105060098929781	-2.3520261831623266	1.673266592182155	98.12394345544118	1.6492921193564534	98.83678006934038	0.07020014575365252	-0.21646229932667715	0.2866624450803297	63.77110996817359
12	5.0	ltm	446	diff_vonmises	0.16583760696021044	9.501794963369424	2.0298847716315853	0.832932949038273	0.06032776405178974	0.45363098744220987	0.3569144431968312	-0.060428354468517256	0.41734279766534843	95.32960217054509
13	5.0	perception	446	diff_vonmises	0.0016465549852176234	0.09434065138919547	4.22623306642492	1.0567574540068974	1.019295844269552e-20	0.852516679851201	0.7014962518052195	-0.13550360986521817	0.8369998616704376	66.55444011968251
14	5.0	wm	446	diff_vonmises	-0.12495418898249086	-7.159347661176817	0.6562773278138809	45.277855984282134	0.6395629505281252	45.00416390376073	0.21854849786339337	-0.05360831696736357	0.27215681483075693	120.3755600092845
15	6.0	ltm	446	diff_vonmises	0.07801705028914074	4.470047711627664	0.9564468599120531	25.31777159633542	0.9371866534279689	25.09273172541517	0.16682968505101847	-0.02335208612713613	0.1901817711781546	104.96858101466634
16	6.0	perception	446	diff_vonmises	-0.16671625969948506	-9.552138056987468	2.390720044407119	1.1463341717445044	0.13754525297196138	1.17369519388979	0.4446546328095463	-0.157674121043744	0.6023287538532903	85.3950643633562
17	6.0	wm	446	diff_vonmises	-0.1842867340567509	-10.558852081701637	0.9544458539322604	46.50718747933784	0.9182622878875024	46.58266194129881	0.29520776757176215	-0.13256300090785667	0.4277707684796188	96.16406349460632
18	7.0	ltm	446	diff_vonmises	0.03857006514085085	2.2099019481154127	0.9949571761391544	66.61924355151649	0.9695471957042096	66.58215259448784	0.3331578793868708	-0.12109302810498068	0.4542509074918515	95.34495665309845
19	7.0	perception	446	diff_vonmises	-0.02573976241916811	-1.4747797522877784	3.427836723147578	1.2611623696420473	4.9872728752437345e-21	1.8614597377440503	0.5941294467200413	-0.2953223058783519	0.8894517525983932	74.11231219167641
20	7.0	wm	446	diff_vonmises	0.2795356919131142	16.016215369890702	8.815955915146914	0.4199425337871193	9.754533644757468e-26	0.49447155369267815	0.4112801585099518	-0.07869758120564223	0.48997773971559405	45.74582363064769
0	1.0	ltm	447	diff_vonmises	-0.036461860390220015	-2.089110713554836	0.8544948317901299	168.62485047871516	0.8371287445206064	170.72936893576613	-0.0951059968691581	-0.43691309047736127	0.34180709360820316	83.73945643540293
1	1.0	perception	447	diff_vonmises	0.054028402511048165	3.095599437717079	12.333399376180447	0.6116222587252984	7.323035955692547e-22	2.701571616751573	0.41790265946483607	-0.4299684769063443	0.8478711363711804	38.60554007120453
2	1.0	wm	447	diff_vonmises	0.05329855867762433	3.053782466358244	6.18960248035313	0.3065332606137358	0.020462774921303304	2.632067838061944	-0.1299653507673867	-0.41861359826903116	0.2886482475016445	53.8056507235292
3	2.0	ltm	447	diff_vonmises	-0.026621097383444686	-1.5252765260781393	2.9145756120326265	0.6650226713369294	0.06864205496248611	1.8903764931241325	0.10652796758410166	-0.2851380431350945	0.39166601071919616	76.87687099077712
4	2.0	perception	447	diff_vonmises	-0.02340278501610862	-1.3408808102750263	7.5122213919638865	1.1178950156298957	0.15388829613071353	2.4632376396268665	0.7458883507117542	-0.40222142315002896	1.1481097738617831	48.41093123076291
5	2.0	wm	447	diff_vonmises	0.0805589546458134	4.615688103190924	5.784314157057774	0.34683894875099125	0.051351018087156086	1.8933595667785603	0.00785364134335581	-0.3011072669632014	0.3089609083065572	55.12102947315515
6	3.0	ltm	447	diff_vonmises	0.13102701563621427	7.507294998149723	1.162925410696799	118.12460400304342	1.1429431887751929	118.86953430754029	0.16435521040141055	-0.22546121087319726	0.3898164212746078	79.83264072562326
7	3.0	perception	447	diff_vonmises	0.03786548070022357	2.1695322333568834	4.775627777109668	1.9478938988031471	0.2873636769286663	2.6844533718685537	1.0902335452372611	-0.40862989777632164	1.4988634430135828	59.52044048823811
8	3.0	wm	447	diff_vonmises	0.04909282189157278	2.8128114987745754	2.799423333066881	0.6697896225408946	0.29054235683269525	1.838952924569066	0.0383880279046081	-0.2612916193438667	0.2996796472484748	70.6509942072631
9	4.0	ltm	447	diff_vonmises	-0.00022590670714359718	-0.012943500883026003	0.8615349415768658	220.2510904375417	0.85107556982472	221.7778827560475	-0.03898458628783885	-0.326899158368267	0.28791457208042814	84.73633643655026
10	4.0	perception	447	diff_vonmises	-0.05044100516751338	-2.890056710496093	2.304337626136188	2.884592248233744	0.344741593863546	4.502861579225597	0.6378535053129228	-0.5475946245040998	1.1854481298170225	79.3991662662948
11	4.0	wm	447	diff_vonmises	-0.016332539600754262	-0.9357855878535019	0.7984175436904093	146.5953442489378	0.7819435950503052	148.54986196638345	-0.1255386839590784	-0.3909938675915612	0.26545518363248277	84.85218805606911
12	5.0	ltm	447	diff_vonmises	0.1502365385544248	8.607919587823014	1.1286987270587017	4.286669894323783	0.5532175684583592	5.559521224328383	0.14120725550494106	-0.3348575455350741	0.47606480104001514	92.71517411343953
13	5.0	perception	447	diff_vonmises	0.024646571506352348	1.4121445267813815	2.786463639195456	1.8837343172411796	2.35845984405303e-18	3.1232814692983903	0.685432066989714	-0.49259224684998065	1.1780243138396946	82.37316946899881
14	5.0	wm	447	diff_vonmises	-0.10593622862416374	-6.0696987976975665	0.4775493188422893	198.04585976802127	0.467188912533063	199.5481794264914	0.020274296966746874	-0.37901372146557577	0.39928801843232264	119.5238984413838
15	6.0	ltm	447	diff_vonmises	-0.10663873358007266	-6.109949366758171	0.2565791492232921	88.19222784335696	0.24257436638770707	89.50919675554793	-0.045602308897105814	-0.33153427383320455	0.28593196493609874	147.27218971716098
16	6.0	perception	447	diff_vonmises	-0.17762445820237285	-10.177131793293862	1.6964382441920252	1.5899699179957338	6.906094557185889e-17	2.99936435391143	0.2648240759570895	-0.4524169529495918	0.7172410289066813	104.6185566212646
17	6.0	wm	447	diff_vonmises	-0.17728520513730817	-10.157694024478777	0.527816384097136	155.23032935288396	0.51228628209344	156.781576094612	0.06560621276727119	-0.40578720663197565	0.47139341939924684	115.3109454655974
18	7.0	ltm	447	diff_vonmises	0.05771699698326798	3.3069403333105596	0.9811701421592846	186.03553960558585	0.964679625460033	187.53623719700573	0.07885516537376702	-0.36403463013443016	0.4428897955081972	83.13061597911167
19	7.0	perception	447	diff_vonmises	-0.007914754990935555	-0.45348205686071147	2.705722145276873	1.6224357846299613	0.034099749619366786	3.114331931889606	0.4885884008110879	-0.4746835516245934	0.9632719524356813	82.03716370040087
20	7.0	wm	447	diff_vonmises	0.23712935979733005	13.58651151502619	5.986943697386486	0.4808703385605612	0.05952930909168847	2.2374043056211073	0.08102505115137953	-0.35623075524211545	0.437255806393495	54.23588003495922
0	1.0	ltm	448	diff_vonmises	-0.06849303661290274	-3.92436192395435	1.290673613498329	110.04768484022287	1.270183789747235	110.74204928584557	0.13902795880826346	-0.20962268281256868	0.34865064162083215	75.20389595343934
1	1.0	perception	448	diff_vonmises	0.026922124053328323	1.5425240837833498	11.89002009308297	0.6071805559906998	1.0816256002566017e-19	1.332060674630595	0.6138006544895941	-0.21200404082690943	0.8258046953165035	39.33465857239
2	1.0	wm	448	diff_vonmises	0.09593639220380007	5.496750374989519	4.071624143163985	0.3270888131971856	1.0895085825409479e-16	1.0899918390995251	0.08041381485877253	-0.17340376247990105	0.2538175773386736	67.84754619724004
3	2.0	ltm	448	diff_vonmises	0.013581608144229432	0.7781688256648528	4.966943084783003	0.40731350891932805	0.18880983074573318	0.6664422420531707	0.22496094908625638	-0.10310459433767079	0.3280655434239272	59.007053380220384
4	2.0	perception	448	diff_vonmises	-0.025098176214915845	-1.4380195705903054	8.290290833404805	0.9533127682366336	3.0252600619993764e-19	1.1555591569253414	0.893344357379769	-0.1839128839902559	1.077257241370025	47.20206031137175
5	2.0	wm	448	diff_vonmises	0.03033969552122759	1.7383365050783073	6.921875801617739	0.30263487469067474	0.1969293221801715	0.7497474773850095	0.16754867578261248	-0.12314991764335996	0.29069859342597243	49.84783399835922
6	3.0	ltm	448	diff_vonmises	0.1855922541897309	10.633652875390752	1.6733102953913388	67.54687491326659	1.6516739084297418	67.614207286403	0.21581798670451136	-0.08761597321700965	0.303433959921521	71.7691858239312
7	3.0	perception	448	diff_vonmises	0.02826250668046302	1.6193223512508252	5.770978457368811	1.3980220620341515	0.22561502642652656	1.4452844635332056	1.023234585670544	-0.22526379554736958	1.2484983812179136	55.323011963631615
8	3.0	wm	448	diff_vonmises	0.012969341408357699	0.7430885257631513	3.1132013267982885	0.9353849466831582	0.9543041577733498	1.2271026847693063	0.2169674237916654	-0.13920849521800738	0.35617591900967277	63.371521769710824
9	4.0	ltm	448	diff_vonmises	-0.13642836377749035	-7.8167694503256735	1.6633662568051946	117.50203478242742	1.6478689055962692	117.97532651831189	0.09087693382548423	-0.15586125197363643	0.24673818579912066	65.43188346598504
10	4.0	perception	448	diff_vonmises	-0.08374225072717764	-4.798077533593628	3.0108605038298215	1.8825249316126746	0.09295709489357726	2.640032449781727	0.7753821310817726	-0.3867747716160746	1.162156902697847	76.69737673766247
11	4.0	wm	448	diff_vonmises	-0.05591150196335939	-3.203493088737909	1.359297213860703	137.65339071795643	1.3413021278740898	138.6981726603601	0.02317038422302886	-0.2670195148399479	0.29018989906297676	68.99653613911474
12	5.0	ltm	448	diff_vonmises	0.1559138774912849	8.93320714777039	1.7064370549614993	1.0478184540320727	0.16422843426405442	1.3331781798079272	0.24249637085259618	-0.16270241126860102	0.4051987821211972	97.403116830946
13	5.0	perception	448	diff_vonmises	0.009342210823491265	0.5352692515074867	3.2681310080427304	1.4946969332088857	5.138532468960482e-19	1.633550249163494	0.7674693944290827	-0.2584975686928325	1.0259669631219153	75.94592899203977
14	5.0	wm	448	diff_vonmises	-0.013515803115253331	-0.774398475233786	0.5680673861167072	111.07987346849046	0.5551188368921751	111.37370637319476	0.1955628123761386	-0.17838154078692803	0.3739443531630666	119.36548564826701
15	6.0	ltm	448	diff_vonmises	0.25154743419472525	14.412606326702562	0.8836606465323017	66.93377424465042	0.867945862121309	67.17406602237801	0.12445112900689637	-0.10171376182893876	0.22616489083583513	95.27454274603951
16	6.0	perception	448	diff_vonmises	-0.16607094934078115	-9.515164496957661	1.8783147569786218	1.4835245152480048	5.710855242397583e-12	1.7581431081596108	0.4568997786613759	-0.2626034119594176	0.7195031906207935	99.88820267443086
17	6.0	wm	448	diff_vonmises	-0.15622148961065904	-8.9508320239376	0.7591937030864532	69.08532973299494	0.7279866707471557	69.52203170586903	0.28491441958966135	-0.22428527764753525	0.5091996972371966	104.24964128487682
18	7.0	ltm	448	diff_vonmises	0.06121085376716416	3.5071235812509625	1.0982381935501855	119.38623594090726	1.0807701668074985	119.88540844564372	0.21272394744531198	-0.18569635450630884	0.3984203019516208	84.53725637302776
19	7.0	perception	448	diff_vonmises	-0.014691566244825578	-0.8417647402653692	3.369015908347848	1.3108708325146727	9.443408201538134e-19	2.0940967968766087	0.5833889476892739	-0.3321995899585279	0.9155885376478017	74.76660071972259
20	7.0	wm	448	diff_vonmises	0.3412301888647577	19.551049664402598	4.742310349268891	0.48424990220841385	3.949944380710668e-18	1.090636342778245	0.23456455850355368	-0.1735491321800119	0.40811369068356557	62.74040381790596
0	1.0	ltm	449	diff_vonmises	0.3428451855582926	19.643582158869727	1.810088510027198	0.5345875980839951	4.2301566097492116e-18	3.0246185061005986	-0.22180167099239378	-0.47443144751079547	0.2526297765184017	101.39596642990088
1	1.0	perception	449	diff_vonmises	0.07614999577354552	4.3630733677632145	9.011057301934683	0.7039452543988957	0.03523055296325629	3.1903166235422233	0.30472508458017633	-0.5115496604269776	0.8162747450071539	44.791944656624224
2	1.0	wm	449	diff_vonmises	0.029420990251093012	1.6856985704831697	5.9228637870445064	0.3346042609135083	0.04517565205756109	3.163958587944508	-0.20921565971863482	-0.50528586560868	0.29607020589004523	53.92321445954164
3	2.0	ltm	449	diff_vonmises	0.07169718699551186	4.107946217803081	2.572267284026279	0.8732425894165409	0.21403986228092564	2.4233723216484515	0.051002083149571	-0.34233677236126125	0.39333885551083225	75.36375399995251
4	2.0	perception	449	diff_vonmises	-0.012543070905099341	-0.7186650249955298	7.625475507806074	1.2036436176689471	0.1485174621090174	3.081622738392181	0.7368077156267797	-0.5046568000969536	1.2414645157237332	47.95430449711796
5	2.0	wm	449	diff_vonmises	0.1438328585275857	8.241015748932913	6.293278602300032	0.3657285519904735	0.01689933160056889	2.3914772650778313	-0.02896784214228204	-0.38000995434662016	0.3510421122043381	53.66453694457368
6	3.0	ltm	449	diff_vonmises	0.2405793019157137	13.784178637973996	2.4011923323596895	1.1761887575977072	0.41261381655550083	2.257183284284721	0.15656534174964232	-0.2831343464806062	0.4396996882302485	74.43250758340403
7	3.0	perception	449	diff_vonmises	0.026594788699602245	1.5237691495294237	5.2290810052198715	1.9331658160138845	0.1443607666586628	3.2745356456077914	1.1174770727794106	-0.5104956072254365	1.627972680004847	57.97653662704042
8	3.0	wm	449	diff_vonmises	0.06280208435587599	3.5982943782162673	4.38059842685213	0.41859125739712966	0.10859038415076798	2.2035447816897897	-0.05170166424172806	-0.34727596305667857	0.2955742988149505	60.984271481880654
9	4.0	ltm	449	diff_vonmises	0.35770059683778943	20.494734528115934	0.6914494112379447	254.49296471916077	0.6804259839412337	256.80966154777866	-0.11626404562136372	-0.47101286437268186	0.35474881875131814	92.94950559374686
10	4.0	perception	449	diff_vonmises	-0.03578156477360769	-2.0501326459016993	3.098082624870504	2.0188278458091635	0.11135665943448704	4.518068000794979	0.5453624811806504	-0.6693172989670068	1.2146797801476572	74.00940086063713
11	4.0	wm	449	diff_vonmises	0.2481920380638597	14.220356289809441	10.648905531156517	0.2314208017762198	3.237388027980537e-34	3.052709311715669	-0.1882997961057688	-0.48585377661466866	0.29755398050889986	41.57797779916615
12	5.0	ltm	449	diff_vonmises	0.10486022785717324	6.008048494996171	1.2939933830636539	2.642430125057424	0.3735148194083009	4.149653287476718	0.12049344120327321	-0.378968212946019	0.4994616541492922	94.05691394503458
13	5.0	perception	449	diff_vonmises	-0.0014890835731305224	-0.08531820408263921	2.588473611273751	2.0170418260623824	6.358869059550573e-18	3.5112426601226234	0.6544018939763482	-0.5519826239355214	1.2063845179118697	85.4903593625597
14	5.0	wm	449	diff_vonmises	-0.06346738104662498	-3.636413070720205	0.5434242620048595	168.55845195467094	0.5286854188901953	170.450487185612	-0.010256020287982892	-0.4384070517217111	0.42815103143372824	110.47937416185796
15	6.0	ltm	449	diff_vonmises	0.08770371906359954	5.025052949945314	0.29768547836503917	108.58502933483425	0.281700989490413	110.02964940729444	0.01085350910986449	-0.4016028697747256	0.4124563788845901	143.11240510147093
16	6.0	perception	449	diff_vonmises	-0.09887587997790907	-5.665170618376269	1.6259289173558609	1.5654646431684793	3.8022904222640636e-15	3.129612472594907	0.21399919753589614	-0.47053219106323735	0.6845313885991335	106.66015143444422
17	6.0	wm	449	diff_vonmises	0.07035046790631973	4.030784897802669	0.49199807227085834	194.0234579987987	0.4800440932205229	195.8182479819295	-0.0036296981543983975	-0.4317699282666396	0.4281402301122412	116.78725418850328
18	7.0	ltm	449	diff_vonmises	0.06522433242414076	3.7370789694615554	0.8073841380226947	190.80533090187285	0.7887345574905398	193.16014747712492	-0.0304176122733395	-0.5118398271458311	0.4814222148724916	88.81744616520905
19	7.0	perception	449	diff_vonmises	0.012328589537260858	0.7063761478341918	0.7853224864037924	266.55935570720845	0.7656782023692804	268.66922483647267	0.3731076729525	-0.6201973299430357	0.9933050028955357	97.35712881097021
20	7.0	wm	449	diff_vonmises	0.18684253877235585	10.705288905165435	7.7324918282958635	0.46682125823365694	0.08182383135054513	3.0753253775649663	-0.021409229051126855	-0.4999927381369895	0.47858350908586267	47.28412353205931
0	1.0	ltm	450	diff_vonmises	0.1843814824355634	10.564280763923302	2.6839799957946817	0.5021612684771619	6.944935409561668e-14	1.7525032489863366	0.02954590715825911	-0.27748076108029074	0.30702666823854985	83.93383398963516
1	1.0	perception	450	diff_vonmises	0.028832234725307444	1.651965363690651	8.646729267803078	0.6649967542173238	0.023402606686206955	2.043620911108495	0.43514353564435804	-0.32598220236273523	0.7611257380070933	45.95486959334531
2	1.0	wm	450	diff_vonmises	0.13803151385990164	7.908623183973892	3.6467865356936984	0.4084641872142905	1.3805950884576772e-16	1.770046978097873	0.016788569317040147	-0.28150877550855813	0.2982973448255983	71.7852621206454
3	2.0	ltm	450	diff_vonmises	0.08755524402595079	5.016545956924994	3.764807924626227	0.6820708900296006	0.3936340040446785	1.395993045303261	0.19033234409073452	-0.2063841309377828	0.3967164750285173	63.051113215205106
4	2.0	perception	450	diff_vonmises	-0.030036252296711814	-1.7209504889917127	7.749337758861122	1.0279793936703487	1.2354922671399393e-16	1.734183452549595	0.8458887420665089	-0.27600366023225487	1.1218924022987637	48.84212842681396
5	2.0	wm	450	diff_vonmises	0.060737689840735985	3.480013285248789	6.613252357847679	0.38152351848166904	0.06442906800404902	1.339689691121899	0.1561600885381845	-0.2138344591857153	0.36999454772389984	51.89762182930403
6	3.0	ltm	450	diff_vonmises	0.2602796567885249	14.912925827096062	2.344825313303592	1.181544398864165	0.6132022737363151	1.5970915378923183	0.2423915363465981	-0.1677347302221327	0.4101262665687308	74.62540748562847
7	3.0	perception	450	diff_vonmises	0.008951970744284285	0.5129101419720759	5.922609398034324	1.5033986342297303	3.576774340849453e-12	2.1497585837737287	1.0834977357139148	-0.3421344748788218	1.4256322105927366	56.00797502603385
8	3.0	wm	450	diff_vonmises	0.03597621990213266	2.0612855632267566	3.97219252895542	0.75294633103672	0.3790698387053878	1.5976026681372397	0.2182351261423447	-0.24069124879421572	0.4589263749365604	61.74507313570484
9	4.0	ltm	450	diff_vonmises	0.12974102558909503	7.433613195953961	1.043023090388302	135.08243278475135	1.0267886335591991	136.13402158079546	0.04883184165321808	-0.2551784463852478	0.30401028803846586	80.25458778099824
10	4.0	perception	450	diff_vonmises	-0.07720936073754617	-4.423770509164481	3.1105793621609275	1.9184952151421233	4.8862570525692146e-14	3.522213165666133	0.72196305652001	-0.5580288688686467	1.2799919253886567	77.88725639855082
11	4.0	wm	450	diff_vonmises	-0.07210227995834745	-4.13115633488401	1.1767668724908587	213.7641745471773	1.1606349723515483	215.6395987753823	-0.05748739119967183	-0.42873549539789835	0.3712481041982265	71.88946225513021
12	5.0	ltm	450	diff_vonmises	0.08443386450784661	4.837704084279046	1.7732206617850013	1.0058905201460844	1.3804375717881353e-11	1.5304728666288776	0.23878734108994834	-0.22967683290870947	0.4684641739986578	102.5976055755497
13	5.0	perception	450	diff_vonmises	-0.031261896937322356	-1.7911747540815253	2.4536339122505937	1.7794622451291597	3.824785670741663e-19	2.040862614885196	0.712427927355741	-0.31714515236601865	1.0295730797217597	87.81014212188995
14	5.0	wm	450	diff_vonmises	0.010478567628408922	0.6003777004502395	0.694452924184405	128.0398697545375	0.6795997182820437	128.61189284972724	0.2016997237596172	-0.2224894402568136	0.4241891640164308	106.35175951578466
15	6.0	ltm	450	diff_vonmises	0.35844356273580114	20.537303338394153	0.5493376039357126	104.24757019373283	0.5371319511273953	104.50826655385966	0.17313478365588963	-0.16067085509962986	0.3338056387555195	120.60195830956235
16	6.0	perception	450	diff_vonmises	-0.07991981970965575	-4.579068368809727	1.918304121912353	1.4352009743584664	3.399935656358333e-19	1.772832827839585	0.4397448387961513	-0.26658454950707317	0.7063293883032244	98.9430459661988
17	6.0	wm	450	diff_vonmises	0.06281077438113196	3.5987922799872964	0.7353834597155107	150.00374256211632	0.7217566580828708	150.6071421124726	0.21578952668139806	-0.23017126185514947	0.4459607885365475	103.26381059088436
18	7.0	ltm	450	diff_vonmises	-0.007836830693790493	-0.44901732351277607	1.2263196249829014	5.169984737020963	0.6985579390555913	6.37586430614979	0.1726309682604168	-0.32833621351020315	0.5009671817706199	86.82806339370603
19	7.0	perception	450	diff_vonmises	0.03027023667532645	1.7343568063583223	2.291647768572848	1.9893911272068836	0.09536970927664482	3.2532211147021552	0.5453468387168768	-0.46074495728840453	1.0060917960052813	86.69861672002727
20	7.0	wm	450	diff_vonmises	0.2488619883236811	14.258741612180899	6.660345673304366	0.49314464932113844	2.1894933745067805e-24	1.7727127878969418	0.2152686731088635	-0.2821351869212061	0.4974038600300696	52.749225120175
0	1.0	ltm	451	diff_vonmises	0.042341214028837254	2.4259728633124875	2.1053455030650605	1.3964875573812072	0.3001838110556195	4.464510570554253	-0.19502523780034953	-0.6047538659236189	0.4097286281232694	74.79405374311744
1	1.0	perception	451	diff_vonmises	0.07981056321158207	4.572808432585726	12.819280720050216	0.6632848405002271	0.05883197208364436	3.813392880956042	0.29436110457165165	-0.6234073967404004	0.917768501312052	37.40669271645967
2	1.0	wm	451	diff_vonmises	0.1050080512285619	6.0165181502901355	3.731621342292929	0.5359260556070273	0.09906786309020046	3.933982628097747	-0.29297208284273685	-0.6173007900454525	0.3243287072027156	64.22530514527307
3	2.0	ltm	451	diff_vonmises	-0.03104601222433761	-1.778805471166106	2.2065220449236387	1.2987940983040869	0.38349523865629925	2.6075956376527603	0.12361464805455524	-0.3225167249716388	0.44613137302619404	76.8091696961394
4	2.0	perception	451	diff_vonmises	-0.036948042120722946	-2.1169668747890205	6.993370763448898	1.1771840928358988	0.19047892205777367	2.669783362418276	0.708608686296849	-0.4372005388584902	1.1458092251553391	49.77856097691492
5	2.0	wm	451	diff_vonmises	0.09506915447001875	5.447061313009359	5.940771940484875	0.39728747482480925	0.058914705526067146	2.2130367673071842	0.0040944715624705585	-0.3528356847848542	0.3569301563473248	54.22706385596442
6	3.0	ltm	451	diff_vonmises	0.12381938112125974	7.094327960170006	0.9787984665575908	101.85529763933738	0.9538572416241492	102.8334823099644	0.1561718303395523	-0.2731820450659139	0.4293538754054662	86.44547966706074
7	3.0	perception	451	diff_vonmises	0.0365974348633294	2.0968785586737133	4.924568882278931	1.8166666458583656	0.16888217237205258	2.9043619993742413	1.0191589047086087	-0.44839692276607623	1.467555827474685	59.48318034170782
8	3.0	wm	451	diff_vonmises	0.15752500694086558	9.025518065480597	3.230961976154438	0.6540130448664462	0.16628857768178237	2.242263999457101	0.028202285719133913	-0.3367649033742592	0.3649671890933931	69.24409400616858
9	4.0	ltm	451	diff_vonmises	0.15191301435360863	8.70397457557207	0.7560848407894879	205.49516223167186	0.7434149826677134	207.5523712485402	-0.10541421653413607	-0.41836407862074054	0.31294986208660447	88.58655369996049
10	4.0	perception	451	diff_vonmises	-0.05972944418901058	-3.4222450646925062	2.68802899783001	2.3177472260678718	0.1526731359827901	4.273519346386816	0.6372508089036081	-0.6032173509835607	1.2404681598871687	78.41018601075248
11	4.0	wm	451	diff_vonmises	0.09519267213100716	5.454138353679323	2.2357743593967	0.9326344115784609	0.1359506240004019	3.5956597750282895	-0.13815708060565857	-0.5192143771882374	0.3810572965825788	80.43574117899533
12	5.0	ltm	451	diff_vonmises	-0.02261409478243631	-1.2956921885424162	1.993765362697788	1.1019129216265753	0.01220139080474995	2.757792171617196	0.12308595883853302	-0.4230545776654461	0.5461405365039791	96.22443280469454
13	5.0	perception	451	diff_vonmises	-4.596638886198725e-05	-0.0026336800812490242	2.0672606293262743	2.5078745055916296	0.08696100868723855	3.9863653398357592	0.6290778020316745	-0.5596335240328084	1.188711326064483	91.39500599468707
14	5.0	wm	451	diff_vonmises	-0.07996506863570978	-4.581660941300122	0.5498781526330728	258.14507771595413	0.5393226529140768	260.0450012770926	0.029712814090473216	-0.460468953464261	0.4901817675547342	110.99347739749459
15	6.0	ltm	451	diff_vonmises	0.24234808010356582	13.88552216303272	0.4466466511274206	153.0235039456281	0.4329762355737613	154.70888608246412	-0.007938529264215788	-0.41445911533289426	0.40652058606867847	122.41530672366002
16	6.0	perception	451	diff_vonmises	-0.05365007579985144	-3.073922913888442	1.0513100948459628	3.39368462122497	0.1280022416270677	5.1285745931849025	0.2686081609246078	-0.5695857099080943	0.8381938708327021	117.65881672381978
17	6.0	wm	451	diff_vonmises	0.02496710720856055	1.4305098697011736	0.586867963572341	223.0676396627124	0.57230814479793	224.95210302825583	0.12283417014972287	-0.49839867655538583	0.6212328467051087	109.870367450697
18	7.0	ltm	451	diff_vonmises	-0.00765315295759794	-0.43849336443842546	0.9653718009466943	238.20044637256186	0.9477657326617841	240.63029259360297	-0.01022416876425325	-0.5443443363551026	0.5341201675908493	81.2862960635349
19	7.0	perception	451	diff_vonmises	0.05105225931327784	2.9250789932582704	1.8868987060507818	3.041213156717993	0.33334321239858217	5.1785339072385606	0.3955903060814925	-0.5951745730392336	0.9907648791207261	84.66365020414639
20	7.0	wm	451	diff_vonmises	0.3001577713800366	17.197773488128746	2.830918065903322	1.3945635721057172	0.33846198066182903	3.9334415517951316	0.02995152697001302	-0.5605838825615046	0.5905354095315176	68.69243274672095
0	1.0	ltm	452	diff_vonmises	0.03091641150030764	1.7713798966573493	0.9065400623944873	256.6686244280625	0.8909188381412495	260.15915082897925	-0.35675744750884064	-0.6816641051986423	0.32490665768980165	74.85143131122166
1	1.0	perception	452	diff_vonmises	0.07718745101627703	4.422515174605451	6.858713635339256	1.0811825595117823	0.070352687079796	3.9497165959856746	0.4336339014001175	-0.632519776829059	1.0661536782291765	50.875386408264205
2	1.0	wm	452	diff_vonmises	0.04849187766113952	2.778379930648012	5.756765125649782	0.3381518688826161	0.028082998029958634	3.629888381106801	-0.27809660545598125	-0.577712005779468	0.29961540032348677	55.16502737228993
3	2.0	ltm	452	diff_vonmises	0.13180622629921881	7.551940480491474	3.87775556801052	0.6895061957216391	0.18872249730705623	2.606615769361585	0.024556285321088944	-0.403737532732686	0.4282938180537749	63.200245017096734
4	2.0	perception	452	diff_vonmises	-0.019669352652462956	-1.1269708927405786	8.202065627212956	1.3109714123992184	0.0802299941351447	3.068633797481807	0.9452290833746498	-0.49475248446438275	1.4399815678390326	46.82752451160334
5	2.0	wm	452	diff_vonmises	0.058532298325416815	3.3536536592470396	4.3456740577093065	0.5602686722111108	0.09743130844914549	2.5401935878667135	0.005965640350767243	-0.3982541632043547	0.40421980355512194	61.983823101141866
6	3.0	ltm	452	diff_vonmises	0.25144235217531363	14.406585570487564	6.419850761942178	0.3375380073865021	0.061347827629109467	1.147870314091918	0.13987005556826335	-0.18281669292704436	0.3226867484953077	52.71471034751647
7	3.0	perception	452	diff_vonmises	0.07099354593435224	4.067630554706528	5.980796563089315	1.6798728111424388	1.6573799837970314e-16	2.3562481018445727	1.2265317619869014	-0.3749983069877321	1.6015300689746335	55.71861237194324
8	3.0	wm	452	diff_vonmises	-0.12734761170186007	-7.296480681587397	7.025737252101633	0.3517163595642679	0.04127339403484691	1.3675240262248023	0.13804996060184632	-0.2180377235956407	0.35608768419748704	50.62601478046548
9	4.0	ltm	452	diff_vonmises	0.5618049828445776	32.18905442641391	0.30607983073391404	116.56966001749034	0.29439132340962093	118.3803690423663	-0.13478678071330918	-0.39048039175308524	0.25569361103977606	134.17192555406515
10	4.0	perception	452	diff_vonmises	-0.029052618414821287	-1.6645924189733157	3.8878459503699596	1.7773866233969664	0.019482615233850226	4.4137639263067525	0.6291523186281093	-0.691678354687188	1.3208306733152972	68.73667042725972
11	4.0	wm	452	diff_vonmises	0.2402503452992552	13.76533081220802	0.7555900979877342	161.49202581293136	0.7415076187073302	163.7602486977269	-0.2292671738393537	-0.4267683262639572	0.19750115242460353	81.91287487702252
12	5.0	ltm	452	diff_vonmises	0.3087159937850006	17.688123512067488	0.6969291647787578	94.17590125840084	0.6720588798208995	95.55502979645584	0.060978388650301696	-0.3353289966109312	0.3963073852612329	99.68301219003561
13	5.0	perception	452	diff_vonmises	0.03343849295327274	1.915884519500472	2.560815532269452	2.3956573505742935	2.4315073446066752e-20	3.5129564693296587	0.8728397853516309	-0.5505609548313827	1.4234007401830135	85.95022890976131
14	5.0	wm	452	diff_vonmises	0.1297021224094906	7.431384207952988	0.5916455224644307	69.10779641259597	0.551557825942141	70.65652809539051	0.12563506912492883	-0.4251082840741951	0.5507433531991239	111.33972433668438
15	6.0	ltm	452	diff_vonmises	0.4006282855413492	22.954309915081332	0.7803305242843905	122.19170552174856	0.7640283356293611	123.25016318826296	0.06626441114488557	-0.26098533699327753	0.3272497481381631	94.29104850299171
16	6.0	perception	452	diff_vonmises	-0.12892616223239003	-7.3869249647349005	1.1853670836829353	2.18550361530133	1.3459021928333526e-13	3.005228358531916	0.34437239107061257	-0.40144550621006825	0.7458178972806808	121.15178291020483
17	6.0	wm	452	diff_vonmises	-0.05149487255815648	-2.9504388641464074	0.3906805003111842	189.74125292793903	0.38073034018458696	191.00004768589932	0.062430586880267924	-0.3662887149722778	0.4287193018525457	131.95250100658484
18	7.0	ltm	452	diff_vonmises	0.197592700532393	11.321227803098493	0.9717372071697805	97.51243206308068	0.9457356852830613	99.00939350750318	-0.014934895063476006	-0.33285925101615454	0.31792435595267854	80.86392327545917
19	7.0	perception	452	diff_vonmises	0.020666068423687848	1.1840784998058917	0.902530016953908	288.2914486175275	0.8864741565368309	289.4725753704859	0.50367114071841	-0.4536800641349181	0.9573512048533281	93.58853914452749
20	7.0	wm	452	diff_vonmises	0.006435696382192693	0.3687382409272541	1.7967546716148497	0.5625756312274548	0.026407907159907117	2.2454977814423405	-0.0949362097686055	-0.34052790322372495	0.24559169345511944	98.45698117889887
0	1.0	ltm	453	diff_vonmises	0.21250390912655973	12.175577122983448	1.0229556269522333	9.2924400256315	0.6674559592021797	12.442992627989142	-0.24800107522435377	-0.6207735342206304	0.37277245899627665	80.7929882996853
1	1.0	perception	453	diff_vonmises	0.09799537993781625	5.6147216822178505	4.927318490745489	1.218046081890288	0.19187408886684398	4.150196270059263	0.254958822188489	-0.6606256795385818	0.9155845017270707	57.44355803169489
2	1.0	wm	453	diff_vonmises	0.12251099119872527	7.019362739651332	4.959643827699184	0.3944366796492363	0.020287647515877482	3.378415546292552	-0.2080995677618217	-0.5352548538830901	0.32715528612126843	59.93195236485576
3	2.0	ltm	453	diff_vonmises	0.07099583913247526	4.067761945280564	2.8058295847099264	1.2837905193265786	0.4850520109588643	2.8230331187022393	0.12051220182122802	-0.3816182398914897	0.5021304417127177	67.54437963037046
4	2.0	perception	453	diff_vonmises	-0.02912687627409653	-1.6688470809054636	7.544415168683663	1.2240741823755426	0.024877394635595133	2.8044986353910812	0.8598782573172759	-0.4459101232425451	1.305788380559821	49.24928205973751
5	2.0	wm	453	diff_vonmises	0.07100313285640203	4.068179844878502	5.231392382229349	0.5187878265004698	0.0899068834056208	2.2953244393015506	0.06194613293016604	-0.3642023671384052	0.42614850006857125	57.203536344602014
6	3.0	ltm	453	diff_vonmises	0.23586713789120578	13.514191526996312	4.818087376463738	0.5075481281308243	0.018420825748313937	1.42469975864353	0.20047098787419784	-0.2246581201172277	0.42512910799142556	61.698920321387305
7	3.0	perception	453	diff_vonmises	0.04887728243204578	2.8004619974251472	5.4139122470303604	1.7288033174986566	7.910931602659292e-16	2.7635419579767846	1.123932252456348	-0.4398003363820347	1.5637325888383826	58.62665105137384
8	3.0	wm	453	diff_vonmises	-0.0052451472652320485	-0.3005248012223822	4.1934578125092825	0.587577454475543	0.09372153936663355	1.8974322422685828	0.13257185539015276	-0.29433177726418797	0.4269036326543407	63.94363520802423
9	4.0	ltm	453	diff_vonmises	0.6697591477697559	38.374372457485855	0.483457626465808	207.0305349392379	0.47287200540527063	209.01683190774483	-0.07189369611055696	-0.43842959590575603	0.36653589979519907	114.32498385540035
10	4.0	perception	453	diff_vonmises	-0.0671545386191257	-3.8476716380241975	3.5064177760697404	1.9407207568105147	7.0523497603097e-18	4.702381303843752	0.6393077358200475	-0.7471579043219249	1.3864656401419724	73.24921473651918
11	4.0	wm	453	diff_vonmises	0.07499926569424262	4.297141390860404	0.8142015892994008	169.9699188133233	0.7952259330245695	172.680746369697	-0.20475598982548604	-0.5345584108613721	0.3298024210358861	82.75813053560805
12	5.0	ltm	453	diff_vonmises	0.09999048363003434	5.729032703472915	1.9600914786891392	0.9385062282441579	5.976340509372983e-15	2.14573490623983	0.13677904217991788	-0.33201597154267076	0.46879501372258864	97.93275727455872
13	5.0	perception	453	diff_vonmises	-0.024882496290934874	-1.4256620212204931	2.145413527665617	2.5163383501268792	8.343563643619585e-17	3.346470729587131	0.8215162197373705	-0.5140623425130029	1.3355785622503733	93.80898250725048
14	5.0	wm	453	diff_vonmises	0.07291428714960506	4.177680919877343	0.6605398069015538	151.34972710838542	0.6425288958601276	152.60958443763178	0.1734262452428723	-0.36629736188991124	0.5397236071327836	105.64572459044763
15	6.0	ltm	453	diff_vonmises	0.4235236714345935	24.266118897087594	0.639490030623908	149.5376674721829	0.6264961471149602	150.34308007369043	0.15090516344954352	-0.2569748686710458	0.4078800321205893	108.42713702264513
16	6.0	perception	453	diff_vonmises	-0.06408018674516895	-3.6715242509083406	1.2846380670346504	2.249264659135105	9.868246973005287e-16	2.873188217833673	0.4304143245540075	-0.38928970849531347	0.819704033049321	117.60350736842497
17	6.0	wm	453	diff_vonmises	0.12921144739459275	7.403270600486822	0.630655234796053	205.5100545782862	0.6193016281833028	206.54170353933543	0.1648686214886652	-0.3161834084274098	0.481052029916075	108.5356509159522
18	7.0	ltm	453	diff_vonmises	0.04271627271125302	2.4474621428846484	2.1037358796307215	1.4923320603648342	0.3684852842431874	3.5758555351436665	-0.001781136093487734	-0.45344085045306926	0.4516597143595815	76.01734801453495
19	7.0	perception	453	diff_vonmises	0.0364336308497145	2.087493280026276	0.9481321115533482	446.6428290555995	0.9351328200315959	448.27764079182396	0.5646916884089137	-0.5698791756183965	1.1345708640273102	90.40623075174858
20	7.0	wm	453	diff_vonmises	0.16452292639831856	9.42646931576513	3.1696984011288354	0.6161150180976092	5.826390000412295e-17	2.7534016380694952	-0.0219265106956541	-0.43748244569852124	0.41555593500286714	77.13486222655746
0	1.0	ltm	454	diff_vonmises	-0.015468352233399945	-0.8862712989955778	2.0950735546349395	1.8750216964924467	0.3769484630434567	5.442948467126109	-0.2244114693133069	-0.7175879244170847	0.49317645510377783	72.65254756633888
1	1.0	perception	454	diff_vonmises	0.0558324988684603	3.1989665448317197	13.013170392139127	0.7462987261223522	0.05726335320376801	4.189507296120734	0.35774704543748703	-0.68450628310967	1.0422533285471571	37.14473982580992
2	1.0	wm	454	diff_vonmises	0.1026450840890878	5.881130106070169	2.7218190707971806	0.7621702341146082	0.12367466848094737	4.595632635095257	-0.3525165977634282	-0.6976574580306291	0.34514086026720087	72.13795087328782
3	2.0	ltm	454	diff_vonmises	0.0016446743050731218	0.09423289635430147	2.827698837908228	0.8388786640179687	0.15197028853880987	2.365935421229467	0.09529039299514486	-0.34541035121522046	0.4407007442103653	74.70772584178658
4	2.0	perception	454	diff_vonmises	-0.05019741113554032	-2.8760998005494613	7.079487259538739	1.2196420134039059	0.1956852889155398	2.7197302477890526	0.7486339543138033	-0.44638398385876205	1.1950179381725654	49.477638843233876
5	2.0	wm	454	diff_vonmises	0.03169653039796468	1.816077417011496	4.467144470086793	0.5281113300909601	0.09206164124984324	2.456027656027845	0.0034213213864099923	-0.3859416831794517	0.3893630045658617	61.30596577642888
6	3.0	ltm	454	diff_vonmises	0.0800001382525593	4.583670282334741	1.9954305518285345	0.9546469686129535	0.19826240045638643	1.9593512276930194	0.11527157297365681	-0.2552140259697329	0.3704855989433897	86.24159234569268
7	3.0	perception	454	diff_vonmises	0.04714965505156688	2.701476239952464	5.03790144691982	1.7760366396335192	0.1431066437100437	2.6920323228691436	1.0543246353273974	-0.41644126529034586	1.4707659006177431	59.174261582779735
8	3.0	wm	454	diff_vonmises	0.05609916604152507	3.2142454483830156	2.9014194416535717	0.7977939447205195	0.22363989883719934	2.248645577028528	0.0705945721732204	-0.3252993154700145	0.3958938876432349	71.57758068003156
9	4.0	ltm	454	diff_vonmises	-0.014130348504212601	-0.8096093323403778	0.6803382060033353	125.90655572269738	0.6623527296062679	127.87137527938815	-0.1140390680314809	-0.3936042177447501	0.2795651497132692	93.13378225410054
10	4.0	perception	454	diff_vonmises	-0.03557885946501215	-2.038518487234278	2.3926143964875393	2.7649956005949825	0.24691868071859374	4.666568920644587	0.6515514347207846	-0.6084914846030524	1.260042919323837	80.17406826930048
11	4.0	wm	454	diff_vonmises	0.15916796521531298	9.11965264052253	0.7174042199223567	227.34868736604432	0.7037527161844772	229.91523338159178	-0.140347152006143	-0.517681968937211	0.37733481693106796	90.75251125932036
12	5.0	ltm	454	diff_vonmises	0.04923723799433178	2.8210859319563935	2.1206490543866816	0.9683821125669654	3.221828186320019e-16	2.6752129871226464	0.09174904667584388	-0.41832663772773016	0.5100756844035741	94.32850538023649
13	5.0	perception	454	diff_vonmises	0.03818625494092972	2.1879112435258596	1.8320093467193204	3.01093027102436	0.1474158020058233	4.514654557762318	0.6446527611382756	-0.5808040296376571	1.2254567907759326	94.0410405749526
14	5.0	wm	454	diff_vonmises	-0.022376463376488707	-1.2820769119018587	0.5150701981656112	251.688666378178	0.5036459440876657	253.6714042312343	0.04760413907086303	-0.5007907118634591	0.5483948509343222	115.60282504870956
15	6.0	ltm	454	diff_vonmises	0.4091021520920372	23.439826704592836	0.6430106694380018	117.55737222641869	0.6233795939706602	119.24885449055041	-0.018623121788067465	-0.37402129524578775	0.3553981734577203	100.57808422384832
16	6.0	perception	454	diff_vonmises	-0.04055489212100644	-2.323624157142025	0.9220800896641294	4.226147512584977	0.16554601535477398	5.907186165494276	0.27976011231245757	-0.5727699647035739	0.8525300770160315	120.71948478700983
17	6.0	wm	454	diff_vonmises	-0.034214697179184204	-1.960357745685418	0.4776251252684033	242.00897228618788	0.4653012831572388	243.9531161092206	0.08771309519476489	-0.5289690649228049	0.6166821601175698	121.2355993580409
18	7.0	ltm	454	diff_vonmises	0.052228704943305185	2.9924843626854467	1.134529806701488	179.74614471776707	1.1117726329845086	181.86502060894998	-0.004939937324138555	-0.49352105786278955	0.488581120538651	74.86603678013483
19	7.0	perception	454	diff_vonmises	0.09541899984774055	5.467105976634978	2.084829785764508	2.101673081696012	0.1940903884358493	3.8217581647313614	0.3800284095048858	-0.49815128465972813	0.8781796941646139	85.94261202557644
20	7.0	wm	454	diff_vonmises	0.24276893402506047	13.909635316525893	0.9171769990049828	177.85457151710213	0.8963609584756185	180.1837157995089	-0.04517347114860826	-0.506746955533135	0.4615734843845267	82.65689781930504
0	1.0	ltm	455	diff_vonmises	-0.0776360866949724	-4.448220105533683	1.2562131791698812	118.33204846778169	1.2340770560580563	119.35361832374163	0.08673962684251535	-0.2708498657223686	0.3575894925648839	73.96244059877762
1	1.0	perception	455	diff_vonmises	0.020602248706864657	1.1804218993822029	11.65707887381647	0.6915937928291525	1.325165518073796e-18	1.6681569214403154	0.6659413930975056	-0.2654954198303625	0.9314368129278681	39.719903424303936
2	1.0	wm	455	diff_vonmises	0.06454700836405637	3.6982711594560542	3.236733476837935	0.38321913962014326	1.6541387675064458e-14	1.506372866514483	0.02226851252019263	-0.2393421357140423	0.26161064823423497	76.3169012284097
3	2.0	ltm	455	diff_vonmises	0.08821525991548693	5.054362081806988	6.200036584016145	0.3272131382689413	0.024205894541691645	0.827161694683074	0.18305932623380305	-0.13099683914324675	0.31405616537704983	54.309289097168374
4	2.0	perception	455	diff_vonmises	-0.029549897036680678	-1.693084385247941	8.678905048271425	0.9897955785908492	2.4845924797581786e-17	1.2883858920940259	0.9403671158680991	-0.20505295017225103	1.1454200660403502	46.11657571834391
5	2.0	wm	455	diff_vonmises	0.016214816410453484	0.9290405458984518	6.844596116738602	0.3224212397124243	0.08710624754628447	0.9606812774491436	0.16339811064840415	-0.1540215535742968	0.31741966422270096	50.905920352593455
6	3.0	ltm	455	diff_vonmises	0.21333014851724788	12.22291715293734	3.501548955905039	0.47241613175736513	0.4824688244462671	0.6443247668343274	0.18066536040740666	-0.08717974673401697	0.2678451071414236	66.00078311674051
7	3.0	perception	455	diff_vonmises	0.033839403165401884	1.9388549826191663	6.153589407471378	1.3524554800249653	0.13266275721064705	1.4079522753872558	1.0540843097130206	-0.22093796540700414	1.2750222751200246	54.10024576813481
8	3.0	wm	455	diff_vonmises	-0.025305673835730038	-1.4499083085219644	3.954304210498373	0.6643941216402247	0.661449726383157	1.0264785941983334	0.22301404164241	-0.1472930824043472	0.3703071240467572	60.13207752820895
9	4.0	ltm	455	diff_vonmises	-0.15658104346793783	-8.971432942467326	1.5585022048231816	118.59490635239244	1.5431778168659158	119.16394485727535	0.06376571839279421	-0.1689312270633998	0.23269694545619402	66.41829533601691
10	4.0	perception	455	diff_vonmises	-0.062232907646863456	-3.5656829549927034	3.2084767078698637	1.7957960414684828	0.04382477333512749	2.7095759290036474	0.7713716120838567	-0.41280870746146026	1.1841803195453169	75.38166142598425
11	4.0	wm	455	diff_vonmises	-0.02673191723000892	-1.5316260355725573	1.2962270420741058	162.6351343881538	1.2809593865393787	163.8015862896874	-0.007376222151236789	-0.2840028573701545	0.2766266352189177	69.57085807146083
12	5.0	ltm	455	diff_vonmises	0.21944902339166594	12.573502858610137	1.1719170126038898	2.0176455950029193	0.39189077564608626	2.4391033510131983	0.20145247814136846	-0.1816132241788563	0.38306570232022474	102.18608782362358
13	5.0	perception	455	diff_vonmises	0.025038671346319093	1.434610192759231	3.0702583876397402	1.595756673159966	4.736856893081508e-19	1.7977530954585526	0.772794732188186	-0.28384018443293607	1.056634916621122	78.40837243325296
14	5.0	wm	455	diff_vonmises	0.05038008148209882	2.8865660404494555	0.579824350001067	126.89893137112279	0.5664977298484452	127.33037487289064	0.20734130601626077	-0.2145748426925298	0.4219161487087906	117.42091858876935
15	6.0	ltm	455	diff_vonmises	0.3427153243688603	19.63614166079271	0.9366192554931267	80.06304361412815	0.9219353201191489	80.37101141432771	0.12287270582328347	-0.11394166543172357	0.23681437125500704	91.5440254031275
16	6.0	perception	455	diff_vonmises	-0.1302111864962996	-7.460551431628824	1.7897627295617222	1.5346345988101682	4.255609470715902e-12	1.837731889804348	0.44757460491315776	-0.27184228199083976	0.7194168869039975	102.15509513900714
17	6.0	wm	455	diff_vonmises	-0.14282132905546258	-8.183059379327162	0.6303563948239916	131.7136703163372	0.6144277237863046	132.24936847790457	0.25417873936770974	-0.2535038819677329	0.5076826213354426	112.8947454145933
18	7.0	ltm	455	diff_vonmises	0.09579119704207927	5.488431305017198	1.1604439617173492	106.96919589031218	1.140951725126321	107.54882681134285	0.1744139328327563	-0.19078043759922636	0.36519437043198266	80.97530976001337
19	7.0	perception	455	diff_vonmises	0.014378473476747493	0.8238258460584266	2.9919030656233874	1.2614219137298344	1.5069428785362586e-15	2.0060727222426977	0.5056177559484325	-0.31719824171119926	0.8228159976596318	79.44447487655953
20	7.0	wm	455	diff_vonmises	0.29830621049293937	17.091686863786578	2.7666808626058597	0.520696394616869	4.008569099965511e-25	1.2315963408647665	0.1295336115459042	-0.19472784869628754	0.3242614602421917	82.63114297272688
0	1.0	ltm	456	diff_vonmises	-0.057378612145664025	-3.2875523102646333	0.8386422682234224	155.5472130309477	0.8204795812791288	157.6208461458624	-0.09843229633164441	-0.4280106083333415	0.32957831200169707	84.38820160039342
1	1.0	perception	456	diff_vonmises	0.038231470358248094	2.190501896107125	12.446339806736683	0.6521390774329209	5.403781279947249e-17	2.6768875499142246	0.48217258312951733	-0.42603988565595746	0.9082124687854748	38.42821849705342
2	1.0	wm	456	diff_vonmises	0.03715696951700508	2.128937532820644	5.470967130064703	0.3134465896480309	1.5015598001982101e-13	2.6352021254185245	-0.1342985581937653	-0.4194003977160273	0.285101839522262	58.31174513950927
3	2.0	ltm	456	diff_vonmises	0.042758419475852204	2.4498769746163127	3.05527528664797	0.5433768331548806	4.881123021455665e-14	1.8033090977241377	0.07256696405119684	-0.2862073969277789	0.35877436097897575	78.60377578648732
4	2.0	perception	456	diff_vonmises	-0.026316361667570898	-1.5078164556916736	7.839914384869431	1.1147647531678087	0.15231900142423035	2.397877303290317	0.7818641870022087	-0.3927145024418209	1.1745786894440295	47.46796023613669
5	2.0	wm	456	diff_vonmises	0.06024547629691431	3.4518115265686298	5.48315919523347	0.36062099398057806	0.03752099543684579	1.8941867239095322	0.015466287523484501	-0.3001530409116508	0.3156193284351353	56.963575933314246
6	3.0	ltm	456	diff_vonmises	0.15401583930109847	8.824457570118057	1.8520989179197187	1.5010870916994385	0.6193584659383203	2.2206395564127126	0.14129853913738843	-0.20629200267351006	0.3475905418108985	78.28722863810486
7	3.0	perception	456	diff_vonmises	0.035157228493294855	2.0143608120428773	5.031721144694441	1.870798911828292	0.26366029068457447	2.5332855458341172	1.1118979966716167	-0.38967702982948366	1.5015750265011003	58.33730490058264
8	3.0	wm	456	diff_vonmises	-0.015139739088193542	-0.8674431526827312	3.434688262049797	0.5865315135210035	0.27571857561974256	1.6954714949434726	0.06575232522542929	-0.2535919191539952	0.3193442443794245	65.55850641903183
9	4.0	ltm	456	diff_vonmises	-0.04211429750913434	-2.412971504431713	0.923901903285802	214.51321110475496	0.9130693981993202	215.96891541849075	-0.03128241360981576	-0.31638666078784183	0.28510424717802607	81.97430254450151
10	4.0	perception	456	diff_vonmises	-0.0354701930332315	-2.0322923593185007	2.361183008367037	2.7642502044194446	0.32937595760950006	4.356072836829968	0.6370109217552857	-0.5393308659928756	1.1763417877481612	78.96594170596336
11	4.0	wm	456	diff_vonmises	0.01910712578210493	1.0947576659402147	0.8204052589706129	165.85667478574322	0.806176402629293	167.77329356470983	-0.13360115420862684	-0.3817406265293535	0.24813947232072664	82.99726652732843
12	5.0	ltm	456	diff_vonmises	0.1921341369372544	11.008475146893295	1.092983992445555	4.437599699536876	0.5627729817798665	5.632413457190567	0.13796879506937554	-0.31718663724617135	0.4551554323155469	93.47359787542686
13	5.0	perception	456	diff_vonmises	0.039156582977012265	2.243506944736607	2.7798994524329235	1.85161838373081	1.2388915294228114e-15	3.016549618175804	0.6807311809737357	-0.47562988492441505	1.156361065898151	82.46733561059989
14	5.0	wm	456	diff_vonmises	-0.0662296494793436	-3.794679393797198	0.4575738157247049	213.88419335652307	0.4480517521319553	215.3527933142435	0.029451964944556153	-0.38129052832499966	0.4107424932695558	122.35264237514318
15	6.0	ltm	456	diff_vonmises	-0.18767361864582013	-10.752906274353206	0.0858128606678364	59.063049953454694	0.0699679314501788	60.27311877598136	-0.0517858032318923	-0.32228186620415755	0.27049606297226525	169.77011030871887
16	6.0	perception	456	diff_vonmises	-0.15382303891313767	-8.813410921599418	1.7346004870224017	1.5077587373795327	1.572709881544537e-17	2.8376426396154035	0.2617845325713989	-0.42940751758417406	0.691192050155573	103.59752224793908
17	6.0	wm	456	diff_vonmises	-0.19395536039812464	-11.112823564751368	0.45286879888162096	151.06242818144187	0.43834212726806837	152.5823096287517	0.048741690261152826	-0.40809605729612386	0.4568377475572767	123.72007559902289
18	7.0	ltm	456	diff_vonmises	0.08652237456982273	4.957366896300885	1.0150412433698528	169.1855316937597	0.9979571870368389	170.5466207698031	0.08189859671902155	-0.334830318530134	0.41672891524915556	81.93016313286839
19	7.0	perception	456	diff_vonmises	0.016956403943677156	0.9715303816916859	2.539559323678823	1.496677350661809	2.6785861571093706e-16	2.8305410902709336	0.4397525485538882	-0.44495246393571425	0.8847050124896024	86.31133842332963
20	7.0	wm	456	diff_vonmises	0.1958230782055771	11.219835912439821	4.184741312207633	0.4709106500660129	0.05213582939797943	2.118323494499025	0.016117458413838714	-0.3314700631038319	0.34758752151767064	64.5419078915883
0	1.0	ltm	457	diff_vonmises	0.027908736954211165	1.5990528390170957	0.7946533470022669	51.33527633117813	0.715402309400142	54.93842325209997	-0.25927926451866234	-0.7084949359093624	0.44921567139070007	85.98162619230797
1	1.0	perception	457	diff_vonmises	0.018173718360631575	1.0412773601236027	9.135541649273774	0.8301783425211702	0.0008318842304264668	4.0041848782879566	0.34876888656317584	-0.6371925206347304	0.9859614071979063	44.91268273952039
2	1.0	wm	457	diff_vonmises	0.10163642404824023	5.823338142766111	4.1848199634654994	0.5001868054065969	6.824677511688874e-12	4.032640669800685	-0.24767661863055496	-0.6417233318594032	0.39404671322884827	66.89229937452731
3	2.0	ltm	457	diff_vonmises	0.06997983502999897	4.009549198240696	3.5937128636418603	0.6482628203180955	0.012708364902708292	2.668019626247899	0.0398744671175707	-0.4198902871074105	0.4597647542249812	71.44310274475163
4	2.0	perception	457	diff_vonmises	-0.05504825317744632	-3.1540325766352977	7.066938000851224	1.26075626620031	0.0842659437748159	3.1405284170703456	0.7688265250418257	-0.503038507739596	1.2718650327814216	50.29220944864056
5	2.0	wm	457	diff_vonmises	-0.01574027513553017	-0.9018513336405886	3.4778262460941956	0.7683740774830231	0.1115503032300763	2.931313182394784	0.026964362981022894	-0.4483219803537818	0.4752863433348047	68.48304728316941
6	3.0	ltm	457	diff_vonmises	0.15359948985495586	8.800602504051476	3.0085445558945394	0.6190305054558592	1.3322439120220215e-16	1.9009319827892153	0.10354635847347943	-0.30155314694688046	0.4050995054203599	79.2144803214714
7	3.0	perception	457	diff_vonmises	0.0484708718879375	2.7771763884981273	4.950546314998132	1.9275207578844602	0.02097705276517461	3.0135668886221736	1.172786891205586	-0.4739830452543636	1.6467699364599497	61.022723166259965
8	3.0	wm	457	diff_vonmises	-0.10276852132506703	-5.8882025387265395	3.660289001187122	0.7056880353239947	0.03421864500461835	2.2698915742178434	0.14302980947387361	-0.35318484989333293	0.49621465936720655	70.04694693516123
9	4.0	ltm	457	diff_vonmises	0.10964229027506531	6.282040488909512	0.1878234401207687	96.43470981911457	0.17136794076442627	98.59830382126397	-0.132726618310393	-0.5160687816545426	0.3833421633441496	156.28485279176073
10	4.0	perception	457	diff_vonmises	-0.00749781889776106	-0.4295933783951396	2.1230984293880146	3.407994808724304	0.2779638986319346	5.965556460176322	0.5926654536115772	-0.7415533158963887	1.334218769507966	82.74351904136302
11	4.0	wm	457	diff_vonmises	0.25349428842024674	14.524152857152155	0.6846610070356465	254.41235973693	0.6727246179369798	257.18252237425475	-0.19569676306666395	-0.542087703510667	0.3463909404440031	91.0272054926136
12	5.0	ltm	457	diff_vonmises	0.23202893445697687	13.294278669302376	1.569914877943717	1.5318418913984124	0.17571414685680858	3.0236369556197564	0.11284012882993688	-0.37497306293408295	0.4878131917640198	95.92059281044166
13	5.0	perception	457	diff_vonmises	0.046040184365582486	2.6379082521520743	1.9693169461145899	2.6748727736963045	7.237840830863104e-19	3.956815634042983	0.737283530412176	-0.6031220297144073	1.3404055601265834	97.73164187103393
14	5.0	wm	457	diff_vonmises	0.043095650895184495	2.4691989116632596	0.5745823106743405	128.7921651052462	0.5515526220874584	130.5193814866538	0.11625080536018828	-0.4634431150377569	0.5796939203979452	111.66997958485864
15	6.0	ltm	457	diff_vonmises	0.44419178284648136	25.45031445149494	0.6132255303741169	134.18987752157264	0.5997053828957876	135.34472089292788	0.03697284265975753	-0.28156409611306543	0.31853693877282296	105.68465106476413
16	6.0	perception	457	diff_vonmises	-0.07815995388909763	-4.478235484782419	1.3456593847092144	2.0349877696303023	5.2805400884674574e-20	3.1629289905140694	0.32222433381196147	-0.4474205271596501	0.7696448609716116	115.47556210979604
17	6.0	wm	457	diff_vonmises	-0.04674245341469311	-2.6781453047487784	0.37922498413166655	203.20947845936573	0.36948601605442016	204.77159829612185	0.013188998306780775	-0.4138154577467361	0.4270044560535169	131.9465991333275
18	7.0	ltm	457	diff_vonmises	0.012012983248630859	0.6882932395079051	2.4834467313907327	1.539586326979812	0.5810099134726472	3.392220864343971	0.015167025438111437	-0.43457258465569826	0.4497396100938097	67.2296750508228
19	7.0	perception	457	diff_vonmises	0.10121842662435235	5.799388654529993	0.8132848089872553	164.08919733338328	0.7866319940659746	165.39308201823886	0.4425834205797088	-0.47010930153359176	0.9126927221133005	98.2522695882459
20	7.0	wm	457	diff_vonmises	-0.43185365766165096	-24.743391951300087	0.5077107634715283	2.175206002782793	5.78825046088913e-20	4.403450577142175	-0.16099020628467242	-0.505271795910176	0.3442815896255036	148.853930140567
0	1.0	ltm	458	diff_vonmises	-0.04215060709682749	-2.415051890562391	0.8942706641328967	367.57438336539246	0.8818668131271582	370.91162145204737	-0.19666910674979476	-0.6847900266237303	0.4881209198739356	80.45317234256805
1	1.0	perception	458	diff_vonmises	0.0630776550655759	3.614083416839497	10.431359575908408	0.6795811505036115	4.7896308852606e-22	3.6487016149049802	0.28373299500390914	-0.5807088971272322	0.8644418921311413	42.02115643096752
2	1.0	wm	458	diff_vonmises	0.09177858151939174	5.258525370758521	6.757170607631198	0.3649252200884028	0.024229336268471444	3.6484553822624286	-0.22396021055632126	-0.5817891666684774	0.3578289561121561	51.31057071531228
3	2.0	ltm	458	diff_vonmises	-0.08939167689605292	-5.121765809740943	2.4078863018539614	1.1425393435061826	0.17722535144681392	2.9553715458818237	0.10145217510001281	-0.41399683404554766	0.5154490091455605	79.27183738666076
4	2.0	perception	458	diff_vonmises	-0.04137847006842793	-2.370811697629323	6.427951715871794	1.2792320985975363	0.15640472818740828	3.20282708477305	0.6740319251767691	-0.5169546694725683	1.1909865946493374	51.954071879953034
5	2.0	wm	458	diff_vonmises	0.02167755246002937	1.2420322661331182	4.223581809490964	0.5371546594798796	0.0967935219544532	2.585855804720257	-0.02693518367671832	-0.4050781172744334	0.37814293359771506	62.61798505909269
6	3.0	ltm	458	diff_vonmises	0.04931077441910234	2.825299258736228	0.9955579752514131	151.16198521720784	0.9767145462934784	152.3424516019725	0.1412929310770039	-0.31329901040669483	0.45459194148369875	84.60455547394787
7	3.0	perception	458	diff_vonmises	0.06347028549064411	3.636579483104333	4.146726135171816	2.280133455854896	0.2571004255166116	3.277836752427518	1.1240741035116772	-0.48511878237630907	1.6091928858879863	63.6835768674556
8	3.0	wm	458	diff_vonmises	0.10719008897236197	6.141539703748128	0.961777105773829	5.505281529487665	0.5754330620396935	6.994735251655377	0.01633003296207458	-0.33661914769001294	0.3529491806520875	92.71371859667593
9	4.0	ltm	458	diff_vonmises	0.01653475522561378	0.9473716897095529	0.32787082586280786	154.9404159977379	0.316266356493228	157.00439504060722	-0.11596235017176326	-0.46776979300420507	0.3518074428324418	135.42488665358468
10	4.0	perception	458	diff_vonmises	-0.04089254888290008	-2.3429704645225837	1.6494476427889877	6.01845151139615	0.5865059464731405	8.157329432108599	0.6162924953472859	-0.6797946426999687	1.2960871380472545	83.49003808823943
11	4.0	wm	458	diff_vonmises	0.07501681343836343	4.298146802538502	0.5786412627006917	142.79198808485668	0.5615894050033022	145.18463465828466	-0.15863305597689958	-0.47446630899948516	0.3158332530225856	100.53072918258252
12	5.0	ltm	458	diff_vonmises	0.18922785454984956	10.841957432021792	1.0973144229304377	5.33788307605212	0.5579563984817962	7.116536568883346	0.08847502661364315	-0.4263361133091947	0.5148111399228379	91.37216469359743
13	5.0	perception	458	diff_vonmises	0.03643119763707538	2.0873538672113967	1.9531405976724814	3.194666821410747	0.16274836733929762	4.890329557753272	0.7147598096438327	-0.6312374195436418	1.3459972291874744	90.750923631424
14	5.0	wm	458	diff_vonmises	-0.07983464127604392	-4.574188004058234	0.4674240771694922	264.7059996578801	0.4579021762934795	266.64059595273574	0.0059843680776765495	-0.4785194297216613	0.48450379779933783	120.12554911660592
15	6.0	ltm	458	diff_vonmises	-0.2912582606906694	-16.687869085896445	0.00018944509624633526	4982.33631965336	1.268791645259271e-28	4984.051620122384	-0.1227706260189052	-0.4232122423825331	0.3004416163636279	177.5771015430929
16	6.0	perception	458	diff_vonmises	-0.1961163231114308	-11.23663760790895	1.3537418833374184	2.1004268408892823	3.7658574863013204e-16	3.728188326068937	0.26189880328831683	-0.5363087508676523	0.7982075541559691	115.05835350613629
17	6.0	wm	458	diff_vonmises	-0.2157317987203959	-12.36052157344446	0.4447668025933277	183.5531311319802	0.43182676137955556	185.42794652726838	0.0003378837027199211	-0.46737402187909893	0.46771190558181885	122.97611571276175
18	7.0	ltm	458	diff_vonmises	0.002507087513220565	0.14364553337748734	1.1324135339263341	126.55436996283727	1.1034956085463674	128.42321978282538	0.008658121907160421	-0.4382708726007216	0.44692899450788204	75.37526732378518
19	7.0	perception	458	diff_vonmises	0.0033235594069355424	0.1904259269784095	0.9789658698381556	151.11998642813091	0.943281875799077	152.64745222125597	0.5177289236346638	-0.5270227354022605	1.0447516590369244	89.38792303912047
20	7.0	wm	458	diff_vonmises	0.1582466150352362	9.066863163750511	3.0892509631126703	0.7871033472577099	0.1651854438337582	3.028494077527349	-0.04052936289063258	-0.4549206659660052	0.41439130307537264	69.86748996908213
0	1.0	ltm	459	diff_vonmises	-0.5871748677649667	-33.6426417590848	1.065047842489541	87.84830932400783	1.0409781135625964	89.58867859794557	-0.20843939083803287	-0.3523041933699034	0.1438648025318705	46.071551808024196
1	1.0	perception	459	diff_vonmises	0.05287078067273276	3.0292725921094306	11.0093615364988	0.7594973044596253	3.5792045953122416e-17	2.281123788353786	0.6303770076446211	-0.363052126449041	0.9934291340936621	40.88448773869621
2	1.0	wm	459	diff_vonmises	-0.13477302019838613	-7.721925249598923	8.584635278611334	0.19211242022006447	0.004841829405270094	2.300180991448162	-0.14678730389243827	-0.3662087976745328	0.21942149378209452	46.1620253031046
3	2.0	ltm	459	diff_vonmises	0.43287548233802847	24.80193819265884	2.374686490847495	0.40859571672221584	4.297491631402242e-25	1.7886177500778495	-0.051054918389735415	-0.28264488753734374	0.23158996914760832	89.09258775296937
4	2.0	perception	459	diff_vonmises	0.004971770018833968	0.28486143878886416	9.05778796738835	1.2275710883799285	0.269847695030245	2.536912959398215	0.9329381579457156	-0.43826766482310087	1.3712058227688164	43.74890277043551
5	2.0	wm	459	diff_vonmises	0.1702968787120607	9.757292414452353	6.083719223137094	0.23965912024448016	1.148712049738051e-16	1.8089248131156994	-0.05736861285070541	-0.2878981275013278	0.2305295146506224	55.23898818102248
6	3.0	ltm	459	diff_vonmises	0.2708016014830787	15.515788850364064	4.921421153545298	0.39756496265114405	0.512808100103775	0.8960198020974792	0.11855669256138593	-0.1462728811437107	0.26482957370509663	54.777263684000985
7	3.0	perception	459	diff_vonmises	0.03648946292391315	2.09069222223932	6.088947721526179	1.7331795163713644	0.3442794726684889	2.125353840223024	1.204553646715108	-0.34088943338079386	1.5454430800959018	53.05002713694208
8	3.0	wm	459	diff_vonmises	-0.13265623281951258	-7.600642266662907	10.097126368439975	0.2505731415224781	0.3720148149971083	1.1131453866295877	0.06511223396418139	-0.20893965933905775	0.27405189330323915	39.926109132338695
9	4.0	ltm	459	diff_vonmises	0.058977720861614964	3.3791744906712067	1.102943041474872	161.62446968730117	1.0902249980446015	162.91400012179938	-0.07756840639161311	-0.27939280797300015	0.20182440158138704	72.25554666633622
10	4.0	perception	459	diff_vonmises	0.003007186759533867	0.17229910952891295	3.5623304815618	1.7045184341073647	0.19931638152912937	3.3197058328552416	0.5910422850326692	-0.4887560718730073	1.0797983569056764	68.04429184838304
11	4.0	wm	459	diff_vonmises	0.4140672901092807	23.724308157680838	18.266360810208145	0.10173742985658416	0.20660365501782602	1.650485133219556	-0.14733418934653278	-0.30227176800118843	0.15493757865465566	29.984249380632093
12	5.0	ltm	459	diff_vonmises	0.34799518446657546	19.938655360811318	0.8404233996393059	131.18893531564368	0.8228737151099953	132.34327559151785	0.08395547281546811	-0.2873508336410726	0.3713063064565407	91.05080327530416
13	5.0	perception	459	diff_vonmises	0.06401539141648867	3.6678117520427973	4.231770062687029	1.5017134166187136	7.546472125897841e-22	2.7881364818698144	0.7467003613734102	-0.44349445503866125	1.1901948164120715	66.51226119861383
14	5.0	wm	459	diff_vonmises	0.05767116036613517	3.304314088601693	0.5829036589016675	1.7877497985283346	2.0744226241937155e-05	3.403718570614823	-0.07276595108748307	-0.3955425669501885	0.32277661586270545	147.84081136832816
15	6.0	ltm	459	diff_vonmises	-0.6431190194871822	-36.848005541207286	0.0002230400765689674	3890.5483361169686	2.755577306677628e-30	3891.8187213085216	-0.06407445348827423	-0.34028631082878746	0.27621185734051323	168.52436168258308
16	6.0	perception	459	diff_vonmises	-0.19605877296384647	-11.233340227342012	2.1167836831038613	1.0300685664763793	5.816961719213006e-19	2.420553511197904	0.16463858696162204	-0.37726917948958666	0.5419077664512086	94.373775607591
17	6.0	wm	459	diff_vonmises	-0.39372511862786885	-22.558787585664554	0.27314252007983353	82.2731250425919	0.2533179457991838	83.88251793919068	-0.03610890706805847	-0.4173539728323874	0.3812450657643289	144.0282615028862
18	7.0	ltm	459	diff_vonmises	0.9512742827974603	54.504001563628805	0.00027148105912899967	3787.943562904572	5.501255850303582e-27	3788.9385103364984	0.005321941403053643	-0.3220013321985107	0.3273232736015643	154.94701033040718
19	7.0	perception	459	diff_vonmises	-0.02054051832482641	-1.176885009023681	1.9650315584671152	1.4708637045969994	7.350716424053718e-17	2.5923800789345157	0.3381468671960035	-0.39784352729108086	0.7359903944870844	97.83458067364666
20	7.0	wm	459	diff_vonmises	0.19905866385569065	11.405221314444422	2.920940116171312	0.38294414634252455	0.17630879774252484	1.6853082343577506	-0.07047105794601177	-0.25312633915564203	0.18265528120963026	69.97012443579467
0	1.0	ltm	460	diff_vonmises	-0.11809065544345584	-6.766096156843621	1.0744485181369874	333.3530848133728	1.060571493855613	335.5977894746053	0.07662495758373211	-0.539429643182693	0.6160546007664252	78.48721506710444
1	1.0	perception	460	diff_vonmises	-0.028647391659418486	-1.641374636142955	7.263683135547958	0.8653632128841505	2.465362638855164e-19	2.7186301596465827	0.4804615227973351	-0.43268298010884365	0.9131445029061788	50.476298216987374
2	1.0	wm	460	diff_vonmises	0.10996148120745398	6.300328782194229	4.586295936869672	0.5006581585499993	1.1363017157785138e-18	2.4635114988942735	0.02242210352187135	-0.39203698218400806	0.4144590857058794	63.823793110800665
3	2.0	ltm	460	diff_vonmises	-0.06718485604848567	-3.8494086987722107	3.397799417310257	0.6553378554456406	1.243840635456741e-19	2.254500114897609	0.101639491760946	-0.3582997207285475	0.4599392124894935	74.43996466662577
4	2.0	perception	460	diff_vonmises	-0.07112078429261569	-4.074920775627197	6.2541933001098915	1.2270852129091907	6.114979915617428e-18	2.577440810038623	0.78744138365854	-0.41020801943154395	1.197649403090084	54.4644428519029
5	2.0	wm	460	diff_vonmises	-0.13210581408495356	-7.569105596207744	3.4793666506747067	0.7580238234656139	0.12105358441478126	2.140813172636545	0.15648877879722073	-0.32364169473014287	0.4801304735273636	69.24406242284641
6	3.0	ltm	460	diff_vonmises	0.0009608730700517209	0.05505397156174191	2.0533947889129456	0.9046687206993729	0.21066304973122474	1.731967383057711	0.13764193020446736	-0.22385190897601415	0.3614938391804815	85.39409917489132
7	3.0	perception	460	diff_vonmises	0.07052638365604286	4.040864127811684	4.46799065065328	2.02993243751877	0.07474931134962369	2.319888530189295	1.2599178404752014	-0.35566147344938187	1.6155793139245833	63.742270423017175
8	3.0	wm	460	diff_vonmises	-0.21719847954493293	-12.444556194583198	3.4527694347416884	0.792206001478584	7.716476253447498e-17	1.4793714456204676	0.326126473555974	-0.23488633942450524	0.5610128129804792	73.83197696733492
9	4.0	ltm	460	diff_vonmises	0.026271384001693623	1.5052394252645562	0.0009591060784285433	1274.2564152010912	1.5728429863563398e-19	1275.3380270028827	0.022406248408088913	-0.36660071363417046	0.3890069620422594	179.8924791053132
10	4.0	perception	460	diff_vonmises	-0.030715511201595987	-1.759869157438254	1.0544132987104784	117.74684425461191	0.994662900734378	119.48964243422252	0.7340916151344246	-0.648738212253166	1.3828298273875905	87.23645883865967
11	4.0	wm	460	diff_vonmises	0.13243536227585503	7.58798731669257	0.8834312919496806	162.69555120349355	0.8688524094679677	164.2771698867573	-0.048836955010322924	-0.33689563831727654	0.2880586833069536	83.35309538024006
12	5.0	ltm	460	diff_vonmises	0.4540153252815613	26.013161972892686	0.9010902362297315	163.5496046857153	0.8855704976131353	164.3942436842848	0.21331834005493278	-0.26686150748840554	0.4801798475433383	91.7389809610359
13	5.0	perception	460	diff_vonmises	0.06642395025026682	3.805812007927237	2.253568151919666	2.536754194110577	7.99818312514598e-13	3.1024243632261235	0.9121790597580358	-0.4782581934197211	1.390437253177757	91.57622557932959
14	5.0	wm	460	diff_vonmises	0.03807861831566825	2.1817441191773463	0.5473781143116232	154.02269194274652	0.533122159831256	154.86767239314824	0.19902831354020378	-0.3125150312029419	0.5115433447431457	118.31855918253194
15	6.0	ltm	460	diff_vonmises	0.7017218409828969	40.20569988047028	1.1155498647979876	80.36609003766088	1.0992313466595947	80.94512334919422	0.03663500334560155	-0.14532337270428286	0.1819583760498844	78.01768956764408
16	6.0	perception	460	diff_vonmises	-0.2401076858428793	-13.75715702745005	1.48078644119553	1.6930844448951157	1.790106956819525e-18	2.140169168567354	0.3870342515949505	-0.3029705837570176	0.6900048353519681	110.86307589777944
17	6.0	wm	460	diff_vonmises	-0.4350259000390402	-24.925148051117038	0.2912289485400968	69.0043540780652	0.2725559114864442	69.82828344769709	0.060268074260964255	-0.27085745316351506	0.3311255274244793	143.20361302397123
18	7.0	ltm	460	diff_vonmises	-0.11167436041074384	-6.398469531358469	2.8686869873477434	1.6046548613702551	1.2694066166217466	2.2389357999059687	0.1469474480594175	-0.2264618395018374	0.3734092875612549	59.3712523990024
19	7.0	perception	460	diff_vonmises	0.011365611504346215	0.6512015707843727	1.2786097351758619	6.698491335636042	0.7112651267394572	7.038761675580677	0.6182342627957573	-0.3070533474269379	0.9252876102226952	92.63961764454896
20	7.0	wm	460	diff_vonmises	-0.5342232707540879	-30.608738731883903	0.0005051494324493734	2205.2559208285656	3.9512523881026483e-32	2206.276313188087	0.014913787219995811	-0.3396699867268467	0.3545837739468425	171.9861240451113
0	1.0	ltm	461	diff_vonmises	-0.040518238852890416	-2.321524079573615	0.9501633606115494	471.2229452834013	0.9385565156942409	474.8069189173386	-0.14388117046058824	-0.763207654213133	0.6193264837525447	79.5073587127383
1	1.0	perception	461	diff_vonmises	0.05432769974652219	3.1127479061296737	6.411755708104284	0.7843607116164759	4.228934830453149e-19	3.710034070082263	0.18512070123137625	-0.5904681697668954	0.7755888709982717	53.77722345759048
2	1.0	wm	461	diff_vonmises	0.09591117011840908	5.495305255946096	8.900963911223098	0.361039285339014	6.066832611423345e-19	3.409793442057191	-0.11948367769225515	-0.5426854733632896	0.4232017956710345	45.53682408335254
3	2.0	ltm	461	diff_vonmises	-0.1595075648194561	-9.139110264564243	2.357473800912349	1.5645047150459623	0.24602126187006396	3.6777852505278217	0.1532537008907895	-0.4965068930184798	0.6497605939092692	78.0421650448597
4	2.0	perception	461	diff_vonmises	-0.05905345094556766	-3.3835135048638674	5.505702267112129	1.3704817597338117	0.09363932789554326	3.550406011135771	0.6314423041470892	-0.5603593653913653	1.1918016695384546	56.594570331394095
5	2.0	wm	461	diff_vonmises	-0.031064096116744006	-1.7798416018781613	3.8084995842147036	0.6866227291514492	0.1306377885183468	2.775054066797083	0.012746719037887488	-0.428946489018498	0.4416932080563855	65.03100183274327
6	3.0	ltm	461	diff_vonmises	-0.001232860265651832	-0.07063768995122746	0.9954105694415762	155.7029865336289	0.9741296333140201	157.05667830434047	0.1716860137146412	-0.3625693888298187	0.5342554025444599	84.84485142627295
7	3.0	perception	461	diff_vonmises	0.0839582977844594	4.810456118152094	3.6973274362934854	2.5657465942424107	0.2233607533501631	3.536741511213399	1.1942228771323835	-0.5112926950426246	1.7055155721750082	67.63558687379427
8	3.0	wm	461	diff_vonmises	0.022750977904760647	1.3035350137381736	1.317142546314335	1.850280212263388	0.22943145928740993	3.2433140459252896	0.10032157644316231	-0.354991371860862	0.4553129483040243	99.97688724910518
9	4.0	ltm	461	diff_vonmises	0.13340593226961484	7.643596881057046	0.00023498315308978756	6927.818447778468	4.925277745529632e-30	6929.865562074558	-0.06670653959213269	-0.5848797402745731	0.5181732006824404	179.33704008649948
10	4.0	perception	461	diff_vonmises	-0.05044986031176402	-2.890564072888634	1.0363983001405799	160.12190697299832	0.9878759527061058	162.5520737890346	0.6433157554191808	-0.7685512596895876	1.4118670151087684	86.13703975746301
11	4.0	wm	461	diff_vonmises	0.01688993431575061	0.9677219525456898	0.524660898454493	127.0851194530287	0.5060996330745622	129.38395238149903	-0.12793188297796476	-0.47386798483963943	0.34593610186167467	107.75129117745628
12	5.0	ltm	461	diff_vonmises	0.2864032057359064	16.40969492768445	0.890848127757459	155.9195104904081	0.8684902161531346	157.62323561449634	0.12490267423227408	-0.4235991019594785	0.5485017761917526	88.42646495056408
13	5.0	perception	461	diff_vonmises	0.03224593564051954	1.8475560186522504	1.8801065001979773	3.59343379675074	0.14393084273511922	5.117294342272272	0.8499682784354272	-0.6618280572780315	1.5117963357134587	93.47209535427754
14	5.0	wm	461	diff_vonmises	-0.05443532053095556	-3.118914122865593	0.4872556579469098	212.10709007759414	0.47553161254463255	213.72823409722017	0.07079380356739051	-0.43670241431341594	0.5074962178808065	119.97251384119282
15	6.0	ltm	461	diff_vonmises	-0.34166818113456393	-19.576144772921847	0.0001845345381053889	4372.935018930377	1.1561475529014479e-20	4374.310739338092	-0.09051901145483043	-0.3473745462391662	0.25685553478433576	176.67919386971175
16	6.0	perception	461	diff_vonmises	-0.2625444430045562	-15.04268851877406	1.3255961152985094	2.1816974186510807	4.145533739525446e-15	3.3527342639442543	0.3436722729093763	-0.4716973874308775	0.8153696603402538	115.87438363079768
17	6.0	wm	461	diff_vonmises	-0.3027716114960489	-17.34753549509824	0.44448402598260367	131.39108221858214	0.42987604821512304	132.84925372938062	0.014027058741067577	-0.37262116717319493	0.3866482259142625	123.50442031654393
18	7.0	ltm	461	diff_vonmises	-0.09848942686560436	-5.643028486061514	2.0168581462590898	2.898601098597758	0.9169620143775286	4.480429666493124	0.042511391353709405	-0.4030472944453876	0.445558685799097	67.26119409296612
19	7.0	perception	461	diff_vonmises	-0.024325164388540457	-1.393729255425296	1.070947153857556	335.4845166598525	1.0534015664750656	336.56160351031656	0.7278385598986716	-0.49797761809697505	1.2258161779956467	87.13313917002876
20	7.0	wm	461	diff_vonmises	-0.6026797994678649	-34.53100890729945	0.0002939340488485229	4278.915590871721	4.170318675115659e-32	4280.944575341524	-0.12274271438150208	-0.5230736865007657	0.4003309721192636	169.87999417389628
0	1.0	ltm	462	diff_vonmises	0.1271617285906403	7.285830363831742	0.9908888448441632	248.64597792671574	0.9725783291824976	252.03298350755773	-0.2772165721701043	-0.6924694946681811	0.41525292249807677	74.27517895185287
1	1.0	perception	462	diff_vonmises	0.11139946582387156	6.382719231719695	6.009369269255274	1.163695578966634	0.18685298051728946	4.323029152021354	0.2898801270620256	-0.7057868238731663	0.9956669509351919	52.49631149973814
2	1.0	wm	462	diff_vonmises	0.13453937745032926	7.708538506221426	4.145324105947689	0.468875736662984	0.07820676335683412	3.779803896985429	-0.28196118949940524	-0.5969192202066393	0.3149580307072341	62.13391729550284
3	2.0	ltm	462	diff_vonmises	0.046562649405212424	2.667843293866005	2.7151809003751866	1.2886007073899326	0.5166792812564961	2.69722490663671	0.12298565503964476	-0.3552078958718213	0.47819355091146604	68.03035151535383
4	2.0	perception	462	diff_vonmises	-0.029652996690547884	-1.6989915602837913	7.678487841647582	1.2304156784666014	0.0856575557019869	2.621336122169897	0.8827423627064412	-0.4212637438189734	1.3040061065254147	48.38391024054414
5	2.0	wm	462	diff_vonmises	0.073358752477967	4.203146907332378	5.416693751024157	0.4726340785680177	0.10145364190649363	2.154274146156685	0.0491309713047276	-0.3434543163686943	0.3925852876734219	55.99606840809915
6	3.0	ltm	462	diff_vonmises	0.20872162619338958	11.958868273988438	4.761683599594782	0.4241010274972873	0.01918620848939089	1.169844218311145	0.16850622337770307	-0.18436656907766513	0.3528727924553682	62.04275018751187
7	3.0	perception	462	diff_vonmises	0.05774778923234703	3.308704599224505	5.856369460575865	1.5507530498153053	1.3313119947282599e-16	2.343488550917335	1.089076441979905	-0.3729658124013736	1.4620422543812785	56.32388212213641
8	3.0	wm	462	diff_vonmises	0.016933669119750073	0.970227772232691	4.494639033189017	0.4994699592106951	0.12921074295646154	1.5931082574584958	0.12175417601192728	-0.24862073592073308	0.37037491193266037	61.20215313353708
9	4.0	ltm	462	diff_vonmises	0.6305606031728447	36.128461289027506	0.5121783294651944	158.54017217940876	0.5008902970106847	160.31979229752454	-0.10457813863677501	-0.36493938324735353	0.2603612446105785	108.35394092607436
10	4.0	perception	462	diff_vonmises	-0.06844183199883451	-3.9214281156766444	3.6339592190454075	1.8675091534216255	3.0446301468542877e-17	4.223697268849481	0.689874308100824	-0.671272144449541	1.361146452550365	71.91626241090381
11	4.0	wm	462	diff_vonmises	0.061694162644321086	3.534815140113261	0.8659816394085746	190.86710324793015	0.8493279687454982	193.31952215337012	-0.16138303733311687	-0.4953865566872153	0.33400351935409844	81.20803629654367
12	5.0	ltm	462	diff_vonmises	0.06106471180322803	3.4987502635076693	2.0049925115899656	0.90348393183632	3.6331655276717455e-17	2.234455792326928	0.11113688739047195	-0.34715929962976266	0.4582961870202346	96.90094077951309
13	5.0	perception	462	diff_vonmises	-0.013160382657178622	-0.7540343830334988	2.2943342861362876	2.4047260884662194	2.9678484572006275e-17	3.3468012351876433	0.8144117161640226	-0.5189645315454311	1.3333762477094537	90.78029952989843
14	5.0	wm	462	diff_vonmises	0.0762945528442036	4.371355877810697	0.6221911845599447	196.58524890461007	0.6079803114202948	197.96922401524546	0.15986647265896892	-0.3949248943030206	0.5547913669619895	108.24771684240207
15	6.0	ltm	462	diff_vonmises	0.4475635893420633	25.64350473302658	0.7560008638173752	172.53724580590026	0.7426429396616507	173.56954856113416	0.1378098967970729	-0.28658329850366293	0.4243931953007358	98.09118732551687
16	6.0	perception	462	diff_vonmises	-0.05866962710921057	-3.361522018964086	0.694468758571873	9.255953796252607	0.3472100445113991	10.025674723940105	0.4326195737946503	-0.4400409621305277	0.872660535925178	123.2288674363332
17	6.0	wm	462	diff_vonmises	0.08002740911558838	4.5852327876899865	0.6153261944094427	232.57546673589133	0.6035065370173377	233.7392235952439	0.2109248123546692	-0.3735324551106203	0.5844572674652895	110.46182171209222
18	7.0	ltm	462	diff_vonmises	0.07124102108141744	4.081809836167744	1.3334432652276385	4.963378888871629	0.7251733415311592	6.959932076923676	-0.011063001059117727	-0.447335740123582	0.4362727390644643	78.92854163517745
19	7.0	perception	462	diff_vonmises	0.03169260956235078	1.8158527696786548	1.008277280903647	361.19024869994973	0.9924112214973849	362.8311836242966	0.5256777196546807	-0.552253178201866	1.0779308978565467	87.34975439977813
20	7.0	wm	462	diff_vonmises	0.2890113705609851	16.559131764435932	2.5887113842090694	0.9247431689431246	0.16167969794918438	2.9149521570967987	0.014422015887742279	-0.42152938167367454	0.4359513975614168	76.33525262507186
0	1.0	ltm	463	diff_vonmises	-0.1306507077952509	-7.485734147064841	1.2998381392629643	7.411589974920446	0.738383835617124	11.173177556395986	-0.3156418483365604	-0.7654534214591977	0.4498115731226373	73.38363432554664
1	1.0	perception	463	diff_vonmises	0.052080359784914286	2.9839848111984484	15.518256457438731	0.8308883876240674	0.07211384933634862	4.313063640915917	0.5581366286116448	-0.7133499602399423	1.2714865888515872	34.01651849922612
2	1.0	wm	463	diff_vonmises	-0.05356665981255325	-3.069143529872339	0.6686856233609496	188.0823651595626	0.6493205270034038	192.40464578855165	-0.49557460982194357	-0.7840409038677265	0.28846629404578294	84.12212548257284
3	2.0	ltm	463	diff_vonmises	0.5635851170951114	32.29104860593618	0.0003019220389818148	3610.9641996204273	1.9335465272610696e-30	3612.6214253246003	-0.09022936458620734	-0.4372557679741931	0.34702640338798574	170.57272136706806
4	2.0	perception	463	diff_vonmises	-0.04068432616293091	-2.331040181469616	7.754009811621954	1.276079553236382	0.31098647529410484	2.7966307816769813	0.8000139227307278	-0.4802099013068578	1.2802238240375856	46.71522640858001
5	2.0	wm	463	diff_vonmises	0.022441693058388106	1.285814297373675	3.599510082134485	0.5350643120112125	0.10587664898320046	2.6220051107786038	-0.07442421792577586	-0.40564822192010425	0.3312240039943284	66.70758258405559
6	3.0	ltm	463	diff_vonmises	0.07815454877834282	4.4779257947483675	2.657795609888891	0.46213613758627314	0.08224530829046844	1.3083007063731265	0.05657239654902818	-0.19433718199798325	0.25090957854701146	79.5737076881629
7	3.0	perception	463	diff_vonmises	0.055437693521461225	3.1763458647194747	5.292065839085028	1.7580422116864873	0.28800565166770375	2.416775822252279	1.068604363440925	-0.37637168128544407	1.444976044726369	56.774394761539696
8	3.0	wm	463	diff_vonmises	-0.0296896419355003	-1.701091178158788	4.4671650951908735	0.4509945680806318	0.21421101879348933	1.7243711733325382	0.03200028503192898	-0.27336156484210766	0.30536184987403664	59.017195091791024
9	4.0	ltm	463	diff_vonmises	-0.14307955570102218	-8.197854676275547	0.8723054921344271	140.77239354537792	0.8555872349580133	142.58560397277938	-0.12092286623174431	-0.36629844002088774	0.24537557378914343	80.80940206800716
10	4.0	perception	463	diff_vonmises	0.005491685260320265	0.314650387830554	2.3075580795375763	2.9828643049180896	0.4244585179421872	4.560901526808949	0.6152698067790234	-0.5334317213800426	1.148701528159066	77.62643498619187
11	4.0	wm	463	diff_vonmises	0.22303412073479176	12.778913805514811	0.6966279625817616	163.2261320498004	0.6816581632915346	165.46991056150264	-0.1651541998388666	-0.4370122535459764	0.2718580537071098	89.89647776563962
12	5.0	ltm	463	diff_vonmises	0.16215825776785375	9.290983783292518	0.6881867703558018	73.34816189207912	0.6504097485372503	75.34012503299829	-0.020751472542279714	-0.43792757688860906	0.41717610434632935	97.68646410548232
13	5.0	perception	463	diff_vonmises	0.09596746533880554	5.498530734481572	1.8213741449325842	3.4867818305120135	0.27875243951861345	5.44494828557491	0.576197404015734	-0.628824573686077	1.205021977701811	88.73371900330147
14	5.0	wm	463	diff_vonmises	-0.020595970198688415	-1.1800621673620657	0.36594218874017376	219.09531260481387	0.3542796050354556	221.6591709271427	-0.09922849348480156	-0.6009396557435487	0.5017111622587471	131.20039066693792
15	6.0	ltm	463	diff_vonmises	0.2902469376352473	16.629924543096482	6.663050479710465	0.30520127153210663	1.0394072435504679e-16	2.6385689888714166	-0.11206010115647924	-0.4199407948653878	0.3078806937089086	52.73985503582384
16	6.0	perception	463	diff_vonmises	-0.04021238641173361	-2.3040000255415563	1.1345450399282293	2.3236343179036782	4.8358202837156576e-17	4.6774113590537185	0.10830256774294966	-0.6562521388139883	0.7645547065569379	123.17200336708832
17	6.0	wm	463	diff_vonmises	-0.24094768906776495	-13.805285667013377	0.233809231280542	163.81071367211382	0.21801413551208904	166.388056129279	-0.05167279700694394	-0.686742652339273	0.6350698553323291	150.33510911385144
18	7.0	ltm	463	diff_vonmises	0.15060690754212663	8.629140167680863	1.1782995910321958	233.4063768827499	1.1629319255455284	235.22927793045002	-0.013240200349599718	-0.42776284734662795	0.41452264699702823	73.04986038960305
19	7.0	perception	463	diff_vonmises	0.11668636183978284	6.68563606015594	2.3994632425813682	1.206740557660054	1.987493435793858e-19	2.7212548877234726	0.2610813975070102	-0.4273816705386714	0.6884630680456816	88.78027719965883
20	7.0	wm	463	diff_vonmises	0.28635260550097824	16.406795747780695	0.9597271752194806	220.8111446894911	0.9450327699186897	222.94187020441302	-0.08982594648445286	-0.45334186870473303	0.3635159222202802	79.01386742314742
0	1.0	ltm	464	diff_vonmises	0.09204259259439972	5.27365209110119	2.0790273884994916	1.4847852472156384	0.334007182198784	4.588055256844764	-0.20783540783478482	-0.6137077681874396	0.4058723603526547	73.81658557832
1	1.0	perception	464	diff_vonmises	0.09268049106654619	5.310200981313026	9.294772032735414	0.8040799388401492	0.1134002485969466	3.9758494603508487	0.25750259246237506	-0.6583657233688328	0.9158683158312079	43.30380095112082
2	1.0	wm	464	diff_vonmises	0.1249032643225679	7.156429893090093	3.752570205035072	0.5255544352574506	0.090214264552878	3.8717279899197585	-0.282838245861498	-0.6072967517835053	0.32445850592200726	64.51725135219667
3	2.0	ltm	464	diff_vonmises	-0.0030181928775614873	-0.17292971364071844	2.3047148551353867	1.352329810539014	0.46244320854201576	2.629560315698735	0.1291786694059982	-0.3213164794062837	0.4504951488122819	73.83549663619488
4	2.0	perception	464	diff_vonmises	-0.03599600521951097	-2.062419178408861	7.189998254995801	1.1744300927298135	0.15514538530216979	2.5988681306849744	0.7527419477753896	-0.4227879667849051	1.1755299145602947	49.418242801611456
5	2.0	wm	464	diff_vonmises	0.09148107888030421	5.241479725144802	5.925316051770809	0.4170524098251411	0.07020528485805307	2.163358891479292	0.026745907953263703	-0.34535400037713865	0.37209990833040235	54.136216893574044
6	3.0	ltm	464	diff_vonmises	0.162355689562182	9.30229579184922	2.0467807315584015	1.199236860325514	0.3541063839171292	2.111605350295877	0.1631453896441098	-0.24971794449876766	0.41286333414287746	81.28669402453528
7	3.0	perception	464	diff_vonmises	0.0376729300425639	2.158499893330516	5.4112014996063555	1.6477926994199834	0.06871895371274273	2.699762584837511	1.0304064623866533	-0.4226361268221267	1.45304258920878	57.795215134582236
8	3.0	wm	464	diff_vonmises	0.1225481923843101	7.021494210578226	3.797012977342511	0.6025411973369779	0.14620366993945597	2.0907368634061156	0.0671521782337145	-0.3212073220278332	0.3883595002615477	65.2511242802855
9	4.0	ltm	464	diff_vonmises	0.2845598516421026	16.30407851796133	0.6850605774945124	203.34416586240795	0.6734479735843915	205.348831778047	-0.1106908609569004	-0.40373718332308073	0.29304632236618033	92.87960957779421
10	4.0	perception	464	diff_vonmises	-0.06803250431774206	-3.89797536711217	3.232143652825576	1.9143876678153011	0.015162864240411878	4.0041893439049865	0.6609287833401337	-0.6258003207716525	1.286729104111786	75.71357239362294
11	4.0	wm	464	diff_vonmises	0.06979184309326024	3.998778053683076	1.0148263326997067	6.702646639465086	0.5828971549975197	9.389848077639119	-0.1540092881977153	-0.5412367623290685	0.38722747413135317	85.88638707528366
12	5.0	ltm	464	diff_vonmises	-0.023883971175070587	-1.3684507463436582	1.952261476997206	1.0697761855494718	4.9049121987403744e-20	2.588089965948762	0.13194424326146098	-0.4009475103976686	0.5328917536591296	98.13943931982749
13	5.0	perception	464	diff_vonmises	-0.013453696407833376	-0.7708400230191688	2.236377263596458	2.234686931116631	7.933179062266381e-23	3.5034100488512463	0.675292321741496	-0.543510208548788	1.2188025302902838	91.9273107590314
14	5.0	wm	464	diff_vonmises	-0.02774803890196881	-1.589845518847636	0.582226641429614	243.3708174427018	0.5708563816493646	245.06893632268884	0.08086270190268863	-0.43384937024050174	0.5147120721431904	109.38218809192563
15	6.0	ltm	464	diff_vonmises	0.3416319751264899	19.57407032146619	0.5431570811466047	173.66042891132818	0.5301851963511794	175.0782233065532	0.0654144960538332	-0.3698757286782559	0.4352902247320891	113.57429908668615
16	6.0	perception	464	diff_vonmises	-0.03377367766838032	-1.935089189033431	0.7403713097557784	8.473501948509748	0.33949099817700656	9.872169302875312	0.33234406724235344	-0.5240331758316524	0.8563772430740059	119.33545227058343
17	6.0	wm	464	diff_vonmises	0.07465441765996653	4.2773830539230016	0.6197797429926685	245.35309093314575	0.6067021971470522	246.96855518273708	0.17699275136317283	-0.4564893000459449	0.6334820514091177	108.23258862712987
18	7.0	ltm	464	diff_vonmises	-0.0023890690872678186	-0.13688357566561776	0.9569326942231855	188.77984256061745	0.9351080540469883	191.1947954826252	-0.012868693682555943	-0.5392202271266449	0.5263515334440889	81.69063820109989
19	7.0	perception	464	diff_vonmises	0.054103917768195384	3.09992614324046	1.1489660360824017	14.08583842528665	0.761889786938376	16.170279084921557	0.4148485780063398	-0.6107849696793786	1.0256335476857183	88.01293777691774
20	7.0	wm	464	diff_vonmises	0.30317874424961616	17.370862483579184	3.145146765326657	1.1281058123422203	0.24062427636794548	3.5802950217830225	0.044447289084128205	-0.5305879754393583	0.5750352645234865	68.11886987625388
0	1.0	ltm	465	diff_vonmises	-0.09262729435215775	-5.307153034094606	2.0076956644008472	1.8195692370325895	0.32170549010193117	5.548055028698769	-0.2463157394757871	-0.734839738531667	0.48852399905587984	75.24087908574631
1	1.0	perception	465	diff_vonmises	0.025467392834520076	1.459174124619715	14.688502584596405	0.7488932531699825	0.02063104117287579	4.205055344603664	0.45130865479039883	-0.6754165423217998	1.1267251971121985	35.213509647664466
2	1.0	wm	465	diff_vonmises	0.020068447665712936	1.14983735262452	1.3374434010746052	2.1569746778300716	0.2634553824048027	6.23018365636311	-0.39638487406107437	-0.749545865983591	0.3531609919225166	86.02080875207326
3	2.0	ltm	465	diff_vonmises	0.09524102346402341	5.456908680994985	2.371658424287397	0.7341971789365164	1.0654641912666075e-16	2.5637082074285633	0.011403775425921359	-0.4043731641118303	0.41577693953775163	89.30073330735246
4	2.0	perception	465	diff_vonmises	-0.05639672151707803	-3.2312941213032085	7.206913440025432	1.2514075121071735	0.21340955435866238	2.9422770923193613	0.7421016189010705	-0.4870212661882416	1.2291228850893121	48.86760643474042
5	2.0	wm	465	diff_vonmises	-0.027802951618974444	-1.5929917857736549	3.045914276933117	0.7624096243871449	0.14200875011190167	2.934748043915598	-0.03199991903861821	-0.4408957145988357	0.4088957955602175	71.171505078167
6	3.0	ltm	465	diff_vonmises	0.03908404103520501	2.239350597633368	1.7097718076700972	0.9948590399167222	0.16321066451856525	2.159864191742167	0.06459668377223815	-0.27936837251185187	0.34396505628409	92.6832015755808
7	3.0	perception	465	diff_vonmises	0.04629769575027597	2.6526625676715807	4.77380375163655	1.968834232739993	0.20777597669110956	2.9044605698978856	1.1024807776781085	-0.44436412184733487	1.5468448995254434	60.119709544575585
8	3.0	wm	465	diff_vonmises	-0.031128392927822615	-1.7835255377891157	3.3001230831908592	0.7033308076174817	0.15774772966694203	2.270421264257573	0.06569162923145805	-0.34119906118538934	0.4068906904168474	69.21612401442064
9	4.0	ltm	465	diff_vonmises	-0.19102343295292612	-10.94483649630292	0.6763216916554247	116.38675072937922	0.6552391018024522	118.46018693808178	-0.10550014115673179	-0.4211830706932389	0.3156829295365071	94.35354020517744
10	4.0	perception	465	diff_vonmises	0.0007848752237657573	0.044970037766163984	1.7107016982107903	5.2582413394218745	0.5601604378702205	7.180742755331702	0.6142217450000285	-0.6294532951715355	1.243675040171564	83.33390763237401
11	4.0	wm	465	diff_vonmises	0.23714738210112724	13.587544116970871	0.6712887024094852	222.3880382087285	0.6581641251280419	224.9937645306647	-0.16545869741769081	-0.5165841406593792	0.3511254432416884	92.96313345768738
12	5.0	ltm	465	diff_vonmises	0.17471614897176202	10.010497948860921	1.3558920223325537	1.9856886135317584	0.23915731939916507	3.8039665019141387	0.05120442446214901	-0.4246216985511652	0.47582612301331423	96.87860435428834
13	5.0	perception	465	diff_vonmises	0.08278572299167461	4.7432725313620985	1.6445438342763794	3.623935503856551	0.22643847914914608	5.348219548822568	0.6059703351478491	-0.6158667859893423	1.2218371211371915	94.91989255959933
14	5.0	wm	465	diff_vonmises	-0.02587480069260315	-1.4825168754283398	0.4552630228251206	228.58552015337506	0.44273469665519444	230.85877280166477	-0.006097008814407445	-0.5588022831754991	0.5527052743610916	121.52880723359101
15	6.0	ltm	465	diff_vonmises	0.3844411573501619	22.026855787289062	0.5905608006931407	69.10702764185112	0.5610522724935187	70.95804919448867	-0.09293865955028835	-0.38051558131899643	0.2875769217687081	102.08610484878051
16	6.0	perception	465	diff_vonmises	-0.04193678739602184	-2.4028009241294774	1.278315407630712	2.180151663892508	9.95116437324646e-15	4.104009080638229	0.20472441895970828	-0.586625744776289	0.7913501637359973	117.84056022499547
17	6.0	wm	465	diff_vonmises	-0.17136994885157786	-9.8187748045682	0.26551095784236145	209.5891209791969	0.25440050829905914	211.86029758307953	-0.04703114170797562	-0.5930211117787927	0.5459899700708171	146.079723035209
18	7.0	ltm	465	diff_vonmises	0.07050496267835565	4.039636796197164	1.2307723259558039	162.82877257275155	1.206347529510632	164.76874341724726	-0.005196538507853177	-0.46394799271290665	0.4587514542050535	71.75761892547592
19	7.0	perception	465	diff_vonmises	0.14341394005472494	8.217013488477926	2.172614913232069	1.4480233210552833	3.802213228294471e-17	2.930514831863223	0.3187667691064622	-0.4562230703750598	0.774989839481522	93.20755629084468
20	7.0	wm	465	diff_vonmises	0.07044060016963372	4.0359490960885225	0.7739798177770513	133.44790851349012	0.7518996700335779	135.77897966262427	-0.12379369277563512	-0.47309872215098636	0.34930502937535124	87.59609619765948
0	1.0	ltm	466	diff_vonmises	-0.04394038826029695	-2.517598797481205	0.977559110570236	101.63274143990856	0.9355563712354106	104.69970687552431	-0.2002802384378768	-0.6344576828645145	0.43417744442663775	76.90759428463568
1	1.0	perception	466	diff_vonmises	0.09342941904330049	5.35311139354032	20.273606568882332	0.5633761966447651	0.03522549772436956	3.73102233145352	0.39030655181077856	-0.6065691558062959	0.9968757076170744	29.91649634457059
2	1.0	wm	466	diff_vonmises	-0.016658195277161236	-0.9544442836860995	1.9704164951868144	1.2716969400036726	0.31538636409582366	4.8433010448245986	-0.38069516088156397	-0.666744246264629	0.28604908538306506	71.79046549588662
3	2.0	ltm	466	diff_vonmises	-0.09637918692911807	-5.5221206439408945	1.8722986534538029	1.5840493018642552	0.4339136184514595	2.7975015708807134	0.12922957040733352	-0.30704725282739137	0.4362768232347249	80.77528206259478
4	2.0	perception	466	diff_vonmises	-0.029214477816467056	-1.673866279562131	6.848006916470719	1.1923841082960016	0.29281131798047355	2.6464831009318326	0.6676329455069797	-0.4435015229644688	1.1111344684714486	49.539967069778555
5	2.0	wm	466	diff_vonmises	0.1426498782188978	8.173235969998013	7.243816610133714	0.28739004022440645	0.039849522137274544	2.07667495828739	-0.04095356262889899	-0.332454836878094	0.29150127424919503	49.46392983912517
6	3.0	ltm	466	diff_vonmises	0.04754645110025454	2.7242109788697344	1.0594538286219235	157.70146276668916	1.04398617480609	158.56694334553606	0.15622938167190625	-0.2483873394808569	0.40461672115276315	83.09307089648854
7	3.0	perception	466	diff_vonmises	0.04798525791909268	2.7493527576107217	4.480017334655518	1.973141783874727	0.36999648182728373	2.8739414236993928	0.9730478304445502	-0.4316876978486444	1.4047355282931946	60.328915857615016
8	3.0	wm	466	diff_vonmises	0.3822810262291451	21.90308939085994	0.7877482205306087	77.90457657901692	0.7618207103512616	79.37105567207234	-0.04888012701552924	-0.30783839764531074	0.2589582706297815	88.684055387169
9	4.0	ltm	466	diff_vonmises	0.02696115862868868	1.5447606002065835	0.9107765681816199	211.28393447379193	0.8980571763433092	213.18171243200334	-0.10005066708568222	-0.3940517771202785	0.2940011100345963	80.26812057911738
10	4.0	perception	466	diff_vonmises	-0.057624121721649026	-3.3016189727986203	2.199297242430366	3.0204919719885366	0.40038100725391484	4.52901710561876	0.615931956863665	-0.5216317928601782	1.137563749723843	79.76871354243963
11	4.0	wm	466	diff_vonmises	0.10206261994615966	5.847757368962681	3.591563514744149	0.49000668148849913	1.0985162325074325e-18	2.7979603604003103	-0.09023262214307248	-0.4450396090542076	0.3548069869111351	72.35119380392314
12	5.0	ltm	466	diff_vonmises	-0.058684707333768106	-3.3623860521853426	1.9762507797541646	1.262782702504172	0.10350505713294335	3.2523805023894967	0.0741910324328966	-0.45785563050328115	0.5320466629361777	89.73809772013547
13	5.0	perception	466	diff_vonmises	0.02182428203689314	1.2504392516171525	1.433844725365326	5.99031462074608	0.5113025082278712	7.906798459640507	0.557271604883109	-0.6225897002496986	1.1798613051328077	89.7595531837556
14	5.0	wm	466	diff_vonmises	-0.2102637863668612	-12.047227543261524	0.5077026564345116	254.65692744016454	0.4974895134078831	256.96518409685274	-0.08214915265155298	-0.503983942288496	0.421834789636943	111.66678246850569
15	6.0	ltm	466	diff_vonmises	-0.23294306696625186	-13.346654603999538	0.1534649302560041	129.97619882069773	0.14249193671471358	132.4157480803932	-0.2030236874314788	-0.5440649894185299	0.34104130198705107	159.427363519479
16	6.0	perception	466	diff_vonmises	-0.11925955330468412	-6.8330690709738695	1.2467600774192427	2.3187905604318235	2.162874015579805e-12	4.799258558615927	0.1352665500586806	-0.6895431704471056	0.8248097205057862	118.90681394941916
17	6.0	wm	466	diff_vonmises	-0.12646560005068516	-7.2459451364937095	1.408912331604681	2.043542032999567	0.07150137764099221	4.451006185596881	0.09235443724490688	-0.6077614212455913	0.7001158584904982	107.2185723383007
18	7.0	ltm	466	diff_vonmises	0.014363955171704221	0.8229940084537636	0.9637388948232335	266.4632961716846	0.9484382232525194	268.8168777648808	-0.00731116559400391	-0.5280026786963532	0.5206915131023493	81.36325326061842
19	7.0	perception	466	diff_vonmises	-0.003772638927897581	-0.21615628819529106	3.1957561643622223	1.6155059943992132	0.12593333658501457	3.87727969885868	0.3995400953085233	-0.5756677110971522	0.9752078064056755	72.34334180470884
20	7.0	wm	466	diff_vonmises	0.37163776286030914	21.293275319579447	1.243332144199243	199.01569777890143	1.2156278615416236	201.50961026438353	0.061157267678865423	-0.6162799597643662	0.6774372274432316	72.54082134274336
0	1.0	ltm	467	diff_vonmises	0.0649601198416789	3.7219407035922387	0.8709510095523305	181.84113106323423	0.8547355234406264	183.8346319860798	-0.06372085362124835	-0.4231251664975062	0.35940431287625785	83.93423505537748
1	1.0	perception	467	diff_vonmises	0.08479192287491528	4.858219317531428	8.602211915977199	0.6189250764192158	3.0038093867146376e-19	2.6315973342550336	0.2941999107480445	-0.41883169991138886	0.7130316106594334	46.31951596033514
2	1.0	wm	467	diff_vonmises	0.07615585368849896	4.363409001566794	7.894928525618856	0.2761021392743439	1.6270279468275126e-18	2.285954769775815	-0.05959255947056369	-0.363820959038163	0.30422839956759934	48.3856550881672
3	2.0	ltm	467	diff_vonmises	-0.07048463232779589	-4.038471952914068	2.2029061185486376	1.4809418279168884	0.48916699377405604	2.5858002549722525	0.17693455218166576	-0.298601496886297	0.47553604906796276	75.55340311054559
4	2.0	perception	467	diff_vonmises	-0.021403987505312628	-1.2263581488051614	7.105590763981017	1.098340034715169	0.061132947650949065	2.409676420289463	0.7385758357010737	-0.3840152120182985	1.1225910477193721	50.43500008059206
5	2.0	wm	467	diff_vonmises	0.08138384773875104	4.662950995965743	5.806771004600882	0.38854517405968364	0.10265711466061764	1.7958222951841392	0.04879767847234956	-0.2878139756311401	0.33661165410348964	54.19316620826416
6	3.0	ltm	467	diff_vonmises	0.15165181758639623	8.689009103188338	1.2454296802853637	139.87583397314228	1.2258545588275231	140.5850267459664	0.23074979715715216	-0.2407915073961071	0.47154130455325927	78.24937773988279
7	3.0	perception	467	diff_vonmises	0.04146135021625304	2.375560380305122	4.766677592310213	1.8749411464376715	0.17168119541746082	2.6873792691624905	1.0805892233745937	-0.41121092941584464	1.4918001527904383	60.56127259096937
8	3.0	wm	467	diff_vonmises	0.0962253905796739	5.513308762213224	2.4717153035084674	0.8067001155894824	0.2672834389470634	1.9313892413607052	0.07772869815605471	-0.2628686669360132	0.3405973650920679	75.831833997102
9	4.0	ltm	467	diff_vonmises	0.25425865237931405	14.567947686018622	0.5931889264144977	152.33053383194084	0.5807581386093094	153.8337165655445	-0.03579286968891893	-0.327216288235169	0.2914234185462501	103.70162709705372
10	4.0	perception	467	diff_vonmises	-0.08831976556756822	-5.060349814606509	2.8043961577110346	2.2847095520223815	0.14479082254012296	4.108832648765586	0.6877717154443536	-0.5857282575359906	1.273499972980344	77.2585349688141
11	4.0	wm	467	diff_vonmises	-0.05477984022827919	-3.1386536474813616	0.8891255342901366	159.94254832943346	0.87138789331517	161.94198764225985	-0.09356499047701305	-0.4165576438573346	0.32299265338032157	81.89696001787715
12	5.0	ltm	467	diff_vonmises	0.10128306453916501	5.8030921342452855	1.5343612792266024	1.8047464734567886	0.2898621495182114	2.9129176792812057	0.18585543025429385	-0.3136345234302446	0.49948995368453847	93.24566962495834
13	5.0	perception	467	diff_vonmises	-0.017590244456591273	-1.007846767966072	2.6254950114674864	2.03604262219649	6.971916529177996e-16	2.9685946993435155	0.7623907772001266	-0.46599299583947806	1.2283837730396048	84.88265821176182
14	5.0	wm	467	diff_vonmises	-0.07966955292827708	-4.564729138484406	0.5687662602713434	170.551119917539	0.5567205559515894	171.69197683904326	0.09362856874065528	-0.3155553933633577	0.409183962104013	112.29293048189629
15	6.0	ltm	467	diff_vonmises	0.15171229805528663	8.692474378798732	0.48256153928767476	131.40130101055908	0.4708520933847354	132.37537310355145	0.05143915826852208	-0.2687289100087522	0.3201680682772743	120.86321287773637
16	6.0	perception	467	diff_vonmises	-0.1916201327768562	-10.97902487785031	1.6262601331238358	1.756492681613527	3.558236117589173e-16	2.7144681156590114	0.3670867016730046	-0.4011142344615743	0.768200936134579	106.57646308014144
17	6.0	wm	467	diff_vonmises	-0.07706851689082785	-4.415700751177133	0.6892447595631387	153.81066292946065	0.6734824781628335	154.93457990988645	0.14751620165382917	-0.31870067563595583	0.466216877289785	103.03092319981268
18	7.0	ltm	467	diff_vonmises	9.594687847357612e-05	0.005497351193990522	0.9484720616532124	162.99152532394103	0.9285335700933317	164.57756928103876	0.09715643265879237	-0.3882094616569063	0.48536589431569865	85.04230807000445
19	7.0	perception	467	diff_vonmises	-0.038304161475198516	-2.1946667903164765	1.0510524002407249	174.61203639112725	1.0162517853717525	176.1489108748716	0.6160463255091955	-0.5602278272834695	1.176274152792665	86.66299831506421
20	7.0	wm	467	diff_vonmises	0.24807175656360136	14.213464667491136	9.73138008035406	0.48670624834505494	2.4103229650267143e-18	2.2103596593438684	0.24570310418067054	-0.35178966368773057	0.5974927678684011	43.516389612674146
0	1.0	ltm	468	diff_vonmises	0.036910309298020715	2.114804943299067	1.040919735965314	184.20634633116686	1.0239179794496223	185.74309698474173	0.05861988862213252	-0.36880204677752815	0.42742193539966067	80.03284933238064
1	1.0	perception	468	diff_vonmises	0.030120956463933334	1.725803680280676	7.488497778277163	0.7349541765542311	3.572389774772048e-15	2.213890693403091	0.4356176825429676	-0.35235140062699194	0.7879690831699595	49.69871773540069
2	1.0	wm	468	diff_vonmises	0.14542939631653148	8.332490626072655	4.339776799153911	0.41145457751565195	6.459431738938291e-17	1.8491972937117227	0.03634186872772577	-0.29425266228929786	0.33059453101702363	65.65802234186881
3	2.0	ltm	468	diff_vonmises	0.004219703228946866	0.24177118581638116	3.731562867624154	0.7864469930465439	0.37769927574974227	1.6041773473566898	0.22250093765169654	-0.23649213107042028	0.4589930687221168	63.54328616270644
4	2.0	perception	468	diff_vonmises	-0.04186112143076962	-2.3984655836677415	6.9066411983646345	1.12681325299254	6.056171835534021e-20	1.8534294295062355	0.8632037259940075	-0.2949812942204139	1.1581850202144215	51.78846557020253
5	2.0	wm	468	diff_vonmises	0.0014878594759577385	0.0852480684809248	5.332880869987976	0.47745129161528227	0.13212758642496528	1.4172060349522322	0.1721493792823695	-0.22458281575069428	0.3967321950330638	56.69383515277016
6	3.0	ltm	468	diff_vonmises	0.18640938185085204	10.680470841696389	3.2557145451120495	0.678879860268766	0.28784004254088646	1.0871274479653459	0.2396667731802234	-0.15182131268282661	0.39148808586305	69.99897387338473
7	3.0	perception	468	diff_vonmises	0.04183264755321342	2.3968341506573987	5.338985037673652	1.5849928152288002	1.0121517725360136e-15	1.9443331915407276	1.1135472870794376	-0.3094174340670282	1.4229647211464658	59.048584131405136
8	3.0	wm	468	diff_vonmises	-0.049903624341239634	-2.859267057159354	2.628673552158004	1.0643778211315513	0.4557303553938122	1.6563701800250172	0.25096000751036196	-0.20395723173649233	0.4549172392468543	73.22796544984848
9	4.0	ltm	468	diff_vonmises	0.2683315411389292	15.374264817501667	0.45027695469190415	90.85199837296406	0.4371703079843441	91.72143622548379	0.0160351890909034	-0.2261642877495884	0.2421994768404918	123.17603857271595
10	4.0	perception	468	diff_vonmises	-0.0864618424582665	-4.953898661783698	3.0965049969638567	2.044115713966149	2.1954654709261387e-14	3.561258451140598	0.7963342202522011	-0.5640061059779946	1.3603403262301956	78.06017206773973
11	4.0	wm	468	diff_vonmises	-0.0268989136804804	-1.5411942273782389	1.1422897368405642	201.51307330945912	1.1273918193209098	203.08093681596975	-0.013706992397473527	-0.3636569638004232	0.3499499714029497	74.16132037642967
12	5.0	ltm	468	diff_vonmises	0.18477546836584158	10.586854494915777	2.0043490299709696	0.8947936186219952	7.311960991835006e-07	1.4375040290603993	0.233407268340958	-0.2203927772669371	0.4538000456078951	96.86585697067105
13	5.0	perception	468	diff_vonmises	-0.011254759735322322	-0.6448502322677445	2.3711600367839267	2.100613238160192	1.2035007157626918e-16	2.2447419539625035	0.8426585722794946	-0.3467994447795202	1.1894580170590148	89.31673689532994
14	5.0	wm	468	diff_vonmises	0.04568345461559994	2.617469143051317	0.6704024518958382	130.69257865582696	0.6557285633612034	131.17197716270323	0.23242066511229353	-0.22157138957596878	0.4539920546882623	109.44629566732763
15	6.0	ltm	468	diff_vonmises	0.4314782320675255	24.72188164923551	0.7876451047702681	83.97813204111132	0.7737021248934819	84.25532355634333	0.14082608104185468	-0.12128335187481376	0.26210943291666844	100.92883352413108
16	6.0	perception	468	diff_vonmises	-0.15519882950059607	-8.89223791575461	1.6158746379199322	1.724003738216347	7.154741325294656e-14	1.8577576297302862	0.48560220437125684	-0.264819921908054	0.7504221262793108	106.91061357789755
17	6.0	wm	468	diff_vonmises	-0.05661057380223643	-3.243546954682013	0.7084363123958205	141.00050338522868	0.6955599419410129	141.49350841468035	0.20620625586160202	-0.20539075562230558	0.4115970114839076	105.8133946835444
18	7.0	ltm	468	diff_vonmises	0.0022507707222502566	0.12895966303655176	2.190774303634734	1.4109269645368896	0.5763273163264963	2.281951625169466	0.17311606143628255	-0.2488490106092904	0.421965072045573	74.49100434237445
19	7.0	perception	468	diff_vonmises	-0.0012443268906030616	-0.07129467916619232	1.3410412607840334	8.890025507539235	0.8034272924051284	9.673731209663144	0.6558498437929559	-0.4063244161773446	1.0621742599703006	87.57599247290685
20	7.0	wm	468	diff_vonmises	-0.2203771495548527	-12.62668057061641	0.0003475609369870407	3508.429805941263	8.096272509944561e-26	3509.427605558146	0.03528044634413163	-0.35285620569152343	0.38813665203565506	178.59601528147948
0	1.0	ltm	469	diff_vonmises	0.12546540410339502	7.188638130027895	0.936303095807	270.52799591029185	0.921678092638277	273.53348882358426	-0.22998311330454158	-0.6090409356047815	0.3790578223002399	76.89544989187661
1	1.0	perception	469	diff_vonmises	0.13075704282842174	7.491826695679914	6.394159796143437	0.9020695788274811	0.0890124279563028	3.69251005106978	0.24938372417894472	-0.5924176378641226	0.8418013620430673	52.22482716480701
2	1.0	wm	469	diff_vonmises	0.07823546236876434	4.4825618019847715	6.609165284444479	0.3333733569736359	0.06287352403013345	3.1779892272053587	-0.20323729444960142	-0.5119836918361488	0.30874639738654736	50.7049727959087
3	2.0	ltm	469	diff_vonmises	-0.01015184429487873	-0.5816578323705144	2.1224133676774772	2.015382889383629	0.6405663131015911	3.4467854883895983	0.13573738624783693	-0.3696231657549973	0.5053605520028343	72.40598165756703
4	2.0	perception	469	diff_vonmises	-0.01660063599142756	-0.9511463795417723	7.228670296026835	1.240016412285473	0.08637319988258288	2.85038362926056	0.8117242579592623	-0.45692619742366636	1.2686504553829288	49.776826102895654
5	2.0	wm	469	diff_vonmises	0.09515364831548652	5.451902453749493	5.604523411387584	0.4302066389271818	0.10612835552971392	2.122052365796608	0.021775827365763223	-0.3399507581849181	0.3617265855506813	54.88274739378784
6	3.0	ltm	469	diff_vonmises	0.19540371829892417	11.19580835969161	3.37665706307479	0.755817339063114	0.3080868779771583	1.5674428855732143	0.1976363454829848	-0.22606353658056969	0.42369988206355447	67.27288781474903
7	3.0	perception	469	diff_vonmises	0.0631126972924854	3.6160911885461515	5.567503868955072	1.6515543312948753	7.514466026456326e-18	2.5477902997049506	1.1105312955475588	-0.40547129214645733	1.5160025876940162	57.79948542200145
8	3.0	wm	469	diff_vonmises	0.0681222842067433	3.903119375837094	3.461390868674842	0.5039496825016787	0.10290597000202499	1.6782603391992719	0.062498183721388045	-0.25572743432973166	0.3182256180511197	69.4027901660194
9	4.0	ltm	469	diff_vonmises	0.6219145719584842	35.633080190906284	0.45975952477523807	156.55890951588478	0.447669899491408	158.41716784179548	-0.08941808389354122	-0.4020121796967455	0.3125940958032043	116.1999922771762
10	4.0	perception	469	diff_vonmises	-0.088579010378291	-5.0752034481215915	3.7597707268654625	1.819566479070134	2.5219921243987433e-14	4.238333475381678	0.6777339671178212	-0.6738182639713933	1.3515522310892145	70.67250954841501
11	4.0	wm	469	diff_vonmises	0.010929374141146754	0.626207011007128	0.8386244032067234	30.893844868943113	0.7497214269124561	33.244072862772846	-0.16664651770590666	-0.46561451630634476	0.2989679986004381	83.90751754672391
12	5.0	ltm	469	diff_vonmises	0.08093159597952317	4.637038878884619	1.8881472103951071	1.1483802267765817	0.10779347259110458	2.559621219984955	0.11968502196201775	-0.3536400804400187	0.47332510240203646	92.18652323290846
13	5.0	perception	469	diff_vonmises	-0.02363455485066626	-1.3541602436136244	2.5284923382923865	2.3406781840149877	2.9646156522722803e-15	3.4554018919288874	0.8387009705111288	-0.5411050961001577	1.3798060666112866	86.50417382050057
14	5.0	wm	469	diff_vonmises	0.01912476004403955	1.0957680347238967	0.5824632622370496	187.10112075264084	0.5692551203214468	188.500811506682	0.10299933250139048	-0.37737069373810783	0.4803700262394983	110.59185864583999
15	6.0	ltm	469	diff_vonmises	0.2976276920301863	17.052810619549124	0.6266384644475623	150.12003577844757	0.6128261036692677	151.28734772688372	0.08034395782514281	-0.3044695926082035	0.3848135504333463	106.17384381402377
16	6.0	perception	469	diff_vonmises	-0.15166746486980326	-8.689905626488407	1.2416336119006566	2.367913267003483	1.0023774662917589e-19	3.2981460683523083	0.39098403726105424	-0.44846321354775254	0.8394472508088068	119.04764055102862
17	6.0	wm	469	diff_vonmises	0.013396432230010026	0.7675590273126042	0.6445680293979167	176.08950023082141	0.6299564805485584	177.30045979781977	0.16010264066083835	-0.35148832252851037	0.5115909631893487	106.73034688726325
18	7.0	ltm	469	diff_vonmises	0.05488570726354766	3.1447193817918078	0.9073675715473843	131.3510466577298	0.8820392679758873	133.35823858898658	-0.0071124301036675774	-0.4460554641755383	0.43894303407187074	84.2105277374904
19	7.0	perception	469	diff_vonmises	-0.032056092493495475	-1.83667880755829	1.0690891235490982	480.25557427398246	1.0552618930244404	482.0013590351619	0.6338836173646314	-0.6115816597662445	1.2454652771308758	85.10236395827545
20	7.0	wm	469	diff_vonmises	0.294427674262391	16.86946310708758	5.743525342415814	0.5667964676076537	0.0412053519165656	2.6328022863342713	0.09249795608998551	-0.41756551066244924	0.5100634667524347	55.71943853615127
0	1.0	ltm	470	diff_vonmises	-0.06050856448362852	-3.4668853693071036	1.2681695327644391	51.30234853772061	1.2272019609770746	51.69045003718683	0.2362524808685933	-0.16829498254320452	0.4045474634117978	79.8670571909332
1	1.0	perception	470	diff_vonmises	-0.028785738591042404	-1.6493013314335907	12.473372933686703	0.6058072029372509	1.2340289865885429e-18	1.0572857475387147	0.6762119390157132	-0.16827225296902074	0.8444841919847339	38.39183818484827
2	1.0	wm	470	diff_vonmises	0.12072736615898243	6.917168552640214	2.166283949996985	0.5961082890604625	7.811530440269865e-30	1.0450708215858386	0.15634357655407713	-0.16209026866327314	0.3184338452173503	93.34592100337619
3	2.0	ltm	470	diff_vonmises	0.05592972687386797	3.2045372991920544	7.161597310018586	0.3278777547537429	9.115520681813923e-12	0.43182481069492373	0.2747483480071172	-0.06872684641863572	0.3434751944257529	50.837681771082316
4	2.0	perception	470	diff_vonmises	-0.04884774247552831	-2.7987694825896963	7.561939491706212	0.9772796909828023	2.395369470165759e-18	0.9920093839674223	0.8952583591440693	-0.1578829124026926	1.0531412715467618	49.451203341887606
5	2.0	wm	470	diff_vonmises	-0.030261509137507133	-1.7338567552757347	6.652126705016002	0.35289121695083114	0.08180603982781386	0.5658743747313915	0.25813302793342896	-0.0897821003515792	0.34791512828500815	52.11140240677915
6	3.0	ltm	470	diff_vonmises	0.1646118892643852	9.431566512524137	1.467418095896707	18.907780972068974	1.3981425002762224	18.904988030170596	0.23342008712213325	-0.07726779291572328	0.3106878800378565	78.78023949816824
7	3.0	perception	470	diff_vonmises	0.015532060023370861	0.8899214864830172	5.753123225618235	1.3772051900399334	0.0914716582920867	1.4020998249708228	1.0423993347579057	-0.21863963813820064	1.2610389728961064	56.17933275970435
8	3.0	wm	470	diff_vonmises	-0.029791538815673375	-1.7069294393382555	1.7763373092520396	43.07019125566689	1.719937200313814	43.237368670324116	0.3234392496489633	-0.14935555205075524	0.47279480169971855	69.23800289769198
9	4.0	ltm	470	diff_vonmises	-0.16783263844893478	-9.61610184766903	1.8549913535543232	113.17878290565574	1.8375047492589092	113.49889804655632	0.16326341023756896	-0.1424140693547269	0.30567747959229585	64.32037032823575
10	4.0	perception	470	diff_vonmises	-0.08205246080188493	-4.701259702610629	2.782698323258998	2.0409845803028603	0.049678616956311566	2.720039471814613	0.8255998612889428	-0.4073120705810655	1.2329119318700084	80.89109922616495
11	4.0	wm	470	diff_vonmises	-0.0383362648121581	-2.1965061760325466	1.4086512875802721	182.61844568637974	1.3931182425737472	183.68914512394298	0.06264955384888538	-0.28829657303498024	0.3509461268838656	68.80237988557829
12	5.0	ltm	470	diff_vonmises	0.17472187679087925	10.010826128722153	1.7217449717798097	0.9400482359340934	2.896053708213507e-14	0.9754361824720575	0.28754074659969353	-0.1410971510571056	0.42863789765679916	103.91292715742966
13	5.0	perception	470	diff_vonmises	0.005285651307870815	0.30284551191880144	2.6577959891438265	1.5774948606783044	5.308711413009544e-18	1.4365336699649718	0.7349181993799505	-0.22389584471490082	0.9588140440948514	84.36294038026449
14	5.0	wm	470	diff_vonmises	0.02227277028692267	1.2761357355050527	0.6821420054882584	93.67692831390576	0.666454810966433	93.70966455428758	0.2706197691491745	-0.14316153067342086	0.41378129982259537	113.07162525438926
15	6.0	ltm	470	diff_vonmises	0.42233939977893437	24.19826512942135	0.8695007970994227	50.69088243184513	0.8540546391436659	50.65753301722779	0.15982192538819362	-0.060333434960502696	0.22015536034869632	101.9229057495503
16	6.0	perception	470	diff_vonmises	-0.11507645387974476	-6.593395128641243	2.0000796524746973	1.408996233816524	4.121892414565741e-06	1.3867766989891233	0.5061482161372359	-0.20739930408478818	0.7135475202220241	97.0025679864603
17	6.0	wm	470	diff_vonmises	-0.10422111268337966	-5.971429892915029	0.7606030303710354	87.580824115362	0.7394409010925753	87.82161384462844	0.28348395015896344	-0.18135139959707303	0.46483534975603646	105.35278591775652
18	7.0	ltm	470	diff_vonmises	0.00037811717450600695	0.021664518260605847	1.6852629851273573	3.2022292756009514	1.0283655847353297	3.5307439420899325	0.2633744732216019	-0.16252364006403996	0.42589811328564187	77.4429566675218
19	7.0	perception	470	diff_vonmises	0.03123354783744189	1.7895504703053797	3.0438334100394804	1.3022771979864867	1.9294077383415055e-16	1.8833505466113791	0.5602475544809424	-0.2977916842104828	0.8580392386914253	78.7507709230141
20	7.0	wm	470	diff_vonmises	-0.14014958098179192	-8.029979490783626	0.00031189881543188853	3810.2841247897286	4.8449071669472576e-32	3810.7504732570164	0.1149364688380956	-0.2633502995959134	0.378286768434009	179.42050534528408
0	1.0	ltm	471	diff_vonmises	0.06544901293731616	3.749952214605339	0.9707247328364282	355.14861839351767	0.9576913537556273	358.61500244332285	-0.27856638568668757	-0.7062185548856732	0.42765216919898563	75.0911857831864
1	1.0	perception	471	diff_vonmises	0.09665499158524803	5.537923086707198	6.5605508566024655	0.9675216261430636	0.047286711345563975	3.9054113762805773	0.3167680481216196	-0.6220654678557783	0.938833515977398	52.240213024755576
2	1.0	wm	471	diff_vonmises	0.08812213540357523	5.049026440305233	6.5296437854107205	0.3426917844023061	0.028001019762140776	3.4535426784109577	-0.22303495436116527	-0.5508527981550937	0.3278178437939284	52.0167086415498
3	2.0	ltm	471	diff_vonmises	0.01954553541535445	1.1198766876232906	2.8889976245267848	1.1633148661662598	0.3647020778872867	2.9228686385152876	0.09748771469121043	-0.41156541108282324	0.5090531257740336	68.57850758915316
4	2.0	perception	471	diff_vonmises	-0.026092698964540716	-1.4950015267735564	7.349774481166873	1.2903857619123673	0.0565287959079519	3.0046163332128226	0.8642208462929818	-0.47942092735394065	1.3436417736469224	49.62018963530724
5	2.0	wm	471	diff_vonmises	0.04907199374575559	2.811618133924167	4.635192410759389	0.5471956132882521	0.11725265623942467	2.3857446334698547	0.030161048309680305	-0.37629658201318306	0.40645763032286336	59.8098336023823
6	3.0	ltm	471	diff_vonmises	0.205623058380311	11.781333415763953	4.978494281216959	0.4642708782691929	0.07509946924171261	1.330149464932789	0.173758425271367	-0.20866773732262364	0.38242616259399065	59.54804315377447
7	3.0	perception	471	diff_vonmises	0.07592315634030897	4.350076425611621	5.412036370691002	1.7389974501239194	5.825951071052502e-19	2.4829554384279446	1.1774140088643579	-0.3951433081806209	1.5725573170449787	58.63914968038455
8	3.0	wm	471	diff_vonmises	-0.06211046023484719	-3.558667235071872	4.384312291446023	0.4577906994648072	0.03267328187369174	1.508635143798933	0.12188619658339722	-0.23656491179498293	0.3584511083783801	64.1548353198441
9	4.0	ltm	471	diff_vonmises	0.4943214068427693	28.322530335059973	0.17584034426906597	117.0537275307399	0.1647013713707741	118.8544297732816	-0.11208470891546085	-0.42993347301345075	0.3178487640979899	153.22797221681984
10	4.0	perception	471	diff_vonmises	-0.06389098037816028	-3.6606835246217404	3.579844505111837	1.9364762178926873	0.020454667117873374	4.491076124364928	0.6711601139813955	-0.7014575141529374	1.372617628134333	71.65697581493106
11	4.0	wm	471	diff_vonmises	0.11802100313183762	6.762105373354567	0.7630022221653622	154.64949270193824	0.7463853786081442	156.91671807115247	-0.17460879337449597	-0.442333355614128	0.26772456223963204	85.3183483394132
12	5.0	ltm	471	diff_vonmises	0.21483467563749603	12.309120207090531	1.2798835378798696	2.248950122808753	0.34206692729299154	3.6452095773679294	0.09223669350568042	-0.3451349350200799	0.43737162852576034	95.33718613790603
13	5.0	perception	471	diff_vonmises	0.00776795097610207	0.4450708063951768	2.3953508120533624	2.5552949515694636	1.4191302908452161e-18	3.599941424205677	0.8954523831063511	-0.560749250890698	1.4562016339970492	88.86915265670174
14	5.0	wm	471	diff_vonmises	0.07924900373805094	4.5406334448068035	0.5883707014600039	180.71699573125443	0.5736864226623473	182.10387577063398	0.13987000115903214	-0.39326881153553117	0.5331388126945633	111.07290855129119
15	6.0	ltm	471	diff_vonmises	0.4280299041992021	24.524307016003235	0.7913940362522501	133.64277782699233	0.7761082346117733	134.6867294826945	0.0778730841826345	-0.26202137751969623	0.33989446170233073	94.01123879703749
16	6.0	perception	471	diff_vonmises	-0.15972804317272282	-9.15174274368042	1.1684395268550456	2.429691326374359	6.366324414461696e-18	3.1772058519270283	0.4013167645460557	-0.41802650057319507	0.8193432651192507	121.73405953854383
17	6.0	wm	471	diff_vonmises	-0.038291970625840915	-2.193968306099606	0.5320048528626725	177.52143539246129	0.5199647300781052	178.66234964309757	0.11524368462765722	-0.3365931009650609	0.4518367855927181	116.97405811442061
18	7.0	ltm	471	diff_vonmises	0.08418039492153008	4.823181346748182	1.0578055694259225	57.96218457462716	1.006652366147585	59.601826165298014	-0.003141410243824083	-0.37382726513724407	0.37068585489342	78.24737615814243
19	7.0	perception	471	diff_vonmises	-0.008242570676687298	-0.47226451211247317	1.033374496951037	372.2618979103375	1.0181576148748135	373.53500648070656	0.6296028087603531	-0.50784028032853	1.1374430890888831	87.72374526424835
20	7.0	wm	471	diff_vonmises	0.13950690612667244	7.993156933986097	2.6885089874312227	0.561863794076212	0.005796846942911681	2.3625632768134364	-0.03269231251175547	-0.37224031915811273	0.33954800664635726	83.27230857268651
0	1.0	ltm	472	diff_vonmises	-0.018880784410586618	-1.0817892606230128	1.28421437861052	2.551884485630233	0.38794440296308774	4.667107721145263	-0.04782553381550514	-0.44736117878374915	0.399535644968244	89.19238234437023
1	1.0	perception	472	diff_vonmises	0.012636996883176595	0.7240465871259948	12.173689591105378	0.6226298350681962	2.4653382467854015e-20	2.7540802621904783	0.41896727160397906	-0.43832548737656496	0.857292758980544	38.863013158056646
2	1.0	wm	472	diff_vonmises	0.09573595543490089	5.485266194072357	4.33546357225647	0.42781823427582777	1.682099048615102e-13	2.7187966761484716	-0.08912220871711896	-0.43265098663978613	0.3435287779226672	65.69628950516088
3	2.0	ltm	472	diff_vonmises	-0.005350099284589229	-0.30653810898292394	3.105041601191862	0.6240200074271975	5.158605963212016e-13	1.9106423382445548	0.11267375865482598	-0.3032507941743158	0.41592455282914176	77.95649149837769
4	2.0	perception	472	diff_vonmises	-0.04515466822370406	-2.5871719145317322	7.307183153745652	1.080546367717477	0.08292835680556787	2.40144091008242	0.7291689529476193	-0.38478079104713075	1.11394974399475	49.57158850834918
5	2.0	wm	472	diff_vonmises	0.007422199168517841	0.42526068706158116	4.658076445678538	0.47273182338894293	0.055469037642485404	2.015847879429975	0.05576353222503033	-0.31684238142762244	0.3726059136526528	61.343411905869374
6	3.0	ltm	472	diff_vonmises	0.10453124200059395	5.989198993894681	0.9637452221479516	131.8278215579229	0.9456311612423952	132.70650213171186	0.16213935617379605	-0.25332068448380163	0.4154600406575977	87.49700242750976
7	3.0	perception	472	diff_vonmises	0.024806688057647873	1.4213185294008048	4.563176046811697	2.0125788453487106	0.2189813851580121	2.869951627341914	1.0997936360978562	-0.4345279962431439	1.534321632341	61.35572950245739
8	3.0	wm	472	diff_vonmises	-0.008929936436964367	-0.5116476691581503	2.3032978696191475	1.126667624574348	0.34945524094451746	2.394759779225704	0.10813337979839655	-0.3070339895063197	0.41516736930471626	76.1787896579695
9	4.0	ltm	472	diff_vonmises	-0.05795110175222505	-3.320353548535685	0.8283591925920645	179.20114240777042	0.8142198575278123	180.76811894122417	0.003705146462792186	-0.34939563366418724	0.35310078012697943	88.43436013925572
10	4.0	perception	472	diff_vonmises	-0.04220056438611997	-2.417914232394764	1.8816824811271489	3.97463383082021	0.42457557460033607	5.697585796399291	0.6499886789315887	-0.5923776983527355	1.2423663772843243	84.08774105208636
11	4.0	wm	472	diff_vonmises	0.044189812679580144	2.5318897640136333	0.8097111637776089	216.74957790158933	0.7965833898120938	218.91166353470345	-0.1117394126082587	-0.4418011590568156	0.3300617464485569	85.42808106519215
12	5.0	ltm	472	diff_vonmises	0.16413988713193034	9.404522782413299	1.696139996270002	1.452795301000736	0.1967972005279563	2.5614030822677623	0.18650822866538097	-0.3139712297317966	0.5004794583971776	93.29898595493111
13	5.0	perception	472	diff_vonmises	0.02762394195382972	1.582735287468812	2.302219655694523	2.061213435137428	2.6533232012885835e-16	3.079540943212485	0.6668326742695798	-0.4785447224063054	1.1453773966758853	90.62795654987244
14	5.0	wm	472	diff_vonmises	-0.07104312832432393	-4.0704714163900775	0.5267657237873319	213.9277075183486	0.5163301933394118	215.2566419331596	0.08663275415688787	-0.36523077282237537	0.45186352697926324	116.18482614044149
15	6.0	ltm	472	diff_vonmises	0.16011043245103193	9.173652035458586	0.341091898027308	95.01982545706235	0.3278322314045012	96.02409257169246	0.011549587657547988	-0.2747363181106035	0.2862859057681515	137.10799411222143
16	6.0	perception	472	diff_vonmises	-0.1251734442768563	-7.171910064179856	1.746841477431481	1.5654977625621216	1.334822278716118e-22	2.7179979713523728	0.3113252889117932	-0.4099760230251012	0.7213013119368944	103.28720502492654
17	6.0	wm	472	diff_vonmises	-0.11266437316026184	-6.455193083569992	0.5015470694096728	171.82270309617482	0.48893755711205017	173.21319219065714	0.06441144619036976	-0.37332803467839426	0.437739480868764	118.4292510583159
18	7.0	ltm	472	diff_vonmises	-0.00011080487725901817	-0.006348651816406855	1.1234154071572804	126.30799981208463	1.0965221703428734	127.78037983960054	0.1053107741106416	-0.37339416904900524	0.47870494315964685	78.18231155244709
19	7.0	perception	472	diff_vonmises	0.04936511011506863	2.8284124647920024	2.4363618052613396	1.6210677609654518	5.932190023521051e-22	2.9541311377857458	0.4708271912077116	-0.462963481504755	0.9337906727124666	88.1168827336773
20	7.0	wm	472	diff_vonmises	0.0890310838488086	5.101105350012083	3.7458484276548014	0.526638755497711	4.780749179035696e-26	2.3020528542805425	0.024210563004036678	-0.36616525602541616	0.39037581902945284	70.8073298427476
0	1.0	ltm	473	diff_vonmises	-0.13643603102733814	-7.817208751382425	1.2490219159030527	98.40887932678437	1.2285464143882805	99.07140705853914	0.11531975922311943	-0.1931449731565511	0.30846473237967054	76.09606458135244
1	1.0	perception	473	diff_vonmises	0.023468872671267137	1.3446673539935252	13.433184346322271	0.5927198124757652	2.1368159600510214e-21	1.2782788936849774	0.6546567664768164	-0.2034444045781592	0.8581011710549755	36.981716926809696
2	1.0	wm	473	diff_vonmises	0.022480517192968116	1.2880387564283575	4.903282229807544	0.2713428778388644	1.2195579112554051e-18	1.047091777163905	0.06618763799087801	-0.16663700388433064	0.23282464187520865	61.67536482871546
3	2.0	ltm	473	diff_vonmises	0.02609390827339536	1.4950708150670553	4.246480502045879	0.3455166410623284	3.712339817922774e-16	0.6772221853220247	0.16660822120429136	-0.10772701617699114	0.2743352373812825	66.39906437150242
4	2.0	perception	473	diff_vonmises	-0.01639282467378572	-0.9392396681058421	8.632293545338397	0.9493937281520107	0.08398785196191157	1.2587450675321485	0.8782410081499818	-0.20255812673892581	1.0807991348889077	45.8639193856319
5	2.0	wm	473	diff_vonmises	0.04461397128390352	2.5561922618855224	7.4243332450916535	0.23833237324543322	0.12559495432463705	0.7371556143993169	0.12185039443346693	-0.12007203684758008	0.241922431281047	48.56222719575905
6	3.0	ltm	473	diff_vonmises	0.1835875283114046	10.518790543481996	1.7166223513727665	78.3838418976312	1.6981870080416421	78.48388884607105	0.19473060568120815	-0.08937465237731779	0.28410525805852593	70.1227163929453
7	3.0	perception	473	diff_vonmises	0.02520157199017162	1.4439437121319445	5.48013634993925	1.549376105856776	0.4167451199720019	1.5922507535766897	1.0420640364895237	-0.24643268535814258	1.2884967218476664	55.63847517159377
8	3.0	wm	473	diff_vonmises	0.005338689271263468	0.30588436337516983	3.327095954818737	0.7887744287458252	0.9723281034554621	1.126549257986682	0.16866270251977944	-0.13866313211863984	0.3073258346384193	60.81221396513996
9	4.0	ltm	473	diff_vonmises	-0.11140892027439454	-6.383260931832277	1.6705971614675736	154.12403583346472	1.657879306413484	154.6524453109274	0.08757216938819568	-0.17048683927107788	0.25805900865927356	64.87533612596124
10	4.0	perception	473	diff_vonmises	-0.06687802432384764	-3.8318285359297306	2.701220547753484	2.086976681297936	0.26666007931249164	2.8095406623803716	0.7132792975249211	-0.3671560031821981	1.0804353007071192	77.10534877459384
11	4.0	wm	473	diff_vonmises	-0.04268563008613033	-2.4457064497919165	1.2927498113622746	125.65926029098192	1.275987271382253	126.65390908827642	-0.0071073465603745944	-0.24164144959753386	0.23453410303715927	69.65143808945135
12	5.0	ltm	473	diff_vonmises	0.21726042239549578	12.44810525849146	0.9193617980438697	81.38340770480603	0.8972838400675127	81.75254408560771	0.22310650529040288	-0.16717860794040718	0.39028511323081005	94.022399012857
13	5.0	perception	473	diff_vonmises	0.032151499919349694	1.8421452503939442	3.7545844008626283	1.37804587742595	4.1588845612522727e-16	1.761508600244967	0.7430095148293213	-0.2797919452177191	1.0228014600470403	70.72331412448281
14	5.0	wm	473	diff_vonmises	-0.0736229553659381	-4.21828461774829	0.4460142400201978	107.08790478040615	0.4340079530421959	107.5636443115788	0.1262673025757941	-0.19945031450524375	0.32571761708103786	129.15311635896038
15	6.0	ltm	473	diff_vonmises	0.01777849510900415	1.0186327358399143	0.768211291295524	65.51497592687748	0.752170903204532	65.97259236799063	0.06587578506164249	-0.1286883818300133	0.1945641668916558	97.61856460642537
16	6.0	perception	473	diff_vonmises	-0.1963768055654802	-11.251562153163192	2.056728194860803	1.2843511643876737	5.782588295311983e-12	1.9037550376924484	0.3708549727666824	-0.29197340724299087	0.6628283800096733	95.68580571058938
17	6.0	wm	473	diff_vonmises	-0.2655882983046607	-15.217088580918574	0.6779845323280995	40.60742343099953	0.6250113174593062	41.28673601151224	0.22524291491534143	-0.2637679476695376	0.489010862584879	109.04896798938354
18	7.0	ltm	473	diff_vonmises	0.12728212557862945	7.292728603109609	1.0107947718168133	110.73527644465024	0.9936759710158899	111.20853100873539	0.19737740350041832	-0.17596414422915352	0.37334154772957184	88.19723448293817
19	7.0	perception	473	diff_vonmises	-0.027567521470552084	-1.5795026318989152	3.3102008217670456	1.2217444554084451	7.564422810951075e-16	2.0363368924828174	0.5218049948467148	-0.3229653874658465	0.8447703823125614	75.44805098861514
20	7.0	wm	473	diff_vonmises	0.3234040339492423	18.529686222797174	5.297880452394514	0.40661186636149077	9.992173587777809e-17	1.0458808153323589	0.19708508139456316	-0.16644800189750023	0.36353308329206335	59.28466712527228
0	1.0	ltm	474	diff_vonmises	0.02907955438226059	1.6661357362246896	1.797680054895649	2.5126789929486826	0.5352184279313543	5.026892565553261	-0.058491466416423554	-0.5458638188710336	0.4873723524546101	75.00854519029957
1	1.0	perception	474	diff_vonmises	0.04917317705661987	2.8174155105938503	9.91035299664766	0.7425664912680079	0.06545009909889327	3.2846174667495776	0.36266809961204194	-0.5338820593672986	0.8965501589793405	42.478970201028744
2	1.0	wm	474	diff_vonmises	0.16560797460065818	9.488637998327448	4.10540213735291	0.4513738708361713	0.00544426586521906	3.0352729327650474	-0.13376803837466522	-0.48102493089782367	0.34725689252315844	67.02889406966753
3	2.0	ltm	474	diff_vonmises	-0.006691777771300949	-0.38341062373500456	2.970383405720466	0.9796778977976259	0.3707761669153075	2.0636098556843594	0.1780761555337652	-0.2854945931822318	0.463570748715997	69.25996980493554
4	2.0	perception	474	diff_vonmises	-0.050367460273566714	-2.8858428984682116	7.374715825933418	1.091932967715839	0.05363794586236228	2.0840834958529104	0.8117835560072776	-0.33194005347728994	1.1437236094845675	49.631407128129496
5	2.0	wm	474	diff_vonmises	0.023542731571496833	1.3488991572561646	5.160259550402974	0.4937448949221658	0.11046007181461538	1.8603523769894084	0.10569673207520397	-0.294784892009662	0.400481624084866	57.464189923443
6	3.0	ltm	474	diff_vonmises	0.12359139792584804	7.0812654852730095	2.6243503021607095	0.7110662868729494	0.11596930121104229	1.3928044860715978	0.1830561619522381	-0.2001057737861676	0.3831619357384057	80.12484288738548
7	3.0	perception	474	diff_vonmises	0.038682257371387245	2.2163300894193068	5.495479389057039	1.5331649631118136	0.00497255332795026	2.1865698675217553	1.0480778216738622	-0.3467735033783823	1.3948513250522445	58.10381339299255
8	3.0	wm	474	diff_vonmises	0.030285244555175492	1.735216694533112	2.933756768268507	0.9433280997171164	0.33416725081583337	1.9532046837685024	0.18766134879735308	-0.2699789640481072	0.45764031284546025	70.53227361575827
9	4.0	ltm	474	diff_vonmises	0.07594606026992115	4.351388724112663	0.728658298850105	118.75443952263015	0.7127820886890318	120.13067894717612	-0.035339985104428706	-0.2925584784415385	0.2572184933371098	92.7661883596383
10	4.0	perception	474	diff_vonmises	-0.07309274024228776	-4.187905528929119	2.97401396509518	2.073044389633258	0.016872126384033397	3.7313813364803687	0.7470834786673869	-0.5803629378030883	1.3274464164704751	79.00634366604336
11	4.0	wm	474	diff_vonmises	0.033465460348279345	1.9174296374188124	0.9784814832963947	251.17088580530353	0.9646454317781256	253.2797741440334	-0.04756463788852727	-0.46225820310827004	0.41469356521974277	79.54701880196552
12	5.0	ltm	474	diff_vonmises	0.053087217264483656	3.041673495348953	1.8068237747603926	1.0472797505973448	4.774294028410996e-21	2.0910983603972135	0.1751816311317137	-0.3191165860156652	0.4942982171473789	101.72997745234352
13	5.0	perception	474	diff_vonmises	-0.0033237065691216557	-0.19043435875057768	2.135829622438986	2.241434545841982	5.3590343550319866e-20	2.9299931649989963	0.7366855653163509	-0.4495301814888663	1.1862157468052172	94.00877171437557
14	5.0	wm	474	diff_vonmises	0.018434194137263386	1.0562015227899977	0.6183545848130507	208.38497092428523	0.6064179265548172	209.45190002927853	0.18671746744698936	-0.3382104820293499	0.5249279494763393	110.04197845212093
15	6.0	ltm	474	diff_vonmises	0.4796984342636987	27.484695722343695	0.7415500054341608	142.77717979315847	0.7284513237415432	143.57163487439095	0.12649904509966348	-0.23057235698726153	0.357071402086925	99.72472299908378
16	6.0	perception	474	diff_vonmises	-0.06733340330146277	-3.85791982942606	1.1776414029198634	3.0571135556813207	0.14911304444960188	3.767631245019325	0.4542060300338603	-0.4049538887154276	0.8591599187492879	113.82950435880709
17	6.0	wm	474	diff_vonmises	0.0122780830040867	0.703482336645475	0.6547951713952727	197.96635483519066	0.6410662958690692	198.99058104186824	0.23650963785173928	-0.3462335341073377	0.582743171959077	107.93848853870202
18	7.0	ltm	474	diff_vonmises	0.0030731357604667354	0.17607770894547065	1.973174041806572	2.173957705796975	0.6204926610432712	3.7441681072931967	0.10356084598172588	-0.38896033365558846	0.49252117963731434	74.00452913817574
19	7.0	perception	474	diff_vonmises	0.05992166153731354	3.4332583074994623	1.9172165776703118	2.9544829058967967	0.38204112541835983	4.30695196649008	0.5168548715912794	-0.46680094256668647	0.9836558141579659	84.57628182219858
20	7.0	wm	474	diff_vonmises	0.24284682742917035	13.914098279833297	3.160817529976241	0.7030827894445655	0.0026943836459240415	2.3547360525368224	0.09856170647781654	-0.37290639942847786	0.4714681059062944	77.04798861110459
0	1.0	ltm	475	diff_vonmises	0.34030324171285475	19.497939504766887	1.9051896440266995	0.5422384541447777	3.2471226828131817e-32	2.4309861511590225	-0.11529778857620471	-0.3808893073337194	0.2655915187575147	99.05390381184574
1	1.0	perception	475	diff_vonmises	0.03729903778867818	2.1370774451902306	7.271329797247556	0.8936405436749473	0.12562422888153912	2.8190908719541397	0.43688630768165737	-0.45864131835063626	0.8955276260322936	49.01578157697679
2	1.0	wm	475	diff_vonmises	0.08506942004208887	4.87411873403731	3.7332965035769776	0.40588661088676264	4.546360448926847e-18	2.5105180335283226	-0.09908329459294063	-0.39938951626589936	0.30030622167295873	70.92966837629191
3	2.0	ltm	475	diff_vonmises	0.18641792108191158	10.680960103596387	4.144881003384465	0.5948154772388855	0.2538932748705436	1.7778869339295418	0.10731259095489004	-0.2760638521802889	0.38337644313517893	61.13487896336355
4	2.0	perception	475	diff_vonmises	-0.025967602061298035	-1.4878340021875942	8.660537257998547	1.0736255499505543	0.006578859967126351	2.2101237499217077	0.8867668007007399	-0.3515390726287378	1.2383058733294776	46.11444896429077
5	2.0	wm	475	diff_vonmises	0.07765636583666527	4.449382014764832	6.305947548233796	0.40925828456376556	0.014563100293042922	1.8724756020902664	0.09872718283483667	-0.29726699551638003	0.3959941783512167	53.83309948926487
6	3.0	ltm	475	diff_vonmises	0.29998471009756106	17.187857807045777	4.306396329252595	0.5125449174171813	0.11124863417344734	1.2134569068438834	0.19500522290815092	-0.18702994640826362	0.38203516931641457	63.43338429648125
7	3.0	perception	475	diff_vonmises	0.012490153240683031	0.7156330661627855	6.261005619573785	1.5706768952911245	7.374554930252003e-22	2.4730133879077076	1.140177711416333	-0.3935867127645842	1.5337644241809172	54.436739588776106
8	3.0	wm	475	diff_vonmises	0.0012505955873642531	0.07165384903365593	5.972087372577906	0.5316922301126543	0.19755923196889305	1.7439812946584026	0.17159663905402273	-0.2841362835886752	0.45573292264269794	52.78534899404838
9	4.0	ltm	475	diff_vonmises	0.3197880435249896	18.322505232727774	0.8052950419931999	180.62413037902496	0.7926842992437744	182.18487163803204	-0.03674864374756481	-0.33342864955024254	0.2966800058026777	88.01686943829947
10	4.0	perception	475	diff_vonmises	-0.03681063368499561	-2.1090939513523494	3.4011680772064605	1.80032383408938	1.5587377170960596e-17	3.975525674928871	0.6329287484950858	-0.6313181813325011	1.264246929827587	74.40219194187443
11	4.0	wm	475	diff_vonmises	-0.02437217832085597	-1.3964229553252887	0.9777878774641556	212.72445849888953	0.9628712926834649	215.10327651181734	-0.1944376938995731	-0.48477721491335046	0.29033952101377736	74.71477791881745
12	5.0	ltm	475	diff_vonmises	0.1339915264985597	7.677148958882803	1.8920845020071364	0.919970349648582	5.960431657303404e-16	1.7424370860301632	0.18158624879013568	-0.2668870034130321	0.4484732522031678	99.5536206999414
13	5.0	perception	475	diff_vonmises	-0.009586493972972935	-0.5492656449789498	2.37689408422782	1.9117079509568222	2.328297106589733e-20	2.5010114699650776	0.6954971533541427	-0.38862170151149183	1.0841188548656346	89.21161755872745
14	5.0	wm	475	diff_vonmises	0.05881610490437952	3.3699145784196487	1.151953010767723	2.302348711662234	0.27622194435808556	3.325710317369505	0.16780856060272142	-0.309533086143003	0.47734164674572443	104.8585207840556
15	6.0	ltm	475	diff_vonmises	0.3453541944687761	19.78733778020115	0.49264238905000607	113.65070775628487	0.47950332911979987	114.16422201434068	0.1537344740381812	-0.2182756350916062	0.3720101091297874	124.0712491011121
16	6.0	perception	475	diff_vonmises	-0.02659383750384669	-1.5237146500271395	1.8182515158982095	1.4313866407004814	1.3623739914185014e-15	2.055003992792976	0.36986389138739834	-0.30870165218526585	0.6785655435726642	101.44926863445953
17	6.0	wm	475	diff_vonmises	0.14813713106274892	8.48763239907184	0.595472164957476	197.2885509199441	0.5850256749311407	198.2387607070912	0.14003723895841347	-0.29175371053448274	0.4317909494928962	111.5197181481449
18	7.0	ltm	475	diff_vonmises	0.06633087172019876	3.800479000991056	1.3318911227222354	3.3822172765144094	0.5588049335619483	5.006009090735284	0.07343093739654716	-0.38411612692809943	0.4575470643246466	85.59121796832812
19	7.0	perception	475	diff_vonmises	0.07277425014624508	4.169657390609157	1.6749387109961777	2.424765025322485	0.13677283270740148	3.8830119463051864	0.4178330831802325	-0.49733863702392367	0.9151717202041562	97.71597285688074
20	7.0	wm	475	diff_vonmises	0.09344617818505938	5.354071621631365	2.8809146267504633	0.540076521872026	5.978381684285511e-34	2.3046431762217945	-0.021188037657870584	-0.3657081770565271	0.3445201393986565	80.9865537278352
0	1.0	ltm	476	diff_vonmises	-0.060509001946618075	-3.4669104340900985	1.267500193839189	53.025419873487515	1.227859139678813	53.413521299954304	0.23625233950594193	-0.16829528232594626	0.4045476218318882	79.86717928056873
1	1.0	perception	476	diff_vonmises	-0.028785738783232154	-1.649301342445252	12.47337302686096	0.6058072018298171	1.2349227570106103e-18	1.05728574629784	0.676211940903521	-0.16827225277152938	0.8444841936750503	38.39183804033084
2	1.0	wm	476	diff_vonmises	0.12072736803635141	6.917168660205533	2.166284000802815	0.5961082814130142	4.525933662806313e-30	1.0450708141191767	0.15634357814128275	-0.16209026790034986	0.3184338460416326	93.34591994257096
3	2.0	ltm	476	diff_vonmises	0.055929726601427907	3.2045372835823884	7.16159727165084	0.3278777550717303	9.120214328408227e-12	0.4318248107907741	0.2747483473693095	-0.06872684643387497	0.3434751938031845	50.83768190954024
4	2.0	perception	476	diff_vonmises	-0.04884774281502772	-2.7987695020415795	7.5619395394672795	0.977279688482106	2.4004682114615357e-18	0.992009379458598	0.8952583606307111	-0.1578829116851179	1.0531412723158289	49.45120318368515
5	2.0	wm	476	diff_vonmises	-0.030261509468287193	-1.733856774228036	6.652126684458367	0.3528912167754902	0.08180603532503801	0.5658743746611973	0.2581330276193459	-0.08978210028430358	0.34791512790364953	52.11140251713741
6	3.0	ltm	476	diff_vonmises	0.16461185064878542	9.431564300013246	1.467961970631052	18.618465524740305	1.3976096149401136	18.61567270539106	0.2334202430151482	-0.07726759525867521	0.3106878382738234	78.78011707447243
7	3.0	perception	476	diff_vonmises	0.015532060318315393	0.889921503382094	5.753123237780598	1.377205188497345	0.09147165749029852	1.402099822706852	1.0423993353359216	-0.21863963783595175	1.2610389731718734	56.179332705656606
8	3.0	wm	476	diff_vonmises	-0.029791656300033127	-1.7069361706962278	1.7759121392700983	43.72292481259563	1.7203525057172133	43.89010211622328	0.3234391688163001	-0.14935577229957353	0.4727949411158736	69.23807917203223
9	4.0	ltm	476	diff_vonmises	-0.16783265624126947	-9.616102867094716	1.8548220954408499	115.40832401837172	1.837672844528381	115.72843917751649	0.163263409535098	-0.14241410325267623	0.3056775127877742	64.3203765381723
10	4.0	perception	476	diff_vonmises	-0.08205246168664808	-4.701259753303823	2.782698176321014	2.0409847112976225	0.049678673324246095	2.720039603659004	0.8255998574202827	-0.4073120679445669	1.2329119253648497	80.89109976038264
11	4.0	wm	476	diff_vonmises	-0.03833612199073376	-2.196497992967708	1.4079232642911566	201.49008829841867	1.3938412069246169	202.56078781510493	0.06264976464635197	-0.28829688614034055	0.3509466507866925	68.80241218651017
12	5.0	ltm	476	diff_vonmises	0.17472187573389317	10.010826068161311	1.7217449667285085	0.9400482373667626	2.95596364389764e-14	0.9754361839247132	0.287540746252517	-0.14109715114908342	0.4286378974016004	103.91292729454065
13	5.0	perception	476	diff_vonmises	0.005285650599512294	0.3028454713328478	2.657795984589885	1.5774948616777351	5.30983774332465e-18	1.436533670981579	0.7349181988778479	-0.22389584483533503	0.9588140437131829	84.36294045216107
14	5.0	wm	476	diff_vonmises	0.022272877355266497	1.2761418700692733	0.6818860101234201	96.83490018625986	0.666710325532827	96.86763643842589	0.27061973253081817	-0.14316146667386587	0.41378119920468404	113.07162182745127
15	6.0	ltm	476	diff_vonmises	0.42233949806816007	24.198270760979156	0.8696989197769684	49.42618777593133	0.8538573983184231	49.3928383048176	0.15982191901773568	-0.060333411441200635	0.22015533045893632	101.92288852450281
16	6.0	perception	476	diff_vonmises	-0.11507645400645018	-6.593395135900929	2.0000796491695763	1.4089962333011534	4.120216917912771e-06	1.3867766993394397	0.5061482154607535	-0.2073993044405298	0.7135475199012833	97.00256811285625
17	6.0	wm	476	diff_vonmises	-0.10422097200498984	-5.971421832637023	0.7604986493455426	88.45115636845827	0.7395444753258461	88.6919461053356	0.2834838676586422	-0.18135136865359058	0.4648352363122328	105.35279653065419
18	7.0	ltm	476	diff_vonmises	0.00037701291464785005	0.02160124883124774	1.6849808899053855	3.2046271451036135	1.028566649055959	3.533141556338492	0.2633712664193517	-0.16252457448391827	0.42589584090327	77.44377432260382
19	7.0	perception	476	diff_vonmises	0.031233548314763035	1.7895504976538668	3.043833393141902	1.3022772030147485	1.9282560079791666e-16	1.8833505528702041	0.5602475540951368	-0.29779168513924376	0.8580392392343805	78.75077114621922
20	7.0	wm	476	diff_vonmises	-0.14014806245286016	-8.029892485484767	0.00034929186954406815	3402.37410592092	2.4358963289593438e-26	3402.8404543869665	0.11493799937636595	-0.2633482934578524	0.37828629283421833	179.41839596864992
0	1.0	ltm	477	diff_vonmises	-0.06629299158060716	-3.7983086288650902	1.1111845501196986	569.0759827346344	1.0990503052998846	573.2520811318442	-0.21285690956494818	-0.9160925412500234	0.7032356316850752	72.64825842030524
1	1.0	perception	477	diff_vonmises	0.05900324882183235	3.380637135051241	7.709066389572426	0.8898250439425371	2.4984264513066815e-22	4.239429924815781	0.2936930608946141	-0.6747260333513179	0.968419094245932	48.973230062794414
2	1.0	wm	477	diff_vonmises	0.1274031413121957	7.299662293897635	7.065740579760115	0.38641024448863714	8.782073165898926e-22	3.9791750745140217	-0.23136468049958797	-0.6333050894330411	0.4019404089334531	51.188184669592715
3	2.0	ltm	477	diff_vonmises	-0.09670059381027268	-5.540535901737517	2.9323246780155214	1.1578180581645119	0.20834300603910574	3.2700301655337785	0.11434303761155329	-0.47511146451878655	0.5894545021303399	71.75408905988712
4	2.0	perception	477	diff_vonmises	-0.06022795203758656	-3.450807460470057	6.161474573511021	1.388870025313441	0.09807445908307284	3.25774455741107	0.7741873865971125	-0.5178518667430123	1.2920392533401248	53.67282916699051
5	2.0	wm	477	diff_vonmises	-0.044568275801234236	-2.5535741035857593	3.539914288254566	0.7797317842385532	0.1739803223612934	2.778786740945661	0.03811002936706165	-0.42349343112367294	0.4616034604907346	66.29633894950712
6	3.0	ltm	477	diff_vonmises	0.0377951816176221	2.165504392620178	2.897711260812842	0.6672486844222	0.08408217242507113	1.7479685737010355	0.1263657606665664	-0.26111712511273244	0.38748288577929885	76.70624410397181
7	3.0	perception	477	diff_vonmises	0.09775958533601593	5.601211646702724	4.653047047236474	1.9668650174596711	0.058435080018752444	2.540751752082385	1.212659973335987	-0.3932809704125907	1.6059409437485779	62.56616787388484
8	3.0	wm	477	diff_vonmises	-0.09618969602520461	-5.5112636148905345	3.2579639064187234	0.632844807676281	1.36755246643341e-23	1.644452263652061	0.17252960060741368	-0.26107999860700654	0.4336095992144202	76.06661704937207
9	4.0	ltm	477	diff_vonmises	0.09309633317859779	5.33402697927739	0.0001960407330418082	6177.77341359238	7.505851504366048e-35	6179.50927001116	-0.08351216738003586	-0.4690091993961687	0.38549703201613283	179.64004884660864
10	4.0	perception	477	diff_vonmises	-0.04355788317376892	-2.4956828703808625	2.0119750196928408	4.209743493217865	0.4047485653026835	6.450261836808905	0.7018083654913685	-0.7146989015271225	1.416507267018491	81.92363912055586
11	4.0	wm	477	diff_vonmises	0.17111712171868718	9.80428887690717	0.7225840909893672	182.01844411288874	0.7083235578848778	184.08195305694565	-0.0954176781861733	-0.4226430628839708	0.3272253846977975	91.29542869891483
12	5.0	ltm	477	diff_vonmises	0.3399390201990755	19.47707114921947	0.7556904913603663	130.11936518798828	0.7335221951173776	131.78898780362687	0.06478528493676095	-0.39714967812722257	0.4619349630639835	95.09308894535522
13	5.0	perception	477	diff_vonmises	0.05427071633022744	3.1094829968737474	2.1397649229819646	3.044620439786933	0.0319850760964969	4.357941497083701	0.919961374056174	-0.6489266003055923	1.5688879743617663	92.58905008624507
14	5.0	wm	477	diff_vonmises	0.04613172026337096	2.6431528727692943	0.5239324562485326	207.5928386814082	0.5104631459235777	209.16168250777275	0.1337785818914341	-0.45116846099949726	0.5849470428909314	117.43671075640876
15	6.0	ltm	477	diff_vonmises	0.7057641097519195	40.437304820592814	1.1295747566794845	175.67314997620406	1.1149110829000073	176.99299813718656	0.0014114686651538477	-0.30858197623144434	0.3099934448965982	75.0639097338229
16	6.0	perception	477	diff_vonmises	-0.22463121188644886	-12.87042038800245	1.0560498558357196	2.849367575821231	1.6410631691102585e-12	3.799206907093327	0.3991272889359573	-0.48321972467503177	0.882347013610989	125.93167010337122
17	6.0	wm	477	diff_vonmises	-0.280466149122849	-16.069526641026023	0.38247177603826293	148.22241240519685	0.3687025335072266	149.58809457255506	0.06851344066581078	-0.40055990610832737	0.46907334677413814	132.7113622507507
18	7.0	ltm	477	diff_vonmises	-0.06268716442303342	-3.591709951082461	3.0314673362863718	1.2046248113526312	0.7636853290349478	2.5249383523961098	0.044460975265507185	-0.34551099706893307	0.38997197233444025	60.62914469835172
19	7.0	perception	477	diff_vonmises	0.004106275601899365	0.23527226150637542	1.1063405088215548	278.95204763348295	1.0879253890629867	279.7954400120555	0.6599019635179815	-0.42007183671629633	1.0799738002342778	86.11312305057015
20	7.0	wm	477	diff_vonmises	-0.4430461516419925	-25.384674618599238	0.002088399433566177	504.9303002786209	4.9214582975330635e-15	506.5854934875841	-0.0955201340489964	-0.43116899758065586	0.33564886353165946	174.358550154324
0	1.0	ltm	478	diff_vonmises	0.10293225128438574	5.89758357437535	1.7689449180171588	1.2387002634103013	0.1489418834076779	3.334255878347987	-0.01934630288519501	-0.44809760274010907	0.42875129985491406	90.20582422128459
1	1.0	perception	478	diff_vonmises	0.01994146312078883	1.1425616741369793	7.646036271638224	0.645175009653721	1.845944154821448e-17	2.796444663427251	0.25420926170486896	-0.4450678315297685	0.6992770932346375	49.17452923951106
2	1.0	wm	478	diff_vonmises	0.14385701722984814	8.242399940611064	4.556500867190897	0.449067266974687	6.127305415050148e-19	2.5139870163670315	-0.029616456777339928	-0.4000726197695841	0.37045616299224415	64.03592068538077
3	2.0	ltm	478	diff_vonmises	-0.04605102296679263	-2.6385292582572406	2.5301410215215876	1.1759218472397872	0.31053529492160103	2.4364784659719954	0.18144052537043243	-0.32390300404231115	0.5053435294127435	75.13244126507826
4	2.0	perception	478	diff_vonmises	-0.05092978699005941	-2.9180618460306924	6.527678348725634	1.0961650046730762	4.101207225152565e-22	2.4984163684164273	0.6964944715582038	-0.3976329749922411	1.094127446550445	53.29071175428092
5	2.0	wm	478	diff_vonmises	0.020380708337381703	1.1677285712190606	4.973743354464175	0.5230741924289364	0.07246127893966788	2.0360816659306895	0.10434711363650734	-0.32085209142922994	0.4251992050657373	59.18553807138096
6	3.0	ltm	478	diff_vonmises	0.13834848539049258	7.926784314902553	0.9883864244153215	151.9508867076138	0.9689033417999086	152.92460020799902	0.23403697341015572	-0.3000032940211259	0.5340402674312816	87.31022924927626
7	3.0	perception	478	diff_vonmises	0.018097446064626013	1.0369072794687113	4.340298377908427	2.038970030117345	0.09587256279621216	3.1696110644151587	1.0848263771006743	-0.48497907048004946	1.5698054475807237	64.09331951696257
8	3.0	wm	478	diff_vonmises	0.00817607897924575	0.4684548184764117	1.814181499130254	1.7982642344805548	0.38350128001934863	3.197112706327594	0.15441846862899034	-0.35532276689803555	0.5097412355270259	83.25419869031805
9	4.0	ltm	478	diff_vonmises	0.22102220611628998	12.663639589133986	0.4731136874734084	164.8378469416863	0.4597252488477479	166.5459536986187	0.0015468828294089576	-0.4191603537659283	0.42070723659533726	119.41792623835954
10	4.0	perception	478	diff_vonmises	-0.07246290805790855	-4.151818802962684	2.2426057896124636	2.95701694373073	0.18424048256062056	5.0895577515561135	0.6684262607312582	-0.676096866733426	1.3445231274646843	84.12535914507612
11	4.0	wm	478	diff_vonmises	0.019864762793629528	1.1381670691034786	0.8361483890973835	250.35227185656709	0.8224507848306826	252.79179194506287	-0.09654913421216804	-0.509589248368929	0.413040114156761	85.07711499106111
12	5.0	ltm	478	diff_vonmises	0.1083806395359628	6.2097532263393775	1.9484270198413385	1.1406572781590731	0.025603660846052288	2.110572928552631	0.23464859590671577	-0.3156016069347425	0.5502502028414582	96.7313317487197
13	5.0	perception	478	diff_vonmises	-0.02242984245417393	-1.2851353077675227	1.9987708127383494	2.352087712062464	3.4742277729029427e-19	3.089264785379824	0.7212551185492946	-0.4694004466684431	1.1906555652177377	97.04948225775223
14	5.0	wm	478	diff_vonmises	-0.047276832623094234	-2.7087629780497045	0.6349781105624303	171.8686346911305	0.6217309554719582	172.8947106574725	0.1553052661686678	-0.3093611378349923	0.4646664040036601	108.02363973339088
15	6.0	ltm	478	diff_vonmises	0.3396898073495669	19.462792304742194	0.4349309287689949	130.05101078421765	0.4242444747307617	130.72534650963894	0.09963166964358905	-0.23356715127719596	0.333198820920785	128.19078793907752
16	6.0	perception	478	diff_vonmises	-0.12347724990913239	-7.074725285675414	1.702105756247812	1.6561537011165604	2.009945490927288e-21	2.397815842311437	0.39303439544883584	-0.355879928318978	0.7489143237678139	104.50091703269601
17	6.0	wm	478	diff_vonmises	0.02668963667217284	1.5292035380530913	0.6701444692992474	172.0098977656788	0.6578774303646999	173.018643092415	0.12243498443712753	-0.2835234436259846	0.4059584280631121	104.15529077476799
18	7.0	ltm	478	diff_vonmises	-0.07072256422154508	-4.052104446237451	1.703333890345902	3.023608106459531	0.6349391096401668	4.737650926752804	0.12541066897700448	-0.4257870881970507	0.5511977571740552	77.7722963760801
19	7.0	perception	478	diff_vonmises	0.029647288078701955	1.6986644809181413	0.9350233004013178	165.85584521964267	0.9017421122949771	167.29634146879673	0.5848995857604535	-0.5382665396542539	1.1231661254147074	92.16382824808414
20	7.0	wm	478	diff_vonmises	0.1664895142125553	9.539146497562754	7.5048499570630405	0.5222438961376217	2.1420350572957667e-34	2.4396400080023133	0.17218156734910756	-0.38828059676411	0.5604621641132175	49.65018199026693
0	1.0	ltm	479	diff_vonmises	0.10232797191730036	5.862960916994521	1.160446274778032	6.1789723695233	0.6166105240100532	9.481863399137165	-0.25040098744494044	-0.6555144341034631	0.40511344665852267	79.62697112414497
1	1.0	perception	479	diff_vonmises	0.0770887751693607	4.416861465037266	7.408762349360964	0.9269129136453288	0.09846816291371706	4.032072831402679	0.28173791562533534	-0.6546499123971831	0.9363878280225184	48.516603665783066
2	1.0	wm	479	diff_vonmises	0.12256053301369887	7.022201276558738	4.398568253898827	0.45380729841854306	0.04176402547551593	3.760006292677425	-0.2562999852490572	-0.5937855564001953	0.33748557115113803	62.28904960597566
3	2.0	ltm	479	diff_vonmises	0.03591925699908695	2.0580218292934247	2.8298690452604163	1.0420754970372816	0.31901568773682787	2.6012256134542233	0.10471859310942366	-0.3652888060447513	0.47000739915417494	70.36495277137072
4	2.0	perception	479	diff_vonmises	-0.03738153805682891	-2.141804362363965	7.328933569619946	1.2230800995471232	0.09659362225910888	2.8067985679429452	0.8059145676800076	-0.4512910739460796	1.2572056416260873	49.367152115956145
5	2.0	wm	479	diff_vonmises	0.05843552403384759	3.348108900774754	4.985223959032044	0.5147328818201317	0.08370309796213889	2.3735618864392136	0.03557288923918406	-0.3754307336950793	0.41100362293426335	58.55618276344367
6	3.0	ltm	479	diff_vonmises	0.18897920192826276	10.827710686240005	3.79438055076662	0.5451747668119399	0.015821375593157914	1.5178050139319932	0.1618076419072179	-0.2383304212993232	0.4001380632065411	69.63710673546026
7	3.0	perception	479	diff_vonmises	0.048100535895726326	2.755957699142637	5.504614010964385	1.682442902936754	3.575499707974647e-16	2.681754360104083	1.1084304630182504	-0.426789054359332	1.5352195173775824	58.13187325799856
8	3.0	wm	479	diff_vonmises	0.012672623213966968	0.7260878255198201	3.561152661447893	0.6536810408084075	0.13786682342783826	2.039819530421997	0.10056753956159314	-0.3097484417081801	0.41031598126977326	67.72303250246722
9	4.0	ltm	479	diff_vonmises	0.39255555039357765	22.491776261987102	0.43687241694587203	198.34711115260396	0.42746181766451535	200.3439508594897	-0.1210775076189563	-0.4211269279767791	0.3000494203578228	117.96244420142384
10	4.0	perception	479	diff_vonmises	-0.05347763934055317	-3.0640430325364716	3.2870643061825096	1.961786321767303	0.01236934162922168	4.36043963953495	0.6504652997675826	-0.6836526921252237	1.3341179918928063	75.15248316998355
11	4.0	wm	479	diff_vonmises	0.12363141421369324	7.08355824967832	0.7513531474177818	197.18808045590174	0.7356972703530388	199.83667172662624	-0.18244989128468347	-0.5227064012154017	0.3402565099307182	87.01417060465553
12	5.0	ltm	479	diff_vonmises	0.0898707243719819	5.149213208298069	2.0370671066673887	0.9589629785644814	3.501494772221822e-18	2.3770341384309814	0.12191222365472387	-0.36980925530208736	0.49172147895681123	96.15939576683158
13	5.0	perception	479	diff_vonmises	0.0013781393463428986	0.07896156812636611	2.1662612028215693	2.4362230676277603	4.416734095745288e-18	3.5720990550615177	0.7501955398199616	-0.5511966820451417	1.3013922218651033	93.36565279518567
14	5.0	wm	479	diff_vonmises	0.035554441800628944	2.0371194581195535	0.5947073750971588	211.12533720061637	0.5814117221313989	212.68261917137752	0.12258315931102004	-0.4210930371624677	0.5436761964734877	109.56781601353323
15	6.0	ltm	479	diff_vonmises	0.3983425408249845	22.823346389789304	0.619688964062364	158.76660991001606	0.6066278150789234	159.91805754512177	0.08574805611058167	-0.3045971917090853	0.39034524781966695	107.00308233352027
16	6.0	perception	479	diff_vonmises	-0.06396336076327612	-3.66483061520841	1.2708109063618833	2.3091938752109087	5.284433417127667e-18	3.3557316203351024	0.37144042991546333	-0.46277866583613836	0.8342190957516017	118.09549953422125
17	6.0	wm	479	diff_vonmises	0.06171319781778355	3.5359057752149594	0.5632650348883246	241.83320189718205	0.5525257156264607	243.22990033044084	0.13090044432874492	-0.39680247080151787	0.5277029151302628	113.23972206805895
18	7.0	ltm	479	diff_vonmises	0.038684594778084086	2.2164640129580415	1.5151499495544387	3.658593572668422	0.6692655690267373	5.745772316393983	-0.006970575736585216	-0.4699815965722885	0.4630110208357033	77.20477700882705
19	7.0	perception	479	diff_vonmises	0.05521677785084812	3.1636883291650415	0.9264220090896169	293.7280657693277	0.9081833682829314	295.3972299112713	0.47812395763266125	-0.5468236741709447	1.024947631803606	90.95160570735032
20	7.0	wm	479	diff_vonmises	0.17985040858726126	10.30466935575349	2.555036021017575	0.8569705609417201	0.117639787395363	3.0820625263561094	-0.03831860020565714	-0.4537016905384826	0.41538309033282544	77.96211377408346
0	1.0	ltm	480	diff_vonmises	0.060648964716068045	3.4749297100685443	1.3225671845379343	5.224150268916943	0.7052292032521614	7.5160606959273375	-0.04848610121083352	-0.5013411182542789	0.45285501704344533	78.73008592304438
1	1.0	perception	480	diff_vonmises	0.05262581814270244	3.0152372729998462	8.23390040464109	0.7659521374560871	0.057220680050406196	3.0599045434639285	0.3474382144625665	-0.4924077481922182	0.8398459626547847	46.63690742358037
2	1.0	wm	480	diff_vonmises	0.16241517823456814	9.305704241705783	4.300038838984337	0.4314535549926174	1.0624013786189418e-17	2.706040392686672	-0.08567430276373172	-0.4306161843675269	0.3449418816037952	65.96812878468214
3	2.0	ltm	480	diff_vonmises	0.002950476746596109	0.16904986513144712	2.969642555538888	1.05542019981922	0.43962568776026867	2.1140621066045835	0.18936320481500807	-0.2877824186429298	0.4771456234579379	68.20394209744944
4	2.0	perception	480	diff_vonmises	-0.045542004525658604	-2.609364649885933	7.370966881217868	1.0881711490723804	2.926396924112141e-17	2.0750071580768075	0.8267647841098913	-0.3302471878627016	1.1570119719725929	50.10381888768663
5	2.0	wm	480	diff_vonmises	0.02794006292101707	1.6008476847042408	5.302872817389393	0.49155741145776194	0.1118048014815094	1.7906797264703074	0.12201714514052497	-0.28421167379123696	0.40622881893176194	56.78891047113308
6	3.0	ltm	480	diff_vonmises	0.16051834221442687	9.197023543323297	2.966463228795835	0.6897516487569555	0.13090735604282216	1.3375657122569755	0.20724411920104435	-0.19433042474382925	0.4015745439448736	75.42032535489795
7	3.0	perception	480	diff_vonmises	0.03819954473730465	2.188672692768731	5.389235487053722	1.5784251584177988	2.0511003477371624e-14	2.2347055548469466	1.0686309942898344	-0.35563474644823545	1.4242657407380699	58.7639036519316
8	3.0	wm	480	diff_vonmises	0.013503182833448233	0.7736753863500881	2.9127239436408257	0.9483879609889164	0.3264701908542376	1.9057129684144558	0.2013322077661815	-0.26219813849740475	0.46353034626358625	71.1175745745087
9	4.0	ltm	480	diff_vonmises	0.248608977862173	14.244245180563828	0.5586692430470992	139.95317210516268	0.5470592728415827	141.27444226551944	-0.03173353872109175	-0.29072460603565453	0.2589910673145628	107.10051562973183
10	4.0	perception	480	diff_vonmises	-0.07988874160068103	-4.577287724330228	3.0584904510339856	2.054316321882683	1.3709800566742145e-18	3.8278364158881617	0.7510255342430727	-0.6062191075890142	1.357244641832087	78.5605138381444
11	4.0	wm	480	diff_vonmises	0.008259555237151427	0.47323765574395255	1.0133574166729395	247.44863467279202	0.9993653795169344	249.5129436545073	-0.05057348797534189	-0.4548069405943451	0.40423345261900323	78.0002066196507
12	5.0	ltm	480	diff_vonmises	0.07820957667633886	4.481078661059017	1.819886087524715	1.0258432273865303	3.7309588023505054e-13	1.93666452869878	0.1915154776987082	-0.2951055766756436	0.48662105437435177	101.39117160285616
13	5.0	perception	480	diff_vonmises	-0.01590656468705906	-0.9113790231203173	2.152711385099162	2.2527853916575995	5.658610886542821e-17	2.7769568597533967	0.7728722291586851	-0.42557186167396044	1.1984440908326457	93.64982319459537
14	5.0	wm	480	diff_vonmises	0.030209093189309148	1.7308535426648137	0.648858083189774	175.0146936841322	0.6354144390698861	175.90573439664576	0.20432038642867667	-0.30164400919915835	0.505964395627835	108.41272202360334
15	6.0	ltm	480	diff_vonmises	0.46148274873911543	26.441013820847527	0.7178235082865319	139.06472395091512	0.7058037020980733	139.66884799877892	0.1461583504491486	-0.19995687679472418	0.3461152272438728	103.0016124326632
16	6.0	perception	480	diff_vonmises	-0.08845082064637574	-5.067858717505934	1.4362464762689562	2.1376926425397276	0.018271965404938945	2.629675540159893	0.4757412429191991	-0.3599014006924339	0.8356426436116331	111.60400064315111
17	6.0	wm	480	diff_vonmises	0.024355060797642266	1.395442193489426	0.686997885490862	184.36525518276386	0.6738084648242013	185.20104006137802	0.22936006645957008	-0.2945977246664011	0.5239577911259712	105.91953639113333
18	7.0	ltm	480	diff_vonmises	-0.006880636668059395	-0.3942314414427605	2.15207145702914	1.676210825036787	0.5143082344489186	3.150514226112757	0.1179320480472752	-0.36509920886454367	0.48303125691181886	74.22145627139341
19	7.0	perception	480	diff_vonmises	0.039487327342394934	2.262457200970767	1.2815936896603721	9.865510700147805	0.7730297756705455	11.131406901465086	0.5654534099281232	-0.4815062136539573	1.0469596235820804	87.638565219828
20	7.0	wm	480	diff_vonmises	0.22044756717166572	12.630715202863165	3.1293037904147845	0.6927754758072189	6.602236597752849e-31	2.242379246270868	0.10783045356531828	-0.35599620123921827	0.46382665480453655	77.63791076729592
0	1.0	ltm	481	diff_vonmises	0.2547304781463987	14.594981311138095	1.6875547004394864	0.6559377222289142	6.50507412627657e-29	2.6924822109250073	-0.12332200668849508	-0.41807875046802245	0.2947567437795274	104.76032783429366
1	1.0	perception	481	diff_vonmises	0.01614924675130144	0.9252836811649283	9.0422723539951	0.7600430172758079	1.8966071688085175e-16	2.6917300875640637	0.4700625376752923	-0.42840213633053015	0.8984646740058224	45.16480898086391
2	1.0	wm	481	diff_vonmises	0.059489619600984346	3.4085041279751396	4.104655640526703	0.40816401860818735	6.533732716845486e-18	2.586328285928424	-0.09339145344034344	-0.41154031865456975	0.3181488652142263	67.56383690593896
3	2.0	ltm	481	diff_vonmises	0.15739885751690882	9.018290235899869	4.66719048477312	0.4363282260717937	0.006243275094098481	1.842774892555825	0.06955231211478663	-0.29204235713818144	0.36159466925296807	62.93105435442149
4	2.0	perception	481	diff_vonmises	-0.029953199182063503	-1.7161918960469482	8.273416902515482	1.1000446817315856	0.028327578549079323	2.435529917677963	0.8432475723989722	-0.3881254135558008	1.231372985954773	47.005800275354375
5	2.0	wm	481	diff_vonmises	0.038507458731877955	2.2063148651107958	5.08512750405627	0.45715517241506104	0.022164607869391704	2.035454484647831	0.06881146052523351	-0.32170919254740427	0.3905206530726378	59.69827815952121
6	3.0	ltm	481	diff_vonmises	0.26645491044109404	15.26674179881102	4.396412898067131	0.4768338301724864	0.056918810648661874	1.2855689121693372	0.16948099366680833	-0.20024755156283516	0.3697285452296435	63.67337398348329
7	3.0	perception	481	diff_vonmises	0.024486377186891266	1.402966068374291	5.673255171775335	1.7262169535289915	0.043359053098938706	2.5543270096852555	1.1760136363551825	-0.4014649320567568	1.5774785684119395	56.7599546689884
8	3.0	wm	481	diff_vonmises	-0.08217412209546164	-4.708230381262677	4.300278199587154	0.6039405492384339	0.17893786871344627	1.7969115798510233	0.14364592221888722	-0.27894768948739973	0.42259361170628695	61.631463467419934
9	4.0	ltm	481	diff_vonmises	0.15503620650623862	8.882920304526147	0.7044151690557798	134.86845595745078	0.6889138087615454	136.42860828883812	-0.04223660588432665	-0.3311811051673086	0.28894449928298194	94.33491890330356
10	4.0	perception	481	diff_vonmises	-0.023308990899244333	-1.3355068032355457	2.977289386885913	2.0626416881358924	0.08313270899450373	4.164734055751856	0.6259784133047531	-0.619454944311585	1.245433357616338	76.52419054526965
11	4.0	wm	481	diff_vonmises	0.06907358269577922	3.9576247643160247	0.8548305836457032	190.10177477771825	0.8409029911445436	192.32648757334653	-0.18764873182016828	-0.43747953835071485	0.24983080653054657	79.51516973923862
12	5.0	ltm	481	diff_vonmises	0.22785376978158559	13.055059354630348	1.8760137135837307	1.0862966155062483	0.1157884915419883	2.02826443978575	0.1778643691224403	-0.2748555429870011	0.4527199121094414	93.15565706194312
13	5.0	perception	481	diff_vonmises	0.02300479580168568	1.3180777079968646	2.4196254950848153	2.0060204744437597	6.813821600058711e-20	2.793542686755307	0.7150836259264393	-0.43542884265173787	1.1505124685781771	88.42346213669757
14	5.0	wm	481	diff_vonmises	0.039012760520317026	2.2352665249687673	0.8333303722223233	4.385167734504838	0.3634810038422801	5.557377616764228	0.12825815938019502	-0.338380608238387	0.46663876761858203	111.20482503725435
15	6.0	ltm	481	diff_vonmises	0.2521517310988111	14.447229988879505	0.44770726945364236	83.56824596889301	0.43208018342355825	84.25772861056522	0.08011836013603002	-0.22305960674027325	0.3031779668763033	126.77747514269697
16	6.0	perception	481	diff_vonmises	-0.09117064481813263	-5.223693163565269	1.822228294429136	1.372226567424967	1.266320515625448e-16	2.1665266503941156	0.324230998317492	-0.32732705701014414	0.6515580553276361	101.32891039294852
17	6.0	wm	481	diff_vonmises	-0.008290386336701242	-0.4750041476259046	0.4644170035339578	162.18847173145474	0.45353350040784246	163.3112003709345	0.06033377703583653	-0.3141454301320561	0.3744792071678926	123.09295296831947
18	7.0	ltm	481	diff_vonmises	0.0913543581834241	5.234219164036615	1.0021620779730442	64.6959562806782	0.9582952996387515	66.08551155755545	0.07388935862891444	-0.33761425750421203	0.41150361613312647	82.8304826244404
19	7.0	perception	481	diff_vonmises	0.05573857632089242	3.1935851792549634	1.7492378821706172	2.1352652429090138	0.08595518232003699	3.346910378174688	0.43608251296800726	-0.45718933307117676	0.893271846039184	98.72725957097606
20	7.0	wm	481	diff_vonmises	-0.38911533779145296	-22.29466659925764	0.0021591102576494	425.32605263376945	1.598492546621048e-15	427.0003077236795	-0.12023297835479241	-0.41254119364640474	0.2923082152916123	175.6017997835554
0	1.0	ltm	482	diff_vonmises	0.08695529359262641	4.982171329178462	1.1140684147280475	150.52271535774065	1.0906781243974544	152.4164425214263	-0.02046503798921151	-0.43437781220245597	0.41391277421324446	75.16970550038579
1	1.0	perception	482	diff_vonmises	0.11948544030485063	6.846011442730282	7.617840007136776	0.767913148536977	0.15519566044658561	2.8559853425589834	0.3030361777477252	-0.4722370575143448	0.7752732352620699	47.46748282093171
2	1.0	wm	482	diff_vonmises	0.16235386699621757	9.302191366511575	4.9244886978145415	0.34783534332816424	0.03508062783608321	2.3155474018206013	-0.08240925621159889	-0.36628746773801146	0.28387821152641257	59.768719347279784
3	2.0	ltm	482	diff_vonmises	-0.03580704305808869	-2.0515924440716944	1.5072812614862343	44.46409544404742	1.4416453697376213	45.14255284084201	0.226319748368617	-0.24134034354821665	0.46766009191683366	71.30287064226908
4	2.0	perception	482	diff_vonmises	-0.02871814550581053	-1.645428532925536	7.501379648022965	1.0238531377723719	0.03586939200261974	1.7609971214446614	0.8082114190850228	-0.2799036803706229	1.0881150994556457	49.37185327188459
5	2.0	wm	482	diff_vonmises	0.08204776833906133	4.7009908442953146	6.473847157775883	0.3716689511665204	0.1658363114011043	1.4141298767269426	0.10549928743379788	-0.23141830948946135	0.33691759692325923	50.989412438176885
6	3.0	ltm	482	diff_vonmises	0.17126826335128575	9.812948654563787	1.2794254201838886	66.48989069873679	1.247289776590299	66.90264494521814	0.230707502338511	-0.1722100165233762	0.4029175188618872	79.08346817597888
7	3.0	perception	482	diff_vonmises	0.03662708083005593	2.098577147446729	5.79095012014193	1.3839111945847136	0.022968487232500764	1.9453624413391117	0.9803889235081236	-0.3069098248938876	1.287298748402011	56.38300121477408
8	3.0	wm	482	diff_vonmises	0.1344038612640148	7.700774000689898	4.31539960167856	0.5653376516546768	0.24288972147402757	1.3870397663236824	0.17559867032499887	-0.2140988014686335	0.38969747179363234	61.08736303239357
9	4.0	ltm	482	diff_vonmises	0.2567015457238225	14.707915164459553	0.8388495195824884	132.6581988966956	0.8256448172498774	133.79798483855504	-0.01728434130425427	-0.24735251907996947	0.2300681777757152	86.73105470248606
10	4.0	perception	482	diff_vonmises	-0.1132710536626447	-6.489953315869407	3.2708620997307842	1.9037103176780312	6.661644764584513e-17	3.3450067487767843	0.7768377818260792	-0.5304860231632018	1.307323804989281	75.91250415274541
11	4.0	wm	482	diff_vonmises	-0.07334168475667247	-4.202168998936297	1.1724144099921934	200.18193208698952	1.1541842529843125	202.0137975866412	-0.0013069070374740477	-0.43214082371027374	0.4308339166727997	73.59333925108447
12	5.0	ltm	482	diff_vonmises	-0.05908330132653404	-3.3852238057100985	1.7233899071347287	1.1041481459905473	1.4919747984774728e-16	1.9774276845920027	0.20564623185305125	-0.2981435442659616	0.5037897761190129	103.94966583568174
13	5.0	perception	482	diff_vonmises	-0.04849797644868829	-2.7787293654347036	2.518588332374237	1.9457835188141617	4.77149807621927e-16	2.44307493151187	0.7629194477945762	-0.38134997039949636	1.1442694181940727	86.67149377085275
14	5.0	wm	482	diff_vonmises	-0.02047103456128642	-1.1729038826281546	0.6475681504359203	168.95074902449184	0.6352420172768827	169.7479571977	0.17852875273256785	-0.2678278789045745	0.44635663163714234	108.38231372932187
15	6.0	ltm	482	diff_vonmises	0.37706602336745354	21.604291736736364	0.7176878948698935	140.81472684762412	0.7044453590902724	141.4649998654812	0.16997968352247028	-0.22121603559751435	0.39119571911998463	103.35727331363697
16	6.0	perception	482	diff_vonmises	-0.10356592690241144	-5.933890512868567	1.0570288712578733	4.119434857105803	0.2736743854850515	4.634611178866077	0.5000704678959473	-0.3753385254321637	0.8754089933281111	112.94516417393817
17	6.0	wm	482	diff_vonmises	0.016556942707095013	0.9486429387564522	0.8265353095235657	160.50829154826764	0.8079350781252462	161.24361916070202	0.3456571176384884	-0.30397652851044477	0.6496336461489332	98.34977464349313
18	7.0	ltm	482	diff_vonmises	-0.046605124913626526	-2.6702769612308055	0.94593678848839	147.7020702710262	0.922852014979294	149.28411924463015	0.1307035551579645	-0.39879460750107576	0.5294981626590403	85.96678187867991
19	7.0	perception	482	diff_vonmises	-0.012099506089193458	-0.6932506331036253	1.4794467705200525	9.886809702741216	0.8632550603371174	11.50372225669683	0.6148892401428379	-0.5712424941375723	1.1861317342804103	81.40134496889814
20	7.0	wm	482	diff_vonmises	0.34667113635571584	19.86279299218679	6.8423041724700795	0.6690946954286743	1.472734639121912e-13	2.1428496784430395	0.34342951124819254	-0.3410443383936958	0.6844738496418883	52.02805840723832
0	1.0	ltm	483	diff_vonmises	-0.024665461634507384	-1.4132268513991262	3.7556687684226047	0.6602938490219981	6.576189710391512e-30	4.0596987000511895	-0.15573766632389452	-0.6458528974036949	0.4901152310798004	70.71604441256736
1	1.0	perception	483	diff_vonmises	0.005214227475155729	0.29875322774757856	16.399705206191577	0.6834383568070651	0.050553546186518125	4.160438757066265	0.3992037522220796	-0.6806475071514174	1.079851259373497	33.167802962904375
2	1.0	wm	483	diff_vonmises	0.0982591314364088	5.6298335299274544	0.6556821496617444	90.47189637504397	0.6135641255509477	94.44072835481477	-0.3407779650228271	-0.7532699604542223	0.41249199543139525	91.94107414979013
3	2.0	ltm	483	diff_vonmises	0.08920433107794162	5.1110316850537405	2.5323852747823894	0.7116814597276304	1.272616702944544e-13	2.3655881222121478	0.04612098108041068	-0.3738260453390352	0.41994702641944587	86.4289218592863
4	2.0	perception	483	diff_vonmises	-0.06698610700717578	-3.8380212175228823	7.2022947126504215	1.154505103279981	0.18488203407378956	2.7916956896400196	0.6830179792031454	-0.4587797995666133	1.1417977787697589	49.056203033397054
5	2.0	wm	483	diff_vonmises	-0.017085961640657562	-0.9789534909320979	3.3157611031540526	0.7263197369898727	0.09609685536432777	2.9179711640099124	-0.006674564998163324	-0.445785635181813	0.4391110701836497	70.30362949638419
6	3.0	ltm	483	diff_vonmises	0.05501094031100349	3.1518947068665883	0.6239021078175413	127.04602770540926	0.605125552278054	128.443951176056	0.07952652850345032	-0.35709420739212483	0.43662073589557515	106.14533892561042
7	3.0	perception	483	diff_vonmises	0.00833674758687325	0.47766045159371084	4.448071627582349	2.092722256587701	0.19797800106852162	3.47626474507918	1.036301940786983	-0.5284217684598644	1.5647237092468473	61.989694008706806
8	3.0	wm	483	diff_vonmises	0.04056220020880802	2.324042879729366	2.5734801960439766	1.1715032428094407	0.26541591617109295	3.2554070249117695	0.03837272160348626	-0.45555740493479935	0.4939301265382856	73.48583433568069
9	4.0	ltm	483	diff_vonmises	-0.05670362129055808	-3.2488781830571365	1.2971245279718795	3.8567680919751255	0.5391726902847893	6.2671547170486095	-0.06146165170935092	-0.5124521795047827	0.4509905277954318	83.40530201120612
10	4.0	perception	483	diff_vonmises	-0.002656655670372723	-0.15221515753185544	1.4904492849389461	6.519223629999451	0.5677744290397762	8.581658054654083	0.5862525308936548	-0.6591708981066509	1.2454234290003057	86.93785072287568
11	4.0	wm	483	diff_vonmises	0.24700867667179974	14.152554676405678	0.6309197855741907	226.69671217969852	0.6153794403796254	229.89008349423833	-0.18913120534760708	-0.639410703042099	0.45027949769449194	96.75556624861383
12	5.0	ltm	483	diff_vonmises	0.0525338713327784	3.0099691088515073	1.8480620183094953	1.180002904179418	1.852293965161419e-18	2.865824057546645	0.12416598388882188	-0.4417078794379569	0.5658738633267788	100.67818459282205
13	5.0	perception	483	diff_vonmises	0.0606315188322322	3.473930134554875	1.208779108477798	5.135688230197507	0.3290402321287633	6.69588024210923	0.5137649393427337	-0.5754157298560786	1.0891806691988122	102.54212532055189
14	5.0	wm	483	diff_vonmises	-0.06586369404901432	-3.773711692149437	0.5340528305148257	232.94734536301516	0.5207330593231824	235.191077037969	0.01993723655595403	-0.540469926865697	0.560407163421651	112.4935592309243
15	6.0	ltm	483	diff_vonmises	0.30913884121774493	17.712350885341678	0.2696598294906967	82.23606799378024	0.24905738348715142	83.89903924960403	-0.03483508065574625	-0.43405831703305253	0.3992232363773063	145.19067147302303
16	6.0	perception	483	diff_vonmises	0.0621940602610042	3.563457163737852	1.2967611556895728	2.3958527681690827	0.06192961869607473	4.37772240320676	0.2102839192805106	-0.5831849922394969	0.7934689115200075	112.56115449996743
17	6.0	wm	483	diff_vonmises	0.0680639883688507	3.8997792703626697	0.4143340256328796	266.2934701954111	0.4039687625100131	268.61284276120875	-0.023621195233126002	-0.5727598760289183	0.5491386807957923	126.30120564185036
18	7.0	ltm	483	diff_vonmises	0.023191802841578277	1.328792422121945	1.5853465492503631	5.15377799485716	0.7972039980406546	7.653615381552326	-0.011292337231543659	-0.5782274790379266	0.5669351418063829	73.40634712862303
19	7.0	perception	483	diff_vonmises	0.22356226341770338	12.809174152226364	2.034367402228523	1.5430660897823036	1.1083829686772005e-17	3.4317057932177857	0.2580973769911866	-0.5324204049651904	0.790517781956377	96.15886890135891
20	7.0	wm	483	diff_vonmises	0.013682747520287508	0.7839636850555669	1.120162642886097	4.661189754088971	0.4977881856783372	7.52885403110775	-0.1564534556149182	-0.5779555533219058	0.42150209770698766	86.451199605385
0	1.0	ltm	484	diff_vonmises	-0.022490749054255226	-1.2886249988966723	0.7201299005734629	144.0252405361829	0.6994776177073312	147.0163898363354	-0.2837010617027147	-0.5637113950640931	0.28001033336137837	85.24993645197205
1	1.0	perception	484	diff_vonmises	0.05917201745155825	3.390306865248741	12.200102131996879	0.7100694035957342	1.4644541213153913e-16	3.4424808568628538	0.43074458275992045	-0.5478878448441727	0.9786324276040932	38.82276391344769
2	1.0	wm	484	diff_vonmises	0.006881240826920607	0.3942660571956634	4.61061341420353	0.40955196459063115	0.07766405469672195	3.7740759246429767	-0.30816997500223714	-0.600810957678446	0.2926409826762088	58.9553478238752
3	2.0	ltm	484	diff_vonmises	0.10503189628858434	6.0178843715916575	2.657934154630726	0.6023571650403029	1.1726842583901619e-12	2.383279031107976	-0.011360120103265203	-0.37750289319536035	0.36614277309209514	84.35191567761845
4	2.0	perception	484	diff_vonmises	-0.019063458987542303	-1.0922557429069113	7.747990599028442	1.2619114528653246	0.215303073491383	3.1791428036531837	0.7568634990786515	-0.5321034289646778	1.2889669280433291	47.137885159826794
5	2.0	wm	484	diff_vonmises	0.1117733930514496	6.404143683704944	5.346410549921129	0.37072492156116693	0.013192593394270147	2.54010283886537	-0.0765422512117237	-0.40279094840205726	0.32624869719033356	58.29767916349758
6	3.0	ltm	484	diff_vonmises	0.1876608410857287	10.752174174087491	3.060517120817779	0.6509457869720257	0.22267848323022274	1.689075498440689	0.0994542288114536	-0.2453354917627642	0.3447897205742178	70.6436371367904
7	3.0	perception	484	diff_vonmises	0.045041983594011265	2.580715560834341	5.0333634070877356	2.020371368799843	0.25112724695655014	3.033966948088515	1.1468795161106144	-0.46921547730596463	1.6160949934165791	58.23240554846873
8	3.0	wm	484	diff_vonmises	-0.0572672335029884	-3.2811707841114246	4.970125843797389	0.3565090254382328	0.11483566417462879	1.9152827918786361	-0.032658596303487	-0.3052638930039331	0.2726052967004461	57.483842070919565
9	4.0	ltm	484	diff_vonmises	0.0782474206358052	4.483246960216502	0.6794205593855673	207.0078962957633	0.6680765133335608	209.14137435960833	-0.14714665460763143	-0.4186981369347862	0.27155148232715476	91.60243110808571
10	4.0	perception	484	diff_vonmises	-0.004332731791367615	-0.24824724540752108	2.419373463771209	2.832723054015385	0.34421411025599363	4.978473030247454	0.5520204821015513	-0.6293472860630505	1.1813677681646018	76.9276774627121
11	4.0	wm	484	diff_vonmises	0.11694597585282415	6.7005108474056625	0.528105061900859	77.08924205489839	0.5035580253621798	79.55807070940809	-0.25628156122519385	-0.45090803950623837	0.1946264782810445	98.49826333158384
12	5.0	ltm	484	diff_vonmises	0.1961191614384736	11.236800232069381	0.7969565894754491	99.71751601677308	0.7665175019089935	101.49025879392475	0.052688881493143214	-0.4135838351633332	0.4662727166564764	92.24851043391175
13	5.0	perception	484	diff_vonmises	0.05425439028869319	3.1085475835976797	2.7300175976876306	2.025457899538563	2.2588057784958864e-11	3.8723204800960804	0.6403149093103073	-0.610954004293979	1.2512689136042863	83.22558315460753
14	5.0	wm	484	diff_vonmises	-0.0534942662377539	-3.064995683572471	0.4120087224664535	193.26525211752357	0.3998747160737832	195.5483652097702	-0.09020526177280885	-0.5204043448431364	0.4301990830703275	124.49745366566789
15	6.0	ltm	484	diff_vonmises	-0.32500238039005286	-18.62126472805538	0.00019247123952877477	5486.352816089313	1.7636540785584518e-29	5488.246763799974	-0.13336465653696905	-0.46948145153794485	0.3361167950009758	176.99096353834997
16	6.0	perception	484	diff_vonmises	-0.13401719862786965	-7.678619863543378	1.5013347005668236	1.631283323882662	5.915614249924138e-19	3.5833830758465774	0.13664615027954863	-0.5352078721065829	0.6718540223861316	110.36130958330843
17	6.0	wm	484	diff_vonmises	-0.1871071656230348	-10.720450906855179	0.2906267475951525	193.42703436636816	0.2801017138428488	195.64944183177766	-0.09629350516991053	-0.5345340460474866	0.438240540877576	141.47756089985597
18	7.0	ltm	484	diff_vonmises	0.14030609883048323	8.038947302932105	0.9312721081657767	192.82288188960945	0.9146977860089794	194.76536240910596	-0.024369028144121785	-0.4278068170127156	0.4034377888685938	82.32226785362664
19	7.0	perception	484	diff_vonmises	0.03479432466021705	1.993567954038399	1.928318006397028	1.9025412406071986	0.07315294427118077	3.614935827927263	0.3418727146670355	-0.5137409290572881	0.8556136437243236	94.3197302419897
20	7.0	wm	484	diff_vonmises	0.16879295202486944	9.671123762579201	2.029936120271794	1.3164858907924624	0.3902345000954102	3.6466789517460674	-0.14042575710090266	-0.4708935712265795	0.33046781412567683	73.30734244982426
0	1.0	ltm	485	diff_vonmises	0.038092061626535965	2.1825143641527487	3.148024427361967	0.8103974157463733	0.16489769900045015	4.03518226565707	-0.20674681506566095	-0.6164510032078917	0.40970418814223075	67.70740735795724
1	1.0	perception	485	diff_vonmises	0.06574854226711468	3.7671139810431766	12.218204928118384	0.7489850972167916	0.08878029686726413	4.0282734843561325	0.3339753162764807	-0.6676945306751906	1.0016698469516712	38.11478023578701
2	1.0	wm	485	diff_vonmises	0.10513798514255517	6.0239628151775655	2.6901426517268128	0.7487612656368645	0.13414896019815156	4.365539452859818	-0.3303874025664763	-0.6605897526391726	0.3302023500726963	72.01787896888706
3	2.0	ltm	485	diff_vonmises	0.02159759189720633	1.2374508633558672	2.6692213594318877	0.8952661516946262	0.2345364329198359	2.260492779153175	0.09953975704436452	-0.3175854944370362	0.4171252514814007	74.3360596247843
4	2.0	perception	485	diff_vonmises	-0.041819781477400904	-2.3960969788144464	7.329332227862251	1.1759030345842731	0.1899779220597617	2.6318619326134365	0.7446419797495974	-0.4330543356855627	1.17769631543516	48.7164303642499
5	2.0	wm	485	diff_vonmises	0.0800690566195077	4.587619013891818	5.64171705696963	0.4274421143381795	0.05091967345692311	2.299275600235812	0.010304135967694694	-0.3652407203833437	0.3755448563510384	55.812265345098325
6	3.0	ltm	485	diff_vonmises	0.14115865626100255	8.08779524549338	1.9004439790175929	1.1492819427064014	0.2907599378625197	2.128932458276617	0.13110389042080445	-0.25552435312909166	0.3866282435498961	85.00621778032999
7	3.0	perception	485	diff_vonmises	0.0332010490599725	1.9022799865432136	5.285372476165305	1.7137731288926992	0.12179194874910321	2.7737463858636695	1.0337972328441276	-0.43241200567538385	1.4662092385195113	57.94485063993585
8	3.0	wm	485	diff_vonmises	0.09822112842940739	5.627656118017468	3.6272965017056182	0.652810017569237	0.18628218820571052	2.23750693300296	0.05029050125888418	-0.34150050198999926	0.39179100324888344	65.48049844255004
9	4.0	ltm	485	diff_vonmises	0.11975015237174125	6.8611783269492985	0.7968533239817192	190.0165033439381	0.7828649060586935	192.07639593592268	-0.11112379653069127	-0.4187163800154181	0.30759258348472684	85.94340101654063
10	4.0	perception	485	diff_vonmises	-0.043454693000404825	-2.4897705089598765	2.78367159718555	2.210434351071282	0.12348366040603438	4.192478539769711	0.6346817912720787	-0.6045279832084136	1.2392097744804924	77.91713780114097
11	4.0	wm	485	diff_vonmises	0.12492265422946726	7.157540852920577	0.7297512722560805	129.06974106104704	0.7049090682426019	131.80733663561654	-0.17001325931138922	-0.5451755614308951	0.37516230211950585	89.47448813731674
12	5.0	ltm	485	diff_vonmises	-0.003623971251798583	-0.20763825780480055	1.9981043699699284	1.0460848898802884	3.747658066765617e-17	2.664390511934445	0.11529269164008538	-0.41413471450216777	0.5294274061422531	97.06482492486836
13	5.0	perception	485	diff_vonmises	0.013703186775403574	0.7851347681101087	2.117430026996049	2.307281824661416	0.03128551604091847	3.7354650887545007	0.6186645581925854	-0.5582239575327077	1.176888515725293	92.91511080069117
14	5.0	wm	485	diff_vonmises	-0.03801609685006487	-2.1781619030693005	0.5475897562302282	254.96635149258097	0.5364295877897532	256.90415251859525	0.04366395694945879	-0.47780381664489013	0.5214677735943489	111.70080595189425
15	6.0	ltm	485	diff_vonmises	0.3175726726100553	18.195573829246005	0.4942368281194209	127.21989113345977	0.47723328346964883	128.82908238541256	0.013170069128168649	-0.3972546128534642	0.41042468198163284	117.41040356565864
16	6.0	perception	485	diff_vonmises	-0.004707903822072964	-0.2697430193582901	0.9948339169020993	3.7549087180292653	0.15720354468238368	5.441791568857624	0.2721163346010762	-0.560597104895596	0.8327134394966722	118.13270230867755
17	6.0	wm	485	diff_vonmises	0.05706549266736825	3.2696118856749474	0.5394813977703448	265.2000811602517	0.5275668981043602	267.10207264753546	0.11432342262231998	-0.51271549287436	0.62703891549668	114.60519779474706
18	7.0	ltm	485	diff_vonmises	0.026140247445382955	1.4977258540480751	1.011610045613388	187.8265247846024	0.9892666808111645	190.2147846481942	-0.017428076390871183	-0.5372225935829711	0.5197945171920999	79.24473750812538
19	7.0	perception	485	diff_vonmises	0.09780675454816744	5.603914243481963	2.139191405399819	2.0527729907936316	0.15595988993381524	4.072400546193968	0.34980134043552713	-0.5513463210076172	0.9011476614431443	85.92815728340054
20	7.0	wm	485	diff_vonmises	0.2748224748331094	15.746167923277453	1.3644989855713807	5.034572827952061	0.6650377927355806	7.5529070459420815	-0.039209209532270695	-0.5531055843434626	0.5138963748111919	79.26128381030668
0	1.0	ltm	486	diff_vonmises	0.04483136965369226	2.568648270947442	2.6248844274389436	0.3521595122997128	1.780159474323767e-27	1.4183587625279155	-0.012199340463756592	-0.224617830048766	0.21241848958500942	84.89357353656439
1	1.0	perception	486	diff_vonmises	0.017423264900875562	0.9982795441585923	14.232490815989959	0.6363761747934095	5.3495698225246096e-15	1.7583126482444422	0.6692407639364102	-0.2798441494686903	0.9490849134051005	35.911124296526424
2	1.0	wm	486	diff_vonmises	-0.05479042845853465	-3.139260308387512	3.753866985011669	0.31489390025479347	1.442533912615015e-18	1.7149272812045966	-0.03911698938035588	-0.2728108239418891	0.23369383456153323	70.7301450135432
3	2.0	ltm	486	diff_vonmises	0.2602193223378478	14.909468917713024	3.297461180739645	0.3498554774141421	5.7658527360856575e-21	1.1003443330068436	0.0666008822929457	-0.17479472653095368	0.24139560882389938	75.58185921096324
4	2.0	perception	486	diff_vonmises	-0.016492835599817224	-0.9449698720726425	8.987206013351587	1.024437455493793	0.20744646215406723	1.6905011162130323	0.8796633420460553	-0.28383690946971024	1.1635002515157655	44.38202078359561
5	2.0	wm	486	diff_vonmises	0.08878191193403513	5.086828850922369	8.075934244732169	0.23406342451866632	4.9509667103814283e-20	1.19942209724665	0.07009947264052074	-0.19089393039737207	0.2609934030378928	47.824928911336514
6	3.0	ltm	486	diff_vonmises	0.2666337580716273	15.276989013216493	2.8553978525499284	0.6632337472070655	0.6225546327959998	1.0043195523859036	0.15127135305495476	-0.12246332643846508	0.27373467949341984	68.3962252090515
7	3.0	perception	486	diff_vonmises	0.008050892676184694	0.4612821716581675	5.9397681686474515	1.6028713680954219	0.33744422703293414	1.9736520620399973	1.0944015694975482	-0.31457632080192405	1.4089778902994723	53.7046955698348
8	3.0	wm	486	diff_vonmises	0.021180922364650696	1.2135774576887406	6.066801234504791	0.45293799928632	0.5518095719124263	1.2046094750981018	0.12612352510923608	-0.2134981514034498	0.3396216765126859	49.34213027448732
9	4.0	ltm	486	diff_vonmises	-0.02275609741395964	-1.3038283400084545	1.5789217709007701	214.7880221662067	1.5659967659963119	215.74158539010105	0.054218577467707973	-0.2708538905595361	0.3250724680272441	64.70265794937498
10	4.0	perception	486	diff_vonmises	-0.024059667965090823	-1.378517430885814	3.1105230862712423	1.759430873737286	0.15324066094845964	2.879076071163451	0.6452329288003888	-0.414465519179414	1.0596984479798028	73.85477422258367
11	4.0	wm	486	diff_vonmises	-0.020279930928579586	-1.1619544510244348	1.1140557344834685	143.50389345470163	1.0979478127210258	145.00120888485918	-0.10679788096725673	-0.321698068732605	0.21490018776534825	71.05356118755506
12	5.0	ltm	486	diff_vonmises	0.19914277306274733	11.410040417026961	1.1204842766768923	3.2214617208305216	0.5439460892077216	3.8990566305698127	0.17959513947420147	-0.22117018824010004	0.4007653277143015	96.18522526605972
13	5.0	perception	486	diff_vonmises	0.03798657317438718	2.1764703210572556	3.5573090544805925	1.352057578717978	4.328376925238656e-17	2.072788500909658	0.6446597382464407	-0.3291020686953626	0.9737618069418034	72.70993442250767
14	5.0	wm	486	diff_vonmises	-0.04285115874232424	-2.4551905431802994	0.4398956325735049	104.8445099157434	0.425338737837729	105.82440827835532	0.0536897542543322	-0.27975055029292406	0.33344030454725626	126.32393413144749
15	6.0	ltm	486	diff_vonmises	7.593927432102912e-06	0.00043509999178811587	0.5535402683549246	55.41536164563863	0.5308892586869417	56.13525494647986	0.05422830368040188	-0.19921292596660045	0.25344122964700233	114.26771956301562
16	6.0	perception	486	diff_vonmises	-0.09823431503769184	-5.628411655018259	2.317092048491028	1.0737953643497633	2.252466412229689e-11	2.1228485646916315	0.2671774472512794	-0.33198390015317303	0.5991613474044524	90.3347179478236
17	6.0	wm	486	diff_vonmises	-0.1695511313690183	-9.71456423911293	0.46045434246919104	125.10371302074718	0.4444889573060697	126.2504171412133	0.09920767631678018	-0.34607831875270456	0.44528599506948474	124.82111181968133
18	7.0	ltm	486	diff_vonmises	0.1546771917631075	8.862350274961761	0.9148461946511217	149.50892775979818	0.8993836055847282	150.41184202326903	0.14885773521545786	-0.2546256338005346	0.40348336901599247	89.46882522694608
19	7.0	perception	486	diff_vonmises	0.031334387834825714	1.7953281765615832	2.1930302957870227	1.3394087499830247	8.921023226937536e-21	2.474939630236508	0.33645975224895464	-0.38480589245439345	0.7212656447033481	92.80815262599009
20	7.0	wm	486	diff_vonmises	0.24570519199466526	14.077870505745901	4.833538969404556	0.3486241497624345	3.95751551700427e-12	1.482898957602494	0.06087703881414497	-0.2359918957575913	0.29686893457173624	62.12470416164322
0	1.0	ltm	487	diff_vonmises	-0.06934117472073491	-3.972956657977345	2.9602492103148563	0.6649602620536932	0.024864039281489645	1.2861975306964424	0.22239212810603556	-0.19858883281195167	0.4209809609179872	78.80670152529012
1	1.0	perception	487	diff_vonmises	-0.026097240481108962	-1.4952617365055056	18.194792195181904	0.4829190543636491	5.396177344527296e-18	1.3791981307214203	0.5959337142031044	-0.21950620000741594	0.8154399142105203	31.753647974395534
2	1.0	wm	487	diff_vonmises	0.14689000410482259	8.416177287865672	2.464515657135855	0.5633500077630155	4.276927982581225e-18	1.3504527327171407	0.11428418522395148	-0.21254953619791853	0.32683372142187	87.60477144149118
3	2.0	ltm	487	diff_vonmises	-0.03431263820367839	-1.9659693530301223	3.779299477863998	0.4757668341926753	1.9169030099040473e-13	0.707287054654595	0.24202771088195457	-0.11238327148431196	0.35441098236626656	70.48455753915209
4	2.0	perception	487	diff_vonmises	-0.053134759936165135	-3.0443974897830777	7.762062974794778	0.8772617203044855	1.1230796612754967e-19	1.167231748159752	0.7725362506255116	-0.1857705288875099	0.9583067795130215	48.79958054556377
5	2.0	wm	487	diff_vonmises	-0.003717888365933234	-0.2130193120687645	6.392343397716755	0.3328969870766972	0.06718413180457825	0.7916403599298006	0.19404504734282546	-0.1256938972054985	0.31973894454832397	53.02213827852364
6	3.0	ltm	487	diff_vonmises	0.05990397756728746	3.4322450906519317	1.0861606348383308	128.29042056913158	1.0732146827163977	128.45298771205364	0.25386917154290956	-0.1272124325463473	0.38108160408925684	88.42462064063594
7	3.0	perception	487	diff_vonmises	-0.0040955372375139	-0.23465699854821467	4.8822758381232285	1.6532400067075907	0.30531511121812716	1.9888944137764117	0.9956892890161007	-0.3015744317535859	1.2972637207696867	59.07746781255992
8	3.0	wm	487	diff_vonmises	0.06174868053735615	3.537938785292116	1.636591320215872	37.27032039223126	1.5606070893505266	37.75977303718393	0.2678140936597231	-0.21151847575432559	0.47933256941404867	69.73763946623629
9	4.0	ltm	487	diff_vonmises	-0.10977308192517618	-6.289534298456417	1.6848190748289928	249.32291012498243	1.6736395116481753	249.94157470198994	0.18239721694243372	-0.22387044947662815	0.40626766641906187	66.12383777671184
10	4.0	perception	487	diff_vonmises	-0.08577997493438302	-4.914830530478138	2.0532352034559587	2.9530784105533687	0.33645493213450073	3.6645801025565663	0.7539115633044382	-0.4085681472394415	1.1624797105438798	85.32824533634465
11	4.0	wm	487	diff_vonmises	-0.0407392554727054	-2.334187399091261	1.2546700301894853	239.8520335400537	1.2412666170073934	241.21378491913097	0.06280101711783459	-0.3463043852431298	0.4091054023609644	72.728943557267
12	5.0	ltm	487	diff_vonmises	0.045802552096108375	2.6242929260350922	1.6276498816253107	1.1310866537452595	5.97663924872638e-13	1.397737964599708	0.29237499485545426	-0.20259883241848728	0.49497382727394157	106.62681253788278
13	5.0	perception	487	diff_vonmises	0.0015347605108113095	0.08793529983283038	2.498673037540716	1.5375558750760223	9.905780086337836e-20	1.8024499791162965	0.6190219352477766	-0.2807487232519536	0.8997706584997303	87.01709279807667
14	5.0	wm	487	diff_vonmises	-0.1124553561001875	-6.443217288181501	0.606433754231353	135.9063129440477	0.594791311913048	136.2961129978254	0.1963521978871725	-0.1942049843730853	0.3905571822602578	115.04103224470026
15	6.0	ltm	487	diff_vonmises	0.3238830332494025	18.557130861086076	0.5804368383620777	81.86366913022127	0.5679255918041455	82.14592076026798	0.12007930180500637	-0.13155879812998617	0.25163809993499253	116.75608290373827
16	6.0	perception	487	diff_vonmises	-0.09476182011549099	-5.429452351595541	1.8139242319103306	1.7680056991588635	0.15194266598125875	2.3133643674278344	0.433453155241952	-0.29190190681808514	0.7253550620600371	95.16259537871689
17	6.0	wm	487	diff_vonmises	-0.09456635896590532	-5.418253252665506	0.7576893476113064	133.28958036743023	0.7397331075835254	133.92143943758748	0.272273152846374	-0.2593946146661139	0.5316677675124879	102.51562476495594
18	7.0	ltm	487	diff_vonmises	-0.05753072387563992	-3.296267670406686	1.1969857476765786	78.82981505112879	1.1604869303093293	79.49449128420622	0.28596629587064726	-0.24790573526261372	0.533872031133261	81.16209488353635
19	7.0	perception	487	diff_vonmises	0.04893106581833991	2.8035435584677226	3.4045361217499694	1.2580243800709263	6.207747138058555e-22	2.2730737507936665	0.5231149414488653	-0.3607942213125198	0.8839091627613851	74.36456841159819
20	7.0	wm	487	diff_vonmises	0.27418501062880307	15.709643914780035	5.774331986097466	0.5681301799235715	1.5477595693048892e-26	1.3563260999923585	0.31580758886459226	-0.215860872418528	0.5316684612831203	56.72963509983839
0	1.0	ltm	488	diff_vonmises	0.2721705125310832	15.594221675943553	2.504798703817686	0.4713793606725786	3.706236667873409e-17	2.4035427882753533	-0.10442727485476994	-0.38067950092881114	0.2762522260740412	86.8644270966848
1	1.0	perception	488	diff_vonmises	0.0553407374048662	3.170790688440601	7.518197339268981	0.8031464984604193	0.09066567659761682	2.810385642068209	0.3741679419101708	-0.45432417868315667	0.8284921205933274	48.480031488680396
2	1.0	wm	488	diff_vonmises	0.08393886376634688	4.809342630935266	4.670598930476406	0.35112205982924477	3.393793466376647e-18	2.4782171921857823	-0.10085344163541282	-0.39439475896381515	0.29354131732840233	63.22903979484238
3	2.0	ltm	488	diff_vonmises	0.1154780189835399	6.616403114288437	3.4171185671558897	0.720935658238615	0.2895984762447977	1.8784871390687967	0.11697280539531707	-0.278038600873868	0.3950114062691851	66.01234701431702
4	2.0	perception	488	diff_vonmises	-0.022745297129824284	-1.3032095293099564	8.170582395801567	1.0817966518722268	0.033986172514650505	2.3028104048007867	0.8343698089171769	-0.3671523971051236	1.2015222060223005	47.268608391172336
5	2.0	wm	488	diff_vonmises	0.09144928244356339	5.239657923515998	6.278643094380189	0.39671964036629004	0.03922494691278971	1.879370250203001	0.07702118027996857	-0.29889375675282104	0.3759149370327896	53.3860631129638
6	3.0	ltm	488	diff_vonmises	0.26943976267198233	15.437761234111129	3.2621793640055303	0.7236056702796275	0.2641110930517175	1.4502495732877043	0.20149733489917682	-0.20781821833939618	0.409315553238573	69.27882003811527
7	3.0	perception	488	diff_vonmises	0.01758942856861974	1.0078000210287477	6.004095404968217	1.5962580820582215	0.007605739401439986	2.5448135329139245	1.116839632141115	-0.4034791041986511	1.520318736339766	55.50443608848289
8	3.0	wm	488	diff_vonmises	0.028489019479077567	1.6323005786171356	4.846757300233228	0.5529884953808488	0.2006846978979169	1.8150121027579884	0.12203086165292648	-0.28825276168651215	0.41028362333943863	57.82260923300967
9	4.0	ltm	488	diff_vonmises	0.3329431306514593	19.076236204201372	0.7653012652434902	202.8451563440714	0.7539515945370998	204.47017333372014	-0.0395697650635185	-0.3461519550930028	0.3065821900294843	90.3244102336601
10	4.0	perception	488	diff_vonmises	-0.054230235695568126	-3.107163627355758	3.392992745737664	1.8060183478797744	5.044175390438674e-15	3.933509199374619	0.6419135883228839	-0.6246052726472392	1.2665188609701232	74.49418873387535
11	4.0	wm	488	diff_vonmises	-0.03798102084042145	-2.176152195754572	0.943683913316111	190.06910921264952	0.9270949942443917	192.4319313734662	-0.17537511851085696	-0.48093070842159236	0.3055555899107354	76.8768370423046
12	5.0	ltm	488	diff_vonmises	0.10006629271996018	5.733376244374393	1.8258582183850798	1.0557337976369452	0.05136172127828989	1.9864614037105808	0.18275691637349234	-0.28675682436420985	0.4695137407377022	98.07268458444472
13	5.0	perception	488	diff_vonmises	-0.017847292986257958	-1.0225745638460166	2.4524582293586805	1.930070235746002	3.331051376441786e-20	2.6505969021022526	0.7028749272055761	-0.4135212728913376	1.1163962000969136	87.82951031555359
14	5.0	wm	488	diff_vonmises	0.015010858911408022	0.860058862490021	0.6341481143299669	143.67312271507595	0.6182904730212077	144.77876518542405	0.13479361127317446	-0.31711518884140233	0.4519088001145768	107.41964083030237
15	6.0	ltm	488	diff_vonmises	0.29838935938756256	17.096450944519667	0.47723266345948784	126.13877955454983	0.46472962929296785	126.80689544526994	0.13291027753612283	-0.24573378350015318	0.378644061036276	124.65889720696148
16	6.0	perception	488	diff_vonmises	-0.06344902274675608	-3.6353612176186814	1.7432667472812728	1.5298127279782137	1.716521195445508e-15	2.295366422585976	0.36070611240478195	-0.3430960499962657	0.7038021624010476	103.41008245287586
17	6.0	wm	488	diff_vonmises	0.10586123720568251	6.065402105918892	0.6185892259172969	194.85203815732214	0.6072582766102828	195.89231906827735	0.1407068086026655	-0.3079208206634192	0.4486276292660847	109.01501623234094
18	7.0	ltm	488	diff_vonmises	0.03719131942303044	2.130905637462568	0.8861572677828903	104.38766640569288	0.8552234481580412	106.12818745317797	0.06890862269914777	-0.4116455902037952	0.480554212902943	87.59367556247994
19	7.0	perception	488	diff_vonmises	0.03634513786555711	2.0824230055175397	1.3230347826969362	4.895023039945512	0.4275201408365249	6.502176494248806	0.4492608768648443	-0.5289509251503477	0.978211802015192	94.92383216870849
20	7.0	wm	488	diff_vonmises	0.208528547408445	11.9478056744976	6.057464178166589	0.4541675171348342	3.0606542323153854e-23	2.318405781649004	0.06691393899335524	-0.36898335274876365	0.4358972917421189	55.359336967666394
0	1.0	ltm	489	diff_vonmises	0.10589685003120648	6.067442570517952	1.9605363438526677	2.955475957026358	0.5991431700483236	6.484526416543109	-0.2145393924273602	-0.7520472202753044	0.5375078278479442	69.26767077709005
1	1.0	perception	489	diff_vonmises	0.11672586867493769	6.687899635072232	7.524175594455422	1.0553778116110373	0.22903328504841042	4.678280047011709	0.21022360368103188	-0.7977401238032426	1.0079637274842743	46.664010778668995
2	1.0	wm	489	diff_vonmises	0.17730591892811529	10.158880837269743	3.0554958365455334	0.6945525882988494	0.13063862811168056	4.4047028807863695	-0.33579733228901926	-0.6778521984196657	0.34205486613064645	68.43911928291394
3	2.0	ltm	489	diff_vonmises	-0.010821860196529046	-0.62004691574173	2.1456371924287483	1.9277712229149033	0.7263663834151384	3.0267917527591557	0.16097046505281842	-0.30551990860724587	0.4664903736600643	71.5778120618387
4	2.0	perception	489	diff_vonmises	-0.04577864601033175	-2.6229232082154135	7.24015248318204	1.1564176753550361	0.15760506850912365	2.267010008721142	0.7984093967970336	-0.36827731773385625	1.16668671453089	49.363160697956175
5	2.0	wm	489	diff_vonmises	0.07150246214611698	4.096789305766434	5.85113789094302	0.43362059853047485	0.10652350741502947	1.9720054517585184	0.060513068323153785	-0.31639391370441705	0.37690698202757084	53.957250540249674
6	3.0	ltm	489	diff_vonmises	0.13304967267636025	7.62318470995251	2.9388105744287887	0.5873818306111974	0.051772981934247383	1.3103867073545055	0.16069650328332277	-0.19859083555176935	0.3592873388350921	77.83857181499036
7	3.0	perception	489	diff_vonmises	0.04610051409390432	2.641364890964086	5.881892903167874	1.4015489078226737	6.778114022565886e-14	2.2091110198578776	0.9727827088382638	-0.351580630911602	1.3243633397498658	56.20082260148283
8	3.0	wm	489	diff_vonmises	0.1179530980872991	6.758214700894862	4.316735970994906	0.5839546045726415	0.15665468269424276	1.777501569356721	0.13908723524566186	-0.27602447932728236	0.4151117145729442	61.89264106241967
9	4.0	ltm	489	diff_vonmises	0.3250027187455142	18.621284114395287	0.680083127371579	157.90956807160478	0.6676905544595594	159.65235048609475	-0.11270935980733299	-0.3447795724056988	0.2320702125983658	92.14534047054678
10	4.0	perception	489	diff_vonmises	-0.08246312931550363	-4.724789275219892	3.225633345253589	1.9638311254161722	2.4738964458761146e-13	3.840995358192831	0.7288156593883864	-0.609197817809742	1.3380134771981285	76.45026673951534
11	4.0	wm	489	diff_vonmises	0.05391571246683339	3.08914277379043	0.9219656191100959	179.35457596869534	0.9001441509439275	181.91193273605396	-0.08039483518813029	-0.5474316801840224	0.46703684499589215	81.63655614539448
12	5.0	ltm	489	diff_vonmises	-0.09154269180357276	-5.2450098856115535	1.8981456308739972	1.0857410854252667	3.9968503927612634e-20	2.544638180831617	0.1376615753012972	-0.39280664221083067	0.5304682175121278	99.42833957492216
13	5.0	perception	489	diff_vonmises	-0.02323852175657597	-1.3314692187747432	2.106198642762346	2.354625009485886	3.0645284087749294e-20	3.3871087350181157	0.7140897212592405	-0.5205133910197877	1.2346031122790282	94.64654989156207
14	5.0	wm	489	diff_vonmises	0.022981055402034465	1.316717483292896	0.6174945346495974	255.87292460820373	0.6059339296201682	257.38730625463756	0.15662096799324843	-0.42348231775156364	0.5801032857448121	108.17765359319871
15	6.0	ltm	489	diff_vonmises	0.5032797313855863	28.835804522871854	0.7661113152943463	186.21461037438988	0.751259713442659	187.5008226077791	0.14944698956672653	-0.34662602252193864	0.49607301208866517	96.97932190145315
16	6.0	perception	489	diff_vonmises	0.014307869629513513	0.8197805435945331	0.5102683039681506	247.24767447631842	0.49455127142306043	248.32282391538817	0.46238460152824246	-0.5355983999077374	0.9979830014359798	123.92322142947083
17	6.0	wm	489	diff_vonmises	0.09313308250702328	5.33613256069611	0.6827522187158969	254.61827403216142	0.6680963571848666	255.97943708067152	0.3313050865687046	-0.46062447199253853	0.7919295585612431	105.85157649819439
18	7.0	ltm	489	diff_vonmises	0.02159853106941869	1.2375046739598714	1.544963601156197	4.014887670779907	0.6602226067973958	6.401474820804169	-0.0026283167456482293	-0.5389897528920801	0.5363614361464318	77.03473980006859
19	7.0	perception	489	diff_vonmises	0.06940191779164581	3.9764369795752037	1.0638311471715298	158.6328857241184	1.025802775826843	160.6418609913083	0.4400840491009035	-0.6028632263091254	1.0429472754100289	84.04648752846956
20	7.0	wm	489	diff_vonmises	0.36998876565653854	21.198794739374517	1.962008385385071	2.449218571074158	0.478782427750427	4.6985095867225315	0.1082289500054181	-0.5311718069932301	0.6394007569986482	76.80119973454188
0	1.0	ltm	490	diff_vonmises	0.04252448355660342	2.436473433766844	1.0937927341713998	292.73835195660826	1.079750113521247	295.0218150662022	-0.043797453682799414	-0.5165452981521881	0.47274784446938867	75.27691691710967
1	1.0	perception	490	diff_vonmises	0.09413355470644152	5.393455395242946	6.998743563744022	0.7488177613831997	8.356085692922715e-18	2.859773387227608	0.31985606179268494	-0.4551464244278801	0.7750024862205651	51.43955710077509
2	1.0	wm	490	diff_vonmises	0.11484435617216911	6.580096909562496	6.881549867994086	0.31369739454968026	2.372176460229612e-15	2.3424071321677684	-0.050991594022200215	-0.37280533456240394	0.32181374054020373	51.88527600081653
3	2.0	ltm	490	diff_vonmises	-0.059410092098166334	-3.4039475377084525	2.368933989547701	1.812696919475598	0.6835825934457752	2.907131571637123	0.21672551547160146	-0.3196175705084753	0.5363430859800767	70.49511871135704
4	2.0	perception	490	diff_vonmises	-0.03175324770620147	-1.8193270793988066	6.922551761032058	1.1558271257099648	7.097232191981925e-22	2.251862136594514	0.8311973147548362	-0.35839383521646256	1.1895911499712988	51.72111399986528
5	2.0	wm	490	diff_vonmises	0.03225831425317102	1.8482652609134078	5.180271397405758	0.4805569929486575	0.1652299952527704	1.7308464275737907	0.10187295840878263	-0.27642458523819	0.37829754364697266	56.4851833512551
6	3.0	ltm	490	diff_vonmises	0.15599633008045363	8.937931333139684	2.8063175832609684	0.9261942311885114	0.44620724240229515	1.493754631585058	0.23023225094909044	-0.19105350814454067	0.4212857590936311	71.35472644110504
7	3.0	perception	490	diff_vonmises	0.06431895073824348	3.685204420011202	5.24299965405625	1.621985338676757	4.49543509971721e-14	2.110221293162734	1.1064778718234507	-0.33581186683065756	1.4422897386541083	59.59791848360166
8	3.0	wm	490	diff_vonmises	0.009541214821044374	0.5466713406735116	2.7021009517253587	0.7858633191841671	0.2639859916725344	1.5432567373127937	0.1703048986004403	-0.21037372420434375	0.38067862280478404	74.91463986087422
9	4.0	ltm	490	diff_vonmises	0.4655929649616058	26.67651186328243	0.19412366273640036	110.46531143933166	0.18417681255956095	111.66044891108518	-0.037059651132953064	-0.31384090070352855	0.2767812495705755	152.047577487019
10	4.0	perception	490	diff_vonmises	-0.10275348024608633	-5.8873407483816225	3.3111929716994104	2.025463585028519	0.013931654216578524	3.8329749518929086	0.784154991077217	-0.5998088512219221	1.383963842299139	74.89611036399981
11	4.0	wm	490	diff_vonmises	-0.024533120772265177	-1.4056442785355254	1.0130405048510134	169.5375282065181	0.9958996299191359	171.2721671413465	-0.04189453666010934	-0.38217676111304044	0.3402822244529311	78.09636959109031
12	5.0	ltm	490	diff_vonmises	0.14312244283284842	8.200311927924613	1.8638269058250356	1.1038429195937838	0.11327329815683088	2.0428293750761504	0.18267026020376192	-0.27699117148666813	0.45966143169043006	93.60830532359151
13	5.0	perception	490	diff_vonmises	-0.018368236836877615	-1.0524224478498165	2.456762844606264	2.305124677715788	1.0432015214622934e-14	2.810761162492109	0.8973310310988615	-0.4374677836935041	1.3347988147923655	87.75314382398955
14	5.0	wm	490	diff_vonmises	0.026089807761679924	1.4948358730519167	0.6148954627329493	160.76734549731955	0.6018654815436643	161.5682517618919	0.1838058645311733	-0.2779192929917471	0.4617251575229204	111.49092530323989
15	6.0	ltm	490	diff_vonmises	0.41248065859556193	23.633400868302303	0.8217704117724839	122.12347541179912	0.8084725270269869	122.76460130101147	0.11436872348828331	-0.18687417046727184	0.30124289395555515	94.89631417954777
16	6.0	perception	490	diff_vonmises	-0.19671174060444305	-11.270752517306812	1.3580203184926816	2.190305657373926	8.559800232561245e-19	2.5668530959210702	0.4850114462901441	-0.3494304003497018	0.8344418466398459	114.91338948829859
17	6.0	wm	490	diff_vonmises	-0.07235414022287892	-4.1455868650687115	0.7179620505376225	156.10549893138668	0.7040452683246975	156.81937498940354	0.21057663836491258	-0.2540792146369171	0.46465585300182966	103.82528375943397
18	7.0	ltm	490	diff_vonmises	0.012527517114376363	0.7177738584316734	1.4376278503829738	4.18750805385348	0.8166747134337438	5.418298063446256	0.10534370091858136	-0.31482077440040734	0.4201644753189887	78.54102602743936
19	7.0	perception	490	diff_vonmises	-0.035366692017953345	-2.0263621879677434	1.1690597917964236	370.7263760003197	1.152558309096347	371.77226374369485	0.7490647291561743	-0.4929134030627864	1.2419781322189607	83.40121985942235
20	7.0	wm	490	diff_vonmises	0.2840092111619926	16.27252914242197	4.812257970178957	0.554564361989918	1.6963387726802404e-24	1.8724937643169532	0.173112699712285	-0.2979854988825922	0.47109819859487717	62.26894188340853
0	1.0	ltm	491	diff_vonmises	-0.07165415222265381	-4.1054805069460105	1.159704735120535	45.69471445430613	1.1208219739420078	45.99737364560553	0.22066152111813508	-0.14424456860198198	0.36490608972011707	84.22482194798886
1	1.0	perception	491	diff_vonmises	0.0011442987212156991	0.06556348722787675	16.44149312079104	0.4339524570635114	4.2059788329780674e-21	0.9591810062545942	0.543821980116115	-0.1526583984652732	0.6964803785813882	33.39743815353202
2	1.0	wm	491	diff_vonmises	0.1530823452403114	8.770972300234428	3.603715389822672	0.3788369212562127	3.8926080085650846e-22	0.7470591279504515	0.156130439826863	-0.11869432894013669	0.2748247687669997	72.22619926728575
3	2.0	ltm	491	diff_vonmises	-0.1132122116724395	-6.486581918172498	3.179264739281442	0.6577965436086366	0.5071413259030327	0.6025660901484617	0.29572090339554336	-0.07208614874806514	0.3678070521436085	70.64922760792689
4	2.0	perception	491	diff_vonmises	-0.03529371736750167	-2.02218104848542	7.491141246178485	0.8649403894767568	4.085606485581204e-16	1.0043465804281428	0.7677343336660414	-0.15984643403093016	0.9275807676969715	49.68581441550799
5	2.0	wm	491	diff_vonmises	0.03712833949404776	2.127297153337827	6.452089311424193	0.32102179059770564	0.4870482609132736	0.5279033221900264	0.18949823047735487	-0.0896874181674966	0.27918564864485146	50.223174093973455
6	3.0	ltm	491	diff_vonmises	0.09117672755250342	5.224041678572614	1.4419606635024893	114.7373456062618	1.427965858494764	114.68436155572502	0.3069090714954754	-0.09055223806852908	0.3974613095640045	79.44023753703681
7	3.0	perception	491	diff_vonmises	0.0017409461793221925	0.09974886843458741	4.806070768509342	1.6378974711603433	0.3974991951884406	1.8309080471923158	0.97358801434775	-0.27407582156051685	1.2476638359082668	58.999618981282396
8	3.0	wm	491	diff_vonmises	0.11272712841961365	6.4587886950731	1.8695190361179723	22.99895810356137	1.7657606705515687	23.274567179716527	0.2567900596439845	-0.15859758237105614	0.41538764201504064	66.41146310320653
9	4.0	ltm	491	diff_vonmises	-0.096230029289199	-5.5135745406914	1.7939262309051247	168.97375321708182	1.7801485848841603	169.4008154814447	0.17659027384343062	-0.17455508260240293	0.35114535644583356	64.88771056896996
10	4.0	perception	491	diff_vonmises	-0.11166233800467715	-6.397780698231254	2.244215314227378	2.592546860330674	0.31217329889066087	3.1380473616543614	0.767154774017818	-0.36838152405844327	1.135536298076261	83.07198983998722
11	4.0	wm	491	diff_vonmises	-0.07618264097489863	-4.364943800022103	1.372214429404323	156.47060771353492	1.353831059434361	157.53381615399633	0.08402290023001058	-0.2890259977246892	0.37304889795469975	70.35742450706917
12	5.0	ltm	491	diff_vonmises	0.024790747341259238	1.4204051936293212	1.4665359028108342	1.3784161972292555	0.1707384891106431	1.4610089091416418	0.3151261642666475	-0.16325595738422738	0.4783821216508749	104.9216088192423
13	5.0	perception	491	diff_vonmises	-0.01636522947267257	-0.9376585795472441	3.037677415202916	1.3851366163829586	1.7007805021723114e-15	1.5241750967227603	0.671094915670851	-0.240479609602716	0.911574525273567	78.83209024692712
14	5.0	wm	491	diff_vonmises	-0.1713956660433455	-9.820248291117414	0.6328417396115883	97.73415619155247	0.6200012264628054	97.91406436517447	0.18963203833171605	-0.14001200323922447	0.3296440415709405	114.67508135541294
15	6.0	ltm	491	diff_vonmises	0.1769148098533889	10.136471937958653	0.6929710388385463	69.57514669184062	0.679520986087368	69.75042155674865	0.12905485952104456	-0.10127527227576927	0.23033013179681383	108.88543000287643
16	6.0	perception	491	diff_vonmises	-0.1701721784794874	-9.750147617421602	2.11520449257672	1.4028229825486942	0.014307248098265482	1.7930199470024655	0.4590660920462941	-0.27041096284458105	0.7294770548908751	93.88697458041932
17	6.0	wm	491	diff_vonmises	-0.14319871959109576	-8.204682264247124	0.9248318101742049	54.94566521246168	0.8815688401983323	55.36163282417933	0.31986943357200914	-0.21607851171339565	0.5359479452854048	95.01019068970244
18	7.0	ltm	491	diff_vonmises	-0.06555362390541573	-3.7559459815682223	1.0940681171455584	126.44893221766647	1.073783687354009	126.90080577747459	0.32041971967726113	-0.2136305363558133	0.5340502560330744	86.36970732988655
19	7.0	perception	491	diff_vonmises	-0.011286092961002692	-0.6466454938577606	3.9509600158229277	1.3412752421486578	2.7475902055793285e-16	2.3094802030498283	0.6566803853801064	-0.36718612929815	1.0238665146782564	68.8982414395272
20	7.0	wm	491	diff_vonmises	0.2852838448130229	16.345560271051355	9.034935858980841	0.5544435363357959	4.620121799544411e-19	1.0556851200602058	0.4870263008515714	-0.16801749590004741	0.6550437967516188	45.18648804773713
0	1.0	ltm	492	diff_vonmises	0.01861517731440491	1.0665710950030756	0.8997880327794718	239.84539728863982	0.8858713270695793	242.0758741697041	-0.07788705768257387	-0.47361599826297507	0.3957289405804012	82.23775292476753
1	1.0	perception	492	diff_vonmises	0.04170036304470552	2.3892548066249337	7.925136028314107	0.7607760396723734	1.0015692271465273e-14	2.784257205317208	0.39678821321595265	-0.4431281872384134	0.839916400454366	48.29321944953787
2	1.0	wm	492	diff_vonmises	0.0852234425597255	4.882943574247868	5.826076687565289	0.35099129749551994	5.964919364743747e-16	2.490144452715041	-0.06628197408188247	-0.39631592717418235	0.3300339530922999	56.469843907688045
3	2.0	ltm	492	diff_vonmises	0.004616509665911925	0.264506519938103	3.5849899138669836	0.6772948819401916	0.12460394776927437	2.035622098968928	0.12473143740657328	-0.30935541364211233	0.4340868510486856	68.02419812146115
4	2.0	perception	492	diff_vonmises	-0.03278044449793561	-1.878181120294551	7.48216775729748	1.1273170075644676	0.008254035502438755	2.440692067949816	0.8165259782115113	-0.387814690008955	1.2043406682204663	49.618845815117794
5	2.0	wm	492	diff_vonmises	0.014648731831980235	0.83931050919141	4.747334776166385	0.4971723148604398	0.09379877784126452	1.9655249433210478	0.07649619664628471	-0.30923979398314344	0.38573599062942815	59.960241635194706
6	3.0	ltm	492	diff_vonmises	0.18019554685082817	10.324444321604346	3.328545633828809	0.6669638957542092	0.22372322318848742	1.4031129142655834	0.18739603561865725	-0.20404330570714774	0.391439341325805	69.28124641755966
7	3.0	perception	492	diff_vonmises	0.05113852927060664	2.9300218977119847	5.149321310883882	1.7793078763852572	0.06281443995151004	2.3902444171802046	1.162578011464225	-0.37229514806477937	1.5348731595290044	59.421035053863704
8	3.0	wm	492	diff_vonmises	-0.07328183653977322	-4.198739948696586	3.268829302369435	0.6742492828764869	0.16651563477811238	1.629085879697596	0.15943520173820325	-0.24051542970977052	0.39995063144797377	70.5336250557562
9	4.0	ltm	492	diff_vonmises	0.2086974269811087	11.957481761257203	0.3547856075779133	112.41463161438591	0.342464104151883	113.78780295658954	-0.0479054133364869	-0.3275792433971514	0.2796738300606645	132.8081185875221
10	4.0	perception	492	diff_vonmises	-0.05647914681258934	-3.236016742861125	2.6883049118465467	2.450239235880226	0.1665741013067577	4.370470884732597	0.6906271282112478	-0.6116802606841418	1.3023073888953896	78.16535831762044
11	4.0	wm	492	diff_vonmises	0.03504528663861077	2.007947016218613	0.8787945009110264	168.4577480580878	0.8634950946827885	170.35911007261487	-0.10891773260512849	-0.38967577254127406	0.28075803993614556	81.39883691444982
12	5.0	ltm	492	diff_vonmises	0.24238449474769347	13.887608568453706	1.3675521829553603	2.212788770010785	0.4019168012721868	3.2142732308494084	0.17185028598148333	-0.2855046665081451	0.45735495248962843	93.17454966624183
13	5.0	perception	492	diff_vonmises	0.017674179486755228	1.01265589094777	2.471369273063482	2.193646178509727	1.8674061333323424e-14	2.9525079660544487	0.814216819685058	-0.46074397713478343	1.2749607968198413	87.4944808390969
14	5.0	wm	492	diff_vonmises	0.019307568523693783	1.1062421890672873	0.5637630850151546	160.96355172820162	0.5502131523290225	162.01267140432225	0.14213008008950823	-0.32315739371307295	0.4652874738025812	114.6229374745892
15	6.0	ltm	492	diff_vonmises	0.29011116480956023	16.62214533321205	0.6133653156888105	98.21577919164424	0.5994299450084171	98.96954718650316	0.05911305894145258	-0.20163380348752824	0.2607468624289808	107.79026419739193
16	6.0	perception	492	diff_vonmises	-0.17752095234978194	-10.1712013447855	1.5543109556556096	1.719597222815448	3.970435350278638e-15	2.403393623630165	0.3785760016508422	-0.3485194409845509	0.727095442635393	108.70144974443802
17	6.0	wm	492	diff_vonmises	-0.12811420703894721	-7.340403358996899	0.532713578255322	157.94739065378414	0.520793873190663	158.9384965473459	0.10485898100203883	-0.2950236193010305	0.3998826003030693	117.02060772443528
18	7.0	ltm	492	diff_vonmises	0.046812723082483076	2.6821714601409297	1.1249098511243951	60.5381966919145	1.0790955020965263	61.74040356176687	0.09038953363463875	-0.3057800404358755	0.39616957407051423	78.5952419541361
19	7.0	perception	492	diff_vonmises	-0.002981835529208323	-0.17084659102579522	0.9794316848056955	117.67954205441069	0.9384334633404894	118.70196614044507	0.5781945444757994	-0.44064074226895045	1.0188352867447499	91.25137115852942
20	7.0	wm	492	diff_vonmises	-0.3466439316438794	-19.861234277015694	0.0003972484691674188	2599.0641110771917	4.543977192451424e-32	2600.5136878201115	-0.06636809019710199	-0.3950138796345186	0.3286457894374166	176.57008471181447
0	1.0	ltm	493	diff_vonmises	-0.039863212953750254	-2.2839938600811216	0.9512036151417728	215.45658276253548	0.9337182595361987	217.91430401008768	-0.09314934831854771	-0.5247130413675087	0.43156369304896103	79.75607255930967
1	1.0	perception	493	diff_vonmises	0.019848877421206043	1.1372569043076195	9.829383870249169	0.7840669148504898	4.918443585825705e-16	3.017213087942645	0.4873477263394626	-0.4802043745021705	0.9675521008416331	43.296387185486765
2	1.0	wm	493	diff_vonmises	0.09021740459856034	5.169076522121652	4.033498794230531	0.4387138007362335	6.919822190321465e-14	2.9071165575241293	-0.12384121974543189	-0.4625756641337744	0.3387344443883425	68.16763247440178
3	2.0	ltm	493	diff_vonmises	0.06616780796120991	3.7911361358094564	4.349860638232869	0.4970108513466391	4.26591621119314e-12	1.897801599651196	0.09787955637836115	-0.3019778614929228	0.3998574178712839	65.57709820560487
4	2.0	perception	493	diff_vonmises	-0.04442545309770065	-2.5453909654546365	7.761388498663574	1.1351959032530046	0.04290974872180779	2.3309880082105283	0.8526392534556826	-0.3715566669079302	1.2241959203636128	48.44673645383705
5	2.0	wm	493	diff_vonmises	-0.017163179026332104	-0.9833777212362832	4.163860026963155	0.5706758516321618	0.10402909095932045	2.073319571866057	0.08329956435353225	-0.3222222319300922	0.40552179628362445	63.6001596124629
6	3.0	ltm	493	diff_vonmises	0.16892650891326294	9.678776008609049	3.8641423831294954	0.44485526279766646	1.2028133400940942e-17	1.183016720420702	0.14732127447918145	-0.188135208386533	0.33545648286571444	69.68740384916984
7	3.0	perception	493	diff_vonmises	0.048696475055399	2.7901024978384545	5.42921656368763	1.677433506166063	0.04407234956812089	2.2035892206686305	1.1532257965519004	-0.3452823177117973	1.4985081142636978	58.060520471756064
8	3.0	wm	493	diff_vonmises	-0.09000286598459675	-5.156784364998953	3.7372437434805894	0.6658013638175846	0.17772062032514574	1.5955675785667844	0.19222677666397248	-0.24020341912049828	0.43243019578447073	66.31273601764912
9	4.0	ltm	493	diff_vonmises	-0.04584594667718043	-2.626779252384259	0.606807005882926	75.35483580552372	0.5850314819905091	76.69125262944223	-0.040672764767645475	-0.28597590440134724	0.24530313963370176	102.26146029942245
10	4.0	perception	493	diff_vonmises	-0.03550134428451037	-2.0340771945433316	2.608316836492783	2.4902562163842155	0.17901046996267161	4.2651334541381996	0.6991430511529467	-0.5880483783243747	1.2871914294773215	79.05533797337466
11	4.0	wm	493	diff_vonmises	0.10231472507023438	5.862201928565786	0.8997478810496776	200.67398296502043	0.8863173670223357	202.6007892074047	-0.1033220674610078	-0.3986368795263857	0.2953148120653779	80.70463537960038
12	5.0	ltm	493	diff_vonmises	0.26455540930126337	15.157908400318433	1.0201016182005413	3.89501413494194	0.48292453795988294	4.931182776423119	0.14476708914586256	-0.29148417615701394	0.4362512653028765	99.18297562370677
13	5.0	perception	493	diff_vonmises	0.040994151556287786	2.3487918688949456	2.339099479440015	2.2091835546723524	1.8887676670913323e-18	2.9913029503798096	0.7757168700016532	-0.4644432567891223	1.2401601267907756	89.9189894423306
14	5.0	wm	493	diff_vonmises	0.05016271287722615	2.874111736791605	0.5663212960050348	160.0805239009154	0.5513200159973187	161.22448313656872	0.1592106277088874	-0.3542887369990453	0.5134993647079327	114.52669374913917
15	6.0	ltm	493	diff_vonmises	0.4354607098272171	24.95006081687055	0.7623376377578878	107.19843240752733	0.7477206662667162	108.00016848486491	0.06371368047824078	-0.2038385629381274	0.2675522434163682	96.04665672139046
16	6.0	perception	493	diff_vonmises	-0.12430743912228101	-7.122291623786117	1.496412775974025	1.8210142872995525	4.2158199475122915e-12	2.5702804711397627	0.37855896460216354	-0.36957634467737854	0.7481353092795421	110.5207726076119
17	6.0	wm	493	diff_vonmises	-0.13307548860060556	-7.6246638534559965	0.4475934496384293	159.58738696209284	0.43519029947991805	160.69223150049407	0.10691063354982333	-0.34328740322238893	0.45019803677221226	126.42179570783757
18	7.0	ltm	493	diff_vonmises	0.05219093313609832	2.9903201975479115	1.2568297675752325	48.032689451166	1.1968702367212167	49.200335123390765	0.08779624395073782	-0.3048929724577105	0.39268921640844834	74.27278306115548
19	7.0	perception	493	diff_vonmises	0.05291452420724302	3.0317789120178533	1.9597651694869773	2.103636530986015	0.18857769068650465	3.0626319639114277	0.4885821442411471	-0.38515830639033455	0.8737404506314816	90.00810740814515
20	7.0	wm	493	diff_vonmises	-0.29021186708117735	-16.62791514836309	0.2230593410759273	4.441451334676522	1.7490488840227858e-10	5.867180619813473	-0.061159042400975694	-0.3752071512580645	0.3140481088570888	165.41106963820027
0	1.0	ltm	494	diff_vonmises	-0.05150539061823799	-2.9510415045977427	1.0349551081516264	183.42535742573676	1.018612223266301	184.76468659848587	0.10332714945086252	-0.33765345572232164	0.44098060517318416	81.63396147549068
1	1.0	perception	494	diff_vonmises	0.04181776007910346	2.395981161223288	12.773695191397504	0.4982198902471016	5.310320370646305e-27	2.019841907168061	0.3814832667239852	-0.3214678237843075	0.7029510905082927	37.9368809526016
2	1.0	wm	494	diff_vonmises	0.11971090355962355	6.8589295356640525	6.112702535692227	0.3230405742551652	1.441443741885201e-18	1.7343507766510968	0.03549374343654427	-0.27602897130485005	0.3115227147413943	55.104655045886744
3	2.0	ltm	494	diff_vonmises	-0.1524262822236249	-8.733382658283672	2.222121420835999	1.3986856491949138	0.5263852607074283	2.0283437670914592	0.2582185278891381	-0.2194009567610271	0.47761948465016524	76.89037704886735
4	2.0	perception	494	diff_vonmises	-0.03754983931595427	-2.151447314198586	6.987265188596638	0.977022841829905	0.03482785170827127	1.7974791336766922	0.7143386517600997	-0.2851687293181325	0.9995073810782322	51.144328320552944
5	2.0	wm	494	diff_vonmises	0.032185660480275574	1.8441025063607965	5.612671049436208	0.37420762875697167	0.16264690671644436	1.314274093667922	0.10050719719811493	-0.21141826537697217	0.31192546257508713	54.599281995292415
6	3.0	ltm	494	diff_vonmises	0.053343878975590384	3.056379128157974	1.2216202298441614	187.77351908729517	1.208934502769396	188.20130181214216	0.2761108187638115	-0.19076317522136677	0.46687399398517826	81.14075946064347
7	3.0	perception	494	diff_vonmises	0.030461341058924604	1.7453062809849458	4.334035577726204	1.9272959834273504	0.32829441659092545	2.4288627315533113	1.0251353164230872	-0.35766539980878803	1.3828007162318752	62.06832065257808
8	3.0	wm	494	diff_vonmises	0.10796712932254272	6.186060836324853	1.7525090271677748	1.9786897811440782	0.7062940271136045	2.7479538414948124	0.15686041677120288	-0.224451462188985	0.3813118789601879	78.11973542475181
9	4.0	ltm	494	diff_vonmises	-0.08349228576551235	-4.783755596264057	1.0489652769519286	186.6733649538482	1.0371935713435352	187.65744337409652	0.07083421981091931	-0.2469965451526619	0.3178307649635812	80.79827205740588
10	4.0	perception	494	diff_vonmises	-0.10024330759345713	-5.743518449536811	2.057751546178069	3.3558241785518277	0.3994858875370105	4.461923694054714	0.7433558171922019	-0.4842532986354029	1.2276091158276048	83.03985893547721
11	4.0	wm	494	diff_vonmises	-0.0631965583346041	-3.620896072325121	1.0485194759052179	182.64498830373293	1.0327110307303686	184.1623941613425	0.016222885489881378	-0.3521742697592103	0.36839715524909167	78.53256717775136
12	5.0	ltm	494	diff_vonmises	0.07724756113336018	4.425959230620352	1.5906615731055573	1.5835998739086874	0.24717975266934425	2.3335859727070205	0.24242382972365634	-0.26010020842188586	0.5025240381455423	95.23110215906888
13	5.0	perception	494	diff_vonmises	-0.00789247591454507	-0.45220555981208704	2.6506484421824843	1.8352818179867751	3.0281686025951338e-18	2.497598941549309	0.721697310914222	-0.39192493208041224	1.113622242994634	84.48071703080154
14	5.0	wm	494	diff_vonmises	-0.1539098325549259	-8.818383830962455	0.5618602200249634	139.6919476358063	0.5493007946785644	140.48925186246123	0.12635029601051428	-0.25629820349704957	0.38264849950756386	115.3224256391854
15	6.0	ltm	494	diff_vonmises	0.13749869496948675	7.878094910308274	0.5432986649394427	110.82011137872199	0.5317962388955192	111.59388829765525	0.044007818836480084	-0.2065440558882763	0.2505518747247564	113.99972419476217
16	6.0	perception	494	diff_vonmises	-0.20839925787512334	-11.940397929903051	1.7714763339348627	1.6891849441686297	1.2029705716200104e-12	2.536366930921385	0.4058846164810891	-0.38025651206369665	0.7861411285447857	102.57380361248617
17	6.0	wm	494	diff_vonmises	-0.16238534413971664	-9.3039948739852	0.7741785893594604	86.09725642565164	0.7442159479794533	87.02842499413022	0.21969864905000236	-0.29917601141622185	0.5188746604662242	99.53591973210283
18	7.0	ltm	494	diff_vonmises	-0.04969355850279192	-2.847231171196423	1.106109431722183	138.1374436804431	1.0836127981927772	139.1902794712908	0.2058221878887494	-0.3082823018469565	0.5141044897357059	81.61805595115527
19	7.0	perception	494	diff_vonmises	-0.028905153797803184	-1.6561433187906653	3.090200513575159	1.8447100950084576	0.13705669725703817	3.064953429457704	0.6718255886461874	-0.44389170781127785	1.1157172964574653	74.37554013762329
20	7.0	wm	494	diff_vonmises	0.26405741413309586	15.129375378964529	9.173759417181518	0.5420662911576382	9.58771026456303e-16	1.7099951041079715	0.37341229062943593	-0.2721541665357186	0.6455664571651545	44.83620769036466
0	1.0	ltm	495	diff_vonmises	-0.08668312795842158	-4.966577387010025	1.1192589607721861	9.270023262079366	0.6157024721462936	13.245951097656455	-0.18137970353489674	-0.8215221441649123	0.6401424406300156	83.46232754378687
1	1.0	perception	495	diff_vonmises	-0.008675927261108107	-0.49709401542399034	12.706893585883801	0.7338690155296425	2.527967738085308e-16	4.322893799223875	0.3444767670592622	-0.6880099165982937	1.032486683657556	38.042360498247746
2	1.0	wm	495	diff_vonmises	0.11861118676772073	6.795920404828355	3.5546229626923966	0.635456306343267	8.758946185733565e-22	4.601626844968469	-0.27453342192091273	-0.731997353864094	0.4574639319431813	72.73709493832183
3	2.0	ltm	495	diff_vonmises	-0.003264522702022106	-0.18704337295051032	2.7292866184159834	0.8435572264664533	1.558391738418912e-13	2.9215688142446385	0.05828281212397424	-0.46275313912173416	0.5210359512457083	83.23898061119678
4	2.0	perception	495	diff_vonmises	-0.08483257165161712	-4.860548320878812	6.168610462216983	1.3000871819755084	0.1406301606361338	3.1499691889466397	0.685556467793156	-0.504394108925151	1.189950576718307	53.16766325351776
5	2.0	wm	495	diff_vonmises	-0.08508221718958058	-4.874851956578391	2.7918573952783716	1.0339883948311845	0.1749587036646827	3.2629556404339044	0.03595553283865349	-0.4763319633345315	0.5122874961731849	73.5788680816488
6	3.0	ltm	495	diff_vonmises	-0.07165531416916761	-4.105547081577271	0.6380487222587142	108.61271361067935	0.6148924371070571	110.08572100551254	0.08183696695478204	-0.3733134347119247	0.4551504016667067	105.00686044931379
7	3.0	perception	495	diff_vonmises	0.047064750410755245	2.6966115623728832	4.0680458247927715	2.248320052738565	0.16054353464069898	3.331901523365037	1.1258690015890411	-0.4986312504987326	1.6245002520877736	65.33402836591665
8	3.0	wm	495	diff_vonmises	-0.07714768405827603	-4.42023669574792	2.6784691961322786	1.018735239826078	0.07011386871375884	2.6906625277633456	0.16627107260585144	-0.40173164982050563	0.5680027224263571	80.09726534477537
9	4.0	ltm	495	diff_vonmises	-0.21926048611329735	-12.562700468278733	0.41911580153983297	85.46902500337467	0.391715017981317	87.6526304155164	-0.06488378654741211	-0.5121253641142989	0.44724157756688676	125.2860613667205
10	4.0	perception	495	diff_vonmises	-0.005368997226524843	-0.3076208812973179	0.9787760476998777	350.64456686371466	0.9580539304178004	352.8438718755655	0.6439702765822517	-0.7204446701282095	1.3644149467104612	88.50854719855269
11	4.0	wm	495	diff_vonmises	0.24317332154544605	13.932805014731748	0.6801743654516829	287.90726756800586	0.6681423998248794	290.68714639914253	-0.11476603558560328	-0.5750857262891955	0.46031969070359224	94.70944323412417
12	5.0	ltm	495	diff_vonmises	0.2207146692993625	12.646019027479154	1.533497422050427	1.6795345607452676	0.1704602107682361	3.380516640207247	0.1038744629591477	-0.4197065006337998	0.5235809635929475	96.84095941258676
13	5.0	perception	495	diff_vonmises	0.07318361166460918	4.193112077906488	1.3032946074748828	5.245524254890868	0.2917788050967688	6.74539800117868	0.6808561781943756	-0.6329188269803399	1.3137750051747155	102.13044483728993
14	5.0	wm	495	diff_vonmises	-0.011952978730303583	-0.6848552338560367	0.5195813312712892	282.53988217587624	0.5086165670057948	284.49050379442275	0.09581013044594044	-0.5202547595045957	0.6160648899505361	116.34987078813421
15	6.0	ltm	495	diff_vonmises	0.6491781994085407	37.19517097801154	0.7922896722604512	156.69350707152563	0.778079773853214	158.14108793102199	-0.00827553383920332	-0.3183212616625468	0.3100457278233435	90.05399398862855
16	6.0	perception	495	diff_vonmises	-0.07521022211362707	-4.3092283033523255	1.2943816910066512	2.279990923245374	1.090258935712525e-14	3.7420814334592825	0.308299517170298	-0.5276759086240542	0.8359754257943522	117.25166652418056
17	6.0	wm	495	diff_vonmises	-0.1761876009759093	-10.094805938454627	0.29507699197114173	200.7077038013411	0.28459538864849093	202.6082764652287	-0.018750114540196705	-0.5036141791855115	0.48486406464531484	142.33949684208133
18	7.0	ltm	495	diff_vonmises	-0.020045649578446064	-1.1485311184431573	2.8019454320201227	1.725539489501049	0.7291125258796507	3.5885858743325505	0.045663700668758356	-0.47247276657181114	0.5181364672405695	62.59154427752645
19	7.0	perception	495	diff_vonmises	0.14532294624248807	8.32639148610111	1.7865408238739502	2.2617794507669697	0.18150592482803457	3.5039916945287297	0.4263595434643753	-0.4349317488542832	0.8612912923186585	93.31012902326597
20	7.0	wm	495	diff_vonmises	-0.5891452583358856	-33.75553682279083	0.0354330877028348	75.10527736359643	0.017910350079882075	77.43825122415853	-0.1657761335007777	-0.5713069982949275	0.4055308647941498	167.70272222772456
0	1.0	ltm	496	diff_vonmises	0.03224010789056367	1.8472221131757216	0.9290113313637077	191.4991471963991	0.9143833717625114	193.44698200541805	-0.10103488341274414	-0.40640736097545016	0.305372477562706	79.56148547240028
1	1.0	perception	496	diff_vonmises	0.10237356112336994	5.86557298609366	9.433187520432078	0.6330111431162698	7.45740350867966e-21	2.5557955631297418	0.35801595542384457	-0.4067674925066618	0.7647834479305063	44.20542045301423
2	1.0	wm	496	diff_vonmises	0.0351168679479769	2.012048323137312	8.31265093228708	0.2578728416684104	0.05789346763516223	2.2915313916109343	-0.09424528624600426	-0.3710305169646429	0.27678523071863864	45.76880216833652
3	2.0	ltm	496	diff_vonmises	-0.0475957818249221	-2.727037421193508	2.395705184625737	1.1585330755222534	0.4248064869933864	2.241476174351216	0.1440844958083325	-0.2805088089252703	0.4245933047336028	74.06449137575137
4	2.0	perception	496	diff_vonmises	-0.005989966448061123	-0.343199796898871	7.609532872470539	1.1241453537018156	0.11719190655054676	2.4032696441050323	0.7866760714036363	-0.3889174647925888	1.175593536196225	48.383047717617046
5	2.0	wm	496	diff_vonmises	0.11708108882583773	6.708252250516805	6.371444108850123	0.32326619670076806	0.09790845004727974	1.71805915594432	0.017733049389914435	-0.2772815205936988	0.29501456998361325	51.77199452290418
6	3.0	ltm	496	diff_vonmises	0.172692909737351	9.894574879783889	1.3981904834334602	82.80005338782699	1.3684709106831219	83.38539447320554	0.20070369004010047	-0.2062608207607468	0.4069645108008473	73.86066224151881
7	3.0	perception	496	diff_vonmises	0.04900060017117146	2.8075275834161437	5.135427141831722	1.7723021589677153	0.21719233572047314	2.4193660164250295	1.085940692315771	-0.37361634163935137	1.4595570339551225	58.143569994153154
8	3.0	wm	496	diff_vonmises	0.08615186622685975	4.936138331974719	3.2577904977613796	0.4838465588707331	0.22992745196678296	1.46482063223149	0.04247907954646124	-0.2177718288200653	0.26025090836652653	67.81207946675934
9	4.0	ltm	496	diff_vonmises	0.2564409929155296	14.69298658820409	0.7017663475639927	150.5895040987393	0.6899811401593545	151.98952315176874	-0.05751476412495293	-0.2894926154651749	0.23197785134022197	93.14944384664827
10	4.0	perception	496	diff_vonmises	-0.08107605904481613	-4.645316002821429	3.129139156509029	2.012987645033182	0.1394788904953448	3.716924467492366	0.6734738489110146	-0.5415581782162262	1.2150320271272408	73.56976537067851
11	4.0	wm	496	diff_vonmises	-0.08342473866824217	-4.779885432672116	0.9051422789385016	114.92935125606812	0.8841315132078471	116.71144481120952	-0.10971536537340398	-0.3649044192923139	0.2551890539189099	79.89791127502247
12	5.0	ltm	496	diff_vonmises	0.12274727046934593	7.032900544644325	1.0988580747512329	4.8956798872958665	0.6025961882572656	6.077063961230406	0.14723222545086356	-0.31669231289730027	0.46392453834816383	92.24124289591757
13	5.0	perception	496	diff_vonmises	-0.005610643595414576	-0.321466198369361	3.1017405158490066	1.8670033470809775	2.772962206118254e-18	2.927750774807851	0.7801855432484059	-0.4634455718801403	1.2436311151285462	77.999190909546
14	5.0	wm	496	diff_vonmises	-0.07583152698775546	-4.344826450430788	0.5162329819453862	160.662448641403	0.5042242878168587	161.91671345775814	0.050688782177402913	-0.3289002526607234	0.37958903483812634	116.38313676872592
15	6.0	ltm	496	diff_vonmises	0.018726589252350847	1.0729545288347513	0.4948524913511567	127.29650878493226	0.4822348716301893	128.4471982061642	0.019551156804567427	-0.2897360442746404	0.3092872010792078	117.7309231741345
16	6.0	perception	496	diff_vonmises	-0.22093608305054183	-12.65870510094789	1.6055238363321627	1.720316061979944	1.3418454774833313e-16	2.824363965150398	0.32702930605582975	-0.4182039615881221	0.7452332676439519	107.14225542918925
17	6.0	wm	496	diff_vonmises	-0.13144061082616582	-7.530992256960858	0.6632108398503457	129.76511450236086	0.6438908427006445	130.98939202843235	0.1412819674801682	-0.34225077344796695	0.48353274092813514	104.8496275693687
18	7.0	ltm	496	diff_vonmises	0.09823882288938877	5.628669935895164	0.8438039786850753	162.10568634050588	0.8265971713326055	163.58496095512945	0.07573007989624614	-0.35617660183574884	0.431906681731995	90.02897742315352
19	7.0	perception	496	diff_vonmises	-0.06579037148606766	-3.7695106187495107	1.4690999827560565	7.398932073644988	0.7152172921652553	8.946786750766734	0.5928841151886406	-0.5475726672713606	1.1404567824600012	84.73599682645829
20	7.0	wm	496	diff_vonmises	0.28145413422543336	16.12613401762591	8.278081185524902	0.48111104226885676	0.04210388236937689	2.0953866084241377	0.19569073510659374	-0.3359275419997235	0.5316182771063173	46.63744787499701
0	1.0	ltm	497	diff_vonmises	0.05453903866284461	3.124856734081817	0.7188440191962662	68.53432000390647	0.6942759970364284	69.78164705498848	-0.032563610298751655	-0.26510046456479497	0.2325368542660433	93.71191286937852
1	1.0	perception	497	diff_vonmises	0.033577349101798694	1.9238403907704507	10.894735193080736	0.6445717217050071	3.706462741518898e-19	1.875194033616671	0.5401406587586204	-0.2984463994177811	0.8385870581764014	41.101348683180305
2	1.0	wm	497	diff_vonmises	-0.010903160680357453	-0.6247050903374692	6.726083704201764	0.2558422257590581	1.3619220201616197e-16	1.6993253062503755	-0.011095863580331156	-0.2704556493098081	0.25935978572947693	52.48922868918689
3	2.0	ltm	497	diff_vonmises	0.10530414846027517	6.0334832719928135	3.473021421060245	0.4075260232556134	1.800998082057374e-16	1.335600195581221	0.07729059761568055	-0.2122884030038836	0.28957900061956415	73.60728058576231
4	2.0	perception	497	diff_vonmises	-0.009573152112325132	-0.548501212672979	8.485481920677724	1.0458764990573663	0.10889951947659446	1.9950465314533892	0.8431355356472134	-0.3241061151015865	1.1672416507488	46.00292389702915
5	2.0	wm	497	diff_vonmises	0.08534303310905803	4.889795607994273	6.65377664442498	0.2707118694470321	0.016865909213538324	1.3805802309871709	0.04947722411406549	-0.2194095064505962	0.2688867305646617	52.3098179402792
6	3.0	ltm	497	diff_vonmises	0.2299176326714304	13.173309987712129	2.511331715045455	1.0861644911131787	0.8152242030037887	1.5191830908412847	0.17613209647687134	-0.15697586456297552	0.33310796103984686	68.88665834830547
7	3.0	perception	497	diff_vonmises	0.024804385358166398	1.4211865944390294	5.4165756891833166	1.7667372616371162	0.3001372769559319	2.1940141325630895	1.1373354866097465	-0.34160737909890987	1.4789428657086563	56.27799978800516
8	3.0	wm	497	diff_vonmises	-0.04089828963366918	-2.3432993853128896	4.48226310105978	0.4623006522626169	0.3781778005458683	1.2486317547323083	0.09807935041958005	-0.19853893292353017	0.29661828334311025	57.662787569936
9	4.0	ltm	497	diff_vonmises	-0.019607641620996718	-1.123435111088164	1.1811200550845737	173.3149093313424	1.1683473209930846	174.36186268584967	0.01961699751790036	-0.2532567575914655	0.27287375510936585	74.0551686047371
10	4.0	perception	497	diff_vonmises	-0.04184481613874123	-2.3975313592507863	2.801041511718292	2.1348431756575983	0.23027299508596166	3.5076069464496524	0.650618210503428	-0.479628135271749	1.130246345775177	75.64694368926394
11	4.0	wm	497	diff_vonmises	-0.03851138400524141	-2.206539766707957	1.002366335382781	129.62382776886736	0.9860628378706986	131.1324086991367	-0.1115397916216736	-0.3122350577384658	0.20069526611679223	74.62209091406686
12	5.0	ltm	497	diff_vonmises	0.24710062565808047	14.157822965250071	1.0435024399038746	7.929633407655085	0.7682356534843805	8.696366916276443	0.18691107965825537	-0.23904757786415043	0.4259586575224058	91.1010110419642
13	5.0	perception	497	diff_vonmises	0.03118687286271875	1.786876191244864	3.4608633912933087	1.5480632698288097	1.1469226785124533e-16	2.3275187417282948	0.72846914509451	-0.3693524023362776	1.0978215474307875	73.74223186148902
14	5.0	wm	497	diff_vonmises	-0.055623267533508526	-3.186978472397095	0.44907331155912045	134.55930158453188	0.4373500842809362	135.5516947653354	0.05865496232717149	-0.284041554077632	0.3426965164048035	125.17507478969183
15	6.0	ltm	497	diff_vonmises	-0.07986848051769828	-4.576126849786951	0.4573819384507456	64.08476133750978	0.43939010828172326	64.85205712038757	0.03292460829420385	-0.2109468150431546	0.24387142333735845	123.94100400682919
16	6.0	perception	497	diff_vonmises	-0.18644473454861032	-10.682496402072339	2.137915927978564	1.1619022498673022	2.921598806734478e-16	2.1009629612536442	0.2895826825917404	-0.3257047087664172	0.6152873913581576	93.9288117046149
17	6.0	wm	497	diff_vonmises	-0.2366485867004929	-13.558965245673987	0.5037185683077564	129.76728848371877	0.4893211669280701	130.86058864493583	0.08141037822317543	-0.3119145392894733	0.39332491751264875	119.31662824433033
18	7.0	ltm	497	diff_vonmises	0.21926485244648117	12.562950640742114	0.8023023764040437	125.89619551753701	0.785673413999359	126.81211925930712	0.12417421853748323	-0.2521620758034224	0.37633629434090565	95.21930515750671
19	7.0	perception	497	diff_vonmises	-0.02321974217578507	-1.3303932280543997	2.445298989117715	1.5200011329276868	4.4525778738526787e-14	2.6106465255769193	0.4687085387190031	-0.40885024875173975	0.8775587874707429	87.96177872184967
20	7.0	wm	497	diff_vonmises	0.2091911973933797	11.985772721928766	6.7101651701944585	0.3241860812439473	3.3907555026673996e-14	1.4955934704400424	0.0902534342714291	-0.23803060628809408	0.3282840405595232	52.547546298658574
0	1.0	ltm	498	diff_vonmises	-0.13730387177259318	-7.866932363375026	1.1277546733615624	137.17792566394726	1.1062939491915955	138.65457604895548	0.01590050199971671	-0.3487344111386861	0.3646349131384028	75.68469890494211
1	1.0	perception	498	diff_vonmises	0.037173802761788194	2.129902006702227	14.958650554589209	0.6192574279169354	2.815090775268259e-16	2.135668731890734	0.6073178440627114	-0.3399022354871136	0.947220079549825	35.027140648596685
2	1.0	wm	498	diff_vonmises	0.0275182141293806	1.5766775293507775	4.497863671726232	0.2992316609899497	0.010376861630156567	2.0247043715281285	-0.08045200431844929	-0.3205240367475669	0.24007203242911762	63.685356619976574
3	2.0	ltm	498	diff_vonmises	0.026390771709601312	1.5120798370534074	3.410188732820772	0.44936213159639044	1.0510332413442973e-14	1.2160341160278403	0.12280061009832538	-0.1931925321785693	0.3159931422768947	74.30862863436633
4	2.0	perception	498	diff_vonmises	-0.02569409182141326	-1.4721630197885858	8.201328930773816	1.0427874450191865	0.19661212960026628	1.7506883956778894	0.8358491296707151	-0.2901059077838769	1.1259550374545921	46.425383970271156
5	2.0	wm	498	diff_vonmises	0.05430444595848815	3.1114155622176316	6.492877881860026	0.284472482152911	0.06787639514274257	1.3062184989356078	0.060913710069828875	-0.20903147702441918	0.2699451870942481	52.0331536534363
6	3.0	ltm	498	diff_vonmises	0.12713689939137868	7.284407755505363	1.2918953277188265	72.67335061223105	1.2697795533165601	73.03550415260847	0.15114725202767687	-0.1343910364291716	0.2855382884568485	77.59258024694122
7	3.0	perception	498	diff_vonmises	0.035094741911855847	2.010780594650222	5.343751616466411	1.6179557526525812	0.3573446101825612	1.8763968701310723	1.0398630832918712	-0.2905483874409921	1.3304114707328631	56.3844556067707
8	3.0	wm	498	diff_vonmises	0.012754701139113003	0.7307905442218785	3.4873690465683054	0.6313283760829118	0.5541021280182815	1.289003305272571	0.118924818034087	-0.18567704190375445	0.30460185993784145	62.267850138465946
9	4.0	ltm	498	diff_vonmises	-0.10956289356275667	-6.277491392387013	1.3348250094234122	178.71800032060688	1.3226599656464049	179.62363133041234	0.029515382423042524	-0.23237332290445067	0.2618887053274932	69.93738425204097
10	4.0	perception	498	diff_vonmises	-0.05164495312885054	-2.9590378474340917	2.545384478363591	2.3299240775392827	0.3130922362723546	3.3070294155439446	0.6852246125935811	-0.4173878691148917	1.1026124817084728	77.78600179746991
11	4.0	wm	498	diff_vonmises	-0.01851605128144825	-1.0608915916747843	1.0698572867683194	145.63037973857504	1.0540857939524853	146.9873312307929	-0.045649111175144697	-0.2997816157909057	0.254132504615761	75.30048102902106
12	5.0	ltm	498	diff_vonmises	0.1697799930139588	9.72767704546044	0.8158708881163783	67.19090363723683	0.7834391835089872	68.06422106474369	0.15371204026017082	-0.25467227049735364	0.40838431075752446	95.7998379254287
13	5.0	perception	498	diff_vonmises	0.04231825523221286	2.4246574211632104	3.1849110107163945	1.5973355430042477	2.800823214346895e-20	2.4387720221479796	0.694052622415128	-0.38628907776326216	1.0803417001783902	76.95114940407092
14	5.0	wm	498	diff_vonmises	-0.07291022923472021	-4.177448418480818	0.42581567265964243	171.5706327285964	0.4159828548897996	172.62592999310502	0.06693241287037921	-0.3095985412276967	0.3765309540980759	128.00747016576628
15	6.0	ltm	498	diff_vonmises	0.044533483539730696	2.551580653841891	0.6087333396903252	72.75950254352826	0.5903851098801559	73.7470697824198	-0.007802466459715163	-0.22181921964572204	0.21401675318600688	103.8073689789662
16	6.0	perception	498	diff_vonmises	-0.16534815184213136	-9.473751250842415	1.7550530190221643	1.5354795511960628	2.63406613014113e-13	2.654021679951714	0.309290972411212	-0.40052504183199233	0.7098160142432044	103.04530346465813
17	6.0	wm	498	diff_vonmises	-0.24393258422287997	-13.976307561690515	0.5644775493328313	57.55855528416125	0.5211177859238803	58.74701719196907	0.17135707296835356	-0.37601836068234373	0.5473754336506973	116.2903326835233
18	7.0	ltm	498	diff_vonmises	0.09805881977262935	5.618356517005648	1.0786750212714376	173.36755003201307	1.0644235687032995	174.27647008899964	0.14245032394362767	-0.25396575026663726	0.3964160742102649	81.81866514136871
19	7.0	perception	498	diff_vonmises	-0.0004835755139055814	-0.027706836022659668	3.2575603236825024	1.2068627612096139	3.3255779513654988e-15	2.299505118506717	0.4622007060959061	-0.36475117494037734	0.8269518810362835	76.06318178344102
20	7.0	wm	498	diff_vonmises	0.34563852748660145	19.803628862098762	3.120307185606986	0.6966666229512266	0.22236137611235868	1.7958204037969019	0.11397187542748333	-0.26172000070968204	0.37569187613716537	70.14379684629444
0	1.0	ltm	499	diff_vonmises	0.1843814807716267	10.56428066858675	2.683979979193487	0.502161269171609	6.948579736081557e-14	1.7525032489404047	0.029545906473716632	-0.27748076102833974	0.30702666750205637	83.93383425381106
1	1.0	perception	499	diff_vonmises	0.028832233826149165	1.6519653121726765	8.64672923312292	0.6649967554919125	0.023402607040851068	2.0436209128196254	0.4351435350941133	-0.3259822026364068	0.7611257377305201	45.95486968433957
2	1.0	wm	499	diff_vonmises	0.13803151210430029	7.908623083385343	3.6467863567140957	0.408464195957784	1.3794197822129661e-16	1.770046986981816	0.016788566191452692	-0.2815087768509933	0.298297343042446	71.78526391985258
3	2.0	ltm	499	diff_vonmises	0.08755524402595079	5.016545956924994	3.764807924626227	0.6820708900296006	0.3936340040446785	1.395993045303261	0.19033234409073452	-0.2063841309377828	0.3967164750285173	63.051113215205106
4	2.0	perception	499	diff_vonmises	-0.030036252521277944	-1.7209505018584041	7.749337770093481	1.0279793927761551	1.2302507391869815e-16	1.734183451619986	0.8458887420915977	-0.2760036600843077	1.1218924021759054	48.842128390655546
5	2.0	wm	499	diff_vonmises	0.060737690692873	3.480013334072644	6.613252258559328	0.3815235222899893	0.06442907224071821	1.33968969485841	0.15616008777390844	-0.21383445978430118	0.3699945475582096	51.89762215765981
6	3.0	ltm	499	diff_vonmises	0.2602796513758183	14.912925516970821	2.3448247484639677	1.1815449576877355	0.6132025249112064	1.5970920965301239	0.24239153187677953	-0.16773473674597253	0.41012626862275203	74.62541021439108
7	3.0	perception	499	diff_vonmises	0.008951970669719577	0.5129101376998327	5.922609377186517	1.5033986355860256	3.6077295560105695e-12	2.149758584273679	1.0834977342751364	-0.34213447495796395	1.4256322092331004	56.0079751266901
8	3.0	wm	499	diff_vonmises	0.035976217463647896	2.0612854235118716	3.972192510797941	0.7529463352672648	0.3790698413243754	1.5976026722965009	0.21823512625060398	-0.2406912490618625	0.4589263753124665	61.74507322533111
9	4.0	ltm	499	diff_vonmises	0.12973994398680183	7.433551224707449	1.0433416460755798	129.97345484830484	1.0264716171874035	131.0250437702194	0.04883158800961951	-0.2551782694919478	0.3040098575015673	80.25458456506573
10	4.0	perception	499	diff_vonmises	-0.07720936028072187	-4.423770482990376	3.110579356707499	1.9184952158463435	4.885963325262511e-14	3.5222131655888504	0.7219630557426838	-0.5580288688301712	1.279991924572855	77.88725646768034
11	4.0	wm	499	diff_vonmises	-0.07210200997381903	-4.131140865909998	1.1769040013280394	210.20633829034736	1.1605002588400075	212.08176242669288	-0.05748729208436032	-0.4287355024575774	0.3712482103732171	71.88944008238292
12	5.0	ltm	499	diff_vonmises	0.08443386429078188	4.837704071842154	1.7732206703641853	1.005890515987697	1.3818290563029886e-11	1.5304728619970511	0.2387873412527689	-0.22967683242664938	0.4684641736794183	102.59760534908193
13	5.0	perception	499	diff_vonmises	-0.03126189651690185	-1.7911747299932048	2.4536339101751805	1.7794622471766113	3.824329262477512e-19	2.0408626174991724	0.7124279276123233	-0.31714515274518645	1.0295730803575098	87.81014215937671
14	5.0	wm	499	diff_vonmises	0.010478479833011724	0.6003726701445194	0.6938588895763309	139.14763526344188	0.6801889641579918	139.71965840180377	0.2016996068923831	-0.2224894580547634	0.4241890649471465	106.35182487700882
15	6.0	ltm	499	diff_vonmises	0.35844359292648204	20.53730506819275	0.5490393003950774	109.58088183691531	0.5374270039460187	109.84157826419333	0.1731346416076569	-0.16067091473801298	0.3338055563456699	120.6020572929086
16	6.0	perception	499	diff_vonmises	-0.07991981993346585	-4.579068381633101	1.918304113436538	1.4352009783104225	3.407287224052398e-19	1.772832831101397	0.439744838333105	-0.266584549761156	0.7063293880942609	98.9430461710816
17	6.0	wm	499	diff_vonmises	0.06281085366318931	3.598796822514574	0.7351883264596306	154.41966525876768	0.7219504518872607	155.0230648347049	0.21578959695213484	-0.23017131924682843	0.4459609161989633	103.26382799435828
18	7.0	ltm	499	diff_vonmises	-0.00783686044213095	-0.4490190279671317	1.2263058105775018	5.170234975866724	0.698567717925065	6.376114534140753	0.17263089690147404	-0.3283363199174526	0.5009672168189266	86.8281085464009
19	7.0	perception	499	diff_vonmises	0.030270237575417573	1.7343568579297448	2.2916479909516148	1.989390877275023	0.09536963797594869	3.2532208643825036	0.5453468454454315	-0.46074495689155837	1.0060918023369898	86.69861535956198
20	7.0	wm	499	diff_vonmises	0.24886198950170077	14.258741679676454	6.660345483346669	0.4931446529008074	2.1921766733383657e-24	1.7727127914746568	0.21526866871924616	-0.2821351874903133	0.49740385620955946	52.749225888154456
