	roi	task	func	loc	loc_deg	kappa1	scale1	kappa2	scale2	maxr	minr	amp	fwhm	tr	roi_labels
0	1.0	ltm	diff_vonmises	1.5067293912533464	86.32923498713248	1.0541703406291716	75.75961790328577	1.0806803594177465	74.20071486928305	0.3184178759352374	0.1789777735465492	0.1394401023886882	27.78121629299659	0	V1
0	1.0	ltm	diff_vonmises	0.04135435475369625	2.369429991873568	0.11256070758320577	2.165883434760678	0.1125071842206679	0.30510208645546355	0.3303908569524403	0.2637870322129019	0.06660382473953841	173.47383417294986	1	V1
0	1.0	ltm	diff_vonmises	0.34109076513520437	19.543061273135216	0.18980175048351217	2.6186327316966196	0.18980123769687782	1.066209292195505	0.2960432286124933	0.20253512993543638	0.09350809867705695	166.1880557265378	2	V1
0	1.0	ltm	diff_vonmises	-0.016967502860888706	-0.9721663028050729	0.4691282874168203	2.072728565726452	0.46914444745311257	0.8579911307388729	0.2927280620260737	0.11454988741851962	0.17817817460755409	153.82175668028106	3	V1
0	1.0	ltm	diff_vonmises	-0.012765054956908477	-0.7313837742834067	1.6272361763335317	2.4519584795902447	1.6272140194162599	1.904799818756002	0.2490208019929242	0.009611358465864778	0.23940944352705942	106.64537716256048	4	V1
0	1.0	ltm	diff_vonmises	0.10814560600265598	6.196286796836849	3.102534705201571	0.39898716073820695	0.0043386686108307015	0.029226800594699634	0.26168330293551245	-0.004093594674429496	0.26577689760994194	77.97668089741822	5	V1
0	1.0	ltm	diff_vonmises	0.19917972745981816	11.41215774801357	4.845526736202065	0.27785439465216083	1.0888654543153404e-19	0.22934772132196865	0.20040344459721796	-0.03648717100705819	0.23689061560427616	62.05416737554452	6	V1
0	1.0	ltm	diff_vonmises	0.061547814555443385	3.526430012280763	5.553272731237843	0.3233884739056492	2.3116970621801556e-14	0.4449944468061533	0.22560704806742793	-0.07081861364729664	0.29642566171472456	57.87813119658884	7	V1
0	1.0	ltm	diff_vonmises	-0.028347386084790607	-1.6241855828863805	5.4006959926758995	0.390607907806869	0.4895414449060982	0.8317204076191453	0.14924139803809647	-0.137960284281573	0.28720168231966947	53.273852146706304	8	V1
0	1.0	ltm	diff_vonmises	0.08226607673035052	4.713498993748476	2.117759335812471	0.9734117008088116	0.5882863000218324	1.7268303310020279	0.06503524827909662	-0.19060449685203534	0.25563974513113197	73.27803250177342	9	V1
0	1.0	ltm	diff_vonmises	-0.15608980564901725	-8.943287088705965	0.8307135672605643	101.9811635872274	0.8149732259417165	102.99321216366152	-0.003719439555066373	-0.2235130035046229	0.21979356394955651	87.98457277932197	10	V1
0	1.0	ltm	diff_vonmises	-0.07113312549592289	-4.075627874490813	0.832521516656783	97.95005423268488	0.8119511128227855	99.26239528370117	-0.016787514352234467	-0.28565651902525424	0.2688690046730198	87.44180429581962	11	V1
0	1.0	ltm	diff_vonmises	0.1210417740506572	6.9351827978787846	0.8290951382129363	114.5648316728944	0.8102712523551813	116.24328105897702	-0.1011847512015791	-0.33933621118346835	0.23815145998188925	83.68243805891416	12	V1
0	1.0	ltm	diff_vonmises	-0.2345575827637011	-13.439159545150575	0.801815497940775	121.30737828115129	0.782667857208904	123.32842856616413	-0.16342700212266692	-0.39457556391728943	0.2311485617946225	82.73474681587221	13	V1
0	1.0	ltm	diff_vonmises	-0.21578449961366458	-12.363541112205324	0.5368276176552904	40.97729345513992	0.506436425986773	42.61366103307807	-0.17222243983482066	-0.29783937275484096	0.1256169329200203	97.518047747278	14	V1
0	1.0	perception	diff_vonmises	-0.32883339830938124	-18.840765886071885	0.19157435161078074	2.4338274620427933	0.19150972727812507	0.4707598872244077	0.37496022747538216	0.2556071618086653	0.11935306566671688	166.5624808128775	0	V1
0	1.0	perception	diff_vonmises	-0.5805336309201761	-33.26212691713152	0.12975497809857645	2.2115187478188996	0.12986000040636575	0.20143018716289002	0.3627072746800581	0.2798097508106161	0.08289752386944199	164.31388877058322	1	V1
0	1.0	perception	diff_vonmises	-0.4420657934687945	-25.328504232863835	0.47747364689938954	2.4160545144236103	0.4774722697925786	0.933228275470469	0.3596356455646025	0.13840139075992575	0.22123425480467673	150.17738821047647	2	V1
0	1.0	perception	diff_vonmises	-0.05412908441320382	-3.101368085783947	15.010100618138207	1.431877537015411	15.011084409319231	0.8737199540190844	0.8552228240827735	7.867310838617195e-14	0.8552228240826948	34.968213254071316	3	V1
0	1.0	perception	diff_vonmises	-0.02264917435795381	-1.2977021001666793	12.026874339903355	0.7607127192504863	0.46963336187721216	0.7325082383641885	0.8643281297966068	-0.13839516457892087	1.0027232943755275	38.308537011259034	4	V1
0	1.0	perception	diff_vonmises	-0.023534815538588934	-1.3484456019800555	15.092095820847737	0.7351537305742111	0.15810743340154523	0.9383165807495578	0.955488808488009	-0.16068861385915825	1.1161774223471672	34.63522719152792	5	V1
0	1.0	perception	diff_vonmises	-0.008232470143637349	-0.4716857941978787	12.395707225308824	0.8104034302778688	0.027424577056080014	1.191049291375831	0.9310828054458509	-0.19100254552696577	1.1220853509728166	38.43882596725476	6	V1
0	1.0	perception	diff_vonmises	-0.029138274904393316	-1.6695001743136992	15.469597184026409	0.7408934550529822	2.9174486301684016e-18	1.430004372375366	0.9249645456603584	-0.2275922645065207	1.152556810166879	34.44347028362415	7	V1
0	1.0	perception	diff_vonmises	-0.01618532774910773	-0.9273509700598495	12.52182210421757	0.7539120441389314	1.7556614839954175e-24	1.5068344973404508	0.8134385995708562	-0.23982015865912096	1.053258758229977	38.30946193742608	8	V1
0	1.0	perception	diff_vonmises	0.009109993111990395	0.5219641567103003	14.52328645698696	0.7269030530176956	3.235834346514823e-11	1.6330647863322352	0.8348586517212043	-0.2599103331255462	1.0947689848467506	35.563885266472795	9	V1
0	1.0	perception	diff_vonmises	-0.006402060571303532	-0.36681105092280497	15.171257472548593	0.7017021561492385	5.267530980626913e-21	1.786892931273407	0.7963773986076431	-0.2843928427880573	1.0807702413957005	34.782774424222254	10	V1
0	1.0	perception	diff_vonmises	-0.011691219879197051	-0.6698575564374392	13.236969815716595	0.7459701977825649	1.4872662197006163e-15	2.112649531249651	0.7356765785049955	-0.3362386159157462	1.0719151944207417	37.25647699481863	11	V1
0	1.0	perception	diff_vonmises	0.007113131756166487	0.4075524287488191	14.576593263818589	0.6668339740954137	1.801673303377449e-17	1.9971091310270666	0.6884639034439508	-0.31784979009669756	1.0063136935406485	35.49417826342412	12	V1
0	1.0	perception	diff_vonmises	-0.004478142517559606	-0.2565786663142546	15.264768158854606	0.6961691506190066	4.719086089155297e-17	2.056538560664434	0.7484674574794506	-0.3273082775887771	1.0757757350682278	34.67265746161061	13	V1
0	1.0	perception	diff_vonmises	-0.034775246035896906	-1.9924748293859391	13.061645583017901	0.719214931428961	2.2287661769788576e-21	1.9256311079316168	0.7202127990226801	-0.3064737093942028	1.026686508416883	37.50299480719502	14	V1
0	1.0	wm	diff_vonmises	0.3941227905185283	22.58157250663033	3.160331647392434e-29	1649.5721568129284	0.00024813808746859017	1647.5032954682424	0.3943276028565492	0.2642033447501717	0.1301242581063775	31.82235028330347	0	V1
0	1.0	wm	diff_vonmises	0.6135917033263543	35.15621494484341	1.8355318359183498e-28	1452.7275613987867	0.00019474188500284874	1450.7595562799283	0.3581804218621585	0.2682506853079474	0.0899297365542111	49.31505552234191	1	V1
0	1.0	wm	diff_vonmises	-1.2358357629744705	-70.80817338976713	1.0320246882392186	19.022056705671517	1.1324642952708643	17.592015549040568	0.2932807830185502	0.1658531710698936	0.1274276119486566	83.20914886781998	2	V1
0	1.0	wm	diff_vonmises	-0.005738552971468988	-0.3287948657774305	10.192845253676062	2.5234948398082153	10.192868899975174	2.1326157288708902	0.4913663118644207	6.890810344202928e-10	0.4913663111753397	42.51197897874272	3	V1
0	1.0	wm	diff_vonmises	-0.02327988724785754	-1.3338392868426625	8.472436263177027	0.49073567418865754	0.8861117575958581	0.3517892981889414	0.44826354228163723	-0.06420570000275157	0.5124692422843888	44.633268294168516	4	V1
0	1.0	wm	diff_vonmises	-0.036293506474032296	-2.07946474469278	10.309303139576185	0.3965042783749779	0.1586158196851819	0.4704666751731823	0.4142387155912976	-0.07826459392919505	0.49250330952049265	41.824531445008745	5	V1
0	1.0	wm	diff_vonmises	0.006505603860474175	0.3727436443891855	7.4915751652804765	0.4172450994906377	0.21020564617192444	0.7456843455914175	0.3025683989399243	-0.12290665168020132	0.42547505062012564	48.34401749099186	6	V1
0	1.0	wm	diff_vonmises	0.0006591961975002241	0.03776915998783511	9.75469876230414	0.2840355413870733	0.05489169711517338	0.86691091616702	0.2034928266135589	-0.13995098212886073	0.34344380874241964	43.04770260861034	7	V1
0	1.0	wm	diff_vonmises	0.04621219667829123	2.64776383169457	2.8634606338297983	0.5615563122995456	0.3086201857873225	1.4756837689841666	0.04580799889441911	-0.20940443241549975	0.2552124313099189	69.93348427335098	8	V1
0	1.0	wm	diff_vonmises	-0.028237988979055568	-1.6179175904368164	2.878033030504551	0.45115797605849944	0.12382361009517394	1.729999685461664	-0.021902149992293785	-0.25875084795534964	0.23684869796305585	73.63159067123374	9	V1
0	1.0	wm	diff_vonmises	0.03207743618458402	1.837901710976895	0.8955133464483972	112.7806604887328	0.8769571189182019	114.12746325710306	-0.02989741206611285	-0.2909511559372415	0.2610537438711287	83.46250078821731	10	V1
0	1.0	wm	diff_vonmises	0.17522183923041154	10.039471866422417	0.7903405503338786	91.32896226921078	0.7722371100040663	92.66525800855086	-0.08293128261911775	-0.2678836335330068	0.18495235091388906	85.58724474432941	11	V1
0	1.0	wm	diff_vonmises	0.05746475060042954	3.292487680176476	0.6711883329855386	72.7657254420202	0.6548684661154847	74.14150173320142	-0.15377102513548024	-0.25077372196097514	0.0970026968254949	84.60318820094287	12	V1
0	1.0	wm	diff_vonmises	-0.2752316953119972	-15.769614529608045	7.345012002671593	0.20515636093899198	7.2129790551928e-17	1.7946333248629545	-0.06786493326209636	-0.28562467385861523	0.21775974059651887	50.188447534381226	13	V1
0	1.0	wm	diff_vonmises	0.2630930935112016	15.074123877232555	2.517539849574595	0.3172260201272162	0.04105952524721384	1.7476372476311792	-0.10195172957685975	-0.2680802622157472	0.16612853263888747	81.62509225489421	14	V1
0	2.0	ltm	diff_vonmises	-1.0905348553426253	-62.48304462304218	0.027879263987981687	1.4437669084897016	4.654148538254807	0.09088366884478871	0.22924986711541992	0.16040084742804184	0.06884901968737808	35.92570094823948	0	V2
0	2.0	ltm	diff_vonmises	-0.8158676753597689	-46.745774439264345	0.057103239630490014	1.3955074542439871	2.8117977255453814	0.11559085302040091	0.21753864461830855	0.1620166778882292	0.055521966730079336	44.962447537760745	1	V2
0	2.0	ltm	diff_vonmises	1.2704429061661184	72.79101663565346	0.5452412689932705	7.398333300906351	0.5690081564943118	6.4576108937295436	0.21118002766005195	0.09713056230153527	0.11404946535851668	130.33297248029734	2	V2
0	2.0	ltm	diff_vonmises	0.009125940825140469	0.5228778933666849	1.2718037718816488	1.3597115559230697	1.2718762820422342	0.800593419415566	0.2193371275258844	0.017241137024249537	0.20209599050163488	118.08268427990829	3	V2
0	2.0	ltm	diff_vonmises	0.06258687979763185	3.585964065296901	1.2039753732029763	0.8477335517157458	6.1778167744005545e-09	0.7921962123781982	0.1959374797628497	-0.09709852094959098	0.2930360007124407	120.5164581384055	4	V2
0	2.0	ltm	diff_vonmises	-0.03610389836776421	-2.068601000442151	2.929485168118992	0.5652603900297366	1.7285162981441588e-16	0.5839020378038169	0.2722941826633558	-0.09188847273488138	0.3641826553982372	80.30075001142762	5	V2
0	2.0	ltm	diff_vonmises	-0.023690897731884843	-1.357388452913056	1.7740193058826674	1.2888285203324188	0.4595748746793346	1.48414128674846	0.26318884836818307	-0.13511766377121176	0.39830651213939483	87.89745703223232	6	V2
0	2.0	ltm	diff_vonmises	-0.033094317991591723	-1.8961647467820728	3.1755477170997612	0.6352971677686627	7.567393409506173e-15	1.0047706131977523	0.2698202837908854	-0.1591643862714689	0.4289846700623543	77.06487711236284	7	V2
0	2.0	ltm	diff_vonmises	0.05973373143285982	3.4224907056708114	3.1275741673751574	0.5854043933389038	5.40477042710401e-13	1.0594703508031171	0.22394060915241393	-0.16786588651119286	0.3918064956636068	77.67046844919511	8	V2
0	2.0	ltm	diff_vonmises	0.03407685442245675	1.9524599374884861	2.5318461856839574	0.6255766672879194	1.94804842628923e-17	1.1402760291872334	0.18995913715202284	-0.17913225654104156	0.36909139369306443	86.44266676529236	9	V2
0	2.0	ltm	diff_vonmises	-0.0565663832520268	-3.24101502266064	3.4799902979981865	0.5900162994770917	6.394958888788821e-18	1.2336344151041492	0.22377333201723376	-0.19594025565176387	0.41971358766899763	73.53408428772354	10	V2
0	2.0	ltm	diff_vonmises	-0.0352334970050088	-2.018730675873831	3.0597278321589116	0.6113750263445727	0.04918305871620528	1.4243580471272121	0.16696452669322304	-0.2169805050072441	0.3839450317004671	76.34928713281269	11	V2
0	2.0	ltm	diff_vonmises	-0.08717903019287049	-4.994990492095054	2.654443886618537	0.7351855590341678	0.14252670837580317	1.652486658246365	0.14699115212083436	-0.23650556648765697	0.3834967186084913	78.23773745084864	12	V2
0	2.0	ltm	diff_vonmises	-0.11920586651644272	-6.829993044592024	6.13899449734229	0.45628236181582704	0.03220269243964487	1.5641720499906364	0.1839789043435754	-0.24798908033903083	0.4319679846826062	54.32306125540967	13	V2
0	2.0	ltm	diff_vonmises	-0.10949505007527477	-6.273604246886851	6.758493433671303	0.3649026889696273	1.0572810139845738e-15	1.070941528351255	0.20042942600116292	-0.17044513803201017	0.3708745640331731	52.35833166757121	14	V2
0	2.0	perception	diff_vonmises	-0.5750878829331338	-32.95010854118213	0.511744108319643	48.304728264254734	0.5279494089532072	46.83692623981792	0.2491303196511634	0.21541404673509845	0.03371627291606494	82.26031856892152	0	V2
0	2.0	perception	diff_vonmises	0.24573807452141946	14.079754535748643	0.33469148631149054	1.6129278512457594	1.2597996282806674	0.26443171532411835	0.24648467769166657	0.170345918426858	0.07613875926480856	206.5803959597161	1	V2
0	2.0	perception	diff_vonmises	0.0790970279592146	4.531925874091267	4.072287180652429	2.7239378127296967	4.072147453647876	2.148812723592617	0.446499418382992	0.00012952140045718467	0.4463698969825348	67.83663210173091	2	V2
0	2.0	perception	diff_vonmises	-0.011406772776361125	-0.6535599379502169	7.896447052815196	0.7097999709310284	1.0949145266348502e-12	0.4653454639268183	0.7081339793739262	-0.07406192251785262	0.7821959018917788	48.38035982243312	3	V2
0	2.0	perception	diff_vonmises	-0.03956599101847133	-2.266964297610929	8.074064230257202	0.9447109415251818	0.02099280336247498	1.0449920473452319	0.8833698814427666	-0.16598407676508947	1.0493539582078562	47.72780736943287	4	V2
0	2.0	perception	diff_vonmises	-0.030311085878160008	-1.7366972932771592	7.641589037103188	1.1359546510563858	0.09702888804896047	1.385331352257698	0.9883933539756551	-0.2215525897215035	1.2099459436971585	48.703179563040095	5	V2
0	2.0	perception	diff_vonmises	-0.013548376271405595	-0.7762647796067313	7.262298809666729	1.254259935496511	0.09545175111798215	1.5168487413830372	1.0585098467497527	-0.24161418980652788	1.3001240365562805	49.957071604203605	6	V2
0	2.0	perception	diff_vonmises	-0.014847600712661724	-0.8507048567309501	7.695942494940558	1.1640704954281411	0.10253835693590213	1.6265330203795625	0.9798791338499515	-0.2609750623401191	1.2408541961900705	48.44656839957216	7	V2
0	2.0	perception	diff_vonmises	-0.016569664933237877	-0.9493718686204493	8.426678083829115	1.1389311416306156	0.08854476165798739	1.5558725261953565	1.0282055667351866	-0.25035323641299934	1.278558803148186	46.389638161753	8	V2
0	2.0	perception	diff_vonmises	-0.013612194127631238	-0.7799212734260335	8.059015311587377	1.2038592884000014	0.11482510957209317	1.726258497389924	1.033684956235333	-0.27873690653454025	1.3124218627698732	47.29189810651815	9	V2
0	2.0	perception	diff_vonmises	-0.008097172821784893	-0.4639338286763099	8.153652364260548	1.139557119998856	0.01518219233115742	1.968477691474436	0.9585886957298706	-0.31296115225430765	1.2715498479841782	47.48726709590596	10	V2
0	2.0	perception	diff_vonmises	-0.018086136314490513	-1.0362592785185998	7.613909049355589	1.1453307263382142	0.010750760900240403	2.0916766805421636	0.9022018795280359	-0.3322975006923461	1.2344993802203819	49.17624656614248	11	V2
0	2.0	perception	diff_vonmises	-0.030425266763397334	-1.7432393761023255	7.5809871545846015	1.1379918706237069	0.0994609217300271	1.9742548271699392	0.8816820064880416	-0.31715955265504453	1.198841559143086	48.7146202275608	12	V2
0	2.0	perception	diff_vonmises	-0.01814659668055353	-1.0397234023218267	8.186081869520583	1.0942848066100002	0.08087580070909528	1.9906798807745123	0.8858308782174575	-0.3201721952798391	1.2060030734972966	46.98645600921847	13	V2
0	2.0	perception	diff_vonmises	-0.02510891463092479	-1.4386348365062736	7.990971242500968	1.0961996240369094	0.17343937622845856	1.7105615856938436	0.8939889931915067	-0.28038915275293164	1.1743781459444382	47.17434050488231	14	V2
0	2.0	wm	diff_vonmises	-1.302573844580937	-74.63198379861733	0.2224391111870717	2.612404759538831	0.2224771465748129	0.8842494641608333	0.339345314496793	0.21749766016535702	0.12184765433143599	131.36041169538737	0	V2
0	2.0	wm	diff_vonmises	-1.0781572894055864	-61.77386233420497	0.2804219259848387	1.5312401287772088	43.36694081502974	0.04023622491683442	0.3063319072032152	0.18054374262386877	0.1257881645793464	64.68488609742172	1	V2
0	2.0	wm	diff_vonmises	-0.19705311021750657	-11.290311555389366	0.7177378131019962	2.974711640821758	0.7177973997392232	1.952001873792543	0.29445441757853175	0.07009801362008405	0.2243564039584477	140.80606819399014	2	V2
0	2.0	wm	diff_vonmises	-0.0011784033430583727	-0.06751753812135163	7.702211676519631	0.6770479038897206	2.1770029974512672	0.20003300277579134	0.6280316353023295	-0.02227107247286844	0.6503027077751979	46.52528163836212	3	V2
0	2.0	wm	diff_vonmises	-0.05912319601481901	-3.3875096029738176	6.746007443354824	0.836798071592944	0.3672031708923306	0.8724895782395589	0.6557275457499416	-0.14239928228055398	0.7981268280304956	50.69942302391925	4	V2
0	2.0	wm	diff_vonmises	-0.020240023181857133	-1.159667905567361	6.8117709055730575	0.7027352590699609	4.701467127082957e-20	0.9857069491075373	0.5603272603882845	-0.15687926435263122	0.7172065247409157	52.147050239630516	5	V2
0	2.0	wm	diff_vonmises	0.040851866686608625	2.340639546373761	4.0488380937396595	0.6857932886086215	3.3848693369889663e-15	1.1534584974562074	0.34716267551006574	-0.18341712285175563	0.5305797983618213	68.03915243679688	6	V2
0	2.0	wm	diff_vonmises	0.007408462437822876	0.42447363036845187	5.688096740883622	0.48080815864174853	8.297648864644747e-20	1.0612616024860535	0.27745644353924626	-0.16889991072412383	0.44635635426337006	57.1694609709518	7	V2
0	2.0	wm	diff_vonmises	0.12027070399733016	6.891003738114217	2.6267935698847973	0.7779709021231933	0.15457091999183406	1.5110429089546427	0.19295178695133147	-0.21286414319579336	0.4058159301471248	78.90801947446982	8	V2
0	2.0	wm	diff_vonmises	0.10270102823224585	5.884335469361601	2.7059042637650155	0.6941564443800237	0.16348291770143808	1.5865083845561248	0.13308330233072824	-0.22622223056585977	0.359305532896588	76.82821127205926	9	V2
0	2.0	wm	diff_vonmises	0.1101842885946487	6.313094705124823	2.2435191837067214	0.9198300279022393	0.31533333734484215	1.8176560737373253	0.12157484129742957	-0.23067221684500974	0.3522470581424393	78.73821222491895	10	V2
0	2.0	wm	diff_vonmises	0.14539536726318064	8.330540904934825	2.929723953298334	0.655856924096263	0.17292083546405582	1.4203213234936547	0.15703624592889665	-0.20414695971530844	0.3611832056442051	74.26338364122256	11	V2
0	2.0	wm	diff_vonmises	0.14782915136378466	8.46998646214548	1.193584146523582	1.5975672047904859	0.39383846920145965	2.4014970961384403	0.058450049839564366	-0.20129980729721147	0.25974985713677584	95.75137221411669	12	V2
0	2.0	wm	diff_vonmises	0.33758770119432185	19.342350493958183	0.4260121673416245	10.713198435031098	0.31798190597853176	11.685197316591484	0.0035794113712026565	-0.25489044086442014	0.2584698522356228	131.39965277797663	13	V2
0	2.0	wm	diff_vonmises	-0.01783626139644026	-1.021942500308143	5.780701561594187	0.29294262151552736	1.4696620065247018e-30	1.0637244304299132	0.10502725653003306	-0.16929438775975322	0.2743216442897863	56.6960582907887	14	V2
0	3.0	ltm	diff_vonmises	0.24461432614179718	14.01536849636162	1.7780822215956066e-29	1042.1776947380406	0.00013751559741473083	1041.039383563219	0.20395155289963895	0.1583825809885866	0.04556897191105236	19.786449389873493	0	V3
0	3.0	ltm	diff_vonmises	0.9797612110351808	56.13618232294224	0.24575721782776486	1.2868744433818269	1.7429069835811244	0.19338644593671098	0.19035704059926875	0.15498399375118943	0.03537304684807932	66.39374240755234	1	V3
0	3.0	ltm	diff_vonmises	0.5704647353298479	32.68522169544783	0.5045793985516626	1.4569760141276022	0.504580900277173	0.7914321654919534	0.1647835657109091	0.06006893948302465	0.10471462622788445	146.4626576168893	2	V3
0	3.0	ltm	diff_vonmises	0.031665021929133515	1.8142721147285505	1.2850421154794542	16.120736170488414	1.2539215988695271	15.930989159348352	0.16548471596582992	-0.01933321866761817	0.1848179346334481	91.1001034106012	3	V3
0	3.0	ltm	diff_vonmises	0.12750919792675228	7.305738890301172	1.8659349781795254	0.5000332858185036	4.5106286884891956e-18	0.5832291856555679	0.15450714347618075	-0.08690040850158574	0.24140755197776648	100.20317739396509	4	V3
0	3.0	ltm	diff_vonmises	-0.017059073634585017	-0.977412921664619	2.662113401756546	0.6145862266637638	4.317994028917365e-15	0.6285051604758276	0.27573415445431515	-0.09819893694005931	0.3739330913943745	84.29107540891368	5	V3
0	3.0	ltm	diff_vonmises	0.005425634616088585	0.31086596468195865	3.518980983761847	0.5297936788865132	4.837269678696238e-14	0.6594513769203405	0.27461361740512	-0.10462168330483322	0.37923530070995326	73.11666296073892	6	V3
0	3.0	ltm	diff_vonmises	0.12514332188814029	7.170184178437575	3.284979365572706	0.5180592230677552	1.8503070491910827e-17	0.899096207125924	0.21408268724047075	-0.14259487889742806	0.3566775661378988	75.73673856575155	7	V3
0	3.0	ltm	diff_vonmises	-0.02838265562867073	-1.626206378896063	1.1168731446790738	83.23283436488207	1.093557308282872	83.54610948801503	0.2505164611768329	-0.1577776054297022	0.4082940666065351	85.85139460805351	8	V3
0	3.0	ltm	diff_vonmises	-0.014897973119301038	-0.8535909830352996	1.2441763373544732	117.79917465153758	1.2265620402996151	118.15844266095945	0.24324419922307072	-0.16402809547007635	0.4072722946931471	80.58936351417594	9	V3
0	3.0	ltm	diff_vonmises	-0.0171889789310397	-0.9848559468878681	2.935211838561154	0.6053905297820106	3.7391809304721735e-21	1.013675337006308	0.23026060457596498	-0.1602264938459875	0.3904870984219525	80.22080260713176	10	V3
0	3.0	ltm	diff_vonmises	0.006647372690182597	0.380866399997987	1.1297788295188589	66.91916154756673	1.0980084153044198	67.43070614150058	0.21310919777951298	-0.18840802481493224	0.4015172225944452	83.48952242904619	11	V3
0	3.0	ltm	diff_vonmises	-0.011563448505736621	-0.6625367959955667	1.0763124110230817	98.3593908104516	1.0567340238787981	98.88365844544192	0.1771520305265497	-0.17898880472794687	0.3561408352544966	84.6716236579908	12	V3
0	3.0	ltm	diff_vonmises	-0.08938480358882843	-5.121371998245683	1.305609953800785	147.3188780001188	1.2869768002542574	148.15095738596645	0.17053525898267452	-0.2531809348954184	0.4237161938780929	74.7875206245586	13	V3
0	3.0	ltm	diff_vonmises	-0.03786634511172532	-2.1695817604876964	1.648511165780099	15.656908453236914	1.510777359999977	16.062573371374008	0.19438504617075658	-0.16593922966148344	0.36032427583224	69.79967194968748	14	V3
0	3.0	perception	diff_vonmises	0.21198816278221452	12.146027034153168	0.3368796547887722	2.061401321272978	0.38864199440459024	0.986391193906067	0.22368439021333372	0.1252148781786496	0.09846951203468413	163.34853728876732	0	V3
0	3.0	perception	diff_vonmises	0.8430654505031399	48.30409216712532	0.5915403062336521	1.011178952266428	13.715097626069587	0.10968298776091838	0.22678601955731315	0.08176303011338884	0.1450229894439243	64.57656426546609	1	V3
0	3.0	perception	diff_vonmises	0.03488992986919703	1.999045729012418	4.4792200696988065	0.5666903628111621	0.18892595369292964	0.1655097532973239	0.43173647869658843	-0.023343694281514067	0.4550801729781025	63.94123519074489	2	V3
0	3.0	perception	diff_vonmises	-0.06252151159257927	-3.582218743033042	2.6912973662027055	1.764407259947364	0.4715898508097606	1.5165700674753968	0.7193970053869994	-0.16558292220653642	0.8849799275935357	76.67377005595344	3	V3
0	3.0	perception	diff_vonmises	-0.04551092229465133	-2.6075837692313653	3.1498727875836057	1.9814355909057535	0.43091986453254966	1.8996021241785723	0.8897612196902103	-0.23507404060984308	1.1248352603000533	71.4978617142886	4	V3
0	3.0	perception	diff_vonmises	-0.052067600475466554	-2.983253756617592	3.8996112828465854	1.790758936024289	0.19754192491362643	1.6837240786535137	1.0344971783219696	-0.24249598606679348	1.276993164388763	67.12002996446921	5	V3
0	3.0	perception	diff_vonmises	-0.02100655984203812	-1.2035872210377856	3.869951502565149	2.0314889761936583	0.22194567654670372	2.059048576911318	1.1297473337518802	-0.29520167521279705	1.4249490089646772	66.98404052367485	6	V3
0	3.0	perception	diff_vonmises	-0.034633788016235185	-1.984369881881044	3.9165391847552398	2.0320626395207326	0.28452684258753513	2.255143748670674	1.0769222956265398	-0.321511716708353	1.3984340123348928	65.78163253910179	7	V3
0	3.0	perception	diff_vonmises	-0.03383011851172442	-1.938323011149207	4.259676315438494	1.9057603372289385	0.1410849129580679	2.159475035801986	1.1224337856419677	-0.32352163433978315	1.4459554199817508	64.57604541737206	8	V3
0	3.0	perception	diff_vonmises	-0.03651223508528363	-2.0919969709762394	3.57513500208615	2.355039257579038	0.36271083091516115	2.8194405937331277	1.0780094161589078	-0.3867913727697461	1.4648007889286538	67.4382980093228	9	V3
0	3.0	perception	diff_vonmises	-0.021493763838188473	-1.2315019537791088	4.2677141449295215	1.855153725783511	0.08830102520677187	2.3798223035670323	1.0645159808836921	-0.362664126461501	1.427180107345193	64.94299188772217	10	V3
0	3.0	perception	diff_vonmises	-0.03364234282309311	-1.9275642566954705	4.475442990025728	1.848918244613836	0.11740517964538214	2.443258404818564	1.0750178659243692	-0.37204541039208194	1.447063276316451	63.095545884177824	11	V3
0	3.0	perception	diff_vonmises	-0.025428853398328295	-1.4569659775811121	4.613660799650815	1.7121743387047288	0.05910032886029817	2.297505052100111	1.0343709766056932	-0.3555324084651183	1.3899033850708116	62.79836609033694	12	V3
0	3.0	perception	diff_vonmises	-0.01981410962074939	-1.1352648560785001	4.017237261789049	1.9425923788039394	0.19442960734505202	2.4614631428826113	1.0257029198199916	-0.36257103975672417	1.3882739595767157	65.63412608996725	13	V3
0	3.0	perception	diff_vonmises	-0.023678138140590922	-1.3566573821836025	3.954955018296761	1.8051317180568252	0.30056721711085216	2.0487543308409992	0.9486084968873818	-0.29250201847078844	1.2411105153581703	65.27365607695418	14	V3
0	3.0	wm	diff_vonmises	-0.6369026797811539	-36.49183551203227	0.3924828561013314	2.199802728819076	0.3924427632436644	1.0187170432710144	0.26791304379577774	0.12219969031071092	0.1457133534850668	150.51920299019739	0	V3
0	3.0	wm	diff_vonmises	-1.0578292316499414	-60.609150419108325	0.6257978482406426	1.1108745815283871	18.77002976972458	0.10039179166643553	0.2632675769466404	0.08593867038769543	0.17732890655894495	60.87544206889433	1	V3
0	3.0	wm	diff_vonmises	-0.11122447712087859	-6.372693117575729	2.405878843202658	2.9542434182063517	2.405918068656219	2.1454970678179217	0.46595081705740493	0.003791009293900834	0.46215980776350407	88.66923339184444	2	V3
0	3.0	wm	diff_vonmises	-0.12196740962333413	-6.988217809560347	3.4159133402158384	1.017354392308395	1.1615317979407577e-15	0.2807127819084346	0.6722719171902977	-0.04390332108708089	0.7161752382773785	74.23504329254357	3	V3
0	3.0	wm	diff_vonmises	-0.07043572976609971	-4.035670042521499	3.9333405116554294	1.0410331425703434	1.5286069938069898e-20	0.7058369347435175	0.6807506076192096	-0.11203344255541375	0.7927840501746233	69.05422193905818	4	V3
0	3.0	wm	diff_vonmises	-0.07936950164023143	-4.547537466041926	4.609292201335847	0.9427725965684705	0.032902510200024576	0.9995903918617245	0.6182057576268405	-0.1557388723160134	0.7739446299428538	63.245091715133526	5	V3
0	3.0	wm	diff_vonmises	-0.054561135449590736	-3.1261227867031707	4.936361932407239	0.770066734316981	0.06529334064091963	1.0250342493639806	0.48923719319754655	-0.15910993250199315	0.6483471256995397	60.66072028309139	6	V3
0	3.0	wm	diff_vonmises	-0.07418745455296535	-4.2506280387035185	5.022322739443256	0.6246937206255401	0.04139267477764869	1.1227612046606616	0.3567913172094277	-0.17584186064801616	0.5326331778574438	60.241692412104186	7	V3
0	3.0	wm	diff_vonmises	-0.0633657459349362	-3.630589807770097	3.3645121708528722	0.7727100518928629	0.08984463834266046	1.4695396437467134	0.28455636062929	-0.22044386784600264	0.5050002284752927	72.19372197046235	8	V3
0	3.0	wm	diff_vonmises	-0.04621137756382786	-2.64771689989288	2.6133402100888494	0.6890961705317693	0.10018541450802208	1.4373220751949494	0.16455746663552867	-0.20876530374066032	0.373322770376189	80.59142511539662	9	V3
0	3.0	wm	diff_vonmises	-0.04202381267818663	-2.4077871055084548	2.561315527030318	0.9300431128450292	0.32356273420910425	1.7033894534127578	0.19088364653329787	-0.22252449222824824	0.41340813876154614	75.48161095621705	10	V3
0	3.0	wm	diff_vonmises	-0.03574234056204822	-2.0478852641246137	4.656780826772921	0.5141432879209729	0.19331128904946723	1.033386972973249	0.2315017988376395	-0.15963840009327648	0.391140198930916	60.3160150617239	11	V3
0	3.0	wm	diff_vonmises	-0.028111804111465515	-1.6106877300854892	3.9726903971827214	0.557455864076042	0.34310308855252647	1.1443154576313261	0.17768744932962557	-0.17171616038817347	0.34940360971779905	62.44654806667435	12	V3
0	3.0	wm	diff_vonmises	-0.10248205897544077	-5.871789455103554	4.283026792268063	0.689438507151039	0.39383919162834724	1.4023242476623015	0.2317034902724847	-0.21485106800263631	0.446554558275121	59.8939461566664	13	V3
0	3.0	wm	diff_vonmises	-0.12443887205675108	-7.129822176220271	4.660772557988289	0.6653639693554312	0.6600989584075131	1.2742559021619686	0.20276074512236186	-0.20358454692631642	0.4063452920486783	55.19917170332465	14	V3
0	4.0	ltm	diff_vonmises	-0.37217124805388563	-21.3238417696041	1.3420721858498233e-27	2439.5132778282987	0.00013259349884601197	2438.081424293667	0.2793346552537628	0.17643506959603883	0.10289958565772395	28.662089609301688	0	V4
0	4.0	ltm	diff_vonmises	2.3528898944383148	134.81066061029722	0.35104630256425134	1.1868852739208264	5.348884504136835	0.07486657839366974	0.2208507813303982	0.12897005045393017	0.09188073087646803	0.6349472462016479	1	V4
0	4.0	ltm	diff_vonmises	1.305174192381934	74.78097275288059	1.1797980787451081	65.3933443904422	1.2022284636139025	64.22698659084752	0.24586334037611834	0.11720438496718133	0.12865895540893701	66.08136138723742	2	V4
0	4.0	ltm	diff_vonmises	0.8700462460739316	49.849977881236946	1.4697282635117024	101.44632509311909	1.4880042140361336	100.33666481241585	0.26191465358384747	0.09018023268397224	0.17173442089987523	73.59462587728416	3	V4
0	4.0	ltm	diff_vonmises	-0.1725124666562366	-9.884236252793698	0.8579088375687326	2.8487411758073327	0.8578757769512677	1.9739211040328932	0.27531701004937825	0.049499364166861334	0.2258176458825169	134.45315562672306	4	V4
0	4.0	ltm	diff_vonmises	-0.050266505892079406	-2.880058638485635	2.8447186191031952	10.395667048158364	2.777267713946256	9.948463448679815	0.37092581637675703	-0.005093201743018805	0.37601901811977584	68.18466995916174	5	V4
0	4.0	ltm	diff_vonmises	-0.03205792464315165	-1.8367837820010253	2.508916500568781	1.36069547577508	1.0459429950112962	1.3869578319125384	0.31764691556646935	-0.10580695274014972	0.4234538683066191	70.55091358762252	6	V4
0	4.0	ltm	diff_vonmises	-0.16486567567822438	-9.446107402934883	2.2022479619279287	1.1722327059888913	0.6256114330206135	1.8118648904176835	0.15083693864470654	-0.19136801567749057	0.3422049543221971	73.88075087345229	7	V4
0	4.0	ltm	diff_vonmises	-0.0414166010513079	-2.372996442017031	0.9922321083403992	109.82900839227256	0.9720110681805294	110.73650758507765	0.1154423352879661	-0.24316651245835352	0.3586088477463196	84.97661964818758	8	V4
0	4.0	ltm	diff_vonmises	-0.13724052611925233	-7.863302924788097	1.177223735049366	87.26344606697609	1.153887181372263	88.07884590327768	0.07585840134034072	-0.21435085301402346	0.2902092543543642	76.80156559496763	9	V4
0	4.0	ltm	diff_vonmises	-0.11072216263500946	-6.3439126175471445	1.0060818062312278	173.39729204177848	0.991361723003449	174.2304195404864	0.19955879621794992	-0.2561658682966339	0.4557246645145838	86.37882564452732	10	V4
0	4.0	ltm	diff_vonmises	-0.08206255726797644	-4.701838187505669	1.1099932105509047	174.8358180475081	1.0939851663716444	175.93149017054	0.1300647897297864	-0.293632119165256	0.4236969088950424	79.77391134260753	11	V4
0	4.0	ltm	diff_vonmises	-0.08945621341912632	-5.125463480137498	0.8699923237439057	183.08066729243077	0.856009048949479	184.44141356802044	0.06058079891025159	-0.32418156310130897	0.38476236201156055	88.21166004972534	12	V4
0	4.0	ltm	diff_vonmises	-0.08542603908920852	-4.894551500331244	0.9837199534574579	191.3599695942536	0.9661036963716065	193.0406345841434	0.07551328901816134	-0.4036028079139662	0.47911609693212753	82.74913814204794	13	V4
0	4.0	ltm	diff_vonmises	-0.058024597269490434	-3.3245645314881225	1.3272340434340153	132.66484055019006	1.3054606560844395	133.65795730925802	0.1278327452931407	-0.2806746699826128	0.4085074152757535	72.8266515825159	14	V4
0	4.0	perception	diff_vonmises	0.7432745633637396	42.58649550017136	1.1903541754977993	52.94617909767212	1.215952966961057	51.922018080038875	0.2174144707838206	0.10461946010573331	0.11279501067808728	77.43083996790601	0	V4
0	4.0	perception	diff_vonmises	-0.10370188765970051	-5.941680490440633	1.528394276451278	0.45774355111189746	1.5369571831027795	5.810912531931652e-06	0.2005371915634793	0.009432988594059066	0.19110420296942024	109.5496149190748	1	V4
0	4.0	perception	diff_vonmises	-0.029456784244055033	-1.6877494152118144	1.4299095513037592	10.97506582033407	1.3749375847744523	10.308501971422228	0.3815729367246137	-0.0063460032021305235	0.3879189399267442	96.62202656106928	2	V4
0	4.0	perception	diff_vonmises	-0.08200631478375403	-4.698615730530395	2.1094594141328207	1.3844330930899067	4.048848982756699e-14	0.34225432813801876	0.6830336781443253	-0.04361878214186649	0.7266524602861918	94.5686132377273	3	V4
0	4.0	perception	diff_vonmises	-0.10850204803183597	-6.216709420749941	1.0868879158394096	157.59423348555177	1.0690348976706903	156.51247837318638	0.9118293495173404	-0.12753257617179514	1.0393619256891355	97.99959677970139	4	V4
0	4.0	perception	diff_vonmises	-0.08370240348925814	-4.795794455035587	1.484123869986641	3.3807082502012626	0.2977105882946702	2.5739046560283256	0.9152661516363519	-0.2227667227877959	1.138032874424148	103.30916967708227	5	V4
0	4.0	perception	diff_vonmises	-0.08257986675057584	-4.731477837560711	0.979860062088477	301.4978501743544	0.9657524722298214	301.190266374832	0.90950245912002	-0.291534988690195	1.201037447810215	96.81806947460402	6	V4
0	4.0	perception	diff_vonmises	-0.05292089595090608	-3.0321439860378856	2.223885295260661	2.1927213950118367	1.2613319684147406e-18	2.4060363337691273	0.8227728342558296	-0.3688202273862298	1.1915930616420594	92.17483792351007	7	V4
0	4.0	perception	diff_vonmises	-0.0623635780850279	-3.573169819606651	2.435157011190101	1.9235700893549539	6.570495943959779e-16	2.3499774744890107	0.7421877597278053	-0.36544706597338955	1.1076348257011948	88.14388628186174	8	V4
0	4.0	perception	diff_vonmises	-0.06591309269623763	-3.776542026148988	0.962827471254962	105.59000448497989	0.9191314838395798	106.30128271821603	0.6445465548678584	-0.4024199135901956	1.046966468458054	93.50929141564254	9	V4
0	4.0	perception	diff_vonmises	-0.07398088108658776	-4.238792250920695	0.9928533281630274	277.78974602378656	0.9739461176208781	278.7544597387345	0.6700451274128056	-0.4603216574834583	1.130366784896264	90.71380938490802	10	V4
0	4.0	perception	diff_vonmises	-0.10927030622149467	-6.260727372593746	2.0352185609180395	2.861127150570848	0.28214710571791085	4.182172050361477	0.6263495111646558	-0.49678198881511726	1.123131499979773	85.61838862360887	11	V4
0	4.0	perception	diff_vonmises	-0.09047759484774391	-5.183984325270329	2.603022211659839	2.0077302735771374	0.047566805650618035	3.0314983188000677	0.7058828608643462	-0.4533805157279514	1.1592633765922975	83.46974652998185	12	V4
0	4.0	perception	diff_vonmises	-0.09918163996824465	-5.682689375366459	2.5716035826537906	2.0286881376910495	0.07436847641357962	2.977226782084182	0.7058220889373595	-0.43402775969474194	1.1398498486321014	83.1324698736455	13	V4
0	4.0	perception	diff_vonmises	-0.09608275832245171	-5.505136535851968	2.189281766916173	2.3905795951214346	0.2904606279993714	2.816678459185031	0.7151937437812813	-0.33085605317506517	1.0460497969563465	84.61014572127377	14	V4
0	4.0	wm	diff_vonmises	-1.3147833243219078	-75.33153545782544	0.2779642408403926	1.4686647981669594	23.62834829614394	0.05633250428273373	0.2872782167946992	0.1736512134710935	0.11362700332360573	67.04046016650726	0	V4
0	4.0	wm	diff_vonmises	-1.3579650380434765	-77.80566540621348	0.4360570130935271	1.2305115083015439	9.979389446087039	0.23589863798005256	0.239360055644344	-0.004383792017693011	0.24374384766203702	67.34140886599172	1	V4
0	4.0	wm	diff_vonmises	0.0028048953752202992	0.16070866697588657	0.9299465925777616	2.901853586493842	0.9299954993618619	1.7722171479731699	0.37097958655189567	0.057766823005372905	0.3132127635465228	131.5621216966734	2	V4
0	4.0	wm	diff_vonmises	-0.14282496755836557	-8.18326785018725	1.772864257488064	2.3075523384263166	1.772904086736224	0.9942682792243428	0.629693876911314	0.01816658141806384	0.6115272954932501	102.58700898516011	3	V4
0	4.0	wm	diff_vonmises	-0.098790870944962	-5.660299959567913	2.6059767829713323	1.2319454290542908	89.98975398246417	0.03562732328631289	0.6839565638076263	0.004055351280439616	0.6799012125271866	90.49501528401578	4	V4
0	4.0	wm	diff_vonmises	-0.1459411377700486	-8.361811251561075	1.5573543190476389	141.03192007179945	1.5414526547516696	140.7015329465309	0.5336973701138206	-0.10186310933273823	0.6355604794465588	79.0213691584836	5	V4
0	4.0	wm	diff_vonmises	-0.10675441187508587	-6.116577244843698	1.135212707630272	125.48158330563543	1.1162305638158116	125.85249446208131	0.3096782478118456	-0.19090356170631217	0.5005818095181578	85.15917145858484	6	V4
0	4.0	wm	diff_vonmises	-0.11663537433901638	-6.682714691554103	1.1002161447717211	123.49222060995113	1.079786446734992	124.55901311891247	0.09231851791809476	-0.2745558572746418	0.3668743751927366	79.38406694104137	7	V4
0	4.0	wm	diff_vonmises	-0.09392549589513254	-5.381534503464432	0.8405059869479486	144.8265720040927	0.8268819359871761	146.05486000228183	-0.0026317515744054276	-0.2720829171551955	0.2694511655807901	87.47605974754345	8	V4
0	4.0	wm	diff_vonmises	-0.0830876348351267	-4.760570805776918	0.9474757566051508	104.92082582844175	0.9260790901880042	106.3104267532851	-0.028662226568918925	-0.30333807515953204	0.2746758485906131	81.19102266280899	9	V4
0	4.0	wm	diff_vonmises	-0.2878275707535336	-16.491305031680564	1.1167713251035016	143.92326195686212	1.1011748193381048	144.98490407675794	0.036781202648086264	-0.2574905923508446	0.29427179499893086	76.95829285011409	10	V4
0	4.0	wm	diff_vonmises	-0.2997993649063272	-17.177238309835033	1.0906936799070366	104.58895885017105	1.0706460198083692	105.68032138519237	0.005982152109154981	-0.253887909281568	0.259870061390723	76.75707970946983	11	V4
0	4.0	wm	diff_vonmises	-0.25628890291808765	-14.68427247324451	1.0676563341856768	113.01177199248934	1.0453103628643292	114.18647915160321	0.06366506676942407	-0.2888909173772589	0.352555984146683	79.66582733600886	12	V4
0	4.0	wm	diff_vonmises	-0.27176786626004484	-15.571151743976374	1.0459474288276482	158.19739570639848	1.0295982767691698	159.56452649234552	0.012726244351298988	-0.31655744610961634	0.3292836904609153	78.58089165693148	13	V4
0	4.0	wm	diff_vonmises	-0.19128559826300556	-10.95985746210521	1.2249401864184362	121.37312835862384	1.2075329139354234	122.45295607842311	-0.021582479420885647	-0.253356495749113	0.23177401632822736	71.00716687993909	14	V4
0	5.0	ltm	diff_vonmises	-0.8711282707022655	-49.911973325769694	0.40816451687214633	1.9857352617991424	2.025446286862888	0.4507202092711377	0.287614430421753	0.1975606651795146	0.0900537652422384	71.8686582519	0	V3ab
0	5.0	ltm	diff_vonmises	-0.8997042035546978	-51.549253673863305	1.3602670683686597	74.67375754559077	1.3848494117462158	73.54158980111679	0.2582254433469693	0.10497323957407301	0.15325220377289628	72.16382059642723	1	V3ab
0	5.0	ltm	diff_vonmises	-0.8822509478658208	-50.54925578412796	0.6283750419394177	1.0255838033869074	6.601065971963243	0.2940524403750671	0.19505677596372356	-0.017309731305788778	0.21236650726951234	57.78520750524043	2	V3ab
0	5.0	ltm	diff_vonmises	0.09844674239508402	5.6405828460499485	2.393239697610058	2.4275392410355625	2.3932447989195795	1.9455753175484782	0.27682185928001335	0.0023094979334571143	0.2745123613465562	88.8986912893213	3	V3ab
0	5.0	ltm	diff_vonmises	-0.15582133070296772	-8.927904607392323	1.5262578227891277	0.7921235144195027	1.501370035226764e-23	0.8841340309515274	0.2060244840528897	-0.12433434381738395	0.33035882787027365	109.57167923082318	4	V3ab
0	5.0	ltm	diff_vonmises	-0.00711836290501377	-0.40785215149977316	2.496586903210807	0.697929262777146	3.690690622946036e-15	0.8919115735321569	0.2690243671031772	-0.13916367777009345	0.40818804487327065	87.05571178348603	5	V3ab
0	5.0	ltm	diff_vonmises	-0.05316238800811704	-3.0459804617020056	2.8200720253247638	0.49612731779595304	3.5437325801114093e-16	1.0045468594135314	0.15374896397991783	-0.1587644792633401	0.3125134432432579	81.86752815513026	6	V3ab
0	5.0	ltm	diff_vonmises	-0.16430772710174574	-9.414139304317324	2.1694331971908585	0.6124665332169227	5.338676763549165e-15	1.3339757040579192	0.11948836333468069	-0.20797794681546297	0.32746631015014366	93.27476529827243	7	V3ab
0	5.0	ltm	diff_vonmises	-0.028503559800473723	-1.6331336776658991	2.0706445060516105	0.9217642185199297	0.25727779011677687	1.4838776137112546	0.18510636341349934	-0.18285082571723368	0.36795718913073305	84.9647255140867	8	V3ab
0	5.0	ltm	diff_vonmises	-0.07234302654619018	-4.144950098299574	2.9989733774337792	0.5778621460264152	3.406162553110174e-13	1.210960519109909	0.18566741638559853	-0.19179045234334263	0.37745786872894116	79.34809754004309	9	V3ab
0	5.0	ltm	diff_vonmises	-0.0012504027474507364	-0.07164280012048975	2.5286071466139863	0.9126318708031991	0.31783184375277185	1.6999115370587958	0.17891334715736695	-0.22208156485784367	0.40099491201521065	75.85104895179654	10	V3ab
0	5.0	ltm	diff_vonmises	-0.013797202177387882	-0.7905214538530354	0.9519559384015165	113.06930668364372	0.9313652902020715	114.02028722402399	0.12979116604945062	-0.2578359352539188	0.3876271013033694	87.10099987617241	11	V3ab
0	5.0	ltm	diff_vonmises	-0.1655713007979953	-9.48653674421617	2.8681875016293037	0.5662279048126999	4.1750458019909996e-16	1.410538648258484	0.1369105695319694	-0.2233279052412958	0.3602384747732652	81.16689684184894	12	V3ab
0	5.0	ltm	diff_vonmises	-0.05383659608318581	-3.0846097389170857	2.44109121840354	1.0248328379529865	0.30607448163357837	2.1415461824814757	0.14334490820677992	-0.2823324068429193	0.42567731504969925	76.16409503317769	13	V3ab
0	5.0	ltm	diff_vonmises	-0.06094491668952797	-3.4918865090863656	3.1864691474432782	0.5264551817438863	1.0249836681046564e-18	1.1167802706561378	0.17902021381103386	-0.17713191736755868	0.35615213117859257	76.93313760857222	14	V3ab
0	5.0	perception	diff_vonmises	-1.1488252862950252	-65.82284030261344	0.7195904462099808	30.214071334396095	0.7503541381358191	29.051327523892212	0.20961286047993433	0.15996616943855546	0.049646691041378865	83.71048523708862	0	V3ab
0	5.0	perception	diff_vonmises	0.21619329649172436	12.386963447996273	0.48721883384537007	1.5199361867104295	0.48721164586023	0.9453873407694927	0.14039181485230076	0.05298442978542596	0.0874073850668748	151.99052085117407	1	V3ab
0	5.0	perception	diff_vonmises	-0.008448266763575447	-0.4840500297535204	3.5717570017426854	0.3693222069147978	3.0425815264540567e-11	0.021500930196927406	0.2633526637424559	-0.003211181292018885	0.2665638450344748	72.56465593638515	2	V3ab
0	5.0	perception	diff_vonmises	-0.032665576462494836	-1.8715996666628358	1.3004370569697357	84.08307263826028	1.279805504013	83.63310274642257	0.49305754292029746	-0.0770749005087481	0.5701324434290456	88.33792066371166	3	V3ab
0	5.0	perception	diff_vonmises	-0.021140402085846194	-1.2112558167285492	1.1691645209404475	122.45059478378096	1.145124160368616	122.19295100496736	0.6421580184768132	-0.1756753176671726	0.8178333361439858	89.4619882991635	4	V3ab
0	5.0	perception	diff_vonmises	-0.07652529759949424	-4.38457657843363	1.2152902778940469	171.90494629946127	1.1917580156997059	171.80103432785455	0.7860455397963051	-0.2535575826553931	1.0396031224516982	86.47712272710959	5	V3ab
0	5.0	perception	diff_vonmises	-0.04466642336583185	-2.55919754480669	0.9490455247551144	247.8168066163419	0.9315658899537611	247.88755781057674	0.7998277829446039	-0.3311154062737387	1.1309431892183426	96.57055696901818	6	V3ab
0	5.0	perception	diff_vonmises	-0.06975521100715378	-3.9966791897544156	1.0254288564883316	224.94208164612922	1.0039312313789777	225.44848463543758	0.740173155221072	-0.3853917624624721	1.125564917683544	91.0936908605295	7	V3ab
0	5.0	perception	diff_vonmises	-0.08405706791882506	-4.816115229993186	1.0464184769608187	257.03453508645555	1.0274828378518788	257.5899809429872	0.7248723219842219	-0.3872346063760048	1.1121069283602267	89.87967201339154	8	V3ab
0	5.0	perception	diff_vonmises	-0.06527456791315969	-3.7399572509641157	1.9141655627467662	3.3120307327255625	0.40937319711240683	3.957553595284521	0.7538438718661017	-0.39901739231782507	1.1528612641839269	86.24655335794517	9	V3ab
0	5.0	perception	diff_vonmises	-0.04271471268585165	-2.4473727600132165	1.4563887317374855	5.0807074062860655	0.5195401138959664	5.778270900932953	0.714858503961348	-0.42058071727914503	1.135439221240493	92.46409043659719	10	V3ab
0	5.0	perception	diff_vonmises	-0.06759820768350852	-3.8730920029138516	2.397633908123306	2.3715814922558356	0.21700883194930073	3.1102727040929126	0.7558808863421532	-0.4016172347276854	1.1574981210698385	82.40737815738595	11	V3ab
0	5.0	perception	diff_vonmises	-0.08857595815642909	-5.075028568690767	2.3716874442447655	2.194599023856701	0.24744727199486413	2.7498343654566493	0.7017891244838608	-0.3453601012243073	1.047149225708168	82.34841606070287	12	V3ab
0	5.0	perception	diff_vonmises	-0.05585554385613497	-3.2002869253644093	2.560248434760001	1.8680567758298459	0.048905044008375934	2.5605666388900126	0.6887285909812084	-0.3812160978201733	1.0699446888013817	84.2715035480579	13	V3ab
0	5.0	perception	diff_vonmises	-0.024362117190844485	-1.3958464950384981	2.451067833674172	1.6455168384395527	5.787618595877644e-12	1.7565041629472646	0.6789770615204753	-0.27243291599349134	0.9514099775139666	87.8599102292821	14	V3ab
0	5.0	wm	diff_vonmises	-0.6926585286263462	-39.68641033403115	0.3583944125360187	1.5268380723451558	5.73350756975616	0.11201415560185472	0.28380407726152945	0.16448576449434946	0.11931831276718	185.34698518581425	0	V3ab
0	5.0	wm	diff_vonmises	-0.8634041949441007	-49.46941638418754	0.6618027173590383	0.9769340288729014	7.74139851916155	0.12263910530233713	0.2102645441347967	0.07210509611995272	0.13815944801484398	72.86154704969863	1	V3ab
0	5.0	wm	diff_vonmises	-0.06374288011259287	-3.652198004459961	1.1049266927794292	10.592031145678117	1.0710603384077775	9.798386515255542	0.34907480606288743	0.01154754761223814	0.3375272584506493	113.00603521429797	2	V3ab
0	5.0	wm	diff_vonmises	-0.027059449405768047	-1.5503922468982925	0.9818672850372013	38.36789035805002	0.9503228769597584	37.44011344196009	0.5378431771984129	-0.03821388128421965	0.5760570584826326	108.11051166551808	3	V3ab
0	5.0	wm	diff_vonmises	-0.10165575369644282	-5.824445650027592	1.1964157874520884	2.1705544131416943	0.10182456489477078	1.6551660871172376	0.5305857274012592	-0.16224809904860127	0.6928338264498605	117.64902370849533	4	V3ab
0	5.0	wm	diff_vonmises	-0.006903045455288725	-0.3955153703750078	2.101405228455889	1.3162516772901034	5.463750514556185e-14	1.233382729496703	0.5032591247774961	-0.18583707467458616	0.6890961994520823	94.75196093927906	5	V3ab
0	5.0	wm	diff_vonmises	0.07146378416967797	4.094573220956372	1.8125406170965404	1.1672589957081634	2.6682411205225075e-16	1.3494861323474565	0.35249741902295173	-0.19966118038071728	0.5521585994036691	101.57738115582723	6	V3ab
0	5.0	wm	diff_vonmises	0.010789403414071023	0.618187279090311	1.8347590840044008	1.041611550378817	3.894572115132627e-18	1.7042658147375922	0.23871371776125105	-0.2582431283653743	0.49695684612662533	101.02459562895876	7	V3ab
0	5.0	wm	diff_vonmises	-0.03701361616976312	-2.1207239910446063	1.9975599788281617	0.8772487648166665	2.4308255725219663e-16	1.634455644808634	0.19209230787646486	-0.2518083307230103	0.44390063859947515	97.07541259509134	8	V3ab
0	5.0	wm	diff_vonmises	0.0720636652871236	4.128943877195598	1.3100094552742714	1.2890692100464576	2.2392718316325747e-16	2.207284791049696	0.16340144996425054	-0.31382898546670746	0.477230435430958	116.69263610052299	9	V3ab
0	5.0	wm	diff_vonmises	0.03350060570161613	1.9194433178345063	0.7065565880886573	4.02950285903347	0.29365788578143603	4.961301436997681	0.11500245842378365	-0.2958970603242399	0.41089951874802355	121.82297104315505	10	V3ab
0	5.0	wm	diff_vonmises	0.16075635434233942	9.210660633725613	0.6218693755547833	131.94188738537116	0.608724831814339	132.80171766411624	0.0989655266548013	-0.24513936459829644	0.34410489125309773	108.21306908028617	11	V3ab
0	5.0	wm	diff_vonmises	0.16474239018314468	9.439043664391635	0.6467452057542272	112.13896326165106	0.6334409750367785	113.12649547380263	0.014837209889208225	-0.22985006186052104	0.24468727174972926	101.73468210798521	12	V3ab
0	5.0	wm	diff_vonmises	-0.038864886827284804	-2.226793986457008	2.092732113041669	0.6318319236411423	0.02729557603734581	1.7667014458462331	0.046075065822791195	-0.26846026829151176	0.31453533411430296	92.66085948520737	13	V3ab
0	5.0	wm	diff_vonmises	-0.00855168554170977	-0.489975489263017	2.388782430865288	0.46294729247847055	5.2764753920118566e-14	1.0698322441946408	0.09532794399298838	-0.1680333101177489	0.2633612541107373	88.99117791739059	14	V3ab
0	6.0	ltm	diff_vonmises	-1.1285835478910353	-64.66307412205694	0.9529963453761776	48.8502784213539	0.9934466392859095	47.332710857312755	0.30570409223632833	0.14207746387864972	0.1636266283576786	43.51106166417251	0	IPS0
0	6.0	ltm	diff_vonmises	-1.0280573440233325	-58.903346909965876	1.5321547958081099	106.87394617471878	1.5515400723216126	105.9748156271492	0.2313504512377662	0.03828324493230184	0.19306720630546437	74.23326974388647	1	IPS0
0	6.0	ltm	diff_vonmises	-0.9005393013345558	-51.59710125212991	1.3147092589778566	74.04862371510687	1.3317769075266166	73.3307928960227	0.16463143433438	0.060659358613914804	0.10397207572046518	78.43620956534616	2	IPS0
0	6.0	ltm	diff_vonmises	0.106081116561227	6.078000264993648	0.48974894340894226	2.8909573294552913	0.4897586514044181	1.732165153771981	0.28369679250210916	0.10653121912428931	0.17716557337781985	152.4937186803059	3	IPS0
0	6.0	ltm	diff_vonmises	-0.08772113009124838	-5.026050528346578	1.2086551178239195	2.530546757135621	1.208672797131576	1.7958771884755085	0.27970839387613566	0.024941274823820803	0.25476711905231486	120.33427552762865	4	IPS0
0	6.0	ltm	diff_vonmises	-0.17653587110717012	-10.114760347106339	1.0272788981588497	56.980323448226954	1.0062432201616514	56.908527349891315	0.251023940058797	-0.08058240275008677	0.3316063428088838	94.5591102395775	5	IPS0
0	6.0	ltm	diff_vonmises	-0.18881974532064325	-10.818574495607933	0.7346261997301778	5.286567720039151	0.47663565068079683	5.677468236753319	0.16314464622961267	-0.17627975177520566	0.33942439800481833	114.23823708948295	6	IPS0
0	6.0	ltm	diff_vonmises	-0.06594144752694461	-3.7781666382773063	1.2879354652509873	0.9482106098398106	3.973444790459724e-20	1.656007785728495	0.11123362219274491	-0.23504401563112745	0.34627763782387233	117.48427760738649	7	IPS0
0	6.0	ltm	diff_vonmises	-0.14943587443655917	-8.562044913061749	0.4425986506648703	58.18705980408677	0.4177444467397618	59.11294734416108	0.052653607444252515	-0.2660177067448908	0.3186713141891433	126.6068379468108	8	IPS0
0	6.0	ltm	diff_vonmises	-0.5473222343565243	-31.359254062298984	0.04553460385601783	27.210297303532258	0.0037356243153222647	28.11346427023869	0.03892717045516392	-0.32195748354845666	0.3608846540036206	169.18444591065588	9	IPS0
0	6.0	ltm	diff_vonmises	-0.17077064360468375	-9.784437143281123	0.5938153446480423	122.1960725203725	0.5780403451325546	123.33077048427292	0.0677083143643955	-0.2956917451859553	0.3634000595503508	108.99510741442965	10	IPS0
0	6.0	ltm	diff_vonmises	-0.22158489145734375	-12.695879084370246	0.8646112254851628	3.1062396289959637	0.3578644086738785	4.496971171836659	-0.010167287641849154	-0.31401136024614773	0.3038440726042986	104.90456987471336	11	IPS0
0	6.0	ltm	diff_vonmises	-0.1563365237550391	-8.957422994910477	1.5412931552424398	1.817710439760259	0.42402433835307646	3.19791697865864	0.05648907548666371	-0.3213823249693595	0.3778714004560232	85.26433249197851	12	IPS0
0	6.0	ltm	diff_vonmises	-0.1906721769448038	-10.924711009508897	0.7813783303713174	145.68774991781618	0.7641003190650073	147.14683260023222	0.04764227402611709	-0.34232017362737643	0.3899624476534935	92.95420479203709	13	IPS0
0	6.0	ltm	diff_vonmises	-0.19518155367307316	-11.183079264273243	1.024388102650815	161.56583536695155	1.0122707735914125	162.00956994603595	0.21708328092975648	-0.17633028595650835	0.39341356688626483	88.0121121802531	14	IPS0
0	6.0	perception	diff_vonmises	-0.3418579212949828	-19.587016083317987	0.14710599854011144	1.1070616654297012	0.6305807550340271	1.5738095800133546e-13	0.20301644849046152	0.15127247009275419	0.051743978397707335	168.74719965344488	0	IPS0
0	6.0	perception	diff_vonmises	0.7351017416267656	42.11822730792997	3.2827270070188646	29.123926273533773	3.2450854988252495	29.108368811602954	0.140374538709235	-0.04616918234668521	0.1865437210559202	51.63123823488027	1	IPS0
0	6.0	perception	diff_vonmises	-0.06758692660399936	-3.8724456446696247	0.5177692990801003	50.51952426433647	0.5068058965216485	50.00099154925768	0.23231387280006288	-0.015123816485052899	0.24743768928511578	134.15605257326388	2	IPS0
0	6.0	perception	diff_vonmises	-0.09303523584502818	-5.330526359924348	0.8452575618194913	57.3191841396468	0.8320785064881896	56.27280513680216	0.4683116556037632	0.000507727761203558	0.46780392784255964	118.81236880106192	3	IPS0
0	6.0	perception	diff_vonmises	-0.06859147749818954	-3.9300021712128155	0.43874633294472853	103.17549874109085	0.4234609553223114	102.21466244543076	0.5146198020857256	-0.0928087531651034	0.607428555250829	138.17923500841493	4	IPS0
0	6.0	perception	diff_vonmises	-0.050716431809240695	-2.9058374946325296	0.3299328289972331	175.0102187260649	0.3166850122335251	174.60211613513573	0.5044578476163082	-0.2555883352326127	0.7600461828489209	145.29197975031857	5	IPS0
0	6.0	perception	diff_vonmises	-0.06471283704238895	-3.7077724428467436	0.2737557690586028	232.6213681783801	0.26231337443915387	232.80602707620852	0.43420668087181014	-0.38278249620261917	0.8169891770744293	149.82728248441742	6	IPS0
0	6.0	perception	diff_vonmises	-0.07878375690278451	-4.513976764714219	0.5344873250935266	5.027613811753838	1.0006714062783683e-17	5.77699889676899	0.3535329774538798	-0.4823333180381593	0.8358662954920391	150.314140545925	7	IPS0
0	6.0	perception	diff_vonmises	-0.07786666722194767	-4.461431396567268	0.43691829657984427	73.80739411598331	0.3994446103124551	74.87184366140278	0.2665195777866636	-0.4434983056084274	0.710017883395091	131.39562862320201	8	IPS0
0	6.0	perception	diff_vonmises	-0.02936630996081923	-1.6825656206279318	0.40852907510223696	209.05402401433093	0.39528494306695283	210.1355553448985	0.26226178183127047	-0.4505954438252253	0.7128572256564958	133.14704473944528	9	IPS0
0	6.0	perception	diff_vonmises	-0.004763016802311596	-0.2729007605223516	1.0530799367682628	2.3430016281670696	1.400634161740415e-17	3.3690038435636978	0.28789392379983714	-0.4358961141787045	0.7237900379785416	126.4047822212045	10	IPS0
0	6.0	perception	diff_vonmises	-0.05046769254505548	-2.8915857845955273	0.9036879656021504	2.729947260979676	1.730633605070844e-15	3.911524064043841	0.26039382034699854	-0.47766274828717215	0.7380565686341707	132.68440844037352	11	IPS0
0	6.0	perception	diff_vonmises	0.03188605267991082	1.826936243890698	1.0597723548313784	2.115847786975369	2.398550473990688e-16	3.1069402493816303	0.2523769055168302	-0.40479616804666985	0.6571730735635	126.11773675533937	12	IPS0
0	6.0	perception	diff_vonmises	0.004425229642220607	0.25354698187542807	1.0791666040029704	2.0061711003508633	4.0265946533432136e-15	2.9300503177538095	0.24912167881904157	-0.3836828225228445	0.6328045013418861	125.35388479753755	13	IPS0
0	6.0	perception	diff_vonmises	-0.06450855906769021	-3.6960681770490256	1.1894546489456497	2.0219130415664726	1.8723262301403558e-16	2.03086554484795	0.43940543852893743	-0.2525612629829142	0.6919667015118516	121.06834525032927	14	IPS0
0	6.0	wm	diff_vonmises	0.24204277935223692	13.8680297184994	0.13127147538392725	1.219369172092175	11.190111186347288	0.11030124208252502	0.20758134249439356	0.07486180507101547	0.13271953742337808	69.19019756096277	0	IPS0
0	6.0	wm	diff_vonmises	0.619034176921512	35.468045711957345	0.018575369694491035	0.29687260753796607	5.017410955890281	0.15569186900759047	0.046784861671676906	-0.08710340988482565	0.13388827155650257	43.16516522934077	1	IPS0
0	6.0	wm	diff_vonmises	-0.40211101429930507	-23.039264015074878	0.6436900031239914	1.5470663656067898	0.6437246484805528	0.9192954532200146	0.1719036015174854	0.04744900829011421	0.1244545932273712	142.74951659672476	2	IPS0
0	6.0	wm	diff_vonmises	-0.3234627599593855	-18.533050975326024	0.5732043596623256	2.2566824462049877	0.5732207656311034	0.7749327811177686	0.38597314714531117	0.12265975609952637	0.2633133910457848	146.90905585899424	3	IPS0
0	6.0	wm	diff_vonmises	-0.2401936150756588	-13.762080409825113	0.8242452987401362	2.600266930765181	0.8241660862137669	1.0009566449298823	0.4930376467036776	0.09482280994155447	0.39821483676212316	135.6840864827735	4	IPS0
0	6.0	wm	diff_vonmises	0.03234445841321483	1.8532009577136175	0.5675354833968703	118.64920389220923	0.5547890497326349	117.96427339753997	0.46108303329332045	-0.10341696629275532	0.5644999995860758	127.33323233193943	5	IPS0
0	6.0	wm	diff_vonmises	0.06799390538509319	3.8957638111776802	0.41624130049384556	98.62004183070361	0.39984517882609977	98.73847950707206	0.2701345284531804	-0.20919120779284128	0.4793257362460217	135.42970475374588	6	IPS0
0	6.0	wm	diff_vonmises	-0.011212630864708997	-0.6424364257859483	0.6263393814311536	115.90743575364925	0.6101772487293868	116.54793055337856	0.18382600290798834	-0.24012801552310314	0.4239540184310915	111.44267416799421	7	IPS0
0	6.0	wm	diff_vonmises	0.009055391892822763	0.5188357372957262	0.5427087974515313	141.45265581044865	0.528110911150484	142.41778954257114	0.14468277272575136	-0.31025698809781055	0.4549397608235619	117.26811683957646	8	IPS0
0	6.0	wm	diff_vonmises	0.03867289774702147	2.2157938224453204	0.5413023076059867	87.78505830774616	0.5194772823013883	88.92699938563707	0.07375472276045159	-0.3115045826894445	0.38525930544989606	115.15874727893502	9	IPS0
0	6.0	wm	diff_vonmises	-0.10542238577137444	-6.040257770899777	0.6057270828211994	131.34672045732867	0.5901580478730314	132.72184420827512	0.024357287115599036	-0.32651971210687236	0.3508769992224714	105.67123464851534	10	IPS0
0	6.0	wm	diff_vonmises	0.0033598816186408958	0.1925070364117069	0.6084372785187334	52.91649215208818	0.572084686503476	54.14909542209993	0.04290248638513461	-0.3044548546815298	0.3473573410666644	107.38017242057128	11	IPS0
0	6.0	wm	diff_vonmises	-0.0780156143909699	-4.469965440722664	1.3233718482659114	0.8999105102687173	6.408991959548853e-19	2.270739550619433	8.293230894040882e-05	-0.3357746767323194	0.33585760904125983	116.2416224420457	12	IPS0
0	6.0	wm	diff_vonmises	-0.0901125645845453	-5.163069631794498	1.5648449277823842	0.8339084591078156	1.9098679712937287e-12	2.223488114486519	0.01672357973212779	-0.3376719592937508	0.3543955390258786	108.45627385564951	13	IPS0
0	6.0	wm	diff_vonmises	0.1796041336021463	10.290558838506755	1.1428184282017853	0.9821750190569715	3.106028460293658e-13	1.4904935332568077	0.12473714779288655	-0.20040399484403576	0.3251411426369223	122.62675618191213	14	IPS0
0	7.0	ltm	diff_vonmises	-0.8675763610838482	-49.70846389542246	0.4645559681083939	2.1990445120703423	0.464543241098204	0.9798124757997847	0.29277809149350703	0.11561833963210583	0.1771597518614012	141.4118835284362	0	LO1
0	7.0	ltm	diff_vonmises	-0.4913870810594561	-28.15440585195971	0.6131527219746009	1.5777998966215525	0.61324072957366	0.6753027525712768	0.24189985392999305	0.07097690351862729	0.17092295041136576	143.0776681519977	1	LO1
0	7.0	ltm	diff_vonmises	-0.45588766895120925	-26.12043936296155	0.3540438560734344	1.7857586907223315	0.3541059730263864	0.634185071579476	0.25313622483273984	0.12469989989486449	0.12843632493787535	156.04360192583616	2	LO1
0	7.0	ltm	diff_vonmises	-0.4534787849975631	-25.98242047908084	0.31590729475653007	3.2533850871530645	0.3159165134293757	1.539101440703957	0.365029568814869	0.1940625159215501	0.17096705289331887	157.9964890964689	3	LO1
0	7.0	ltm	diff_vonmises	-0.2571746566725062	-14.735022425060562	1.2170315526291102	1.0411670446134127	19.910061955462638	0.08653247391723237	0.33151614074608116	0.034898479346884746	0.29661766139919643	137.10383607331786	4	LO1
0	7.0	ltm	diff_vonmises	-0.12386687442982215	-7.097049126305745	1.238227650773689	37.47547792347673	1.2168892482313602	37.2798144293753	0.22188997436618862	-0.03775503828847793	0.25964501265466655	90.08097035343174	5	LO1
0	7.0	ltm	diff_vonmises	-0.5728888493993649	-32.82411320068944	0.4993958530063822	61.660207808579464	0.4828118926204777	61.86169743822986	0.14178295728712698	-0.1349080759928416	0.2766910332799686	124.3877654374739	6	LO1
0	7.0	ltm	diff_vonmises	-0.22167999741420757	-12.701328254305096	0.7387378394739372	60.744678943808154	0.7143744129986389	61.412396670365254	0.09051694522897336	-0.18733380113832432	0.2778507463672977	99.74118298909028	7	LO1
0	7.0	ltm	diff_vonmises	-0.13449856979834068	-7.7062003999906405	2.1358935752045825	0.6031670738865501	0.003159533213573088	1.4744032837659011	0.08832797828932437	-0.22939928115066058	0.3177272594399849	93.76500323342765	8	LO1
0	7.0	ltm	diff_vonmises	-0.16761983120707316	-9.60390889086054	0.827826850838696	27.178565194759955	0.7533126454046475	28.36897159720652	0.035853772773347004	-0.27773734972822517	0.3135911225015722	91.74210385988607	9	LO1
0	7.0	ltm	diff_vonmises	0.04969368591315346	2.8472384712724055	2.5232470004129572	0.7524475671372571	0.12882979029790398	1.9556441642136837	0.09329419651210508	-0.2815153561021561	0.3748095526142612	79.71787302555273	10	LO1
0	7.0	ltm	diff_vonmises	-0.058184131227585714	-3.333705153975999	1.09698508184161	4.523834886679513	0.6081139355755377	5.938927951551327	0.042193062593227415	-0.32844595904077634	0.37063902163400375	88.88780093631183	11	LO1
0	7.0	ltm	diff_vonmises	-0.14051193277148782	-8.050740719032213	1.992728125576762	0.7268122483875702	1.0448298926046984e-13	2.015793169247289	0.05330332539188215	-0.31387067801032165	0.3671740034022038	97.16111225400022	12	LO1
0	7.0	ltm	diff_vonmises	-0.2248118630765793	-12.880770938760941	0.7259436617568905	91.12129408270583	0.7029093444914865	92.63353981293793	-0.03087333372758394	-0.3246567829144933	0.29378344918690935	93.6113510026224	13	LO1
0	7.0	ltm	diff_vonmises	-0.3790692258218842	-21.719066782885488	0.3578906266088234	79.77984193021261	0.34142335229011905	80.57951190331143	0.0642332585989216	-0.255493211212956	0.3197264698118776	135.939163182629	14	LO1
0	7.0	perception	diff_vonmises	0.5318411147935431	30.472251249202753	0.21625501162334573	0.976706045751539	17.596832349238657	0.09042014676715711	0.17889126847440548	0.04061209990181974	0.13827916857258574	70.79707644480062	0	LO1
0	7.0	perception	diff_vonmises	0.6666150476565063	38.19422879063005	2.881919668996015	16.10092825298811	2.9468627306413495	15.968127779646364	0.06924348438849837	-0.04630012760233804	0.1155436119908364	53.74069681173947	1	LO1
0	7.0	perception	diff_vonmises	-1.4322205640202148	-82.06019365020464	2.9978517797299897e-24	1674.6093934539012	0.00020514705399564927	1674.0060224029405	0.1506832291411797	0.04137013511126497	0.10931309402991474	109.42246514372573	2	LO1
0	7.0	perception	diff_vonmises	0.25603518187306046	14.669735328190804	0.6996109498867628	2.5641012041206555	0.6996085976753559	1.0225148337123007	0.4385520048185234	0.10823195191302509	0.3303200529054983	141.22788778104933	3	LO1
0	7.0	perception	diff_vonmises	0.13677951649424194	7.836889018960093	1.7405085860186653	2.9633288288469033	1.7405564249671877	1.8246150431951997	0.5398957015131304	0.0166186607489907	0.5232770407641397	103.44080403411823	4	LO1
0	7.0	perception	diff_vonmises	0.08152050649102635	4.670780965704642	1.143591879274266	120.47630914408131	1.1267403620486636	119.9023528493854	0.5882116686064904	-0.09815337851562767	0.6863650471221181	94.03430896924192	5	LO1
0	7.0	perception	diff_vonmises	0.12200378900029846	6.9903021943217185	1.9944124011263304	1.4703886845882808	3.416598073055514e-11	1.4718414786137433	0.5230193630917492	-0.22022509021070105	0.7432444533024503	97.12262151872869	6	LO1
0	7.0	perception	diff_vonmises	0.05956412004276314	3.412772688860924	0.9325797540277398	141.16023558067292	0.9087197077515398	141.73086170272475	0.4556441762649328	-0.301077692347814	0.7567218686127468	94.20393806145975	7	LO1
0	7.0	perception	diff_vonmises	0.056684976332100866	3.247809905628341	2.243868526976912	1.6280765103962882	0.015503529650732848	2.3608603749566686	0.5184119770402896	-0.3598181011872985	0.8782300782275881	91.14100876742677	8	LO1
0	7.0	perception	diff_vonmises	0.03091026112888742	1.7710275063325327	1.6705070358301535	2.049922323665122	3.4061188348650034e-12	3.077410457478963	0.4581680198896388	-0.4562256647771328	0.9143936846667715	105.41061053960888	9	LO1
0	7.0	perception	diff_vonmises	0.002549935762490394	0.14610055722017307	0.7776896040300725	93.11947246569	0.7337809466027183	94.19238416922887	0.46837601124746797	-0.44145426290923684	0.9098302741567048	102.07740018547668	10	LO1
0	7.0	perception	diff_vonmises	0.09193905580595817	5.2677198700991505	0.8562461923099607	244.98037335166208	0.8401661994766919	245.9688993201763	0.4439581537242532	-0.39480915688671914	0.8387673106109723	96.34967653282334	11	LO1
0	7.0	perception	diff_vonmises	0.06977167969379242	3.9976227759929333	0.9150380217816467	149.122120308171	0.8904966055092274	150.03063470735427	0.4053622891472841	-0.3552093996850072	0.7605716888322913	93.3066138461414	12	LO1
0	7.0	perception	diff_vonmises	0.03584927047468158	2.054011896822208	0.9521478413697337	198.11031244993728	0.9334816489414997	198.98369765077462	0.415173470522177	-0.3477026590925334	0.7628761296147104	91.46860959219617	13	LO1
0	7.0	perception	diff_vonmises	0.0564900088930622	3.2366390942289516	0.9757683196579522	89.67975575324827	0.9401543820471927	90.13172407329532	0.4568600840057151	-0.27245586938775723	0.7293159533934723	92.94517684294749	14	LO1
0	7.0	wm	diff_vonmises	0.6311829819699672	36.16412096736106	1.342343468809142	54.75359534943457	1.3745422652930277	53.562951567182026	0.2676467773768838	0.10542640097190348	0.16222037640498033	83.79436853107131	0	LO1
0	7.0	wm	diff_vonmises	0.8400270508707501	48.130004691715286	1.2784215483788677	1.0218626097307495	7.121264104244235	0.42455658268786856	0.2217787855584572	-0.04132144601075044	0.26310023156920764	59.58806866351716	1	LO1
0	7.0	wm	diff_vonmises	0.5840988371867636	33.46639818930058	2.234007190959802	92.74486663777178	2.2634535247545595	91.62897825244524	0.34114081007132313	0.035915261023441114	0.305225549047882	174.00478014281305	2	LO1
0	7.0	wm	diff_vonmises	0.2871550196250757	16.452770690513166	1.3613488473339777	34.73913202580956	1.3895550706797868	32.85003442742342	0.6056403413367324	0.0887551195282833	0.5168852218084491	139.93337313419622	3	LO1
0	7.0	wm	diff_vonmises	0.23740326436203113	13.60220509057293	1.2469022049098022	2.629699141353695	1.2468727028916309	1.0108254272572348	0.6277373011776136	0.051849257829843245	0.5758880433477703	118.64087966924785	4	LO1
0	7.0	wm	diff_vonmises	0.22140436588207305	12.685535730813063	1.2636762445314416	1.5246423187692641	5.020524153636727e-16	0.8271731897177429	0.46423424130263435	-0.08405360167313435	0.5482878429757687	118.08545905945061	5	LO1
0	7.0	wm	diff_vonmises	0.19973592163666906	11.44402532693688	1.0121088068710202	49.26800715823295	0.9746547379491078	49.27588606938622	0.3465871364643647	-0.134501509789537	0.4810886462539017	94.28249351450486	6	LO1
0	7.0	wm	diff_vonmises	0.2008591041848402	11.508378946569836	1.9886382272353857	0.9591499868051646	6.302720327000085e-16	1.724138596888657	0.2186687882193492	-0.26516529789929466	0.48383408611864387	97.21942087446797	7	LO1
0	7.0	wm	diff_vonmises	0.2770823886422714	15.875651446605769	0.7304571539858378	44.37564142628795	0.6748067427529324	45.35172235655831	0.19765284958572416	-0.30656933070362014	0.5042221802893443	103.01309459944773	8	LO1
0	7.0	wm	diff_vonmises	0.22334814776375783	12.796906228927599	0.6953078327834802	105.04547716540405	0.6744315000055231	106.18567675925703	0.0987770572145763	-0.2991706216754775	0.3979476788900538	101.37095097599783	9	LO1
0	7.0	wm	diff_vonmises	0.26445267026056274	15.152021886895065	0.33382800033780596	103.60109640337825	0.31915467644623097	104.85751125380246	0.005705717530183563	-0.3390713667732044	0.34477708430338794	137.49044221838705	10	LO1
0	7.0	wm	diff_vonmises	0.28678401895066724	16.43151391767305	0.4117937554455407	115.6749393783534	0.3991243706166221	116.92932848786585	-0.01689412186070527	-0.30772239573449767	0.2908282738737924	126.23508295202876	11	LO1
0	7.0	wm	diff_vonmises	0.2165882633674991	12.409593383025634	0.4859590227627653	82.33128772877299	0.4719680349117121	83.5680962000606	-0.08414624041258278	-0.24971682010465734	0.16557057969207456	110.34819051471578	12	LO1
0	7.0	wm	diff_vonmises	0.4341319518230477	24.87392859123742	0.40395257704236626	46.61885487497145	0.38572377413885867	47.9128349528311	-0.13619122452204024	-0.2400995060142952	0.10390828149225495	113.81588751422271	13	LO1
0	7.0	wm	diff_vonmises	-0.37340064388265365	-21.394280961943494	1.371382563506233	0.49802168487335996	6.622527724210059e-13	1.3732179846840822	-0.014193528136708794	-0.20539435851835897	0.19120083038165017	114.03414870762873	14	LO1
